c Large 3-SAT formula for GPU testing
c 1000 variables, 6000 clauses (ratio: 6.0)
p cnf 1000 6000
934 -148 433 0
-865 -698 824 0
992 605 -281 0
-606 -425 -993 0
483 519 613 0
263 130 852 0
644 222 -181 0
104 276 649 0
556 -290 678 0
646 626 730 0
-116 -486 845 0
-594 572 -762 0
-117 901 -317 0
891 -262 215 0
294 286 -343 0
-90 -653 18 0
-358 -88 -514 0
-160 846 930 0
922 -469 -627 0
211 273 -152 0
299 632 -401 0
-422 -904 -143 0
-973 319 590 0
999 -509 -514 0
95 972 899 0
940 916 -219 0
411 975 366 0
-691 611 -45 0
-505 744 -868 0
570 938 -899 0
63 941 -780 0
115 -57 199 0
-79 422 -390 0
-645 165 -509 0
-197 704 -995 0
855 485 527 0
532 -36 72 0
-130 -902 563 0
-381 -813 -772 0
-970 -20 -387 0
-161 78 195 0
556 -747 743 0
-732 53 884 0
468 -225 851 0
-239 265 -281 0
-249 535 -511 0
-355 282 777 0
562 983 550 0
706 643 -476 0
209 277 -572 0
-175 -853 695 0
395 503 -566 0
1000 -37 -506 0
925 801 38 0
347 764 -743 0
-396 355 -522 0
441 752 791 0
-368 -455 -187 0
168 -688 332 0
472 -123 -323 0
-12 191 -30 0
346 -819 -589 0
651 -283 -228 0
131 -775 680 0
793 -319 -265 0
-711 783 -646 0
878 147 995 0
-787 -46 130 0
-331 -72 964 0
494 324 -114 0
-996 859 767 0
-787 500 748 0
25 -539 57 0
775 61 -425 0
-690 -436 764 0
872 32 752 0
-71 620 -686 0
-550 29 932 0
217 -470 -907 0
701 496 -708 0
559 -131 281 0
-240 659 -319 0
-57 -44 -295 0
-937 865 55 0
97 226 235 0
-816 676 186 0
-760 799 -18 0
-649 -755 631 0
831 -221 -427 0
-823 -942 -683 0
20 833 -874 0
520 -561 667 0
871 689 -456 0
11 762 -442 0
-586 422 906 0
132 158 -636 0
-187 -242 -945 0
616 667 44 0
624 648 -4 0
-196 375 -644 0
-371 -478 959 0
-65 392 -254 0
442 506 731 0
623 878 186 0
-602 217 -39 0
-239 -442 34 0
-55 -861 765 0
796 -859 321 0
878 -378 393 0
-806 224 727 0
873 -136 -130 0
-844 -493 814 0
-786 -883 -827 0
-727 129 -821 0
-636 881 -193 0
889 -268 700 0
-925 962 452 0
853 710 -33 0
301 769 -774 0
-69 -176 600 0
158 618 125 0
-789 -776 247 0
-40 -236 -108 0
-666 -53 -274 0
326 -246 946 0
339 882 -482 0
143 -944 431 0
460 -586 14 0
754 -556 825 0
-966 361 -679 0
867 -302 -429 0
-524 -951 411 0
798 607 -158 0
-464 595 207 0
248 -919 -502 0
924 34 -269 0
368 -706 -952 0
-621 -685 -771 0
-262 516 671 0
402 317 918 0
684 -472 -441 0
348 91 489 0
-966 -556 96 0
429 -463 733 0
-370 -526 839 0
610 958 -492 0
-401 209 834 0
-374 712 -921 0
803 -456 -699 0
-701 86 22 0
942 565 344 0
-48 967 -79 0
736 -612 -251 0
-438 -187 -881 0
702 548 -857 0
-479 -643 -364 0
-712 -78 163 0
-973 353 -508 0
-832 -252 -810 0
-703 479 -344 0
-919 -258 -925 0
286 72 318 0
-6 841 -524 0
250 488 396 0
9 -511 -234 0
-951 -161 -691 0
-240 -230 -601 0
719 706 -446 0
602 624 950 0
-996 833 -33 0
377 905 626 0
-354 -578 62 0
-844 -750 -746 0
-698 -644 -660 0
-381 233 696 0
-322 654 845 0
-516 850 750 0
50 -30 -923 0
415 -314 108 0
502 -700 -626 0
455 602 -142 0
835 -312 562 0
-216 560 642 0
-174 395 -207 0
466 -680 -197 0
-179 876 -120 0
-435 96 710 0
-92 736 -972 0
-561 -819 25 0
70 -959 973 0
861 14 -575 0
221 -225 -372 0
-915 39 13 0
-794 53 543 0
79 -599 -677 0
-167 490 -975 0
503 911 -71 0
835 -956 -131 0
-269 -630 576 0
242 426 -458 0
772 540 945 0
586 -314 980 0
-2 865 -39 0
-219 -420 -830 0
108 -331 -237 0
-984 155 682 0
-511 -201 486 0
-607 -195 599 0
-908 155 -646 0
-700 625 -550 0
292 -536 -855 0
-25 115 750 0
283 -302 -659 0
-325 -916 -243 0
849 -155 656 0
965 -797 -415 0
-853 384 -148 0
340 -641 390 0
-304 -811 -95 0
285 -66 979 0
601 501 290 0
820 110 27 0
10 981 -255 0
-197 -140 -690 0
219 922 -918 0
-101 857 -130 0
815 649 -390 0
-244 851 -532 0
-776 57 -484 0
-318 -69 -772 0
-477 -287 784 0
598 -43 -869 0
-102 -570 968 0
917 -161 -865 0
-806 567 854 0
-30 532 -718 0
504 929 558 0
-274 731 -679 0
228 755 -886 0
238 401 -817 0
-44 -965 -969 0
200 693 -799 0
690 319 69 0
406 521 528 0
53 767 -560 0
276 -692 -376 0
-534 -8 -637 0
-637 17 -673 0
345 636 -664 0
-973 386 877 0
-441 722 942 0
317 -369 557 0
-20 -284 534 0
827 -292 -80 0
-134 862 704 0
-19 221 51 0
-3 -418 343 0
-240 440 -579 0
-35 -124 -872 0
-475 -24 -999 0
-657 292 -731 0
933 600 -865 0
828 -478 -462 0
-364 -530 -207 0
515 348 70 0
-321 68 715 0
-655 838 -804 0
270 -684 34 0
513 -888 -311 0
-684 233 -903 0
76 -375 -110 0
702 -525 606 0
729 163 -102 0
-815 401 -458 0
-603 494 558 0
-603 -170 791 0
702 384 622 0
713 908 791 0
455 -797 -121 0
-560 295 -607 0
659 -105 -326 0
-54 -905 924 0
154 528 -577 0
-254 874 -485 0
31 -144 302 0
-818 310 -992 0
962 565 -356 0
-803 585 -655 0
-263 893 -456 0
873 -187 -655 0
375 999 -827 0
-995 -426 -720 0
353 156 841 0
931 -412 60 0
-796 383 -581 0
-291 -724 563 0
717 -308 -959 0
-420 765 -100 0
616 -17 867 0
-394 -772 312 0
409 20 -732 0
-642 931 466 0
-916 -489 100 0
926 469 -356 0
-166 -741 17 0
-5 -898 -445 0
461 730 -533 0
-46 829 -932 0
-900 -210 -228 0
762 507 -228 0
-882 458 55 0
125 301 -381 0
-630 -241 860 0
-28 -477 737 0
266 -675 301 0
532 656 -826 0
-277 -270 616 0
893 -466 -891 0
46 -781 718 0
-718 297 -601 0
764 557 -953 0
-550 737 -969 0
939 864 -373 0
-255 -615 -913 0
723 -972 -377 0
151 -797 668 0
622 -722 -799 0
433 -896 -986 0
-459 -154 932 0
504 -49 210 0
-541 587 366 0
-452 -268 94 0
205 706 244 0
-594 118 958 0
-320 766 794 0
-920 169 792 0
254 589 816 0
469 212 -186 0
988 -917 736 0
-540 772 -642 0
219 818 -239 0
-898 -911 -828 0
-251 964 497 0
714 -546 633 0
876 559 -311 0
495 733 529 0
-808 871 -952 0
-995 -100 617 0
-72 433 574 0
-332 712 89 0
195 -393 -529 0
594 -747 -860 0
-498 -616 -297 0
-286 -83 926 0
-88 911 454 0
486 -567 256 0
-157 -947 908 0
178 870 315 0
-871 850 98 0
882 248 803 0
888 -872 -632 0
-179 375 5 0
-822 307 162 0
-212 791 311 0
680 -300 -544 0
-937 -812 199 0
951 235 85 0
965 -264 -66 0
564 -211 664 0
263 692 15 0
-718 -183 555 0
507 -890 -524 0
-242 333 -547 0
-426 258 -528 0
-112 356 -295 0
-175 -13 -964 0
583 530 -775 0
74 -235 -984 0
393 -72 516 0
801 496 -431 0
2 -895 -576 0
-637 176 -700 0
537 -780 -136 0
940 -169 -423 0
527 385 195 0
-250 319 -733 0
-559 645 510 0
568 507 -221 0
-438 -270 461 0
925 -320 42 0
-716 -338 218 0
-634 -758 549 0
9 -916 389 0
-25 641 16 0
-354 381 -824 0
812 939 36 0
902 281 249 0
-469 -34 -298 0
-446 -649 -685 0
311 -351 -35 0
-530 -902 -384 0
647 -394 793 0
-488 484 590 0
615 -849 647 0
512 -763 156 0
133 997 715 0
-452 -168 -719 0
-445 809 -272 0
301 -548 -631 0
654 -575 471 0
-538 558 147 0
-394 505 -159 0
941 -683 49 0
34 -932 715 0
289 779 867 0
-82 -930 -302 0
338 230 251 0
497 -181 861 0
326 882 291 0
-331 -30 -824 0
170 -565 -884 0
-230 -216 -903 0
858 -548 -485 0
206 -213 -337 0
-121 -492 322 0
149 790 323 0
221 -618 -832 0
312 -814 -534 0
136 247 802 0
-121 647 413 0
-441 61 -71 0
236 -696 -691 0
-259 455 -204 0
797 126 141 0
11 610 631 0
572 652 -529 0
892 613 719 0
449 777 -248 0
478 362 588 0
-716 49 -915 0
-20 710 -66 0
-935 -617 -876 0
826 -39 -357 0
611 595 -923 0
-733 -704 896 0
-28 839 -25 0
542 429 -506 0
-583 161 938 0
943 894 518 0
504 993 416 0
-891 -478 508 0
973 -843 -681 0
417 873 216 0
819 -714 551 0
187 74 856 0
-483 -895 305 0
-311 -156 858 0
133 187 839 0
743 -275 926 0
174 -765 451 0
501 -85 983 0
862 571 -229 0
755 271 -874 0
-27 362 -79 0
301 39 436 0
289 820 -403 0
769 -682 893 0
686 -251 768 0
873 202 -679 0
-333 -852 -931 0
-975 345 -799 0
-313 756 -557 0
199 -75 -994 0
682 683 17 0
-270 -810 -867 0
920 852 821 0
-24 832 -808 0
-801 541 -456 0
-943 199 328 0
-808 200 -421 0
-912 -483 3 0
-406 -791 927 0
471 741 -322 0
155 -105 630 0
346 -305 222 0
-644 561 -228 0
858 -400 507 0
68 190 506 0
-467 -743 -894 0
-866 81 -902 0
686 -304 -732 0
96 398 -89 0
637 -134 467 0
-986 772 -282 0
-511 366 -695 0
-920 585 740 0
-749 -252 976 0
232 -702 -565 0
395 30 -850 0
333 -607 43 0
667 688 795 0
729 253 589 0
922 -329 -857 0
787 -694 -218 0
-949 675 -795 0
-22 75 680 0
-756 -220 -798 0
-699 -26 582 0
150 655 147 0
-234 436 -478 0
732 272 -99 0
-50 784 82 0
-761 -691 -412 0
76 -422 -666 0
-389 -703 88 0
164 610 574 0
-78 795 27 0
131 464 446 0
466 283 28 0
-910 -195 -207 0
150 -824 -439 0
-780 885 68 0
-132 220 769 0
779 -326 -1000 0
742 421 554 0
-467 -757 495 0
844 507 140 0
-953 -623 533 0
725 211 694 0
-739 -50 174 0
-606 246 478 0
-961 -687 -180 0
-673 -812 -115 0
-358 400 510 0
-121 458 -720 0
-361 -568 -222 0
-794 -603 319 0
-442 954 -422 0
-267 950 738 0
445 110 -986 0
-881 671 676 0
-783 20 -773 0
-29 630 -247 0
341 -902 970 0
340 345 -646 0
-323 -738 -869 0
-939 -448 763 0
444 734 521 0
-639 921 462 0
-886 -974 586 0
604 -960 -200 0
-559 639 -944 0
-510 657 -496 0
593 160 -912 0
-51 -594 731 0
114 300 616 0
739 -594 -142 0
313 347 311 0
586 581 372 0
-564 303 -36 0
678 -834 638 0
740 -628 -570 0
484 227 -894 0
236 348 -940 0
717 163 164 0
332 -213 -251 0
511 93 -45 0
-440 -511 41 0
41 468 -836 0
-678 -824 904 0
299 627 -916 0
320 751 -47 0
-412 -815 503 0
-696 961 368 0
-914 33 -783 0
827 525 803 0
-463 -771 -195 0
905 195 989 0
849 -843 -344 0
189 -770 -931 0
580 -897 -396 0
166 -334 -209 0
901 811 -273 0
599 577 960 0
-794 -276 -102 0
56 409 964 0
-965 -311 -632 0
-835 30 -604 0
203 529 -599 0
885 -808 -347 0
785 -114 333 0
-816 212 -211 0
-215 -350 -999 0
712 -335 -829 0
723 551 412 0
841 -909 -501 0
-782 700 -895 0
419 -599 -949 0
-957 -510 141 0
-618 939 940 0
-931 141 433 0
-533 -442 -506 0
-546 -187 -895 0
-935 782 557 0
604 -659 -374 0
-29 373 232 0
102 -995 -17 0
-998 -39 -917 0
105 -693 811 0
990 410 -368 0
-200 976 -885 0
-644 499 839 0
594 749 -219 0
325 -497 164 0
639 161 476 0
-976 431 239 0
665 -105 580 0
-10 -865 -417 0
-261 -579 442 0
-327 538 -259 0
508 724 606 0
-996 -50 -729 0
-949 30 -453 0
325 -805 464 0
234 982 -700 0
646 462 265 0
-580 -846 -652 0
-198 790 120 0
-282 812 -251 0
-733 -320 313 0
668 -532 627 0
-565 922 -164 0
-70 399 -901 0
-120 -372 -741 0
526 -402 41 0
-167 484 -762 0
-132 -392 -226 0
-946 897 -825 0
237 501 -386 0
59 185 -780 0
25 163 886 0
862 507 126 0
-34 -153 981 0
764 342 -4 0
-993 531 898 0
201 -114 -12 0
718 968 786 0
509 239 -805 0
415 -429 -31 0
479 -269 -585 0
-184 883 428 0
-253 82 -61 0
-693 260 981 0
207 -690 691 0
712 -314 -73 0
507 149 367 0
672 -225 -199 0
-896 -809 -646 0
-866 187 -276 0
98 -36 42 0
554 -291 536 0
-292 -267 114 0
436 -250 -896 0
632 207 316 0
116 185 590 0
907 435 -404 0
-549 522 -73 0
-539 605 -822 0
-207 440 -528 0
-210 -989 80 0
-952 -369 -514 0
-999 -228 -741 0
-214 -434 585 0
440 -547 -481 0
404 997 43 0
955 635 -236 0
-955 215 588 0
-136 -859 731 0
-356 -450 -473 0
724 509 39 0
-906 674 -626 0
-668 552 -535 0
-704 976 449 0
-377 -518 -894 0
-27 -254 -584 0
-924 -658 -629 0
989 114 -871 0
-998 -653 782 0
-823 208 503 0
-822 814 -377 0
779 531 51 0
43 -133 875 0
729 672 988 0
-77 -926 -936 0
755 -534 -778 0
-637 -786 -436 0
-765 -605 963 0
-895 -45 -215 0
9 519 423 0
-279 310 340 0
880 -330 -205 0
71 -7 -920 0
404 -484 -378 0
517 -988 57 0
-246 -88 -919 0
390 -53 966 0
-17 -981 -475 0
120 608 933 0
746 537 298 0
-420 124 -408 0
110 174 -505 0
-798 -965 897 0
307 216 -201 0
-844 387 -408 0
-127 578 596 0
-129 -100 -377 0
56 -139 240 0
-697 -720 719 0
-308 693 632 0
-52 -675 -663 0
-308 148 828 0
555 -879 325 0
-256 735 36 0
919 -607 964 0
-874 91 -204 0
550 -446 476 0
-246 938 88 0
590 -39 -146 0
-778 -198 255 0
-933 -449 328 0
-957 -295 978 0
171 303 -955 0
-708 -222 202 0
-17 -632 -420 0
-80 483 360 0
89 904 -450 0
915 -161 -96 0
49 -594 -668 0
-309 -644 -761 0
-255 -997 563 0
472 -306 115 0
594 -333 958 0
371 399 -283 0
744 -461 74 0
-185 479 -591 0
943 276 374 0
-290 -881 882 0
133 515 724 0
613 713 -113 0
-281 -692 -610 0
129 943 -659 0
199 226 973 0
267 174 -197 0
-112 -403 -611 0
-990 -345 865 0
688 842 317 0
213 277 -949 0
-978 -507 3 0
331 162 288 0
-435 242 367 0
-761 -484 -802 0
-150 -606 577 0
-975 -713 361 0
969 -602 647 0
-98 -243 536 0
732 626 -948 0
-479 439 520 0
-254 -455 705 0
186 177 -616 0
978 405 -7 0
-201 -842 -686 0
-208 -522 -983 0
-198 642 -606 0
-354 -385 486 0
-754 563 839 0
-599 -440 -669 0
-322 534 105 0
685 -200 -572 0
-796 -738 -54 0
-116 12 -520 0
-352 843 316 0
526 -378 678 0
-251 -368 -169 0
507 -194 174 0
-910 290 363 0
-944 -712 94 0
-599 722 -701 0
-143 785 -450 0
799 712 -942 0
-739 -565 -781 0
-239 -449 -666 0
-119 -165 -188 0
776 -419 265 0
921 470 898 0
-536 726 431 0
59 -603 -22 0
63 313 -55 0
-223 -275 289 0
-901 745 -110 0
318 247 -181 0
566 858 285 0
781 -356 -159 0
-569 -959 34 0
264 821 590 0
-348 193 454 0
-915 159 -324 0
-193 220 -916 0
-748 -123 598 0
-194 -741 -813 0
-994 672 -598 0
107 -304 -625 0
-61 450 -886 0
-673 405 -169 0
368 -606 -817 0
-170 -715 -659 0
-980 968 -904 0
-729 544 348 0
-835 425 31 0
805 71 -692 0
342 589 -746 0
-978 -232 737 0
-530 756 56 0
463 -295 73 0
854 -326 -492 0
579 -139 -482 0
564 351 722 0
-280 231 390 0
678 285 -180 0
-295 -124 -917 0
-296 -339 -997 0
-387 227 794 0
-963 333 -665 0
-459 -355 -943 0
-111 -186 497 0
349 -503 343 0
295 428 683 0
944 517 -939 0
405 -359 606 0
-337 785 206 0
-6 613 -806 0
-538 -755 -804 0
-687 578 -159 0
219 225 -867 0
-455 397 905 0
-257 -785 762 0
-986 -46 311 0
967 -482 -436 0
287 671 -524 0
-353 -729 943 0
754 -37 700 0
741 -73 -302 0
-525 999 856 0
686 51 453 0
-406 -339 302 0
330 249 -819 0
18 283 659 0
-171 -196 -162 0
60 -537 314 0
-167 -500 -641 0
368 400 -584 0
375 371 -223 0
205 995 964 0
-58 225 2 0
963 -443 -629 0
-12 632 67 0
171 82 -324 0
942 651 -765 0
-423 396 2 0
997 620 725 0
-993 -588 -900 0
834 -784 -432 0
867 810 780 0
-122 997 286 0
-923 140 913 0
-721 -602 -296 0
570 -781 -22 0
-631 -32 -777 0
-704 -766 -306 0
433 603 -685 0
-764 633 558 0
113 615 -371 0
-528 -669 -521 0
314 -741 -447 0
895 -314 -552 0
543 634 529 0
-490 106 -385 0
645 -405 -930 0
598 944 -379 0
-840 989 392 0
-539 232 -835 0
168 -370 389 0
-609 908 -886 0
-995 -465 24 0
-270 595 720 0
448 268 -521 0
678 203 -916 0
-780 435 -298 0
-385 -124 -501 0
796 622 600 0
-621 -770 141 0
474 143 -849 0
-917 261 198 0
883 366 449 0
659 -877 920 0
413 -906 -536 0
-635 -442 -173 0
-767 862 -714 0
-485 -831 -569 0
-557 -475 -608 0
-97 -224 -746 0
846 116 181 0
-92 -897 -750 0
-411 -705 462 0
764 667 999 0
-607 219 381 0
822 950 -500 0
-814 -597 646 0
955 -528 -35 0
661 377 -90 0
-964 -357 -962 0
-579 -187 644 0
805 94 733 0
-361 -440 -24 0
-559 750 -731 0
-893 302 261 0
123 -661 -677 0
949 -641 435 0
475 16 -418 0
101 91 -821 0
778 -978 -634 0
-886 792 -475 0
-969 545 -732 0
-333 -682 -989 0
307 -338 447 0
150 393 804 0
-494 443 -593 0
-111 383 605 0
-37 195 -385 0
-627 -769 -312 0
533 142 699 0
781 267 161 0
119 11 55 0
16 -53 134 0
200 -280 -887 0
-760 -521 -324 0
183 666 136 0
-80 47 -713 0
-355 -129 601 0
-687 688 233 0
-412 -42 165 0
-78 -355 136 0
71 60 830 0
680 -657 420 0
-689 -163 -357 0
-798 -191 770 0
-517 876 439 0
-184 725 -895 0
-345 104 231 0
-408 156 828 0
726 105 -387 0
576 580 258 0
-847 725 636 0
-733 753 811 0
964 -406 -499 0
-229 -756 -533 0
6 -476 -531 0
42 591 -790 0
4 519 694 0
-325 737 -547 0
-531 492 -43 0
-798 -510 196 0
-982 361 464 0
-777 401 24 0
652 863 340 0
-861 502 -497 0
291 697 44 0
987 -473 61 0
686 285 493 0
773 -492 -572 0
625 334 -919 0
-583 941 -253 0
-982 525 950 0
-327 -749 606 0
-138 -38 135 0
-647 909 68 0
-430 320 81 0
-60 -401 881 0
-775 388 -166 0
503 -936 -740 0
960 -704 -881 0
859 637 -726 0
714 589 -547 0
-295 -454 477 0
564 103 -695 0
-143 -381 791 0
412 431 954 0
-761 -142 996 0
-601 358 748 0
739 -357 131 0
87 452 204 0
439 -717 585 0
-554 781 815 0
-117 -376 -20 0
-660 842 -432 0
189 -717 -653 0
410 947 -27 0
906 948 -456 0
694 -350 913 0
640 -120 -635 0
533 -438 -530 0
-77 357 -629 0
-848 724 -246 0
273 -160 161 0
-144 602 -978 0
-216 213 668 0
-573 -93 80 0
-804 -28 -889 0
-685 479 512 0
-612 506 -183 0
76 -482 -135 0
742 -755 -265 0
-680 181 -76 0
421 63 627 0
78 270 965 0
574 -546 -521 0
961 -985 424 0
846 -660 -804 0
915 -962 -250 0
-948 -477 -872 0
-430 -483 377 0
-695 163 -538 0
848 -564 414 0
-334 -319 955 0
953 352 42 0
-464 939 -391 0
729 -828 -679 0
-898 486 734 0
-745 684 -591 0
-878 -772 839 0
642 52 271 0
870 562 661 0
-818 -661 108 0
586 -362 -352 0
-346 158 -738 0
-794 -335 -120 0
-941 233 -827 0
149 580 -423 0
-141 -70 -639 0
-339 781 -452 0
457 -105 -198 0
577 612 614 0
-638 748 -73 0
872 -419 47 0
881 -411 -628 0
-415 69 710 0
-533 559 -680 0
172 -745 596 0
-424 265 -506 0
749 -2 -447 0
-230 -401 -737 0
846 -203 129 0
-435 -283 -815 0
-224 991 -389 0
692 370 806 0
-508 -65 -398 0
-158 927 -639 0
-577 -516 -427 0
-785 427 -301 0
-505 -79 654 0
726 -747 883 0
-716 -400 836 0
-282 840 -421 0
-261 -652 -862 0
697 -325 480 0
-668 851 -176 0
-757 -432 236 0
-565 358 109 0
-172 514 530 0
206 986 910 0
751 -89 -705 0
-226 836 270 0
-648 944 229 0
488 803 -822 0
51 -567 -323 0
633 -971 53 0
-136 252 408 0
-333 -614 897 0
81 -844 618 0
-563 440 -340 0
-934 -293 882 0
40 -697 -168 0
-431 493 884 0
955 -956 942 0
-820 -291 960 0
762 -324 282 0
-994 -557 -107 0
866 183 -567 0
-166 -150 -603 0
30 441 -447 0
-615 80 -380 0
-288 415 -189 0
-335 751 -189 0
-332 412 186 0
729 -642 -7 0
85 261 918 0
-735 511 -465 0
353 -650 507 0
345 -807 979 0
122 356 -77 0
110 115 490 0
-667 -640 100 0
-237 -438 462 0
789 -963 220 0
-749 553 -683 0
-467 525 140 0
-190 -213 -798 0
-520 675 -225 0
-243 446 -52 0
-112 338 767 0
119 -317 -449 0
-588 16 -672 0
-348 -968 918 0
-714 -314 -768 0
395 -604 853 0
811 178 -839 0
69 -362 -390 0
889 551 199 0
864 176 -948 0
169 928 7 0
949 -750 97 0
-142 527 3 0
-170 -402 706 0
-345 -336 -910 0
-582 -773 -681 0
-602 -181 591 0
-542 724 -876 0
969 892 -369 0
-844 725 987 0
-779 -530 -99 0
-582 797 637 0
-272 945 710 0
365 -322 973 0
-903 -799 788 0
-863 57 -963 0
-461 585 -935 0
-635 898 218 0
876 284 -659 0
-572 -386 -787 0
494 -578 765 0
53 645 301 0
-491 -843 185 0
-657 642 821 0
509 -188 676 0
-81 2 -459 0
-570 275 -461 0
871 499 511 0
998 -732 -355 0
-107 533 114 0
813 529 540 0
915 942 -389 0
712 769 220 0
-280 -562 -499 0
526 967 751 0
-140 924 680 0
-632 652 149 0
838 -860 -402 0
921 -529 492 0
-407 -764 943 0
572 -608 -321 0
338 566 -546 0
-767 -19 -125 0
-9 712 16 0
618 213 -868 0
-905 -31 89 0
923 -233 319 0
759 -674 884 0
-958 -984 -787 0
-678 -442 263 0
-173 -792 -332 0
-200 239 578 0
741 528 957 0
140 234 -798 0
502 584 14 0
16 -513 771 0
-239 -886 44 0
823 90 352 0
648 -691 681 0
779 -55 -32 0
135 418 -795 0
-493 816 127 0
605 439 402 0
-357 -673 -615 0
89 -808 -577 0
-892 -237 -740 0
-578 -334 66 0
-378 -338 268 0
-949 -80 -462 0
342 893 949 0
862 718 -990 0
988 934 -287 0
151 646 374 0
-452 7 -752 0
966 -742 -432 0
883 755 -268 0
-696 -892 664 0
401 -639 820 0
844 -714 265 0
551 336 932 0
-943 -629 -812 0
-676 -44 964 0
614 -91 603 0
-521 -242 687 0
-823 674 -407 0
764 -403 -953 0
-395 -111 116 0
865 -813 899 0
436 337 222 0
-737 253 -972 0
-968 495 655 0
922 661 919 0
601 -340 -863 0
672 -223 331 0
56 -839 968 0
663 884 315 0
595 222 226 0
320 560 -151 0
671 -298 854 0
-956 768 211 0
-884 -42 209 0
-561 320 696 0
482 152 503 0
962 688 292 0
-718 85 808 0
-1000 923 -218 0
190 -35 -987 0
179 356 -927 0
-329 547 96 0
253 580 -525 0
375 948 763 0
234 587 917 0
413 -103 450 0
835 339 -652 0
-918 -897 770 0
-569 378 -577 0
-406 -831 -137 0
787 134 523 0
548 -813 -894 0
-558 69 179 0
536 -194 -436 0
-600 -763 938 0
-882 728 893 0
261 311 762 0
161 511 734 0
-687 304 -535 0
-194 -526 -138 0
-759 -922 -391 0
332 817 429 0
-770 -249 -508 0
-868 -649 608 0
-961 488 -501 0
529 90 -611 0
908 -480 358 0
798 710 -60 0
-193 -912 -145 0
-346 609 -846 0
159 679 635 0
252 785 -63 0
-964 -363 541 0
384 -301 -50 0
-434 -151 -198 0
956 -496 -701 0
205 342 -820 0
-164 -215 872 0
-54 -356 -662 0
209 853 -208 0
309 82 380 0
258 773 -90 0
-551 -89 575 0
717 433 -352 0
-768 951 -840 0
-159 991 -911 0
-269 -68 696 0
994 -143 638 0
227 977 494 0
-116 630 -849 0
-390 160 685 0
954 848 -360 0
608 -475 466 0
243 -887 598 0
-702 780 -79 0
-219 -730 -985 0
-365 710 863 0
-920 753 -202 0
-573 -698 549 0
808 436 651 0
580 495 -852 0
568 172 444 0
-520 -546 320 0
664 374 940 0
290 814 -126 0
-246 -283 -673 0
464 -887 -108 0
313 -232 294 0
-11 281 418 0
-228 220 -975 0
230 -173 -966 0
-870 -407 -194 0
451 256 721 0
500 -869 263 0
649 -381 311 0
-895 713 74 0
250 122 861 0
820 -216 481 0
-87 -228 -694 0
387 204 -637 0
335 -274 588 0
-843 -849 -293 0
361 -290 62 0
678 766 106 0
679 15 187 0
-300 -167 -555 0
-230 29 432 0
724 360 191 0
363 -458 -2 0
-182 -619 -599 0
-252 -311 -778 0
384 -92 45 0
-203 662 -154 0
-641 -413 337 0
-216 829 -667 0
549 -217 -1000 0
-293 -344 943 0
-606 -196 925 0
725 130 36 0
-580 -48 -807 0
194 -343 -677 0
-79 734 377 0
664 700 288 0
435 725 894 0
858 841 915 0
-296 26 -404 0
295 479 864 0
23 156 -484 0
504 -229 429 0
891 -377 179 0
719 -628 684 0
699 162 -773 0
-319 308 -836 0
674 -719 227 0
532 -544 534 0
-646 548 -883 0
248 -898 -529 0
-504 726 -227 0
854 -102 -532 0
235 269 94 0
465 406 -548 0
-804 117 103 0
249 448 879 0
54 644 78 0
779 -1 -780 0
237 -443 -329 0
937 519 318 0
-529 872 -144 0
559 -513 80 0
476 439 183 0
47 515 526 0
133 765 481 0
502 327 687 0
-862 -851 659 0
-362 77 743 0
-548 205 295 0
-941 595 -599 0
-658 -764 827 0
-889 -110 317 0
-489 43 -898 0
-885 497 -838 0
-742 615 -190 0
-474 -70 281 0
622 894 -374 0
525 232 -916 0
878 -432 136 0
-504 -602 -791 0
834 710 -809 0
699 -83 -953 0
-504 -242 -496 0
453 188 185 0
296 -284 -976 0
-452 -372 -213 0
282 55 10 0
-494 -625 600 0
-949 -829 -271 0
580 926 -680 0
775 43 -98 0
-362 -349 576 0
-372 649 351 0
760 44 -819 0
-214 234 -409 0
-767 943 130 0
-148 372 -156 0
-757 415 -534 0
-459 -623 -317 0
-361 284 -340 0
595 -368 842 0
220 77 466 0
671 602 208 0
978 336 968 0
875 -801 -16 0
-935 918 -399 0
116 -695 -795 0
-933 -420 478 0
-549 106 -973 0
-803 66 -194 0
-910 -373 -468 0
-389 -638 -823 0
28 730 317 0
780 567 633 0
840 470 -996 0
-827 75 -759 0
-109 304 -146 0
-458 -960 399 0
-305 448 871 0
114 832 768 0
805 -268 143 0
277 396 -910 0
376 -653 -865 0
644 381 -799 0
715 -452 -561 0
-794 521 -441 0
-168 276 870 0
-647 790 113 0
-671 471 -168 0
-550 703 -411 0
-949 377 -261 0
-818 -669 -164 0
312 -477 143 0
871 -608 -946 0
517 58 -991 0
-307 605 -764 0
-688 455 -420 0
-846 -430 524 0
331 -428 34 0
-289 250 -731 0
776 890 -255 0
99 881 544 0
-857 -738 -715 0
854 741 300 0
717 -1 -473 0
665 31 -549 0
59 -941 -743 0
-37 406 -828 0
-919 11 -649 0
-451 793 -792 0
-57 -877 315 0
400 -27 86 0
455 -399 -435 0
488 -851 -877 0
-783 -501 574 0
-875 -549 429 0
-601 494 -202 0
535 539 -621 0
685 -723 -121 0
39 171 -102 0
-757 -183 -557 0
-98 -735 638 0
759 -224 -29 0
224 582 669 0
-53 769 799 0
70 813 -675 0
-586 89 -338 0
527 -735 305 0
267 588 -824 0
-976 -10 -943 0
-852 -102 40 0
60 -778 -121 0
-540 -967 146 0
-670 -769 333 0
480 14 722 0
806 -844 516 0
73 -2 -149 0
368 326 -108 0
87 -310 163 0
-585 719 -461 0
742 346 992 0
-700 -48 907 0
-432 639 204 0
964 199 -73 0
661 100 487 0
251 692 230 0
966 573 128 0
-313 916 874 0
878 771 825 0
832 -639 237 0
737 36 -242 0
800 -311 -99 0
-524 -771 -899 0
620 -59 466 0
-979 -708 -968 0
880 -537 55 0
-923 974 -237 0
-455 797 65 0
-9 -436 562 0
756 -263 846 0
103 377 419 0
393 414 -386 0
-72 -587 579 0
-336 -432 -268 0
428 608 -551 0
806 935 -382 0
-368 791 589 0
-208 -821 817 0
-712 979 253 0
523 -869 317 0
-86 -331 655 0
668 -401 -343 0
337 325 -967 0
224 -972 70 0
-874 -244 -664 0
-125 -445 571 0
-531 -661 -103 0
-927 234 -431 0
-718 -537 141 0
-29 -435 561 0
-432 -951 888 0
593 -462 497 0
250 11 251 0
114 -900 -865 0
-544 675 -384 0
242 279 29 0
82 976 422 0
-59 -587 496 0
-93 -403 -796 0
478 -111 -211 0
833 101 478 0
905 966 -956 0
885 830 -680 0
819 -417 455 0
469 983 995 0
-715 854 831 0
678 -465 -483 0
-20 -385 -533 0
-80 -714 -487 0
-931 -703 -929 0
-416 -221 753 0
-353 -344 1000 0
524 651 -83 0
-457 490 -520 0
838 931 606 0
499 -135 54 0
-605 -382 -696 0
-315 574 522 0
-714 907 421 0
-878 536 -506 0
502 -630 886 0
-331 872 702 0
-873 889 -730 0
190 868 693 0
-349 -138 -882 0
797 -754 388 0
445 329 146 0
979 905 682 0
328 -180 764 0
-618 711 283 0
920 -364 616 0
618 -254 -690 0
646 -485 104 0
-828 906 445 0
-581 -182 -49 0
342 681 161 0
465 -306 -405 0
-280 637 377 0
-888 -32 572 0
-348 487 -198 0
-694 356 614 0
348 -250 504 0
-19 384 -615 0
-492 458 780 0
280 -39 -635 0
697 -534 263 0
-425 -400 -578 0
-173 779 -582 0
496 310 -611 0
395 550 668 0
-973 190 -774 0
-21 230 -996 0
336 -110 -910 0
-637 309 -818 0
399 -243 -474 0
-623 -427 232 0
-366 -143 951 0
267 141 -576 0
-172 -151 -547 0
456 -439 -596 0
850 -402 -62 0
167 -970 -800 0
984 -525 976 0
118 53 253 0
846 -438 -77 0
500 619 -193 0
655 734 -570 0
824 -260 -611 0
262 292 -109 0
562 861 424 0
223 177 -852 0
-42 252 93 0
-170 -290 -557 0
-193 549 747 0
196 -340 -885 0
-93 341 179 0
-748 -500 757 0
847 288 -212 0
820 724 997 0
-27 337 777 0
-861 -382 833 0
-80 984 184 0
-269 1000 -106 0
-349 -270 -267 0
514 174 458 0
-602 404 -647 0
896 838 -893 0
-734 -683 -153 0
-143 136 949 0
628 361 937 0
-929 197 865 0
4 -360 -425 0
-634 263 -726 0
-166 26 -785 0
383 368 935 0
-123 995 682 0
809 8 -529 0
-927 -48 90 0
-101 -538 636 0
-631 -17 -481 0
298 51 206 0
905 657 251 0
671 946 351 0
626 40 -118 0
101 504 -919 0
326 659 606 0
339 -894 -267 0
670 560 555 0
-702 435 -496 0
-944 369 887 0
654 77 -565 0
-853 -661 -877 0
-803 271 -533 0
771 -443 220 0
-172 341 -825 0
671 -136 -516 0
-916 465 679 0
115 342 -836 0
-290 341 -397 0
442 909 675 0
595 412 -566 0
264 785 -747 0
38 -903 -206 0
-915 447 -412 0
-534 -156 -103 0
264 -615 -960 0
409 -833 -846 0
22 -58 928 0
-197 -264 35 0
-182 369 581 0
-622 632 -277 0
-356 -927 201 0
119 -232 482 0
852 381 623 0
-284 433 -459 0
316 -505 279 0
69 -711 815 0
-9 435 -681 0
-194 883 398 0
-322 -483 672 0
229 751 -139 0
-191 -953 805 0
38 -470 79 0
-134 834 -703 0
-920 -254 242 0
928 -132 153 0
-247 -558 951 0
871 -317 -752 0
495 100 538 0
-241 736 676 0
82 566 -45 0
831 -476 827 0
-822 -71 -955 0
-91 -667 946 0
168 420 7 0
351 -581 -171 0
314 -949 -551 0
518 345 143 0
958 -642 184 0
-8 94 -598 0
-328 145 -24 0
-263 122 -509 0
-979 426 -109 0
-121 136 -994 0
-734 216 967 0
-891 -709 -602 0
-783 519 -777 0
93 -56 472 0
-888 -540 -930 0
292 -154 731 0
606 -553 699 0
916 949 243 0
-452 -748 -225 0
64 285 593 0
-261 733 136 0
403 -737 393 0
-833 -137 462 0
-213 51 -285 0
-22 274 196 0
-308 966 -880 0
-799 -448 936 0
327 -417 -188 0
-110 -886 775 0
604 972 841 0
839 148 577 0
426 -541 -542 0
111 208 -7 0
522 215 -698 0
-890 217 975 0
365 652 -371 0
648 -927 786 0
-590 269 679 0
-416 321 587 0
910 992 -153 0
-783 -599 -227 0
758 -80 244 0
-655 25 -723 0
948 -371 -226 0
144 -370 764 0
826 -946 386 0
-507 598 -907 0
537 -753 571 0
-914 543 955 0
-217 -354 -720 0
-304 -365 402 0
212 466 -392 0
726 163 -459 0
-818 -793 -925 0
-385 758 -374 0
-112 -789 973 0
90 737 193 0
-104 -390 -373 0
523 830 -48 0
-605 -229 -157 0
-772 210 -273 0
730 348 -416 0
-67 240 -212 0
-842 -830 831 0
-732 -852 911 0
300 799 144 0
136 -1 224 0
799 237 -894 0
525 -74 -172 0
-714 -434 904 0
242 747 109 0
-701 300 -61 0
424 -785 897 0
-641 276 970 0
-847 402 313 0
-527 286 -48 0
921 -431 922 0
81 -570 904 0
-642 -149 -49 0
510 -246 -622 0
156 711 515 0
568 -457 946 0
-135 -432 -137 0
-222 -727 669 0
-143 -953 -651 0
-151 -444 762 0
-342 268 334 0
-9 808 908 0
223 663 721 0
186 654 -766 0
-873 -291 -229 0
825 -289 -373 0
-346 -450 -243 0
491 -536 72 0
855 565 -39 0
-774 641 -275 0
775 -685 -602 0
-261 -96 -44 0
324 93 264 0
76 -761 -629 0
-517 825 -125 0
-582 -87 752 0
773 76 -90 0
553 -507 -761 0
448 -497 -182 0
831 -128 -973 0
724 989 85 0
278 -949 558 0
-557 587 -170 0
-284 -740 -652 0
-691 -634 75 0
-663 -276 -122 0
-252 -533 72 0
215 22 -576 0
760 -823 -283 0
-203 -940 -845 0
-733 269 84 0
765 1 263 0
-983 -828 -10 0
-36 522 279 0
-919 820 400 0
142 -788 328 0
-495 -960 -227 0
155 -135 593 0
671 -491 856 0
114 -304 292 0
161 386 687 0
905 675 -617 0
385 -39 177 0
-261 444 408 0
-153 219 229 0
-867 -870 822 0
376 295 157 0
69 855 -68 0
115 -557 357 0
722 221 882 0
19 890 -309 0
-343 986 190 0
78 879 852 0
-307 120 -345 0
-563 -913 -925 0
-132 -24 -570 0
-927 -109 410 0
-648 -700 134 0
-465 747 -715 0
117 -456 577 0
243 529 221 0
942 -483 526 0
828 494 879 0
571 -26 -243 0
-296 -483 701 0
-167 -118 90 0
312 426 -31 0
603 408 -294 0
-839 29 -480 0
879 212 -192 0
655 804 -440 0
430 267 -570 0
-533 212 245 0
21 393 -464 0
932 -430 -701 0
896 163 -212 0
-107 -277 130 0
481 -390 -668 0
-511 285 333 0
947 -226 -290 0
131 -678 699 0
333 -350 313 0
527 -258 -47 0
-798 -349 847 0
956 -760 -403 0
-637 420 694 0
-62 -429 -243 0
701 -752 640 0
311 -99 -148 0
250 169 523 0
586 112 895 0
949 408 204 0
-401 -976 -430 0
-239 697 591 0
897 -261 -530 0
378 847 607 0
643 490 -911 0
967 285 156 0
277 -541 -893 0
455 286 -32 0
354 -712 -784 0
-219 504 -525 0
129 -88 618 0
338 342 -560 0
-892 -465 -428 0
132 -20 730 0
-410 418 -965 0
71 906 867 0
339 874 -410 0
381 410 585 0
-454 -80 438 0
-854 713 589 0
371 188 638 0
-111 -883 -978 0
659 -540 -549 0
-822 278 -695 0
688 -1 625 0
-357 495 -119 0
44 -799 92 0
-548 221 545 0
201 -17 -494 0
689 -908 -882 0
558 -66 258 0
227 459 -734 0
-744 -231 826 0
907 -964 -480 0
-629 237 115 0
125 -938 588 0
895 -491 208 0
-168 391 -563 0
50 688 -601 0
297 661 974 0
826 576 253 0
82 1 -130 0
889 127 571 0
99 -952 142 0
713 799 -602 0
-749 804 -73 0
111 -400 -698 0
-303 -954 989 0
690 -360 803 0
-178 811 -787 0
-507 397 -594 0
77 789 561 0
-385 -38 527 0
-758 607 -834 0
-598 215 557 0
411 -162 343 0
606 183 922 0
-414 -100 395 0
-155 688 -518 0
917 95 -154 0
-301 93 -89 0
-210 141 -233 0
729 -351 -411 0
463 778 287 0
-698 -704 790 0
-9 852 -635 0
752 -771 -908 0
256 96 -831 0
161 841 666 0
925 -18 -643 0
-854 223 -316 0
-478 -572 459 0
664 181 389 0
-658 135 -638 0
-304 -766 754 0
520 -783 813 0
303 679 -978 0
79 -443 317 0
88 -423 813 0
417 -875 68 0
22 724 -190 0
-761 -769 449 0
-473 165 -581 0
-390 -76 -42 0
757 950 -927 0
-163 -463 -978 0
415 761 232 0
63 -87 906 0
70 440 -130 0
10 428 918 0
-548 227 -431 0
626 419 485 0
-527 526 -739 0
690 -684 -459 0
545 -184 -364 0
-628 -137 -896 0
-792 -557 342 0
-20 -331 -303 0
470 858 599 0
193 210 810 0
229 502 -523 0
155 941 701 0
-373 305 879 0
-117 903 -289 0
-996 309 -379 0
951 -694 562 0
787 -729 166 0
80 -631 -145 0
-649 -763 319 0
546 678 -135 0
-453 -308 -273 0
651 -498 -916 0
849 214 806 0
715 215 -82 0
-866 -40 -300 0
542 732 444 0
721 41 -525 0
-502 983 941 0
97 752 -533 0
648 817 -273 0
-40 427 102 0
670 -613 -888 0
-10 2 310 0
635 122 329 0
916 -713 775 0
56 -124 -625 0
847 870 -67 0
-479 -519 318 0
-350 551 652 0
-902 219 -496 0
706 139 -526 0
-660 981 162 0
403 180 -885 0
972 608 -122 0
774 875 -802 0
-599 223 -277 0
317 -856 -717 0
-683 -23 -213 0
513 -856 877 0
-467 -67 -488 0
694 466 55 0
35 -801 854 0
-971 168 -190 0
-750 -108 -168 0
-42 -495 -305 0
224 -957 -445 0
-769 490 -854 0
-573 -268 124 0
-470 485 -385 0
-597 553 328 0
692 -179 -850 0
157 -33 985 0
818 359 -831 0
665 915 -586 0
42 657 962 0
200 -775 -190 0
-486 650 137 0
557 -910 -96 0
271 314 235 0
900 16 724 0
406 566 -627 0
897 328 -537 0
-729 -817 -328 0
-799 265 920 0
-298 247 -292 0
812 818 666 0
-816 462 144 0
-833 -510 -343 0
-113 -364 972 0
323 -647 -49 0
540 866 -420 0
-669 716 601 0
321 49 986 0
-323 851 877 0
-3 -115 905 0
587 728 -107 0
914 -372 220 0
-361 954 -167 0
-836 -672 -959 0
298 -501 -739 0
541 -980 -510 0
329 -93 436 0
-428 -654 896 0
-215 -72 -985 0
990 -756 808 0
628 -476 -359 0
-728 -603 4 0
-129 809 -258 0
-973 447 438 0
194 695 516 0
-154 -826 -947 0
903 364 -169 0
-975 585 783 0
750 429 -910 0
522 865 824 0
-842 523 422 0
517 -128 188 0
815 -487 -875 0
340 -547 993 0
-852 -175 -699 0
-723 747 -978 0
-336 -941 -882 0
293 -900 729 0
980 714 -691 0
513 851 -530 0
-948 97 -733 0
-259 401 332 0
951 -874 -864 0
388 -278 714 0
-603 -136 -106 0
-461 -877 -74 0
-738 997 -693 0
-740 851 -963 0
298 -943 362 0
164 564 747 0
806 612 -547 0
921 317 -76 0
-429 -116 -446 0
708 636 -39 0
-475 -841 227 0
784 557 -817 0
233 -871 -396 0
427 748 50 0
-85 -429 -361 0
-65 -838 825 0
812 943 999 0
-897 -248 577 0
-465 800 -860 0
101 255 383 0
57 -72 -971 0
-3 -499 307 0
-858 282 726 0
300 889 324 0
116 -721 241 0
-787 -793 -715 0
633 -530 -903 0
-865 -319 593 0
355 885 740 0
810 -30 719 0
-747 121 146 0
-307 877 189 0
-314 194 -513 0
-628 286 251 0
-430 200 -293 0
-285 -205 -367 0
34 -279 -667 0
-321 259 -185 0
849 973 -741 0
-904 13 -682 0
735 392 -348 0
127 517 917 0
979 628 36 0
-832 -173 89 0
733 543 -313 0
995 -795 634 0
-93 -289 872 0
-16 495 337 0
438 -408 363 0
-977 58 -254 0
548 787 -738 0
-532 -930 894 0
-123 733 -501 0
526 -722 -507 0
-653 -751 -833 0
-433 -520 -251 0
727 108 790 0
658 771 97 0
193 -986 -752 0
870 144 1000 0
253 948 -98 0
495 928 -309 0
-22 -587 -30 0
-164 674 749 0
504 -27 552 0
-101 -47 -618 0
-366 193 -199 0
446 242 375 0
-995 656 -183 0
116 633 -519 0
-539 -332 -836 0
387 280 -355 0
-583 158 -359 0
108 -472 -292 0
-168 321 734 0
-245 -903 823 0
190 812 -697 0
-733 -29 512 0
-275 222 160 0
-985 -773 -794 0
-723 -543 328 0
-495 -706 438 0
979 -857 926 0
678 152 -218 0
953 746 967 0
-710 756 -562 0
267 -373 -983 0
-269 644 411 0
-155 574 873 0
-69 -800 -403 0
492 737 87 0
209 679 -791 0
617 213 881 0
-988 460 181 0
649 -469 -854 0
597 -437 115 0
-970 577 -253 0
127 -856 -946 0
-604 835 618 0
84 475 -119 0
-421 -516 917 0
360 152 -608 0
682 -263 912 0
-708 -921 857 0
-652 -296 -800 0
271 -775 72 0
-819 662 -269 0
543 -3 231 0
620 740 -377 0
568 350 -70 0
-936 797 791 0
-214 -86 -554 0
-364 726 494 0
-943 -849 948 0
-942 -218 546 0
627 -374 783 0
-315 503 -312 0
-349 -27 -547 0
-28 743 -593 0
-798 -600 -171 0
956 931 -580 0
24 663 -683 0
-237 -950 208 0
-152 540 538 0
673 -185 308 0
771 425 791 0
-706 -179 -100 0
447 -280 -309 0
-476 -230 -532 0
51 995 -272 0
-262 418 -564 0
-853 394 504 0
-590 607 -918 0
-743 747 450 0
710 401 -813 0
-366 410 903 0
-97 590 -628 0
258 60 358 0
45 205 -84 0
-232 424 -854 0
-964 819 295 0
-553 373 314 0
-606 955 -357 0
-491 -982 544 0
154 159 610 0
582 -925 379 0
-985 -612 51 0
180 284 -19 0
-336 36 137 0
-486 226 76 0
664 -103 23 0
-421 559 891 0
267 -940 812 0
858 966 408 0
643 -648 214 0
-114 55 -636 0
813 -650 472 0
-695 -745 779 0
398 514 -617 0
790 95 -878 0
859 75 472 0
-447 374 -553 0
755 -952 -630 0
982 -755 948 0
-97 132 923 0
-259 386 -862 0
-82 -165 -674 0
-634 111 -162 0
-617 -316 -119 0
475 522 -95 0
-435 911 965 0
544 964 35 0
-481 639 -956 0
-388 -902 296 0
581 59 -499 0
-969 321 -245 0
999 19 653 0
-544 439 -490 0
-332 436 -925 0
173 -888 -967 0
447 971 -401 0
151 977 -722 0
171 732 950 0
-824 742 632 0
-47 776 564 0
-110 993 690 0
-764 376 -638 0
-762 -805 -138 0
234 378 800 0
-658 -139 -730 0
767 -752 114 0
-643 534 -186 0
-988 674 -573 0
521 374 -974 0
58 -153 859 0
835 867 972 0
-517 323 841 0
36 -567 -520 0
-578 198 468 0
-430 109 -96 0
-301 -587 -231 0
737 -997 251 0
-490 755 147 0
-781 -668 425 0
-224 -633 -320 0
-850 -121 -797 0
-803 446 -290 0
131 245 -93 0
-138 813 445 0
599 -552 45 0
672 758 892 0
-164 983 -650 0
-263 76 453 0
-140 -681 -419 0
714 -858 -676 0
284 747 -261 0
181 -642 811 0
-555 152 23 0
929 -979 21 0
703 -892 -279 0
-708 726 954 0
376 -247 663 0
-929 -548 -991 0
-380 -414 -171 0
747 648 737 0
-252 -926 287 0
-334 -32 -21 0
952 381 135 0
-766 -629 623 0
-660 -345 321 0
595 -463 733 0
423 960 434 0
-237 111 -542 0
-439 103 714 0
498 921 -892 0
128 902 -412 0
-126 -600 110 0
-461 -679 -325 0
686 -862 -877 0
650 -458 100 0
703 -374 762 0
193 645 715 0
-43 -948 -907 0
889 665 -566 0
780 176 145 0
405 -567 -999 0
-746 -732 -169 0
101 269 -179 0
333 40 -503 0
570 349 928 0
-59 340 -782 0
408 282 -8 0
9 -850 -331 0
601 -418 463 0
595 235 71 0
-244 247 517 0
-488 190 868 0
39 -516 -253 0
-895 -773 -152 0
-392 -257 330 0
969 -931 54 0
-18 -717 -959 0
-107 -585 384 0
231 -115 232 0
-301 -137 -252 0
-420 696 -486 0
-697 284 161 0
174 -412 350 0
-6 -446 159 0
-331 490 -379 0
948 -962 363 0
851 -230 -162 0
544 -530 -87 0
-109 -670 -137 0
85 -137 -759 0
-325 -527 -768 0
-968 832 163 0
252 941 977 0
-357 -415 798 0
519 -665 361 0
545 62 497 0
715 -660 -574 0
-174 -396 -769 0
-910 -345 -497 0
-552 454 773 0
715 646 -630 0
273 8 -909 0
-88 573 425 0
-905 322 782 0
691 83 -359 0
-295 774 -971 0
-517 -644 504 0
920 -498 -220 0
-834 402 674 0
-458 621 -671 0
-961 785 -695 0
-403 -66 750 0
-75 -165 -194 0
-635 929 816 0
243 918 617 0
936 -327 746 0
-944 835 234 0
98 844 -949 0
369 449 811 0
592 773 -686 0
-885 -638 201 0
-926 372 -453 0
219 -389 -126 0
783 -55 -182 0
907 -549 115 0
437 998 -60 0
-664 862 943 0
-764 -654 557 0
-85 -252 -289 0
-766 -86 419 0
444 487 769 0
718 -150 -365 0
820 -178 -48 0
-95 290 -658 0
979 81 -308 0
-830 59 706 0
-683 658 -35 0
-829 -709 -14 0
-550 -678 -330 0
40 -24 -633 0
-310 -529 150 0
-383 -293 330 0
-253 -383 -606 0
-24 334 634 0
554 823 837 0
-373 -865 -851 0
605 -997 -159 0
58 -244 239 0
-32 113 -278 0
-329 -542 -681 0
435 294 -205 0
946 -597 274 0
-291 -435 465 0
898 -284 -164 0
-747 -900 -957 0
1000 -121 464 0
991 -699 133 0
-905 379 -284 0
-164 -990 998 0
-535 -70 -817 0
633 556 -863 0
-864 4 692 0
914 144 860 0
843 -716 287 0
309 -304 888 0
-565 -83 875 0
39 314 -563 0
274 -367 -778 0
-687 832 -440 0
879 -923 411 0
-460 327 -2 0
298 -501 100 0
-173 -433 -452 0
-1 294 -449 0
-862 948 908 0
-133 391 -901 0
875 -554 -379 0
177 -463 -648 0
-338 162 -500 0
396 -631 -806 0
-787 -442 -4 0
-163 52 604 0
378 871 582 0
-265 714 315 0
792 865 -663 0
-117 345 638 0
971 -614 763 0
-519 459 379 0
-176 -519 406 0
699 -286 792 0
127 -401 -271 0
346 267 -36 0
-31 22 -307 0
680 -868 -109 0
825 -356 -507 0
52 -97 -949 0
-700 -710 879 0
210 671 -710 0
-719 -713 -292 0
571 918 -578 0
720 -116 655 0
-276 654 -450 0
-299 892 -150 0
-70 320 -653 0
-186 -877 69 0
-365 -351 -358 0
-30 -869 -703 0
597 31 379 0
193 -519 70 0
113 781 -450 0
726 -333 -373 0
-594 -140 71 0
-552 -955 -209 0
-505 -844 515 0
-84 984 819 0
-687 -674 721 0
353 -484 -936 0
-955 934 940 0
203 911 -34 0
-90 -733 222 0
802 175 275 0
258 -607 -136 0
803 972 336 0
-947 812 192 0
-934 358 -342 0
52 -290 -894 0
-329 6 -823 0
-658 762 984 0
-398 -644 200 0
-637 -665 367 0
-334 -587 324 0
-513 952 -871 0
145 -712 678 0
235 -966 376 0
-97 -689 978 0
-296 -315 -624 0
230 241 234 0
791 -273 -24 0
-434 -896 895 0
-629 -953 -907 0
851 63 -138 0
-331 -934 100 0
-702 60 -511 0
554 -223 737 0
-627 -182 -439 0
-261 449 -305 0
-157 551 -907 0
-429 -361 -78 0
927 922 -620 0
680 -757 -581 0
911 59 -626 0
-364 610 63 0
-756 926 -439 0
311 -100 907 0
438 -506 -491 0
104 -634 -662 0
464 -670 674 0
-722 -266 -990 0
736 -697 -72 0
-755 -330 -441 0
422 843 -592 0
-743 732 -103 0
-996 3 -837 0
-640 -781 917 0
-914 334 429 0
749 940 451 0
485 902 458 0
580 193 161 0
911 67 291 0
29 133 -646 0
-990 947 -620 0
-210 -298 -521 0
-337 -772 967 0
-119 -648 -203 0
-866 382 58 0
-996 -427 185 0
445 19 -525 0
994 -551 957 0
192 493 -558 0
931 585 619 0
-825 818 -191 0
-353 -735 933 0
876 793 756 0
102 -643 564 0
-570 -769 935 0
-555 -798 858 0
137 556 394 0
-987 278 565 0
-25 -688 56 0
-395 -453 -900 0
951 -869 -615 0
66 -360 -770 0
881 -515 529 0
-604 380 771 0
-712 -117 637 0
-113 447 104 0
-696 675 624 0
847 -150 586 0
-707 -885 260 0
-29 125 -133 0
-439 273 -634 0
852 -367 -519 0
-557 -709 615 0
-248 533 -640 0
-974 -339 354 0
-319 756 -318 0
-389 -589 98 0
-85 743 103 0
524 -346 -634 0
796 156 -990 0
109 -481 555 0
25 99 363 0
-328 -914 383 0
-549 -82 357 0
-682 315 -533 0
-190 -224 709 0
425 921 -644 0
928 -358 582 0
753 861 519 0
-333 -827 386 0
267 62 663 0
-720 369 -74 0
-527 -667 -602 0
-458 41 197 0
-846 971 970 0
-479 -419 268 0
818 73 979 0
-897 -911 881 0
-381 -869 293 0
910 517 207 0
-385 85 574 0
-707 -184 353 0
-385 -782 757 0
-527 680 -711 0
-333 326 643 0
149 -944 907 0
469 -705 579 0
473 -916 -578 0
380 -417 597 0
865 838 807 0
379 -124 465 0
321 -271 460 0
771 -763 -915 0
-495 307 265 0
-656 -795 121 0
-942 194 -198 0
-977 839 663 0
-691 -397 262 0
207 -222 642 0
974 -943 712 0
579 -457 108 0
-179 -803 172 0
423 -590 440 0
127 130 138 0
466 69 967 0
488 -753 -730 0
476 603 -785 0
-354 418 64 0
425 234 -209 0
670 743 487 0
-868 715 804 0
907 953 -740 0
544 -534 622 0
-24 414 -44 0
991 664 531 0
598 739 684 0
17 901 -639 0
-229 834 -266 0
701 947 460 0
41 -292 -12 0
717 -406 631 0
-380 -182 347 0
-504 -663 253 0
-584 -894 -807 0
-510 269 479 0
-702 569 246 0
237 538 -579 0
529 407 688 0
709 521 993 0
-556 520 -458 0
-307 539 842 0
-811 -92 923 0
48 -572 355 0
613 -942 -866 0
-118 -298 -757 0
-626 692 -158 0
306 211 -229 0
-300 -241 680 0
754 826 658 0
-762 -752 170 0
-337 -292 -471 0
959 -810 332 0
951 697 492 0
817 -933 -121 0
630 301 675 0
-349 -554 958 0
72 714 -548 0
-73 591 397 0
-146 696 -671 0
-882 -6 979 0
-831 509 -532 0
854 397 840 0
-650 480 519 0
312 298 -299 0
504 -933 591 0
90 956 137 0
-207 641 978 0
-325 -187 928 0
934 642 871 0
945 918 -513 0
279 545 -430 0
376 -899 -65 0
-504 -736 -550 0
647 -153 -888 0
-519 -648 -209 0
-891 938 120 0
-663 -695 687 0
160 212 679 0
142 944 -677 0
-314 -43 462 0
718 955 -90 0
961 727 -268 0
151 -592 275 0
-790 -723 102 0
241 -999 -248 0
-794 -760 -880 0
316 610 118 0
762 648 129 0
-529 508 -281 0
-225 159 -93 0
-56 964 -135 0
799 -893 -96 0
204 -257 -206 0
-910 -428 -762 0
255 599 237 0
-908 550 258 0
180 502 181 0
-485 -349 -463 0
919 -75 328 0
-693 679 -788 0
-854 610 148 0
-387 447 620 0
968 728 202 0
720 -852 422 0
-342 -158 362 0
-970 -45 -106 0
-725 -791 426 0
454 332 -577 0
899 -650 833 0
-869 -828 412 0
-687 -911 458 0
838 -121 106 0
-110 760 481 0
-438 738 -835 0
293 243 618 0
252 -802 -442 0
997 -871 -30 0
-814 -925 379 0
102 -994 889 0
917 -199 620 0
-375 -693 219 0
643 551 -123 0
145 321 779 0
163 -160 -680 0
-574 -747 -22 0
510 568 -155 0
-164 195 505 0
-109 -619 556 0
-976 332 232 0
-446 -718 494 0
313 -793 806 0
448 -263 -916 0
389 488 -218 0
826 -174 356 0
-153 450 -831 0
357 937 438 0
908 520 -480 0
-648 -979 -675 0
-621 65 -938 0
952 -786 236 0
278 322 -922 0
412 85 598 0
882 -895 -176 0
-276 600 -900 0
-991 90 -121 0
-466 169 966 0
-684 -40 947 0
-196 -414 -869 0
-107 929 281 0
84 690 -457 0
-143 -693 -689 0
218 -585 -398 0
-989 393 85 0
-633 965 -594 0
731 -653 -478 0
404 270 389 0
-910 607 822 0
-37 -919 -407 0
-695 185 277 0
614 240 -343 0
136 -266 823 0
539 -784 -683 0
-741 -527 974 0
383 305 949 0
-168 -52 748 0
-699 -359 262 0
386 696 547 0
457 -321 169 0
-755 -301 -760 0
-58 284 663 0
-901 212 -923 0
305 -179 -814 0
876 677 24 0
356 860 -23 0
624 -690 -146 0
-828 -964 676 0
-152 976 -479 0
-628 -906 -979 0
677 -202 152 0
899 -103 -99 0
662 479 -678 0
-301 947 -689 0
326 14 812 0
795 804 -211 0
-424 356 822 0
627 408 -133 0
932 41 386 0
104 968 834 0
199 826 -323 0
297 53 701 0
492 525 -644 0
915 -602 -387 0
904 -948 -468 0
686 177 -610 0
352 631 -456 0
628 -165 73 0
183 -879 -683 0
-768 -400 -492 0
-332 -985 -586 0
-886 384 237 0
378 892 354 0
-221 388 -113 0
281 -641 -409 0
654 -639 222 0
-681 424 423 0
852 -142 494 0
544 -197 -201 0
229 675 -68 0
899 814 427 0
-389 188 -193 0
619 -365 -741 0
529 -861 -119 0
334 -259 379 0
341 -741 -475 0
439 -537 875 0
-716 754 305 0
-560 -876 -503 0
250 -326 992 0
-602 -317 326 0
-334 877 827 0
-851 -949 -334 0
762 -232 611 0
332 -708 -249 0
-920 322 -470 0
674 39 899 0
602 -222 -903 0
421 -176 -122 0
816 -500 264 0
-453 494 925 0
-913 -166 599 0
770 -485 720 0
673 -333 -697 0
-928 14 -501 0
934 431 -399 0
756 711 112 0
-892 981 631 0
224 56 -794 0
-514 -933 -985 0
575 -2 592 0
-620 -659 134 0
-400 717 689 0
-212 871 -317 0
403 -52 -824 0
755 -928 -394 0
780 886 611 0
-558 823 757 0
541 -213 553 0
734 -543 388 0
790 450 -697 0
-572 937 -260 0
605 -51 -219 0
-978 -928 349 0
201 650 872 0
270 801 -531 0
259 121 897 0
-706 807 -877 0
373 -406 -118 0
171 961 -891 0
970 -288 89 0
560 -886 779 0
560 269 -731 0
-232 -244 508 0
159 529 963 0
-318 -297 -614 0
605 -580 259 0
-605 -937 820 0
-590 -165 -431 0
139 828 930 0
-247 344 -16 0
-66 -170 -911 0
-714 709 -64 0
63 121 973 0
485 831 324 0
882 104 -351 0
664 -966 -119 0
121 -993 -137 0
-713 926 -238 0
527 195 286 0
449 -43 746 0
-29 180 951 0
935 846 457 0
-722 -497 893 0
792 -972 627 0
-432 377 -163 0
-603 219 890 0
-193 -771 -17 0
-43 604 -779 0
212 139 -491 0
-87 117 -387 0
612 363 935 0
-719 -48 181 0
547 -342 488 0
-947 36 531 0
519 -278 -997 0
-787 719 -594 0
171 660 217 0
68 163 -871 0
-550 -50 -866 0
884 -87 -623 0
158 -475 -624 0
64 560 -119 0
-643 560 -418 0
881 -230 698 0
-915 946 237 0
530 978 -910 0
29 530 -977 0
513 -501 -651 0
-352 -617 395 0
-270 -264 258 0
-429 202 940 0
406 -259 565 0
-976 -394 -361 0
-277 433 -674 0
-273 754 -768 0
-158 678 -999 0
455 766 -198 0
765 925 -527 0
183 121 486 0
-606 -888 -289 0
28 -554 -932 0
854 176 -915 0
-133 746 541 0
626 96 -87 0
-915 238 -916 0
-343 -74 753 0
903 128 -901 0
664 -469 519 0
-428 -521 -372 0
56 -221 -399 0
-550 -734 253 0
559 -869 369 0
301 508 -461 0
531 -98 297 0
590 106 -320 0
-430 169 714 0
-450 605 -867 0
612 127 -586 0
147 -523 -191 0
-816 487 -793 0
-372 94 -168 0
-975 957 745 0
557 86 -603 0
463 -829 -100 0
3 833 -585 0
776 -795 441 0
351 96 -266 0
-133 776 628 0
197 280 668 0
-736 -263 -528 0
703 50 -602 0
234 309 332 0
876 -903 -42 0
368 -206 193 0
-73 983 -594 0
-824 282 378 0
-702 427 -46 0
542 -236 25 0
591 425 -41 0
-855 572 816 0
529 775 423 0
999 -200 266 0
-927 733 -625 0
-135 587 240 0
-984 965 -316 0
561 -56 -873 0
-647 389 -99 0
-984 -79 359 0
-560 -718 -411 0
216 -947 975 0
441 -419 103 0
620 647 937 0
947 724 -882 0
-836 102 -943 0
-701 734 98 0
645 618 -412 0
288 385 66 0
839 -923 311 0
-241 701 224 0
128 807 -386 0
624 539 818 0
-815 306 293 0
-483 309 -842 0
-287 -214 946 0
-404 613 -812 0
649 -396 742 0
635 -518 -484 0
-307 -465 356 0
-615 -665 -391 0
-916 -491 -439 0
703 26 -165 0
771 -212 558 0
261 255 44 0
-826 326 -359 0
107 -137 63 0
107 -20 802 0
-323 -198 288 0
152 -882 -728 0
-345 -319 581 0
-850 937 -227 0
160 -76 -786 0
28 -49 -703 0
752 330 -851 0
-815 427 -618 0
-460 -727 -308 0
103 -841 743 0
429 -969 859 0
836 379 891 0
-584 377 -600 0
582 -835 -456 0
-671 -537 -981 0
751 463 625 0
-588 -967 -176 0
77 -420 6 0
729 -329 450 0
910 334 -580 0
432 -682 877 0
160 -856 -895 0
-114 -747 -897 0
-590 -831 213 0
377 -759 370 0
575 -908 341 0
313 180 -602 0
-673 468 -625 0
186 594 -809 0
275 -237 895 0
506 -712 -570 0
914 600 306 0
-223 -518 -732 0
-50 289 -618 0
370 -677 -479 0
-953 -770 -591 0
989 571 662 0
-23 -641 -983 0
393 103 -931 0
458 382 -266 0
-494 366 977 0
-487 580 946 0
-738 -574 -831 0
-432 593 -801 0
-40 -258 -307 0
-468 613 395 0
-80 752 -517 0
-931 874 296 0
-238 63 -713 0
-988 607 -818 0
-20 282 397 0
222 38 593 0
116 -991 -885 0
693 -63 858 0
-438 280 886 0
196 201 -897 0
-928 248 421 0
445 -841 921 0
166 393 517 0
874 -759 -11 0
972 94 -822 0
-213 -983 -921 0
-642 -251 -736 0
520 -132 732 0
-238 -10 950 0
876 94 -484 0
149 -295 -122 0
434 145 -739 0
-670 561 -332 0
-725 -666 -517 0
475 525 -738 0
159 -142 -688 0
-992 814 517 0
773 526 -464 0
757 222 -488 0
371 491 -189 0
746 -814 317 0
294 -840 905 0
-104 901 921 0
59 -130 808 0
-279 -527 -906 0
142 532 -997 0
889 -901 -122 0
560 563 403 0
-745 369 -271 0
-534 922 226 0
108 348 -609 0
586 20 375 0
-675 -309 810 0
859 538 312 0
589 -496 -743 0
-124 811 -684 0
-172 -525 317 0
993 -506 -35 0
475 -624 935 0
380 -722 292 0
-276 -108 -319 0
264 -475 -984 0
782 570 127 0
479 -256 128 0
992 476 -354 0
148 337 715 0
-902 32 -602 0
-886 661 -96 0
61 -718 -312 0
-984 -848 -858 0
-433 -225 -863 0
-71 701 806 0
592 642 -314 0
-217 214 566 0
255 -623 730 0
-341 -457 786 0
-191 -626 -57 0
826 -561 -999 0
692 -342 -923 0
945 738 645 0
531 234 454 0
-992 941 471 0
-507 -808 343 0
644 -156 -294 0
428 655 -633 0
799 372 -29 0
-999 -211 209 0
55 299 983 0
567 502 107 0
-560 -817 -667 0
-579 -160 -693 0
825 -161 747 0
961 747 -311 0
-472 927 673 0
366 793 724 0
-801 974 -461 0
-286 -823 -293 0
-323 -632 -620 0
-992 -659 448 0
-554 -941 -958 0
305 -413 -147 0
-836 946 -98 0
-503 581 200 0
-379 -906 145 0
30 129 -559 0
857 742 942 0
262 -406 975 0
709 -509 90 0
-729 -445 718 0
-868 -404 949 0
697 557 228 0
-972 -588 -527 0
-478 -605 158 0
-839 -234 -64 0
753 -349 -118 0
690 279 -10 0
-861 -967 358 0
831 780 -445 0
-101 227 -551 0
552 109 97 0
266 605 -232 0
544 -440 -339 0
-594 -121 -922 0
967 -519 130 0
-645 -690 773 0
-165 210 957 0
281 610 382 0
-118 912 -490 0
892 619 326 0
-799 866 129 0
317 -151 236 0
760 -46 -910 0
-978 -361 -601 0
289 869 917 0
-422 402 343 0
17 -384 216 0
82 228 -504 0
-760 -979 -824 0
-686 -105 -800 0
261 -316 -457 0
1 696 -146 0
-60 661 372 0
-659 202 772 0
551 528 -719 0
-194 -949 32 0
-173 -502 43 0
-119 534 653 0
257 -535 48 0
-358 584 -148 0
-409 -671 -79 0
330 -837 14 0
-341 -792 -467 0
-653 -19 -997 0
314 575 -877 0
19 348 -115 0
-742 -831 162 0
744 406 82 0
185 179 -803 0
55 -538 -624 0
-778 -455 -487 0
-27 625 -356 0
-318 -675 173 0
-682 534 -644 0
-266 -143 -720 0
42 809 -265 0
-145 -18 359 0
-374 -189 -571 0
-143 -811 294 0
-934 923 969 0
-822 329 796 0
-855 -492 -704 0
873 -897 376 0
35 -666 464 0
695 774 134 0
-895 862 -842 0
-231 585 -442 0
-213 -300 270 0
-388 217 300 0
325 -472 95 0
202 628 798 0
-27 781 -173 0
-65 507 632 0
643 250 883 0
734 -558 120 0
-331 965 -432 0
131 -965 -485 0
-916 -615 194 0
971 286 975 0
-569 895 695 0
-793 546 -170 0
-314 754 676 0
-666 -491 -909 0
-407 -455 -698 0
-589 -737 -460 0
-582 300 -826 0
622 -509 645 0
350 -230 -454 0
891 -67 653 0
-46 -386 437 0
-123 415 -427 0
648 703 -995 0
-123 752 -2 0
-997 -342 427 0
945 951 -903 0
74 -958 186 0
-844 846 -516 0
-12 -96 935 0
134 -24 -128 0
523 -200 333 0
454 978 -102 0
-760 678 807 0
159 -811 423 0
716 49 -375 0
536 971 -214 0
-374 -78 -94 0
-966 -754 -999 0
104 726 -795 0
-835 884 -324 0
-799 52 -8 0
-739 -47 -170 0
872 812 -776 0
-139 -960 -773 0
640 683 147 0
284 -455 -832 0
-322 -533 77 0
291 -461 -518 0
-383 243 618 0
235 1000 742 0
495 -172 861 0
-495 -106 -39 0
182 508 509 0
56 643 308 0
-613 98 -569 0
194 -847 -282 0
-478 -351 954 0
582 83 773 0
480 -206 -481 0
-898 212 -584 0
583 581 -21 0
737 221 -200 0
140 -922 501 0
-785 562 -949 0
-430 -712 339 0
493 -631 -167 0
-686 -769 939 0
263 158 -769 0
-57 -236 -242 0
766 -81 -310 0
201 880 -141 0
764 449 -640 0
-255 -85 -869 0
133 891 -489 0
-340 -5 173 0
-509 985 -116 0
74 333 490 0
-744 -23 800 0
-342 -491 -184 0
-538 -344 -994 0
40 -46 -279 0
113 -451 -877 0
-73 633 -629 0
77 601 -630 0
512 -894 692 0
506 93 -489 0
-258 456 700 0
-756 272 21 0
-282 581 -788 0
-424 -980 -439 0
-668 -478 -251 0
-486 -965 -334 0
999 -829 -590 0
335 -125 -522 0
-535 412 405 0
821 -235 -167 0
-150 523 898 0
-298 -42 -117 0
632 -842 -147 0
-102 -737 -21 0
-131 -547 -448 0
277 893 -409 0
-828 9 -291 0
893 -645 -36 0
-829 -397 -724 0
593 317 999 0
94 224 -317 0
-940 -307 -944 0
291 -120 520 0
-98 -545 962 0
-833 -696 -309 0
-353 411 -713 0
-355 241 -82 0
-899 783 -149 0
864 700 101 0
270 -277 -346 0
-686 149 -577 0
-787 -764 950 0
770 699 680 0
-848 -729 274 0
554 542 125 0
-482 963 794 0
-190 565 177 0
966 749 -451 0
191 -758 -901 0
-365 2 -694 0
-528 963 -714 0
1000 -601 886 0
-209 936 862 0
359 115 -322 0
-188 -227 796 0
-786 122 -413 0
890 -560 729 0
489 -867 696 0
573 682 -629 0
17 789 909 0
23 255 -126 0
-608 987 -4 0
638 -500 182 0
-467 -714 327 0
246 -102 -678 0
-881 660 -333 0
799 -235 -363 0
432 789 661 0
382 -846 -207 0
-352 774 -739 0
2 209 58 0
-734 -127 -856 0
212 -548 -48 0
528 -159 -714 0
-294 -670 -716 0
-299 335 -744 0
-178 754 576 0
-423 -570 -654 0
329 -30 622 0
208 236 -367 0
290 804 -214 0
-898 -865 464 0
195 -525 43 0
-981 -362 -310 0
-346 312 146 0
-928 931 -957 0
-960 -970 -952 0
70 -209 370 0
-317 895 -486 0
-840 -85 -65 0
625 -210 44 0
-271 -688 79 0
748 -78 -786 0
869 504 873 0
6 854 -160 0
-5 -635 463 0
-981 -649 -103 0
-720 828 67 0
-246 -307 -593 0
499 687 -784 0
605 -529 -494 0
-37 891 114 0
-263 306 -953 0
935 -356 689 0
970 -118 338 0
803 629 -90 0
680 -670 -424 0
-748 -698 247 0
957 -209 -990 0
-288 -219 78 0
976 -381 -802 0
-395 175 933 0
-346 785 -158 0
216 -449 694 0
500 701 951 0
-12 504 -533 0
204 -513 133 0
-959 -465 -971 0
-84 -763 -482 0
-720 401 -585 0
599 -227 -398 0
537 -907 -63 0
-453 23 -215 0
743 684 -892 0
-926 -1000 -108 0
323 -510 888 0
704 81 480 0
64 906 701 0
547 -700 -510 0
-195 -769 142 0
830 843 -941 0
576 -444 305 0
426 419 744 0
-19 232 -501 0
970 795 -226 0
834 691 290 0
986 -12 613 0
-781 681 149 0
-417 -248 692 0
-182 893 -494 0
-825 902 168 0
-446 -605 804 0
-755 614 -999 0
545 -257 654 0
440 164 -338 0
-111 -168 874 0
-827 -757 -126 0
412 -971 304 0
923 -831 799 0
7 -921 -423 0
-38 -985 281 0
246 -997 830 0
-333 -139 713 0
780 -27 -340 0
-345 -188 548 0
-476 420 918 0
468 -967 272 0
984 -729 -423 0
-475 78 -804 0
-643 368 454 0
-206 764 896 0
111 -460 848 0
813 86 -416 0
-683 -471 -826 0
12 -281 -711 0
-705 -370 -359 0
782 -198 -568 0
7 -938 745 0
-330 -122 -660 0
-592 -434 -640 0
326 698 910 0
-810 -462 -599 0
173 385 -55 0
-914 -667 -793 0
-202 -5 168 0
-385 -843 -146 0
312 -27 577 0
673 871 -354 0
-644 -107 945 0
461 537 -652 0
-319 123 -712 0
-625 -549 -323 0
628 -388 -54 0
-819 506 -616 0
619 641 658 0
-784 -115 -819 0
731 -46 -539 0
325 212 810 0
699 -70 -731 0
-409 -722 429 0
-956 -920 366 0
439 776 458 0
342 788 486 0
737 -290 646 0
775 -101 833 0
-845 -702 -732 0
665 172 730 0
141 -810 372 0
615 -853 814 0
-399 392 955 0
51 963 274 0
-995 541 -831 0
-275 -250 -386 0
-940 -574 261 0
-786 -112 328 0
-348 636 325 0
-852 193 350 0
316 733 573 0
281 401 -67 0
-403 -165 985 0
674 -992 79 0
-970 292 -795 0
-408 679 829 0
-16 -637 257 0
-944 -697 56 0
-932 617 913 0
741 160 341 0
-36 979 -906 0
-487 -519 -414 0
336 372 -437 0
-598 414 552 0
-300 -708 807 0
-528 719 -225 0
-300 -926 -666 0
745 -813 -167 0
655 373 427 0
866 374 57 0
916 905 -16 0
613 -822 322 0
-220 -382 498 0
372 461 681 0
-613 -965 -717 0
311 565 -798 0
787 539 998 0
455 -321 111 0
441 -583 237 0
-303 502 16 0
107 505 -286 0
988 -674 648 0
-52 738 350 0
-137 211 852 0
789 444 460 0
-951 905 -662 0
-798 226 476 0
772 426 -235 0
-382 175 -871 0
41 -873 541 0
-334 -563 776 0
898 -361 -539 0
-373 -97 -131 0
-316 704 539 0
-234 367 736 0
-293 335 -604 0
949 -784 786 0
580 -908 102 0
360 -241 611 0
-574 -281 225 0
243 708 755 0
-204 83 505 0
997 -892 155 0
592 305 157 0
126 -519 -575 0
-117 81 -240 0
147 -181 -31 0
980 -724 529 0
-912 -784 -793 0
-429 778 -668 0
25 -544 720 0
-994 224 415 0
-273 11 36 0
717 -23 -40 0
981 23 -760 0
125 -463 90 0
-60 -7 -246 0
652 657 -442 0
576 -665 966 0
168 -40 347 0
215 720 -66 0
838 -911 574 0
694 -950 818 0
632 -183 208 0
-910 716 664 0
719 -666 149 0
244 -671 665 0
-71 -327 535 0
-262 816 619 0
562 -751 -91 0
-308 872 -783 0
821 391 843 0
-286 -610 991 0
79 460 -927 0
-409 79 832 0
-818 919 -731 0
-807 -543 -378 0
-995 -223 618 0
108 -997 971 0
-452 -767 -63 0
-251 263 -246 0
-509 -765 923 0
-485 -575 387 0
-9 -830 -980 0
645 -567 -676 0
104 -372 -37 0
772 -307 -280 0
28 619 831 0
-174 -908 591 0
-53 -169 -964 0
543 584 -140 0
-246 -49 -669 0
-240 -42 412 0
-702 -539 -359 0
-47 486 392 0
-267 -151 -96 0
-980 -470 684 0
-536 -174 -160 0
138 686 -740 0
155 125 556 0
-719 -777 390 0
-187 -607 107 0
-211 250 -221 0
27 -519 646 0
-853 28 -724 0
-770 -33 -94 0
-675 320 -93 0
-582 998 244 0
678 -142 75 0
648 699 279 0
608 291 880 0
840 486 701 0
-933 851 158 0
363 686 -171 0
-393 745 -37 0
-290 -491 -473 0
-523 -362 -232 0
-322 922 161 0
-344 -485 303 0
-911 -578 99 0
672 -856 -119 0
552 705 -929 0
687 738 597 0
-223 -444 -358 0
-285 825 890 0
583 839 487 0
-177 -658 80 0
-858 516 -273 0
-480 366 201 0
754 -16 -270 0
-720 -674 -70 0
770 695 621 0
99 -970 -258 0
-968 -378 -54 0
798 918 207 0
-896 -630 -18 0
-951 360 139 0
731 136 -708 0
-653 112 137 0
-190 -552 320 0
136 -184 -256 0
-570 -991 -734 0
635 436 66 0
-52 -710 303 0
-787 -509 20 0
650 578 627 0
-982 869 -251 0
999 127 -666 0
-515 -63 375 0
746 56 -928 0
-92 -919 685 0
24 -527 -242 0
-656 -15 321 0
966 33 896 0
441 409 41 0
-991 720 111 0
493 377 -362 0
-427 -44 555 0
507 459 428 0
595 155 -127 0
-869 -625 665 0
-540 -274 12 0
-943 935 48 0
-768 -952 -369 0
943 722 -291 0
-986 -203 306 0
-989 -852 -194 0
18 334 -223 0
-338 -456 -563 0
-387 297 272 0
646 4 -725 0
981 -333 -428 0
-681 199 240 0
842 45 -60 0
-985 -546 113 0
251 -761 834 0
340 211 578 0
-284 -272 5 0
-984 573 -282 0
-840 359 672 0
796 -384 -666 0
-338 98 860 0
137 339 -108 0
524 -890 52 0
398 586 31 0
-297 -790 -854 0
992 -89 -461 0
-468 -224 -922 0
-385 -418 -638 0
-746 -214 -590 0
-38 355 360 0
-472 333 -1000 0
206 32 622 0
-803 661 -449 0
-720 -845 -448 0
362 -847 203 0
216 -964 25 0
-882 70 -530 0
7 761 921 0
809 -216 -202 0
-431 -474 -707 0
-595 -759 -44 0
-216 817 512 0
208 -695 -770 0
494 -815 -813 0
790 317 13 0
11 -1 -338 0
-521 -237 391 0
-570 329 -364 0
49 740 508 0
-231 -190 399 0
-417 320 -567 0
-834 341 -134 0
-47 -241 61 0
656 -125 391 0
613 856 792 0
-228 -535 947 0
260 -99 897 0
810 -205 68 0
-826 783 -870 0
807 26 -316 0
-113 -205 149 0
-780 -872 -978 0
880 -123 -591 0
-979 194 846 0
580 -788 -89 0
-672 480 646 0
391 958 -360 0
-938 -281 620 0
-896 373 -859 0
-111 849 397 0
-574 -582 -100 0
298 625 -204 0
-861 -424 -682 0
-193 -728 800 0
-273 -665 295 0
398 -180 -906 0
632 151 -275 0
921 785 -654 0
-810 877 -965 0
593 -729 262 0
93 679 374 0
-963 -18 -354 0
-641 -288 99 0
-863 -570 727 0
-983 -713 228 0
-969 -148 288 0
423 -108 -320 0
-389 -622 -192 0
768 729 -417 0
-242 -897 364 0
305 -338 -887 0
-539 -192 -12 0
365 -715 329 0
875 645 -918 0
654 -534 -665 0
-373 67 500 0
587 -154 -697 0
448 698 216 0
400 -824 -459 0
451 841 -538 0
-812 -964 297 0
-749 -766 -550 0
226 738 323 0
64 -439 -802 0
450 193 -396 0
-433 355 638 0
489 -939 459 0
501 -415 -203 0
-916 700 -357 0
-50 247 -958 0
806 146 -170 0
963 323 327 0
377 -248 -211 0
-935 393 150 0
997 600 274 0
-342 286 -623 0
304 392 -583 0
-887 184 426 0
-436 -413 -320 0
-621 -236 -211 0
-345 -554 -980 0
-103 -959 -784 0
940 333 -743 0
799 505 -520 0
792 -636 648 0
-93 56 244 0
48 -677 -339 0
667 -830 650 0
-194 -940 -547 0
-141 824 -985 0
-605 320 732 0
-223 -903 376 0
-27 694 468 0
460 -245 -716 0
-715 -947 252 0
-497 -896 -284 0
932 730 -631 0
985 179 88 0
65 231 -929 0
-18 263 -580 0
-287 -622 675 0
-335 -571 -814 0
-158 -76 -41 0
-266 319 45 0
-900 102 938 0
711 -293 488 0
-134 -483 233 0
373 111 559 0
550 -107 208 0
50 118 211 0
839 -117 225 0
223 310 764 0
280 -716 893 0
-842 450 443 0
229 378 -511 0
794 219 235 0
-139 -927 991 0
948 -639 544 0
504 754 16 0
-142 -405 709 0
-374 806 996 0
-450 -624 52 0
-406 -972 206 0
-1 -253 561 0
-853 -157 318 0
265 -351 237 0
-661 572 11 0
247 872 709 0
-621 -359 171 0
-282 668 -546 0
-731 -752 -459 0
588 -675 -586 0
-946 -716 643 0
-620 -651 -671 0
701 553 875 0
-209 493 88 0
821 820 590 0
-375 -878 -464 0
928 780 -504 0
929 -395 -920 0
577 -98 771 0
582 -252 88 0
-459 143 -699 0
-669 -833 819 0
913 828 176 0
-659 -87 554 0
624 458 -248 0
-880 4 -578 0
49 -56 158 0
256 279 327 0
-89 -845 -326 0
94 -276 120 0
-704 966 -760 0
663 -515 -946 0
200 -673 277 0
537 630 -69 0
333 -102 -569 0
-463 -81 892 0
458 118 442 0
928 -751 -802 0
113 -547 94 0
-41 -872 -307 0
33 216 -657 0
227 363 256 0
162 237 -549 0
-674 -470 -525 0
-96 476 900 0
-655 -390 -1000 0
742 -72 344 0
925 877 75 0
-42 -57 -926 0
348 554 66 0
-957 835 448 0
-995 -776 188 0
-415 -536 -261 0
885 -680 -64 0
-211 401 -808 0
560 653 -611 0
288 -564 -250 0
-591 -944 -982 0
158 218 907 0
-497 34 751 0
645 -648 944 0
679 242 -475 0
-517 938 438 0
-571 -586 -990 0
-300 979 734 0
-649 -110 113 0
134 824 -965 0
662 535 -593 0
-153 -461 -520 0
-673 -535 747 0
4 -662 264 0
252 61 -900 0
891 -149 -344 0
318 -420 -885 0
971 -607 671 0
916 -9 632 0
-713 -694 -284 0
330 456 291 0
855 215 -124 0
-905 -781 519 0
265 209 -13 0
598 128 772 0
831 52 962 0
-26 -953 -869 0
-204 -143 764 0
213 808 992 0
781 -121 39 0
4 512 478 0
-543 95 -303 0
-204 -4 907 0
379 -864 581 0
249 703 -252 0
-335 571 904 0
-859 -583 208 0
650 958 -430 0
-767 74 -775 0
-416 -228 572 0
223 -476 -686 0
-68 542 -997 0
422 997 762 0
404 376 126 0
418 738 3 0
-987 511 692 0
572 -685 375 0
884 271 -284 0
524 1 543 0
-334 569 942 0
-234 -339 617 0
299 869 -599 0
572 -883 -607 0
-374 -515 446 0
891 -809 -509 0
401 -523 186 0
-877 208 -244 0
-103 -811 341 0
735 -714 477 0
844 -874 -43 0
53 770 -668 0
-702 -701 -660 0
-855 -371 -134 0
-927 -842 -971 0
275 582 -157 0
780 526 -316 0
-254 -14 -346 0
-163 -667 -78 0
805 -888 943 0
556 648 590 0
-300 -411 -716 0
-529 -853 934 0
-201 -780 -592 0
676 712 -618 0
-208 -896 -340 0
192 103 -125 0
-765 -729 916 0
846 509 -835 0
-302 645 125 0
-108 679 939 0
475 -806 -970 0
-793 577 387 0
243 -876 730 0
509 -673 -797 0
-382 -376 -638 0
446 456 -21 0
-42 -971 477 0
530 -195 -572 0
252 869 -699 0
794 869 -177 0
445 550 -844 0
-527 26 457 0
200 363 -484 0
-484 -749 -822 0
-359 -624 -375 0
937 941 -155 0
113 -913 242 0
-39 554 177 0
971 -955 827 0
-408 120 -375 0
470 -149 -684 0
687 -15 -743 0
-185 -140 118 0
391 976 224 0
708 -549 -510 0
-218 414 832 0
139 -402 549 0
-772 -875 -340 0
480 542 -447 0
289 163 -542 0
-770 447 -751 0
435 579 305 0
-197 -419 297 0
423 -157 790 0
792 -596 -780 0
-618 660 458 0
401 -569 -409 0
-439 -841 31 0
396 -107 647 0
-975 199 -150 0
-410 -878 -691 0
-45 850 270 0
293 334 -108 0
-266 -116 -783 0
386 -520 -490 0
458 640 -773 0
521 260 53 0
-100 -28 663 0
-538 -585 995 0
-805 -29 177 0
695 928 -471 0
-92 -99 607 0
265 331 169 0
371 867 931 0
838 -425 212 0
-951 -257 -877 0
640 -572 -392 0
-683 593 -128 0
-72 590 288 0
25 789 814 0
760 707 -719 0
-195 11 80 0
602 -397 120 0
167 499 369 0
-507 13 -512 0
861 -517 490 0
470 53 359 0
-127 -442 353 0
-101 439 716 0
242 273 267 0
131 456 -141 0
703 752 72 0
84 590 962 0
374 382 439 0
780 -273 -413 0
282 -632 -579 0
-996 -282 -650 0
-295 -108 265 0
843 -97 464 0
-955 -313 818 0
-257 469 918 0
515 -116 -77 0
346 151 786 0
627 -993 -155 0
-383 254 -907 0
122 603 -588 0
-10 -506 -347 0
224 375 -766 0
224 801 -997 0
-900 -404 683 0
682 -277 -357 0
-425 -345 -859 0
-277 193 882 0
-347 -468 -569 0
-559 365 720 0
-968 518 -859 0
-593 -488 -305 0
-87 454 -432 0
630 -199 -196 0
-832 534 -739 0
-996 -779 375 0
-386 -879 -64 0
602 -647 420 0
-882 -500 -97 0
647 209 -785 0
551 -431 -17 0
-561 -604 618 0
-461 -74 16 0
938 -540 -100 0
828 -674 -269 0
197 -171 -95 0
552 -252 24 0
665 959 -381 0
-741 -130 185 0
297 -544 516 0
-358 -961 -940 0
595 465 518 0
-627 354 -146 0
-791 -64 -52 0
208 614 -525 0
999 301 -317 0
-973 -149 -999 0
564 -601 -824 0
506 989 -988 0
504 158 -644 0
-966 -184 -540 0
-418 504 678 0
266 -228 -624 0
325 -170 -396 0
-408 -259 -309 0
-699 -926 -394 0
192 -785 169 0
-22 -195 852 0
994 -546 662 0
-929 979 362 0
-764 982 583 0
864 -233 56 0
685 -756 -103 0
577 195 744 0
35 -110 -601 0
924 -903 -185 0
-626 737 486 0
-834 -70 -829 0
817 618 548 0
956 -590 -124 0
-7 76 -3 0
623 -930 -637 0
-80 -879 978 0
105 -34 861 0
-644 -734 415 0
490 49 488 0
-172 228 -33 0
130 -722 455 0
-608 -920 -9 0
-997 489 -436 0
994 -445 -528 0
-212 -562 -629 0
-728 -488 684 0
-320 819 -662 0
-683 -96 -292 0
925 699 -377 0
175 -633 -137 0
128 -262 852 0
67 464 138 0
-701 100 487 0
-332 599 435 0
600 -51 -226 0
501 -824 -109 0
982 121 -21 0
-780 86 -425 0
811 72 -236 0
-998 -712 861 0
-750 -301 540 0
-149 -378 -542 0
-696 -313 -859 0
486 808 -221 0
-48 -680 -534 0
-935 843 212 0
-849 -26 -597 0
-607 -436 -217 0
-695 595 82 0
739 492 269 0
-294 -276 319 0
896 273 -238 0
-92 826 578 0
-703 355 973 0
402 498 -140 0
-892 808 -378 0
-618 520 -224 0
555 -321 154 0
63 204 537 0
-423 191 -681 0
894 931 470 0
900 956 3 0
-471 881 468 0
491 -178 -875 0
627 -58 -329 0
-151 -591 281 0
-136 788 881 0
-596 -605 -520 0
-636 -727 58 0
124 -444 196 0
-761 748 297 0
-633 300 5 0
-993 942 -803 0
505 960 103 0
672 -793 -510 0
864 760 812 0
776 445 50 0
-977 -199 461 0
848 -471 -67 0
-315 -899 142 0
24 764 25 0
557 708 -733 0
-683 910 646 0
497 -379 -887 0
962 328 -68 0
-699 -183 944 0
-173 -771 -821 0
-943 -685 519 0
444 -572 555 0
-292 728 -79 0
-475 229 -205 0
-418 410 830 0
-183 -889 699 0
-170 578 -920 0
-382 -270 273 0
-61 761 -298 0
-697 -537 752 0
-898 995 -459 0
453 -782 -178 0
-146 -580 237 0
770 300 -565 0
27 727 18 0
-307 212 -890 0
792 -838 50 0
-59 -739 -391 0
-234 816 -651 0
598 -53 -167 0
829 9 297 0
12 572 881 0
-692 -75 -794 0
-837 -422 390 0
-642 -719 -708 0
-178 522 -155 0
431 916 356 0
589 916 202 0
-555 -445 71 0
559 -603 898 0
-86 -998 -266 0
-497 -918 502 0
-727 -994 -755 0
-311 194 292 0
-657 516 111 0
-671 252 704 0
424 673 342 0
932 -466 -744 0
-768 -212 825 0
68 -146 -145 0
794 751 -705 0
71 -422 -855 0
992 -513 101 0
611 753 -958 0
891 786 -673 0
438 -326 307 0
-721 819 764 0
-733 -171 383 0
-289 106 468 0
-507 472 906 0
453 -808 241 0
-616 204 -900 0
-910 27 -412 0
177 -373 884 0
290 -230 576 0
-474 -278 191 0
918 -581 257 0
742 -238 42 0
824 851 -732 0
-758 77 -854 0
397 555 233 0
816 54 571 0
-105 -502 -686 0
514 -738 671 0
724 634 471 0
-632 -687 -277 0
-683 -163 -114 0
-634 -267 392 0
-446 661 61 0
-210 644 -725 0
773 129 433 0
-90 766 -970 0
710 -193 -638 0
-713 993 -225 0
698 -167 403 0
-759 182 -541 0
511 -740 376 0
352 776 -877 0
653 -312 931 0
231 58 946 0
-952 21 611 0
-320 104 226 0
881 325 -648 0
655 557 -421 0
-612 589 143 0
-1000 -444 560 0
-393 -712 -136 0
953 -65 574 0
778 -232 504 0
-450 146 4 0
-226 -43 570 0
-714 141 964 0
-553 658 246 0
752 -512 -977 0
240 241 460 0
-137 -588 445 0
341 -878 23 0
400 -315 194 0
-320 79 344 0
-177 120 435 0
373 193 -652 0
805 -927 858 0
-428 -48 -84 0
891 860 -731 0
910 -883 -8 0
565 84 338 0
-446 -776 -810 0
-623 226 -862 0
116 285 362 0
560 989 993 0
69 175 -682 0
-622 -798 -344 0
-328 682 789 0
37 -576 -438 0
359 -469 -132 0
820 -319 -791 0
450 838 -587 0
967 -124 573 0
238 -441 -256 0
-638 954 -144 0
858 727 455 0
310 -591 -892 0
400 -502 -363 0
960 -673 785 0
-312 -563 -825 0
-779 -631 135 0
-569 599 274 0
756 611 366 0
930 -496 78 0
756 -757 325 0
-712 -622 -57 0
-880 -38 514 0
832 -963 825 0
-705 247 223 0
-566 -249 -617 0
589 -78 -418 0
-840 484 -800 0
835 413 653 0
508 839 -774 0
-13 -176 -447 0
-638 -359 803 0
-971 726 327 0
-848 -501 395 0
166 -456 67 0
-413 968 768 0
478 131 -461 0
-863 -19 294 0
-46 961 175 0
78 658 936 0
-9 79 748 0
-217 -293 -105 0
864 -278 775 0
-984 45 65 0
-180 991 -836 0
-375 452 55 0
283 423 552 0
800 606 793 0
-745 488 -935 0
730 871 -982 0
-465 -258 -855 0
-629 -550 -157 0
613 -171 642 0
-134 -130 -833 0
-124 -732 -409 0
721 445 742 0
-67 529 -600 0
-588 -287 -718 0
53 319 553 0
-326 -450 -89 0
737 -899 -863 0
-694 -866 -488 0
288 -551 548 0
181 -173 -389 0
332 -896 -710 0
-991 -904 -79 0
-478 -868 -23 0
667 484 454 0
484 -185 455 0
-594 52 -120 0
748 -429 563 0
-149 -437 -515 0
-147 -74 -86 0
-578 407 -335 0
-13 -420 571 0
370 976 -117 0
405 -860 795 0
-733 773 -307 0
262 -46 304 0
-523 572 -205 0
-374 482 773 0
-114 -142 -128 0
-122 -329 -35 0
-173 678 456 0
906 797 -717 0
102 450 -810 0
657 59 -934 0
-269 -468 -397 0
428 -202 176 0
-81 -549 111 0
-801 -943 -623 0
-399 176 303 0
-230 -869 962 0
729 977 39 0
-211 -576 -165 0
-118 181 -964 0
-214 -666 250 0
-333 270 152 0
-611 -629 76 0
-107 832 662 0
952 -953 255 0
-949 208 -380 0
-37 -449 -266 0
-516 -306 -337 0
-550 843 253 0
211 -901 441 0
-276 505 -292 0
-764 -355 -744 0
-482 428 -106 0
817 1 212 0
-687 -392 -740 0
-264 -62 -751 0
830 -670 -741 0
-380 -74 461 0
784 -586 778 0
-707 481 -380 0
154 740 -176 0
-440 -234 520 0
837 781 -32 0
-335 -176 -890 0
-506 648 377 0
129 -776 -655 0
655 -210 885 0
-700 -611 606 0
-644 910 -647 0
-885 -587 430 0
-37 64 -713 0
674 637 893 0
759 -125 60 0
337 -655 -621 0
-849 -685 -570 0
622 -229 178 0
429 573 -424 0
2 -552 582 0
-374 -334 465 0
-603 674 297 0
-304 -350 -604 0
167 412 760 0
839 456 215 0
-906 -337 363 0
-461 184 949 0
357 -852 49 0
-167 -75 401 0
-142 -336 320 0
19 311 529 0
-712 29 129 0
-627 -58 563 0
-168 939 -414 0
68 439 737 0
-564 -403 -562 0
219 975 -138 0
-401 -832 -668 0
-15 842 -242 0
-283 699 497 0
974 -750 560 0
596 -231 270 0
-504 -167 -749 0
413 800 37 0
202 -832 -646 0
-449 -760 -408 0
517 -775 -264 0
-91 6 843 0
-184 942 -303 0
-488 531 -636 0
-363 -268 -47 0
-448 -175 259 0
-997 -350 881 0
638 -856 502 0
-276 994 -416 0
897 -810 893 0
616 -210 -345 0
300 716 -158 0
658 486 349 0
-670 -815 -351 0
959 -793 329 0
-478 -222 316 0
529 -345 641 0
-474 835 89 0
495 -55 -145 0
-198 -761 187 0
-680 768 827 0
-187 -35 744 0
-472 509 -276 0
-459 -147 564 0
426 362 -511 0
559 -26 157 0
1000 -640 171 0
-803 -638 436 0
397 543 947 0
-961 -988 -763 0
580 -934 575 0
944 803 -318 0
191 -148 904 0
-792 -852 138 0
-656 448 388 0
754 -503 441 0
518 190 266 0
-358 694 356 0
205 229 887 0
447 989 388 0
-568 292 626 0
-174 686 169 0
-940 452 -198 0
672 -632 521 0
-716 -55 685 0
-500 -93 588 0
823 -950 500 0
607 650 373 0
-675 -760 394 0
-762 -804 299 0
763 806 822 0
-861 -844 -52 0
-48 -27 -940 0
591 -724 218 0
-749 821 -137 0
151 -247 -152 0
179 -426 -465 0
428 193 -90 0
-289 931 48 0
-288 839 -499 0
61 969 256 0
309 -288 -343 0
-796 -116 -133 0
963 499 945 0
951 -152 -44 0
-71 -424 896 0
810 739 901 0
811 128 -418 0
19 -926 496 0
-332 -518 760 0
-381 685 -889 0
-91 -529 108 0
-662 547 248 0
114 -833 562 0
421 794 352 0
520 281 -823 0
40 759 787 0
118 -207 116 0
-129 724 750 0
221 -141 894 0
-677 926 562 0
324 -210 -507 0
-157 154 -839 0
321 906 293 0
396 -302 -417 0
563 -135 194 0
798 -269 503 0
-913 -684 513 0
776 814 -125 0
-489 -110 16 0
-644 -279 -910 0
-193 -261 854 0
800 -55 735 0
202 -757 -499 0
156 939 254 0
769 274 252 0
-632 -683 234 0
-329 377 340 0
-796 -920 701 0
-125 571 524 0
-372 -952 -627 0
-202 -641 -744 0
955 -300 -189 0
543 -413 -705 0
-11 -129 748 0
-883 926 50 0
95 -231 -459 0
-195 -997 691 0
-23 -966 42 0
-967 741 -12 0
-315 -508 -481 0
434 164 907 0
-453 -430 -409 0
-638 417 -840 0
-247 977 685 0
-868 157 54 0
607 -175 475 0
452 690 793 0
-619 922 263 0
706 -56 -577 0
595 -341 357 0
128 -955 757 0
686 859 -971 0
-233 -6 424 0
-646 -885 -965 0
447 123 418 0
-227 681 881 0
97 -579 -92 0
47 -697 858 0
-856 -985 723 0
241 701 566 0
-315 939 661 0
-559 -931 213 0
404 936 -934 0
983 -594 669 0
481 -968 -877 0
-800 613 -94 0
-196 -478 891 0
-965 -223 466 0
303 659 269 0
-843 -56 992 0
-35 219 -289 0
-683 958 662 0
-508 908 -502 0
30 -432 -625 0
-669 729 168 0
-465 -551 883 0
653 -909 -541 0
735 857 613 0
-272 -190 -764 0
436 -170 399 0
-219 -804 138 0
-654 9 780 0
-420 -102 681 0
-72 533 -714 0
297 749 642 0
547 -33 -163 0
930 -115 934 0
-976 855 -839 0
797 -122 -812 0
-686 691 51 0
374 385 -315 0
231 -446 -234 0
-646 -559 -439 0
-485 565 -493 0
572 379 -427 0
-772 -136 -726 0
528 270 424 0
896 359 174 0
-590 450 757 0
-205 477 80 0
-808 729 820 0
-916 -164 699 0
-609 981 844 0
-476 -357 -390 0
73 -827 4 0
-268 504 -662 0
736 -267 125 0
685 115 -714 0
-386 123 -210 0
-71 -194 -123 0
196 49 -54 0
57 -671 661 0
735 -698 -391 0
90 998 -14 0
778 421 -827 0
865 595 844 0
533 898 -420 0
599 -706 286 0
-718 794 -862 0
756 499 -204 0
-583 634 -385 0
-476 -741 723 0
372 -642 -414 0
272 -303 576 0
-683 576 -191 0
219 531 -884 0
-571 671 203 0
450 -105 -831 0
352 258 557 0
-652 -770 951 0
288 -414 -471 0
-461 886 -72 0
506 -838 893 0
289 -810 904 0
-155 451 -43 0
778 533 601 0
-857 817 436 0
169 -676 -723 0
-310 -544 906 0
896 -337 -854 0
-937 -744 -62 0
469 731 819 0
-170 -767 -300 0
-340 -597 -517 0
-392 -618 -645 0
-295 622 123 0
-400 514 21 0
33 -138 -223 0
634 865 654 0
152 911 650 0
-63 590 421 0
8 905 -810 0
867 -419 149 0
-274 -532 552 0
811 431 -729 0
781 691 -262 0
-101 -984 643 0
990 -467 589 0
-399 -841 451 0
-749 -71 609 0
-524 -194 -811 0
-574 -781 -733 0
699 615 88 0
856 -9 -553 0
-892 -737 -808 0
588 764 -212 0
-344 761 289 0
-476 -806 484 0
-324 544 -271 0
-117 920 -47 0
653 434 695 0
31 205 -284 0
501 39 394 0
-191 -996 756 0
-406 414 905 0
87 472 -837 0
-509 859 -361 0
9 391 367 0
-611 -421 -687 0
102 -367 -248 0
-801 -82 906 0
693 -607 -301 0
925 98 785 0
357 764 616 0
-134 224 754 0
-495 -989 -90 0
233 300 -83 0
122 -672 -578 0
667 216 478 0
471 581 253 0
819 9 -486 0
-486 995 863 0
596 320 925 0
-178 -169 361 0
181 -157 -148 0
-476 -923 290 0
508 365 -528 0
556 -728 966 0
-568 201 -187 0
-797 -852 -203 0
47 162 -365 0
-502 -816 249 0
878 255 778 0
599 -856 -635 0
500 -554 263 0
731 35 739 0
650 -584 -562 0
221 851 -254 0
619 -300 -83 0
491 -170 -747 0
233 209 -604 0
720 612 -452 0
488 -793 -149 0
873 -103 512 0
-695 370 878 0
-695 -510 -419 0
587 -331 -142 0
-896 -598 406 0
-266 -176 799 0
-626 -510 127 0
100 -734 237 0
-345 -89 452 0
721 -343 647 0
54 826 688 0
805 -166 659 0
-36 -974 -768 0
-50 -14 899 0
393 747 -61 0
-399 594 -739 0
448 311 -582 0
-858 119 -239 0
851 -925 269 0
-647 177 523 0
-232 -376 505 0
968 -54 -753 0
-246 358 -103 0
-543 245 -313 0
-851 -938 -70 0
456 -163 -579 0
798 813 699 0
166 -970 334 0
883 523 -756 0
-167 650 -561 0
-711 -613 119 0
-249 242 -397 0
-9 582 -106 0
-161 -542 10 0
-846 -618 204 0
-662 765 -182 0
107 -645 789 0
-617 -114 478 0
689 445 769 0
27 359 642 0
739 435 151 0
38 -587 -132 0
321 -640 112 0
743 534 -581 0
-433 12 825 0
93 -405 450 0
-892 350 -783 0
-560 262 -206 0
202 -84 459 0
-564 403 567 0
990 543 746 0
-285 363 144 0
-403 -594 -43 0
301 -549 567 0
296 514 -838 0
312 -250 257 0
-757 -540 195 0
-805 -682 244 0
-421 -399 868 0
408 774 -932 0
-823 369 -44 0
30 -637 -467 0
378 -416 558 0
716 460 941 0
-530 -79 -829 0
-425 -818 393 0
860 1 528 0
420 817 -597 0
-848 890 -783 0
-71 248 -53 0
602 -763 -397 0
713 919 -599 0
817 -30 886 0
-967 338 -307 0
142 565 -604 0
-378 805 -810 0
-727 -918 -786 0
76 318 308 0
350 -937 623 0
210 196 568 0
39 818 -507 0
189 690 688 0
-103 -275 -57 0
254 -229 -638 0
274 -392 -938 0
-361 -634 -22 0
927 -4 34 0
481 143 -295 0
579 -641 -352 0
540 -354 698 0
-506 -15 489 0
-107 -915 -521 0
316 130 924 0
871 372 341 0
747 -292 122 0
848 -70 -238 0
-555 734 714 0
83 711 -285 0
-549 -165 -843 0
-582 -697 -201 0
-647 -265 389 0
-862 -419 -918 0
966 -564 861 0
-765 694 -302 0
467 173 -901 0
-611 -987 348 0
-604 900 614 0
263 -45 776 0
107 -639 -165 0
-520 -349 525 0
25 27 -666 0
386 -779 29 0
-165 -846 -721 0
976 -352 -931 0
-507 372 460 0
546 -579 420 0
181 10 615 0
-724 -513 28 0
442 -941 -47 0
-80 687 379 0
-485 -385 -329 0
532 -874 910 0
-968 -947 -483 0
782 352 -328 0
790 28 902 0
-509 -663 -874 0
-43 490 162 0
323 731 -104 0
-39 171 837 0
937 700 460 0
792 -326 -114 0
-688 692 -461 0
-766 577 -519 0
-391 -869 58 0
-84 800 792 0
584 -831 -871 0
623 468 230 0
30 319 545 0
-411 489 -193 0
-139 258 582 0
-550 403 806 0
23 74 351 0
729 633 354 0
-54 -98 167 0
748 -630 -784 0
694 -594 372 0
-961 963 -693 0
-523 -296 779 0
-413 -205 -966 0
696 -765 120 0
-59 252 375 0
-733 -275 -915 0
721 -396 980 0
997 -442 98 0
-111 872 -922 0
451 669 -828 0
590 -711 -602 0
411 307 -62 0
955 366 -906 0
196 117 -829 0
166 -16 -864 0
-764 742 2 0
-78 241 -861 0
-174 65 836 0
-522 -623 -802 0
-214 778 262 0
475 657 152 0
-217 252 765 0
-887 -953 446 0
-729 420 565 0
431 -727 -282 0
691 -674 235 0
-107 -922 -829 0
535 41 949 0
-527 741 -238 0
-896 695 634 0
-589 396 583 0
-165 -120 -980 0
23 -601 344 0
-474 393 -913 0
16 -517 261 0
-533 434 893 0
906 566 197 0
-143 537 612 0
194 -604 560 0
736 -316 -407 0
305 588 710 0
-73 -295 592 0
-68 857 277 0
-291 -761 409 0
-534 -427 -609 0
-506 335 -181 0
-988 336 -185 0
577 -367 -147 0
727 566 373 0
-951 -539 149 0
269 -948 -353 0
-166 -710 -567 0
647 318 -536 0
236 -170 -1 0
951 -3 367 0
586 -289 502 0
90 -226 -553 0
-192 442 974 0
551 629 -550 0
-280 -801 -319 0
511 -757 -383 0
642 -904 -354 0
648 165 -283 0
-916 398 -942 0
25 786 -927 0
897 845 -137 0
-583 895 -577 0
-823 617 721 0
-396 969 201 0
758 747 404 0
-234 745 -833 0
-412 -841 647 0
-969 539 -544 0
-80 -286 634 0
-129 -520 74 0
-288 -835 374 0
-943 -633 746 0
514 -246 255 0
-945 -544 438 0
687 594 -471 0
989 -50 214 0
-987 -543 -338 0
649 780 -20 0
763 -57 -419 0
391 -26 -426 0
871 377 -420 0
-914 892 73 0
759 -308 -914 0
-761 191 836 0
-546 -965 -58 0
426 -863 619 0
570 -961 -950 0
-799 610 798 0
-546 -553 -779 0
130 -802 -284 0
-380 -633 -162 0
5 -604 -315 0
108 219 -665 0
-212 366 595 0
-203 260 -317 0
-852 634 -860 0
-585 -133 -604 0
375 -730 666 0
-378 -666 847 0
509 897 -458 0
-899 -891 -20 0
-652 291 -331 0
-84 -994 -164 0
946 657 886 0
321 -551 343 0
-762 954 -182 0
185 -771 -797 0
677 266 -850 0
-315 696 -309 0
-730 -576 687 0
-150 -466 738 0
171 194 -454 0
-199 857 911 0
877 104 105 0
-753 954 -194 0
-824 -707 446 0
-175 42 -358 0
-702 913 447 0
392 -72 -782 0
-562 -855 714 0
-581 343 -833 0
438 -53 632 0
-422 24 -204 0
-735 -935 -688 0
-829 -443 307 0
-323 117 -790 0
282 -799 645 0
-312 -753 75 0
-617 89 -343 0
971 385 245 0
149 444 401 0
-311 935 -962 0
4 -720 -647 0
-630 527 -60 0
-3 897 803 0
-776 229 833 0
676 636 -450 0
212 -651 564 0
-945 521 -586 0
-966 -859 545 0
388 138 47 0
75 510 832 0
472 620 -767 0
-834 -532 -797 0
746 828 784 0
-923 951 -512 0
-842 -280 603 0
-90 -392 -425 0
-220 -103 -175 0
-363 -455 406 0
-756 -443 -360 0
-61 142 -748 0
301 752 -550 0
714 -207 -667 0
-959 553 -431 0
-966 70 -240 0
-699 250 105 0
855 985 -101 0
-962 -311 784 0
895 -310 118 0
437 -197 636 0
-969 -864 -385 0
-364 -907 974 0
957 -263 948 0
883 -528 374 0
367 -689 296 0
-585 258 -484 0
-246 -816 659 0
-576 -779 -352 0
-359 368 503 0
-497 -942 23 0
-190 -688 -203 0
160 -120 -569 0
-448 681 855 0
-905 743 -636 0
-523 791 72 0
-974 -850 -94 0
479 230 462 0
14 589 913 0
-757 58 587 0
340 806 -49 0
638 532 55 0
852 -747 -611 0
-944 925 -647 0
781 926 -640 0
336 136 -688 0
565 -898 765 0
-95 -177 424 0
-974 -842 212 0
-932 694 -750 0
-153 -168 790 0
-484 -876 -152 0
418 926 606 0
-730 918 223 0
487 -893 958 0
-365 110 709 0
890 -356 635 0
300 -156 -721 0
-390 -633 75 0
241 -424 598 0
-613 167 527 0
-978 838 -648 0
-598 961 784 0
580 184 -526 0
52 -499 630 0
618 496 -38 0
-105 380 657 0
361 282 -789 0
-554 596 -47 0
-515 661 -463 0
-478 -951 -998 0
823 797 191 0
583 360 967 0
-671 442 962 0
546 663 -654 0
-969 61 -661 0
799 72 982 0
340 199 741 0
-538 -620 823 0
-769 808 -536 0
409 -553 -225 0
321 -388 -64 0
818 558 -893 0
-935 -95 -581 0
-963 939 -138 0
-32 583 -704 0
852 -617 -255 0
534 835 75 0
35 406 555 0
523 -608 747 0
-467 -12 936 0
-690 -695 442 0
983 -634 -453 0
-108 -230 222 0
-981 817 598 0
-653 22 207 0
492 958 -879 0
-722 657 -988 0
332 -185 173 0
690 93 -373 0
38 -338 752 0
225 670 -180 0
828 127 981 0
825 -141 -685 0
847 -296 -659 0
-599 968 -967 0
361 -825 187 0
945 -510 -758 0
277 -98 988 0
-851 435 292 0
-595 -300 -545 0
320 88 -250 0
-422 112 -469 0
-889 -78 -358 0
176 690 -294 0
-279 -211 440 0
-434 -700 935 0
-279 294 553 0
-323 380 45 0
-742 735 -835 0
-740 918 -202 0
-290 274 124 0
-619 577 280 0
114 975 200 0
604 -992 -396 0
166 -669 343 0
398 -375 313 0
-164 -573 987 0
283 580 301 0
181 -469 -409 0
-843 883 -181 0
529 783 -250 0
548 256 391 0
-593 82 -921 0
300 760 -148 0
-122 -956 78 0
-508 804 -240 0
430 -149 593 0
-866 723 -646 0
-726 800 -627 0
-769 -750 997 0
362 860 52 0
803 547 880 0
819 -690 -537 0
-731 -814 -91 0
530 -320 981 0
642 910 -18 0
-90 457 -855 0
-98 -181 804 0
233 759 -167 0
919 870 -805 0
-706 178 -952 0
-638 538 -546 0
927 721 -943 0
-642 675 -457 0
452 -751 882 0
425 532 664 0
-707 -450 188 0
252 913 615 0
303 879 -456 0
-521 -699 -726 0
-61 -100 753 0
746 -382 -230 0
-939 -812 -499 0
398 170 -273 0
-630 163 237 0
-938 150 -683 0
367 -723 -15 0
322 652 -911 0
-759 617 -763 0
64 938 -139 0
-94 -692 -797 0
284 -76 -621 0
911 -621 -743 0
-108 -759 683 0
-360 247 29 0
-537 312 347 0
815 591 -258 0
-264 546 -141 0
912 -585 1 0
534 -178 -574 0
-377 -4 204 0
-954 593 551 0
666 371 829 0
288 -81 115 0
501 958 -690 0
-429 96 -882 0
-982 1 -587 0
-801 666 -472 0
819 -624 77 0
673 -271 475 0
-255 -498 120 0
-812 -241 174 0
831 136 302 0
-234 -77 647 0
-761 -478 -530 0
-372 -489 914 0
227 30 -559 0
845 -608 -659 0
-627 85 -794 0
-615 646 561 0
266 -179 219 0
392 -79 -867 0
879 -307 -343 0
-74 126 294 0
346 -28 -313 0
-152 -205 610 0
2 385 369 0
583 671 408 0
952 -248 -73 0
615 -401 -356 0
-914 285 232 0
-940 -42 514 0
-989 410 697 0
-125 -724 -370 0
-8 987 -4 0
-836 -562 2 0
181 -341 -85 0
637 -444 166 0
-566 1 -23 0
-148 135 774 0
-812 -342 859 0
-774 676 -512 0
-203 508 -974 0
721 -949 -415 0
-635 170 -308 0
-982 80 -71 0
-830 860 -222 0
960 855 -345 0
-572 677 80 0
-335 -897 -197 0
-777 -585 101 0
-880 -551 797 0
881 -420 -834 0
222 410 -132 0
-156 716 418 0
865 293 -48 0
309 458 -266 0
-533 743 917 0
-357 -266 484 0
60 815 673 0
-612 95 65 0
-777 -937 -834 0
-888 193 -540 0
70 9 -769 0
962 794 -475 0
463 837 -106 0
701 -583 860 0
491 -494 855 0
-814 -539 -614 0
-996 52 -25 0
-492 295 -561 0
-394 -630 629 0
-129 -698 -641 0
586 506 -866 0
547 219 -309 0
71 710 -984 0
-378 499 980 0
-591 -616 -672 0
565 -961 -422 0
539 -557 -709 0
341 -679 659 0
116 780 184 0
-811 800 810 0
848 -665 -235 0
-309 230 789 0
-971 -337 -441 0
-231 870 17 0
37 -83 -856 0
-392 439 -830 0
-38 -734 -635 0
-959 938 -25 0
-763 -230 -945 0
-563 734 -156 0
-543 -685 809 0
-704 -778 610 0
-310 -711 488 0
173 -260 848 0
-667 -267 -753 0
215 913 437 0
899 -719 317 0
-758 -172 566 0
-503 233 -288 0
-980 -950 -751 0
-524 720 -613 0
14 -322 940 0
827 824 -365 0
-77 -741 201 0
313 954 953 0
365 -590 153 0
-259 -121 351 0
-919 -273 662 0
517 -555 -952 0
-923 -686 874 0
-294 -2 465 0
232 -573 583 0
383 -576 213 0
-476 -188 -605 0
632 -265 11 0
311 381 -893 0
566 -786 -794 0
304 786 -207 0
363 -526 753 0
-35 844 889 0
510 647 48 0
-700 684 751 0
-801 771 506 0
-227 -993 -441 0
782 -459 901 0
339 605 -92 0
-450 -710 -48 0
735 -318 -482 0
419 946 444 0
939 -688 -260 0
34 -315 204 0
-776 934 3 0
-856 442 -354 0
876 -588 12 0
-924 -473 763 0
-442 469 746 0
-348 408 -465 0
85 153 15 0
438 493 -240 0
-93 192 -255 0
486 -794 982 0
-602 -743 176 0
737 559 -392 0
-263 -124 -431 0
131 -473 -585 0
-390 878 268 0
119 -298 -405 0
-958 -478 -29 0
-106 183 -797 0
-281 -614 -390 0
-607 -259 648 0
681 626 989 0
979 -939 -119 0
-926 629 -895 0
598 941 -995 0
929 878 -218 0
-948 -513 156 0
-475 211 324 0
387 -760 384 0
610 -105 511 0
-901 947 -684 0
-340 -330 347 0
-524 280 920 0
-52 -972 -87 0
961 -100 -792 0
145 -408 -448 0
-353 994 -460 0
-532 -632 -515 0
270 796 378 0
-879 -245 807 0
-71 35 895 0
-218 724 -512 0
267 -265 -792 0
309 -40 -195 0
662 44 -694 0
-513 940 234 0
-629 -179 231 0
-28 -151 598 0
-257 691 -959 0
-510 807 937 0
-370 -326 688 0
50 -532 -383 0
-918 428 -981 0
-904 617 -11 0
-243 -113 926 0
-189 -655 436 0
429 545 883 0
-399 -364 -823 0
-745 970 -944 0
-852 318 -609 0
340 722 -799 0
559 -922 572 0
505 181 -589 0
-20 -107 -542 0
785 533 -624 0
645 846 943 0
610 -579 695 0
621 544 66 0
-523 626 -921 0
521 -547 -761 0
-660 -80 431 0
71 487 301 0
162 -314 313 0
-561 196 754 0
31 884 20 0
735 -726 -267 0
-883 -774 -124 0
203 890 347 0
987 297 142 0
-744 381 625 0
-331 -753 573 0
-368 298 387 0
15 12 138 0
-281 -854 -126 0
943 488 314 0
-610 278 -46 0
-855 -14 427 0
-325 147 -770 0
436 777 -336 0
962 -492 165 0
568 -943 -817 0
645 -862 566 0
-76 894 -200 0
-496 484 892 0
-983 118 -115 0
100 137 -763 0
296 158 -287 0
-116 -921 -729 0
28 89 -751 0
907 380 -554 0
293 673 -916 0
689 -725 633 0
664 203 692 0
230 -237 -722 0
869 230 32 0
-621 76 268 0
-654 -425 -669 0
-721 -786 -170 0
163 -498 555 0
-311 517 297 0
5 884 127 0
-744 644 735 0
-190 901 971 0
855 -752 -117 0
969 403 500 0
721 -572 -318 0
-4 725 -646 0
-260 145 -399 0
749 -935 -760 0
-835 -493 -658 0
-742 52 882 0
-751 -495 -955 0
667 -14 550 0
259 -152 333 0
-307 35 798 0
-117 54 128 0
-40 568 -188 0
-491 205 132 0
316 -717 655 0
445 -954 828 0
-674 428 923 0
-761 15 -30 0
-319 398 -310 0
-236 608 977 0
386 927 206 0
141 962 259 0
-949 -737 919 0
-427 -509 -212 0
42 -362 -789 0
-284 -549 -648 0
14 787 582 0
-517 797 397 0
633 832 169 0
-632 594 -954 0
596 -194 -457 0
-536 -513 582 0
49 565 472 0
370 -293 393 0
729 49 743 0
-53 -23 -806 0
-553 -952 732 0
-915 -268 32 0
694 -231 -47 0
697 -784 380 0
398 -512 226 0
-780 85 935 0
304 452 -650 0
133 -83 -289 0
589 32 144 0
460 306 -131 0
-109 657 -424 0
-67 -166 835 0
-498 -834 -320 0
-676 -262 -199 0
241 286 -170 0
-200 -431 743 0
-194 -683 116 0
562 -485 260 0
-705 -267 -313 0
-292 262 -694 0
-431 -922 -337 0
654 -700 441 0
-767 727 994 0
-6 606 -631 0
-621 -530 635 0
-237 444 735 0
-429 -263 -128 0
-990 -469 600 0
351 26 698 0
19 -737 283 0
-438 -944 788 0
303 287 933 0
-121 -720 -423 0
633 -545 730 0
-798 -601 703 0
-274 -239 920 0
-275 -986 -884 0
-116 -258 775 0
-281 834 -262 0
907 370 67 0
858 637 -292 0
507 991 420 0
852 94 112 0
534 -966 -371 0
869 549 679 0
-422 -82 -105 0
-744 828 -679 0
354 90 -686 0
-268 -768 -765 0
880 664 -373 0
-507 -132 701 0
-501 585 -981 0
-932 487 882 0
578 599 271 0
999 -667 -688 0
142 345 -434 0
86 632 507 0
-396 437 30 0
-597 -731 -692 0
-125 -139 -557 0
34 218 17 0
815 -692 415 0
-136 246 262 0
854 -196 -651 0
-673 -932 -845 0
609 -553 905 0
-786 166 520 0
157 -303 353 0
-758 989 458 0
-972 251 896 0
356 -673 262 0
902 -76 -712 0
500 -615 827 0
758 637 -273 0
793 988 -686 0
441 -300 -736 0
151 741 889 0
-531 -828 19 0
-751 -930 -337 0
-126 -589 140 0
-955 439 -554 0
-719 716 606 0
15 -29 109 0
-95 213 -208 0
-612 -60 717 0
-577 587 -17 0
961 190 408 0
787 -281 -662 0
-246 -288 421 0
-61 315 -921 0
-11 270 377 0
-165 561 -43 0
567 -980 248 0
-488 228 -296 0
74 -125 8 0
88 -876 146 0
617 -575 -920 0
-367 -256 273 0
-100 -375 378 0
-175 75 151 0
558 257 -814 0
-968 -608 -610 0
-72 6 -91 0
-391 -873 991 0
309 -736 -727 0
-78 -843 224 0
348 -755 -949 0
884 -951 -350 0
397 873 595 0
458 -669 -510 0
323 245 -168 0
716 519 -670 0
127 679 -352 0
515 -503 -392 0
-490 471 -770 0
-377 -693 -899 0
-84 82 724 0
-415 -709 -423 0
305 -718 911 0
-886 25 -608 0
-117 284 -100 0
-83 827 -678 0
-826 969 483 0
321 -946 871 0
147 227 -166 0
688 -26 -773 0
-962 -50 -194 0
-355 911 -858 0
772 -215 -901 0
346 337 537 0
-729 539 -949 0
721 -113 528 0
987 122 954 0
-598 877 763 0
-688 -33 607 0
-193 945 -831 0
28 66 305 0
-549 522 504 0
-176 -299 593 0
-741 -103 -442 0
52 -972 -223 0
942 -368 52 0
-317 478 267 0
635 485 707 0
942 -299 830 0
-145 -745 504 0
757 -601 820 0
357 -765 -271 0
-631 -68 52 0
-134 -57 -19 0
-301 -17 -766 0
398 984 300 0
918 415 94 0
371 3 103 0
328 -25 104 0
-19 -371 347 0
-571 74 -237 0
-786 170 962 0
508 -320 778 0
-56 -473 869 0
104 -260 -857 0
-808 -778 852 0
234 -448 -722 0
-72 -931 904 0
-894 130 -753 0
-453 614 -790 0
-65 -648 883 0
-659 -442 -200 0
113 -360 738 0
-293 86 -829 0
941 426 -517 0
838 815 618 0
-648 99 254 0
951 -676 -456 0
206 -548 854 0
-835 -878 -49 0
12 482 141 0
-149 -495 239 0
-289 -623 -76 0
929 109 -245 0
-331 98 -552 0
-431 434 -767 0
-261 609 476 0
-770 -168 -318 0
-339 259 -413 0
-499 417 904 0
-758 897 -213 0
-314 350 39 0
-41 585 -19 0
-237 271 397 0
-397 -443 -596 0
898 -517 -944 0
597 -503 -541 0
-93 83 116 0
-374 678 932 0
-255 228 -644 0
990 -263 -362 0
-527 -795 -176 0
85 -472 719 0
643 102 46 0
-391 737 -443 0
-259 725 -507 0
-632 554 -119 0
690 -36 671 0
-412 746 575 0
643 745 71 0
-248 752 -525 0
-536 637 -705 0
-210 150 -966 0
-671 -300 -386 0
-115 -592 857 0
-400 -289 312 0
704 -480 229 0
455 108 -274 0
-20 -705 819 0
618 -677 958 0
339 -811 -508 0
310 -636 -225 0
-251 -223 723 0
763 -73 762 0
468 -282 683 0
-650 432 -226 0
701 542 -902 0
478 909 -950 0
571 -742 761 0
-88 -780 -955 0
-382 155 -208 0
50 742 723 0
-679 190 -771 0
-825 709 751 0
-566 734 766 0
297 395 739 0
-362 667 525 0
-934 826 -738 0
-156 796 -919 0
-628 404 -238 0
-698 -776 -165 0
-607 -109 546 0
-661 990 236 0
-194 210 396 0
-29 -730 720 0
737 -554 -84 0
234 118 -89 0
39 149 499 0
560 919 -453 0
206 -773 -730 0
-968 -823 177 0
-483 751 184 0
-621 48 367 0
293 455 101 0
39 651 -599 0
-926 578 -218 0
80 455 -568 0
-246 215 915 0
948 440 -132 0
666 588 336 0
-961 -883 -51 0
-794 -877 -180 0
693 922 460 0
-517 487 -873 0
104 245 -258 0
-802 927 130 0
844 560 613 0
-97 -593 525 0
319 -975 660 0
104 917 -142 0
731 -968 -953 0
-575 830 234 0
110 -901 355 0
759 -180 -817 0
330 136 937 0
-246 487 -232 0
226 -450 -46 0
843 325 45 0
-542 -602 60 0
-298 63 -606 0
-962 370 -342 0
-674 -579 722 0
450 -304 641 0
-878 628 -4 0
660 118 -54 0
889 792 -400 0
-153 290 493 0
740 840 -163 0
481 -323 -564 0
-909 -518 -783 0
123 851 -919 0
-907 -80 951 0
-64 251 -609 0
-883 -340 778 0
644 400 839 0
951 -317 -985 0
-461 669 -367 0
887 -789 -219 0
876 204 325 0
12 -650 -861 0
557 -247 237 0
-242 134 -862 0
16 -593 136 0
-426 -502 734 0
862 744 135 0
299 61 441 0
-742 298 -663 0
-619 412 983 0
-93 -586 -65 0
905 -75 -776 0
-784 -451 -862 0
161 937 -624 0
288 -824 298 0
-548 -495 702 0
918 547 -188 0
-972 291 668 0
-911 -867 -485 0
391 -614 119 0
-793 -74 -487 0
812 -455 980 0
-756 842 -60 0
-987 -706 -540 0
-198 651 -86 0
784 -12 -558 0
-391 -599 -926 0
100 -902 922 0
-99 993 -215 0
446 -651 94 0
-612 832 711 0
33 -958 357 0
-349 -824 95 0
995 -727 -79 0
567 -195 43 0
514 76 -141 0
796 705 535 0
374 90 354 0
960 -915 -755 0
734 -864 -19 0
-975 27 51 0
984 842 706 0
980 -901 -862 0
-769 734 481 0
896 537 300 0
-809 -159 -588 0
164 844 855 0
-607 -453 -690 0
-59 142 -923 0
759 -349 -271 0
-112 171 -567 0
401 -801 -689 0
454 418 925 0
13 410 587 0
-399 732 402 0
-899 -111 -486 0
17 514 -799 0
-531 -998 -275 0
-87 721 877 0
-310 -324 555 0
615 -519 643 0
812 836 702 0
433 -103 967 0
-993 -659 918 0
497 -932 -565 0
441 80 804 0
-107 197 -262 0
205 -846 449 0
-204 696 -610 0
-192 196 952 0
-76 332 422 0
566 -884 -401 0
519 49 966 0
934 -517 -402 0
979 -147 -652 0
564 74 -166 0
315 -668 -901 0
928 709 362 0
-405 -66 -163 0
810 -211 224 0
404 237 -197 0
193 -376 -893 0
401 696 -826 0
295 913 259 0
16 -964 282 0
176 -116 -942 0
-336 987 -162 0
-829 -797 -5 0
-615 670 51 0
700 196 -630 0
-579 -793 -989 0
-366 701 921 0
-786 481 -793 0
-947 245 607 0
920 -287 -43 0
-73 -234 -124 0
80 -490 826 0
767 525 356 0
957 490 -781 0
-914 816 827 0
-582 283 767 0
-861 685 87 0
-459 -47 917 0
-501 -414 76 0
999 -729 949 0
304 213 621 0
57 -802 200 0
684 -805 -207 0
4 -872 -696 0
-343 -925 811 0
-724 -389 266 0
805 957 -893 0
533 637 655 0
83 988 629 0
402 15 577 0
860 -526 -970 0
15 -817 319 0
721 -950 666 0
-153 90 -948 0
-996 139 -980 0
-498 533 -568 0
-299 408 381 0
-104 747 694 0
-134 -757 -854 0
-604 -443 650 0
201 -162 -494 0
780 -430 -661 0
636 410 -756 0
936 254 724 0
538 816 -979 0
438 393 416 0
396 -645 343 0
521 -134 659 0
332 327 189 0
-247 -426 523 0
897 605 -262 0
-958 239 -831 0
-665 -580 -944 0
-695 -494 -31 0
-649 -19 -942 0
-558 354 994 0
978 495 397 0
636 -990 85 0
-800 -765 -920 0
168 -963 -608 0
-995 919 -124 0
656 489 -323 0
548 849 -388 0
703 668 -517 0
452 736 577 0
732 457 7 0
-887 -509 878 0
-539 -846 56 0
543 526 -45 0
-277 -893 400 0
-339 -906 -503 0
-37 -314 741 0
163 -492 133 0
-73 -797 586 0
-652 184 -675 0
-322 154 935 0
251 -766 -722 0
5 -246 245 0
-621 721 335 0
910 466 -604 0
-174 -280 -371 0
-982 306 179 0
662 812 211 0
839 -952 -919 0
887 -341 -820 0
187 289 -394 0
585 -730 -410 0
555 -117 836 0
-926 -95 -352 0
663 903 23 0
192 -348 168 0
448 519 821 0
797 -537 -144 0
905 417 -598 0
-592 404 394 0
812 -409 680 0
734 -540 387 0
-999 -352 -613 0
560 362 -305 0
-243 156 -395 0
56 224 -810 0
-488 680 -584 0
125 -326 736 0
927 -182 -343 0
474 -719 -229 0
922 -715 742 0
11 77 435 0
-811 383 -8 0
960 843 -463 0
197 724 635 0
666 746 317 0
-570 476 -706 0
-27 532 -729 0
398 506 549 0
-358 921 -372 0
-518 -913 -10 0
61 -358 164 0
-648 -418 -821 0
-558 697 182 0
-713 848 -801 0
23 890 -868 0
987 341 288 0
-212 -408 -87 0
708 497 301 0
722 412 -12 0
-846 -409 851 0
575 -967 -514 0
807 735 -326 0
116 -12 260 0
393 -841 558 0
-365 674 471 0
521 -372 617 0
-212 -617 -298 0
-793 312 -172 0
