c Large 3-SAT formula for GPU testing
c 3000 variables, 18000 clauses (ratio: 6.0)
p cnf 3000 18000
1871 -2650 -1743 0
-307 52 -738 0
-2433 2940 -690 0
1607 -2986 1844 0
-283 -1957 -1602 0
-2366 -1785 -1518 0
-439 562 -2584 0
1491 -1347 -2613 0
-1806 -1520 1124 0
-1090 -2650 -2265 0
-2495 -326 -533 0
2200 161 785 0
-2948 -1242 1759 0
-1446 2365 1678 0
2928 -1209 -135 0
1814 2441 -1464 0
-1852 2215 -2785 0
1355 -1797 1845 0
1583 -1965 -1759 0
-205 1833 -2896 0
-1225 2075 -1256 0
-566 2649 810 0
-114 -942 -2913 0
1556 -569 2533 0
1684 861 565 0
1131 -1417 1126 0
555 1236 899 0
-2672 2131 2888 0
-1964 -2321 539 0
-2802 1050 -2782 0
2712 -377 2081 0
2984 -305 1443 0
1304 1037 -1937 0
1882 1610 628 0
2823 2072 78 0
-1137 -131 -1859 0
-2363 -1811 -280 0
2023 1726 1300 0
323 -2223 -2319 0
2337 -278 -1999 0
2179 1918 1653 0
764 -950 2597 0
-1304 709 667 0
-1459 -806 2809 0
-2609 1160 -2310 0
-2589 1893 1525 0
439 -530 774 0
1503 1212 55 0
793 1368 -2952 0
-57 -1932 141 0
240 -433 877 0
-351 2196 1176 0
1441 1706 2175 0
2002 -1273 -1244 0
2773 -1849 -2205 0
-731 -1328 2289 0
1801 1504 -2373 0
-2461 -1677 -785 0
-2762 -1176 -2176 0
2709 -371 2661 0
915 1569 -2522 0
-273 -2619 -1228 0
283 -1625 2222 0
826 970 2618 0
2287 -2343 793 0
-1906 -2403 -1536 0
2902 -2927 1625 0
2125 -272 -891 0
851 99 2293 0
-1040 1752 2694 0
-2124 507 -1594 0
-1140 -2184 -2706 0
-2951 -1424 1018 0
-1633 -2788 -1293 0
1593 -1848 850 0
1112 -2697 -1320 0
2616 -2750 -2966 0
-2676 2536 818 0
1397 2781 -249 0
-2958 916 2775 0
-1529 -1252 -1230 0
544 824 -1337 0
-1682 -235 -2906 0
-1206 761 -1563 0
-1688 -121 -318 0
2284 -1530 -2069 0
1521 1496 -2035 0
-666 -386 1184 0
1802 2757 -2640 0
2249 -1628 -2577 0
421 -1903 -144 0
-2058 -2401 -98 0
-90 -2222 -2980 0
1349 -2231 2846 0
1985 1789 -759 0
846 -101 -2948 0
-409 2514 -2000 0
-2368 1624 -503 0
2156 1362 204 0
544 2954 -2784 0
54 490 -703 0
1112 -1079 -1463 0
1375 -2152 2610 0
-459 2181 -1855 0
486 -2920 2147 0
695 -405 2625 0
-2203 -2282 328 0
1315 -898 653 0
-1179 2242 -18 0
460 -1247 380 0
-2338 2518 409 0
2437 -1 -2531 0
-1153 2153 1970 0
-1190 2038 -72 0
946 2405 805 0
-1155 -1710 -2262 0
-926 404 -2154 0
-2787 2920 -2960 0
-2992 1071 1330 0
-637 1276 -2332 0
-123 -354 1822 0
1057 -2807 1828 0
-809 391 -892 0
2455 -322 -764 0
2802 -1935 -53 0
-5 -2361 -1291 0
49 2922 -2296 0
-1642 -2164 -1151 0
-2822 1429 -2503 0
2985 -1957 2149 0
-1918 -2812 43 0
2767 751 2042 0
940 -450 190 0
519 496 2541 0
807 1679 290 0
2484 693 -1877 0
2496 773 -1923 0
-2571 -2313 2469 0
2879 -688 -1009 0
1704 -2533 1860 0
435 1627 -1252 0
529 -2800 2253 0
-2768 494 662 0
-944 2710 1367 0
-378 -285 -144 0
1958 2414 2637 0
-1008 2270 -2914 0
2888 2020 143 0
-1089 -2771 1127 0
-143 2818 -1538 0
20 154 356 0
-1163 -913 1664 0
-1661 -1531 -1284 0
-1967 1004 1587 0
825 -2310 -1789 0
-1573 -2608 -212 0
-853 -2761 1085 0
1014 -2860 2613 0
2354 -1053 -2633 0
-992 -2363 -2536 0
-770 -1829 1433 0
-445 -2399 -2456 0
2603 855 2702 0
2802 490 2904 0
-44 -1350 914 0
-335 2545 758 0
175 1758 -1540 0
1575 1636 1052 0
2535 -264 -225 0
-1942 924 -1051 0
747 170 1904 0
11 -999 -1740 0
2947 -1523 -764 0
-523 2597 -910 0
564 -1860 -763 0
-2142 2381 2582 0
1894 360 -1748 0
2336 -1475 997 0
-2415 2857 -1656 0
-1008 614 -1791 0
-2648 484 -173 0
-2794 -2593 2940 0
-1067 2211 1156 0
-1804 361 -2300 0
1748 -1409 -2259 0
2226 -112 2673 0
-815 1920 -122 0
-284 1767 627 0
1061 1691 -1972 0
-1100 -2617 -1904 0
2141 663 435 0
1319 1205 -38 0
742 -1386 -417 0
-656 -95 -2612 0
1476 1905 2914 0
-2153 1029 -1057 0
-1816 -250 2003 0
847 569 -20 0
2423 2165 -2780 0
1208 1519 -2483 0
1959 -2422 1579 0
-1706 2299 2716 0
2452 1958 2451 0
-406 2897 1736 0
1860 -1813 661 0
730 -2645 -1215 0
-2347 365 1841 0
-2814 -2324 -2668 0
1437 2215 -2533 0
-2287 -2166 2763 0
-2516 -1808 2606 0
-268 -398 2550 0
-1617 130 1063 0
-1513 -1564 -2199 0
791 -248 329 0
359 1300 2731 0
-1886 591 -2482 0
-169 -2759 -2596 0
-67 344 -1708 0
-2127 -484 994 0
-1384 2682 2970 0
2349 -133 2083 0
921 2063 834 0
2601 2191 2476 0
2564 -97 1236 0
432 596 1425 0
-1508 -635 -2881 0
-2543 -2668 -1122 0
-2999 2713 924 0
-535 -1825 -1795 0
-2193 1850 2864 0
2522 -2802 -1908 0
-920 553 -506 0
168 1817 -1225 0
2469 2324 -738 0
2241 1565 -2144 0
2257 -557 2005 0
-110 -2730 1425 0
905 -858 2928 0
-1881 -1815 -374 0
-697 2139 755 0
-854 -149 -1096 0
-2966 2198 882 0
-1710 1846 1309 0
2159 279 -2676 0
2108 1363 2468 0
-1978 128 2407 0
1811 754 1877 0
2587 -2219 -489 0
-2577 -1080 318 0
529 2220 2100 0
2830 -2012 613 0
1573 410 -147 0
-1384 -1873 -2474 0
-2049 2119 1845 0
-1538 1570 1822 0
-920 -1410 91 0
630 2285 1343 0
663 1786 2650 0
2780 -2859 257 0
2957 2199 1484 0
862 1096 -2334 0
-354 -1109 -955 0
-1808 -2007 685 0
-1866 750 2549 0
2589 2285 87 0
-842 991 19 0
1235 987 -1170 0
1292 -2485 2189 0
1309 -1094 471 0
1776 -667 2929 0
-891 2039 -1702 0
-1618 -2484 2128 0
2308 1872 -1245 0
-313 992 1243 0
966 -2631 -1577 0
932 620 203 0
2060 -808 -1775 0
734 -838 2744 0
-1860 -2699 382 0
2000 1141 -2117 0
934 -2938 2790 0
110 -2477 -2976 0
1242 1452 -1057 0
-2735 -1999 1311 0
-1178 260 1975 0
-2358 -1920 2748 0
2541 919 2004 0
1319 2067 -463 0
1795 183 2566 0
313 -2544 -1745 0
-320 2419 1939 0
2145 2712 -2693 0
-427 2100 -2258 0
120 -824 1546 0
-2665 2806 -37 0
2335 -1466 2152 0
1842 226 -765 0
1923 767 1065 0
1630 707 -1982 0
1194 119 -2139 0
2440 -2287 1803 0
-1684 1129 1691 0
2400 -888 2253 0
-2505 25 -2493 0
-267 -1971 -595 0
186 -112 1964 0
-480 1745 2948 0
597 -2860 -13 0
-1516 -139 2378 0
1638 2376 1156 0
2461 2527 1267 0
798 -1989 -1928 0
-1269 2808 1346 0
801 2011 -2852 0
2636 188 -1741 0
-1119 -302 1418 0
-2203 1216 -1397 0
1021 491 -188 0
-540 184 -1275 0
-737 1444 2437 0
-1992 -1276 784 0
-170 -1636 2208 0
-2234 -594 835 0
-1840 2143 1996 0
507 -2877 1716 0
-886 1317 -2888 0
431 -148 1663 0
-770 112 2365 0
-1407 2280 -1563 0
2781 -2817 -2709 0
1180 -1801 -98 0
-243 -2620 855 0
-1456 -2712 -1379 0
-562 1061 -2938 0
1977 -1947 -1703 0
649 1928 832 0
56 -1034 -843 0
-1517 1789 -1373 0
2146 -142 -1276 0
-2394 2955 -684 0
-1656 -156 2354 0
-670 -464 -1929 0
542 1293 -2532 0
-2881 -566 410 0
1126 -2171 -2288 0
1532 2257 878 0
1523 2035 -2730 0
1202 -187 -2497 0
-1342 1323 -463 0
2286 -891 -2580 0
-2723 2763 -2196 0
-1211 -1990 -861 0
1566 25 -2868 0
2827 -1999 636 0
-884 539 -349 0
1042 -1949 1995 0
834 917 -1933 0
1459 -220 2089 0
-1327 2946 2134 0
1191 -155 -387 0
2367 2042 843 0
-1800 1864 2475 0
-1532 -1217 -423 0
-423 1526 -1899 0
-1651 -495 2374 0
-665 39 704 0
1206 -2760 147 0
-1463 1483 -2361 0
-263 -1506 73 0
547 -2106 1624 0
-2154 2561 1754 0
-2482 2027 1472 0
770 -2574 -626 0
1119 -874 1131 0
-1240 1926 1054 0
1255 218 -2686 0
-2400 -1483 2650 0
-2679 -910 2046 0
2370 -636 -141 0
1849 -1735 -522 0
-450 220 -2856 0
1340 2269 2912 0
-2353 2754 -936 0
2489 1196 2718 0
-2627 -2503 -2254 0
-1265 222 -1392 0
2884 -838 -1562 0
-1869 1930 451 0
-2697 -1762 -1488 0
2645 -506 1008 0
656 -9 -1679 0
760 -1153 914 0
1872 448 -639 0
393 2244 416 0
1464 1010 917 0
-2074 559 2405 0
2500 -2180 -2477 0
357 677 -2604 0
-2811 487 -888 0
1372 -1023 -2019 0
-393 1104 304 0
-575 1329 77 0
-1828 -2927 -1639 0
-2370 -1547 -33 0
-1213 -2254 -1417 0
435 1387 -492 0
1208 -2738 -2398 0
-566 -1612 2515 0
-87 1356 3000 0
2798 -2016 -209 0
-2978 2015 -2141 0
-1812 -1733 1009 0
-326 -2698 2065 0
-2295 -651 96 0
-800 1666 -906 0
380 268 304 0
96 -1793 -1147 0
-2297 -506 852 0
2537 -1981 212 0
2797 -219 -271 0
-1011 -2461 -2707 0
-1818 -1518 2624 0
-667 954 -382 0
-640 2732 -2342 0
-1977 861 -99 0
180 1082 1964 0
116 1647 -559 0
-2698 -1814 2981 0
-1441 1871 -637 0
-1042 -1784 -691 0
2492 384 -1910 0
1632 12 2352 0
2616 -2739 -552 0
1260 -937 2983 0
839 -223 2430 0
2302 558 2520 0
-2509 -540 -1436 0
2417 2855 -779 0
-1708 -419 -2778 0
-5 1798 578 0
940 -2002 2400 0
627 788 -997 0
709 -651 2350 0
-1183 2385 358 0
-1858 -331 11 0
2835 570 2299 0
-2989 2705 1678 0
2599 1049 -2068 0
-2482 1290 2939 0
205 1198 -2747 0
-1224 148 965 0
1216 -1445 -1516 0
-1893 -734 -353 0
828 -421 -306 0
2025 580 -2208 0
-1914 -2507 -667 0
-1898 2428 565 0
247 524 -143 0
-2457 -2981 -934 0
-2715 -91 -879 0
691 2253 1272 0
1925 -491 -679 0
-1352 -2304 2 0
-1545 -1371 354 0
1631 -1363 -1481 0
1662 1615 75 0
-1124 2174 405 0
41 372 2079 0
2450 -1063 -269 0
-1867 773 2183 0
699 -1769 -588 0
-2567 -2918 43 0
-2035 -25 1818 0
-715 2324 2644 0
2162 -1609 2174 0
143 -63 -1165 0
1306 2975 -170 0
-2983 1336 254 0
2728 -833 -2652 0
-424 31 -680 0
-2471 2606 -328 0
-1633 2328 2977 0
-740 -225 -1056 0
-2464 -1190 -928 0
1350 -2891 576 0
-2161 -2229 -1013 0
2366 -355 1613 0
-2337 -2190 -1965 0
-1919 -1037 2566 0
-617 381 1501 0
2107 714 -2518 0
1521 382 49 0
-1120 -2155 1166 0
473 -2970 259 0
-1277 -1395 1134 0
1648 -2041 1936 0
-2831 1594 -72 0
-1926 419 1089 0
-2670 1927 379 0
2763 -465 -762 0
365 879 -1491 0
-126 1851 -2940 0
-133 1424 -1287 0
1909 2700 905 0
119 -152 2262 0
566 2911 -1077 0
-2191 -2498 1783 0
1967 -1903 2334 0
-865 2685 1869 0
1858 -1870 -2290 0
2811 -2108 -59 0
-2059 330 -2048 0
-816 -2480 -803 0
2469 83 -2727 0
-674 259 -1141 0
-1800 2642 -2776 0
-241 1230 2746 0
1092 772 938 0
-1490 -1755 -1876 0
-669 607 203 0
2780 -1854 1531 0
1266 1649 -2781 0
-1749 -901 -445 0
2873 2214 -1858 0
1432 2183 -429 0
1396 162 -2495 0
2379 357 1788 0
-1669 -541 -1696 0
-2456 -2502 -1252 0
-1197 -805 47 0
-998 -657 -2665 0
-209 -1643 2701 0
-1679 2307 -2828 0
-872 -633 1841 0
880 -423 -773 0
1171 1027 -2876 0
94 -1799 1954 0
-1187 -2769 -2086 0
-1530 -2447 2517 0
2788 -1260 2242 0
1069 -2240 937 0
1636 -1988 2565 0
-2008 1366 -2938 0
-1147 -861 1700 0
-1918 -380 -2022 0
300 2928 -1784 0
-2377 1064 1067 0
-1195 2766 1220 0
-2612 1075 2023 0
-1856 577 1922 0
-959 441 658 0
-2856 2657 1938 0
2801 -1380 -1268 0
-1879 -612 -1128 0
-1260 451 2815 0
2394 941 1683 0
1228 -2564 1304 0
1852 -2369 -939 0
-37 471 2860 0
-1364 -435 302 0
2140 -1039 -159 0
-2482 -259 -1139 0
-388 -538 794 0
-351 118 2442 0
-2597 -1911 -1616 0
2241 -2555 1648 0
2533 -544 -341 0
-1986 -1768 -1318 0
-2407 -1176 2656 0
10 2517 2017 0
487 -2778 -342 0
81 -1388 2933 0
954 2146 -2649 0
-2732 2570 1086 0
2197 -2554 -2630 0
-2536 -904 2126 0
-2748 1516 1280 0
-1782 2585 -2852 0
823 1722 -1236 0
2982 1012 -339 0
1635 -1625 -1170 0
-245 -901 -2138 0
-852 -1206 -75 0
-2764 -29 -896 0
-2047 2916 541 0
-2089 -2583 -1485 0
2585 -2452 -624 0
-2152 1437 -2801 0
972 -1367 -171 0
-2440 -1690 1009 0
-1954 2649 -2590 0
-511 527 2163 0
-2954 -322 434 0
1720 1185 259 0
2847 2318 -676 0
-117 2481 1011 0
793 2322 1118 0
2269 -2307 -2773 0
-2528 1140 933 0
2996 -217 2653 0
2942 2944 -2892 0
2180 955 2022 0
-767 2370 -263 0
-2745 -1146 -2988 0
-619 1319 70 0
-2730 -354 530 0
-2737 1085 -1417 0
131 -2426 -1051 0
-1158 665 212 0
-2606 -1704 -1110 0
1935 641 2620 0
1141 1872 2700 0
86 -1578 1024 0
1031 -2456 2723 0
349 -928 1094 0
-206 -2790 -2035 0
-368 -1686 -843 0
-487 -2247 -261 0
-2642 2868 -1582 0
1282 -443 -2444 0
-2110 -758 -109 0
2662 2288 -909 0
-2973 -631 -2574 0
29 1175 1981 0
-300 -1922 2419 0
887 -2324 410 0
-310 2207 718 0
-1492 759 -348 0
194 -1052 -1435 0
979 -1965 2736 0
-1125 663 -29 0
-2120 -1711 -2504 0
-1216 -653 -1855 0
-452 2502 -981 0
759 -953 -713 0
-1847 477 251 0
2741 306 -2622 0
2524 480 -2532 0
-309 -2758 -2284 0
649 -33 -669 0
-300 2824 594 0
-2419 1739 -1246 0
2848 -2135 -805 0
2006 1811 -1771 0
-500 2695 2595 0
2549 1545 1869 0
1368 -72 -2512 0
-1019 -1728 296 0
-415 -1356 810 0
-1115 -217 2689 0
2518 -2840 -1822 0
-952 2086 1405 0
85 1011 2113 0
-189 317 1584 0
1542 -2748 -369 0
-1929 -1708 -438 0
2508 -2586 -2308 0
1032 1419 -2065 0
-566 -1814 -1213 0
-2703 2124 1731 0
2748 -2563 1656 0
-2575 -145 -2684 0
-1643 -1460 -427 0
1611 2989 2195 0
-992 2375 -1571 0
2167 2555 -1585 0
-1911 -1856 -2133 0
-2042 -2139 -2550 0
-2174 489 -1378 0
1962 -279 -715 0
1388 567 -1505 0
56 -466 2634 0
-238 891 -1952 0
-2717 -2940 -898 0
706 -1934 -1701 0
2949 2613 -2993 0
386 -623 -2517 0
1434 -2145 690 0
-737 1362 2481 0
1108 -2517 -1250 0
-1060 2268 1738 0
-2418 -1127 2724 0
1006 -1578 -381 0
-1961 2285 -1040 0
949 1189 -127 0
-1765 -2766 1241 0
2529 995 -642 0
1760 1776 -1845 0
1725 -889 2749 0
1245 1514 -2201 0
-1748 117 -2941 0
-2576 -907 -893 0
132 940 -1821 0
-1848 -1424 1294 0
2212 1180 -552 0
-1413 -950 1281 0
-2163 598 -213 0
911 -409 -146 0
316 49 326 0
2092 2335 1765 0
-59 -1257 -2578 0
1666 -2333 -2450 0
2612 39 2607 0
-1301 425 2740 0
-1380 374 -1020 0
2536 2074 -1571 0
1258 -2700 1259 0
2703 -937 2148 0
1014 1594 1310 0
172 1950 -1924 0
-296 -712 538 0
-2537 -1249 -2037 0
2998 2995 2735 0
-2254 -8 -567 0
539 1145 2290 0
754 -570 2686 0
2563 -325 1695 0
389 -1060 -2462 0
480 551 1350 0
2731 -833 2461 0
-274 -273 574 0
-1192 2853 1172 0
2144 -1543 2373 0
-1492 2569 2252 0
-2819 -518 -2688 0
-633 1357 -1360 0
-2043 824 -1074 0
1166 1884 1768 0
-2024 -208 -169 0
-1214 -462 -1598 0
-1109 -2276 1533 0
-336 -2851 -218 0
-321 329 -923 0
-1249 357 -2611 0
-287 -1906 178 0
1167 -124 -15 0
2091 2535 -2180 0
907 -683 2036 0
-2429 328 157 0
86 -1973 2657 0
2527 -2096 -1629 0
1867 -1063 -864 0
2498 2196 2679 0
-1367 -2286 2346 0
-2429 156 1807 0
-868 2770 -2854 0
1529 1674 2708 0
-2745 1285 2915 0
-1626 2152 -580 0
841 1234 785 0
1226 -1412 666 0
-2194 -2227 856 0
-376 -1712 98 0
502 -843 2581 0
153 -2833 -1557 0
62 1543 1807 0
2866 2159 2971 0
1189 -1759 -831 0
677 593 -1749 0
-323 393 2470 0
-96 308 321 0
-1203 635 1247 0
-550 -700 2057 0
-366 831 40 0
-2011 1797 1365 0
1723 -498 2175 0
-303 -1339 1570 0
-2856 1307 428 0
-482 -555 180 0
-2318 2861 158 0
2390 1282 2349 0
2740 98 -1475 0
-153 2171 1396 0
374 -698 -651 0
-299 1042 -2663 0
-1465 -970 -2784 0
-1220 -2476 2768 0
2850 -68 1427 0
-1014 2048 -2093 0
-1254 2441 151 0
-1823 1370 2776 0
-2240 433 -345 0
-982 -1178 1771 0
2369 -1488 -674 0
1357 1604 -422 0
2742 -1225 -1572 0
1395 273 1758 0
-467 -1899 899 0
1744 -1106 1506 0
-1694 2343 -1595 0
-647 2358 250 0
1847 -1504 -547 0
1597 -7 -506 0
770 2472 1020 0
-2729 2630 -755 0
-406 1464 1634 0
-288 -1322 -1417 0
199 -620 2717 0
-1643 -376 1567 0
1473 2445 -2992 0
-2529 -564 1536 0
2734 -1104 2947 0
610 -2202 -1343 0
637 1704 -1760 0
2287 -1610 -1759 0
1690 -605 12 0
2414 -1063 1202 0
301 -2059 -1406 0
685 -1843 -2 0
-1184 103 882 0
906 2329 1035 0
1106 1534 2790 0
-560 1240 -1397 0
-2930 137 2849 0
-1249 -792 2890 0
2010 257 201 0
868 2913 -2067 0
-1323 1669 -1133 0
1820 -2022 2200 0
2537 1590 -897 0
708 1555 1516 0
-1511 -701 -688 0
1933 1521 -2517 0
2750 -1151 -1754 0
-1693 534 635 0
1666 647 2574 0
-1749 -2340 -2515 0
-2450 2492 1704 0
2894 -873 -2800 0
-228 1825 425 0
1183 1787 2539 0
2161 1387 2001 0
-2257 -1411 -2664 0
-751 2948 857 0
-6 -1272 102 0
1127 2861 -2428 0
-2355 -99 -1375 0
697 1941 2113 0
2500 -625 -88 0
1976 -147 -867 0
1631 735 -1981 0
-2195 2320 -2249 0
2759 -2339 -1700 0
659 -2346 437 0
-2054 2022 690 0
473 -34 -2060 0
1610 1075 193 0
-532 -1638 2314 0
-2012 1759 2802 0
929 1404 56 0
-2310 -1740 1645 0
-540 -1328 -2440 0
-1717 -112 569 0
1233 2218 -323 0
-603 -1052 -667 0
-2553 -152 -2685 0
-2717 1682 161 0
-2609 10 -2876 0
-1334 -2532 -550 0
335 -943 2298 0
-1494 -1465 -81 0
-2541 -2889 -140 0
-1707 123 -147 0
1071 1568 970 0
233 1913 1324 0
795 1716 625 0
-2939 190 -2228 0
-649 -1073 -471 0
-2751 -2097 469 0
778 -2211 -499 0
-1162 -2609 1212 0
-2822 2988 1197 0
1323 1023 1610 0
-1065 2653 -2199 0
-318 681 2158 0
2262 -250 1222 0
1592 316 -879 0
1503 1604 -98 0
-2390 1676 -1777 0
-1167 -513 -51 0
-2741 2581 652 0
-2029 -2767 1385 0
1772 -2885 2309 0
-2492 -2467 -1100 0
-95 1483 1303 0
-1061 2058 729 0
-178 -2655 2343 0
2613 2768 2558 0
854 1004 2503 0
2040 -2256 -2361 0
2515 1876 -1593 0
-1659 -1595 661 0
560 -541 522 0
-1560 680 -2954 0
1075 -838 -1716 0
-1489 2366 -76 0
-2909 -1054 1612 0
-445 1964 -878 0
1220 2363 -1190 0
-1497 -79 -1834 0
2717 1512 2531 0
2316 -151 2315 0
-1822 -1066 -211 0
351 -1201 710 0
850 2571 -452 0
2977 -2158 1998 0
1977 2708 -1321 0
-2462 2203 -265 0
-2126 2775 1714 0
2859 1000 -2763 0
2016 2652 2202 0
821 973 -1007 0
-2483 652 2254 0
826 2008 -2106 0
-2362 1650 2796 0
1054 168 1772 0
1163 1100 -2590 0
1492 -72 -2001 0
1329 -2323 20 0
998 2353 375 0
950 -1973 -380 0
2897 2466 -82 0
1113 -1483 2648 0
-50 -1791 2583 0
227 -1482 1342 0
1092 -1358 -1388 0
-80 1542 -877 0
626 -1655 2079 0
2896 -2815 2423 0
2626 -1908 1101 0
-5 44 474 0
2065 2885 2308 0
2221 2589 645 0
2183 -1372 976 0
-2563 2109 -2137 0
72 1455 1366 0
824 2368 -2322 0
-2800 1994 133 0
2459 2468 1396 0
385 -352 457 0
-495 -2630 1197 0
-46 -143 -2819 0
-2137 -2035 687 0
2157 719 1772 0
2911 -886 589 0
1908 -415 -408 0
-1358 -675 -1151 0
1848 -1313 2120 0
2245 2971 -2306 0
-2650 -2506 -948 0
2005 -2054 1847 0
-2814 -2473 2358 0
-1170 1644 2964 0
1108 2595 -1586 0
2493 946 -624 0
288 959 -778 0
-1389 -2018 -1845 0
1438 264 -237 0
-180 218 698 0
36 384 -851 0
-1089 457 1885 0
2905 -2789 1894 0
-1487 636 2658 0
-2271 2066 -1381 0
2405 1482 465 0
301 -1046 176 0
329 -686 -1957 0
1775 100 -2557 0
507 -1050 -1711 0
-2229 2735 1687 0
-1360 524 -660 0
789 -1794 -1087 0
330 2096 -1944 0
2354 -83 -2844 0
-1956 -1117 1197 0
1035 1621 1883 0
879 -1019 -1305 0
752 551 892 0
2824 1949 -1190 0
1091 -310 -2537 0
-1565 32 2735 0
459 -1007 2535 0
-2242 -461 2567 0
1981 -879 1112 0
-2699 741 -846 0
-2426 -2738 1134 0
-626 -1939 -2608 0
2984 -1702 -1249 0
2933 156 385 0
2986 -1044 -1921 0
2680 50 1505 0
-722 850 -2417 0
-2775 202 -2689 0
2680 1737 -1315 0
1396 -765 2235 0
-717 -1282 2413 0
-2172 -2538 -1905 0
1039 -2462 -536 0
-1203 -744 -2000 0
-2276 1547 1087 0
-2651 -909 1326 0
-1858 -2481 -407 0
-720 -19 -1124 0
-1751 2098 1901 0
464 1703 2659 0
-1884 -1069 -712 0
-2772 1856 -590 0
2049 1778 -1435 0
126 256 2344 0
2385 -822 -2338 0
2802 -1791 1770 0
2001 -1113 -2504 0
347 -2 26 0
-14 -2659 544 0
1979 380 2683 0
593 125 2593 0
-1299 -285 332 0
585 -2908 -2994 0
179 -1781 2692 0
739 1094 -969 0
-1264 -2016 701 0
-1477 -127 -2887 0
-1991 2274 -2913 0
-2965 276 2511 0
-564 1824 2182 0
2442 2945 -1803 0
-1389 2671 -2627 0
884 -2321 1648 0
1723 2269 1363 0
-2007 -2362 650 0
-2532 2033 -1799 0
443 -2608 1852 0
-1729 -740 2231 0
-609 -35 -1341 0
1368 -496 1395 0
2064 -1374 -323 0
-2981 -76 1574 0
-479 -445 -579 0
2079 2723 -1845 0
-2501 196 1732 0
-2913 2400 1783 0
2254 15 -1507 0
-2189 2492 1770 0
537 -2798 -2274 0
2731 2272 -819 0
-998 1693 -404 0
1345 -1219 2879 0
-2684 -1834 2919 0
-218 -549 -2520 0
-1494 -1682 2070 0
-2795 -1817 1560 0
-81 2453 -393 0
-1917 -827 1073 0
-1415 65 1467 0
-1799 -1009 1849 0
-2260 2361 -54 0
-931 2360 1106 0
-2483 -2611 -2867 0
-1303 2119 198 0
-297 -2107 -2669 0
1412 -2213 721 0
-1789 -2281 -305 0
453 1126 2883 0
2387 -1779 -1842 0
2756 -2355 2559 0
-1894 -1625 -1294 0
-412 -2360 1214 0
1252 -2558 -2983 0
-1070 -1037 1633 0
942 -2651 -2203 0
-542 2678 1401 0
-1332 1019 1697 0
1927 -1510 -2551 0
2887 1767 1777 0
446 -920 2946 0
1211 2257 -2332 0
2335 2956 -2736 0
-798 2695 424 0
-1882 -1565 2055 0
-2955 -1961 1332 0
-59 577 -2866 0
-1809 -1652 -1158 0
-1896 -1063 2424 0
-2655 1009 -2073 0
-1971 -2393 360 0
1059 -2862 325 0
90 1410 2464 0
-512 2754 -1312 0
-1814 206 116 0
-143 -1522 -2254 0
2006 1035 -1039 0
419 213 -34 0
-2594 -2511 -1468 0
1315 2523 -2212 0
-871 -416 2007 0
-572 -384 -1088 0
1862 -1131 -149 0
325 -2993 -2637 0
278 27 -2196 0
-1389 1039 2639 0
327 -177 1176 0
2623 -704 605 0
1249 -2960 -938 0
1398 1357 678 0
2697 -1251 2147 0
1741 -2440 -1563 0
-569 1546 1556 0
-1413 -1136 -1838 0
2308 2223 63 0
452 1236 2023 0
114 -246 498 0
-798 2514 -1933 0
2162 -2002 -1801 0
-2161 2852 1186 0
-796 -2607 2969 0
-746 -2812 -1262 0
-2749 -2416 1151 0
2828 445 1581 0
285 -1531 -1343 0
1543 1743 16 0
-2285 -900 838 0
-2765 2138 -369 0
-1222 2588 -1720 0
-2534 782 2434 0
2857 -949 1157 0
-368 -1813 2938 0
-2076 -2335 1264 0
2173 -2560 -515 0
153 -1422 -2006 0
-1425 1123 365 0
767 2442 -1156 0
2146 1052 -1315 0
-1853 -2165 239 0
1180 1501 1135 0
-2916 1186 1083 0
621 2480 1909 0
2769 -480 -2761 0
1455 -2758 1041 0
2676 798 -512 0
205 736 -2279 0
-954 -1283 1097 0
1352 2611 850 0
146 -1436 151 0
255 182 316 0
1701 -80 852 0
363 -2852 -974 0
-1700 -744 -2168 0
-1425 -294 2394 0
1603 -1354 -1308 0
2756 -676 284 0
2256 -27 1621 0
206 -664 379 0
-2327 -2072 -2140 0
262 698 1483 0
495 -2928 -2151 0
-2075 2166 2644 0
1088 -410 -1524 0
-1893 510 -2190 0
-1483 -2975 2388 0
1064 -140 2995 0
-920 1241 -612 0
1722 1498 -2971 0
-510 2600 -2894 0
2060 2201 399 0
-1456 2259 -1967 0
601 2088 -773 0
-1479 2072 -1545 0
-444 1082 -1411 0
2520 -182 -2030 0
-1405 -2500 -2018 0
-1720 1285 -1563 0
-178 438 2945 0
982 -2437 -2176 0
2258 -2354 809 0
211 2007 -2889 0
-956 1795 173 0
-2496 -2308 -1935 0
-2915 -225 798 0
817 2798 715 0
2973 1937 -1399 0
-1852 -1044 -2396 0
-1607 -1309 -260 0
-1772 2351 1344 0
-2583 -1498 -48 0
158 -2347 1454 0
-1141 -271 -857 0
-1111 2193 -1553 0
829 347 2711 0
2514 1318 699 0
935 2 -2767 0
-493 1323 1025 0
1522 -825 -1684 0
1470 -2799 -387 0
-752 1499 2179 0
-2559 -2200 612 0
2264 1591 2230 0
2710 -1894 -2169 0
1222 -1177 -354 0
-1992 2641 -1374 0
-2620 -1822 383 0
206 -1123 -698 0
-1348 287 1677 0
2805 -1811 1196 0
1261 638 1050 0
1125 -2513 2799 0
-1317 1405 652 0
-1907 1288 403 0
708 -1710 2235 0
228 710 -2886 0
-1300 -1338 -1340 0
-2526 -1477 -514 0
1670 -1255 -1210 0
-1047 314 -1968 0
474 438 -1416 0
2257 1897 518 0
2954 -220 -1430 0
-2850 -966 -1636 0
-1233 -2798 953 0
-1688 1269 -1704 0
-2598 -359 472 0
2293 2886 352 0
-2921 2206 2846 0
2587 1231 -97 0
-1558 1964 -2686 0
-2034 -710 -2226 0
393 392 -731 0
11 2982 -2329 0
2487 -1911 -192 0
2257 -1698 809 0
-2906 -1065 -1522 0
251 -511 1196 0
2478 -1606 55 0
1143 -1987 -177 0
1610 312 2383 0
2940 2963 -2988 0
1502 2096 -2183 0
1056 2345 1171 0
-2852 -2121 398 0
273 -922 1607 0
-2832 -1472 -833 0
-1010 -2208 -2569 0
2524 2541 558 0
998 146 2611 0
2380 2848 166 0
851 -2670 -1492 0
427 2204 -2988 0
-2494 -1245 -344 0
-367 -2133 -1811 0
2398 102 2380 0
-1327 -2706 1498 0
1742 1930 832 0
-1544 506 -1863 0
-2177 -1733 -1417 0
-2406 -2444 2027 0
-355 208 -825 0
-1299 2468 136 0
1500 -1801 17 0
2008 -2058 28 0
-706 1792 1478 0
-2171 -2991 309 0
-991 1199 661 0
12 749 2594 0
-817 -327 -1379 0
-2233 -1226 -2880 0
-1451 -2494 -55 0
-1324 -1482 -2935 0
-1812 1461 -2901 0
-2351 -1580 -1599 0
1425 1002 -176 0
1451 906 -1983 0
-1686 2063 -455 0
-2052 627 210 0
441 548 2678 0
-1721 -330 -1091 0
-2213 2168 1462 0
143 260 -250 0
2124 719 -1402 0
1959 2871 -281 0
-1324 -1354 -2467 0
-359 196 -2942 0
-2094 2339 2852 0
-95 27 2239 0
2522 726 -1735 0
528 -2051 -955 0
1311 -1804 1163 0
920 -1030 -2837 0
-1313 802 -1924 0
-2576 -540 -213 0
2218 2848 2322 0
1968 -1073 367 0
-200 1328 -442 0
-1046 406 -641 0
90 1156 1694 0
1387 702 -953 0
-2813 -445 2248 0
-2998 -1345 -1897 0
2658 1984 -668 0
2451 -494 50 0
76 274 -1754 0
-127 582 -1369 0
-1016 1463 -667 0
-2882 -2849 476 0
-1904 -989 2585 0
1280 2495 -779 0
335 2506 -575 0
278 1978 181 0
1786 269 2058 0
483 -28 -462 0
-848 -227 -359 0
2358 2581 910 0
959 -109 -298 0
-1243 2894 -971 0
-701 2055 -2579 0
1353 -486 718 0
-221 -1456 -1404 0
2612 975 824 0
-1361 22 -399 0
-2726 -2503 439 0
166 2428 1346 0
2815 2399 2054 0
-1411 -971 2940 0
-162 1424 2627 0
1083 -2545 2760 0
1775 -1347 1203 0
1446 1118 2486 0
-306 2387 -402 0
714 -565 190 0
317 -421 -2521 0
-2948 2737 -748 0
-1324 -1945 2206 0
-715 -1618 -2311 0
-1518 292 2120 0
1981 2965 -970 0
859 -339 -532 0
-146 891 117 0
-1751 -852 -581 0
2749 -451 2677 0
-390 -146 2289 0
306 -188 -1490 0
2433 591 517 0
865 2781 2656 0
261 896 751 0
-2646 1104 938 0
-1295 -2247 909 0
1689 -882 -494 0
1392 -1306 951 0
-2033 276 -319 0
316 2443 812 0
-1420 1713 -656 0
2859 -763 -675 0
1281 1053 2901 0
1380 -776 -1869 0
2359 1121 -2325 0
2168 -422 -1643 0
1669 -180 558 0
-260 -294 2338 0
1940 -820 -2736 0
-2780 -2819 1235 0
404 2573 1666 0
-1735 -37 -2047 0
2358 250 -1334 0
2301 615 -1602 0
1084 -1300 741 0
561 -2314 1453 0
-1907 -809 1401 0
-2617 -2866 2038 0
311 -807 2752 0
354 1667 -2522 0
89 302 2235 0
1802 1775 1854 0
-647 826 835 0
928 1570 -1092 0
822 1204 136 0
2396 537 -1343 0
-1524 -1759 1188 0
-748 2412 -480 0
337 2416 -1153 0
1401 1981 2406 0
-2676 -1392 328 0
-701 -1480 -2762 0
662 994 -117 0
-2211 -803 -2254 0
-786 -658 -1327 0
-994 1701 416 0
953 -606 -2014 0
-2516 -1690 2165 0
2144 1658 1938 0
-2948 267 -1977 0
933 -21 1616 0
-1898 -2117 -794 0
2218 -1833 -1789 0
-1884 -1045 725 0
-509 -2866 2053 0
-1840 306 19 0
-2150 -925 825 0
-2166 2926 1248 0
252 -1892 -1741 0
1009 2892 -2157 0
394 -1683 1022 0
-1492 1969 156 0
909 548 -1722 0
-2172 -2045 1395 0
-1151 1831 523 0
734 1667 1036 0
-1445 -1361 1268 0
2178 -2414 1010 0
1881 64 -425 0
-1495 -2292 2914 0
146 -1092 2127 0
165 993 2145 0
-1577 -106 -1260 0
-1641 -1238 2730 0
-1883 -2803 2179 0
-2003 -1152 1263 0
-1489 -2514 -1376 0
2286 -1894 -2222 0
-2922 -157 -787 0
-2294 -1712 965 0
2843 -2309 451 0
1636 -2978 1735 0
-1540 561 1908 0
2870 981 -5 0
764 -189 -892 0
-2718 -220 -223 0
-248 2337 525 0
2926 2850 2566 0
890 -1002 914 0
-1005 1448 2183 0
-210 2496 829 0
2327 1465 438 0
1661 2203 1019 0
2252 1556 -2426 0
2627 -1129 -850 0
-55 1738 -2819 0
-1027 1770 -1745 0
1521 -248 848 0
-1712 1880 224 0
199 2594 1938 0
-489 -116 -2674 0
-1264 2880 -1431 0
-2999 -2226 1739 0
657 -979 -1476 0
1583 560 -66 0
-1208 -267 2852 0
600 -2056 -1974 0
-1440 1843 -1954 0
492 2792 1595 0
-921 346 971 0
2485 -1151 2478 0
1626 -2605 785 0
-486 -2139 1707 0
2437 -2393 1372 0
1762 2176 -419 0
-648 2703 622 0
-1166 -356 -1336 0
-2438 251 1894 0
-848 139 -2484 0
-1298 -1289 2911 0
-2561 -294 1996 0
1269 1178 969 0
-386 -1142 2548 0
-1651 -1429 -1621 0
579 468 326 0
646 2624 -650 0
1357 381 -2680 0
430 -1824 114 0
-1980 409 2629 0
-277 -1082 2279 0
-1337 1995 2910 0
2850 -2635 2883 0
927 -2979 -1655 0
-533 -1158 2408 0
1616 -1124 1181 0
362 1722 -1184 0
-1373 2454 2705 0
-834 476 1993 0
1422 -2604 2175 0
-1222 -2800 591 0
456 -1208 1616 0
1085 469 2386 0
2366 118 -1611 0
-2196 -1582 -2757 0
-1367 -2614 1557 0
-23 -1969 -2293 0
2616 44 2590 0
-2466 361 1306 0
-2015 -2493 2478 0
-1502 1199 535 0
-2122 809 -1122 0
-1892 2290 -639 0
-1944 1855 2683 0
-2433 26 1438 0
2853 -370 -927 0
2493 -2132 843 0
-2345 -2024 2693 0
2311 -2835 -895 0
-1265 -437 313 0
-2675 2603 -1337 0
1055 1283 664 0
-2227 -1381 427 0
1210 -2488 1650 0
-2917 277 -2565 0
-1770 -2089 -1305 0
2527 -487 2040 0
-2941 -1464 1145 0
-1484 -194 -2990 0
222 -138 -1252 0
2383 817 -524 0
2298 1695 -2477 0
168 -2306 1505 0
-2575 2511 -1236 0
-2646 -1779 -1510 0
2184 -1313 2406 0
-1830 -972 1764 0
-736 262 1577 0
-2221 -457 -1278 0
-2527 1474 -87 0
1452 1154 1058 0
856 950 1869 0
88 2005 1484 0
-2666 2133 -2384 0
945 -2292 -2732 0
2466 717 -929 0
1497 2036 2394 0
188 -1208 -1652 0
-1708 -1465 -497 0
-1240 -2006 -535 0
-1944 -974 1052 0
1041 1040 109 0
35 -2062 2734 0
-2235 -389 1748 0
1368 -1399 1468 0
1064 -2679 228 0
2504 2284 -1445 0
1442 2054 263 0
1997 696 429 0
-558 -1488 -2387 0
-2737 95 -2665 0
-76 -2824 -1094 0
-1512 -1156 2329 0
-366 2006 1842 0
-84 1385 2384 0
-1543 2657 2200 0
659 -865 2773 0
930 704 -1816 0
600 -1495 1819 0
549 -2573 1328 0
1822 1749 -768 0
-2061 -32 -2131 0
-2089 939 944 0
113 2401 -1290 0
-2837 1614 -2736 0
261 -510 -592 0
-618 -2760 -2165 0
82 759 2299 0
-1367 596 827 0
-1774 -1095 2079 0
-950 -2500 520 0
375 1983 1736 0
1668 2255 2209 0
2088 -1563 438 0
-1479 -564 1483 0
-2305 705 -1681 0
-2619 -1908 -155 0
760 2458 366 0
826 -2731 2282 0
-923 -2500 2473 0
-1643 -771 1182 0
-1512 -1240 348 0
1250 -2918 -1605 0
-1671 2117 659 0
-502 1336 1036 0
-2574 -1200 1629 0
769 1312 537 0
-931 1269 999 0
-1123 2156 -2492 0
-1318 -433 -2312 0
2561 -2407 2489 0
1541 2917 -2006 0
-380 2288 -2742 0
-81 -2178 676 0
858 -1749 -2263 0
-685 1912 1783 0
1347 2701 2224 0
-1043 -257 115 0
-689 -238 2454 0
-558 914 1799 0
-2548 -224 -1272 0
-25 -1017 -1876 0
1693 524 -1457 0
1366 -1595 -2536 0
-444 -2096 426 0
-1637 138 -336 0
158 1893 403 0
-1192 -1440 -402 0
-1465 -1069 2387 0
2227 1012 -252 0
-2552 90 2908 0
-700 1568 1296 0
-1558 -2986 -966 0
-906 -356 1071 0
-1470 2880 2120 0
-2570 -469 -2714 0
2994 2813 1994 0
2646 -851 -1225 0
-1944 1724 694 0
2940 1723 1872 0
-2719 980 1930 0
365 2378 763 0
-354 -651 -143 0
-1382 701 437 0
1740 1450 -2832 0
2824 1371 -1082 0
2776 -544 -1654 0
-1511 -365 -2526 0
-990 236 -2180 0
-2553 727 86 0
-1057 1315 -2646 0
-2594 2192 2867 0
1655 400 -2824 0
34 -858 2039 0
-1281 363 -2883 0
2873 2042 -1579 0
-2815 1974 -860 0
-1914 1097 788 0
-2221 -1827 69 0
2402 2901 -551 0
-1981 2333 2142 0
-2388 -2326 789 0
-2022 1034 -2586 0
-902 -2688 -732 0
-2229 -1823 309 0
-2674 -900 -161 0
1464 2514 -270 0
785 -693 -1867 0
1341 -1135 -63 0
2117 -2085 2903 0
1371 594 -636 0
8 -2223 2938 0
-394 -928 -298 0
1816 891 221 0
163 213 -2327 0
-687 -2483 871 0
-128 2991 -1700 0
290 -1046 -1038 0
2317 -1998 -1735 0
2993 -845 -691 0
1561 115 -1773 0
2920 1067 -403 0
1644 -189 -202 0
-566 1054 2285 0
1972 -1122 1938 0
2699 2877 -1053 0
2837 1336 -886 0
14 2542 703 0
1531 2295 2289 0
-2705 1036 -1120 0
-1200 -1080 -256 0
2550 -2130 2569 0
41 -1957 1634 0
-1388 -960 1645 0
1738 2413 -348 0
-810 -2889 2590 0
-2046 -1303 1967 0
1822 -324 -1106 0
1449 1495 1237 0
-877 -1316 1651 0
2509 -845 -1419 0
2167 -853 -1043 0
2123 269 1024 0
-967 -1307 -39 0
-2859 -24 -1944 0
-2414 -934 -2999 0
-89 -757 2050 0
945 690 -538 0
243 425 622 0
2254 1195 -867 0
-2193 -970 2271 0
1209 -2419 1009 0
1565 -1453 -2028 0
-1873 46 2690 0
-600 1243 648 0
-139 -1532 -1665 0
-89 -121 -2553 0
-59 -1090 -2103 0
-1252 -2051 -693 0
-1772 -1359 647 0
-1800 -1120 -233 0
-837 2877 2549 0
-2907 1054 -1902 0
-2957 -498 2863 0
-2527 47 1708 0
-2898 2581 2342 0
-1149 679 2589 0
-329 1174 858 0
2059 -546 2749 0
-2710 390 1694 0
-1912 819 -217 0
399 1510 767 0
-2636 -2053 -2836 0
-1097 595 -1158 0
-206 -2024 1851 0
2381 -1472 2007 0
-1299 1872 2883 0
1983 2812 1813 0
-599 1108 1385 0
-2185 1621 2808 0
-2384 2755 2508 0
2127 2562 -89 0
-1691 2589 2990 0
1367 -2018 1475 0
-86 122 -1389 0
586 -1209 -2422 0
-296 931 2774 0
-968 2842 -1295 0
1492 -275 -8 0
856 931 -2319 0
-1037 -811 -1108 0
156 -806 2994 0
1048 1420 1539 0
96 -991 -2688 0
-554 -905 -426 0
1806 -2656 2895 0
-2434 2451 158 0
1545 -1010 256 0
1675 -377 -65 0
1306 1751 2041 0
-1302 2458 1010 0
-729 -2773 2490 0
-1526 559 -158 0
-1225 -1970 1257 0
-446 -269 1216 0
1796 -879 1978 0
-1165 -2856 -1739 0
2148 -2601 1322 0
2266 -972 1256 0
-737 -892 1496 0
1158 -1918 -24 0
1398 189 -1831 0
581 936 -2855 0
-375 1844 507 0
1006 1434 937 0
426 209 2843 0
1673 -392 572 0
2570 -602 -576 0
2568 1986 468 0
1552 -1143 -2628 0
-2819 1279 -2189 0
-643 508 2704 0
2165 -2519 -1685 0
-798 419 2869 0
-2909 -2436 -14 0
-1049 866 1960 0
-1444 2709 -1851 0
1109 -1006 -2693 0
1655 1846 -497 0
-2092 250 2585 0
2396 2327 312 0
649 1325 1086 0
-1099 -2412 1410 0
-791 -703 174 0
-541 1848 -15 0
1466 247 -1988 0
1935 -1344 -590 0
-273 -223 -2187 0
804 -1822 2400 0
1605 -311 -1731 0
1795 -2408 714 0
2932 1043 -1774 0
-2559 -1158 -462 0
2339 -928 145 0
2980 3000 -1876 0
-172 -239 1940 0
2560 -1994 42 0
2512 -1386 2066 0
-87 685 1028 0
515 -918 2636 0
-877 966 2615 0
707 2301 -1145 0
-1235 -555 832 0
-1612 -1129 762 0
-2342 -997 67 0
-1531 -152 -124 0
-2226 -2929 2942 0
-278 284 -1268 0
-1515 -1737 -2094 0
-2614 2358 2285 0
1853 889 2645 0
2650 -2064 1169 0
1700 1701 2387 0
2326 -1904 -2928 0
612 -1157 -1332 0
715 2802 -1383 0
-283 1092 -44 0
-2989 2639 -2820 0
795 222 2718 0
99 1270 2895 0
1596 -1368 -737 0
1948 2133 2950 0
2304 -2323 2927 0
1876 1766 -714 0
1575 1378 -2055 0
-1686 938 623 0
-1549 599 -2268 0
827 1777 1889 0
2173 -2839 2070 0
2897 804 -1246 0
-2038 -2005 -423 0
-339 1397 -1047 0
-2677 -199 2395 0
2382 1794 -2990 0
-853 748 -372 0
-2100 -1092 2098 0
1198 -919 -2474 0
899 -1859 2295 0
-1700 2417 -5 0
-769 2426 -436 0
1273 1655 -2755 0
-2051 -2237 439 0
56 -2955 -2766 0
-1097 2645 -1489 0
1444 2262 635 0
-424 -1198 -1897 0
2985 -433 -2545 0
-2737 2098 2845 0
2870 1322 1363 0
2247 577 -2265 0
2084 2548 -2138 0
2417 1543 -2566 0
-693 1707 610 0
436 -2215 2798 0
1859 2755 -1347 0
647 2157 1563 0
-2151 2366 1982 0
338 1567 290 0
-2018 827 2849 0
-1461 -2154 2578 0
-904 461 -2777 0
-1411 -1018 -1714 0
2946 -765 2998 0
2484 -1048 -1892 0
965 -1329 986 0
2961 -2301 -874 0
-201 -766 -349 0
-791 598 2276 0
2871 -2713 -2430 0
180 -2290 -396 0
-2644 -1575 282 0
-1262 87 2457 0
146 351 -1806 0
-2831 2827 597 0
1777 -1846 -354 0
-2622 1954 -605 0
-375 2974 1850 0
992 -2395 162 0
1689 -1819 -638 0
1893 2692 975 0
988 -2818 -866 0
-1703 -2493 1293 0
-1791 2119 899 0
-1874 -1210 293 0
39 -151 -535 0
-828 917 -1572 0
-2431 272 480 0
2009 -2982 1194 0
867 2758 -2086 0
1 -1367 -1100 0
1602 -1463 -2614 0
2393 -1119 -2557 0
-1866 75 -810 0
-2042 1421 573 0
682 68 1200 0
418 -454 -1688 0
225 1741 -2015 0
-2652 -2209 1309 0
-1899 1589 -2064 0
-166 1171 -2088 0
1435 -2174 -1621 0
-1522 -2056 800 0
-839 1916 2068 0
2716 -2564 -1201 0
1007 -565 -49 0
1041 -2671 -2303 0
1979 1324 -869 0
726 -918 1593 0
949 1657 -2691 0
-301 -188 326 0
2493 -2178 348 0
79 1417 2693 0
-867 1345 -1233 0
22 1431 1688 0
400 870 502 0
84 325 367 0
-32 -1706 -1257 0
1638 -827 2465 0
-1765 192 -1840 0
-2704 -3000 -2440 0
2359 -617 -242 0
1313 1275 1877 0
-2344 -2513 -1212 0
-538 -377 -1236 0
-1104 900 -821 0
1589 -1146 2466 0
-2269 771 -1160 0
-720 2868 1791 0
1826 1035 -839 0
1710 -515 -1614 0
191 2708 1837 0
-307 1764 945 0
-1192 647 257 0
-980 -2560 1698 0
-830 -2740 1169 0
-801 1154 -1429 0
-2638 -1354 566 0
-491 -1368 -2705 0
740 1456 120 0
185 1498 -1735 0
2743 -2974 -2726 0
783 572 -2983 0
683 2302 -775 0
1927 -1006 -717 0
2533 1521 606 0
-1324 1051 1126 0
-448 2043 1987 0
1436 -1164 1383 0
1984 917 -612 0
1812 1640 -2852 0
2583 1644 -1845 0
1284 -1846 -1472 0
2404 2116 -2741 0
370 -1927 -2692 0
-2427 23 1242 0
1251 774 -1727 0
-987 -3 1794 0
330 -1612 -2320 0
-2122 -2537 -1466 0
2696 -490 -915 0
1927 970 2834 0
1984 533 556 0
1004 2730 1913 0
2161 -2224 -1310 0
327 1530 -2347 0
2060 -1552 -1837 0
-2154 -521 2652 0
1520 64 -1639 0
1537 364 -1681 0
-599 2079 2576 0
-2328 -2371 -2825 0
-2238 1315 -939 0
-766 187 2803 0
-1828 -2805 1461 0
-1271 840 1545 0
-1324 -682 179 0
1996 -2627 -2237 0
1779 2171 -72 0
876 2480 1161 0
2058 1424 2408 0
-394 1752 -1370 0
-2691 2586 -456 0
-649 -2286 2804 0
-1716 2682 -939 0
-1129 -448 -326 0
-331 -1214 -856 0
-1514 1353 133 0
-1168 1173 -1130 0
1130 -2598 -2110 0
2601 2261 -1667 0
-867 -1785 -2717 0
-87 1387 621 0
908 124 -2394 0
557 593 -2063 0
-844 917 404 0
1783 -1864 1386 0
-2237 -1872 2632 0
-2252 544 1914 0
2565 672 2905 0
-2694 2246 1642 0
-2149 -2695 2795 0
-1778 -133 2386 0
2911 -1704 2489 0
-21 264 -2918 0
-1356 -1294 -398 0
-1590 30 1447 0
1212 1433 -1077 0
-1829 -2709 2928 0
-2298 959 46 0
2474 -1024 -2358 0
-1577 613 -1860 0
829 1758 -26 0
867 -1449 -1330 0
-2383 920 1489 0
758 2568 2341 0
1915 -2769 -1699 0
2404 -127 -197 0
-2278 -883 1321 0
52 1298 2300 0
2589 1106 370 0
-481 -216 -1770 0
-2093 -116 2617 0
-682 -1141 574 0
-2687 2284 122 0
900 -2607 -130 0
-1466 2293 -2826 0
1714 -218 1901 0
-1432 -2293 -1623 0
934 513 1313 0
1370 435 1564 0
-1277 1339 -290 0
-2930 -143 -1223 0
1185 831 -2134 0
2741 -683 271 0
-2333 2806 2207 0
-1755 1134 1892 0
-1804 1645 2067 0
1207 1249 -556 0
-931 -2721 -1722 0
-509 -2270 649 0
-2275 1535 1339 0
2136 2181 1318 0
2547 -2129 -404 0
-199 291 1137 0
-2276 -2543 1097 0
-2962 -2221 -338 0
1884 -17 1541 0
-1859 -122 -713 0
1012 -2412 2591 0
332 -2635 -1528 0
1117 -1190 -1713 0
2208 -2613 637 0
-1319 -2195 1292 0
820 -2282 2166 0
1157 379 -2215 0
-2888 -2215 414 0
-238 -1110 -2321 0
1401 -2570 -343 0
1318 -1819 -2867 0
-2674 -2935 2227 0
2326 -2390 -1475 0
96 -2380 1346 0
-2480 2332 -1357 0
-769 2147 1493 0
2822 -578 -614 0
-716 181 -2354 0
-2809 2696 1922 0
-1574 1666 -395 0
-154 973 1491 0
2089 2132 1372 0
-1926 350 919 0
2637 1003 -555 0
1709 -2822 1997 0
-2273 -1135 128 0
-1459 2498 -1929 0
-1502 576 -2871 0
-1846 582 2741 0
1135 -841 -2745 0
621 738 920 0
-2863 -1365 -942 0
50 -421 1227 0
-1062 416 2815 0
-1265 -2879 -734 0
-2000 700 2685 0
338 -409 2352 0
-392 -1159 -1941 0
771 -574 -864 0
1237 425 -1241 0
48 -1088 -2696 0
1871 -964 -1874 0
2941 1083 -871 0
-1696 -1592 908 0
-1310 2690 742 0
623 -305 465 0
1775 2320 -1619 0
-2701 -726 -1809 0
472 -290 -1859 0
360 1737 -1899 0
-1883 -1918 630 0
-2421 2695 1449 0
-1443 662 2535 0
-1363 -2163 -2565 0
-1293 1467 -1605 0
-992 -1399 -2230 0
-2898 2419 580 0
-571 -597 -1946 0
-1732 -1632 -2150 0
-2855 -238 2688 0
-905 -1699 2285 0
2990 -2191 1454 0
-556 -1611 -983 0
-2475 -2128 2877 0
2759 1531 -1070 0
-1194 -608 1840 0
-2059 1895 1652 0
2512 859 1626 0
450 -1445 -1854 0
-1555 -999 -1803 0
793 -1278 -1518 0
1799 -206 -2186 0
1052 -1648 2636 0
-1214 555 -2669 0
2537 613 -867 0
-1064 911 1546 0
-906 1454 -1548 0
-176 1681 -534 0
-2830 -508 54 0
-2796 -544 668 0
660 -591 -1972 0
-299 -1773 1472 0
-2294 761 158 0
169 637 1314 0
-1832 1303 240 0
239 -2621 1421 0
-748 250 2166 0
-2309 129 243 0
-2134 -2402 -2854 0
289 32 -2890 0
-711 -249 1670 0
1199 -1543 121 0
1577 2872 1460 0
-1991 596 664 0
-97 172 142 0
-2420 2007 101 0
-2746 -2382 73 0
1309 -2254 -2916 0
627 -1965 700 0
-2246 715 2773 0
2619 -2036 416 0
2991 -1429 -66 0
-2127 1552 390 0
2447 -2375 -1646 0
2444 -283 266 0
-562 1220 1123 0
2117 1845 1745 0
855 474 209 0
-1436 1870 2981 0
-1820 2131 -2162 0
1667 -2807 -259 0
-795 1706 75 0
-1586 1480 1592 0
-1069 1321 2416 0
-524 2569 1332 0
2263 628 -865 0
-142 1738 2540 0
2063 -94 1408 0
-191 1890 -2426 0
126 2282 945 0
-406 23 -1062 0
1005 296 2268 0
-584 -1286 -257 0
10 -266 -1150 0
-2856 1867 -2423 0
-403 -723 2653 0
1049 -69 893 0
-1429 -451 -2226 0
-417 2263 2628 0
1259 -1488 2593 0
-662 1433 -1637 0
1478 -2382 -1194 0
-2158 -2238 1857 0
420 2904 2260 0
1162 2924 -126 0
-555 -769 -1307 0
-1201 666 -2406 0
-270 -2315 1731 0
1261 2439 715 0
-1482 -2149 2144 0
-886 -1011 110 0
-2892 -1510 -2463 0
-1340 -1378 -1952 0
750 2753 -68 0
919 1714 2887 0
2855 2159 1948 0
2687 1461 -2166 0
2987 -729 -2290 0
2961 149 1648 0
-2505 1484 -2750 0
778 253 -264 0
-2851 275 -54 0
1286 1534 -2596 0
2898 2337 212 0
-2716 -2490 341 0
1405 2346 -585 0
2197 964 194 0
508 2222 -706 0
1897 -2364 -2434 0
-792 438 1375 0
-755 1790 2241 0
-1338 1528 706 0
-972 -2216 -2831 0
-832 2654 -406 0
-2097 -141 -2595 0
-2992 735 -2138 0
-295 2386 428 0
-976 -2085 119 0
1898 -134 2424 0
-503 -18 1157 0
1684 2192 2210 0
168 486 -1940 0
2182 472 1602 0
-2166 1640 2965 0
2301 -2623 2688 0
1298 -319 2398 0
-1249 -137 2749 0
46 -947 -647 0
697 1422 1347 0
2027 264 2954 0
1615 -2393 511 0
-508 2478 2513 0
1194 -428 -2203 0
-1104 2832 -2267 0
549 -246 -553 0
2789 1472 -2163 0
2082 2913 2675 0
1659 -1256 -2186 0
176 -1939 1212 0
-1588 2901 -109 0
2684 746 -1169 0
-1641 104 -1154 0
2213 1747 1427 0
-626 666 2093 0
2882 381 -2242 0
2896 -2943 1098 0
2234 1333 48 0
-1254 -814 -1234 0
2442 -2344 2392 0
-2741 -2669 -1562 0
1962 557 -817 0
2466 2670 998 0
14 2401 -724 0
631 2488 618 0
1470 -995 -2823 0
1588 2314 2011 0
-302 -2720 1708 0
2075 404 2467 0
-2991 -1224 -2327 0
-216 -2460 -2501 0
808 -1829 -590 0
1252 -756 -239 0
197 -2706 2188 0
-459 -56 -963 0
1212 2339 440 0
-1359 810 -2279 0
1168 2606 -2170 0
-732 1168 339 0
-2894 -1440 1444 0
-859 2514 -2613 0
2770 -2039 -2701 0
1251 2243 -622 0
751 647 -1701 0
-2293 -2791 855 0
-2556 12 -1973 0
-1236 908 -11 0
2105 -1527 -947 0
547 -930 1861 0
-1194 257 -2651 0
2922 -2370 -1189 0
-1049 110 -312 0
2794 1797 -721 0
-2898 -1641 -1965 0
1156 2827 -192 0
-1905 454 862 0
2043 148 2153 0
-2167 1462 2406 0
-2276 -420 -2453 0
-216 -477 1002 0
2016 1806 484 0
912 314 2296 0
-339 -1980 -2890 0
1611 -2759 -1479 0
-1130 2793 -2909 0
-85 500 213 0
-1027 1334 1109 0
2826 258 -1495 0
-1273 1449 787 0
2632 -1061 -595 0
-1249 -682 -658 0
-44 -683 -1791 0
-983 1212 692 0
2135 123 542 0
2545 1156 2178 0
-1601 -1025 -2480 0
1477 -1195 -1381 0
1873 -2533 -894 0
-2128 2169 -1295 0
-2550 -483 -1630 0
-18 905 1082 0
1652 231 -459 0
-16 2570 221 0
2709 970 538 0
-2550 -896 -731 0
2003 -1864 688 0
-12 1253 -2169 0
-2412 -2197 1660 0
1879 2565 2535 0
547 -2421 1237 0
2588 -1295 -2654 0
-55 -2317 2858 0
-700 -2477 -547 0
397 -1059 1209 0
-1397 -24 2345 0
310 -2349 404 0
2576 1512 -1363 0
581 2042 -1963 0
-1486 1998 1995 0
1678 -2402 2214 0
2267 -1842 1357 0
1365 -1683 327 0
887 -912 -1877 0
-2998 -1800 -1028 0
207 -542 62 0
-863 -1146 1831 0
-1800 748 -2870 0
655 -121 -415 0
-889 -2555 -1884 0
1844 1095 -1678 0
1208 -1143 -2173 0
626 -1881 1535 0
799 -2714 1688 0
-216 2404 -448 0
-2572 -565 226 0
2944 -2248 -118 0
2077 -2050 -1016 0
913 -2829 171 0
-2759 -1334 -1799 0
-2626 1279 454 0
172 -2753 -850 0
1873 695 996 0
-2008 1914 -1926 0
464 -2203 -2175 0
1987 2910 -450 0
854 -2789 445 0
-1249 625 -1201 0
-1393 2441 -731 0
-145 1747 363 0
2812 -2342 2542 0
2664 2878 -2130 0
-1670 -440 847 0
-1911 1472 709 0
1053 -584 245 0
-2768 -2745 -267 0
2013 -2549 -447 0
2046 -1288 2275 0
167 1927 1667 0
-1981 1676 -2423 0
-417 2268 -1695 0
-653 1587 -2149 0
2337 -2850 -2075 0
501 -37 -1984 0
-1594 2854 -336 0
2046 1154 1643 0
1898 -2886 1177 0
2305 -1148 -313 0
597 -593 521 0
2653 -1124 -1116 0
-425 2978 1168 0
-225 -885 -443 0
-1016 -2426 1402 0
-2293 -1768 -2314 0
-338 -243 -303 0
-2098 1382 -860 0
2453 -2007 -2632 0
56 -802 -855 0
2280 -2408 1884 0
1484 1808 -1391 0
2267 2690 993 0
2574 -1503 -557 0
-728 -102 -1335 0
1641 299 -394 0
-1126 2074 1437 0
-727 1922 -653 0
612 -2562 1076 0
1893 -2961 -682 0
-2349 -1825 -545 0
448 -1218 -655 0
-1385 -419 1717 0
-954 -967 64 0
2212 -2402 -2036 0
-2119 1087 667 0
-1319 1771 235 0
948 -1692 -1422 0
1561 -1115 -194 0
-1989 236 2232 0
1153 1867 1520 0
-1535 -1379 109 0
2182 -1720 -1567 0
156 519 2387 0
-1842 -1894 2039 0
1824 -999 -2972 0
845 2791 2795 0
141 1008 -767 0
-1731 1720 2263 0
-284 -1523 356 0
-2469 -1887 -1072 0
-1555 -2185 -886 0
-1431 1824 -272 0
-1504 -2379 -1298 0
-792 -1325 154 0
846 -2368 -2743 0
1055 -1464 2539 0
104 -2156 -1865 0
-1654 1467 -2677 0
-1697 456 -2850 0
1110 -1355 808 0
155 -1358 -1201 0
505 -2659 -2469 0
1400 -2127 -1630 0
-1216 -1581 1620 0
-1967 1401 -2721 0
-766 2721 2949 0
-1207 -1099 1584 0
1043 -1869 -1413 0
1870 -112 -1462 0
2031 85 -2583 0
134 -2314 -1128 0
95 2217 -2814 0
-1185 1226 -418 0
69 540 1699 0
1036 -20 -37 0
2081 -640 -379 0
34 844 2399 0
2661 -759 -1249 0
1683 2510 2993 0
-1460 -2921 -2070 0
-1659 1180 1680 0
-2117 -560 -2395 0
-1909 -1447 -2789 0
-1283 -1755 -677 0
-52 -467 2212 0
716 101 2513 0
515 2979 756 0
530 -1471 -1583 0
-215 2430 -666 0
1841 -334 -670 0
-2014 2430 -2231 0
-2995 -337 554 0
-1642 -2766 2664 0
-1868 -604 87 0
-1099 1288 -1914 0
1505 -1940 286 0
-1736 -2307 -1592 0
2074 2807 2242 0
1192 -1577 1493 0
2555 -874 636 0
-789 -2848 2093 0
736 776 2196 0
-765 1874 -1504 0
-2222 -1954 -869 0
2753 -1398 1694 0
-2537 1449 -1414 0
2420 -145 610 0
2449 -180 -221 0
662 2412 -2668 0
-1855 143 -2564 0
-567 2640 -1810 0
-263 -2403 -275 0
1228 1415 -2196 0
247 1617 -87 0
573 -881 1633 0
1128 2640 -328 0
-783 998 163 0
-1014 -2817 -474 0
-1099 1399 -2731 0
-875 1851 118 0
1058 -2848 1290 0
1229 2611 -128 0
249 -670 -1848 0
583 -802 2657 0
-700 625 -433 0
304 -1499 1688 0
2546 -2356 2703 0
-1747 -2519 -1440 0
618 2576 2888 0
1591 1779 2771 0
-2043 -1397 1800 0
2042 -2374 -434 0
2201 -95 1084 0
1154 1804 953 0
-1478 968 -2366 0
-2616 -1694 -57 0
-1401 -1326 521 0
1358 -825 1708 0
1088 -140 833 0
2638 -2378 377 0
-1523 -2807 -2182 0
1752 2049 2521 0
-2384 -2361 651 0
-2530 1219 2221 0
-614 2925 -1087 0
-2974 2867 -1965 0
-2643 -2591 274 0
970 1215 2607 0
1209 40 1487 0
-672 1696 2673 0
-1986 2820 -1785 0
-585 1193 -855 0
1047 -1176 1439 0
474 -167 -1142 0
-667 707 -547 0
-654 2721 1150 0
-1192 -2131 869 0
2904 1827 -841 0
936 -2499 -1288 0
2151 -2325 -1374 0
394 -2630 -2801 0
2278 2611 1074 0
-1687 326 1095 0
-101 211 2439 0
595 2705 1328 0
-2073 2244 1906 0
-2690 1350 1014 0
429 2439 1479 0
632 2570 -2513 0
1890 -1226 -2306 0
-310 1977 -1909 0
-358 -1050 2917 0
1485 1049 788 0
1488 -1247 2189 0
2065 2489 1509 0
-1431 1984 922 0
1413 2530 1383 0
-1750 -186 1378 0
-2983 313 1500 0
-1858 1078 -1433 0
1835 1455 -1630 0
-147 2160 570 0
2123 -23 1457 0
2661 -1921 -1769 0
2813 2246 -2415 0
1053 1417 2701 0
-2978 -1914 -1078 0
-2165 144 1498 0
1483 -7 1780 0
-1206 1891 -144 0
-748 -1493 2048 0
-6 468 -58 0
-1333 549 2885 0
-1802 -567 -2292 0
-2641 2639 -2816 0
354 2601 -795 0
2253 2216 1715 0
2718 1283 132 0
-685 -1491 -232 0
1011 -661 681 0
-473 -2150 -1193 0
1219 -2647 41 0
29 -1615 1910 0
-1425 201 -452 0
-846 281 1601 0
-860 2914 2400 0
1600 718 392 0
-386 2400 -2611 0
-1359 -2599 2317 0
886 2473 2232 0
-641 -1389 -1108 0
-2132 -1867 -2527 0
-1861 -1515 2995 0
-2505 1625 -1703 0
1057 -208 2434 0
-947 2915 -1219 0
1089 675 -1326 0
1023 -1883 1437 0
-1390 413 2226 0
-1430 -2459 40 0
-1558 749 1344 0
1308 2866 -426 0
2567 2690 -2420 0
-1227 391 1104 0
-420 1847 982 0
-1321 2472 2264 0
2681 -2037 414 0
-796 -716 1467 0
1086 2286 -1807 0
-2299 1284 -2686 0
1366 990 -1277 0
2997 -2267 -1872 0
979 37 2059 0
-191 -1323 335 0
-25 -954 2506 0
1865 2326 -341 0
-2148 393 -2157 0
2595 -1543 429 0
-1156 1985 2940 0
-1682 632 -2500 0
-1545 -2790 253 0
-2805 -1961 1913 0
1431 308 -2376 0
-2961 2100 1418 0
1264 -1148 1321 0
-1169 -613 2382 0
1889 958 1562 0
-1647 1054 -1076 0
2194 -1554 619 0
-2707 625 318 0
-617 2449 1389 0
2305 2783 -923 0
-1273 2443 1251 0
677 931 894 0
-1409 1687 157 0
-1244 -1638 310 0
-2848 -282 -1753 0
1799 750 -2500 0
2645 -1937 2674 0
2695 -1879 1733 0
1047 -430 1612 0
-950 2673 -85 0
-2599 2643 1171 0
-2261 -2670 -2812 0
2171 480 570 0
1650 -2488 -2845 0
-118 -1394 1187 0
-2595 -1088 1456 0
1724 -2630 -1794 0
-2473 -1169 -1310 0
-636 -1399 835 0
-538 1017 1894 0
1037 -223 2137 0
2255 -2804 -2888 0
434 -1237 -67 0
1013 356 1953 0
1031 2743 -508 0
1228 -2021 -664 0
-2221 -1593 2119 0
-630 2550 1306 0
2490 2719 2533 0
2254 1865 2716 0
569 2746 717 0
627 -1151 2553 0
-503 -756 -2005 0
-1762 -1240 551 0
-2742 -2568 -1109 0
-1633 -590 -2601 0
-1236 -1065 1455 0
-2894 652 797 0
717 1343 -730 0
2881 -201 -2984 0
1224 743 383 0
1675 -2978 -2083 0
1520 889 1811 0
-1135 -1397 -2416 0
1365 2734 -1010 0
549 1838 1800 0
1729 -1427 -1122 0
817 2317 -2974 0
714 -2791 -2332 0
-276 1628 -2869 0
809 -1494 -618 0
-1202 456 1327 0
-1355 2382 1726 0
937 -1260 1416 0
-1129 -423 2152 0
2300 2943 -6 0
-1261 1844 -901 0
-300 2169 -466 0
1868 -1195 -54 0
2998 -1008 -2873 0
2798 2571 2565 0
2579 -1112 881 0
-1830 -1851 -1521 0
2157 934 2837 0
-1534 1367 119 0
-1182 -1764 -1139 0
-2573 -1587 569 0
979 663 2326 0
-947 -1529 -117 0
-745 661 2837 0
2697 731 -510 0
1152 -2258 2690 0
-651 2612 705 0
-1969 -2565 -2129 0
1294 2437 1119 0
-921 -649 -1951 0
-1981 280 630 0
1466 -2948 1412 0
-992 92 964 0
-1195 -1416 2411 0
2082 -1976 2506 0
2692 -706 -2606 0
-2355 691 -1995 0
-2951 552 -184 0
-1068 -1225 2379 0
-829 -2125 2986 0
2491 1476 -145 0
1114 487 183 0
392 -503 -1147 0
-787 -1920 -642 0
2076 -2209 -2868 0
-1044 1582 -953 0
1099 -2008 -2984 0
-2239 -2859 2956 0
-34 971 -1918 0
-1517 -1267 1855 0
1321 1075 -1763 0
2268 -2558 163 0
-1611 243 1117 0
-1512 2869 -1537 0
1918 -2760 -2097 0
2039 1307 -658 0
2341 103 2008 0
1715 919 1520 0
-2958 1770 -2968 0
2615 -1584 -552 0
1491 122 1091 0
-154 -1373 -1724 0
-1481 -1407 -784 0
-1347 1843 2963 0
-2797 1430 -2581 0
60 -2670 164 0
-382 -666 -1546 0
450 -34 1460 0
944 232 643 0
-644 -806 2397 0
-1119 1232 -1863 0
-2424 -2043 2060 0
160 1520 1043 0
-1880 -71 -697 0
2600 788 -1470 0
-1314 -551 -82 0
-1126 2634 -748 0
332 -2845 -963 0
-1382 -2921 2349 0
-2991 -126 -2759 0
-2603 -923 2720 0
1487 1739 458 0
2833 2074 1170 0
2404 -1672 754 0
1998 1406 1284 0
2048 1093 1618 0
2635 2437 33 0
998 1000 2301 0
2066 -559 375 0
2291 2902 1502 0
1803 -192 -1477 0
2430 319 732 0
2697 433 175 0
-1084 -2833 -1239 0
2592 2120 -1519 0
-2179 1236 1366 0
703 -2047 -532 0
1688 449 -1776 0
-2764 -615 2521 0
-941 -2537 -2679 0
-2952 922 -1079 0
-1575 -563 715 0
-2485 320 469 0
-2287 -2285 2250 0
-2153 588 -1636 0
868 -71 -1619 0
610 1421 -2498 0
-859 -2326 -919 0
-1518 -217 2162 0
2603 -2674 1752 0
2657 -1455 1520 0
1140 906 982 0
1980 -1103 -460 0
1769 -2007 -2046 0
-430 -1321 -2904 0
-2537 -2273 2567 0
-2308 -2210 1157 0
1533 -2214 694 0
-2117 2200 569 0
2467 -1421 -2338 0
-2182 84 -2542 0
-2354 -2230 -544 0
909 1547 -102 0
2923 -1050 -1319 0
32 -1417 -848 0
152 224 534 0
278 796 -1007 0
684 -1527 1418 0
2829 2756 709 0
-987 -1006 2771 0
1416 817 -806 0
-1695 -520 -236 0
-1613 -1505 -518 0
-1828 1929 -2565 0
-599 -2537 -302 0
-2116 1130 990 0
2238 2626 -1529 0
1605 -626 -55 0
-60 2096 -1395 0
2944 1133 2293 0
1086 -725 2847 0
-767 2472 1662 0
2417 2588 -1455 0
-2107 2976 -516 0
2594 623 2805 0
72 -428 1064 0
-728 -825 2120 0
2004 742 848 0
667 757 1526 0
1811 78 -741 0
-2917 -745 -2303 0
2145 1233 -1646 0
-1888 -2809 2250 0
694 -2336 770 0
-2342 468 1686 0
2164 -2623 2397 0
1337 -1809 2222 0
2917 152 -927 0
470 1343 -2615 0
1138 1286 1106 0
-592 2976 -2907 0
-2111 -66 -842 0
-922 -312 1030 0
2516 2854 288 0
1346 705 -1935 0
-2266 71 2217 0
-316 723 -1019 0
-1231 2335 2993 0
552 2361 821 0
-1949 -1829 1957 0
286 1596 1821 0
-2186 -2370 -609 0
107 748 2787 0
-956 2700 -782 0
-1680 2883 1966 0
-2500 577 -1667 0
2864 -2555 2927 0
-1123 -303 1235 0
2936 -1513 2527 0
1235 1764 333 0
1982 1050 -1453 0
-1815 -1533 -2955 0
-669 1542 2464 0
-1927 -2470 1519 0
-2312 182 1926 0
-1733 1940 -827 0
2068 372 -2238 0
-84 -2241 -2633 0
-1118 1305 9 0
1479 2961 1982 0
-585 -2230 873 0
2696 2568 1879 0
-2908 -1354 855 0
-435 637 -550 0
-1184 1212 -2463 0
2168 1898 2484 0
1131 -2560 196 0
1971 -2288 223 0
-1802 947 1383 0
2643 734 -2649 0
-2533 -2149 226 0
-1978 908 -1353 0
-2992 1529 2476 0
-458 -1433 -1607 0
1182 -1332 -1188 0
-1850 2712 -659 0
2004 1454 336 0
2845 -554 -2637 0
1346 223 2420 0
-921 794 -2509 0
-787 -2862 2202 0
2962 2357 643 0
-556 -2440 -2379 0
-388 -758 -896 0
1966 -200 -14 0
1382 -132 1632 0
-2919 1095 2854 0
-1297 40 2398 0
834 -1214 870 0
-1854 2640 -610 0
2512 2208 1818 0
-2090 -2946 666 0
-1795 1329 2752 0
-2998 -2325 -612 0
1551 433 2570 0
2240 -1261 1790 0
2229 -1230 -600 0
-2949 794 2202 0
1823 1777 -531 0
-2639 -1348 -399 0
-2961 75 -433 0
112 2528 -2173 0
-848 553 1049 0
2054 989 2889 0
272 2675 -1613 0
1315 -33 -484 0
-1854 699 -2244 0
2318 1457 -1172 0
2220 2543 -237 0
401 2950 -2118 0
2048 -1555 -2805 0
-104 1110 -2267 0
1036 -2244 -362 0
-375 -2953 -1244 0
-5 -978 152 0
1287 1243 1637 0
-2055 1147 -1778 0
-1516 1119 -382 0
-1511 2839 2453 0
-1250 2863 2006 0
2867 482 -461 0
1095 -179 2400 0
2229 545 -2534 0
-2876 -247 2885 0
1469 -358 -2580 0
-1999 2464 2055 0
2485 -2349 114 0
784 2950 -1425 0
1226 1003 782 0
311 1817 1645 0
-1047 -1669 2860 0
-2918 584 1353 0
2534 -1864 -1705 0
-1486 -1551 -2214 0
1113 -893 -1289 0
2907 -22 -1619 0
-2470 -179 -2078 0
921 809 2170 0
465 -438 -2406 0
-1906 -764 420 0
-683 1224 563 0
370 2655 1019 0
-2478 1557 -1835 0
1778 -614 101 0
-514 2278 2552 0
-2658 920 2505 0
2515 -2872 1706 0
-2508 533 -1029 0
-1824 -2043 1581 0
-2875 -1310 -1732 0
2509 1865 -1996 0
-330 2923 1300 0
445 -2864 -1117 0
952 -568 -278 0
-1461 1361 2851 0
1201 -75 -770 0
2740 1755 28 0
2976 -1527 1043 0
-1858 -2095 2308 0
-2709 -2640 1948 0
-1388 -1427 2825 0
-788 2905 -2331 0
1612 578 -1065 0
-1188 1103 -1870 0
-2117 1797 -826 0
-1066 -1487 1526 0
2145 785 2099 0
-2162 926 -63 0
-1161 -2595 -1571 0
-428 -1582 2293 0
-2383 -1725 2372 0
-191 2249 1953 0
1311 -234 -938 0
-2648 -995 2707 0
587 -1202 -1382 0
-2384 1409 -2595 0
-680 517 -1716 0
-2443 -248 876 0
2898 -2013 2153 0
1750 2536 -232 0
2007 2472 -1983 0
386 -573 2072 0
2996 1890 2513 0
399 -601 -2804 0
2666 -394 1372 0
-1466 -1394 60 0
-2357 -2996 -2317 0
-69 -2291 -1144 0
-1637 -444 -1223 0
-610 -1966 -45 0
-2616 -2225 537 0
1455 876 936 0
-1828 -11 1088 0
2098 -2608 -2529 0
2253 1241 -1567 0
-2893 928 1321 0
2238 2249 -2483 0
-1078 94 -1881 0
1930 2929 2045 0
-2521 -2236 2280 0
1653 1991 1570 0
873 -423 2884 0
2594 -983 -467 0
589 2492 -999 0
2290 -711 2933 0
1617 -1778 -2639 0
-1266 -2515 -1423 0
-2680 -23 2377 0
2822 1542 1148 0
987 -777 -2465 0
-2086 1617 2008 0
-1304 -170 2219 0
-1806 -650 -2199 0
-2406 994 -2530 0
-2726 446 189 0
-84 1669 -929 0
-2722 -833 2830 0
2056 1083 -2126 0
157 -2861 1558 0
-402 180 -1604 0
-374 -1304 -838 0
2977 2626 2254 0
1615 -1742 2778 0
-455 2245 -542 0
1897 -2352 -2078 0
-1592 -2378 -765 0
2314 -1930 -2599 0
2617 -2822 -2671 0
859 759 -1624 0
1401 -983 -21 0
-1320 -626 -541 0
1815 -237 240 0
1874 1110 2675 0
2237 -24 -1563 0
1836 1162 2820 0
1196 -2616 -148 0
-2567 -2343 334 0
-201 -2009 -2046 0
-1723 703 335 0
-2923 -795 -1602 0
-2283 -2026 -13 0
2426 2655 -1070 0
-1986 2383 75 0
-2183 -1236 1134 0
1361 2120 1649 0
1423 293 -1747 0
1291 2357 -2046 0
1363 -968 -2225 0
-1797 -848 173 0
-1979 107 155 0
2285 871 -2701 0
334 1766 -2306 0
1861 1706 -1684 0
-1637 -185 -2281 0
-1125 -2855 -1240 0
-2676 1337 -2743 0
-2044 -1009 603 0
-1251 -2619 35 0
-1760 2559 2406 0
-848 1431 -2476 0
-2505 2840 103 0
316 -62 138 0
-2237 -2562 -645 0
-1566 -511 -717 0
-2424 1494 -1251 0
1269 2009 2847 0
315 286 1494 0
-2727 2570 -1029 0
-2222 -109 -322 0
1690 -1313 166 0
-1365 1051 -1102 0
-2431 -296 -1451 0
-1803 1901 -1600 0
-301 -2616 524 0
1318 -1979 1704 0
-866 1876 15 0
-2193 -1335 -564 0
-376 -7 -2656 0
2913 -2246 2221 0
834 1701 472 0
497 -998 -987 0
16 1518 -1970 0
466 689 -1674 0
149 1206 -1646 0
2017 2957 -1026 0
-1649 -1678 -46 0
2324 532 -1820 0
-2768 2820 -1226 0
1313 -1702 20 0
-949 -2735 -1109 0
-843 -1074 -1429 0
2037 1891 1530 0
-2334 -584 -692 0
2751 118 -904 0
685 359 689 0
781 -611 -2841 0
-410 618 2387 0
613 2929 -2163 0
453 -2137 2901 0
691 1519 -598 0
-142 -63 1123 0
2917 200 2145 0
638 -1528 418 0
-1347 -1349 1821 0
-2454 500 413 0
1920 -569 -687 0
2410 -2260 -1089 0
-2472 2869 2961 0
-2537 600 -2854 0
-804 1703 -1108 0
1541 2045 -9 0
1277 -1072 -1099 0
-647 -2695 1300 0
-2418 -380 2187 0
586 -1688 -1192 0
886 2004 1311 0
2578 1047 1118 0
686 -1791 2958 0
-1700 -2423 2108 0
287 1858 2594 0
807 2498 -2110 0
2421 2008 -866 0
-1027 -1533 1637 0
-1988 591 -1744 0
-2271 -250 140 0
2092 2280 593 0
-2481 -106 879 0
-1328 -837 463 0
-303 -2582 -1724 0
-2968 793 -957 0
2294 2906 1967 0
-1824 -1393 -2634 0
-2761 1968 206 0
-1604 -125 -1695 0
-1879 1424 -2644 0
-1857 -143 -48 0
-1126 609 -2463 0
-584 -2336 -888 0
-571 372 -572 0
2279 -636 -549 0
-2823 -317 2418 0
-1596 -1006 1650 0
1733 -619 1061 0
1488 -271 2738 0
33 1824 2749 0
2930 280 406 0
1337 411 -559 0
2824 -2735 617 0
-1964 -2219 1398 0
2502 -2299 -1033 0
-1180 2276 419 0
996 1783 289 0
-1018 -574 -1724 0
-816 2482 2503 0
-145 -84 -2186 0
2137 2266 1984 0
-2286 -226 -1513 0
1094 1236 -953 0
-354 1 808 0
1073 771 618 0
1255 -916 845 0
-1015 -2887 -1343 0
2435 -1505 -454 0
-1721 2363 -628 0
947 523 2296 0
-2518 -2744 355 0
619 -2944 -1002 0
-1992 2592 -2732 0
-1552 2226 1603 0
215 2192 629 0
-621 2632 2676 0
-212 2896 135 0
-1334 2505 -2099 0
2520 2282 1192 0
-2700 -40 -1398 0
-2173 2170 -2377 0
-1286 -2328 -2492 0
-187 -1021 624 0
452 -1843 -123 0
1196 -1447 1005 0
-2666 156 -2500 0
-2685 -7 556 0
-305 1571 405 0
1810 -2938 -18 0
-794 -2380 -735 0
-213 -2381 -685 0
1310 -1120 -2538 0
2604 1797 2790 0
2305 54 -845 0
-1636 -2433 313 0
-1020 1302 -1440 0
-309 1482 321 0
-442 -1277 -1376 0
339 -1658 -1324 0
2719 -1541 2376 0
-2491 -309 26 0
-1352 -1823 -1369 0
2020 2079 2333 0
388 -332 -2915 0
-1694 1868 207 0
2904 727 -2491 0
393 2991 -949 0
-1206 408 -270 0
654 645 1392 0
-496 1801 -804 0
-2677 -2868 1934 0
-2775 -2980 -1640 0
-2422 2417 133 0
1943 401 278 0
-854 -616 -62 0
1850 -2721 -1749 0
2635 -54 788 0
1608 -2505 612 0
-709 2630 -955 0
613 1101 -2956 0
1053 -1573 1770 0
2067 -2212 -459 0
2865 -1414 -1905 0
-1348 334 -452 0
-714 2763 -1518 0
-387 -1956 -599 0
2315 2588 -707 0
2729 1716 -177 0
-2794 -1016 -1513 0
257 703 -1730 0
2437 -693 -388 0
-2577 -545 -667 0
527 1968 -260 0
2829 -2181 1461 0
-1889 -2313 -2443 0
-1134 1823 1079 0
-2713 -954 -2301 0
-517 -2520 157 0
2177 2372 -2316 0
-2353 -210 610 0
962 -2801 237 0
-907 759 1457 0
195 -966 -2991 0
1698 -1243 1149 0
208 -1981 756 0
648 2063 -488 0
-788 2523 -2638 0
2959 -1701 671 0
811 105 509 0
809 423 998 0
2655 -465 557 0
1513 2843 -2661 0
-25 -236 2839 0
-1530 -646 -2653 0
1751 -839 -572 0
-2770 -561 99 0
-2490 -778 439 0
-1466 -470 -565 0
1474 1684 -1053 0
1992 -1179 2349 0
2957 468 -2813 0
1825 -2896 2294 0
1656 -1527 1464 0
-1762 2142 -842 0
978 2161 2276 0
535 1003 2932 0
-2513 1158 791 0
1641 746 2591 0
681 -2790 -254 0
361 2204 791 0
-2248 -71 -1813 0
-1110 -1895 -2488 0
-2278 -2092 719 0
2544 1490 -2895 0
1605 -1183 528 0
-1071 1237 -1225 0
-18 1661 -1629 0
-747 1132 -2522 0
1876 -2252 1704 0
2 -139 1911 0
-981 1556 1561 0
-81 697 -203 0
2415 -550 1531 0
1193 -1103 890 0
-2321 984 -2917 0
2010 2582 -1313 0
-2740 1915 -876 0
-1145 -17 -95 0
-1704 722 2396 0
-1539 1251 -849 0
537 -528 -2635 0
801 -969 -1605 0
1260 1084 2223 0
2933 1633 885 0
839 -467 -879 0
-2139 349 -2494 0
-1048 -835 -1885 0
-1375 -2430 -1990 0
2718 -1349 -949 0
-587 1893 682 0
145 1572 -2131 0
2387 2760 2010 0
-87 -941 -1643 0
319 -672 -2911 0
865 -594 680 0
-793 114 -1590 0
-1210 113 -553 0
-649 2587 -378 0
455 -369 -774 0
451 -457 2511 0
-1881 -130 359 0
-410 712 1133 0
1180 628 -2539 0
-1726 -969 1732 0
-2124 -2508 -2890 0
575 1557 2718 0
2623 774 -2160 0
258 1841 2589 0
-2433 1138 2725 0
357 -2760 -1793 0
2167 2513 -851 0
-2577 -2223 1626 0
-335 -2233 -2198 0
-867 67 -2968 0
-2020 1961 1279 0
866 -2914 1665 0
542 1172 -1333 0
2125 2521 -1765 0
1280 -2422 1640 0
-1497 -1704 622 0
-618 916 476 0
-1115 2554 98 0
-2387 -807 -2208 0
2154 -1517 -1011 0
-452 1501 1038 0
1632 574 -2587 0
2208 -160 -2542 0
-2017 -1969 1864 0
-2657 -1788 -2260 0
127 382 -2413 0
-2226 422 314 0
1653 2637 -1934 0
1380 1251 1774 0
1381 -1025 -608 0
133 2267 1855 0
1718 1721 1306 0
-571 -2251 1148 0
-564 1259 -2486 0
933 -2423 -330 0
-2368 1988 -1820 0
-2096 2528 2917 0
2119 934 -1125 0
97 -1151 1431 0
1400 2039 955 0
-2849 -1330 -2670 0
1067 -1688 1680 0
1015 1578 2657 0
124 746 475 0
-1453 794 908 0
2113 1523 225 0
2165 -1475 423 0
2878 -2956 -2619 0
2510 1035 -571 0
429 2901 36 0
1679 767 2112 0
751 -1486 2325 0
252 -2110 -1718 0
-1517 2126 2037 0
-1335 1081 1277 0
1051 -2594 1987 0
2012 -597 -806 0
1349 1638 -1745 0
-1889 1037 946 0
-581 -1852 -2187 0
-189 -47 -940 0
-2376 -39 2261 0
244 -1538 -2207 0
-819 2694 996 0
1244 -1313 -646 0
-2926 -686 95 0
311 2520 -2775 0
-788 -2229 2536 0
-108 2870 -499 0
2776 2899 -735 0
-2453 -1101 813 0
-1593 -558 -1805 0
-2180 1975 -1477 0
-1521 -1647 -1712 0
-948 -189 1243 0
-1935 147 -2205 0
-2756 -319 1334 0
1157 -1983 558 0
-2313 -1597 2548 0
2272 -1023 418 0
-502 -1376 -500 0
1111 -1092 265 0
-2956 2147 -1633 0
154 1597 -1450 0
-2317 -2275 -348 0
2730 -2570 1532 0
-1392 2902 -68 0
-1529 2016 1991 0
2496 -1 2150 0
2741 1995 2483 0
-217 1812 -2012 0
1751 -1666 -2022 0
-2788 -1684 179 0
136 689 -337 0
-2720 753 996 0
1134 2331 783 0
-2010 2717 815 0
-2094 -244 995 0
-139 860 -467 0
-2196 1503 287 0
1299 -769 -1754 0
2730 1857 -2696 0
-1186 -2219 -1792 0
2791 -2102 -2188 0
-2651 577 2610 0
2204 1305 2006 0
553 -673 899 0
628 191 -2866 0
2303 -2133 -1530 0
-2897 1244 2130 0
-1129 1691 1737 0
-915 1549 2630 0
1142 -509 267 0
1492 -2650 350 0
2603 2910 -1374 0
1540 2560 -649 0
-710 601 -1699 0
-1614 -2114 -285 0
-1674 -106 857 0
-2400 -1819 -1306 0
2370 -1489 1625 0
-1549 2512 -1866 0
2131 -1385 1889 0
-2878 -1804 -1258 0
-1537 -2151 336 0
-1783 -2676 -409 0
-2224 1966 -269 0
-1736 235 -1509 0
-2845 308 -1411 0
-1097 16 2012 0
1604 -2900 759 0
1587 -1628 -1046 0
-775 -403 -585 0
1997 -6 -707 0
2773 -2425 1641 0
-1910 2560 1474 0
2807 -863 2309 0
873 2364 -13 0
2125 2491 -781 0
1845 -952 -1549 0
-661 -89 -356 0
-1904 -2389 -1824 0
1348 2732 -25 0
1765 2353 -1380 0
612 -1965 765 0
2357 747 2099 0
1358 -2534 2389 0
1389 831 -2103 0
1137 -1882 2177 0
-2341 -1672 -291 0
2040 -2844 2198 0
-638 -50 -2512 0
-980 1221 -2807 0
-105 -2182 2047 0
-2980 2130 1099 0
605 265 -589 0
-1015 -931 -2961 0
2351 927 1955 0
-2678 -13 -2590 0
-413 2649 -2651 0
-1156 1080 1791 0
2522 871 2365 0
410 -224 1122 0
-1552 -1751 110 0
2284 -2508 -1480 0
-34 -1648 -2611 0
-1406 -2134 -1282 0
-1219 -1837 2710 0
192 -715 2161 0
1195 1576 -32 0
-429 -532 -687 0
-2736 -2588 2882 0
1203 2460 -2947 0
-687 631 1095 0
1288 -1070 277 0
-937 940 -37 0
-489 -1780 1449 0
-999 560 -1170 0
2004 2444 1889 0
-2538 -520 -439 0
180 -2834 -2463 0
1431 -2460 1788 0
2722 -1232 58 0
978 -1929 1580 0
513 1203 2028 0
1530 2736 1481 0
66 1439 -2911 0
2017 237 -2634 0
635 -1321 -1737 0
2407 -1386 2101 0
-1350 1281 1066 0
2081 -308 -575 0
63 362 -1041 0
1894 2081 -2019 0
-788 116 -1661 0
-2437 -2799 -1686 0
-2392 2853 -1220 0
-2819 -1955 1059 0
1707 -2022 2330 0
2458 -29 1637 0
2378 350 1873 0
-2610 -1201 2058 0
-2417 2942 2271 0
-589 676 -1906 0
2305 2668 2027 0
-1430 -993 989 0
-1633 -517 134 0
-1429 -126 1123 0
-2676 -1643 2370 0
-2652 -2968 -1986 0
-2549 85 308 0
796 30 -1313 0
1277 -1172 -1888 0
1983 -1129 2487 0
364 912 -152 0
2790 1072 206 0
-2441 -1945 -1504 0
1372 85 2111 0
-2859 2831 -2694 0
-1090 -892 -2893 0
2872 305 2662 0
1818 985 -1015 0
-2286 325 -626 0
1982 478 2676 0
670 731 36 0
1174 -1119 -1286 0
-1200 103 468 0
-626 1247 -25 0
-2282 -2488 1105 0
-1259 -471 -1075 0
-665 2214 924 0
-2584 1844 -2200 0
2547 2942 1084 0
-1270 -398 -2707 0
1439 -2171 -129 0
-633 2798 2433 0
-624 -1593 1698 0
448 -1982 -1761 0
-1511 -2789 2476 0
2155 -2363 1209 0
-508 2061 -1269 0
-1787 -755 -810 0
2225 47 2374 0
1343 989 22 0
783 1135 1355 0
1642 765 -2952 0
-1117 2245 -369 0
-2782 -1029 -953 0
-2629 -2547 -1647 0
-1157 -1849 -1894 0
1070 378 1041 0
1961 2895 2862 0
2553 2672 1858 0
718 -578 1848 0
-258 1817 1230 0
2306 784 -1506 0
-734 1664 834 0
-312 -83 -852 0
-2288 181 -2287 0
1616 -1921 -1248 0
-364 1016 -1683 0
-2465 -900 2582 0
-778 -2303 595 0
327 2069 -1702 0
853 2009 981 0
1391 1538 2958 0
1763 -2630 -1559 0
-671 2295 542 0
-157 1790 -1971 0
1119 1558 -677 0
-1242 1985 2980 0
2654 -2964 2268 0
1418 -2423 -1024 0
1982 -1887 2175 0
-2948 694 2077 0
2978 -354 -564 0
2101 -412 477 0
-2506 -2067 -2032 0
1188 -2755 2034 0
2956 1631 1250 0
2908 1697 -1725 0
744 2297 679 0
-1022 635 269 0
1729 2463 2031 0
1419 -1383 2648 0
-433 1513 176 0
2860 -1319 2826 0
-118 -1667 248 0
-2669 -356 -2291 0
-13 -944 2119 0
-891 -939 -1134 0
-2123 576 -716 0
1475 -2783 1610 0
739 -2281 439 0
-2829 2545 -1920 0
105 -1408 -1434 0
1130 -2498 -1850 0
-96 112 597 0
-1576 2520 -882 0
1462 -697 505 0
852 -352 -473 0
975 -1324 568 0
773 2503 1943 0
2788 2197 2655 0
1432 -2430 2232 0
-667 -745 2664 0
-1665 -1709 1729 0
1644 -2928 663 0
445 1154 1571 0
173 -2708 -1201 0
-2224 -24 955 0
478 149 2798 0
-501 -2729 2589 0
-1323 1134 1814 0
-2712 -20 2753 0
-826 2723 1613 0
-200 -227 284 0
1595 -2080 2824 0
1855 -2018 1955 0
798 -1411 2989 0
-1304 -788 2972 0
-578 2559 1907 0
2800 -86 -2564 0
-842 -334 -661 0
906 -2751 -134 0
-1945 244 366 0
-1190 -576 -2028 0
-2368 1089 -118 0
2958 -2923 1440 0
573 2564 -1933 0
2331 268 -2015 0
-1445 -614 2186 0
-2557 151 -2414 0
-75 -1202 180 0
-2206 -1997 2220 0
477 2805 708 0
-475 416 -270 0
-992 -2954 1687 0
1816 1493 1593 0
2380 1072 -752 0
-547 673 -249 0
1868 -356 154 0
1150 -2604 1171 0
2571 1944 1652 0
-426 -1203 2521 0
-1833 -2953 -1507 0
-2182 -2101 -2989 0
1407 2834 -2582 0
-2276 -1315 1652 0
-97 -2148 -897 0
-1537 -2470 2405 0
-101 -1698 -324 0
-337 -1922 -287 0
-27 -2622 -2981 0
2453 -880 -1129 0
552 2816 -2015 0
30 123 1793 0
-2096 744 -1561 0
-1275 904 -196 0
1405 2586 -1132 0
2303 -42 208 0
-2613 -1287 -2524 0
754 63 -269 0
-2754 -2240 -1934 0
-2170 405 -2321 0
-886 254 2082 0
-2078 -1266 758 0
366 1210 -2617 0
775 -2593 2179 0
2676 -601 1273 0
-1142 -2036 2143 0
-2143 40 -1550 0
-2012 -562 -1923 0
1512 -2908 -1484 0
-1984 1039 -2378 0
-1851 348 -2851 0
-2206 813 -1096 0
-2776 -2901 -1439 0
-2757 -502 2071 0
-1458 432 -2269 0
1310 2341 74 0
190 -1355 1924 0
1740 2637 634 0
824 -1728 -2787 0
2586 -87 -2446 0
-1569 2859 -1143 0
1514 -2754 -2357 0
-2367 -320 1801 0
-730 -123 2985 0
-513 401 2250 0
1255 -393 1185 0
-1567 1371 -2872 0
-2879 2154 -2574 0
249 2839 -190 0
-321 -2470 2118 0
-2044 708 955 0
-312 -1495 -2866 0
-686 -1201 -1916 0
2089 1231 748 0
-2555 2238 -1207 0
2985 2722 2770 0
1104 1317 493 0
2939 2094 -2804 0
1864 661 -7 0
832 2159 158 0
1076 824 -774 0
2967 1349 801 0
-1200 -1244 1290 0
-2368 742 -1910 0
-2287 2740 1292 0
1080 -2547 -912 0
1247 -1479 1466 0
-293 -1082 -1278 0
391 826 -243 0
-1931 2034 -2699 0
-1968 565 -2505 0
244 2708 2471 0
-162 -1180 -2376 0
2151 1474 229 0
-2813 -2537 -2509 0
749 2542 -196 0
916 2141 494 0
2227 -2962 -1540 0
-1363 2583 476 0
2533 2467 -2909 0
537 416 -2072 0
2624 -1383 2605 0
-2095 2750 -2215 0
-2386 -2784 2390 0
-1545 -2911 2815 0
-885 -1311 2354 0
-1582 1615 2098 0
2123 -2589 480 0
-526 2121 -509 0
230 -1025 767 0
-1724 351 -2412 0
-882 2184 -1158 0
-2148 -1108 164 0
-1503 733 1514 0
2420 -2881 -1 0
2131 2111 2935 0
-2046 2408 -821 0
-968 -1515 -1635 0
1148 -1849 197 0
-912 -239 2641 0
692 -2667 1856 0
-1421 -273 -370 0
-2990 558 -2948 0
-2030 -1008 -2765 0
465 1349 2439 0
-2077 -1413 -2526 0
266 -1230 1316 0
130 2739 -240 0
1639 -1427 862 0
1130 -1380 -1925 0
-2259 2247 2834 0
-252 1165 8 0
-78 -1277 1749 0
1000 782 -1638 0
-2658 -484 -1920 0
2969 -250 506 0
1736 -1180 2291 0
-2033 -23 2690 0
1471 -839 -1463 0
-1378 -471 -27 0
1468 1949 -922 0
-523 1240 1463 0
189 2221 2718 0
1326 -2971 -841 0
-789 -2588 1722 0
3000 1332 -1891 0
-2211 2945 1390 0
-430 -143 -2006 0
1370 1004 107 0
-2078 -1582 1547 0
-1652 -2259 1961 0
-1764 -2763 -2542 0
2113 2960 323 0
57 -1755 -415 0
-440 -2888 1738 0
489 -2378 -167 0
1116 -2742 -1993 0
-229 2483 -862 0
-816 -2769 491 0
916 1202 -2333 0
188 -1737 1671 0
1519 -2392 917 0
-2525 -2903 381 0
-1617 -1608 -544 0
-2671 1510 -485 0
-1771 1587 2618 0
2455 705 2995 0
-2991 2224 1966 0
2175 2717 1464 0
-149 2746 267 0
1881 565 -214 0
-2526 588 2659 0
1562 2669 -2848 0
1489 -2696 2394 0
1631 -1683 -1238 0
2945 2013 1177 0
2186 -2547 170 0
-2709 2113 2207 0
1749 -2053 371 0
-1077 1265 -1536 0
-8 -2016 2255 0
-200 -1837 231 0
-1674 351 1495 0
-1625 1528 -500 0
1644 -1112 -2992 0
119 1943 191 0
-202 162 1101 0
1549 -1638 1897 0
-2564 -871 -480 0
1142 2727 1253 0
-1900 -1713 1975 0
-861 359 -2746 0
-168 338 485 0
512 -355 866 0
-446 -1806 -1224 0
-2025 2700 673 0
-990 1392 -2269 0
-1080 915 2467 0
2610 -322 2609 0
-482 2413 1619 0
2310 -2606 2271 0
1083 2615 -1596 0
1664 1574 2317 0
1203 -348 -2268 0
2587 -1495 -2420 0
730 -1491 1698 0
-248 -2218 -121 0
984 1759 338 0
729 -257 2339 0
811 -36 -1586 0
2767 -2005 -1728 0
722 -992 -1899 0
553 830 -634 0
-2378 2361 912 0
213 -2932 -178 0
833 2262 329 0
1697 2433 591 0
1907 -2207 852 0
-2601 741 -325 0
-695 -736 597 0
1388 -930 403 0
-1253 2804 1821 0
1316 1852 2767 0
1358 -2626 2083 0
2245 248 1780 0
-1622 -1923 -2773 0
2567 -2676 -2569 0
-928 2864 354 0
1607 -1737 -1768 0
2127 272 2114 0
-1854 -622 382 0
-2429 2856 -1627 0
-2076 662 834 0
1451 -1627 -1291 0
-1310 1872 2265 0
-657 -1334 2500 0
-567 900 -1010 0
-216 -2430 -2700 0
2304 -1862 -1801 0
-2832 -397 -15 0
-1225 542 -330 0
553 1701 -2847 0
1708 -1781 -1609 0
-435 -233 -1085 0
1696 -2324 1555 0
1866 90 -422 0
-1851 -893 2882 0
2706 2923 -1738 0
1549 164 -2915 0
-77 1434 301 0
2195 -1835 -2529 0
1497 1264 -2849 0
2715 201 -2358 0
-2877 42 -2841 0
537 -2950 -1024 0
-681 -1047 1468 0
140 62 1114 0
214 2754 -407 0
1012 -2309 -2574 0
2046 1082 222 0
-1527 -1492 -1990 0
940 -2757 2482 0
2410 -1271 -325 0
-2418 1617 -1693 0
406 2695 -2956 0
-2786 1115 -851 0
2706 -739 47 0
2761 815 -2378 0
-515 2184 1734 0
-2974 2821 -1633 0
488 -502 -912 0
-1983 -2220 -2658 0
1676 -455 507 0
-639 565 -2008 0
-2486 -1678 -2878 0
1785 212 1323 0
-2711 1135 2320 0
-2685 2315 -1162 0
-182 213 -2006 0
-781 -1885 112 0
1338 -985 468 0
2962 490 -1087 0
-1331 2124 -391 0
-409 -1698 -1847 0
2415 -1487 800 0
2251 -754 1758 0
-868 -1046 1329 0
-1780 90 -998 0
2107 2147 2933 0
1388 1449 42 0
-303 554 1825 0
2137 -2142 -1687 0
-24 -399 -1259 0
-970 2102 2135 0
2867 -812 2551 0
967 -2093 -919 0
1551 1804 1686 0
2161 -93 -540 0
-1497 2476 -2342 0
784 -742 2907 0
1360 702 -571 0
-1437 2994 2803 0
-1474 637 -1764 0
1398 2111 -1837 0
2989 -2731 -1026 0
-1260 137 692 0
-2430 -1046 1047 0
2499 -286 -1314 0
-682 -2913 958 0
1896 1381 543 0
1871 -256 -1574 0
-3000 448 1925 0
927 -2509 -2601 0
-1920 -1072 -190 0
-1144 -754 207 0
792 -324 -2973 0
1281 -2780 -888 0
-2117 -2521 833 0
2764 -2072 1564 0
-1095 -1850 1621 0
-2561 1345 642 0
101 1280 -1672 0
1284 2320 -1898 0
-1346 -427 983 0
-1699 -2168 1870 0
2151 840 -1667 0
-195 -1691 310 0
2042 -26 2496 0
-275 -987 976 0
2752 2565 -596 0
2959 -1648 2059 0
-20 -740 -830 0
-2493 1997 432 0
595 -2571 -1145 0
2053 2343 -2758 0
864 -2266 -2605 0
-2647 129 -2032 0
520 2779 843 0
2227 1371 1546 0
1616 -2156 -500 0
-1112 -2087 10 0
1582 802 -1134 0
948 -1616 1635 0
-990 -766 -2327 0
2384 -627 -909 0
2610 -1002 1874 0
-1822 2485 -1943 0
-349 -1489 1309 0
1942 -2249 -353 0
1567 -2006 -1914 0
-358 1275 629 0
-1805 -2379 1494 0
-1241 921 1998 0
-1467 1689 263 0
-2445 2984 -533 0
-1073 1935 -2460 0
73 -2965 2665 0
-2462 1773 1271 0
-1877 764 -2205 0
759 747 -2641 0
-1701 -890 2565 0
-679 1835 -2862 0
1010 2486 1388 0
-2247 1898 959 0
-2301 1840 -1426 0
131 665 -1686 0
-288 -2431 1071 0
-2417 114 50 0
1190 2322 1594 0
1805 2101 -2927 0
-2234 1675 2671 0
607 -2928 -2813 0
2552 92 -124 0
1348 -897 -2497 0
-420 -493 -94 0
1564 -353 -2652 0
1205 1427 -1478 0
922 -2847 1125 0
-1286 -2200 2052 0
-2500 1654 958 0
745 -788 -1750 0
-749 -2500 -2953 0
2959 -2279 -1576 0
1222 -2398 1484 0
2051 -2825 2472 0
-592 1540 1450 0
-479 2068 -2617 0
-2100 2114 -2586 0
-841 -1416 -647 0
2444 1680 -1827 0
2270 -158 384 0
-806 2477 -2253 0
820 2080 1584 0
1223 2354 23 0
53 713 226 0
541 -5 -1265 0
-1310 1196 544 0
-1034 930 -2834 0
1566 266 -1107 0
2932 1799 -1623 0
-2932 -964 -2117 0
-79 2062 2976 0
168 -347 -114 0
-614 1324 1365 0
502 -2878 912 0
-2502 -478 935 0
-2123 -455 -1309 0
-567 -616 -2436 0
178 -1825 -1996 0
-1106 2432 1616 0
475 2342 526 0
2630 1559 -2105 0
2862 -32 -1224 0
1671 2608 721 0
2520 -178 -1766 0
-1306 -2910 1603 0
1858 -97 -370 0
2586 2166 1334 0
-2767 2870 -18 0
-1684 -2730 -955 0
278 920 -60 0
-2360 -428 -2279 0
-2138 -710 -1076 0
-2274 80 -2168 0
-2524 2895 -1141 0
1020 -2497 1456 0
2713 2375 -1464 0
760 578 -1503 0
356 -448 354 0
754 2410 2846 0
2820 -2119 -200 0
2014 978 -846 0
-2657 588 547 0
1462 -1764 -852 0
2623 -2327 -775 0
-2914 2040 -1605 0
1401 228 2197 0
1513 1286 963 0
-1969 -2723 2818 0
1644 -1873 1547 0
1582 -1760 -1400 0
-542 1980 2886 0
-1129 2655 1131 0
-2192 -1005 2642 0
889 -1473 890 0
1795 -1557 -423 0
968 935 1441 0
2167 -385 1634 0
-2645 -715 -1595 0
-2386 1125 2053 0
1680 -1644 1366 0
944 -2679 1400 0
-2182 1137 1659 0
1200 -30 2201 0
1559 -575 2886 0
233 -1298 -1826 0
-2900 -2412 2224 0
2504 805 -2359 0
943 818 -1149 0
-1975 1612 -463 0
-1798 1567 869 0
1201 -890 1228 0
106 1769 2957 0
-2720 -11 -88 0
-617 2149 1825 0
-2891 714 2553 0
2949 -2987 -2340 0
1885 815 -1345 0
-1207 1834 1330 0
-402 -2608 976 0
-753 -2771 -2121 0
2427 -2357 -899 0
1894 -454 -1433 0
-1927 819 -13 0
-1555 -2415 -109 0
-2178 106 -2300 0
1041 205 153 0
-225 2865 -2536 0
1734 2934 -2167 0
1955 -2304 1233 0
-1544 -264 -508 0
-383 -2395 -2368 0
-176 1456 418 0
369 1816 -1265 0
-1813 -1107 806 0
2113 -1250 69 0
2694 1309 -1189 0
570 -2861 -2216 0
-429 827 874 0
1967 1528 1238 0
-548 1396 1702 0
-1766 -1959 -352 0
-2957 -668 -507 0
1718 -137 2637 0
283 -2639 111 0
127 -1141 2474 0
-169 95 -674 0
-733 1331 -2066 0
-478 -764 -1339 0
-1858 -771 1302 0
-2175 2279 2513 0
-2453 -2569 -1188 0
758 2057 -28 0
-338 466 -63 0
-1954 2777 -1068 0
-1836 -168 -2238 0
2636 614 -2189 0
-1096 -1033 -1974 0
-1212 -2880 548 0
-2757 1727 -2987 0
482 -848 1358 0
-535 -1074 2665 0
1395 -1169 -190 0
1906 1462 -2577 0
-2080 -614 -426 0
-1972 368 2596 0
2631 477 -1102 0
-559 2845 -1003 0
1538 1861 2766 0
-521 1694 1907 0
857 -809 1481 0
1623 1186 2711 0
-1010 -2389 -2480 0
2287 -979 2048 0
760 2477 2535 0
-2033 128 -1616 0
-869 -1346 277 0
1449 202 -2715 0
39 -595 -1273 0
563 -904 -498 0
674 2200 -1015 0
1447 37 2588 0
2465 1320 -522 0
990 -1039 -1463 0
1967 -1386 136 0
-248 -2568 -1477 0
-744 -167 2026 0
-2093 -804 -2899 0
1456 133 -1475 0
-463 -1474 -2339 0
-436 366 382 0
-1121 2531 -2834 0
502 2246 1253 0
1736 1423 -2977 0
1363 -1650 -2910 0
695 -1537 641 0
-1662 -1376 1682 0
1772 -655 -29 0
-712 -2295 2109 0
2731 1570 -646 0
2621 1030 -2528 0
-698 1396 -2687 0
-563 -2566 -2870 0
1509 -2183 -1287 0
-1330 1186 -364 0
2890 -489 -2757 0
571 -253 287 0
2650 1138 1004 0
-912 582 845 0
1390 -522 68 0
-2949 -49 -906 0
2139 -2708 -2848 0
-2513 -230 860 0
1034 2853 2458 0
-1382 2423 1837 0
-2854 1845 2237 0
457 -548 -2154 0
843 -2225 -1587 0
-1896 -2605 -1188 0
2043 -483 731 0
48 -245 -2293 0
1300 1163 -1910 0
-2381 1718 -1310 0
68 -131 -643 0
1943 -78 1855 0
1436 1228 -581 0
-2632 103 -1570 0
664 1283 165 0
74 -520 1235 0
1153 -2821 -304 0
2738 2002 948 0
1448 2638 -2089 0
2899 1231 -1405 0
-2328 -2081 579 0
-2718 -2256 2733 0
-243 -1388 2324 0
-137 -1552 -86 0
2620 1069 -381 0
-1813 -766 -431 0
-2005 1870 2293 0
-1473 444 2848 0
401 2276 -1490 0
1953 527 -6 0
821 2119 44 0
301 -1596 -86 0
-1658 1713 415 0
-170 2506 2779 0
58 -1079 -2216 0
-673 2648 2487 0
-2792 -2564 -2688 0
-1683 -2513 -1208 0
2547 2773 2179 0
2549 2319 -1049 0
-175 2209 -2877 0
2179 -2988 -986 0
875 2570 1663 0
-639 -2481 244 0
-2936 -1214 -2433 0
-1457 -479 -747 0
-2940 -1115 -2519 0
-788 -1833 -1493 0
-1159 2414 -1758 0
-2080 -1423 1871 0
-2670 593 1260 0
-3000 -485 -131 0
-2191 -2909 -2154 0
-1331 968 -218 0
1243 -1128 383 0
1415 -1023 -753 0
-2059 1143 1011 0
1678 2252 2917 0
-2147 1694 1373 0
249 1797 -535 0
1787 -1082 196 0
-252 -1710 -1988 0
1598 -348 2431 0
2484 1173 -2308 0
-2027 -1969 -2037 0
21 -208 -1909 0
-2563 -1395 2486 0
-1789 -1643 -875 0
-974 2200 2978 0
-2125 -448 -2028 0
-1462 1845 2234 0
1699 -2733 -2748 0
661 -2845 1362 0
585 -2058 1261 0
-32 2749 -2003 0
-1825 2459 1731 0
1146 2079 -762 0
-1842 -2107 -1039 0
-2965 473 -2176 0
2803 2120 -88 0
-1800 -2467 591 0
845 -75 2720 0
-2138 1991 -113 0
1629 -699 -2848 0
-2588 1397 -2444 0
-1007 2324 235 0
2423 1932 -2934 0
281 -1525 2294 0
-2592 2318 2441 0
-2806 624 -651 0
2345 1549 -1144 0
2304 1861 -1792 0
724 -1950 2940 0
989 434 1822 0
407 -613 -354 0
924 1850 334 0
-160 -556 -1941 0
-2514 478 2297 0
924 -2271 -1009 0
1110 -707 1316 0
-1452 2489 -2165 0
-1485 778 202 0
2338 -2758 -1697 0
-532 1652 2619 0
2065 -867 1265 0
-2226 -2229 -2927 0
-623 1049 -2619 0
2029 326 781 0
365 -555 -2600 0
-354 2215 -534 0
2559 2620 661 0
668 -2326 -2367 0
-2418 -1384 1758 0
-574 109 -2819 0
-992 1701 -2447 0
-1931 -2745 2577 0
72 607 -2363 0
-1222 2906 -2124 0
202 -1404 -2587 0
-853 1107 -1603 0
-1595 2147 2470 0
1114 2401 455 0
-2122 -1609 895 0
2141 -2953 2547 0
382 477 279 0
875 854 1860 0
2386 -412 2571 0
-2109 2094 -380 0
-1180 -674 -2079 0
-842 2435 -181 0
2198 337 -1788 0
-1279 -808 1590 0
-2645 -958 6 0
418 693 -807 0
-1127 540 699 0
-2904 -2644 2546 0
-1025 384 -1742 0
-1072 -800 2589 0
-137 -25 -942 0
2122 682 1039 0
-2073 1276 489 0
-1061 1208 2950 0
2597 1516 -1012 0
1689 -1007 1494 0
2482 -682 578 0
940 -1428 -276 0
-309 2441 -2338 0
2837 -2244 1377 0
2829 1276 -3 0
-745 -1631 -1288 0
1659 -2120 2678 0
-727 2330 -701 0
-302 -2924 2461 0
-1758 150 1505 0
-2491 -649 2225 0
1992 2247 -161 0
-268 -2117 1275 0
808 936 1051 0
505 -1434 1411 0
-2347 -2881 775 0
-1796 2514 211 0
357 1559 1631 0
2174 -318 -2969 0
-1167 518 -430 0
-1251 2604 1243 0
848 -275 -1650 0
1894 -981 -1612 0
-2708 935 2800 0
1475 818 -1132 0
-2612 -2287 700 0
2288 -1663 -1636 0
-1650 854 -739 0
-483 -1368 -77 0
-198 -2008 2333 0
-1201 2687 2404 0
2952 1656 614 0
2708 1875 2687 0
2958 -329 773 0
911 -637 -2950 0
-459 -1907 -536 0
-2484 2959 2309 0
-2875 -878 -2666 0
-417 -982 -2846 0
1945 1679 -1401 0
-710 -1600 10 0
-1 550 2812 0
-1006 1428 2991 0
2154 1235 -566 0
1114 -2987 -1048 0
1438 2561 -2005 0
-2470 -2029 823 0
2689 113 1545 0
-448 -2659 -1530 0
-1857 2347 2353 0
-2274 -2646 1656 0
-1121 777 499 0
1265 2283 1504 0
1418 -898 958 0
-1627 -34 -2096 0
-1649 -1861 -2389 0
2335 2257 180 0
-1516 1304 1970 0
-774 -2820 2619 0
337 -428 -1372 0
-746 1086 -1734 0
-2931 243 721 0
-1130 -930 271 0
-1516 -2126 -1049 0
-2245 1200 -2630 0
-1881 -421 -975 0
-533 -1726 -2900 0
-2434 1002 -527 0
-1881 -2333 -1073 0
-2485 -2453 1450 0
-717 696 1107 0
2869 2686 -327 0
1826 507 1589 0
1116 -330 -151 0
1259 243 1357 0
2522 -2303 -2953 0
957 -84 873 0
2424 455 -166 0
2995 2059 2933 0
-1052 2556 558 0
2377 1689 300 0
1013 -810 826 0
-427 -1032 -350 0
-19 1063 2187 0
-1400 903 2702 0
-2002 -863 -758 0
1722 679 2565 0
2221 -24 838 0
-800 812 43 0
-717 -2140 -1268 0
-859 2997 -2160 0
-1523 1308 1296 0
878 -413 -2978 0
-861 -2820 428 0
-126 -122 -386 0
-1085 -902 2548 0
-2090 -1265 1028 0
-2210 -2225 -1060 0
-1025 -461 267 0
203 541 974 0
1755 -1330 2659 0
-280 1436 732 0
179 832 953 0
-687 -1857 -1333 0
2689 -2841 628 0
-1917 1573 -2397 0
-307 -2047 317 0
1098 -850 -308 0
-891 -2349 -352 0
-1030 -2820 1422 0
137 -2062 2226 0
-543 -448 1003 0
316 279 1062 0
1694 -2295 2613 0
1898 714 1063 0
1090 2877 -229 0
14 854 -963 0
251 -408 1719 0
768 2872 -553 0
-1103 1404 -953 0
-2181 2826 2644 0
328 995 -901 0
1309 298 -778 0
649 810 294 0
-2636 -2109 -1909 0
2098 2484 568 0
-1448 1757 -1689 0
-312 -2229 2307 0
-891 -1778 -558 0
-2364 -379 593 0
-1517 -1718 2717 0
-2481 2881 -875 0
650 -1437 -1847 0
1516 -2166 2586 0
-328 -2681 2750 0
883 -2687 -70 0
2273 -2032 -1057 0
2929 -819 -1848 0
-837 -162 -2275 0
-2105 -1607 -764 0
2315 2557 933 0
920 -2540 -725 0
-506 -2392 478 0
-2368 -666 -153 0
749 -1408 -2306 0
-464 -2705 -369 0
192 -2839 137 0
2677 329 2897 0
499 1585 -2131 0
-2012 1383 -1840 0
2777 1224 2623 0
2896 -2143 -329 0
-910 977 2316 0
-1399 1996 -1980 0
-295 2893 2590 0
-2928 2322 2602 0
-1830 1853 2310 0
-2444 -2919 -1956 0
1766 2826 -1661 0
-2272 837 -1543 0
167 678 2132 0
2800 -2639 -1399 0
355 93 -2309 0
-1603 934 2764 0
-1331 1565 689 0
-596 2945 -82 0
-2145 1912 -1009 0
638 -2219 2401 0
-46 -1255 1649 0
-1100 1640 -828 0
-340 -145 154 0
-2797 -1093 2826 0
1357 1884 -2618 0
-1204 -2983 1389 0
-2116 2355 -2017 0
1112 1444 -1849 0
2753 172 1383 0
1327 -2410 -1757 0
1549 525 1050 0
-1081 -840 -2962 0
816 2480 1236 0
-2834 -1784 892 0
-849 235 1155 0
-762 2853 -1686 0
1228 1636 -903 0
403 -1101 -213 0
-700 1013 -650 0
-181 -1653 585 0
-2484 -1172 492 0
2656 188 2604 0
-2257 2351 850 0
1336 1418 -1035 0
-379 -207 -185 0
-495 -2819 -871 0
-2023 -2821 754 0
-1765 1852 2378 0
2257 -1203 -2055 0
-2105 311 1329 0
-1853 -1458 -198 0
1465 -1053 2934 0
623 731 -1081 0
31 621 -996 0
-1619 784 -2960 0
-633 -1651 1588 0
792 1614 942 0
2581 321 1284 0
-1057 1524 -279 0
-359 -243 2115 0
-633 -2780 2377 0
-1780 1113 2928 0
-2955 2853 -1606 0
-576 -1826 -464 0
775 -2834 2350 0
2655 -1599 -852 0
2046 380 -976 0
-401 1168 2467 0
-2060 1393 1937 0
1538 2764 -2698 0
-797 -824 2319 0
-81 2715 -640 0
-2126 -754 -1617 0
-2481 656 -406 0
-1799 1807 2129 0
2131 1355 -2212 0
-1563 2170 397 0
-1091 -1114 -1675 0
-594 -2820 -2830 0
374 -439 134 0
-1593 -1268 -2265 0
-1504 2145 918 0
-752 -2393 -1945 0
-2056 -1935 -1598 0
784 185 1991 0
-1862 -2829 -1246 0
1930 776 870 0
702 -2900 491 0
-1171 -2096 -1421 0
1331 2576 885 0
-1645 -1257 -2261 0
-458 -1284 -80 0
410 2025 1288 0
984 1674 -1267 0
-1436 -2545 969 0
-2344 -1511 2269 0
-2462 55 -2311 0
2578 -1359 -519 0
-1542 1393 -2763 0
-1488 -2258 1056 0
342 -1450 -1936 0
-2260 1469 874 0
-1 -2718 2074 0
1540 452 2845 0
852 1647 824 0
-2618 1159 -1201 0
2936 527 584 0
111 108 -2796 0
-1496 -1806 -496 0
-2009 -656 -946 0
2206 -1067 -838 0
1559 1064 -2421 0
-2364 410 1483 0
-820 -1704 2732 0
-2500 196 829 0
-1225 989 -720 0
-2533 -2997 1772 0
465 1705 2430 0
-988 459 -815 0
806 1735 -1334 0
43 -12 2424 0
1062 458 1220 0
2796 -1858 -680 0
2886 -2927 -1805 0
-289 15 306 0
2995 1682 -2817 0
2792 -2859 -2836 0
2962 -2356 751 0
1776 1243 -2541 0
422 1504 -105 0
704 1715 -1754 0
-97 899 -1569 0
241 -225 5 0
-2079 1316 -1804 0
-2780 -709 -2806 0
-2027 -2629 2012 0
-1237 71 -1522 0
69 1193 -133 0
-1518 2891 -2406 0
-224 -2790 -2656 0
1890 -2054 2553 0
55 520 -2042 0
-684 -541 2702 0
2668 140 2520 0
-2840 2294 1920 0
-2989 -1533 2384 0
2286 -2822 -2340 0
-1569 -867 -2438 0
1036 2166 -2440 0
97 1162 -1942 0
-2348 1344 1556 0
2483 -2047 2534 0
2461 2964 2386 0
453 1722 -1194 0
2966 -281 2931 0
-2502 641 -369 0
1426 -2553 -2509 0
2835 -822 -388 0
1524 -1588 664 0
1517 -141 -148 0
1309 2295 2471 0
-659 1443 -2997 0
-511 262 1939 0
-1075 161 1478 0
-1537 552 1043 0
807 1621 2827 0
293 -1062 -844 0
1707 -1198 -1746 0
-2902 -2624 2608 0
2486 1586 -69 0
-1579 2790 -678 0
2279 1415 -1581 0
2638 -635 1138 0
-2288 1627 -661 0
577 -2505 2897 0
-1221 103 -2111 0
-1496 -564 -2854 0
2800 -1501 -909 0
2667 1249 1536 0
-2026 1839 -960 0
2064 -1558 2988 0
850 1847 -1137 0
469 -325 -284 0
791 -2693 1699 0
2231 -1168 1122 0
-2948 2301 863 0
-2046 169 2022 0
35 960 -1545 0
-1190 -2062 -1857 0
1670 1385 -1400 0
1109 2226 -2526 0
616 -850 -1264 0
-1287 2942 -289 0
2441 -2387 885 0
833 2740 2736 0
2422 1256 2070 0
2295 2146 -2159 0
-1551 -1612 -1147 0
-2978 2326 -1744 0
-911 1674 925 0
329 2782 -432 0
508 945 429 0
-1102 529 -2005 0
1539 2191 -2207 0
2321 -850 1132 0
-2383 780 1924 0
-1261 -884 551 0
-1354 1868 -651 0
-2353 2024 -2726 0
-2921 -2408 -2106 0
1711 99 -1909 0
-1026 1880 -1516 0
401 629 2376 0
1993 53 1363 0
-1025 2782 -2997 0
-494 -2962 1957 0
-378 1536 2626 0
867 1576 -1123 0
-1107 1759 1768 0
2374 2560 -1735 0
962 -759 100 0
-339 2365 1480 0
-1487 -1856 -1521 0
-1731 -1160 -159 0
2960 -1222 -2728 0
98 650 -426 0
1962 -2107 -1146 0
-1490 -2639 -2511 0
309 355 -398 0
-91 791 -342 0
1602 -1974 -2859 0
1701 -493 2401 0
330 696 106 0
-2525 -1462 1675 0
-1735 1283 -2 0
491 -1136 -723 0
-258 1260 -1158 0
-1980 2228 -709 0
261 2113 957 0
-1064 1307 -1905 0
950 414 2034 0
-540 2083 -2410 0
1544 1862 -1385 0
-177 372 -226 0
2618 -2512 2450 0
478 1818 1193 0
749 -172 -2150 0
-1914 -2307 32 0
2739 281 2943 0
-208 -2933 -622 0
2985 -1174 -1676 0
-260 -902 1720 0
1302 2743 -1558 0
2689 2064 -2831 0
-2663 -337 1284 0
-2461 1370 2330 0
1939 2583 2802 0
2109 2540 833 0
-1820 -280 729 0
771 -746 569 0
-295 228 2494 0
2103 1380 2737 0
-2734 2485 1003 0
-1918 -2180 -1088 0
1300 2548 2407 0
-2003 176 -2281 0
-308 -369 -2927 0
-565 1199 -577 0
1184 20 56 0
-486 -1970 223 0
-435 1048 727 0
-2810 -2830 -1949 0
-937 -506 2287 0
1013 2775 -645 0
856 -1282 -2445 0
-1212 -1550 -2489 0
-2106 1809 2694 0
2216 -1236 1691 0
-1524 2334 -221 0
2739 -1543 -393 0
817 -57 -917 0
-1839 -1115 1336 0
2280 -2253 -1131 0
1031 -1877 1780 0
1563 -2367 -165 0
116 -286 -2500 0
867 -2246 2159 0
-1093 334 1915 0
-745 -2227 -1402 0
-402 -2967 2948 0
-2672 516 822 0
-2130 -1588 -2347 0
1559 1487 518 0
1779 2836 -2046 0
541 -459 2082 0
-2465 586 -1915 0
-549 1133 1482 0
1626 2509 -2111 0
434 1779 -932 0
-2761 1944 1053 0
2480 2593 -1853 0
-291 1725 -1239 0
-1392 -2097 -1795 0
-1704 -501 2586 0
-74 -2391 1636 0
-932 -2276 382 0
123 1511 461 0
1361 2952 -1544 0
1711 330 633 0
2594 -584 2456 0
1030 1828 -2581 0
-2287 769 -2122 0
2027 -2241 -797 0
-1986 -682 -330 0
1859 451 295 0
1608 2350 -1762 0
-738 -721 1099 0
1528 -1491 1065 0
680 1445 322 0
2018 714 1283 0
-915 2874 -1497 0
-956 2684 -536 0
688 -151 2500 0
296 1612 -2698 0
2374 1621 -1411 0
-602 -2762 2139 0
1022 1809 1373 0
-620 -787 2474 0
650 -56 -2634 0
-2440 -1070 -2720 0
-1488 -1941 -2679 0
-2234 -570 1547 0
-2790 2886 2788 0
-402 -288 -77 0
-2134 1154 -2617 0
1160 -1328 -2808 0
1588 138 -1097 0
-1654 642 779 0
-1547 805 -644 0
-166 1013 235 0
-1473 318 1741 0
2968 -1051 101 0
-805 -2168 -2795 0
-1474 30 2913 0
-261 -2489 -1861 0
1239 -1110 1971 0
-2855 1217 263 0
-1521 1168 -2011 0
-285 2737 -425 0
1144 -2424 -184 0
2368 -603 2266 0
2194 -215 -2535 0
-393 -2409 620 0
1972 -1753 17 0
2742 265 1485 0
1869 1121 2832 0
-1098 429 282 0
-1301 -732 -2964 0
-2627 1480 -2097 0
2602 -398 2320 0
2193 2228 1815 0
2368 2970 -952 0
-1835 1918 -129 0
659 -2347 2473 0
1982 1986 -2757 0
-1618 -1485 2224 0
-1947 1657 563 0
373 801 1447 0
1157 2809 2966 0
-2210 498 -1244 0
-290 582 355 0
809 -483 -2317 0
669 -643 1564 0
598 -1043 2097 0
2109 1822 1648 0
229 1304 -566 0
-2251 -1784 1990 0
2426 2993 -1643 0
506 470 -2440 0
1949 1018 -2812 0
985 2580 -866 0
-217 1407 1578 0
1694 293 2076 0
-398 -1651 2733 0
-1896 1776 1390 0
-1191 -2806 2072 0
669 1386 -1996 0
-2761 -1318 -2099 0
-869 1326 -673 0
-2566 -574 2825 0
2236 -131 1288 0
-898 2060 2700 0
-1979 -2387 -268 0
2599 -2788 -1896 0
-2565 1296 -2499 0
-784 -73 -1701 0
309 1778 -1022 0
357 -965 -89 0
1133 993 2091 0
1125 -2638 2196 0
-369 2806 -1867 0
-217 1920 2227 0
244 -2770 -2688 0
1541 -191 -1375 0
605 675 -1640 0
-1433 191 263 0
-2598 2875 794 0
-1198 -574 -2583 0
339 1300 2354 0
1055 -1419 -1596 0
2803 1810 2525 0
-277 2741 306 0
-1581 2536 1587 0
2222 1772 2023 0
2568 -798 -507 0
-1855 -1315 -1278 0
367 543 -681 0
-410 323 731 0
1809 2781 -677 0
-156 2526 2899 0
-2117 -2160 363 0
-1429 -866 2426 0
1003 665 -405 0
-2486 85 -1396 0
2448 -1577 -972 0
-310 2966 233 0
107 -753 1695 0
-2855 730 176 0
-2039 -1048 181 0
-2670 -297 1751 0
2167 702 2083 0
442 -2976 -2471 0
1012 1745 118 0
858 -2663 -314 0
1580 -756 -1901 0
1148 224 -671 0
-1469 2547 1467 0
420 -319 990 0
982 70 978 0
1388 2352 -76 0
-241 1218 -1932 0
-1511 1695 -1780 0
935 1283 1485 0
-1019 1371 185 0
-2315 -627 -2509 0
2203 -500 931 0
1608 -2102 -56 0
-1582 -2255 253 0
-1065 752 -2799 0
1244 -69 -47 0
-128 -1563 1546 0
-1574 -2622 2691 0
-2334 124 -1666 0
-2327 250 -2883 0
113 -2510 -1840 0
-923 -1239 -2139 0
-2522 2431 -374 0
876 1277 -2555 0
-885 2817 1346 0
2461 1352 1988 0
223 1525 -1073 0
-1266 2383 1695 0
-1557 2929 2588 0
540 2239 1393 0
1882 1939 -2794 0
2351 1884 943 0
-2819 220 -258 0
-1759 721 -962 0
956 -647 -1482 0
1739 54 1741 0
-1468 2171 1403 0
1522 -1195 -1021 0
-1892 2734 2093 0
1121 -2289 1700 0
-1700 -2142 1765 0
-2236 429 195 0
-1574 2132 2482 0
2146 -2248 1292 0
-963 2170 -847 0
2570 1383 2423 0
515 -1435 2094 0
2787 2751 -618 0
-731 -2750 2958 0
1787 2243 157 0
1092 1951 1181 0
1492 -2031 402 0
-1630 -1669 -1888 0
415 -1955 1837 0
-510 -1807 -2379 0
1869 -810 1542 0
-2451 -1350 -2906 0
2534 1142 -1294 0
376 -945 929 0
2385 225 -1983 0
2851 -1888 2734 0
1266 -1194 542 0
500 -800 1074 0
-2549 -424 -2328 0
602 -781 170 0
1461 76 -1842 0
-680 -2142 -2854 0
553 -1757 2068 0
1055 93 -70 0
2945 -2736 -618 0
1266 -2574 -2951 0
245 -524 831 0
-2079 2052 -1245 0
-1287 -2598 2250 0
-851 -577 -1203 0
-2919 -2139 811 0
-2929 1894 -1255 0
-2517 -1322 -935 0
727 2 1549 0
2463 -1993 1830 0
910 -738 -1908 0
2875 -2621 630 0
-2966 -1434 1208 0
-1184 -1928 -2145 0
-1453 342 -702 0
-2901 672 -1940 0
-943 -2776 -1141 0
510 -1835 2557 0
1205 1756 -728 0
-2152 2280 348 0
-2735 2876 2012 0
2525 2343 507 0
2042 -1382 -1686 0
-1762 -1822 2905 0
1783 352 -313 0
-2635 -1105 -2578 0
-1898 -1121 -1397 0
2792 257 2438 0
987 -2688 2948 0
-53 2337 -2556 0
-2455 -1112 994 0
2434 1822 2972 0
-243 -1225 -417 0
1614 -1343 1266 0
1256 280 1218 0
-61 1971 -2169 0
1334 1626 1370 0
-201 -1089 -2542 0
-2 -1857 2948 0
2756 -183 1680 0
1145 -1524 -953 0
986 -2504 -440 0
-979 2874 1995 0
-2560 1626 1052 0
2393 -379 -2270 0
-2551 -320 266 0
672 -450 702 0
2839 -1042 -249 0
-2540 2621 415 0
-416 -2179 2649 0
-1883 -595 -2293 0
-1497 2882 1949 0
2006 2519 -987 0
-1258 2531 2776 0
-168 688 -1436 0
2627 -2827 -1832 0
-2228 -1441 -1956 0
-1204 1718 -2451 0
-998 -866 -739 0
979 -635 638 0
2141 -82 -2371 0
-2146 -332 -818 0
607 -2648 -1468 0
-1946 2981 -884 0
-2061 1528 -2523 0
-2529 -1920 766 0
-2077 -464 299 0
-2955 -2665 2341 0
-805 557 66 0
-1587 1811 -2320 0
2723 430 2574 0
674 1492 1977 0
-484 5 -2728 0
-2438 2020 -2062 0
1939 -2430 1355 0
-2369 -379 2986 0
62 1766 -1987 0
1426 2059 -1109 0
1826 832 1853 0
-602 -855 -472 0
-30 1692 -1937 0
-463 -381 2681 0
2447 -1873 -713 0
-893 1240 2444 0
2786 -2305 -1989 0
-1248 -338 2766 0
1237 1969 2349 0
541 -2872 -1164 0
-2536 1422 2176 0
-1759 -719 -330 0
-2092 1892 1253 0
2305 1538 -1213 0
161 -2799 -1194 0
-1958 37 1459 0
889 1085 133 0
-2849 1520 1688 0
1729 600 13 0
-2538 1659 -2266 0
-328 -2708 334 0
2981 1971 1126 0
1294 -1776 -2665 0
2821 1378 627 0
-1381 -920 449 0
-2181 -1328 -614 0
-1650 -2239 25 0
-602 2227 -102 0
1045 -1808 -1394 0
2390 -2669 -480 0
1502 -575 -2974 0
708 -2590 -1175 0
2343 -1615 261 0
1185 2255 -925 0
-2260 1352 2410 0
2799 -859 1038 0
-2900 2520 2818 0
-423 -373 489 0
2322 -2316 1540 0
-1765 -2514 -158 0
-1414 -1218 -1768 0
1045 2007 -2201 0
2879 -1656 471 0
-2674 -2374 -1274 0
2063 834 -1884 0
1336 -696 -1387 0
-2857 2152 -631 0
748 2162 -1835 0
-285 -2439 -576 0
1372 2987 1048 0
2671 -1931 2174 0
2865 -1489 947 0
-2739 -921 1168 0
-2318 -1268 1250 0
655 -1810 975 0
-1617 -2202 -2399 0
2289 -2509 1432 0
2384 1788 2898 0
2769 1036 -2916 0
2516 2315 949 0
741 -63 1242 0
1472 -1525 -1975 0
1904 2944 1826 0
2765 -2978 2711 0
2248 2979 440 0
-1855 -1900 553 0
-361 1583 48 0
2776 -2505 1537 0
-1973 1870 2048 0
2779 1573 2743 0
2013 -1037 128 0
-1791 -298 2308 0
2122 -2323 -1156 0
1202 -70 -2679 0
2393 -2314 1057 0
1463 -414 -1362 0
1030 -2670 2671 0
-622 2529 2904 0
-2120 -442 -1232 0
613 395 -2095 0
2420 2609 2105 0
981 607 2183 0
-2514 -2394 1377 0
-2316 -1741 1328 0
-915 1164 246 0
453 2049 2089 0
2683 -2172 -1236 0
-2504 2875 -2025 0
-1236 2581 2760 0
-1009 -81 -702 0
-1464 -940 2286 0
-2960 1809 4 0
-758 -929 2651 0
-885 2137 1763 0
1900 227 -423 0
926 506 -2633 0
1141 920 966 0
-872 663 -1313 0
-1089 1739 -1646 0
-646 -983 2063 0
1725 1179 -1022 0
-1466 2918 -1184 0
-2005 760 2969 0
-841 -230 -1695 0
-394 -732 2501 0
1251 2133 -2543 0
-867 -153 1392 0
-2176 -2148 381 0
-2939 -106 1864 0
1290 -1118 -1863 0
-1428 2552 975 0
1390 136 503 0
2460 -2207 1321 0
-1661 -2518 -2607 0
-2343 1691 -1347 0
1025 1991 -1401 0
2773 -442 -2916 0
909 462 2189 0
-1933 2507 -1717 0
-2998 -666 -2476 0
-2509 -2839 161 0
-1419 2528 -160 0
1446 498 -2894 0
-2063 -1668 -2926 0
-735 -1299 -2691 0
-2626 570 -1237 0
-2693 2231 -360 0
1782 -1935 -553 0
-1213 802 -259 0
2677 -683 -2098 0
2078 -2049 -1982 0
249 2194 2977 0
-165 93 -445 0
755 428 -1491 0
1831 -2684 -312 0
1222 774 -2937 0
1812 2653 253 0
-1252 -2848 -2100 0
-526 1259 -1883 0
625 -252 -2125 0
-2971 1700 -335 0
-688 -2451 -174 0
-252 1712 -1128 0
-127 1054 -495 0
2942 2836 1020 0
-2936 -182 -314 0
2341 -705 -2538 0
-2663 -2132 45 0
-2309 2498 2270 0
-1385 -1569 218 0
615 -2289 2027 0
253 -657 -679 0
-2077 423 -89 0
-900 1664 501 0
-110 -2589 -1503 0
-736 1006 398 0
-531 2595 -2958 0
-1318 827 -191 0
-241 808 851 0
-2286 87 -2780 0
1522 -2569 -2164 0
-2999 -29 -1403 0
-1770 -2750 2635 0
368 -2071 586 0
1701 -182 1441 0
2604 -416 1282 0
-2507 2104 2400 0
-2601 -524 1381 0
-772 -1691 -204 0
-2680 -856 -1565 0
2360 -1783 1168 0
2420 -531 2697 0
1005 -1637 -1650 0
-1052 -746 1365 0
-2688 785 -2866 0
1723 -736 -801 0
2283 -2977 1155 0
-2020 -377 -1637 0
-2618 1614 -394 0
2940 2502 1024 0
-1880 -1624 -3 0
-1198 -354 608 0
-2355 -1150 -596 0
347 822 487 0
-2585 -1350 -2818 0
-1181 1663 2219 0
-1886 327 -217 0
-1225 -2910 1147 0
-1672 -1148 -2015 0
1268 2953 300 0
-2323 -2957 -2818 0
14 2691 -747 0
2128 270 -2155 0
-2281 -2740 -72 0
-912 -233 1753 0
1163 2884 -978 0
-768 -1037 -2366 0
-2422 365 -688 0
888 -1009 1173 0
-1049 -502 439 0
-1844 805 -425 0
2493 -1067 -2371 0
-2686 -785 1972 0
2091 -924 2879 0
-2765 -693 -996 0
-2697 -46 -148 0
26 363 -2067 0
385 587 -1250 0
888 -2749 -1593 0
2684 455 2434 0
-2942 -2090 -2548 0
-2288 -878 -452 0
2543 -1454 1839 0
623 -971 1150 0
1234 2629 2171 0
2459 2655 -861 0
-742 1119 203 0
-976 -1012 -924 0
2138 2765 -2514 0
905 -443 1834 0
-2996 -2179 2816 0
-2529 -1667 -2387 0
38 1897 -2694 0
-789 236 1138 0
870 438 -1854 0
241 -2213 -564 0
474 -685 -2586 0
1032 1771 961 0
1017 -1648 -547 0
2607 2341 -811 0
-534 2244 -1158 0
100 520 -1033 0
-1000 -455 -1513 0
2405 -2483 1627 0
-1563 1032 1397 0
1429 -1908 1798 0
158 448 -91 0
2259 -2672 666 0
-2594 -2825 1450 0
-1417 1364 -113 0
-495 -66 1646 0
2423 525 -273 0
-1940 2958 -1089 0
-2275 -1117 -2380 0
694 -2264 2483 0
-2510 -2257 -1904 0
-1158 -634 1341 0
-1913 1330 -1149 0
98 2041 695 0
-2699 -1606 1664 0
2823 -2302 -2596 0
823 225 -1796 0
-2567 -2411 -372 0
2197 1970 535 0
1581 -1856 2688 0
1610 899 -2985 0
2300 2028 783 0
150 1313 -583 0
1689 -733 1099 0
2547 -2164 1057 0
2389 -2590 2830 0
-2567 2881 -771 0
1578 -1419 -2037 0
-2407 -2393 -2981 0
1732 192 1554 0
1468 -1589 -653 0
-1667 2197 -2057 0
-1323 1813 -230 0
1983 235 2209 0
-85 -2280 -229 0
412 -1158 -2924 0
965 -1669 -2586 0
299 -428 -1444 0
-722 62 1066 0
-646 -703 -1013 0
-1697 -336 -1572 0
-1675 2756 1182 0
1083 -467 -273 0
-841 -326 2674 0
-2191 -2680 1595 0
2322 -646 -1903 0
2023 2179 -2932 0
2509 -2210 -1341 0
-1613 -2983 -1150 0
-452 -1068 -2412 0
-2692 1302 212 0
-2128 -2909 1595 0
1673 -125 -2148 0
-1363 -246 -516 0
2254 957 1634 0
-2029 1063 22 0
2914 -2057 -304 0
-1633 -991 1731 0
870 -2706 -1320 0
-353 1671 -1189 0
-119 1967 -1774 0
2457 -873 -2045 0
-260 -2025 -181 0
-2010 768 -1977 0
-840 -909 -2872 0
-632 -1096 387 0
-561 -2588 -413 0
-1783 -1038 382 0
-991 -957 194 0
570 1182 -1833 0
2952 -1445 529 0
1062 -1025 2759 0
427 2636 1201 0
1439 1596 1226 0
1339 -1782 795 0
2798 1840 -1974 0
-1286 -2526 -680 0
-52 242 -2037 0
-2206 -1921 628 0
2322 -927 -2895 0
1834 1159 2168 0
-958 -1973 1224 0
2896 -2261 1912 0
-369 -1824 -1053 0
2601 -1203 1009 0
1937 2173 -2197 0
-1999 -1151 142 0
2329 877 2845 0
2898 2731 -2407 0
488 -783 979 0
2130 -1062 1929 0
-2507 -1724 2925 0
2747 -1228 -2008 0
1244 -385 -979 0
-661 2220 -636 0
42 -440 -1109 0
2806 -654 -1953 0
1796 2783 1085 0
-986 2735 -2761 0
686 -1575 -1946 0
538 722 -1827 0
-1043 538 2292 0
-103 -1077 -2639 0
-1961 2397 2757 0
2279 2947 -437 0
-2132 1697 909 0
-2019 -473 1763 0
2240 -2811 2421 0
2454 712 1009 0
-2389 -1191 2548 0
-315 -2525 499 0
2488 -1650 1549 0
1582 -2492 2768 0
-2290 -351 -433 0
-2654 -727 267 0
371 2499 1981 0
1691 -2956 2275 0
-1170 1197 2216 0
-1450 -1166 960 0
1360 2767 -665 0
1517 -2813 -796 0
-1861 -1838 578 0
1827 -678 -1626 0
-2742 -1606 1335 0
444 -1765 -783 0
-1423 -1102 83 0
-206 -894 2609 0
-1831 -2372 -1437 0
1114 -331 -1754 0
-2303 1644 375 0
2451 -1610 1149 0
-1039 -221 -207 0
1702 2992 -2306 0
-2879 2099 701 0
1554 -2570 54 0
-2372 2878 2868 0
2580 1206 -713 0
1267 1686 728 0
418 -1746 -2313 0
-2343 -431 -789 0
-1768 -2228 -1859 0
-2518 1687 2596 0
-165 -220 380 0
866 -531 2472 0
-831 2913 -2052 0
918 865 -786 0
-473 1376 2555 0
1546 1455 -1196 0
340 -1225 -2101 0
-1971 -1565 604 0
1186 -445 -2095 0
2627 354 -2307 0
1166 445 2602 0
-1356 -1303 -463 0
-1490 -2168 679 0
-704 -1075 -1657 0
-2941 -699 -990 0
-1585 -1467 -2626 0
1020 -2810 262 0
1884 2060 -1621 0
-1759 -79 -108 0
1169 -2864 2638 0
1271 461 1128 0
-1445 -1030 -1365 0
-29 -2224 -493 0
1419 -998 2680 0
1558 1888 -1789 0
-975 -698 631 0
457 -1221 -1129 0
-877 -165 2272 0
2309 -1413 1584 0
1262 1646 -682 0
55 1090 679 0
-2463 648 1381 0
-2128 -96 -2778 0
-2869 1756 1710 0
1215 -2825 -1763 0
-2508 2042 269 0
2310 1510 -1221 0
-2508 -1576 2593 0
-1487 -2071 2053 0
-2862 -1797 1483 0
-679 915 416 0
2205 -2700 -2217 0
1548 806 761 0
1583 1022 2152 0
862 -706 981 0
-662 -2258 -1249 0
919 1393 1285 0
-195 2114 2769 0
-1656 701 -376 0
-1326 1826 2208 0
-2301 1718 -835 0
-2274 -2934 -456 0
-1480 -2361 2589 0
-2735 -254 -2653 0
-428 -1591 1297 0
-28 -2625 1707 0
919 2237 -489 0
2005 2930 -609 0
1831 2897 -104 0
601 1160 2183 0
-951 -1984 1803 0
-79 -2131 -2116 0
-1413 -601 1057 0
73 -316 -359 0
2049 -2197 -1623 0
-1540 -1347 2693 0
-2042 1781 2023 0
1345 1068 2536 0
2460 -828 -203 0
-337 -1292 2441 0
1427 -1900 1109 0
525 2336 1113 0
-2185 -364 818 0
289 -2878 -2919 0
-969 -2480 941 0
-353 925 2058 0
-1125 1764 -910 0
819 2973 1140 0
-613 -2207 -1438 0
-258 67 1738 0
-1912 1743 2507 0
414 371 -2780 0
-798 113 402 0
-1898 -2071 -2149 0
2230 -1752 1271 0
-1897 1619 1682 0
-782 1091 -452 0
-2689 -1503 -2486 0
1976 1682 135 0
583 -256 1611 0
-1791 2262 2759 0
2638 -754 -1111 0
-153 822 -2969 0
570 944 1894 0
194 2586 1216 0
-1979 423 1232 0
-1604 -1284 2551 0
-1179 2018 393 0
2790 1213 2232 0
-2370 636 -1554 0
-1139 2542 -2458 0
1647 -2471 -2075 0
-789 -1287 2115 0
-981 472 -1862 0
-477 2508 -1417 0
-2777 850 -2561 0
1854 -918 -2037 0
1439 -1273 -1289 0
-1779 -1321 680 0
1823 2352 -2937 0
223 2328 2931 0
-2906 1284 -1321 0
1238 630 -49 0
2619 1051 1153 0
-1407 -2787 -1775 0
-1661 2536 2685 0
-1062 -1168 -2790 0
2416 210 1621 0
2337 -1504 -521 0
-1966 -1868 -2874 0
-369 2680 244 0
2617 -2046 675 0
1409 2276 1411 0
2700 1945 -28 0
-151 -2644 1315 0
492 -2561 840 0
-418 2193 -1919 0
-2787 -329 2557 0
-707 -1193 -2138 0
2336 -1848 2739 0
2550 -2169 -1456 0
925 1720 2189 0
-400 371 1660 0
518 -759 732 0
-1304 512 -2256 0
-2099 -1630 1121 0
852 -1797 -164 0
136 2883 570 0
-1382 -738 -2755 0
-2254 2784 -2770 0
2825 345 -1902 0
-723 -2366 -2865 0
1582 17 -1583 0
743 -2147 -2026 0
1546 2503 -364 0
-1165 -1919 1481 0
-976 -1183 1501 0
-1284 106 -970 0
-1775 -887 -1433 0
-1000 -142 -1193 0
-2239 -2953 1617 0
-1656 -1874 -2546 0
-1810 -2004 1070 0
72 -2401 399 0
1775 -172 -1768 0
435 -574 999 0
1296 1202 -1375 0
-1654 -2303 -1690 0
2471 1942 2344 0
-1616 -2382 -1385 0
-289 1713 -2248 0
-1015 -5 -1776 0
2047 -826 2028 0
549 -594 1843 0
-122 600 -19 0
-2435 -1573 -2501 0
327 781 -646 0
-76 1509 2831 0
2267 1738 -2715 0
-940 1735 124 0
-1538 2504 1247 0
-879 -1953 -1193 0
1842 -1322 2131 0
-1791 1701 -2344 0
-1728 -128 -44 0
2442 -1514 -940 0
1592 -2920 1378 0
-1908 -897 -751 0
-2237 462 1587 0
-1524 -1740 -1058 0
1508 -2149 -1480 0
1856 -1950 -471 0
1302 1260 2323 0
217 -212 939 0
-1240 1730 308 0
-741 -1365 115 0
2477 291 31 0
2739 618 2386 0
-385 2176 -348 0
2674 2593 -1847 0
-2515 2618 2373 0
-2904 1475 -1870 0
-396 2670 1277 0
1822 455 2640 0
-1571 -2403 2344 0
2985 -256 -2731 0
-2661 1361 -1091 0
-658 2719 -2704 0
1615 1516 57 0
-2088 -503 2329 0
-772 1681 1048 0
58 465 473 0
-2559 1159 2152 0
1490 -487 -2980 0
-517 2676 -518 0
839 -1759 1285 0
255 2548 -813 0
-242 1150 2855 0
-2189 2625 -1680 0
543 1535 -1776 0
-581 -289 -1258 0
277 -1953 -588 0
-1342 2392 -589 0
2969 -2176 2097 0
195 -2535 2330 0
-2780 501 -2909 0
180 2877 435 0
213 327 -2215 0
-1868 -831 -1475 0
-2577 -2776 986 0
2991 1845 -2605 0
-2119 -2123 1979 0
2475 -1231 -662 0
-2640 -656 1172 0
-41 -2846 -2458 0
1984 250 2492 0
-415 117 -2767 0
-1499 -1304 1964 0
-2781 1404 -766 0
-2912 -2420 -1126 0
1698 2221 -399 0
2331 2117 1100 0
-2320 -1842 1343 0
2546 2431 -2614 0
-1805 -579 2368 0
134 -275 1291 0
2191 -1325 1535 0
1198 2018 -17 0
665 -1612 1750 0
-2929 768 1475 0
416 -15 1086 0
-558 -411 -1136 0
2477 -741 2126 0
-1282 -1577 -2665 0
-363 446 1686 0
-2943 1445 36 0
-470 798 -1251 0
-1524 -84 2721 0
-2266 -2889 -378 0
1526 -2374 -2863 0
-1808 -793 1991 0
-1147 339 1569 0
-1924 -2763 456 0
-989 -2463 -2196 0
675 1177 -1329 0
1334 1833 -212 0
-1535 -317 -1479 0
192 1864 -1907 0
391 971 2766 0
-1372 1080 -937 0
-993 -1200 593 0
876 632 -1495 0
-2630 1039 1393 0
-2055 -763 1147 0
-514 -1728 212 0
2387 -2360 646 0
-2514 1582 1028 0
-1681 1215 -1319 0
-2427 109 1371 0
-2409 -2278 -1757 0
-676 1898 1246 0
2295 600 -2375 0
-1194 2428 -2877 0
-1312 -454 -122 0
1251 -1358 -1789 0
1225 1292 -1156 0
-394 146 1498 0
-2513 -1223 -99 0
1583 -2197 196 0
2518 105 640 0
2239 2377 1154 0
1967 -1920 2935 0
1144 290 -1653 0
-1158 -2183 -1440 0
-1948 99 1230 0
-2530 2238 -1454 0
-2179 80 910 0
329 193 -1613 0
-1980 2109 -2306 0
2449 747 31 0
-2708 -2654 2635 0
-1347 -1249 -1975 0
-1991 2066 -2321 0
-2687 2949 -2348 0
-893 2523 -293 0
1624 400 -736 0
-2783 1597 -2508 0
1545 1469 2992 0
180 -232 -2721 0
-884 931 -1765 0
-287 -999 514 0
1777 1201 -1470 0
2159 2546 1855 0
1789 2835 -2334 0
-2841 -2828 2057 0
-1686 -2460 1808 0
1133 2193 -935 0
-702 2690 -556 0
955 2199 2254 0
2073 1492 -2668 0
2336 -1723 -2255 0
-1741 -1241 1045 0
548 1798 1713 0
2924 1708 -1746 0
2580 -521 -2375 0
80 1901 -2187 0
1215 1332 -2145 0
-1978 2230 91 0
-488 2542 -623 0
386 -1977 -778 0
-1818 -86 -1451 0
-2806 1619 161 0
-2372 -2389 -332 0
-2128 -2140 -42 0
1602 1675 552 0
2211 1418 -2158 0
-1820 -738 822 0
1858 -2650 -197 0
2288 -2103 -1922 0
2180 1254 2590 0
-2675 2781 -1189 0
880 -879 2861 0
388 -1321 -2817 0
-1517 401 2932 0
1257 -1879 -499 0
-1546 2188 -2061 0
-810 1645 -2880 0
-2920 -1393 -249 0
-1642 -182 994 0
728 -1192 773 0
2244 84 -2314 0
-1199 439 804 0
1263 -1099 1965 0
1965 1314 -1647 0
-384 -2864 315 0
1156 2533 764 0
792 -2163 2553 0
1672 -7 2256 0
-458 5 -103 0
-124 1209 1638 0
3000 1402 1121 0
1858 -617 -19 0
16 1384 -1265 0
1978 -2872 2546 0
2363 -842 -2253 0
1463 -145 1164 0
2162 -1902 -570 0
1176 1693 -1716 0
210 1036 -2420 0
-1551 2793 -1775 0
-1333 2686 195 0
-2721 -2755 135 0
-2382 -1677 -2682 0
1347 -678 273 0
-1881 875 -2913 0
1368 1814 -127 0
-1230 2213 2045 0
2652 -2427 -1095 0
314 33 2366 0
-1463 -2874 -2135 0
-2489 -2028 -1314 0
1669 -2902 304 0
-1449 -1866 -109 0
2002 1374 -2639 0
2007 1644 -529 0
1146 1800 1091 0
-2233 -402 -2884 0
734 1902 2518 0
-1743 -988 -1190 0
19 1839 592 0
2364 -736 1273 0
2711 1566 620 0
-2791 -2174 -1964 0
-1231 -360 -720 0
1448 781 1765 0
2990 2915 1303 0
-187 -1762 -1028 0
544 -1784 -2624 0
2911 -979 -2735 0
2519 498 1797 0
861 384 2807 0
687 -36 392 0
-2502 2031 2469 0
-2129 -1025 -635 0
-2387 332 -2996 0
-2127 2382 1879 0
74 398 379 0
-2040 1799 873 0
-1270 1011 -883 0
1773 2238 -2912 0
-1400 149 -2588 0
2817 1605 2974 0
1319 -11 -1095 0
1723 463 1227 0
-414 530 -2177 0
-965 -428 -2850 0
1487 278 227 0
-2223 1196 242 0
-1336 -2642 84 0
-830 2019 -304 0
-1070 -470 1763 0
-832 -2898 -122 0
2234 1026 -2591 0
-1025 -2186 -2757 0
864 1975 1413 0
1225 367 -301 0
-852 190 86 0
2894 2068 -2688 0
409 2395 637 0
-957 318 92 0
884 -2427 -1076 0
2501 -1854 -1958 0
257 -1114 -2397 0
455 -2766 -798 0
781 -2982 -2123 0
-611 2455 -2192 0
2151 2375 -802 0
-1885 2744 -857 0
2554 2494 -233 0
395 2024 -750 0
-2610 -312 -2998 0
1612 1723 -699 0
2542 -2712 -2026 0
-2504 -1431 1165 0
-2717 499 -2384 0
-1927 -402 1954 0
2826 -682 280 0
-1960 624 -610 0
-33 -1446 2307 0
-2964 -1171 2611 0
-879 2450 -2880 0
1920 -748 -1794 0
-737 -2518 1346 0
-393 -237 -728 0
-1769 -872 671 0
190 1381 -26 0
-351 2373 877 0
728 -638 527 0
1825 2683 723 0
-852 -149 1224 0
207 2222 895 0
-526 2605 -1456 0
-1865 1167 1009 0
1031 -1204 2183 0
-2969 2907 -2911 0
-1417 2406 1697 0
-1911 -2221 703 0
2278 -1022 1141 0
-2274 -1916 1722 0
200 -1629 2923 0
778 382 2034 0
-2584 -2585 2953 0
-345 1588 -1695 0
2340 1935 2159 0
669 -2033 -1035 0
-1994 158 2278 0
-2155 1826 2951 0
2074 -1650 1467 0
-1025 1134 1462 0
-2926 1331 -863 0
2226 328 1255 0
-2722 2622 -2249 0
-2076 -1232 788 0
1712 95 2475 0
-1717 492 -296 0
-2400 216 1552 0
-2116 -1213 -2501 0
882 -1212 -187 0
1681 1289 1243 0
517 2028 2957 0
-2501 -1925 -1636 0
-2045 -1426 -2283 0
-2895 -2400 621 0
-2614 1406 -560 0
-2556 334 -1320 0
-1252 -2705 -123 0
2149 1594 -2879 0
-2825 2431 1617 0
994 -2558 -910 0
1132 2904 202 0
-2075 -2826 1402 0
1831 567 -1918 0
2687 -256 447 0
-1222 -2605 -616 0
-2019 -1390 2157 0
2073 2149 -2107 0
-2862 2561 298 0
-1398 1911 -880 0
682 -1207 -1280 0
596 -1960 -2067 0
-19 -279 1269 0
-509 2225 1724 0
-820 -1211 -2875 0
2196 -2796 -1449 0
896 516 -1569 0
-690 -615 1562 0
2780 -565 2464 0
-1605 238 -391 0
-1121 -133 1747 0
2433 -2097 2334 0
-1799 2580 -2808 0
-1872 277 2809 0
-563 -2273 -2079 0
-1701 -1092 724 0
2934 98 -2816 0
-496 -1796 -448 0
-974 -960 1864 0
1077 -2079 1931 0
-887 -2067 574 0
592 -128 -365 0
-2090 1676 -944 0
-746 2054 61 0
-1402 -898 -774 0
-2713 -783 1760 0
240 1239 742 0
323 122 62 0
-782 1254 1528 0
-1297 -90 -522 0
1794 -926 859 0
-291 2680 -242 0
797 -2932 692 0
-1565 2758 1758 0
-1947 -872 1953 0
1799 1009 376 0
1916 -1198 -2047 0
1954 -607 249 0
269 -2007 -2507 0
1775 2925 1066 0
581 -1042 -1445 0
2923 198 -446 0
1233 -1529 1256 0
1773 -2292 1808 0
2155 283 -1400 0
124 -2972 69 0
-1489 221 2219 0
842 607 -1833 0
-1986 -868 -2773 0
-1013 2662 2346 0
-1338 101 1947 0
-1451 226 1940 0
2831 2941 682 0
-2993 -1375 -1645 0
-605 -2967 -1019 0
-955 2766 -315 0
-978 -354 -138 0
-1730 -923 -847 0
-1551 1232 -1243 0
-1713 -949 -1712 0
-2796 2421 -434 0
-162 548 -2780 0
-1647 -2870 1921 0
-2489 -1831 -583 0
-1222 -2631 1383 0
-2489 -2514 2652 0
664 601 -672 0
-1421 -2980 -781 0
1146 -1160 2789 0
216 2424 -2756 0
581 -236 62 0
2155 2554 -2261 0
-996 2563 -1178 0
-14 2088 80 0
269 -1678 2019 0
2701 -373 -1339 0
358 -1066 1352 0
-1763 2539 186 0
-334 497 -676 0
732 -276 1044 0
-60 2311 2071 0
1349 1540 -920 0
-2484 622 140 0
-107 2463 859 0
1947 -2728 -507 0
-2145 132 726 0
2177 1934 1202 0
1084 1373 -555 0
1778 1102 1529 0
-1383 -2538 97 0
2643 -1445 -2533 0
2331 -2623 -2335 0
-1843 2684 -971 0
1280 883 -1717 0
-419 2927 2853 0
2990 1206 -594 0
-2765 2910 -787 0
496 -421 -1065 0
-174 -2 -79 0
-2847 1581 -2782 0
-123 -1012 -2324 0
402 -362 1018 0
-1385 -9 -1696 0
-1919 764 -258 0
1673 -46 2940 0
2496 -2515 552 0
-2752 -1772 1770 0
-1574 -1148 -2893 0
2035 447 2466 0
-2472 -1299 2967 0
1613 1636 1147 0
1820 834 2175 0
669 1974 102 0
-2115 133 710 0
2470 890 1756 0
-2440 1352 -117 0
-1173 6 1571 0
-2402 1858 1496 0
1274 -1501 -572 0
-1677 2974 -2401 0
-243 -624 -2003 0
2270 869 -256 0
-2633 -911 -1098 0
2784 -1786 2539 0
-1267 -2734 -1409 0
-35 -1424 805 0
-997 -2697 1399 0
482 406 -2572 0
510 1219 -2945 0
648 -2491 -2836 0
-1869 -25 -2895 0
-295 -977 -368 0
1441 -1673 -2673 0
-2391 -934 2740 0
-470 2997 2790 0
2241 -2408 808 0
-1166 -1832 -2922 0
-2384 -1907 -43 0
2177 520 -2741 0
67 2656 2659 0
-219 611 2451 0
-2255 -2766 137 0
2543 1145 1366 0
-224 2089 -452 0
-2701 -1824 555 0
-222 -1496 618 0
716 -1391 1505 0
-1294 -2592 1830 0
1072 2337 -254 0
-2847 1908 -732 0
2986 -2046 -2833 0
190 -86 -2101 0
-2376 2964 2672 0
1232 2772 1679 0
99 394 -179 0
586 2739 -1144 0
-1002 -1810 -1371 0
2838 -2235 2960 0
2102 1573 -2823 0
1645 -27 -195 0
2148 -1585 1962 0
-752 -2256 -1619 0
125 -2916 -343 0
-1853 -656 509 0
-1383 540 2319 0
-350 -2748 -48 0
-661 354 -2062 0
2280 -687 -1500 0
-2506 -1877 -1994 0
2219 2813 -832 0
-1312 -833 2328 0
397 49 504 0
1887 2161 1658 0
-1363 -1012 -1978 0
-2725 2747 -1366 0
-48 -2642 -2586 0
1395 1434 904 0
-1496 -371 -778 0
1777 -2768 833 0
1401 -2164 -2000 0
916 -2343 -826 0
-2776 2184 -1899 0
-213 2884 2000 0
101 1387 592 0
2799 2896 -1828 0
-2090 591 2823 0
-759 -1503 1319 0
-1304 -1422 2744 0
41 -2349 -1166 0
-866 -1592 -2067 0
-843 1546 1548 0
2214 -1774 938 0
1919 -251 1943 0
-1217 -2829 2943 0
2778 2095 -466 0
1047 -821 -1571 0
2926 -379 36 0
-2933 1733 -470 0
-814 2950 -2770 0
2152 1369 -2556 0
880 1010 2426 0
1225 -2688 1337 0
537 61 -1269 0
-2932 -2530 -464 0
-895 -1840 -1022 0
-2028 1877 247 0
-1224 2330 212 0
787 -1221 2779 0
2663 -303 1295 0
-2844 -1538 -2638 0
2416 -2076 -784 0
-499 -1631 233 0
-1428 -2769 1380 0
1589 1402 -160 0
917 -1787 158 0
2904 2314 1578 0
-2867 2266 -333 0
-1028 -2395 -474 0
1603 1057 180 0
-1222 1155 2500 0
-508 367 -577 0
2944 -977 -1335 0
-2959 -2077 -1395 0
1725 -546 -854 0
1092 -2295 2715 0
429 -297 1200 0
74 1580 -2041 0
68 -1031 2069 0
-465 -922 1971 0
-480 1821 -1826 0
2029 2272 2958 0
-1498 -1762 1556 0
2270 -2441 94 0
-2143 932 940 0
560 -1489 550 0
89 1037 2118 0
-1367 2744 2910 0
2233 779 -1333 0
2348 1027 -2221 0
730 -1162 -485 0
-2170 1347 -1289 0
-2956 2207 2764 0
1476 2267 2084 0
1601 -2629 350 0
-1621 2057 -1916 0
2392 549 2437 0
-1853 -2780 2893 0
1515 -1249 -293 0
-117 2845 882 0
-566 1368 2409 0
2379 -2662 2921 0
1465 -916 -1755 0
-1800 -2810 1201 0
1801 -2383 1392 0
-924 2883 -1712 0
-590 412 2038 0
2228 2090 2177 0
2420 1356 2231 0
-2778 -610 549 0
-2358 2972 367 0
1316 -2093 -1297 0
-98 -1310 -1291 0
2958 -526 822 0
-235 -2030 1167 0
2894 -1738 1262 0
1881 2938 -2923 0
258 -1442 110 0
-70 -1068 -323 0
-674 -1229 645 0
2625 1505 504 0
-647 -1231 -1479 0
-2786 -949 2095 0
-1031 2967 -1853 0
-2837 453 -925 0
171 2022 -483 0
651 -1141 -1764 0
324 2935 -199 0
-292 2490 996 0
-2519 403 431 0
-1876 480 -81 0
-1462 -2089 2430 0
37 1549 -62 0
-2710 -2855 -143 0
2064 -1749 1227 0
2063 -1146 -929 0
-1083 -4 906 0
1618 -2425 -2270 0
1827 2487 -2986 0
2459 -1464 -1752 0
2047 -185 -2093 0
2722 -2349 2153 0
-1920 452 2801 0
-1472 -981 -2939 0
-106 1038 404 0
-2744 1145 -1962 0
-1682 2376 -2747 0
-495 1602 -143 0
-2584 2132 1708 0
-1170 522 530 0
-2646 -684 1785 0
-1299 -2289 -1614 0
2288 -1942 -2428 0
-2722 -2460 309 0
-2783 -1497 -2018 0
-1270 1378 -909 0
2024 -886 362 0
-1925 816 -1840 0
282 -1331 2687 0
-1297 -814 -2381 0
-1041 1527 -574 0
-2858 -2386 1155 0
125 1088 -1418 0
1694 144 -97 0
1992 -1692 -2638 0
1021 1098 -1894 0
2796 -902 890 0
422 -2172 -1321 0
-1878 -392 -2842 0
-1650 1825 -1768 0
-2726 -1672 -358 0
553 -788 -332 0
376 2362 -2950 0
-909 -2425 -1642 0
-2864 -1789 1842 0
1827 -1376 2049 0
-1513 -485 -2881 0
2537 -2811 295 0
2518 650 1908 0
1734 62 -1637 0
-537 148 1164 0
-970 -695 2213 0
-1870 -10 694 0
622 1877 -2976 0
-2931 657 635 0
-2039 2108 1790 0
-1449 2064 704 0
1077 2380 -2111 0
2194 1964 1653 0
1655 2917 3000 0
-176 -1275 2805 0
2498 -2393 2130 0
492 -1528 1428 0
1620 -326 1817 0
-2493 1281 -1253 0
-1625 1935 -2829 0
-2215 384 -2990 0
2292 1982 1521 0
560 1278 921 0
-189 -2703 -842 0
592 2332 -644 0
2976 2139 637 0
1042 -651 -2226 0
359 501 1379 0
-2472 2731 773 0
2161 1184 812 0
2471 2096 2611 0
215 -38 2444 0
-283 2007 -1402 0
1719 -2667 303 0
-2917 -1147 2871 0
1783 1457 726 0
-2510 1695 -1196 0
140 -873 -114 0
-618 1078 2247 0
2467 -1878 -604 0
-2405 -1226 938 0
-2134 -1045 -2064 0
-1394 -137 564 0
-131 783 -2974 0
-1261 2527 473 0
-2979 1791 -262 0
244 -2868 2271 0
251 -1990 -2045 0
-422 -692 -612 0
-1768 -2240 624 0
2536 1115 1216 0
-70 742 -2734 0
-1807 -2976 -1595 0
-896 1435 -623 0
1933 2095 -1788 0
-159 1296 2685 0
806 -1791 2749 0
482 2283 1398 0
-206 48 -33 0
732 2461 2839 0
-941 2486 -1396 0
550 1623 -2443 0
2319 -1145 -1561 0
-2053 2290 1454 0
-2284 -1001 -1885 0
-2615 1350 1177 0
-1972 2539 2440 0
-2748 2778 2323 0
1737 -1035 -183 0
-2193 -737 -1605 0
-1211 -1422 1363 0
-594 1955 1893 0
-261 716 1556 0
-1041 -1452 -774 0
417 -504 1787 0
-1760 -2431 100 0
-39 1137 1245 0
-2667 1319 701 0
1448 -2257 -446 0
-2455 -84 1864 0
-1402 -2828 -664 0
865 1723 -879 0
183 2507 -1916 0
2208 -2910 2815 0
-841 -2028 -2406 0
-353 -1873 2193 0
-2444 -1211 -2710 0
-2784 2921 -2014 0
2432 1326 -1355 0
-150 -2356 -1344 0
276 2369 -2816 0
222 2917 -385 0
1838 -717 -493 0
2660 2032 1843 0
2389 1967 -1531 0
1065 1532 2008 0
-2284 -1879 -2493 0
-2797 -1124 -2560 0
643 -1476 -308 0
-162 2549 658 0
297 1789 -2179 0
649 -539 -2119 0
104 -2114 -1610 0
-751 2603 119 0
331 -1155 -107 0
1316 -1781 -209 0
13 2460 -2891 0
-1123 624 -456 0
2827 -1243 638 0
2856 -2359 -2993 0
-2473 -1980 -1245 0
-25 -2081 -1173 0
-983 219 718 0
-461 211 2086 0
-2158 1082 -858 0
-1936 92 -2562 0
-2002 -578 2166 0
-1194 -298 -473 0
-463 212 242 0
882 -253 1710 0
724 -1631 -4 0
-1088 1990 -1421 0
1386 58 147 0
-1440 -2177 1962 0
2331 660 1956 0
769 606 -1314 0
2254 2812 -2297 0
-2056 -917 -2091 0
91 572 -1401 0
2071 1743 -2322 0
-1645 2614 719 0
2449 -851 828 0
-2949 2459 690 0
733 -1376 -1231 0
-2878 -868 -1629 0
-1651 -231 -2635 0
-1090 -2785 -2852 0
-1357 1415 1530 0
-2886 -2534 -1143 0
2271 2956 2562 0
2331 -2217 -2380 0
444 -2317 2609 0
-2966 2939 1522 0
2545 -474 -700 0
2547 -1851 2390 0
1251 2795 2574 0
2899 2440 318 0
1170 1100 -1255 0
2584 -503 -1709 0
-2477 -2193 449 0
2605 -81 -310 0
-2940 1901 -2073 0
1281 -174 888 0
-1133 -1916 -953 0
-40 -739 -289 0
-2396 -2854 -2626 0
643 1736 579 0
-589 -704 2094 0
-245 -2982 1559 0
50 -409 -1822 0
953 -2146 -2512 0
-1794 1168 -1268 0
2112 1479 -472 0
-1212 643 2176 0
-1322 2735 -1655 0
-2549 2346 1857 0
2117 -1815 -768 0
-473 -1024 -2953 0
1318 2156 1590 0
2748 251 2587 0
-630 -1390 -2061 0
2010 2020 -1403 0
-1947 -1958 -2874 0
2763 1813 629 0
2391 -2263 228 0
259 -134 1240 0
1566 -1011 2685 0
-2931 -1084 1291 0
73 -1019 -874 0
1738 296 -2352 0
2488 1615 -1968 0
-1131 2884 -823 0
2035 -142 1522 0
2074 653 995 0
1061 330 -1449 0
636 2327 111 0
2395 2308 -2566 0
-1337 -1597 2684 0
1873 -233 2444 0
708 205 1646 0
-1934 2030 13 0
2290 -2089 1822 0
-1874 -783 -298 0
448 15 -314 0
1115 -2244 -744 0
2138 -99 -2789 0
1251 -1853 -1111 0
-299 1730 768 0
-236 -1822 1526 0
-2070 -1005 -17 0
-1752 932 1508 0
99 -394 -2776 0
253 1101 -293 0
885 665 -2339 0
1829 1226 -1440 0
-1852 612 2361 0
-2783 392 920 0
-2194 -556 -1659 0
-328 -332 2506 0
175 -2895 2542 0
-1286 2173 -2765 0
2670 -618 2751 0
-1566 -2799 1196 0
-428 -1357 -878 0
-1593 927 310 0
569 -532 80 0
-773 1109 -2212 0
-191 1818 1508 0
-173 -893 -1397 0
-1076 2734 -1811 0
577 2726 -1390 0
1667 -28 391 0
-1559 -755 2469 0
1542 -585 -2784 0
-797 1047 -2109 0
1372 -1512 1928 0
-105 1930 2621 0
-198 1773 1122 0
958 1957 1817 0
1595 2163 -2581 0
-74 -886 -1616 0
2631 -862 720 0
-1821 1443 249 0
2273 -955 -631 0
-2402 301 -1625 0
2802 -1256 2314 0
2611 878 436 0
1747 416 1406 0
-2864 1633 1856 0
565 77 509 0
-334 2094 468 0
-1910 1682 262 0
-655 -464 1517 0
-1315 -2752 2227 0
2094 -655 468 0
2770 -2266 -2800 0
-1095 1619 1051 0
2110 2447 38 0
-113 -533 1354 0
85 1930 856 0
1122 2006 -1801 0
583 1951 2115 0
69 1571 541 0
-2569 2563 -1773 0
1014 -701 1125 0
664 957 2315 0
2055 2368 -2192 0
-278 2304 1641 0
1541 -389 466 0
-540 2779 -1624 0
2595 2258 -2652 0
-2062 2492 -2940 0
697 -1618 -181 0
81 -473 1831 0
2339 -2095 1117 0
646 -791 1229 0
-680 672 1172 0
146 -1698 2924 0
-1767 707 -2540 0
-2302 -1462 1880 0
-805 -1114 260 0
2384 -2537 2106 0
-1778 1524 1994 0
2683 -886 -846 0
-2216 1539 -1171 0
518 1452 381 0
-2469 -2613 -511 0
-1355 2549 -1508 0
2657 -2736 469 0
-2200 -2783 2562 0
-496 2 -1305 0
-2471 2950 2596 0
1224 1966 911 0
1164 -1040 -2387 0
-2596 -1574 -1862 0
-12 -1764 -2353 0
2526 380 -2517 0
-2880 2703 2384 0
1889 2746 2783 0
95 -2894 -2613 0
2743 181 1740 0
1046 -1126 2371 0
2365 -1804 -1637 0
-1414 -2097 -881 0
-2859 1 -2371 0
-2914 2593 120 0
-2278 728 -1896 0
-2280 -177 1180 0
2590 -310 -1639 0
2043 -2382 2663 0
1763 -2214 -879 0
-2086 2295 -1517 0
-1626 -2696 -2564 0
1726 -919 2838 0
630 -50 889 0
2294 -901 -2042 0
893 -2714 -569 0
898 2365 -632 0
-2146 -2386 247 0
-2792 851 1663 0
-2864 1063 -2545 0
979 -1999 -1411 0
2893 838 -2797 0
-733 -1816 2809 0
-2260 1128 1269 0
1899 2887 -567 0
1242 -744 2899 0
1294 2854 -1432 0
960 544 958 0
-1710 1417 1237 0
749 -136 2878 0
181 -1561 -464 0
571 -1912 -1374 0
-1118 1132 2815 0
-1347 521 -806 0
-1704 628 1219 0
-1536 1807 534 0
-311 -250 2080 0
2589 1886 -319 0
-2105 -2851 -334 0
2472 408 1716 0
-2513 14 -1223 0
-722 -1271 -2230 0
-690 -1729 -2702 0
-2745 -1337 161 0
-776 -1057 -1340 0
-1374 126 1685 0
2488 2413 -648 0
224 221 -847 0
1390 -1621 -2707 0
-2423 2321 2846 0
-720 1727 -328 0
-2661 692 2877 0
-2077 -874 -222 0
-2807 -1591 2917 0
2329 -2771 -34 0
-832 -2031 -1022 0
1314 -2618 -184 0
-1409 1833 -1483 0
-1059 -2925 1614 0
-2467 1564 2750 0
-454 2152 -2745 0
1696 383 2628 0
2839 -381 -2347 0
752 -650 -1182 0
-1822 517 2645 0
-953 -2876 -1455 0
-2455 -123 2823 0
-898 2058 -326 0
2443 -1592 1795 0
-1867 -586 -1916 0
-2316 2025 -792 0
-1578 -1584 341 0
1917 1365 -1515 0
18 2579 1144 0
2627 -2201 2116 0
2742 -1808 2323 0
1255 -1701 -1248 0
1887 -2814 1149 0
1209 1671 -2014 0
513 -2737 1873 0
-1992 1275 2897 0
-58 2819 -166 0
-1747 382 2191 0
-2501 -1841 -159 0
-130 793 -1902 0
1514 -1271 459 0
-835 -2806 2542 0
1539 1033 -1915 0
2503 -1711 -2006 0
-2656 1713 1139 0
-1602 -2755 2378 0
2311 -879 -1032 0
848 1238 287 0
1285 -2957 -1497 0
-626 1731 -302 0
1622 -837 1504 0
1743 882 -2239 0
-525 176 2889 0
1594 2546 1086 0
-132 2983 2811 0
-1857 -1698 1256 0
-523 58 -2949 0
507 689 779 0
-1293 1541 -2785 0
735 2672 621 0
2226 2828 -204 0
2733 -812 1681 0
-1495 -750 -383 0
-2829 1172 2093 0
-452 1534 -2615 0
293 2060 -514 0
-321 1085 -712 0
-959 1260 -1375 0
195 111 -234 0
1583 -405 -1604 0
2140 -1254 -45 0
-2983 -2888 1391 0
2646 -2179 2318 0
2464 -629 12 0
-1744 375 1605 0
-1238 -1602 2030 0
2169 770 2266 0
-2525 1040 -1912 0
-1235 -7 2652 0
-846 -1533 -1811 0
111 1873 636 0
-2653 914 2739 0
-2695 -2508 2441 0
-2778 840 2099 0
-425 1338 -666 0
-657 -558 -886 0
-1039 1864 -98 0
1215 -691 2084 0
-1958 -316 1375 0
-271 2161 266 0
-2309 2203 1707 0
-784 2829 -1892 0
-2563 -313 1561 0
-79 -1766 -257 0
1750 1171 -2603 0
1561 1362 2522 0
2805 291 -1457 0
-314 -1176 2014 0
1333 2535 -2450 0
-487 744 1302 0
535 1212 -1171 0
-28 2267 -729 0
-871 -743 -23 0
-1605 2963 1532 0
2633 -462 1561 0
896 -691 -72 0
-1952 -593 1066 0
506 1565 933 0
1761 -504 -694 0
2525 2256 1465 0
-1255 2614 2777 0
489 -2121 -932 0
1043 -2773 659 0
431 1192 1658 0
-1120 68 -2579 0
-1425 -841 1396 0
-2272 1007 -1975 0
-2075 666 1344 0
518 -2887 2481 0
1096 -1587 -2831 0
597 710 -2120 0
537 -975 2008 0
876 818 -2952 0
-1685 1308 -282 0
1908 -2101 774 0
2882 -2461 610 0
-219 -433 347 0
2896 1045 2153 0
2122 434 -38 0
2199 -2943 -2057 0
-130 1042 996 0
-19 2417 -281 0
2260 3 110 0
139 847 -1251 0
391 -537 607 0
1624 -988 644 0
-2001 -2041 2317 0
2106 -187 2051 0
-2387 915 -47 0
1484 -2335 -2714 0
-902 1651 -136 0
1745 -1638 1470 0
-2847 -1523 -1436 0
1491 -607 -2654 0
805 287 -429 0
-1898 -520 2382 0
-1588 -1992 1958 0
-617 -1381 2027 0
-1956 -2777 -2035 0
385 560 -964 0
868 -1550 -1907 0
-658 -2465 439 0
2403 1378 2265 0
2692 2685 1634 0
1278 89 1426 0
1897 -1890 -2988 0
-1323 1679 -38 0
104 -1844 -2637 0
-1626 -1842 -866 0
21 2923 -1229 0
-707 -965 -2228 0
1768 2377 -2039 0
500 420 2132 0
-1603 -257 528 0
2784 -563 836 0
-1674 -408 972 0
268 -2110 -1686 0
1370 1456 -750 0
284 -2221 -1733 0
-406 2157 1498 0
-44 851 2412 0
252 -679 206 0
1465 614 -1910 0
-2556 2414 1106 0
-2539 509 -2276 0
-1437 119 -276 0
2444 1747 -204 0
2320 1745 1140 0
2936 2162 1421 0
-2926 -1461 -1053 0
1448 260 -1547 0
1023 705 -1476 0
-276 156 -1858 0
1452 2342 61 0
1912 1103 -795 0
-1197 2790 -1874 0
-1406 398 47 0
2618 -1741 424 0
2608 680 204 0
2644 -1975 2342 0
1948 1812 -2486 0
-440 -1409 732 0
-765 1872 405 0
-671 -1204 1665 0
-890 451 -2636 0
2239 394 2498 0
-2076 -924 -2249 0
-1089 -2783 2148 0
1702 1749 2568 0
2673 -2888 -2464 0
-1828 -2709 -722 0
-1652 433 -2801 0
469 1927 532 0
912 579 -1954 0
-2459 -1323 -2014 0
1117 -1272 1364 0
-892 -1839 2919 0
2385 1892 1020 0
2877 -2509 -129 0
2806 -1202 2896 0
1733 -2074 -296 0
-923 -1796 2328 0
-1654 -212 -1915 0
1140 -2775 589 0
-1901 1909 2896 0
-1924 -2600 2291 0
-180 1253 2501 0
-1572 2315 63 0
-2778 -1601 -1969 0
-1095 -1533 -260 0
-998 -2102 110 0
-2126 -1715 502 0
1076 2965 -2548 0
-48 -2846 -2585 0
-2095 2096 -2267 0
-2513 -309 286 0
-2870 -1213 87 0
-2533 -1277 -1174 0
-2854 -2163 2418 0
-2930 -354 2785 0
745 -499 1013 0
-2225 144 -2123 0
1417 -2235 1310 0
-214 2075 -2050 0
2230 1357 1431 0
-1367 191 812 0
2677 -673 2636 0
1383 769 -1277 0
-1775 1811 2633 0
2656 2297 2432 0
2009 -2020 -1615 0
-2000 -778 -1177 0
-734 858 1815 0
-1874 -2697 2163 0
-2570 -78 -2121 0
2345 -1423 -2986 0
-163 2513 -2573 0
2716 -1750 -978 0
-914 628 -1505 0
-1132 -866 1250 0
2705 -989 -161 0
794 2910 -1683 0
192 1543 2871 0
-556 2359 -748 0
1390 626 -2275 0
2862 -2442 1640 0
2594 -1499 2935 0
2732 2570 2917 0
806 1029 784 0
-227 679 2556 0
-1256 -2004 629 0
801 1948 -596 0
-2652 -1884 17 0
-1044 1875 2516 0
-1940 -700 1147 0
-1262 194 2570 0
2877 2241 1625 0
-1021 513 1026 0
1500 -748 969 0
2 2533 2371 0
-607 -925 -2518 0
321 -2624 -290 0
-2342 921 2693 0
848 -459 262 0
-2337 1377 2346 0
-135 1481 1770 0
371 945 -1084 0
-806 -1607 2205 0
-432 -53 612 0
1653 -2104 2662 0
2833 -2453 -1088 0
506 1266 1438 0
-1951 -317 -1757 0
2125 1608 -2519 0
-1242 -2362 2829 0
-2053 1253 1019 0
2025 -2508 1357 0
-1722 -2586 -2663 0
-523 -2385 2718 0
766 2249 1136 0
-2429 2499 702 0
-2361 -1270 -2230 0
-759 -1730 -1542 0
-2119 275 2257 0
2296 1750 -184 0
-2221 -63 1550 0
1864 1421 -1287 0
94 400 950 0
626 2903 -2281 0
-1864 1956 264 0
-2729 1636 -2329 0
-2068 1449 1593 0
-2383 -2302 1623 0
-620 -254 -1628 0
2131 2368 101 0
-854 -1979 -163 0
1110 1339 -968 0
1675 -842 -872 0
2021 1338 -654 0
-2985 1055 -1194 0
-1019 2679 -661 0
1378 81 2267 0
770 -939 -1803 0
1940 -1910 1157 0
-827 2597 -688 0
1759 -2350 429 0
1091 413 -528 0
2068 2114 -2283 0
-471 -398 2230 0
1387 -1940 -2064 0
920 -888 -2681 0
1449 663 -242 0
933 2287 -711 0
2034 127 2357 0
2842 -160 1529 0
876 2823 1882 0
-146 -505 293 0
-1219 -703 -1429 0
1996 -1255 155 0
963 1656 512 0
-1488 280 254 0
-971 -1796 345 0
2687 -2600 1127 0
-1594 1657 1909 0
-2654 -1419 -2892 0
-651 2297 -1802 0
-547 390 -1332 0
-321 -1685 2930 0
2768 -2934 -1499 0
-2387 -1920 1772 0
2933 -2309 2172 0
814 1252 -1442 0
-2695 1115 -2521 0
-157 1024 -1409 0
-1761 311 -1474 0
141 -675 638 0
438 -1477 2309 0
-2270 -1590 -2906 0
2502 486 -2747 0
-2898 884 -925 0
-160 -1093 -1380 0
-1275 -241 -2737 0
305 -2253 1985 0
-2323 -1574 1052 0
-2218 1034 2656 0
-1972 155 485 0
2608 1305 2964 0
395 -1170 1771 0
-2978 2959 -784 0
-1865 -2613 985 0
-1359 -813 -2174 0
-2577 2439 473 0
-1691 291 -56 0
-2568 -2860 1587 0
79 -2251 178 0
2829 278 2796 0
-267 2489 198 0
-2486 1004 2426 0
-2693 -199 -575 0
1469 -2992 2649 0
805 911 -1366 0
444 2018 2495 0
-1085 -2636 2605 0
-164 -1051 -51 0
1933 -901 -1645 0
2713 -2147 2834 0
-2854 -1639 2444 0
620 2129 -2377 0
-2826 -2692 -2780 0
1142 2849 -976 0
-1140 -787 1859 0
2534 -766 -2981 0
-1434 1468 -2022 0
-2206 -2001 -240 0
-532 1374 -1607 0
339 1541 -807 0
-929 2895 -473 0
-1123 -1024 -1921 0
-1570 -669 -1319 0
2603 1420 -2063 0
766 -2272 2080 0
-1051 2381 -1228 0
-1708 -2615 -185 0
1322 2895 1643 0
-496 2824 -1960 0
-824 -810 -1477 0
-385 -2642 -343 0
1224 2376 2816 0
-2005 -651 -2920 0
-274 156 892 0
727 -1776 -687 0
-158 1679 -1115 0
340 365 1765 0
-1114 -2382 -1053 0
1951 566 -1124 0
1991 1726 343 0
-1025 629 -1762 0
-846 -2972 -285 0
2684 1335 2231 0
-2516 -2980 620 0
-2024 786 -1931 0
-2622 -1882 -875 0
-624 254 487 0
60 2468 2092 0
2922 -841 930 0
-2606 1507 -1262 0
-90 -281 1360 0
502 2819 -1687 0
282 871 1666 0
2672 2589 1861 0
-301 -1239 2126 0
1147 -1195 -2708 0
-1165 -2860 2484 0
-2 569 330 0
-755 666 -2182 0
2563 -1468 994 0
-1156 585 -1231 0
-993 -2529 -1932 0
-2740 -1204 -2633 0
2028 -1761 444 0
-1097 -555 2076 0
-512 -1766 1448 0
1211 2443 -694 0
5 -299 -1957 0
2606 782 2312 0
1626 -334 1413 0
2959 -1270 2096 0
-2117 1328 -2432 0
370 2467 2753 0
-221 1182 -1774 0
1718 -1248 -729 0
749 1077 1602 0
-595 -2159 -166 0
-1894 -1980 -105 0
913 231 2663 0
2117 -1245 524 0
1850 -1356 203 0
1897 153 1490 0
-1946 -1304 2411 0
-1879 -752 -532 0
35 -1849 -243 0
1701 -3000 -2900 0
-2182 -1983 247 0
-606 -2954 2149 0
-2930 -230 2292 0
-553 -407 -301 0
-1723 1007 -851 0
1661 1978 -39 0
588 1267 597 0
1294 2867 -2785 0
2016 416 -2863 0
-1971 1015 -889 0
2006 -942 -690 0
643 1925 -63 0
-677 -167 1309 0
-2960 -177 1384 0
-1029 -2490 189 0
-802 2700 2765 0
2066 2219 -1217 0
2760 161 -2845 0
-602 488 -2682 0
-2080 -1336 -2623 0
1069 -2199 -1726 0
894 2920 716 0
-902 -881 -2685 0
1481 -670 483 0
-2545 1093 -457 0
-2125 -1485 -1319 0
1707 1842 -2001 0
-1981 -2456 1238 0
-2745 2902 -2506 0
2568 1744 -1495 0
-1624 220 1226 0
-312 -1487 -647 0
1975 546 -1657 0
1040 -461 -1752 0
2999 -2353 -1609 0
271 189 1396 0
-2205 1078 1907 0
2889 791 1403 0
-2246 -2151 -1868 0
1316 -2932 2162 0
-1565 2542 1413 0
-1845 2708 -2475 0
-2685 -2014 2004 0
637 364 -2717 0
2304 -2951 -2583 0
-381 2233 1030 0
240 -1592 2421 0
-2343 -545 491 0
-2368 -2821 -2495 0
-2192 101 1142 0
-1173 1126 -365 0
240 2499 2273 0
2304 2467 48 0
-338 1159 1905 0
1806 1507 -181 0
2742 820 1556 0
-1111 -2011 504 0
2237 1172 8 0
-746 1197 2560 0
-2507 2171 312 0
43 534 2104 0
-1413 1435 2680 0
-2649 698 -1608 0
-2718 237 -2587 0
-2601 2832 2013 0
547 -487 2004 0
459 1091 608 0
-2844 -54 2414 0
-2948 1144 230 0
-2270 2493 -1166 0
589 1900 2280 0
-117 2655 350 0
913 -1367 2411 0
-1853 -1185 -1734 0
-577 1309 -267 0
2854 -822 -1073 0
-1536 1007 1661 0
-2446 -185 2123 0
-2517 -2617 2506 0
-2214 -784 2401 0
-1697 -1014 1958 0
2942 2255 1227 0
-1740 -2923 -2518 0
-1699 -1010 -2801 0
-1312 -581 1820 0
2380 -2954 2938 0
-1963 2936 2313 0
1740 795 -2688 0
40 -1361 2073 0
-1347 -2601 2255 0
-1246 -2763 2639 0
427 -2632 -2769 0
-2204 -866 -449 0
-1683 959 -2761 0
-1135 2967 763 0
1211 71 -1396 0
-2723 -936 -2108 0
-91 1383 -1171 0
1865 2724 -2205 0
2401 1453 -2234 0
1026 -1844 1808 0
-2760 -2520 -2303 0
-1 2675 -2310 0
-769 -1884 307 0
158 2354 -902 0
1377 -1157 -2479 0
2367 -1298 1248 0
-1770 203 -2628 0
1085 1453 2505 0
998 -1122 -89 0
-2802 929 959 0
1980 -478 -1917 0
-2438 1195 700 0
-1565 361 -2936 0
-2920 -2749 -77 0
-2010 2409 -2274 0
1603 971 193 0
-1884 -2747 -622 0
-983 2072 1894 0
599 -1017 1844 0
754 -802 2287 0
1160 2641 -484 0
771 -2451 1909 0
-1123 -1444 -629 0
-1911 625 -1607 0
-751 -727 943 0
-1348 1663 -1041 0
-193 -1494 -271 0
-2739 -303 -1765 0
2397 2972 2210 0
-1639 2554 -2476 0
-1503 2076 135 0
715 -2596 2245 0
1277 2300 327 0
783 2847 2376 0
-2853 -1206 -2551 0
-2840 -364 -1350 0
2676 -2752 275 0
2558 773 871 0
2800 -1349 1047 0
-2623 -88 -1474 0
683 901 -2074 0
2121 703 -437 0
-319 -1842 -2606 0
-653 659 -2319 0
458 1926 227 0
1736 -2499 1392 0
1304 -1451 9 0
-780 2238 -1047 0
2455 -2380 -2640 0
-1954 -2265 -2184 0
-637 2802 -1494 0
-1972 -64 -435 0
2667 979 496 0
-1286 1107 1121 0
278 2422 -1724 0
-383 1162 -1672 0
555 1547 1113 0
2466 -1561 538 0
2239 -981 53 0
-351 -685 2922 0
-646 -1248 -2213 0
1747 -1319 2654 0
969 312 -2433 0
2484 2034 -2401 0
-55 383 -652 0
-2161 -2868 1617 0
-1818 1582 -1477 0
-2284 -1769 1406 0
-2178 -28 -125 0
346 -2869 2244 0
-1249 2414 -2941 0
-2573 -2332 2515 0
2289 2628 2699 0
-1282 -2322 -619 0
1781 2659 -643 0
-1487 -587 -747 0
1770 2648 -1238 0
2395 -53 -1897 0
278 -114 -2267 0
-2966 -2963 2315 0
-836 -2777 1243 0
2162 -92 1451 0
-762 -1378 -2212 0
2595 507 455 0
-2919 -1614 -139 0
-2655 2508 964 0
2806 1326 431 0
1748 1234 -23 0
-617 -1261 775 0
-2131 -1028 1064 0
-2607 1402 -1116 0
2476 -324 2768 0
2520 -2364 -2201 0
1026 -2148 108 0
-666 1292 2064 0
2349 1159 2897 0
-1921 -456 1457 0
-1675 677 6 0
1405 326 -1367 0
-664 -356 -1819 0
-2292 396 2685 0
-218 2305 -177 0
1531 1540 -2531 0
-2589 884 -214 0
-1714 -2131 2313 0
2170 409 871 0
-50 2767 -539 0
2209 433 -1443 0
195 -2782 2738 0
2434 1685 -1391 0
-935 1806 2971 0
-679 -2584 -2681 0
268 -2654 -2932 0
1290 1728 2101 0
570 -1961 -1837 0
2015 -2796 -2805 0
546 -1015 2551 0
236 -2204 170 0
1463 -286 -2131 0
612 2756 -577 0
-2036 -1473 2290 0
2634 -691 2066 0
2222 -1853 556 0
1382 150 141 0
-971 -1029 2872 0
-2437 -2398 -626 0
1629 133 26 0
723 -1543 -1356 0
472 1727 -968 0
-230 -375 -1104 0
897 -2771 2500 0
132 -830 -1260 0
2029 1378 2621 0
-508 -1982 1838 0
2740 71 -2275 0
2586 2638 782 0
1631 -899 1424 0
-2527 2856 2474 0
2815 1067 2963 0
-2085 -1820 217 0
-1418 52 2856 0
-2880 2500 -1555 0
1642 -2841 -909 0
2661 -597 602 0
-618 2628 -1761 0
2101 123 -2230 0
377 935 2637 0
246 -1461 2604 0
796 978 -175 0
2823 -2313 -2142 0
-18 184 289 0
1745 1287 -258 0
-1718 -1822 1736 0
1097 2185 -429 0
-1237 94 1134 0
2879 797 -546 0
1367 2688 1294 0
-2596 1213 2375 0
1705 -461 -770 0
2791 2092 -697 0
-1559 -163 -1332 0
-1581 1284 862 0
-1930 2464 -1965 0
2482 793 -400 0
2979 -2288 -1346 0
-1890 2178 2860 0
-607 2097 -915 0
-1955 -1652 2756 0
1539 -2082 2546 0
228 -1286 857 0
-2241 -49 -1441 0
-1489 -647 2671 0
322 -472 -2696 0
17 -1528 -2974 0
-2689 2691 722 0
-1023 -592 1476 0
-67 154 -2628 0
1610 2558 531 0
-1950 -2770 2537 0
-2579 -1350 -875 0
121 -16 2520 0
-2052 2871 -2418 0
-2454 -10 -1992 0
-1821 797 -849 0
536 946 -2611 0
-1312 -2921 -945 0
885 1110 -2122 0
-2195 2218 2336 0
1220 -1124 -117 0
-795 -2020 -1742 0
-2791 -437 540 0
-2072 1141 2736 0
-440 -1695 -1606 0
-1529 -2725 833 0
-2388 491 2295 0
-1003 -1950 -1310 0
-1275 -1936 -81 0
-1164 1080 -1699 0
122 179 -2687 0
2530 -1599 -2468 0
-2019 -2460 954 0
1909 -1705 1505 0
-926 800 -934 0
-2462 2630 -1515 0
-857 -1389 925 0
1859 1397 -79 0
-2602 -1393 1282 0
948 -1599 -1670 0
979 346 -2050 0
2876 -330 -2625 0
-2269 -2998 -216 0
779 260 1832 0
1497 290 -2067 0
-1118 2096 -2492 0
745 -1066 1387 0
720 1488 2917 0
511 -2016 -2735 0
2916 -1568 -374 0
37 100 -459 0
854 2875 -618 0
1691 -2336 1489 0
-2408 -1109 2534 0
2985 2402 -305 0
1527 824 1378 0
-2689 2061 -1417 0
-1106 -2690 1662 0
1309 2947 -654 0
-730 79 -2086 0
-1599 2713 -543 0
97 -1425 -94 0
-1789 941 -2577 0
-1638 -2439 1203 0
-2012 -414 -202 0
-450 -2967 2380 0
819 -2044 -2953 0
-2761 1909 -1333 0
1783 1506 -1637 0
-1727 1983 -1363 0
2972 -552 -2578 0
-956 -1127 -757 0
1024 -696 1862 0
2655 63 1039 0
1769 -1283 -2361 0
2076 -480 -223 0
2834 1154 1362 0
2344 1711 1556 0
1401 -1853 -1561 0
-683 -2544 -795 0
-2774 1085 1254 0
-1011 2429 -112 0
1151 1280 -69 0
-595 2911 -80 0
-1209 -38 -133 0
-240 1224 -1934 0
-501 -992 -1656 0
1283 1222 1631 0
1130 -2708 885 0
913 1493 -1339 0
-2100 -1134 -989 0
2751 2242 -810 0
1998 -1075 -2017 0
492 -1163 -327 0
-539 652 -1784 0
1259 -409 -2968 0
2345 788 -2802 0
2284 -1393 -879 0
-1008 -2386 400 0
1 2782 -658 0
-1303 498 1551 0
1800 -1967 -1114 0
2453 -2519 1118 0
-1080 1964 -796 0
-2917 1652 890 0
2027 2576 -2694 0
-440 -2689 -1002 0
-1637 -683 -570 0
-2997 331 1305 0
1411 1291 -2897 0
1819 1777 -2204 0
823 -2860 -497 0
1856 2399 -660 0
-375 1058 -1524 0
-417 1203 129 0
-666 518 -2035 0
-1897 -1447 -1843 0
1248 -2914 -4 0
-2437 1310 -119 0
-1744 495 -1637 0
-2518 6 2722 0
-2859 2537 2032 0
1487 -585 -555 0
2141 995 857 0
2735 -2363 2057 0
-991 -1951 1777 0
-2108 -1423 997 0
-2291 1457 -941 0
-790 441 -560 0
1438 1353 -1218 0
1834 -2302 1483 0
-2657 2156 1425 0
1731 -146 1952 0
966 -1846 2471 0
-2695 296 -806 0
191 2981 2706 0
-2584 -1545 -451 0
604 -2786 -1936 0
-2359 2530 427 0
974 2975 -695 0
1618 2674 1594 0
-67 -893 1127 0
2118 1151 -1613 0
1038 2841 -2695 0
157 -1480 -2275 0
1609 852 752 0
449 -1809 1494 0
-1414 2043 801 0
-2420 2282 1590 0
-2685 -2535 -1433 0
-339 -39 -529 0
-1915 1779 -1496 0
-981 -1744 357 0
-1092 2938 -2008 0
2494 1237 1276 0
571 2906 -1395 0
-247 442 -471 0
-2870 255 2203 0
1774 -91 -686 0
-62 -2309 -2979 0
990 -2164 -652 0
561 109 906 0
1561 -1708 -1340 0
1200 280 123 0
1373 -1423 -2929 0
2086 -176 2269 0
-1203 189 271 0
-2236 572 -237 0
630 -1521 1219 0
-700 -1794 -2677 0
2483 2290 -191 0
-2120 1649 2254 0
2190 -1430 206 0
1946 -1249 1525 0
-1880 2778 505 0
2251 -935 -1658 0
-1348 -1463 240 0
1176 -237 -1221 0
626 2527 -2199 0
2250 -2290 -2303 0
-1262 2146 617 0
-450 -221 -194 0
2194 -307 -1954 0
2516 -1006 2489 0
985 1145 143 0
-161 -596 -323 0
-1342 2672 1783 0
946 -2345 934 0
2746 -1047 -502 0
-540 -993 -1189 0
2628 1157 -1082 0
358 1029 -1728 0
1825 862 -460 0
2061 -2357 1131 0
-917 722 2266 0
-740 -880 2562 0
38 -1487 -1431 0
2353 1817 -2071 0
-1495 -2871 -2414 0
-2094 417 1256 0
1514 -1765 699 0
-342 1478 524 0
-2067 2963 -1591 0
1133 -1280 1807 0
323 2519 1047 0
-1596 2695 -1865 0
-1028 1011 -1185 0
-2294 -1751 -521 0
-327 -2524 -1414 0
37 -2290 2131 0
1844 2028 -2285 0
-2155 2776 -2931 0
498 645 1399 0
-831 57 1543 0
-842 -2441 1087 0
1509 -2059 -993 0
-2105 1915 2377 0
586 -2727 -2113 0
-287 769 2639 0
1710 -2652 2568 0
1620 -2852 -1819 0
258 -1159 2931 0
-29 -357 1326 0
-1806 -2060 -44 0
2914 -1411 59 0
-2858 806 -1712 0
-14 1729 -1534 0
2983 -2501 594 0
-2876 -2541 2991 0
468 1909 1896 0
-1663 928 -2230 0
1501 781 2057 0
-2040 -2727 -1977 0
-467 800 -1570 0
2913 -291 452 0
-2460 2576 2212 0
385 -1891 -2855 0
-2875 -2692 -2166 0
2887 -2583 -1508 0
-19 1426 1362 0
-417 -2144 1443 0
1415 -177 -245 0
252 -80 -1535 0
-2411 -117 1385 0
1586 128 -2431 0
1035 1584 -2292 0
2005 -1624 -1595 0
-2660 -2778 1771 0
519 -1505 115 0
-1786 -1632 -2734 0
164 -1606 -2213 0
-1868 -429 -201 0
-1183 1947 450 0
1874 11 131 0
345 1431 1025 0
1176 -1503 127 0
-336 -1211 -306 0
-2677 1019 2189 0
228 2616 -314 0
-2130 -925 -1722 0
-104 2084 -2372 0
28 449 -521 0
1528 -244 -1186 0
-147 2192 1838 0
-2305 2873 -2028 0
-1477 -1104 -1191 0
2361 2119 2195 0
-2705 -1685 -1427 0
-1475 421 -1240 0
1648 1594 -810 0
2547 2885 1620 0
-2565 -2461 -2811 0
1147 2692 158 0
2618 -1012 1947 0
48 2663 -1249 0
-1146 1953 -2963 0
2704 -257 -1302 0
-1110 -1566 2171 0
1101 1309 -803 0
-1738 -2179 2310 0
-2185 -81 -2935 0
2115 1971 -797 0
-1945 -2112 974 0
57 -2657 -2489 0
2064 1487 228 0
-1693 -2176 2576 0
2373 522 -782 0
-2950 -1258 2956 0
-1025 1292 2376 0
1483 -2059 397 0
808 363 648 0
-2844 -1206 -725 0
1227 64 2223 0
1786 -2816 120 0
2395 373 2529 0
2480 -1016 1265 0
1545 -2359 349 0
2752 482 -441 0
983 2383 975 0
-1760 -2509 110 0
-959 -1215 -975 0
-802 -2748 1271 0
632 1277 -1561 0
1094 -1572 -1120 0
-912 1010 -2331 0
-1005 683 891 0
-351 -994 2999 0
-462 -1363 -1486 0
1191 -1217 1034 0
-1495 -924 2754 0
1666 2719 -1306 0
520 934 1105 0
-1779 90 -2305 0
-696 2051 1105 0
2990 -1626 -517 0
779 2654 -2180 0
99 380 -1024 0
1894 1601 1666 0
-1768 449 -2972 0
-1850 891 -209 0
-669 2344 -1269 0
2816 2467 -269 0
173 -197 -568 0
-1236 -1444 2986 0
616 2897 1055 0
-2702 1834 2367 0
1037 1669 -460 0
921 2406 -2754 0
-467 -2803 -1115 0
1285 2399 -1443 0
-2173 2272 -2380 0
-2124 -2132 2492 0
-606 -383 -862 0
-1382 -1847 -1812 0
-1275 2579 -929 0
2315 -2438 2599 0
8 -21 1009 0
604 -235 2741 0
-2874 1629 -2493 0
2540 2168 1782 0
-2346 840 2997 0
-1275 2487 979 0
1605 1440 -988 0
-16 -308 2413 0
-371 -229 105 0
-427 -75 -2338 0
1281 -2734 1662 0
984 117 -2508 0
-1598 748 2597 0
-623 -1351 2947 0
-1739 1502 -2159 0
2154 1861 -832 0
2604 -666 2337 0
699 724 55 0
1121 580 -1442 0
-2094 699 2022 0
-2485 2077 2655 0
2387 -1666 -193 0
1447 85 -164 0
-2248 1026 -601 0
-1235 -969 189 0
-2430 2870 2616 0
-2354 447 -232 0
1209 -2877 -329 0
457 940 -529 0
-1924 -82 2664 0
1412 -1457 -1236 0
-2150 -717 -297 0
1280 -951 -1836 0
811 408 -1158 0
2688 -2400 -1008 0
986 -1708 1765 0
2256 -2716 2780 0
2330 -2153 -939 0
-1423 2361 2320 0
79 -1195 2382 0
-2769 -1712 -2465 0
-2045 -2747 2023 0
2586 -633 114 0
-2600 -2177 2101 0
-1257 1808 2540 0
-1778 859 2967 0
-2054 1262 1248 0
899 2840 -2948 0
870 96 -1706 0
2351 2007 1263 0
-1843 1886 572 0
1986 2943 579 0
1715 1129 2870 0
107 2446 2145 0
1003 844 863 0
-173 -1270 23 0
-537 -1418 765 0
1993 1986 -1495 0
-1911 1938 -552 0
-1099 -965 -868 0
2146 -1756 -2930 0
1197 309 -2523 0
2025 2903 582 0
-2042 2569 -2247 0
-2674 2852 -1273 0
254 -385 102 0
-1511 -2461 -2655 0
2468 398 -2173 0
-760 1439 -690 0
1710 1171 -1414 0
2080 1269 358 0
-1167 -2982 343 0
-2936 -852 -2816 0
-1530 -1212 2021 0
2715 2422 -1888 0
2562 -2034 -1672 0
-675 1778 -2118 0
-1742 -1024 252 0
-2725 2011 1443 0
242 1162 -2711 0
1629 -1322 109 0
2840 -361 -104 0
1098 416 3 0
-1469 1536 -1678 0
1158 802 1722 0
440 -551 -1938 0
-1819 -2368 -330 0
-1241 2714 2366 0
-916 1621 -1074 0
-2315 -580 -1222 0
575 903 -506 0
1048 -2778 2186 0
-2152 -1881 2482 0
2795 1751 -511 0
-2506 -2702 -738 0
-412 2235 985 0
84 801 1563 0
-333 -1508 -512 0
-847 1473 2103 0
737 -2379 -2371 0
-2048 2197 -855 0
913 1900 -2502 0
-113 -70 2704 0
1022 -1683 -1526 0
2320 616 1597 0
1861 -1651 -1706 0
17 -785 -1364 0
-891 2432 2123 0
1767 -2597 1300 0
204 -1748 66 0
983 622 -2469 0
-1866 -808 2016 0
552 -2951 2059 0
2623 -2348 2670 0
-1396 217 -728 0
-657 -41 2335 0
-1308 2549 708 0
2518 57 556 0
-1753 2933 2170 0
-1195 1398 -1349 0
-2890 1809 2407 0
-2388 -619 2122 0
-1600 2819 -1673 0
-990 1347 622 0
-475 2563 457 0
2058 542 -929 0
398 -641 1439 0
-2464 -1027 885 0
658 -1406 -453 0
2888 -1580 -2241 0
2479 -2893 -1222 0
-169 -2071 -2739 0
1396 -2595 2540 0
-140 1551 2815 0
443 1561 -2074 0
-239 -2563 -1989 0
-1693 129 -1984 0
57 633 -325 0
2739 -2702 -698 0
2403 -2248 -1539 0
1529 -310 -903 0
218 -2839 1333 0
2603 -2177 -519 0
-1544 -824 -710 0
-1336 -2245 1230 0
763 -1099 2008 0
886 1668 -2737 0
-1732 793 1640 0
2802 1554 294 0
-2123 937 905 0
538 2524 -2844 0
-417 2871 -275 0
1442 -1935 710 0
2628 114 -1201 0
-1338 1059 130 0
2256 -1910 86 0
2047 -1732 -1526 0
1000 1206 -2680 0
-1336 929 -1799 0
2352 2951 2167 0
1633 1962 377 0
-357 -2297 -1089 0
1769 2106 272 0
1474 -2820 -2157 0
1895 -2926 2805 0
-580 833 391 0
-762 670 -2739 0
-742 2100 -2855 0
-1960 -1120 -2942 0
-274 -160 2061 0
-1260 1600 -235 0
-2896 1071 1152 0
1878 -790 -1316 0
-2731 -707 -380 0
2953 399 1304 0
1144 -282 -1376 0
-1257 -2732 2428 0
1369 789 1113 0
-122 -989 -980 0
-1126 1155 1351 0
-2262 2912 2457 0
-1628 -448 -1941 0
81 -206 2829 0
1100 146 -417 0
-1578 1385 1905 0
1903 -1419 1746 0
-2149 1919 -1104 0
-1929 -480 897 0
877 2325 1191 0
-572 -2971 285 0
-1534 1681 438 0
-1983 488 431 0
-1737 95 1115 0
421 1640 -1504 0
-2929 -618 -139 0
-2910 -2244 -1511 0
-602 622 564 0
-2975 1195 -1063 0
1304 2866 -2396 0
2767 42 -1812 0
-1463 849 -972 0
-1764 -1607 -1463 0
-765 -2907 -1278 0
232 1150 1500 0
2 1618 -251 0
-973 -2948 1576 0
-430 1532 668 0
1304 -1558 -76 0
-38 1070 2198 0
-1976 -596 -767 0
2415 186 473 0
2715 -1052 636 0
1149 2083 2711 0
2666 1517 -1551 0
-368 52 2655 0
2395 -911 -1939 0
2078 -1260 -2136 0
-1133 1870 2852 0
-1155 -546 2238 0
1253 -1199 -251 0
-98 -707 60 0
2852 2036 2545 0
639 -724 190 0
-2231 -1794 2109 0
860 558 1927 0
1643 2756 2568 0
-2096 -686 -1261 0
1766 -1943 1911 0
1485 1588 825 0
-742 1839 -2024 0
1793 -2233 1643 0
2687 1654 197 0
-1521 -33 -961 0
-1928 -1836 879 0
-1980 -2232 -1513 0
1199 1321 -2571 0
1748 -1860 -2308 0
-1039 2358 286 0
-1058 -1389 947 0
1880 920 -1141 0
-1565 1643 -1957 0
-2135 -748 2522 0
1138 -946 99 0
614 2293 -516 0
-2138 -2564 -1251 0
-2858 1734 -538 0
2783 -2242 -669 0
-1285 689 -919 0
1327 626 1019 0
542 2532 1399 0
1748 -2418 -1679 0
-842 -1231 -876 0
2273 1448 -2254 0
-1505 2858 -1976 0
-2717 736 -594 0
-1350 -2380 -1596 0
2348 1666 -737 0
2973 760 2185 0
803 -1421 184 0
-2807 -1839 -559 0
-413 587 -2459 0
-739 -1478 -2314 0
1106 -2811 -438 0
-1844 -1574 14 0
2444 147 -2387 0
1843 1933 -2393 0
-410 -193 1411 0
638 -1815 -964 0
-322 2765 80 0
-2122 2598 -682 0
1243 1062 74 0
245 -634 -341 0
-2848 266 2044 0
739 -452 2922 0
862 -618 -1309 0
144 -2621 2064 0
2003 -2719 143 0
-349 178 -2512 0
950 -2304 1987 0
1538 1742 -942 0
-2295 1741 1646 0
2583 -1875 -2709 0
-1524 1884 -1447 0
2703 -596 -1224 0
271 -849 1893 0
2968 -1479 679 0
-2716 -1802 -907 0
1475 1326 267 0
1312 -1147 -2792 0
-2292 539 -2762 0
1876 -2236 2745 0
-2096 -212 2318 0
-2214 -1705 -2470 0
2024 1276 -1343 0
930 2955 -1452 0
-1504 -250 -586 0
603 -672 167 0
2652 -626 -2038 0
-839 2099 -487 0
-1637 -2442 -1741 0
-1004 802 -2360 0
-131 2768 -1768 0
2893 -1007 -2337 0
-202 2841 1720 0
2633 -655 -295 0
-2578 -2771 -2703 0
2309 1497 -648 0
-1677 -1927 375 0
2172 -2680 2349 0
-1716 -1640 2146 0
1473 -243 1779 0
-1022 1102 -443 0
-1023 1572 1468 0
-396 -2304 -1622 0
2145 -2978 2025 0
-2858 265 -1217 0
-650 -2014 1488 0
2725 -1193 -11 0
-2001 -438 -1002 0
225 1822 2810 0
-39 1010 -1776 0
571 -2241 -2157 0
2902 -247 -1856 0
348 17 -1743 0
496 -803 -2453 0
-2804 2365 365 0
153 2757 -2883 0
-1811 -1970 218 0
-2127 -1921 2997 0
2665 2724 -2786 0
1249 -2739 -2749 0
-280 -81 1198 0
-1765 374 815 0
-1348 629 2886 0
-2755 -2047 841 0
402 354 722 0
-169 -576 1597 0
-822 2772 468 0
-1100 -2319 -1183 0
1333 -1095 2007 0
-751 -234 -400 0
1476 2657 -1474 0
2990 77 -1615 0
-2325 -2739 839 0
233 1924 -1914 0
-2680 -91 -1367 0
656 -2917 -1422 0
-1225 1215 -722 0
-2270 -1806 -1889 0
63 2701 2337 0
-127 -1545 859 0
2684 -2843 2121 0
279 1448 1820 0
2168 54 -2146 0
-338 -1119 -2950 0
-404 1045 1421 0
-1100 2551 -543 0
-121 2016 2360 0
-2329 1242 398 0
467 -2022 1121 0
2824 -1437 304 0
2017 2985 -742 0
-1537 -388 -627 0
1877 -2066 2680 0
-1655 2458 1242 0
1552 -1372 -658 0
-2082 -2884 -1415 0
-1055 -634 1290 0
-627 -2888 198 0
-2511 2896 1192 0
-1076 728 -653 0
-1974 257 1435 0
-165 258 130 0
1775 -2717 2095 0
-695 -544 2727 0
966 448 2561 0
-1461 809 1091 0
2244 -2804 -2848 0
2037 2892 354 0
651 2359 859 0
217 2487 -1545 0
-2061 1509 2691 0
980 392 -2353 0
-804 -1875 498 0
2511 -1600 -1247 0
1376 -1029 -2611 0
-2052 -2352 -574 0
1931 -2851 -1440 0
474 -1571 -982 0
1291 1319 2846 0
2263 -2808 -2661 0
253 -1639 -1076 0
947 2594 -381 0
-2522 1173 57 0
2931 422 1128 0
1691 1259 440 0
101 -860 -2629 0
-930 2533 2936 0
-582 -623 480 0
-2678 -49 2329 0
2604 1719 2265 0
-1697 -2120 949 0
-2388 269 -2744 0
780 -1280 -2940 0
-536 -2929 -1889 0
1358 2981 -724 0
-1102 -292 2409 0
2454 -2476 -1555 0
39 -891 2827 0
-157 -821 -924 0
2925 -322 -71 0
-2427 255 -1403 0
1768 2111 1610 0
-2429 -2882 1722 0
1521 -232 -168 0
1778 -1216 1410 0
-1095 -1982 559 0
-1328 217 -323 0
-2830 -136 -2314 0
2257 -2693 -2608 0
-142 1640 1842 0
1123 444 -604 0
1202 2850 1357 0
883 1519 1915 0
2033 526 1640 0
2953 -928 -2133 0
-1037 -49 -2618 0
371 -2851 -1210 0
-2652 -2097 2978 0
-529 -2996 -1023 0
-1517 -163 -1489 0
-2647 35 -810 0
-2749 -1774 -990 0
-1494 -2155 -744 0
-2956 -2344 159 0
251 2896 2061 0
2326 82 -468 0
1246 -1314 2199 0
1940 177 -3000 0
-819 -312 -2987 0
-607 -2854 -1839 0
-2757 1466 2644 0
1100 -67 -2596 0
-1226 -11 -1936 0
-2809 -1185 -1649 0
1137 306 2861 0
1910 -1003 2987 0
36 1665 94 0
2439 -23 2174 0
-2708 219 1262 0
2971 -815 -2564 0
-250 2522 1679 0
884 -1468 2987 0
735 2837 -963 0
538 2298 -2068 0
1048 -22 2314 0
-812 1848 -30 0
1914 2311 -521 0
128 1558 2275 0
-2442 -1013 317 0
-1465 796 552 0
-2553 -370 279 0
-2324 -2104 -1100 0
-231 684 1436 0
650 1614 -504 0
2935 -2554 2603 0
2289 2341 -394 0
-851 965 -624 0
2423 2987 -993 0
967 -2931 741 0
-746 -865 -357 0
-2299 1324 -914 0
214 1288 -2755 0
-199 476 -924 0
969 2092 -2813 0
1784 -545 -2758 0
-107 -146 -2600 0
2035 -2840 -1754 0
-2812 -1363 176 0
1753 2100 2127 0
1744 -899 -1479 0
1069 1736 -2538 0
1214 -386 2078 0
1630 1763 -861 0
-2236 -428 -2406 0
2519 -2864 -2314 0
2158 526 -379 0
2246 -303 426 0
404 -812 896 0
-1353 -1684 1668 0
-685 -738 -1699 0
-629 1186 89 0
2891 1753 -1636 0
2706 -1335 -2918 0
-1835 -2442 2733 0
1051 -1700 2731 0
-1232 1775 1147 0
1098 128 2536 0
463 2410 25 0
-1135 -2618 2200 0
-496 -2357 -201 0
1675 -2150 -705 0
2292 1863 884 0
1545 484 702 0
2859 -2744 -2741 0
-371 596 2654 0
-1836 1560 679 0
-703 2775 -1371 0
1612 2320 -2828 0
2274 -446 -2245 0
-2143 2783 244 0
1359 -77 975 0
-1319 2525 -2073 0
2357 463 -1821 0
264 2737 280 0
-547 -3000 223 0
-241 389 -1393 0
1159 1306 1830 0
1384 145 1094 0
1088 -294 1436 0
-1072 2496 327 0
-2116 -668 2132 0
389 -1294 -1962 0
1719 -2996 1883 0
-2225 461 1298 0
2036 -149 -1342 0
-2952 -2493 -2867 0
-2196 -2605 -1006 0
-1650 1165 2012 0
-2970 -1177 -1654 0
649 -2499 -1349 0
2113 -496 2225 0
-2974 -2001 1913 0
2219 836 790 0
1785 1536 2153 0
789 225 -1935 0
-579 1124 -2037 0
2842 -1764 1986 0
-1169 367 2068 0
-999 -2843 -2106 0
1305 -375 -1778 0
543 -1425 -1955 0
1977 676 643 0
1358 -1742 2794 0
-2457 -1626 2516 0
-270 -719 -36 0
-140 -1265 -233 0
-1568 2912 2633 0
-657 1476 -1776 0
35 -453 -1240 0
1259 2537 -827 0
1720 1736 1540 0
-2842 2306 419 0
-1641 2579 -2491 0
902 1810 -376 0
-954 2854 1126 0
1865 1930 -1116 0
-2442 1206 -1339 0
-2846 -1499 -1173 0
-2068 292 -1822 0
781 1430 -2825 0
2254 -2458 -997 0
-1216 -1277 1384 0
-2838 -1655 -314 0
-1314 -68 -1686 0
518 -2329 2947 0
-1668 -1434 -2881 0
2749 -488 -2566 0
373 2889 -1609 0
2310 -1241 1009 0
779 -2563 2062 0
838 -737 -1955 0
384 1575 1246 0
-108 -1350 2778 0
580 -2785 -1456 0
-1879 -1390 2297 0
-1835 -1399 -898 0
-2060 639 -184 0
2384 562 -395 0
2292 -1916 -1098 0
-1745 347 -2671 0
-29 106 -785 0
2324 -2960 2777 0
2578 -420 918 0
2423 -269 44 0
-2677 761 2220 0
233 -2602 2543 0
539 -2939 2643 0
1509 -1848 1265 0
-1517 1323 -1080 0
-804 2439 1645 0
1422 -328 -1976 0
-1403 -2460 -604 0
-345 1821 -472 0
1836 1129 640 0
2315 2953 -149 0
470 -2159 961 0
47 2366 -2346 0
2315 -6 926 0
-2227 -2468 803 0
-1597 2654 1220 0
-2959 -385 -1205 0
2884 251 -1707 0
-2551 -2671 -2596 0
-2928 -2252 1072 0
2270 1067 -2906 0
2099 841 -2526 0
408 -199 -1162 0
266 2425 -688 0
1554 1159 -1607 0
-1424 -424 -2530 0
-2692 -100 -1657 0
-2719 1352 -2782 0
1213 2179 511 0
2041 1433 2197 0
-1354 1050 415 0
-51 -2814 818 0
-58 1743 -655 0
270 2344 2949 0
614 616 2558 0
2385 460 2257 0
857 -103 -221 0
129 -1510 2625 0
771 2868 -2656 0
-560 -1467 2724 0
2771 -3 -449 0
-375 -2524 2714 0
1945 29 -2532 0
1973 -2349 2774 0
-785 -2850 -1133 0
1950 1025 2111 0
-1233 -1780 -2426 0
-2998 -152 533 0
-388 -1946 565 0
2924 1208 -2903 0
-2724 -357 890 0
2190 154 1254 0
1335 -1151 2741 0
227 1164 -1269 0
1306 -1107 -526 0
417 40 -2878 0
-363 -1524 -226 0
-2789 -1284 1638 0
1982 -1234 1214 0
-1553 -1522 939 0
1221 -1548 1101 0
-2774 2078 -1440 0
-2697 -1449 270 0
183 781 2703 0
2451 1963 -2412 0
-2160 144 -1003 0
29 -2449 -1239 0
933 1914 -1407 0
962 -2686 -1517 0
2484 -423 1200 0
1616 2376 2477 0
-844 -1499 883 0
348 1738 -291 0
167 2055 -1977 0
2935 -2931 2097 0
803 -2862 1146 0
2340 595 -2551 0
2037 -2767 1793 0
-2543 -2396 -421 0
1999 -1443 -1004 0
-1017 303 -2181 0
-1983 2812 -337 0
2401 631 2551 0
690 760 1535 0
411 -2501 2956 0
2028 -565 1083 0
-280 -911 -949 0
1161 1009 -149 0
963 1240 -544 0
-2333 -2664 -1096 0
-1049 332 2529 0
-2946 -1284 -2184 0
2127 1543 913 0
-2258 -127 -1328 0
2733 -350 -33 0
1079 -995 2211 0
-1517 -2297 -1874 0
-1026 -17 542 0
-2515 -193 -562 0
-2591 -542 -1181 0
-1447 -2507 2551 0
-518 1918 1673 0
2519 332 2839 0
-8 1451 -1681 0
2799 1168 -2537 0
866 -406 2611 0
-950 671 -2107 0
1718 -1862 608 0
1519 1200 1216 0
-775 1765 697 0
572 2726 -657 0
2269 1624 -2877 0
2809 36 1958 0
-1058 1384 1513 0
-2595 437 1612 0
-2055 1384 2199 0
-947 1054 -1218 0
-2899 -1905 -374 0
-182 -2533 -2701 0
1574 854 -2050 0
785 -2868 -1190 0
-1051 1631 2882 0
-2005 1563 -1989 0
-1349 1677 1981 0
2608 2901 -2758 0
-2315 -198 2913 0
1972 229 -1667 0
-2753 1527 -1001 0
-936 -2774 -663 0
1397 1568 2663 0
1804 -2948 809 0
1833 -2662 -1293 0
-1885 -943 -66 0
2614 -2960 -735 0
1975 685 45 0
-1453 975 -670 0
-1188 -615 2520 0
814 1689 -116 0
894 552 -1502 0
-2534 -581 1269 0
1493 467 -2907 0
2604 -1005 -725 0
-2996 2216 1676 0
-2595 -2860 2890 0
1578 2838 1536 0
2884 57 1282 0
-1476 -2267 2721 0
94 -2987 2318 0
890 -1600 2962 0
1100 -1468 2313 0
-353 -128 -1282 0
2877 -425 -1193 0
-892 2374 -1066 0
-1598 2790 -1274 0
293 -448 2884 0
2713 -1641 -1142 0
2572 1965 1582 0
-438 1195 -2013 0
-2536 -2489 -2693 0
2757 -397 475 0
2950 651 -793 0
-304 -2440 292 0
177 -2214 698 0
2383 2586 1147 0
-2369 -2498 235 0
-1112 1070 2261 0
-885 -921 -2267 0
1765 2377 -1442 0
-2502 -1043 479 0
1754 467 779 0
2159 -505 1403 0
-288 969 2159 0
-2644 -1268 304 0
70 -2180 893 0
-2392 -2878 -2962 0
98 -2607 2509 0
281 2186 -1440 0
-81 -113 2763 0
2337 1175 2387 0
2307 2168 240 0
-2267 1178 1717 0
284 290 2229 0
363 -846 1488 0
2748 -817 2482 0
1391 -1178 2430 0
-660 1093 -62 0
-2725 -2705 -2586 0
2950 -2552 -878 0
158 909 1183 0
2918 2906 -2586 0
-1278 1316 552 0
-273 -507 -619 0
-1838 -2206 -2899 0
477 -1483 1076 0
-519 -1712 -1574 0
-870 1328 1892 0
49 2676 1935 0
-993 -1377 2104 0
2319 958 1211 0
-450 26 -2192 0
-1762 2609 1626 0
-804 183 -413 0
2788 347 233 0
-1845 -45 2438 0
-2508 1006 503 0
-927 -1273 -1275 0
-1006 -922 -805 0
1956 -451 -1165 0
-2033 -2343 1005 0
121 -1033 -1434 0
-1625 2744 -2400 0
-470 1631 -511 0
-2075 740 -2649 0
2509 2191 2378 0
2178 2875 -2844 0
1518 636 1616 0
-91 -1479 -250 0
2572 -1510 -2824 0
-2692 -2456 -2611 0
-2980 -223 2678 0
-576 -2850 -120 0
-1744 -2386 -1460 0
-2380 844 1572 0
1068 98 -2033 0
-1041 271 85 0
-2727 1904 -1552 0
-98 533 -1264 0
1036 -1613 169 0
1673 -973 -230 0
1356 2018 604 0
559 -2083 2236 0
1281 -2209 -1043 0
-2027 -1574 -123 0
468 -2090 2646 0
1198 -1763 269 0
-653 -259 -133 0
1454 -712 -968 0
2408 -80 -827 0
2551 -1392 -1050 0
-2190 2490 -127 0
-2383 1853 -970 0
-286 -1931 -1469 0
2693 -1403 -1899 0
1487 2688 1742 0
-658 815 1816 0
-1546 -2270 -1260 0
2169 -1945 -1870 0
1556 -2381 -1512 0
-1997 1538 -1475 0
368 147 952 0
-1708 -2043 -1672 0
2332 -1957 51 0
-1749 1459 425 0
525 -1295 2369 0
1485 -2743 2943 0
-2200 2787 -1439 0
-2250 370 -485 0
338 1351 869 0
-2276 2679 1592 0
-1358 -490 162 0
-1730 -819 2764 0
1193 -1679 1870 0
2960 -1034 2851 0
-2178 -421 2708 0
683 2578 1818 0
766 1961 -1393 0
-2301 2469 1742 0
1035 1909 2456 0
2919 701 803 0
-1658 1333 390 0
-2074 900 738 0
-983 -2947 2611 0
744 1140 2330 0
1228 -2345 -1303 0
-406 190 -1950 0
150 -1084 -2299 0
-2996 -251 -2357 0
-2028 -937 2525 0
-2628 -1725 -2167 0
-1172 876 -2141 0
2398 1248 2123 0
-74 2807 1149 0
-632 -142 -2719 0
2576 1917 430 0
-42 2098 -1799 0
133 -1366 -2931 0
-1354 -705 -1938 0
1697 -2126 2337 0
-1238 1542 -1570 0
2341 -848 -2119 0
-837 385 -567 0
-2211 903 1461 0
872 505 298 0
201 -2128 2057 0
-570 298 602 0
2696 122 1685 0
1544 2620 -1301 0
1630 1609 -167 0
-1938 1294 2062 0
-2026 -1907 901 0
2437 -62 -241 0
-2838 -1805 838 0
65 -2925 -263 0
694 -2541 419 0
-629 2434 2865 0
2426 -388 1351 0
2376 -1482 1850 0
-684 2234 1188 0
-2479 1666 -2567 0
-2809 -1780 658 0
-1622 -3000 -300 0
-1527 -1677 -2556 0
748 -1670 -1356 0
-1522 800 -2459 0
1227 -801 -87 0
1412 2847 -1379 0
-702 -743 -2284 0
1369 -2297 2418 0
-843 2857 1412 0
-128 545 538 0
-1483 -1087 151 0
673 860 -2571 0
2209 -484 -613 0
1886 -624 979 0
2411 -2110 2731 0
-1076 2724 177 0
-675 -974 722 0
-2947 -2430 -1313 0
1020 1380 829 0
783 857 -840 0
-2120 -2909 -2769 0
2916 1815 1264 0
2283 593 444 0
2510 2970 2778 0
-1295 -1940 -2244 0
788 -2144 -941 0
-2050 -2337 -2722 0
1346 155 -1693 0
514 -1627 2231 0
-52 -206 1522 0
710 358 -844 0
2660 -1024 84 0
-1883 1585 2446 0
639 846 1358 0
-2037 887 2839 0
-1305 387 2711 0
2056 2031 1785 0
2749 -2600 192 0
-327 2623 2254 0
197 2653 2589 0
1289 -1928 -2693 0
-1441 1162 -1621 0
2441 -2885 -1565 0
2975 2307 -918 0
-1695 -2771 -1415 0
978 -2997 1840 0
683 2374 2280 0
2276 2236 -1844 0
2078 940 2380 0
2387 -111 -2533 0
-1677 928 2953 0
-484 -2422 -19 0
-1046 -835 -20 0
881 2274 1867 0
-2272 -1106 -553 0
1269 1251 822 0
-2632 -1502 837 0
532 1034 2424 0
2322 -1088 1289 0
-42 1516 -236 0
-304 -164 -881 0
-222 -2579 -1186 0
1739 -1486 1149 0
-872 -785 -32 0
-2904 859 -1598 0
-355 2033 -2702 0
-151 2553 -591 0
-2433 2206 -2209 0
1582 705 2238 0
-2944 -1286 -2480 0
-1658 1310 -2974 0
729 205 -447 0
2461 -2039 -1597 0
-815 -2659 -900 0
-1905 -2242 2652 0
-106 -807 -1000 0
-665 825 1160 0
741 -1924 -677 0
-1952 516 808 0
2165 991 -223 0
209 2896 -2540 0
-1923 2711 -2515 0
-2468 1708 -83 0
-1723 2579 -1623 0
-613 -1091 2483 0
-1798 -2413 -1767 0
52 29 -163 0
-1073 643 2894 0
-2625 -551 1042 0
1132 2977 -2419 0
161 -340 -1897 0
-1153 2755 -846 0
102 -2522 -1397 0
716 17 524 0
-975 -1207 1026 0
2147 2303 589 0
-1467 -1638 -2764 0
-2985 -1536 -104 0
-29 1840 -1829 0
-441 2968 -653 0
-2023 -2493 479 0
-1418 1263 -2594 0
-2825 443 2883 0
-1923 1096 1865 0
-2835 2993 -163 0
2492 1612 -2925 0
1718 1850 2200 0
2435 1149 2837 0
212 440 -2244 0
319 2260 1977 0
-288 2453 -1843 0
-2673 -1976 -1557 0
-2038 -1300 158 0
-2480 1616 471 0
2344 -407 2002 0
963 -2649 1962 0
-2292 2251 -2153 0
177 2294 -2755 0
-2506 -1019 -808 0
-2573 -119 1010 0
-2913 2409 -2110 0
301 2729 -2990 0
-705 -174 471 0
-585 2425 2152 0
-1535 1402 2961 0
-1855 16 -2646 0
-2895 2192 5 0
528 1608 517 0
2425 1070 -423 0
1909 -945 1822 0
-1876 -1871 257 0
192 -1464 -2620 0
-1518 2232 822 0
-1508 1225 320 0
-2453 -229 -2763 0
-1785 -2070 1988 0
342 1767 -2367 0
-1501 -2089 258 0
1279 449 -1175 0
-1973 -1856 -1792 0
-9 -1890 2225 0
-2340 2154 317 0
-1554 -391 1519 0
2365 2937 2928 0
230 -1565 -2900 0
-2166 -298 904 0
25 -2944 2073 0
-2177 -909 2624 0
-2300 -2968 202 0
-1671 353 -920 0
-1715 -2149 -428 0
-1721 1763 -866 0
-1186 2892 -425 0
2637 2926 -328 0
-85 -2079 2076 0
-58 1935 -1196 0
-188 -2999 2947 0
-2079 -103 2457 0
-1659 1468 118 0
-1653 -2260 -1676 0
210 -2227 2486 0
-628 217 -2251 0
2392 -1756 -905 0
-1628 -1597 -17 0
-2949 1615 -2785 0
-1999 -854 962 0
2192 -1061 289 0
-1307 -2804 -49 0
880 -2523 1913 0
-1066 -438 212 0
2101 -282 -1868 0
-379 2453 2809 0
-1590 572 -25 0
604 815 -459 0
-1433 1245 2080 0
1610 -2529 1252 0
707 -1676 2247 0
2658 1444 1630 0
-839 715 -2055 0
-878 1919 -1768 0
1215 -2474 140 0
-1579 1857 -1015 0
-1004 -468 -901 0
2474 2261 2649 0
-2985 -315 2054 0
892 28 -2128 0
-792 1199 -419 0
1321 -1272 1348 0
-1658 2779 -2714 0
-1990 -874 2151 0
2355 756 -120 0
2876 -87 1014 0
2310 921 2665 0
-1115 -1693 -2321 0
1552 -834 233 0
-2897 -568 521 0
-269 342 -2037 0
-1530 501 -2178 0
-683 -137 1369 0
-1237 -72 2457 0
141 -1688 -507 0
1343 307 1667 0
2159 744 -1407 0
2187 252 1968 0
2114 -2793 -868 0
2111 1238 -2886 0
2083 -975 -1268 0
-2650 172 567 0
2356 2737 -464 0
-627 897 -1429 0
390 398 2547 0
632 2101 2812 0
-95 1704 -259 0
-1252 1387 242 0
2386 1549 2806 0
-2936 -337 -589 0
-2669 -1241 848 0
-1173 -1536 -262 0
72 2820 -840 0
2867 -407 679 0
784 -1859 -1732 0
-2156 -1916 499 0
-2884 1865 2802 0
709 -799 1617 0
1914 -256 1199 0
2835 -574 -2800 0
-1620 943 2898 0
84 2998 -1847 0
-821 -805 1973 0
-678 -1679 1608 0
-1537 1079 -334 0
2334 -2321 -42 0
-1486 716 -355 0
-1771 -2790 1406 0
775 -2835 1943 0
-2392 -1275 -1005 0
-1308 2979 2202 0
-2168 -2219 -1336 0
-2433 -931 -2292 0
2182 -1176 1718 0
-1061 2085 -575 0
-722 1704 1484 0
1000 -916 1605 0
-2190 -1678 2320 0
618 -565 -2445 0
-890 -1364 2201 0
-506 -1975 2630 0
-1073 -599 1034 0
732 745 -2032 0
248 -2888 1207 0
-1515 2509 -2356 0
1207 2627 1228 0
916 -843 -2394 0
1326 35 -244 0
-2956 2650 35 0
2682 1137 743 0
2912 2352 323 0
113 -108 968 0
-2644 -2782 -472 0
2216 2022 -120 0
1099 -2231 749 0
1523 1366 2801 0
2760 29 711 0
-358 2249 -505 0
2892 -1981 2269 0
1715 1709 454 0
621 2624 1806 0
463 -612 -2007 0
-1838 1132 -2775 0
2733 -468 -2429 0
1107 2632 526 0
1253 -287 -2149 0
1509 -28 2343 0
-887 -2760 -1040 0
1694 1449 2915 0
1510 1197 2928 0
1003 1430 154 0
1676 2888 2611 0
2980 -2811 1102 0
2501 915 208 0
1959 2265 1149 0
1750 1733 47 0
960 672 684 0
-966 -2545 -599 0
-607 -1289 1397 0
1818 1154 -474 0
2312 2727 -414 0
-248 -851 2018 0
-1805 724 779 0
-2024 2410 862 0
-953 1541 1398 0
-1696 1745 -1607 0
-1626 915 -1061 0
-2969 -332 2925 0
-1149 -1344 -571 0
-2654 1067 1810 0
-2388 -83 2784 0
2120 1805 -399 0
-305 2055 -223 0
-2533 -1699 -2118 0
-1743 1004 -688 0
-654 -415 2632 0
-2002 -582 -27 0
2887 2708 142 0
-1380 699 -641 0
-1393 213 -1250 0
-2116 -342 1566 0
2774 -2061 -92 0
758 343 -2113 0
1373 855 1362 0
-1431 -2601 445 0
-2878 -2595 2056 0
-2951 107 -673 0
1245 -1917 1566 0
1504 -2428 1301 0
-2525 1030 -106 0
-1050 -2657 -898 0
-1579 -2713 1085 0
2967 -1405 -766 0
-2743 -2653 1499 0
-1970 -2716 1486 0
348 1126 -151 0
-1873 664 2746 0
1777 1512 1452 0
-72 -184 1777 0
-523 -1937 -699 0
-1318 1247 -45 0
2302 -2624 -2625 0
555 2957 2782 0
2539 1731 2004 0
-509 847 186 0
-417 593 -1449 0
2855 -755 -2805 0
-2387 -1660 -1619 0
-2791 -1110 984 0
-367 -2663 -1743 0
-800 -465 -1431 0
-2629 398 1174 0
-1383 -1711 761 0
-1070 -2804 1501 0
-1929 2162 2965 0
93 -172 -1983 0
2053 494 2134 0
-1817 2820 2291 0
1802 2610 2853 0
2704 760 -1136 0
2791 -2302 2355 0
2517 2800 750 0
-1304 -834 -911 0
976 -1045 2088 0
-119 2080 -1666 0
-2350 2712 -2817 0
2882 -324 1845 0
-1884 -2004 -2548 0
-2846 -2400 -754 0
-714 2910 2838 0
1738 1569 -28 0
-776 -20 -2052 0
-1916 -561 -1235 0
-2515 1681 -1529 0
564 -316 -2195 0
-125 2 262 0
2891 105 1745 0
-1505 -1465 40 0
-2605 2036 831 0
2146 -2105 -2697 0
-2795 -40 1083 0
1332 799 478 0
496 -2199 2870 0
-1746 -1435 1000 0
-1113 39 1496 0
-1269 -524 2566 0
2180 889 518 0
2569 2355 2660 0
98 -2961 -2739 0
-2422 2314 1495 0
515 -2405 -2890 0
-1177 -1592 -855 0
2577 1181 -162 0
2449 -2859 707 0
-2769 1638 -2092 0
137 -590 2013 0
-1398 -878 -1601 0
-542 -899 1550 0
2994 1625 -1178 0
-266 44 -2111 0
2321 -134 -1833 0
-835 1584 -2216 0
38 1672 -50 0
289 1561 2348 0
863 1785 -944 0
1441 -1534 33 0
741 -1677 -1567 0
750 -2830 -1297 0
2562 112 1109 0
-350 1385 211 0
1522 2399 2550 0
43 1562 644 0
1515 -2700 -1562 0
1742 2270 -839 0
1139 -2284 -1665 0
-1330 720 -1308 0
1557 -117 1671 0
-949 451 -131 0
-1892 608 -447 0
-1679 2452 831 0
-139 877 -1288 0
-2546 2663 -2864 0
-2732 100 1901 0
-2899 36 -1363 0
943 -1363 -2269 0
-606 678 2305 0
-2589 131 -1808 0
-1799 -1133 -740 0
-2475 1700 -2959 0
424 -2809 861 0
2277 -2593 -1433 0
-2784 2957 -2581 0
619 2379 -798 0
2685 252 -2462 0
803 666 -764 0
-1725 -925 -1031 0
-1552 2733 -1497 0
1950 318 -526 0
-2723 2544 -1655 0
1566 1321 605 0
261 -1367 -91 0
998 356 1456 0
205 2551 2557 0
-579 -2087 -1203 0
2878 -189 -1121 0
1825 -1699 1262 0
2054 -1075 2972 0
2916 2675 218 0
1895 -255 -2010 0
1634 -674 2184 0
1040 1911 -795 0
-1358 -2431 2289 0
-790 -1585 2635 0
-312 1226 785 0
2714 761 2350 0
646 -1620 1467 0
330 -2756 1586 0
-1770 -2882 -538 0
-2730 -1596 -724 0
-13 2922 -2642 0
706 1933 -427 0
-1475 -350 1556 0
1004 -562 -1660 0
1474 -642 -2801 0
-864 -1270 -2866 0
-1407 -89 -1140 0
2722 279 -2481 0
2256 2846 -1121 0
-2093 146 2811 0
1339 2545 1920 0
-2125 444 -31 0
-524 1369 954 0
2255 2335 2748 0
-1848 -1378 1685 0
974 -1071 -1070 0
-2261 2506 -439 0
-634 979 248 0
1286 -2342 -1499 0
2265 518 -2936 0
2645 1432 -1468 0
-617 1825 1914 0
-1635 -2163 488 0
-655 -283 -777 0
-2816 -20 -1675 0
1591 2515 1329 0
-2665 2490 -2031 0
824 1405 1277 0
-450 1736 -2866 0
2860 1028 -1562 0
1037 374 -1490 0
-2122 -854 -174 0
-2629 2812 1747 0
1279 -1913 2204 0
1692 449 -2275 0
826 -2410 -1796 0
-1549 1641 -1747 0
-2311 2687 104 0
969 -2323 2907 0
-527 117 -2850 0
1992 46 1691 0
2690 -51 2830 0
1746 1436 984 0
1197 88 1884 0
-1538 2872 864 0
1636 -2729 1610 0
-1991 -512 505 0
2299 -935 -2377 0
-1732 1500 2940 0
1320 59 -2465 0
1234 -21 -1242 0
-921 2087 -1015 0
-1856 1820 2074 0
-896 -2715 -1339 0
-1931 220 -1528 0
-1154 889 1274 0
146 -2532 1636 0
-2855 -365 -463 0
-2851 -1466 -1367 0
-1389 -694 1535 0
1305 -851 -2562 0
-1747 -2378 1086 0
-1412 -1084 -1589 0
615 -2103 2692 0
1894 254 178 0
-2819 -2772 -1616 0
1019 1104 1158 0
2545 402 -2353 0
1001 -804 -2699 0
-911 -344 -2094 0
-1018 -1361 767 0
1382 2033 -2253 0
95 965 -2585 0
2239 2039 879 0
1015 -2305 -1392 0
485 -1464 1841 0
2047 -1805 1824 0
717 -1769 -2722 0
1552 -339 1180 0
659 2987 -2052 0
724 2971 1564 0
-2419 1515 -1256 0
2073 599 2060 0
2072 186 -66 0
-319 1198 -559 0
-342 -671 2632 0
-1286 -1804 242 0
-2939 1246 -2164 0
-703 -803 -2835 0
-1836 -2855 -2557 0
1605 537 2335 0
1132 -2081 2230 0
1178 -1275 -380 0
2000 -2580 1387 0
-1843 -1952 265 0
1051 2207 -1155 0
-1352 -392 -1609 0
2420 -2416 2791 0
348 2250 -2436 0
2523 -851 598 0
2752 687 1576 0
1228 1335 1383 0
-365 -1183 483 0
-191 -1453 -2367 0
-1800 847 -1402 0
944 1948 -1836 0
-684 1255 -487 0
-135 581 477 0
2757 -451 -902 0
-2511 161 56 0
-2950 -66 -1388 0
1510 -2678 -1689 0
64 -1251 -2060 0
1157 -2868 1827 0
2803 777 1144 0
2259 -1412 -2344 0
-145 -1964 239 0
-2729 -2059 -2112 0
2424 -2396 -2999 0
-1523 77 -56 0
1484 -1556 1575 0
690 1149 -1788 0
1239 1285 1096 0
724 -680 2702 0
-927 -2240 -1885 0
439 727 -75 0
-1214 -1091 2734 0
1962 -44 -438 0
2577 129 2380 0
-2382 1820 -2421 0
-2202 2730 1983 0
390 -1698 -683 0
2439 2310 638 0
-2695 2626 -98 0
-2502 -1519 1629 0
-1596 828 -2065 0
2306 -1160 -1818 0
1871 -1939 -979 0
1835 -2386 -881 0
3000 1207 -1187 0
2933 -638 346 0
-2642 1997 -1127 0
1935 -1783 2766 0
-278 -2010 358 0
-2528 2674 1557 0
2581 -2856 2724 0
2528 392 929 0
1221 -2234 969 0
-462 -2886 -116 0
-508 2280 -392 0
2484 -2971 1550 0
8 224 1130 0
-1656 -315 2766 0
1468 -1714 -1617 0
-599 1540 1935 0
1842 943 -1782 0
-281 -1178 -2848 0
-2410 -2732 2696 0
2930 2458 2800 0
1297 -2077 -1725 0
696 2937 -572 0
-1239 -2529 2007 0
2941 2544 1048 0
2045 -384 -1789 0
-1577 707 -2330 0
2494 1081 548 0
1361 721 1178 0
1133 -2868 2004 0
2730 637 1492 0
2928 2390 156 0
2128 771 2433 0
2806 -741 -289 0
-908 -1214 2762 0
-44 2719 -2571 0
1373 2646 -1416 0
317 1454 1396 0
1662 -1825 1216 0
2606 1817 1252 0
-2890 724 2073 0
-1733 1244 2867 0
-1175 -1982 2921 0
-1813 1242 -2012 0
-652 2156 1831 0
794 -1426 -1158 0
-130 2940 2849 0
-2006 2083 922 0
2855 -829 915 0
1443 1500 -2384 0
2532 -2197 88 0
-456 -2015 -2767 0
-503 611 1631 0
-855 -378 278 0
1922 663 2926 0
-135 -2819 350 0
1091 -1165 -2964 0
499 -1986 -1305 0
-1225 -1901 2880 0
2325 919 561 0
-894 140 280 0
704 605 1946 0
-809 2461 -2894 0
-1959 -1117 2725 0
-467 829 2079 0
-1454 -2874 -1443 0
-983 -141 -1339 0
-2017 1751 835 0
-294 -960 2627 0
953 886 2669 0
1762 1726 495 0
-2763 2452 620 0
1896 2798 -1040 0
801 -304 1131 0
1470 -1160 271 0
-2601 -402 98 0
-2715 -2445 1118 0
-1585 1180 865 0
2325 -2814 -634 0
561 2403 2182 0
2498 -691 -881 0
1657 2068 2806 0
-1439 2886 1430 0
-2595 1355 -1656 0
203 -1179 1926 0
-2486 2637 2398 0
423 548 18 0
2470 -223 1069 0
1702 -1260 -127 0
2054 -1253 -2478 0
-2091 -589 749 0
-2211 2021 1111 0
-2464 803 -1530 0
2375 -1363 -729 0
-2875 -2979 -2151 0
551 1702 1057 0
-952 -2208 2214 0
672 2917 -778 0
306 2109 2720 0
1748 -1638 800 0
-1946 -1048 -1402 0
570 -1588 848 0
-136 2337 -511 0
-1903 1785 -2615 0
1082 2624 -2922 0
-92 2191 -259 0
-1836 1912 1714 0
1159 615 -1294 0
-901 -2138 1957 0
780 384 -2809 0
2448 601 -1982 0
1562 -1319 -2039 0
2003 1005 2425 0
2948 2891 -1514 0
-378 -1673 -457 0
-2932 -2761 -1917 0
-968 1168 -2980 0
1387 2408 2151 0
-2418 401 -179 0
785 -2280 2521 0
2176 -2361 -242 0
-2834 1515 1673 0
522 2525 -1703 0
-1524 -853 -1353 0
-74 848 2063 0
1133 -1954 -2514 0
-399 1984 1749 0
-1542 -2418 2777 0
-1401 1620 2282 0
978 -469 2209 0
1054 2239 -1885 0
-943 -697 -1690 0
-191 -2073 1637 0
2070 -190 -2875 0
2564 -2239 -1031 0
-2704 1754 -1108 0
1372 1730 -1733 0
419 1746 822 0
165 1167 1388 0
-1910 -2598 -1962 0
2748 513 -110 0
1331 -464 -1358 0
-833 -1445 -421 0
2306 -2848 1106 0
-959 -2839 -2943 0
1318 -325 1905 0
2311 332 -1314 0
-2980 -1601 705 0
1355 1828 -126 0
-1593 1618 -270 0
2812 2324 1788 0
1684 1092 220 0
2012 -2923 -1202 0
1043 -394 -1872 0
-937 -2614 -116 0
-2446 215 -729 0
-886 864 934 0
1764 2361 -1254 0
1116 538 1699 0
2088 1868 -1784 0
-1260 -2178 -614 0
1474 -2301 2875 0
43 -1368 20 0
248 -1625 1593 0
-918 382 -1152 0
-2034 1192 63 0
1813 -313 921 0
2135 589 -608 0
-1498 -1964 80 0
-2405 906 -1352 0
2954 524 -675 0
605 286 -2868 0
2809 -2864 1116 0
-1593 1235 -1085 0
-1595 2978 1944 0
2331 1759 2492 0
50 -682 -316 0
2412 984 -2188 0
-193 1156 -1889 0
-1082 401 662 0
324 -192 276 0
-766 44 2529 0
-895 -2662 -724 0
-997 661 93 0
1380 -1675 -749 0
-2296 -249 95 0
2850 -1934 -445 0
1237 -665 -675 0
1155 -1137 -2397 0
1297 -987 1687 0
2238 2023 -1043 0
-1079 -503 -2071 0
-404 2535 -2146 0
-2218 571 -2449 0
412 -1293 -1661 0
-932 631 119 0
-2579 -2075 227 0
60 787 2065 0
110 -715 227 0
252 2699 -1903 0
2315 169 2822 0
-171 -610 -2137 0
-1196 -808 -617 0
850 -1690 2819 0
-748 243 -2868 0
1723 539 391 0
2821 733 2465 0
328 -2912 -2304 0
1535 2930 978 0
1354 -1688 48 0
-1115 -2281 -141 0
-2111 -2791 -407 0
21 1297 -163 0
-2868 2966 -2655 0
-1615 2484 1970 0
-531 -2668 1700 0
1183 -1996 248 0
-557 -587 -2457 0
-1187 1265 1281 0
773 -1636 952 0
1454 1438 1911 0
485 -1681 -278 0
-2529 2608 -2029 0
-1087 -2769 -1116 0
-1298 533 -2816 0
-2069 2967 -2640 0
-2315 1134 -2124 0
-2504 -1652 1045 0
-619 2864 -2265 0
2922 -950 -37 0
-518 -2670 -1492 0
113 2955 805 0
-1909 595 -459 0
2587 -2705 2758 0
1442 -138 65 0
29 -998 -719 0
1133 1480 821 0
-155 940 1892 0
2170 -679 -975 0
870 1404 -484 0
-190 1177 -243 0
-2480 -1300 2860 0
492 103 -944 0
1646 -135 -494 0
-1755 -2248 1691 0
1002 -2109 -2981 0
-2547 -814 -292 0
-595 -2029 1641 0
2891 1097 -2926 0
254 2762 -469 0
-1234 1798 351 0
-1148 -2491 329 0
348 2844 -594 0
-1104 -1377 2995 0
-312 253 -2773 0
-2754 24 -2537 0
129 -2833 -694 0
-470 2388 1476 0
1810 33 -1004 0
-107 1764 3000 0
-233 -1920 -1508 0
2640 1376 -1471 0
-1924 -2994 -2348 0
-2479 -356 -527 0
208 2114 1620 0
295 -35 -815 0
-872 -1100 -2668 0
2614 1907 1185 0
-1916 -1559 -2318 0
2291 1730 -2189 0
-2489 -2733 2035 0
-1493 -1318 -1982 0
-368 -1247 1835 0
350 -2689 -791 0
-270 -1868 -830 0
-1015 2680 1056 0
-2810 -1358 -887 0
2566 1695 -585 0
715 -618 2213 0
-1518 2597 613 0
-960 -2373 -2362 0
1477 -821 -1499 0
-1664 -64 1765 0
2314 -1926 150 0
1120 771 210 0
364 -510 -171 0
1784 2599 1576 0
1116 2270 -2886 0
1048 812 -1076 0
-1638 1725 -1613 0
1623 -2256 2703 0
-2792 -1498 856 0
1803 458 2586 0
871 2891 1577 0
-2757 2878 642 0
-2289 -73 696 0
-520 -674 -2553 0
2798 -565 -1843 0
-1897 276 209 0
1225 2305 1971 0
-58 -1587 -1874 0
-1293 -2969 -2705 0
1194 2687 1660 0
1241 713 -2943 0
1052 -1270 -2563 0
-1327 303 -1400 0
2336 -375 2493 0
-54 2068 1426 0
-278 2073 -311 0
2043 -1785 890 0
-2231 321 2966 0
731 -540 -1501 0
-2425 942 385 0
-229 1063 2307 0
-302 -442 -109 0
2919 903 184 0
-2894 1852 610 0
-157 537 2968 0
2411 832 -807 0
2923 -1323 2688 0
1570 -2371 2892 0
1701 2871 -1131 0
-1102 623 -1499 0
-1819 2704 -908 0
-907 -855 -2245 0
675 1149 -1362 0
2837 -527 -320 0
2403 -853 -2826 0
-597 289 2513 0
936 2134 164 0
1206 -2824 2513 0
-1637 -2558 1864 0
2425 288 814 0
443 2086 -2409 0
234 2170 2964 0
790 1033 -2488 0
2817 285 1375 0
-2417 2914 -2327 0
-2193 -28 1249 0
-2839 537 -2581 0
-2337 2386 2261 0
681 1675 -1525 0
2292 2517 1513 0
1538 -1133 2276 0
-1224 1503 -1506 0
2712 2751 -292 0
1899 -1569 2456 0
-1928 -424 2198 0
-127 1287 -2596 0
-1716 1553 -782 0
-1124 809 1799 0
-2786 393 -330 0
-2133 -844 2078 0
319 1475 -1942 0
365 1323 2306 0
-324 795 2807 0
-2047 -793 -1014 0
-1692 2722 151 0
614 2397 2173 0
564 2072 -922 0
-2002 1571 -2233 0
-2206 2479 -1728 0
1583 -1033 261 0
1646 475 -2163 0
1170 -2055 -2248 0
-673 -2376 1468 0
-394 -269 -340 0
-1801 -730 1709 0
2703 -1503 -2273 0
235 -2257 2945 0
-293 -2046 2825 0
1104 2513 2967 0
2209 -704 1003 0
1109 1719 1859 0
-916 -1575 -2563 0
-396 -947 587 0
2588 2916 269 0
-2678 454 -1052 0
1718 1208 1916 0
-2822 1347 -2951 0
888 -202 -836 0
-164 136 1329 0
-1554 -2920 2713 0
-353 850 -1937 0
2152 -733 -2294 0
2355 2212 -2752 0
2899 -2799 -2193 0
-601 -1376 -2599 0
815 -1485 -2882 0
118 2270 -1713 0
-2141 -2452 -2565 0
-1900 1105 114 0
-2655 -2612 -2531 0
-269 2720 -1807 0
-67 -498 -688 0
-1513 -2934 -2489 0
2034 2618 -533 0
1332 -1054 431 0
146 2458 1533 0
1009 2429 606 0
1535 -2413 2580 0
2865 -765 -2243 0
-1812 -153 400 0
1803 -758 -1681 0
1206 2344 2040 0
-107 -4 2917 0
-2101 -1021 2288 0
854 -2555 -1848 0
630 -2633 -1703 0
-2624 2481 198 0
-1645 2862 621 0
2467 -1952 -937 0
2757 -1431 -1410 0
901 228 -574 0
-2010 2693 1401 0
447 802 965 0
-1231 1925 296 0
1710 -1641 857 0
-729 2868 -2040 0
1102 -345 1161 0
-1340 -2286 2016 0
-2312 -1703 -1577 0
1977 2072 736 0
-1612 -1750 -2591 0
-2468 558 -1884 0
-1531 -2025 138 0
2090 2085 931 0
-1187 -238 -1668 0
-2836 -2347 2674 0
-938 1103 1913 0
2966 -71 1399 0
2871 13 -1192 0
-2733 1127 -40 0
-1206 -2992 -2512 0
1670 -310 2796 0
-2765 558 -1567 0
-1521 1250 1651 0
545 1192 -2171 0
345 -2456 -609 0
-124 -2302 1985 0
-2872 272 -26 0
1949 1175 1891 0
-2637 -837 -2917 0
220 1196 332 0
1179 681 -2511 0
208 -758 2138 0
-2439 -2149 748 0
-38 -439 1106 0
-833 711 -1271 0
364 -2848 -1710 0
-2987 -391 -2226 0
1275 863 1214 0
-1905 493 1490 0
-1374 -2228 -2963 0
-981 1562 -2724 0
-697 2868 -1626 0
-516 2921 1143 0
-2433 -1720 2984 0
2992 775 -2815 0
-725 1113 1847 0
-2675 -2032 1043 0
-2358 -1019 -2166 0
1784 -1128 -170 0
2826 -2161 881 0
-2387 -998 -2414 0
-1500 707 176 0
1032 -2209 1788 0
781 2411 -1615 0
-2097 614 -980 0
-2061 1410 -1795 0
748 -1856 -2956 0
-818 1585 1004 0
411 -491 -2825 0
652 2198 1098 0
-2002 -142 -1783 0
4 -263 1159 0
-2408 -378 -2428 0
209 -34 -957 0
799 -2424 2741 0
2876 -1806 -448 0
-1555 -941 446 0
-2618 -558 -528 0
1656 2340 -2336 0
-2252 208 425 0
-460 -32 745 0
2853 -796 -468 0
-2858 -767 2895 0
-489 609 2014 0
-1247 -2517 -2115 0
-1641 759 509 0
2384 1621 1367 0
-591 -790 1684 0
-1575 -130 -1621 0
-1058 -1311 -1747 0
-1604 2682 -1172 0
-2046 -1122 846 0
-1104 -2695 -94 0
-2653 338 486 0
2051 -2584 -832 0
122 -1527 -1836 0
-1504 -914 1957 0
716 -1635 -39 0
2496 2142 -360 0
-2043 1524 662 0
1053 -2108 -2421 0
-865 624 -1361 0
2456 926 -1006 0
-1608 1238 1785 0
-1413 179 1139 0
2270 -74 -1315 0
-2917 -905 -807 0
1763 1800 750 0
1805 2823 -757 0
-1809 1780 -2390 0
1391 -1120 2056 0
-2988 -2449 1477 0
1973 1827 1566 0
-2171 159 2092 0
2498 -1006 2649 0
2552 -1761 1519 0
1549 -1042 1693 0
1729 -1200 -1517 0
1765 -2868 2684 0
-553 -1503 1626 0
912 1146 -2519 0
2470 619 -2433 0
1061 118 -363 0
-2098 2514 -773 0
-1093 1221 1652 0
-1957 -2759 -1972 0
2947 1898 2373 0
-2555 -441 -2215 0
-2077 2059 -2031 0
-483 -2132 2505 0
-2483 1089 1863 0
2463 2273 -2325 0
866 3 1976 0
1031 2299 1335 0
586 2297 2667 0
2376 -132 -1622 0
564 -2079 2327 0
2579 431 184 0
-1031 -343 -2299 0
872 565 -260 0
-1949 788 1328 0
-508 2558 2610 0
1160 -2894 -1961 0
142 2826 2127 0
-1561 -63 -2105 0
-2612 -1512 5 0
247 -2778 2599 0
1364 -118 -1618 0
692 2665 599 0
-926 651 1898 0
-276 2075 -1877 0
2830 -2300 21 0
-512 -733 1287 0
2217 1727 2953 0
-512 -2461 -571 0
923 -2841 -759 0
2287 -2683 828 0
-1689 -460 1682 0
1468 1585 1821 0
1732 2297 -2948 0
-2015 -2694 1746 0
-2873 2554 1993 0
1065 1086 943 0
-1875 209 2572 0
2689 -1310 -883 0
-942 78 2788 0
1879 2641 -2391 0
-1871 -1546 131 0
-2483 732 2159 0
2895 -88 2412 0
544 1755 1287 0
-1966 -200 -2769 0
-1217 2758 1111 0
-2241 -730 1470 0
1606 221 1734 0
-1242 1215 1874 0
-2621 -2732 -1668 0
-2410 1195 1490 0
-1217 1665 -935 0
946 -457 658 0
1647 1745 783 0
1847 -2646 -2721 0
-2304 899 2632 0
-991 1074 1390 0
-2826 -22 -58 0
-2282 -2008 1750 0
2077 -2325 -2144 0
-1166 -1345 -2534 0
-228 2266 -697 0
-2301 1382 -1072 0
-691 1294 -1953 0
-287 -2702 1068 0
-2156 -1841 153 0
-1952 2712 -1633 0
1434 -1802 1367 0
-253 1612 1289 0
902 -2336 -1895 0
-1580 2517 2454 0
-1282 -2145 -2238 0
2280 -2500 -2082 0
-378 -768 1137 0
1659 1853 2268 0
-286 -2024 -1066 0
415 -1985 2865 0
-1488 2262 -310 0
-237 -814 934 0
-1018 -248 1437 0
2708 -1908 2137 0
1431 2382 2234 0
307 -529 1579 0
-2284 -1519 -2200 0
2058 -2689 -1035 0
-2806 1500 -2252 0
-233 981 -112 0
362 1408 -709 0
-2382 2547 -457 0
2293 -2394 446 0
-2030 107 2217 0
-1499 515 -528 0
-536 -2430 1121 0
1438 2886 1078 0
2828 1244 1822 0
475 472 1257 0
-1277 -1013 -635 0
930 -1639 -1487 0
490 558 1683 0
763 -1054 755 0
-2261 -2707 -1431 0
-2791 2749 585 0
32 2583 1867 0
-1763 -310 -882 0
-2867 -208 1255 0
47 -2982 -1683 0
-2752 -1734 1211 0
952 391 504 0
-2230 -2376 -99 0
1489 -2077 -727 0
-562 1691 -922 0
2564 1176 440 0
2610 2851 2783 0
1892 1721 2928 0
-1185 -2777 704 0
-690 -2192 -196 0
1346 -1804 -2113 0
-750 1442 1079 0
-2621 -1264 2712 0
2257 1651 -827 0
1253 -1808 -2894 0
1861 2136 1376 0
2679 -2040 -79 0
2727 -858 536 0
-2974 -1890 -1146 0
-478 -2320 -673 0
370 -981 -968 0
2570 -1205 -938 0
298 2459 675 0
1564 1874 -1733 0
-2238 457 -2619 0
-724 1866 -2398 0
1500 -440 1037 0
326 1089 -2083 0
-494 -876 2808 0
-1479 -1211 1184 0
-74 2731 -360 0
1336 1988 2904 0
-2550 -406 -2169 0
803 2074 2263 0
-787 1290 1690 0
-2648 -2828 -1350 0
-957 -2264 -333 0
-152 1485 2976 0
-1066 -2024 -377 0
773 2063 1235 0
-1163 -2888 196 0
-570 -961 383 0
2174 -2057 -1799 0
-898 -98 1103 0
-639 945 -1284 0
-1610 2681 826 0
2635 -1111 -1832 0
-538 -1250 1619 0
-250 -1364 1002 0
146 -2067 578 0
2601 -1122 2771 0
-471 2121 1726 0
1988 -2989 1434 0
-1281 933 -27 0
1403 -901 701 0
41 1604 753 0
1606 -1615 461 0
-539 2185 2431 0
-30 -678 471 0
2986 -1617 -2530 0
1373 -184 1449 0
-295 82 384 0
-533 -2792 1100 0
-776 -917 -746 0
-437 604 -50 0
-2942 801 632 0
1069 -942 2850 0
2029 2743 -297 0
490 -893 -2544 0
2915 1713 -2327 0
2920 -1652 325 0
1029 -2807 2625 0
2225 -1553 1825 0
-46 -2031 1235 0
-650 -1879 1510 0
722 -1764 710 0
-1619 -2341 646 0
1991 -2452 765 0
2451 438 -598 0
-419 -443 -595 0
-1478 346 1106 0
-1094 -2225 2444 0
-1272 -1893 -999 0
1684 819 335 0
1342 -2982 -2778 0
742 439 1838 0
1976 1097 -203 0
1310 -1251 2926 0
2894 2326 2828 0
1413 -2682 -148 0
2025 813 1924 0
2671 -314 -307 0
2126 2312 382 0
-2673 -1816 1154 0
-894 1282 -518 0
255 -1615 2865 0
-2536 -1304 2699 0
-206 -2399 -950 0
-2143 1309 2416 0
2062 -2724 -106 0
205 724 -1061 0
2668 1722 -1768 0
771 1698 2534 0
-2253 591 1705 0
-231 376 -2753 0
2751 -338 -958 0
-790 1008 2603 0
2904 527 -1562 0
1145 -1709 -777 0
-1150 1816 -2907 0
-181 -2227 -1688 0
1836 1922 1635 0
-1022 2312 -2670 0
1466 -2412 113 0
1761 1957 -1674 0
-1435 -2746 1389 0
2618 1989 -1986 0
2426 -2244 835 0
-1502 -124 -1727 0
-1054 36 -131 0
2989 -1746 -2891 0
-2309 2035 -1640 0
-200 1404 1423 0
1609 -48 1232 0
-463 1492 286 0
2616 -2316 -1565 0
2862 -138 -1640 0
743 2338 -2223 0
1675 -1471 472 0
2664 -2828 2437 0
-1543 2315 280 0
2539 -96 -1734 0
-2309 -799 2153 0
-2777 -2008 2118 0
-1239 -61 1493 0
-425 214 -327 0
-2487 -1068 169 0
211 -822 -146 0
-2745 -760 -204 0
-742 -2302 431 0
-2396 2934 -2646 0
-1660 -2800 73 0
2825 -2634 -407 0
-213 944 -1171 0
-1533 -320 2869 0
-2457 1163 44 0
220 -2592 -1704 0
-1045 -878 2918 0
1109 613 1456 0
-1194 1675 1118 0
-2975 2990 -431 0
1163 -1850 -2755 0
-45 1924 1058 0
-2814 -1802 -1860 0
251 -2693 -762 0
1554 2275 -1226 0
-738 2028 -1604 0
-769 -1411 1305 0
-272 786 2768 0
2231 2453 866 0
305 -1885 -1479 0
-637 1170 1646 0
-571 -1013 1377 0
2388 -273 -415 0
1168 -2742 -1582 0
2296 500 725 0
133 -611 1564 0
1523 1937 -581 0
-1175 -1076 2914 0
-482 -1992 -647 0
-1770 -459 2256 0
2275 2285 -2543 0
1887 934 1034 0
738 2374 -2273 0
-1836 -2295 -1809 0
-2914 -1546 1659 0
-1566 2170 -895 0
698 -426 -1301 0
1720 482 -957 0
2447 2715 1142 0
-46 1568 -1161 0
935 656 176 0
-1332 1750 2204 0
1085 1004 114 0
-565 1152 2743 0
-1453 1797 2472 0
1787 -2083 -194 0
-328 -1081 544 0
-2593 -1719 -2218 0
-35 -1549 2445 0
-669 2577 1966 0
389 -1574 -1252 0
-630 -2814 469 0
-701 2513 -2439 0
501 -387 1435 0
2011 -2124 2405 0
2102 -2338 984 0
-556 2477 -2381 0
1698 -2629 -696 0
-1744 17 1369 0
646 -2455 2361 0
-1285 -1752 1068 0
-1128 113 -541 0
388 -2342 -230 0
-1037 -942 1390 0
247 2813 -2679 0
-2613 1130 -1660 0
2398 2570 -2491 0
2091 1749 -92 0
-1315 480 -1174 0
-2635 1585 2427 0
-2053 -2831 -915 0
1978 1268 841 0
834 2498 1195 0
-2077 -421 2467 0
1003 -394 1799 0
1822 -77 1093 0
2228 -2512 -1600 0
561 -2462 -258 0
2102 2666 1600 0
-1762 739 -976 0
-443 1550 1284 0
255 -1875 2660 0
1789 189 1357 0
-2759 2177 -1340 0
-1463 1503 -942 0
2061 -930 -716 0
-10 1743 2627 0
2797 -816 2283 0
-16 -1584 1624 0
734 -2260 277 0
-1764 -937 147 0
2954 1540 202 0
-1821 -128 -2303 0
2229 153 -2273 0
996 1347 58 0
-2310 -1185 -1719 0
-1486 -1749 -2678 0
-296 18 -222 0
855 -1053 -287 0
347 2419 -1353 0
-273 -537 1906 0
-551 -968 2222 0
910 -2504 -1954 0
-849 -1892 -2906 0
178 -2629 -2096 0
1353 2802 -87 0
2155 362 -10 0
-871 -10 -627 0
2965 1143 -2378 0
2029 369 -2792 0
1724 692 2996 0
-1720 435 -427 0
895 2611 -2152 0
366 121 1307 0
-693 1675 710 0
522 -480 1897 0
1976 -2912 -1569 0
2168 82 629 0
2393 2984 897 0
-2071 1604 -2187 0
424 -2975 338 0
1796 2009 -2086 0
-123 -2477 2627 0
2591 -483 -532 0
-299 566 2589 0
-880 2281 1662 0
-1296 -2781 -2433 0
-2944 -2759 -2292 0
-416 -441 -2778 0
847 -1587 85 0
1852 -1482 -1506 0
155 709 -2991 0
2938 2660 579 0
1329 -2018 -1838 0
2747 2322 -2481 0
654 104 -1701 0
2545 909 -2084 0
-1993 -2514 2698 0
-2157 1988 -474 0
2496 2486 -845 0
-49 -2196 2163 0
-1050 -2824 -169 0
2212 -2897 2796 0
1113 -110 2239 0
-2267 2740 2652 0
724 -672 -1740 0
168 -2122 597 0
394 1919 -2994 0
1688 1361 656 0
527 1507 1918 0
-2432 27 -2495 0
-1372 -2074 2526 0
-2492 1497 1142 0
804 1540 -1830 0
2766 11 -1719 0
-2746 2947 2334 0
2508 -1477 -43 0
-2187 -578 325 0
1162 -1863 2361 0
-2031 -2145 2370 0
363 1560 1005 0
-1370 33 1980 0
-91 -2786 1898 0
-410 -1725 -1740 0
2979 852 -1321 0
522 -2022 -626 0
-1354 -545 -2334 0
2856 -911 -2488 0
282 -813 -1774 0
-2100 -1971 2104 0
-2921 1496 1175 0
2944 -2029 365 0
-1700 2513 -294 0
-61 -677 -1836 0
2566 -318 -1676 0
-1276 -109 2469 0
-975 -349 132 0
2664 -2843 516 0
2499 -2611 -2828 0
865 -1 2453 0
-1007 1173 -682 0
-2520 -1319 -443 0
1861 2128 2444 0
-1068 1785 2603 0
-2038 696 -2827 0
-2844 -952 2051 0
-871 1675 166 0
38 -1530 1036 0
1770 14 -627 0
2176 -1973 -639 0
-777 -929 -1889 0
-1378 55 553 0
-2122 2033 -341 0
-2034 -1608 1401 0
687 1100 -1477 0
-496 1437 -2681 0
1605 -1104 -2352 0
1198 1560 2746 0
1997 2661 -974 0
530 1585 -1753 0
-2162 1377 2139 0
-165 2521 364 0
1382 -1890 -2097 0
1701 1237 -447 0
1267 -453 1034 0
1195 2361 -657 0
567 -286 -2213 0
-2838 336 -2375 0
2959 2869 2691 0
-922 2349 -1768 0
-2778 -2965 -2555 0
-1470 1969 -1681 0
2830 -1222 -1354 0
2091 -1874 1828 0
2131 41 -1449 0
-345 1013 -1841 0
932 -943 2224 0
-2875 -682 -146 0
-1896 1284 -962 0
-2100 811 -87 0
751 475 -2847 0
500 -1417 141 0
1520 -320 -1163 0
1736 2385 1139 0
-983 -1897 -1527 0
1466 1936 2666 0
1833 451 2933 0
2355 2943 -1250 0
-2512 -2024 1788 0
-1093 -858 803 0
2218 1063 -1949 0
294 -2534 -519 0
1124 2278 -402 0
-2165 -2330 -1177 0
-741 -1408 -1913 0
-267 -2847 -2311 0
-1632 611 -1941 0
-687 491 -186 0
-2255 546 -1868 0
-1078 -1499 -2491 0
970 2121 -1031 0
-1733 -2219 -32 0
-2396 1914 -2291 0
-449 -2175 -2052 0
910 -1581 -1953 0
1292 1714 -2752 0
-2358 1771 -2443 0
510 -2104 64 0
2698 -1480 -2260 0
645 -1706 764 0
-942 -1717 2586 0
2037 1074 -976 0
-248 -313 735 0
2285 747 -2893 0
2094 1746 123 0
-390 -1867 2480 0
-1798 2331 1915 0
-1381 2707 -1860 0
-316 -159 2115 0
734 341 1955 0
201 2201 958 0
170 -938 2484 0
1416 -1995 1928 0
2265 2696 2020 0
1139 -1750 2196 0
800 479 -2350 0
1942 1328 -277 0
552 2656 -584 0
-652 -2621 -439 0
-2892 1600 2089 0
1397 2079 -2201 0
-2412 -1568 347 0
-181 426 648 0
-950 1291 2254 0
2505 1390 2897 0
1988 -1828 -2014 0
-1693 -98 126 0
1123 -1574 1990 0
1712 -504 -937 0
1362 -351 2138 0
-144 318 683 0
2074 1537 66 0
-1662 29 465 0
-1532 1174 -2505 0
2275 -2120 1436 0
-196 899 -1422 0
2350 -2089 2092 0
-2341 1181 -2216 0
1787 -2127 1263 0
1378 -83 2513 0
2161 2412 -2654 0
1817 -2549 2960 0
975 1983 -2007 0
-1270 1456 2206 0
-6 -487 -2949 0
2689 -742 1705 0
-2611 -1976 -590 0
1380 2639 2018 0
2955 183 -2952 0
307 609 484 0
-340 1608 -2109 0
2378 -725 -2662 0
461 -862 556 0
1080 -1359 -1814 0
-2197 2411 -1547 0
756 -2280 -1501 0
-523 -2380 1758 0
426 2511 95 0
-1943 -2411 -1881 0
380 1323 2714 0
2748 -2440 -623 0
-2655 -2998 1361 0
558 -2641 -730 0
-2762 2359 -566 0
-1667 -1877 -986 0
-1140 1487 2919 0
-23 2665 -865 0
-2869 -1560 -1745 0
2907 -2981 -736 0
1093 -463 -1505 0
1116 -1737 1470 0
1641 -1074 -62 0
-2387 -88 326 0
1861 -1101 -871 0
-1305 1207 1477 0
-925 1273 -176 0
682 199 -242 0
-428 -1412 411 0
-1072 2677 1576 0
-51 344 74 0
1035 -1932 2102 0
-909 -2558 1521 0
-1834 1792 -2588 0
-574 1132 2035 0
-342 -621 -359 0
675 -2974 1962 0
-2850 1879 -2953 0
-484 -1640 -2911 0
-2582 -1106 -121 0
2706 -1123 -2612 0
2947 -2884 306 0
-1188 -2569 1074 0
-1652 2824 -977 0
201 792 557 0
760 747 2045 0
-1890 2451 -2827 0
-427 -325 -179 0
425 2739 -1594 0
2764 -443 1860 0
-358 587 -442 0
-2231 2421 -934 0
2651 1419 -2143 0
-207 -1739 2441 0
-653 1820 2422 0
-930 324 144 0
-1823 2782 -1208 0
355 -2181 2535 0
-2499 446 1305 0
487 -630 1625 0
663 -122 979 0
-1832 655 -1716 0
2025 1548 -2084 0
315 -2570 2838 0
-781 559 -2345 0
1568 -2592 -569 0
255 638 -2212 0
-1856 2322 -2147 0
1770 1321 2813 0
1203 657 2993 0
462 -521 1617 0
1451 -2804 869 0
768 -1728 2857 0
-2762 -2054 -2621 0
58 2565 -1107 0
168 -439 -609 0
1624 1783 329 0
-2947 -1679 809 0
1093 201 1939 0
485 846 -1593 0
-996 2354 1602 0
-894 -1895 550 0
2012 -1731 -1540 0
-1231 851 -2066 0
-889 2998 353 0
2537 -2525 -127 0
331 1825 -61 0
758 2712 -980 0
-374 -1818 2492 0
502 -2177 -42 0
-502 -2478 2811 0
-640 -1736 2302 0
-999 1760 1754 0
1731 1085 -1655 0
-39 2007 1057 0
2853 -2237 1986 0
2758 -2602 1656 0
19 1948 -2164 0
327 -2787 2918 0
-2912 -1438 -433 0
601 1912 -899 0
352 1679 -2977 0
2308 -2884 654 0
2823 -1856 1802 0
2961 -416 2548 0
1970 2348 417 0
-1546 -2488 1392 0
405 -685 -72 0
-2948 -1876 -1024 0
-844 1625 2972 0
2148 311 -1470 0
2560 360 -2107 0
-802 1133 -2433 0
-445 -2724 2529 0
317 -2916 -1934 0
137 -2128 1275 0
2173 49 1300 0
-1549 472 -2694 0
728 313 -2737 0
2652 840 -382 0
726 2328 2857 0
-2289 -1030 -1270 0
-2083 2649 -1357 0
-2957 1207 -86 0
-993 -836 209 0
-2105 2621 -1075 0
-1683 -2490 2642 0
-2215 2311 -180 0
2522 585 -588 0
-2355 -324 -2903 0
-1315 -774 -1333 0
-1960 -1585 1690 0
2030 -2227 -2295 0
638 -2588 1176 0
12 -2301 320 0
-2785 357 158 0
-2928 611 -1360 0
-2934 -439 2509 0
-1181 -871 2751 0
1272 26 -2425 0
-2932 -2091 1168 0
-385 1560 -746 0
2351 -310 1196 0
1098 2857 2002 0
1768 1507 202 0
-364 -1753 -1914 0
2791 -1209 -2087 0
-939 -1379 503 0
299 1237 1591 0
2375 -1693 283 0
-2761 -995 -813 0
2701 -2788 -179 0
-2426 1988 -2644 0
-795 -97 1875 0
-568 -728 -2440 0
2832 2229 -2256 0
1246 536 403 0
-2722 -43 61 0
2456 1970 1551 0
2055 -1993 -2281 0
151 502 -1661 0
-288 -1629 -2848 0
1097 1570 -2963 0
719 -1270 -2220 0
1074 -1495 2198 0
2299 2898 1106 0
-2198 1775 2163 0
-2638 2517 -2523 0
1328 -805 1120 0
-1210 -1887 312 0
-2652 -424 1746 0
233 -873 -1801 0
-91 -1521 2008 0
314 -1632 1102 0
-1988 962 -1172 0
-1015 1245 37 0
978 1912 -667 0
-1914 2452 2861 0
2713 13 -2638 0
-333 -87 -1664 0
-632 -2922 1267 0
574 -1226 1550 0
-1562 2504 -2375 0
-476 -1951 -1947 0
-821 -229 -766 0
-334 2852 -89 0
1247 1677 -2916 0
419 -260 1220 0
1612 -1629 -2850 0
2148 -2007 -744 0
500 -1407 -2802 0
-2164 1216 2721 0
1504 -2570 2391 0
2302 -1930 -979 0
-2572 -2830 -2011 0
-701 -861 -508 0
-1785 877 -288 0
1139 260 -891 0
1480 70 -604 0
-271 2052 -2257 0
1538 -2446 2726 0
2898 -662 99 0
-2499 2247 -1315 0
-1681 -2220 -478 0
-1661 -1030 2672 0
1814 -1881 2376 0
55 -2553 2610 0
2098 1327 640 0
-2324 2019 2892 0
-445 -613 2123 0
-1817 1544 -1965 0
-1249 1261 -1062 0
-2998 1439 1168 0
1289 -1073 -1938 0
1004 -1044 -1294 0
2857 2038 -1280 0
2768 -850 2958 0
2633 589 -2952 0
-1633 176 725 0
-1380 2742 485 0
-1604 -311 1700 0
-1445 796 473 0
1026 -2795 -2932 0
698 1434 -2544 0
2142 2754 951 0
-1053 -1168 587 0
-1570 1393 -804 0
608 1521 2821 0
2848 -1437 723 0
-1664 -2071 -2862 0
-2261 1912 -2656 0
316 2655 -367 0
2742 -96 397 0
-2823 2719 179 0
-960 -2517 1692 0
704 911 -1052 0
-1153 -2947 -986 0
1745 1645 1618 0
308 1589 -306 0
-311 -1099 -531 0
1578 1457 1016 0
-848 -2577 2345 0
2331 2798 2823 0
1388 -1834 -1955 0
-251 -2448 564 0
828 1413 -463 0
1653 -1203 -2366 0
-1489 2204 -2098 0
-424 2454 -704 0
-2094 -1712 1642 0
-39 -2454 2470 0
2653 -2573 -1208 0
-1868 1389 -383 0
1973 -594 -2197 0
-2181 -1393 -2259 0
106 -2109 -2302 0
764 -1653 -419 0
-2552 -1502 2075 0
2913 -2682 -411 0
-614 -1370 1639 0
-2510 -632 -382 0
2695 -2908 644 0
-777 2556 -739 0
-1572 172 2571 0
724 -1341 -2662 0
994 -1158 670 0
-467 -276 2963 0
-2958 897 -1570 0
2342 -1372 -1022 0
1070 1921 620 0
-2702 -1978 -136 0
-163 1635 1636 0
2627 -1097 1607 0
-2982 281 1334 0
990 1333 1629 0
-203 2048 1841 0
-2243 -573 8 0
-1979 -2679 -271 0
922 -1847 -645 0
301 -1671 -326 0
875 154 710 0
-2821 1407 488 0
-754 -1289 1362 0
2756 318 -1981 0
-344 378 -1438 0
1826 60 633 0
-2006 1900 2219 0
1089 -1172 -701 0
-2580 -1593 456 0
1058 -502 425 0
-2696 -825 2369 0
-1192 1171 -76 0
2560 -623 -775 0
2755 -1453 -1018 0
2025 -2028 1320 0
-1192 2429 1769 0
961 2408 2226 0
-2102 -1646 -1976 0
1682 2274 -1668 0
-1625 1196 64 0
-1195 -2968 576 0
-2774 1537 -2860 0
1024 -372 -1518 0
518 -2341 2006 0
2118 1901 747 0
-2748 278 2328 0
2555 -535 592 0
-1511 -392 2040 0
1507 -252 668 0
1528 362 -1426 0
306 -1252 1921 0
-817 -1684 1181 0
1789 1366 2660 0
-1766 422 793 0
1517 -1344 -2008 0
1225 -877 1330 0
-2102 2573 -1278 0
-2354 -30 -1685 0
-144 2695 424 0
-1898 1132 -1509 0
-2743 -8 1928 0
85 1992 -2671 0
129 2675 474 0
-968 -414 -1768 0
2282 865 1918 0
2025 -2049 -203 0
-2219 -217 -2374 0
-1025 2462 -2866 0
-1901 1492 2218 0
1657 690 -861 0
-2747 -2665 2406 0
-142 2708 2927 0
-1847 -1422 -749 0
-387 -90 -2038 0
-1740 -178 -1752 0
1904 1698 -2110 0
-1135 2603 2210 0
-603 1210 509 0
-2611 -1041 -1877 0
-1800 737 918 0
-695 -851 2626 0
-2981 928 -1965 0
2430 2499 1331 0
1625 -153 -16 0
-721 2391 -159 0
-2576 1848 2144 0
-206 2249 -2411 0
-566 -5 2250 0
2906 2137 -910 0
2349 -2064 1449 0
-689 -609 2381 0
-1010 -2024 1738 0
1066 -1316 2765 0
-2595 -374 -981 0
2722 2147 806 0
-2790 -392 -1903 0
904 -1666 2945 0
1808 1661 -1059 0
-998 1527 1977 0
2605 -2823 -135 0
-785 963 1511 0
-2907 1873 -245 0
1170 2433 -74 0
143 -2358 1855 0
2927 -2149 -623 0
-2393 1726 1229 0
-1154 -2016 981 0
-1148 856 2843 0
-2481 1575 -96 0
-1425 -1226 -594 0
847 2685 207 0
2254 -645 2242 0
1676 2833 1690 0
2196 -558 1449 0
-639 -1468 2625 0
2207 16 1198 0
-1780 -1218 936 0
1493 2551 318 0
999 -623 1113 0
127 108 -2197 0
186 -1737 765 0
-707 803 -2675 0
2602 1949 -2697 0
170 2630 -698 0
2311 450 -2487 0
-196 -1935 -1416 0
2022 -290 -508 0
750 2897 39 0
197 -705 -1912 0
2001 2390 2981 0
1873 -2281 1046 0
11 1819 -1331 0
-2265 -319 211 0
2258 2605 97 0
-2815 -1518 1954 0
2423 -780 2149 0
-932 2548 1790 0
-3 636 -132 0
-2991 -1395 -2288 0
2176 -2830 1602 0
-1698 557 1317 0
-416 -1731 57 0
-281 -2417 -2970 0
1217 1896 1473 0
1927 -1584 -60 0
2288 -2854 1381 0
-2125 -2388 -45 0
1765 -503 541 0
2393 1171 -150 0
-1424 -944 -2633 0
-2482 -1627 1221 0
-370 1364 -1220 0
-112 -1318 -1977 0
-2457 -1856 -2553 0
-740 2707 -388 0
-1316 2578 1922 0
581 -2122 -2721 0
-210 464 460 0
-1085 1306 -739 0
-2531 -2554 -840 0
2895 -602 -739 0
1187 1800 1051 0
-2061 2270 749 0
1734 454 -2376 0
2088 -373 -1464 0
-2211 -1756 2775 0
1841 557 -972 0
994 -225 -2572 0
69 -2717 -1791 0
-1854 -1179 -223 0
713 -1079 -2142 0
-2873 1672 1413 0
452 1959 -438 0
-2864 1728 -719 0
-2509 178 83 0
1914 -2953 2167 0
2370 386 772 0
-753 -2024 2671 0
-2272 -743 -2819 0
144 -2182 1256 0
2361 851 -405 0
320 -599 -2592 0
1685 2812 -1996 0
-2202 -2375 1012 0
1442 -113 -2267 0
-2034 2839 1862 0
520 2886 -1314 0
-1345 -1285 967 0
-1761 683 1095 0
2973 -1933 -2491 0
-1849 -2775 -177 0
283 -1560 1984 0
-1908 -733 -1790 0
-1051 -517 -1133 0
-1851 -2902 2336 0
846 208 718 0
2134 1837 1187 0
-2016 423 1766 0
-1489 1052 -2185 0
560 -19 1637 0
-2792 -2663 -1272 0
-178 2772 2725 0
1598 712 2593 0
-814 -839 514 0
2991 1502 -843 0
-2681 -1225 -2117 0
2531 1363 1551 0
2957 1690 2876 0
2220 -2370 1124 0
2657 762 1269 0
1917 1996 -472 0
-1291 -2196 1364 0
752 -1912 1298 0
-1094 -286 -1024 0
-1466 -1099 177 0
1975 -211 -1206 0
1746 2197 2535 0
2383 -1817 -964 0
-1557 -1746 -1270 0
2906 894 2006 0
-1303 -59 2696 0
-1348 -52 -852 0
118 -2605 296 0
-1671 -2345 1226 0
2317 2943 2960 0
-876 -2363 890 0
1480 1298 1753 0
2341 -1017 1814 0
-2172 -1675 -2085 0
-2258 2504 873 0
-1574 -240 -1687 0
-107 1556 -503 0
232 -838 2665 0
-471 1733 2378 0
-715 -2052 -223 0
-2288 -2162 1944 0
-91 166 1379 0
-871 912 373 0
-1070 579 2035 0
-2773 -1077 2581 0
-2417 -280 -2088 0
-2037 -594 1211 0
255 -2178 -389 0
-1594 -2865 -2609 0
1972 382 -2979 0
-2083 -1498 2499 0
-818 -23 495 0
-164 -2047 1223 0
1770 2131 -2985 0
2814 2434 2643 0
1653 2473 590 0
1182 2014 -2523 0
1129 128 924 0
-1949 -427 853 0
2472 652 2907 0
1469 -1098 -2892 0
-773 -2710 -2114 0
2601 -327 -1144 0
-2523 -1916 -1800 0
-2091 -1761 -216 0
2247 -1473 809 0
-727 2266 -2598 0
-1269 -1842 -1080 0
2980 367 -2074 0
2135 -282 52 0
2312 -2620 -745 0
2686 -252 1691 0
1853 2428 -528 0
-829 1058 2520 0
-617 1107 2593 0
-2080 -263 2867 0
-1574 -1656 -1637 0
1124 -1761 -817 0
1431 -565 758 0
-2010 -2186 -487 0
-2948 -408 -2826 0
2372 -944 -259 0
587 -650 603 0
284 2264 306 0
2703 -2150 -707 0
892 2075 833 0
-209 -371 -37 0
821 -1012 -1037 0
-1729 -2372 1015 0
-1807 191 -758 0
-2652 1216 -2655 0
-2900 2050 -1911 0
-1323 -671 -973 0
-2109 1698 -1048 0
-819 -2247 -2393 0
-2690 1267 -2724 0
-1515 -887 -2743 0
2471 167 -1588 0
-2516 1412 -196 0
-653 -235 1067 0
-2381 -1 -2636 0
-1147 545 2453 0
697 987 -746 0
667 -2947 -828 0
-2277 428 1682 0
1085 -1481 -2130 0
-945 -2262 -2742 0
-1168 108 1229 0
-938 -2214 -1796 0
-485 -2136 -878 0
-2059 2994 2247 0
-2564 -2363 -1979 0
2625 1974 -1618 0
-1466 1110 1829 0
-2082 -124 2519 0
768 2911 -2431 0
-1392 -100 -588 0
-2042 -461 658 0
-2353 487 1630 0
-326 -636 -2557 0
-1034 1794 -1743 0
232 1693 274 0
2411 -1100 1618 0
2435 1174 -1171 0
-570 2615 -420 0
1847 -51 646 0
252 -1301 1311 0
711 559 -2093 0
804 -1226 256 0
1983 -1151 -864 0
-2094 622 1264 0
-656 -1271 1410 0
2814 1237 -2044 0
-583 -239 -1603 0
-1986 191 -956 0
-2433 -504 -2548 0
1876 -2977 2354 0
998 -1306 1601 0
2256 -2244 -2109 0
-946 -2726 1850 0
2164 694 -6 0
783 -683 2606 0
2385 1026 -2421 0
-957 -2814 -1361 0
-1456 1437 -2777 0
1871 2018 1947 0
2113 -2737 -285 0
1820 -2623 1959 0
-917 1417 2581 0
1851 -1609 2129 0
-472 -263 811 0
-2228 2490 -263 0
-75 1149 -2517 0
-2054 2535 2385 0
-556 1308 723 0
2306 -2657 245 0
2963 -2685 -2534 0
2258 -1197 2334 0
-590 -605 2489 0
2331 2612 2862 0
2862 -2214 -16 0
-2009 -562 327 0
2399 -2063 1998 0
737 -2371 -752 0
936 2980 887 0
-2782 2161 -333 0
1301 -2012 1683 0
2169 -1958 -464 0
-635 2162 -1552 0
-258 -31 2138 0
562 1597 -153 0
2291 2857 -2591 0
-1718 786 -1976 0
-2216 1916 2908 0
1865 -1148 835 0
940 2886 867 0
1119 1215 -2522 0
-647 702 1640 0
1995 -2478 -60 0
1197 -1555 662 0
2802 315 655 0
2377 1358 -1118 0
-1066 326 -1634 0
-1022 -2142 2971 0
-1801 -1014 1802 0
-219 -499 -427 0
2155 -883 2105 0
1610 -1533 -1073 0
1772 -2316 877 0
2803 -1463 2134 0
1537 -2746 2555 0
-898 -947 -488 0
-738 380 -2003 0
-2301 -492 426 0
-2125 -469 -2299 0
1516 2209 -2721 0
-609 -2640 2545 0
960 -433 2858 0
1828 -843 1689 0
1839 -1529 2373 0
-222 25 -2468 0
903 -1063 -1072 0
1039 -2472 -891 0
373 -1590 -805 0
-63 2498 1024 0
-824 -2217 341 0
-293 -920 1565 0
2860 -1475 -2844 0
-1138 -79 2546 0
421 -1348 551 0
136 2553 1182 0
770 -699 2977 0
-2940 1479 -1491 0
-2449 -1811 2221 0
-1037 1713 -2261 0
1348 -2525 416 0
-1356 -497 -2759 0
-242 -2226 2221 0
934 1277 2876 0
-1204 -1926 -2634 0
1085 -2013 -2289 0
2954 854 -779 0
1720 -217 -2345 0
1367 -562 -418 0
-1652 2212 -2243 0
1882 1313 -708 0
2477 -1761 2474 0
-2090 1599 1228 0
2743 -2969 1078 0
-2089 1064 2812 0
506 1438 -1910 0
-2921 -1249 -2908 0
-1497 -1431 -1037 0
1942 -682 2883 0
-2579 -1276 -449 0
-2993 -849 923 0
17 -1836 660 0
-402 847 681 0
-2412 649 -1878 0
2333 -2163 92 0
535 -2410 738 0
2244 -184 -1330 0
-1895 405 -1631 0
1446 795 -2455 0
-220 907 -1845 0
1471 -2002 1324 0
1405 -1255 -13 0
-2223 1111 -2963 0
2750 1972 -2359 0
-1622 130 1699 0
689 -2667 2216 0
-2302 -547 -1944 0
1231 2257 2362 0
1557 2443 -340 0
-820 -1324 308 0
-520 205 -1891 0
2687 2444 -1255 0
-555 405 438 0
-500 -137 511 0
966 -1025 -695 0
1539 363 1153 0
-2295 22 -1312 0
-1121 -1822 -2559 0
-600 -1974 1099 0
-2631 1952 -1728 0
-2904 710 184 0
2641 -1731 281 0
-923 -525 256 0
1998 336 1803 0
-2817 -848 -919 0
-2639 2690 -2549 0
1733 -989 329 0
1589 850 -2035 0
-362 957 1218 0
207 -1569 -1427 0
-2166 -1972 2399 0
2683 -424 -941 0
1686 -1886 2466 0
1474 16 2081 0
1729 -519 770 0
-1359 -1657 -333 0
1283 -2747 -852 0
-1696 -2953 2025 0
-529 2330 -1818 0
2231 1145 -1777 0
-240 -2561 -1206 0
2292 2792 -1637 0
929 -12 -1139 0
-2907 2409 1092 0
-611 2938 2707 0
647 -1731 -1591 0
-985 2660 2192 0
2210 -644 680 0
517 904 423 0
-1232 -741 -2517 0
-2408 -1909 -1419 0
-2313 -2869 -336 0
-2517 -803 2473 0
1914 2088 -1243 0
441 -2581 2649 0
1555 -2511 556 0
-2258 878 -832 0
2181 2826 -2019 0
2592 -379 -924 0
-2855 125 2182 0
2842 -4 -1364 0
-2426 2745 -683 0
-2905 -537 -1961 0
330 -685 1918 0
-855 2910 -2063 0
-2218 264 -1793 0
-1325 -129 2923 0
-890 548 -2577 0
1835 2041 -2148 0
2496 2981 2682 0
319 2991 -2723 0
374 2730 -2671 0
997 -896 -2929 0
633 -1609 264 0
-1321 -6 -2230 0
640 -300 2522 0
-1518 2002 -2722 0
689 -1763 2375 0
-2816 1231 -786 0
1446 -2648 833 0
-392 -426 663 0
-2285 -1898 2220 0
197 -1531 -728 0
-1207 -2415 -2045 0
-2773 -683 1390 0
2323 905 606 0
-1854 1744 -2648 0
1519 -2570 739 0
6 -2089 813 0
-2542 345 -766 0
2145 2197 -1853 0
-2617 -1035 -216 0
-1411 -1440 -2017 0
505 -736 -2070 0
-2274 871 620 0
2003 2483 2291 0
-351 -823 -740 0
141 1446 1146 0
-803 -362 -2437 0
-2221 -762 2065 0
82 873 -620 0
1717 2142 -984 0
480 2704 -472 0
1301 925 1669 0
787 -1075 -692 0
2708 -2051 539 0
2688 980 -1913 0
-2322 148 -928 0
1608 -600 405 0
-1408 1358 435 0
-2710 -1982 -2864 0
177 -1214 12 0
-2762 1776 -439 0
1347 2358 -1418 0
-1430 1184 -1330 0
-112 1593 2334 0
2472 -1713 2907 0
-2052 -2117 -1886 0
2095 -2958 2356 0
-2637 217 -2541 0
2651 2595 710 0
-2286 -1779 -1707 0
-806 852 -2774 0
166 1874 508 0
-1729 1259 2946 0
-2495 -2753 -1279 0
2125 -2952 -1238 0
2661 2966 -1999 0
-2076 -1599 -1455 0
-462 655 1163 0
180 -530 -274 0
-751 2005 -1179 0
741 1794 917 0
-2134 -2265 644 0
2859 2981 2748 0
-809 -1418 -2204 0
-787 2393 -2163 0
1745 -2248 -520 0
2435 337 2085 0
132 2848 -1173 0
1083 1400 1677 0
2726 -2382 281 0
-772 -2167 -1214 0
-1710 -2656 1674 0
-1200 1185 -1419 0
1721 430 1008 0
-2798 -217 106 0
-2042 -2503 -95 0
-1364 2232 433 0
1749 1731 -1583 0
2684 -2593 -2759 0
-1821 327 2285 0
-2281 1943 2104 0
-2570 -2896 409 0
-1697 -2367 -543 0
226 1417 2589 0
-2669 915 -2570 0
-287 2075 -1176 0
-2495 1586 -2286 0
-2872 2979 1230 0
988 1061 -2810 0
2131 -1813 -2470 0
-2227 -2589 -2688 0
2473 311 -1215 0
987 1385 -2886 0
-352 -435 1895 0
2362 871 1307 0
265 -1102 -2336 0
-1691 -1852 258 0
1506 165 22 0
-1307 -470 1774 0
1440 2398 2652 0
398 2592 -1101 0
2298 2538 -2564 0
-2083 2882 -2282 0
-2238 -2513 -1064 0
1461 2457 -2823 0
529 -2894 -2865 0
-1954 -918 -1801 0
-1318 -742 -2680 0
2102 1707 -665 0
2666 -191 1763 0
772 -153 -1214 0
2811 -606 -1803 0
2715 -317 -878 0
-335 -1025 -2072 0
-1969 -311 -1612 0
-2922 -364 -2513 0
34 2376 -245 0
-492 -1981 1383 0
-2016 -1668 117 0
1856 2444 -1113 0
-2370 -156 2692 0
-821 2045 -1072 0
2383 -2657 -106 0
-1258 2511 -2101 0
1915 -895 2912 0
-1172 1932 2159 0
120 -1852 1151 0
2912 2528 1489 0
1351 -2900 868 0
1812 1174 2667 0
-2483 -1122 -1066 0
-205 -456 2362 0
2915 -123 1973 0
1651 -1623 -1317 0
622 -2882 -256 0
-1735 -1453 -1731 0
-564 170 -823 0
-916 -2297 2105 0
-443 -2924 575 0
268 -2883 1656 0
2219 -1118 -2067 0
-1135 2355 -2039 0
2769 22 91 0
1812 -315 1151 0
-244 900 -189 0
1589 -1751 2841 0
1898 1494 2671 0
-935 -513 -2391 0
206 326 -2778 0
89 -1341 1767 0
127 2815 2864 0
-2783 -1478 1086 0
-2379 -2227 2749 0
2659 -282 -55 0
2024 -2497 -479 0
2169 -2711 -2673 0
-772 -822 -102 0
-2467 -782 -2196 0
-632 -2832 -1917 0
-1156 527 2393 0
-2175 -2314 1096 0
-1055 -191 432 0
747 1761 -676 0
235 -1125 -516 0
-2621 -1603 -2674 0
793 -2696 1831 0
-299 -538 -1689 0
760 -2095 -2718 0
-1559 1243 -40 0
-1566 -1842 462 0
-1241 1205 280 0
-1330 -608 103 0
705 -916 -2265 0
-1988 286 -1322 0
69 116 680 0
-1812 1044 -2678 0
-1023 909 1803 0
1521 -3 2893 0
-2704 2418 2746 0
362 -827 1424 0
-2691 2963 963 0
-2166 -2285 352 0
1859 2731 365 0
-2600 -1241 1449 0
-1503 -2159 -2407 0
-1398 933 976 0
-99 224 526 0
-1253 2870 836 0
1717 -1679 -1229 0
-2246 2705 328 0
2861 2122 -2524 0
653 -284 466 0
-1323 -2424 2818 0
1670 -2016 -379 0
612 1165 1026 0
-752 438 -805 0
2759 2091 2151 0
-764 277 -345 0
-2119 -280 -2900 0
464 -1466 680 0
-1920 2429 1437 0
2117 1518 1466 0
1414 2697 -2556 0
1034 -1992 -40 0
1053 -2161 -2659 0
-720 -2372 -2743 0
1271 -898 635 0
-1500 1946 1462 0
661 -49 1827 0
882 2833 -1468 0
-2201 1681 1865 0
-8 767 2400 0
1753 529 -2108 0
-2902 -1822 -897 0
258 81 483 0
1888 2944 -2078 0
-2259 729 893 0
1806 -2950 1 0
2726 -484 1764 0
889 2847 -1640 0
300 -429 -2405 0
-1615 1492 -2513 0
-1945 785 1780 0
118 390 906 0
1756 -847 -2867 0
-760 1986 631 0
506 1484 -573 0
780 1794 -2296 0
-980 -576 -2953 0
-2218 -1133 332 0
2712 2534 2041 0
705 2160 1622 0
1081 -1802 -973 0
1221 2722 -1644 0
2178 2830 -2786 0
-23 2490 -726 0
-2591 -335 651 0
-6 -2325 342 0
-1469 -1618 -2077 0
-1972 -1912 1717 0
-1117 -1835 -2467 0
968 -629 -1355 0
-2994 -1991 787 0
1479 -1619 -1787 0
-1223 -2864 -430 0
2454 -1832 273 0
-2464 -716 2340 0
-251 -2290 -1177 0
2109 2462 1051 0
1071 -1973 1855 0
2424 2862 2401 0
74 2692 -152 0
-1557 1984 -1642 0
1906 982 2619 0
-1771 -802 -1053 0
-2697 -1513 2922 0
188 -1134 -2697 0
-1901 -542 2528 0
-2966 -537 -2995 0
1780 -113 -456 0
-115 -1983 -2277 0
-2777 -786 -689 0
-1796 -301 -1910 0
-1770 -488 1640 0
-1829 -2171 -1755 0
1830 -999 -71 0
1085 2257 595 0
2570 1358 2214 0
-1621 -1640 407 0
-1228 1165 2450 0
-206 -2636 55 0
2841 1214 2390 0
927 671 1815 0
-603 1720 2184 0
-2339 -1423 -1640 0
695 -2445 -993 0
-409 -305 1150 0
1498 2955 -1628 0
-2104 -669 -476 0
2198 -1468 228 0
-2659 1252 -1773 0
-2777 -310 1921 0
737 2219 463 0
1593 -2225 2815 0
-396 -1404 -1895 0
792 -2826 2120 0
528 1986 -30 0
-1000 -942 1151 0
1292 -2779 2917 0
-2762 -111 824 0
-1523 2590 1117 0
2944 -2849 299 0
-1116 -1201 -1950 0
-2758 -1969 -325 0
-777 -2505 -947 0
-1288 2995 2904 0
-2542 -2448 1039 0
602 -968 -1219 0
-394 35 -2485 0
-598 -1690 -2010 0
-1791 -2500 -177 0
2709 1632 -1071 0
561 621 -2083 0
715 2177 -508 0
-2013 2952 2640 0
-1234 2721 1349 0
91 1793 456 0
-2133 -2910 -2519 0
-1807 1519 2280 0
2362 -2201 2391 0
1253 -1795 -2257 0
1927 -2981 -1216 0
425 -451 408 0
2725 1186 1942 0
2560 303 -820 0
-2569 -884 -993 0
2581 2691 -392 0
467 -2283 1823 0
-2777 -2107 2297 0
2728 -1838 -2357 0
179 155 2498 0
-300 2775 -1373 0
1369 -369 2434 0
2780 2897 -682 0
1192 -2488 -1596 0
-943 2731 1828 0
2159 -1834 2841 0
-903 131 -1590 0
-1657 1553 -1155 0
1332 -2019 -434 0
-1565 -2022 2034 0
-215 -850 -1469 0
-1795 1831 743 0
-1388 536 -746 0
45 1693 126 0
-2952 -2799 1784 0
2962 528 1806 0
2098 2452 -1865 0
1154 -41 -2252 0
2805 -1836 -1108 0
128 -2807 1808 0
1448 -202 1288 0
466 109 2900 0
1696 -2195 299 0
-1918 -1003 -2809 0
-2578 -1560 -1059 0
1068 -80 187 0
-2488 -179 -2084 0
560 -1916 -378 0
2707 699 -1836 0
-1860 908 1702 0
-1514 -2219 2870 0
-1887 -2229 -2 0
2526 799 -2799 0
-1692 1305 2715 0
953 -424 2499 0
-2400 1431 1874 0
1698 -2381 1901 0
-2974 -1590 2272 0
2840 -1912 744 0
-655 2270 85 0
589 -1494 1068 0
50 451 -2297 0
2446 1620 -1077 0
-2117 -80 855 0
-2319 475 1822 0
-2425 -1722 2553 0
781 -1874 -2354 0
2563 2352 -1080 0
-1612 -1640 -494 0
-1937 941 1459 0
1702 77 -2397 0
2630 -1378 1920 0
-340 -1303 -1632 0
-1530 -2569 -2886 0
1179 -1877 -1010 0
1902 450 -2790 0
-584 -2977 -127 0
2526 2670 -2317 0
184 -2321 -2661 0
-2322 859 2890 0
-250 -2308 1942 0
1308 2952 -2142 0
1206 -1724 -958 0
2863 604 1091 0
2614 -1250 102 0
2026 -92 -1792 0
2233 -2966 1800 0
-1567 2727 2105 0
1961 2634 -352 0
-1361 1543 584 0
-2933 -2475 2833 0
-532 -2027 2422 0
397 848 548 0
-680 -2481 2248 0
1801 18 2937 0
-2273 2456 66 0
-2033 259 -2808 0
1271 -54 -52 0
357 2113 1280 0
2042 -640 2399 0
773 -122 -1225 0
1572 350 -181 0
2686 1735 2227 0
-2719 -2775 -2545 0
763 -2495 -1880 0
-385 -689 -2347 0
724 -1429 -1621 0
1794 -1342 -1172 0
-2279 1308 -1611 0
-820 -2296 2143 0
-2521 -2966 -1225 0
117 2609 -2992 0
-207 1277 -2022 0
-2297 -1437 2204 0
-1110 -681 -307 0
-2306 -1590 -839 0
322 1770 1383 0
-951 -366 39 0
299 1117 89 0
-34 844 735 0
292 -2295 2330 0
1598 -751 45 0
-902 -2546 -2442 0
582 385 -636 0
1584 2857 24 0
-2911 -2980 1964 0
-2066 -213 2351 0
2223 -94 749 0
-943 -1169 -2494 0
1131 -1900 -2163 0
-1085 2312 -86 0
-1865 773 258 0
-2586 1949 1135 0
-2074 -177 -1833 0
1146 -1346 -2717 0
1875 -1081 1072 0
-656 -413 1204 0
-2342 1093 2461 0
514 -124 1974 0
-1944 -602 1049 0
704 876 318 0
1199 1805 108 0
-686 1783 2510 0
-704 832 -2643 0
7 487 1284 0
2089 1410 85 0
499 28 -1491 0
1070 868 2994 0
1774 -1511 -2459 0
-1722 705 -167 0
-2100 -1507 -778 0
-1126 82 1336 0
395 36 -48 0
2134 320 1097 0
2350 2555 -2913 0
517 -593 2485 0
-1547 1321 -1743 0
-440 2606 -59 0
2489 2014 -2580 0
-500 -919 -1176 0
415 1709 1693 0
-967 1986 1270 0
2948 -2151 2250 0
2340 -218 2172 0
-2374 1949 -2393 0
-1985 -2323 2030 0
1897 -440 -496 0
1944 -2401 2461 0
2299 -136 1162 0
-91 -2297 2363 0
-295 -2766 2786 0
-2823 1041 1633 0
-856 117 668 0
2725 182 -939 0
257 894 -1430 0
47 -224 2786 0
-1814 -2841 1038 0
424 -2227 -190 0
-433 -487 -2734 0
-297 -2495 2811 0
2713 -710 911 0
-1398 1273 731 0
-700 662 1587 0
684 936 48 0
1959 2067 -2259 0
1766 2848 1884 0
-2322 1413 861 0
-2620 2503 1261 0
1032 -1798 2445 0
-2033 2115 357 0
-966 653 254 0
-2908 -626 -1036 0
127 1480 2081 0
-489 -689 1182 0
2810 -921 -159 0
2120 1203 -1972 0
-2574 2613 2628 0
-12 575 970 0
-1157 538 -2512 0
1911 -1577 -2429 0
-227 -2779 -893 0
-962 630 172 0
-2226 114 2742 0
1744 2711 957 0
2832 -92 1395 0
-2977 1381 339 0
2815 2323 -2557 0
-1657 2994 2635 0
1597 -2141 319 0
-307 786 482 0
-830 -2704 456 0
-1898 -1150 -2000 0
1101 -2360 726 0
194 1268 -384 0
-2168 -1038 -1543 0
2320 -2105 1835 0
1352 -1014 -1777 0
-1270 2516 -154 0
-2881 2336 -231 0
1928 1676 2873 0
564 664 1339 0
2640 1100 -2151 0
2946 -1897 -1768 0
-2280 621 -660 0
-1260 2041 -1807 0
-34 -1882 -1401 0
-2391 1187 -135 0
-920 1189 -2392 0
-2388 -870 -2352 0
-1976 2128 -924 0
-23 -2768 -2939 0
-1765 -2396 2581 0
1243 -36 714 0
-1124 -875 1484 0
-199 1971 -745 0
-2498 1951 2363 0
304 1266 -1605 0
1068 1565 -1897 0
-715 1340 -2767 0
1744 -1914 -1942 0
1157 -2187 724 0
1731 1707 -1324 0
2835 2559 3 0
-2246 234 -1086 0
-2683 2177 421 0
-2947 2309 2361 0
-2189 465 1382 0
-63 342 -31 0
2981 -558 -1427 0
812 2056 -2841 0
-2245 222 11 0
1689 2714 1459 0
780 -523 2594 0
237 -1059 -2216 0
2341 -1630 -2188 0
2539 718 -250 0
1676 -773 852 0
2653 1459 717 0
-401 -1271 1785 0
1960 1708 48 0
955 58 2084 0
-2981 213 -2050 0
-1334 -582 1995 0
-420 517 150 0
-867 2387 -1401 0
-395 -789 -2630 0
987 -310 2552 0
2290 560 1959 0
-275 1284 -1170 0
-2435 -2109 -2117 0
-2915 1633 1570 0
2090 -771 -138 0
-311 2174 1908 0
-2433 2557 951 0
-794 -934 571 0
1513 -1821 1832 0
644 -418 -1983 0
-855 2208 2552 0
1365 1305 1128 0
-1983 1335 1924 0
142 -197 -2012 0
-2445 567 -1152 0
2972 -2969 2050 0
-2254 575 -1358 0
1931 1330 -74 0
1927 -2840 2584 0
132 1707 2863 0
1655 168 -1748 0
-808 743 -2831 0
2396 693 -2077 0
-1704 2834 -2579 0
-1963 -1375 1152 0
1715 -1640 533 0
-2172 949 -2894 0
-898 2226 2494 0
1590 -2586 2318 0
-2274 -2061 2787 0
-1880 -1921 -2466 0
-1320 1195 1262 0
-1682 -1692 -581 0
-1139 865 1654 0
824 -2700 -2544 0
1239 1967 1293 0
-2367 -1645 1974 0
1523 2460 -831 0
2246 -2123 -2015 0
1819 -1983 -1721 0
1749 -321 1411 0
-1630 -1581 -676 0
1971 -2960 2401 0
2422 2411 -1486 0
69 590 -371 0
731 90 -2054 0
-2428 -2177 -1884 0
-401 1008 -579 0
2384 -1989 -1497 0
-1381 -1234 1026 0
1094 -2178 794 0
-2210 2843 -1446 0
-1326 1633 -2972 0
413 -888 1608 0
2608 1532 157 0
-237 1099 1682 0
2301 2046 -1530 0
701 -2340 1644 0
-1728 988 766 0
-2058 -766 2663 0
1982 -1463 -1040 0
1493 -1701 1231 0
283 -2011 -15 0
254 -1340 796 0
2251 -2821 2157 0
2491 816 2565 0
341 1597 1315 0
-1511 -779 -207 0
-1671 1838 -1797 0
218 1854 -633 0
2750 2594 -396 0
1650 -2398 -2104 0
-898 2860 1616 0
1042 375 -952 0
832 -1244 1030 0
-1819 -2178 -21 0
198 2359 -1113 0
-2382 -1046 136 0
-599 1522 1074 0
1757 2841 585 0
2217 -2819 1578 0
1339 -796 -927 0
-1330 -1115 -1341 0
699 -2544 -949 0
1187 723 883 0
-599 -3000 -2147 0
-2213 -1578 -2652 0
1471 1129 2164 0
1824 1049 -620 0
-2376 -2960 654 0
-2711 853 1372 0
2465 1259 -2231 0
2768 1059 -2519 0
-608 -262 1822 0
-98 616 -1393 0
-534 -2692 -1346 0
300 -772 846 0
-2469 827 -772 0
1747 -1905 1781 0
2532 1084 -442 0
656 2996 -1351 0
2278 93 2558 0
-1503 -631 -1278 0
-2578 1346 1110 0
2931 -2822 2002 0
-2968 -1200 -2417 0
-98 -31 -344 0
-1913 -1386 2979 0
-1194 -2450 1281 0
835 -2210 198 0
459 697 -1118 0
-416 2244 2977 0
1366 -486 340 0
2945 -2073 1485 0
-1087 1085 -1994 0
1396 -251 2954 0
-77 2403 789 0
-853 -97 -1725 0
2538 42 1349 0
1687 -2608 172 0
-1952 -1708 -1787 0
1964 1551 -1813 0
2828 -2642 -1571 0
-355 2057 641 0
627 -36 1006 0
1127 -36 1790 0
-946 1210 -1670 0
2910 -2314 1752 0
-146 -2928 2599 0
-1937 -1559 -933 0
307 -1174 1975 0
-131 -2548 2232 0
2232 519 2453 0
901 -1275 1136 0
-2718 -161 2419 0
516 -1068 -657 0
-2652 2984 -1648 0
-1235 -2868 -2891 0
2084 2271 -2317 0
-2662 -1048 2129 0
1611 -2094 -2403 0
-2072 191 -1294 0
-285 214 -325 0
-2463 2914 92 0
-778 -1253 964 0
-2830 900 2810 0
1540 -1071 663 0
-1902 -1296 942 0
2789 2494 2985 0
1487 1310 -1340 0
-469 474 -2762 0
-824 277 -1419 0
-1257 1765 1293 0
81 2434 -2105 0
-750 390 2397 0
-2701 -2085 2823 0
-98 -1758 1982 0
2358 -1229 -2757 0
-1044 -1958 2603 0
-346 2707 -1542 0
-1580 -2584 2337 0
-2112 -274 804 0
871 -2137 -1838 0
1121 -2695 -2312 0
443 2215 -2424 0
-1672 -276 -2742 0
2984 1160 -2963 0
1926 -2175 1283 0
517 -239 812 0
1549 107 1643 0
22 1798 445 0
192 2235 1601 0
2155 2522 -1277 0
-514 1099 -2912 0
2785 1146 -1325 0
-1050 442 1709 0
637 -816 326 0
-2077 553 -1155 0
-681 -948 -656 0
589 -195 -1242 0
2798 1643 2842 0
2127 395 1878 0
-1905 -2854 258 0
-28 305 2548 0
-919 -4 -1294 0
2959 91 1374 0
-2856 -876 2934 0
-2168 469 -2506 0
-2356 -738 2551 0
-1070 2274 2671 0
1999 -1305 -1338 0
-1298 -663 -1526 0
-2138 1554 685 0
-929 -1159 -2867 0
706 -45 1213 0
-1521 2861 -2107 0
1833 -1529 106 0
2270 -554 -2797 0
2543 -433 -779 0
-1270 -897 957 0
-2367 -2486 2647 0
554 -1660 -36 0
2464 -929 1945 0
-718 663 1426 0
-22 -1605 1426 0
-922 1368 779 0
-1474 -462 2091 0
2564 -576 -1465 0
2669 2750 1597 0
-2104 499 -1486 0
1107 1932 2563 0
2562 -1445 -1543 0
492 -442 1733 0
-2576 -734 2847 0
-19 907 2292 0
-1306 1704 635 0
-612 1736 1034 0
-489 -1136 2458 0
1072 1057 -807 0
-1946 2299 -2030 0
2609 2451 459 0
2208 -680 1419 0
513 2261 2828 0
-1312 284 -2483 0
432 1360 -1564 0
-318 2610 1069 0
-1818 699 2411 0
-1900 584 -2908 0
2706 1386 -1365 0
444 617 2426 0
-955 176 -433 0
2530 1508 420 0
-50 240 -799 0
926 1056 890 0
1929 -1228 1474 0
2560 -1945 1602 0
974 -1844 641 0
-944 -2851 -1886 0
1708 -788 90 0
729 -2885 2859 0
-63 -127 -2153 0
366 733 2128 0
2667 -1332 230 0
-182 1617 1648 0
2416 1105 733 0
636 -2726 -616 0
2748 -2902 -2562 0
-587 -838 1767 0
1979 -1507 -763 0
-2381 377 223 0
-1198 -21 -1700 0
2021 2880 310 0
-769 2329 -1537 0
1497 180 -2396 0
-2853 -1088 750 0
-2241 569 2120 0
2704 -1074 1292 0
819 -385 -980 0
-2323 1631 -1872 0
-985 -564 1290 0
-2831 -1950 2800 0
-2919 -1747 2915 0
1091 669 -1034 0
2507 -445 879 0
1177 2342 -1887 0
1064 -1025 2983 0
1873 -456 1541 0
-1547 1494 557 0
-16 499 -2064 0
2873 -310 -679 0
-1748 -1229 -123 0
-1385 -514 -2492 0
357 -165 -1376 0
-1810 -1671 2137 0
-2608 -1401 -136 0
246 -1441 1667 0
-2210 -403 -2692 0
648 2513 2111 0
-1553 -220 -1031 0
2220 139 1293 0
1912 2862 1055 0
2773 1958 -2056 0
-1485 33 -1663 0
1420 1676 -2644 0
-2324 -718 888 0
2647 -1023 1012 0
1390 -637 -2083 0
-248 2609 -1559 0
-296 1919 821 0
2675 -2702 -892 0
-553 229 -1249 0
-1106 -617 -827 0
-2007 1831 1389 0
-1207 -1882 1874 0
-2731 1895 -537 0
1591 -1061 -1169 0
-1371 -2773 -2154 0
-585 -2964 -653 0
-2943 -2571 1059 0
432 -2153 1257 0
-1611 1544 1719 0
-800 861 2023 0
1003 -1100 511 0
-2773 1639 1076 0
-1120 1902 2774 0
-2346 -2828 1646 0
-1549 2435 -1168 0
-1395 -717 -1805 0
2221 -457 1528 0
1829 -213 -78 0
-166 -2445 1060 0
1635 -835 -535 0
-1500 704 -1588 0
-2112 -1092 2608 0
1875 1896 -763 0
669 7 -470 0
-2801 -2857 2647 0
-2348 478 2134 0
-2951 2348 -1029 0
42 -1724 1481 0
1801 -2734 2424 0
894 1106 -2365 0
2986 -246 -1352 0
2048 441 2184 0
-1176 -1260 -46 0
-1457 1603 2154 0
-1588 -743 1694 0
1443 1155 622 0
-2905 709 1434 0
1237 312 -1307 0
59 -92 -2968 0
1567 2335 -2871 0
9 -1564 -869 0
-2572 2834 -575 0
-2296 1167 -184 0
-1845 -2162 2697 0
1847 -1393 -1192 0
368 2626 -48 0
-1177 -318 -802 0
871 -613 -2195 0
-2956 797 -2119 0
2384 1029 2197 0
-602 827 1593 0
1577 -251 -2706 0
1053 948 -726 0
667 1954 2221 0
1821 -2960 2923 0
-1629 -525 940 0
211 -1837 2571 0
2778 -2376 1398 0
-452 -1172 -1160 0
-89 536 -282 0
-1770 -1174 2568 0
-2924 -2824 -2715 0
-2639 1236 -748 0
-2732 -192 978 0
1841 249 -2378 0
2729 -1667 -1575 0
-2145 -681 2892 0
767 744 -2723 0
717 578 -2887 0
-1569 2102 890 0
2399 -1729 1193 0
741 1798 2350 0
776 -2635 1746 0
-2291 -95 -889 0
-315 -249 -199 0
1509 2626 1848 0
2830 1422 -2365 0
-327 1943 9 0
2280 1537 921 0
-2255 992 -2256 0
1078 -1241 607 0
920 2682 -2647 0
-236 2181 -1668 0
-71 -1842 69 0
2726 -18 2590 0
2632 -1390 -2159 0
2193 -397 -676 0
-1579 -902 -2760 0
159 2323 -1813 0
2324 -36 -661 0
216 -1845 1166 0
197 2092 -2591 0
-586 953 -325 0
-2466 -842 -1088 0
2094 -2742 1913 0
2599 2953 204 0
-65 -2067 -1153 0
2738 -1298 2493 0
2717 -941 1308 0
2327 1412 953 0
-2867 -809 1111 0
447 99 -1260 0
-1311 -1024 2994 0
849 211 968 0
2218 2730 991 0
380 2558 828 0
337 -208 741 0
-2395 555 -636 0
557 2342 -2775 0
-2290 1412 -162 0
2963 -659 -1272 0
-2747 814 -952 0
2593 1843 449 0
-1876 2360 869 0
705 1242 -1483 0
-892 122 814 0
-2705 -2221 1920 0
2287 -2173 1111 0
1818 -2807 -2161 0
-1084 1437 -785 0
2741 1506 2847 0
2121 1024 -990 0
2441 2927 421 0
1351 783 869 0
-596 -1024 1992 0
-1954 2974 -1463 0
-1766 -466 -1244 0
615 -404 -895 0
-1328 2955 -1573 0
725 -1966 1180 0
1439 1699 588 0
523 149 211 0
259 -2765 550 0
-956 -243 -1100 0
1074 245 -2672 0
-1902 279 1828 0
-2870 1998 -451 0
-185 2894 -1652 0
2338 -1401 -2511 0
449 -2529 -1207 0
1077 785 1792 0
-544 -1518 2199 0
276 503 -1305 0
-1701 -2321 345 0
-1101 417 -1285 0
-2686 -2019 129 0
416 1486 1558 0
-1085 469 -2427 0
2336 -1324 2508 0
2297 -1165 518 0
1513 679 2414 0
2826 -1165 -629 0
2091 863 2208 0
-2286 -1078 1150 0
2122 -638 -571 0
-722 -162 -738 0
-598 -2956 954 0
2344 -1704 1757 0
2934 1138 -2405 0
1126 -2523 1376 0
-1463 -2695 2966 0
93 -385 956 0
855 2741 2932 0
-1047 1740 -1738 0
2796 2342 1833 0
556 2392 -174 0
-2478 2218 -523 0
-179 2706 -1609 0
1228 -2929 -1977 0
-2206 -506 -1439 0
-1558 -1739 150 0
-1382 -373 -2959 0
-2198 1911 2767 0
1844 2647 -2373 0
-849 1074 2441 0
1585 1581 -592 0
-1713 1695 -234 0
2614 2779 2381 0
-447 1303 2012 0
2501 2876 2006 0
-1961 2575 429 0
2916 -769 624 0
2912 1436 -1358 0
436 -897 1251 0
-1230 -1197 2195 0
2609 723 2223 0
1368 2139 2696 0
2730 -2565 2806 0
2399 1194 -669 0
2837 -1569 2473 0
156 -2146 437 0
-287 -2583 139 0
2765 -1106 2004 0
-2668 -1081 2854 0
2272 -1774 511 0
1415 -161 -2415 0
-1049 2560 -1581 0
-2865 -1727 2525 0
2637 1450 2634 0
816 -2934 2705 0
1108 -1144 293 0
2054 2159 -1728 0
1413 269 1565 0
832 2472 1541 0
2139 1223 -1723 0
2109 97 -2793 0
645 2539 -1746 0
-473 924 -2255 0
1954 1402 -951 0
2444 530 -2505 0
660 2837 -2332 0
2316 -2693 -2986 0
-863 -798 1389 0
1940 -532 -2940 0
2479 -337 780 0
-2341 -1104 -1828 0
-936 -1729 -2928 0
-1948 -960 2956 0
-867 1884 248 0
-2609 2488 -2303 0
-2625 -628 156 0
595 -2133 2141 0
-2755 1029 -1074 0
-1483 -2225 365 0
1725 -2424 -2635 0
-16 -851 2704 0
-1215 -1657 -1355 0
-1704 -1456 -952 0
2826 1108 -133 0
986 -1890 -1073 0
2438 -2093 -2162 0
972 -2663 -2477 0
-2307 502 -382 0
-763 415 1109 0
-2565 -79 2122 0
-2078 -250 306 0
903 2777 1476 0
1190 2859 106 0
554 -2442 2889 0
107 1659 2247 0
332 -2728 -1843 0
-1852 -576 -1335 0
178 342 -2335 0
-2637 -1869 2138 0
139 882 2044 0
-1554 -292 1245 0
-388 -2002 2495 0
-1396 1299 2840 0
-1556 -1971 -1239 0
-354 16 -229 0
654 2686 -2811 0
2832 -1161 -1606 0
-1640 -386 732 0
1553 1043 1188 0
572 1113 -1059 0
-1848 -33 97 0
-583 -146 2244 0
-2570 2909 -856 0
-1011 2507 -2410 0
-928 -2074 -2233 0
2330 287 2249 0
313 1802 1456 0
1838 -2863 -1053 0
-1359 2500 210 0
2086 1772 2188 0
2197 -1314 1799 0
838 2909 -1355 0
443 -2041 2859 0
411 1682 1252 0
-2590 132 1621 0
2839 -2551 -2955 0
1502 -1935 -2854 0
2372 1564 -1063 0
2415 1237 -2771 0
-2602 -1637 -2756 0
-766 -1192 -703 0
-1240 -2634 545 0
-610 -1997 892 0
1755 -184 693 0
112 1677 -1893 0
1549 -1177 4 0
-2587 617 -359 0
-155 48 -2865 0
-2520 -2604 2235 0
-2586 -2646 -2797 0
1620 -1421 -2133 0
-2728 2661 -2223 0
-1087 604 1256 0
1323 -2500 -1048 0
1112 -1574 1577 0
-961 -156 1297 0
2354 190 -1194 0
-2936 -1189 603 0
1766 2597 2632 0
2730 -2150 340 0
-2405 -1587 -1046 0
2668 530 -1756 0
-666 1114 923 0
2008 -924 2243 0
2853 228 -2721 0
-1234 -2721 548 0
1890 2561 -855 0
2003 1890 -2506 0
2163 1616 -2857 0
-2722 -2011 -1579 0
-1877 -2607 2406 0
1404 -2481 2426 0
2512 2264 -2041 0
-656 -205 -751 0
-2718 -2842 -499 0
2485 1481 393 0
2366 -347 1058 0
1727 -1543 1476 0
2152 245 969 0
1283 -2612 -284 0
-2118 1948 1980 0
-1901 -1492 570 0
-869 -983 2258 0
-361 -1575 1971 0
-2006 -2320 -2826 0
569 -817 2932 0
2026 1806 -933 0
2783 -2171 2184 0
-667 286 1276 0
-2649 -2514 -2700 0
-1335 -873 1476 0
-709 2475 1753 0
-798 2874 1688 0
869 2399 2805 0
1798 -2544 -1015 0
-473 2126 -2525 0
858 -707 496 0
-2381 -1198 2690 0
-1082 2065 314 0
-2706 -2608 1900 0
-2296 -1324 662 0
961 -455 -2266 0
2295 617 -989 0
-2526 -2585 -2278 0
2325 2450 1792 0
-75 2397 2380 0
2602 -2509 -902 0
-809 -2515 -510 0
814 1454 -2905 0
330 1430 -41 0
973 -1399 -2322 0
-2510 -429 2793 0
269 -314 -820 0
-700 -1592 -1208 0
869 -191 -652 0
-404 -562 -889 0
-808 1193 -2324 0
-2780 -1968 1658 0
1756 2658 -696 0
2632 -628 -1165 0
-408 -941 -1682 0
739 -1923 -1621 0
1404 -618 -2420 0
1751 2908 2904 0
2015 -2983 1356 0
1491 -218 -1835 0
-856 2068 -2009 0
-245 -1657 -449 0
1367 1370 -2010 0
-242 -807 1290 0
2708 714 -2492 0
-1699 -82 388 0
1618 851 395 0
587 2229 -1496 0
2043 391 -2020 0
-778 -1416 -1859 0
-2773 768 2701 0
-2845 -2242 2732 0
-1831 -1728 -1519 0
-2198 -2773 -2825 0
987 -2623 1253 0
-557 -1824 -760 0
313 -1326 2060 0
1899 -2227 1840 0
-376 254 -527 0
-2764 -610 -1010 0
1793 985 -2506 0
-652 24 1754 0
1573 -2337 -1429 0
-1315 2446 2046 0
-1479 931 1076 0
-839 -1624 865 0
1947 2169 -2910 0
307 1555 -2362 0
-1481 2654 1574 0
2038 -300 780 0
-2938 2497 -1474 0
1174 -31 -2638 0
-2639 1699 -2826 0
1766 2113 1669 0
2797 -982 1451 0
-180 -389 -396 0
-2601 -187 -1499 0
-1746 2522 -806 0
-2690 244 -1319 0
2951 2249 -631 0
996 -1205 -1177 0
-1599 -2751 -1326 0
1557 -953 -2057 0
1206 -2726 648 0
1827 2961 -2372 0
-300 -1796 -479 0
1743 -1114 -2052 0
-2344 -2446 2563 0
1951 -2015 565 0
2738 1839 1372 0
-1653 520 -2798 0
-613 -2118 831 0
2994 2946 -967 0
1898 -1062 2138 0
685 -2513 -2057 0
-1111 -5 -1969 0
-604 -2224 -2269 0
-2675 -2498 1704 0
-2447 -2221 -992 0
-2528 -1203 -1590 0
1607 2578 -2217 0
-1260 -2181 50 0
77 2943 790 0
1915 -522 -428 0
1152 2768 2210 0
-1889 239 1000 0
2571 2144 -1316 0
1083 -2408 -205 0
-103 2973 -941 0
821 2351 -1333 0
779 2678 -2990 0
-1839 -830 2119 0
-1801 -1120 125 0
406 642 1707 0
2214 2557 2335 0
-1083 -2999 -535 0
823 958 2498 0
-765 -2739 2574 0
2160 2891 1705 0
-682 380 -796 0
-947 -1976 -600 0
-2615 -664 -2047 0
-297 -2856 -16 0
527 2972 -2006 0
-2558 1128 2314 0
-770 2697 1268 0
-2216 1195 2297 0
2150 -2008 1324 0
-1290 -2552 921 0
-317 1963 1896 0
212 -1449 2178 0
979 1510 1587 0
-2014 -2338 -1105 0
517 -2602 -1281 0
331 2094 2838 0
-2520 1686 433 0
1381 1756 -601 0
1268 -1752 -2996 0
-1085 -1753 207 0
-406 -2431 -1094 0
2055 634 -1830 0
-2127 1826 -2451 0
-2087 -1521 -733 0
2473 1738 1240 0
303 2583 671 0
1663 690 -1712 0
941 102 2161 0
-2830 -297 1294 0
904 1861 -1934 0
-840 -1777 1917 0
-2513 1648 456 0
-1521 716 -442 0
1761 1892 -2646 0
-1817 -1447 -305 0
-1003 1159 2828 0
-2250 88 -265 0
-879 2669 1051 0
2075 220 816 0
323 2533 2914 0
1229 2841 -1560 0
-361 -477 -842 0
-981 -599 484 0
1694 1340 26 0
2345 -1927 -218 0
-235 -351 896 0
293 -1203 -1424 0
480 1344 -1479 0
751 -1588 897 0
-261 -752 -2558 0
436 -167 -132 0
-2524 2708 -1956 0
-2088 -2196 -725 0
-1769 2814 1049 0
-846 -1769 2376 0
443 1301 -1663 0
-1585 375 -1676 0
1237 1542 478 0
-1966 -2445 -2970 0
2785 603 1571 0
1518 2778 2268 0
-1105 -6 -749 0
2509 -1152 -1974 0
1192 -1198 732 0
-2362 -2044 -618 0
-1334 2578 1247 0
2343 -2104 1171 0
2307 -1489 419 0
2883 -326 -1553 0
-2846 -1695 -1922 0
641 583 -2875 0
879 -2708 2371 0
-2546 -1365 578 0
384 -2896 33 0
1396 1504 -692 0
2854 -2660 631 0
2131 -774 -499 0
1521 2257 884 0
93 2466 -271 0
313 2924 2993 0
-1307 2144 -544 0
-2240 900 1620 0
-581 378 -2273 0
-633 1896 -1164 0
-1191 2985 -849 0
2484 -2522 -226 0
1787 -247 677 0
1465 -2576 2730 0
-1102 -517 1853 0
-1412 197 2936 0
-1558 -2231 -2066 0
-110 2516 2274 0
-759 2546 972 0
2898 393 -956 0
848 1457 2968 0
-1942 -1996 1725 0
1425 -184 -2070 0
633 1921 -2909 0
-850 2107 1917 0
1503 -1809 1277 0
1031 2696 2899 0
-930 -2283 2244 0
-1750 1739 -2263 0
1845 -588 972 0
-2723 2503 889 0
-1745 -2778 310 0
-2596 532 -1985 0
97 1722 -306 0
2400 1929 1030 0
-199 -623 -2999 0
-2232 392 2450 0
-2698 211 594 0
2333 -2889 -2405 0
1530 463 -1004 0
-2837 2287 -2011 0
-2020 725 2224 0
-1313 2205 750 0
1598 1992 -164 0
-2669 -1449 2873 0
-1075 -596 -2465 0
157 1773 1779 0
1236 -1559 1584 0
1799 909 -965 0
-2969 -1711 1058 0
1012 -584 -1953 0
334 -2380 2712 0
-928 492 -574 0
-1439 -1506 -1754 0
1353 -2833 -914 0
-2152 -1164 -206 0
1754 -859 426 0
2095 -668 -144 0
-448 -246 1353 0
1245 -1653 1043 0
2564 2672 523 0
278 -1353 -2362 0
-2612 1411 1223 0
2677 -1759 830 0
2081 -2511 -1264 0
1861 -3 -2135 0
-768 420 787 0
-2080 -2384 -2591 0
-1621 -909 -93 0
-2248 1171 -1208 0
-1648 2916 2363 0
615 2048 -380 0
2942 -1990 -1022 0
1859 -2123 692 0
-1256 -15 -55 0
1757 -2405 2037 0
-1221 -78 -1292 0
-2441 -865 302 0
2360 -2801 -788 0
-1113 539 -662 0
932 1312 2100 0
3 1768 -93 0
1168 2044 -1063 0
2380 -610 2555 0
-2614 -353 704 0
566 2495 2175 0
-2958 -1181 -1328 0
2637 407 1984 0
-2682 33 1285 0
-2011 -72 2187 0
-1445 -573 2973 0
750 1301 -1138 0
1090 -605 85 0
-2852 942 1890 0
219 1130 -1998 0
-1376 759 2152 0
-1122 -191 -826 0
-2113 -513 -824 0
2285 -1585 688 0
-2054 -2213 2475 0
-888 -1518 -2858 0
-667 -434 -2304 0
-951 -2982 428 0
-2973 830 -1294 0
467 -784 1496 0
-473 -455 2809 0
1925 -2136 -584 0
220 780 -2409 0
1731 1652 -999 0
2080 2367 652 0
-1529 409 2599 0
1693 2263 -1194 0
-1850 -793 -2431 0
1658 2100 2211 0
2074 269 385 0
-1784 -642 -2098 0
18 -231 2778 0
-896 -306 964 0
104 614 823 0
-38 677 1244 0
-809 -1586 2258 0
177 2692 -949 0
-1547 -804 -1396 0
2028 1225 -1008 0
1900 1153 1695 0
2801 -1519 1043 0
-2760 -1811 739 0
-1779 -1561 -2469 0
578 105 -1521 0
238 -2702 2026 0
-2075 1246 2726 0
2956 -58 -1286 0
-2921 -956 1347 0
2304 2687 -2287 0
1103 1654 -2095 0
-1427 1 -2513 0
-2895 -2231 -1833 0
-2402 1009 2595 0
-1321 -2006 2410 0
-2812 -511 453 0
2006 2012 -1873 0
694 1677 -139 0
904 2604 599 0
2925 290 -1228 0
-2618 2873 1168 0
1568 2932 484 0
980 2564 1960 0
2043 -641 -1345 0
-1277 -377 -2153 0
1066 -2563 2737 0
1756 985 -1423 0
-2022 1100 -2357 0
-1810 538 74 0
432 204 1622 0
50 -973 1723 0
1616 -1498 -94 0
-2194 1112 1099 0
1534 -944 -2622 0
214 261 -10 0
865 832 1549 0
-1366 1354 787 0
1994 573 -1561 0
-1010 312 -2100 0
-1649 2308 -217 0
-1447 1280 2639 0
-466 581 -2417 0
2891 -1637 1452 0
905 2901 1641 0
-1556 233 175 0
1492 -2650 -401 0
2319 -2970 1424 0
2552 2675 -549 0
-2357 -868 -2538 0
-964 1569 -476 0
89 -1098 -1539 0
-2697 -2711 -1510 0
-874 -1854 -1897 0
721 -2570 2553 0
-188 1333 -2118 0
-2107 -2569 543 0
-586 1073 -2765 0
-2368 1423 1400 0
-2161 1158 2631 0
1802 -1354 1922 0
-1429 -1963 -1685 0
-1049 1604 434 0
-2030 -2764 -1313 0
2262 -2143 -2098 0
1388 -1245 -568 0
1170 1786 1133 0
-1141 132 -2085 0
-197 -1787 -1573 0
-2095 -482 296 0
189 1450 645 0
2495 2722 -2446 0
-891 1827 -62 0
-482 398 2169 0
500 1917 -1923 0
619 -2375 1710 0
-2057 2173 2996 0
-514 635 -318 0
-1069 -2685 -1794 0
-2633 -1703 -2226 0
1928 2200 -2813 0
-452 2223 -573 0
1638 2191 428 0
-2392 612 805 0
227 -722 -2524 0
-685 -813 1884 0
1858 1329 2300 0
-1199 1594 581 0
2008 68 2448 0
68 -600 -1418 0
1476 -2809 -1042 0
-2852 1473 -1436 0
2563 573 -71 0
2751 -2614 2935 0
2068 -684 2372 0
511 -780 -2608 0
-328 -892 1498 0
-1064 -1559 -1917 0
-1146 -2958 -1161 0
1372 1491 -2069 0
1390 -1126 -2040 0
276 -92 -2729 0
-1614 -679 -173 0
-775 1485 1835 0
2055 -1781 -1333 0
2573 2408 -2963 0
933 -289 1134 0
444 1437 2550 0
2636 913 -2793 0
-352 -2676 -1315 0
1085 -924 -1025 0
-332 -1799 -1249 0
426 -1365 901 0
804 -2679 411 0
-410 2327 486 0
1346 -1452 2905 0
-778 1491 2940 0
-1286 -2567 -2024 0
-1837 -1125 425 0
244 2323 -640 0
508 64 -2049 0
-2410 607 -1375 0
2101 881 -1298 0
-420 1432 -1817 0
-1230 482 -1860 0
2299 -2379 2514 0
-2217 -2152 435 0
2899 703 -455 0
-2433 1628 -1977 0
-1044 2466 1685 0
-186 298 1590 0
-959 -979 2928 0
-2009 125 -242 0
-1243 -799 2501 0
2948 1033 2532 0
-2811 838 -2264 0
-206 1228 -2423 0
394 2704 -123 0
-548 98 551 0
-1413 2099 -1199 0
690 -990 -346 0
116 -2199 1321 0
1337 1452 944 0
992 708 829 0
-2671 -2123 2410 0
2953 -1500 -1641 0
-1709 2234 2938 0
2237 -101 2192 0
112 -72 -1125 0
-647 2030 1907 0
813 871 2073 0
-2828 -235 121 0
2805 2658 -2413 0
356 -2770 -2063 0
1392 1956 -1236 0
-2271 -2389 -860 0
2808 -306 -551 0
1107 -1741 2169 0
-1927 -2867 2679 0
-1170 -1141 -1710 0
-1552 1899 -1103 0
1153 -1542 -2012 0
-2702 -713 2062 0
-1107 2009 -747 0
-587 272 2412 0
2405 1793 -2443 0
-345 -302 -1057 0
1206 548 -2034 0
1984 -1684 -2543 0
1821 1384 -1691 0
1812 2245 -1793 0
2250 2129 -802 0
-751 -2051 -821 0
953 -2302 -2337 0
1518 1887 526 0
-2622 30 1840 0
-1369 -1961 -2268 0
1729 2676 889 0
-1901 2597 766 0
383 2645 -2928 0
259 -2461 -141 0
516 -1456 -1862 0
-1859 -909 -2734 0
2807 397 761 0
2314 2143 -146 0
2516 1369 1597 0
-567 1 493 0
-2299 -2983 -2960 0
-2365 2481 1329 0
-65 1927 -500 0
-2865 232 750 0
2083 687 -1498 0
1644 -2487 185 0
2534 -2908 2179 0
2932 1054 -2031 0
-2380 -1638 -1692 0
2578 -2970 743 0
2801 1996 -2769 0
-1376 1960 1013 0
-2970 1962 -2857 0
2263 -834 -2061 0
2729 655 -718 0
-103 2856 -802 0
-1676 -1872 -989 0
866 -1924 763 0
1253 439 448 0
-1359 -2581 2734 0
-1087 2539 -2844 0
991 -2599 -626 0
-2267 2588 -2625 0
-954 -2536 -728 0
-1171 -2787 -408 0
2776 -943 -2588 0
754 1361 -2581 0
2875 2256 -1021 0
-578 2313 2057 0
-986 1436 2960 0
2684 1850 -516 0
2189 358 1934 0
649 -447 187 0
-673 -602 793 0
-1936 -1169 -1823 0
-2249 2466 -513 0
1195 1341 -2720 0
140 -95 -125 0
2491 -2567 -243 0
2154 -1435 211 0
982 -204 -2635 0
-720 1621 -75 0
2868 -396 -1895 0
-1122 -2542 -762 0
-2837 144 2788 0
-2943 1468 2661 0
941 2503 -947 0
-947 1338 593 0
1105 -2563 1579 0
-2627 2817 -2795 0
157 -433 2057 0
-500 -1770 1078 0
-16 2969 833 0
-296 -1381 -2272 0
2834 -1882 -1447 0
-2674 110 1968 0
484 -1543 1793 0
1305 497 -751 0
-1568 -1120 1908 0
-995 1484 -1808 0
-1782 -1883 -1991 0
-494 1723 2128 0
-2791 1046 -686 0
-240 -2032 606 0
-73 -815 1512 0
-1130 1586 2361 0
-1180 1336 2601 0
-2979 1232 788 0
2383 -2209 2188 0
2484 2871 -965 0
278 -671 2348 0
-1675 439 1090 0
-2525 189 2405 0
562 794 -715 0
-1009 -67 23 0
-1281 111 85 0
2041 2733 2817 0
1882 491 1187 0
2382 -1751 152 0
2951 -1889 473 0
-1102 -2210 1168 0
162 295 395 0
2211 -1214 1159 0
-846 569 -708 0
2156 1976 -2469 0
-832 1746 2193 0
870 -1180 2539 0
1622 2550 1196 0
-766 -1599 349 0
2991 -2434 -2390 0
-2680 -2839 -347 0
1165 1947 -250 0
-2730 1348 1546 0
182 759 -1874 0
1646 -2694 -1401 0
-860 -264 2969 0
-1138 -430 -1453 0
1567 -2939 916 0
1181 404 1957 0
-1234 -793 1803 0
483 2183 -633 0
1871 2335 -135 0
-1863 2426 -2554 0
-2825 681 2118 0
57 -1147 2154 0
1054 -2115 -542 0
-2748 775 2584 0
2508 1288 -967 0
-2860 703 325 0
-2026 2093 2227 0
1239 -142 2363 0
2485 -1949 1728 0
-2083 664 2297 0
1976 526 -2174 0
-2095 -651 106 0
-1000 -432 2344 0
-126 711 934 0
1434 2792 -1135 0
923 1221 2553 0
-1491 -490 -2111 0
2274 2128 199 0
-1220 -2251 -2784 0
-1840 -788 1273 0
1024 1432 -455 0
1356 2317 835 0
2572 623 -2886 0
2156 -1203 418 0
-295 -1088 356 0
-486 -636 1971 0
-865 1273 2332 0
747 -1172 41 0
2854 2879 1416 0
-873 -358 1447 0
2678 -611 -660 0
1900 -2421 20 0
2875 -2713 1736 0
-350 2706 -2517 0
1317 1063 -2494 0
2897 389 -2275 0
-2608 508 -2491 0
648 1893 867 0
-2992 1946 555 0
-2616 -1789 317 0
358 2522 717 0
74 1248 -1240 0
2319 -1077 -266 0
-71 251 141 0
-1290 -164 1454 0
2735 2214 -2814 0
-121 -1057 -43 0
-589 -1202 1176 0
832 14 -1802 0
1765 -1735 -944 0
-963 406 -996 0
1847 136 -17 0
1784 1138 -11 0
921 403 2266 0
2896 199 440 0
-2496 -2495 349 0
562 2374 -870 0
-690 -2406 -1232 0
972 -415 933 0
-295 -1303 316 0
-1262 2282 397 0
-2447 1278 144 0
994 1213 1702 0
-1134 -1442 2366 0
-49 -2473 1058 0
-2151 882 -1256 0
-717 -2382 1698 0
-2747 -202 190 0
2342 1990 2764 0
2871 -1276 1444 0
1474 2232 -1230 0
1762 2023 2851 0
1721 1368 -1058 0
1305 -995 -64 0
-2474 894 -2858 0
-1658 779 -1814 0
1415 1921 -2937 0
-1403 469 1121 0
2072 2930 621 0
-2213 -2952 1312 0
628 -756 393 0
-340 -2712 -2207 0
-2430 2958 -2718 0
939 2837 2403 0
1438 2611 -427 0
567 2983 1062 0
-609 1980 2212 0
193 597 -1544 0
-2796 -1412 -1828 0
-479 -892 -282 0
2022 -1669 -1359 0
1620 954 2398 0
-966 604 2146 0
959 -497 2156 0
849 -1529 1079 0
721 -830 377 0
-2472 -243 657 0
2562 -1995 1572 0
2515 -1086 588 0
2078 -111 -2506 0
345 1998 -634 0
1108 -2267 -1722 0
2790 2535 532 0
2156 -1431 -61 0
2181 2511 -1854 0
1462 -176 2170 0
-2261 -920 -1512 0
-18 1644 -1836 0
-2872 -2450 835 0
-1126 -2020 2170 0
311 -2668 1836 0
1227 1360 2534 0
-288 -1191 2122 0
-817 2806 467 0
-1866 982 763 0
-469 1516 -1378 0
-1365 -2366 297 0
-930 2572 -1588 0
2591 1906 1972 0
-1297 2735 1861 0
772 -1780 344 0
2218 1043 -2369 0
-287 -237 -1788 0
352 2904 2547 0
-2 331 -424 0
944 -636 -1712 0
814 -697 -2485 0
1601 1079 1782 0
2329 2364 -578 0
43 739 -1101 0
-809 -2733 48 0
2855 -1773 2316 0
1096 674 -1846 0
1489 -187 2628 0
-2598 1580 -2530 0
1886 2807 526 0
2881 2998 -799 0
-2672 -1494 -639 0
1580 -776 2572 0
2274 97 1428 0
-1792 -2890 2456 0
2710 744 -604 0
-2053 1099 2391 0
-1958 33 -2913 0
2576 -485 2115 0
-95 550 1314 0
-2531 -1588 -1430 0
-1217 -1067 1131 0
-822 2429 1508 0
-515 -663 -2524 0
-346 295 -1370 0
-674 1072 2015 0
2927 -458 -761 0
771 2865 -548 0
1929 -2254 -1411 0
-2067 -166 -863 0
-1169 1025 -1574 0
1961 2331 -375 0
-1030 1499 1469 0
311 -676 2251 0
2597 2852 227 0
589 544 -509 0
-853 -1824 -1401 0
-764 -1047 -1457 0
835 -272 1371 0
1031 767 1939 0
-1267 -1062 375 0
1118 1603 -2965 0
1128 2773 -1583 0
-2949 -223 -2892 0
1193 632 -597 0
2319 82 -2261 0
79 -1444 634 0
174 36 1334 0
-821 1068 -2021 0
2177 -2028 -2582 0
369 2654 -842 0
-2817 -2647 539 0
-2293 2358 1456 0
1327 -87 -2459 0
-2112 649 2179 0
-927 2935 1852 0
-1194 -508 469 0
1432 -1348 867 0
2811 947 -143 0
2974 1106 -624 0
2944 1278 -2317 0
932 -536 -1042 0
-2430 -1940 -2938 0
-2202 2419 412 0
-957 -947 -891 0
291 -972 2825 0
-470 -2608 -328 0
346 2368 761 0
-2426 2231 -1583 0
-2012 -1459 -1343 0
2292 609 641 0
-899 2853 513 0
-2744 1338 -1176 0
-707 -355 -286 0
-2848 1287 -2710 0
2075 2581 -1262 0
-2053 -621 883 0
1145 -2648 -2720 0
-374 2905 -786 0
-2424 1714 -2523 0
-2925 -2105 776 0
-854 -2298 2808 0
1178 -909 2234 0
-1219 -1649 -227 0
539 -1840 -454 0
-2922 -2079 1326 0
-1808 -1410 1356 0
1145 679 -2209 0
-2536 -212 -628 0
2872 -1690 -2431 0
-1219 1088 2293 0
-63 -2496 553 0
-1819 -575 2886 0
1703 894 2107 0
-781 -552 -361 0
-1579 -1152 2450 0
1641 -2213 -2138 0
-1707 -1647 -2918 0
1920 -523 -2830 0
1403 -1887 2457 0
368 -339 413 0
835 -1712 305 0
1613 -135 -709 0
-723 2501 1840 0
116 -2360 2033 0
1689 -1035 1870 0
1149 766 -2424 0
-2726 -2730 -1928 0
2852 -896 67 0
-1802 1998 -1093 0
-2440 428 2657 0
-777 2915 2651 0
-1052 777 -955 0
-2687 -2672 1045 0
-275 2853 2289 0
2805 -1602 -16 0
-1422 1641 -2785 0
2425 2657 -1119 0
-2831 546 -1971 0
-788 298 1129 0
1490 91 2711 0
-892 -294 2991 0
-929 -1513 -641 0
-1924 1948 629 0
1211 -2388 1351 0
-780 201 2722 0
2250 -1376 1681 0
1396 1950 2087 0
-2108 2931 1464 0
-2816 164 378 0
2400 -2695 -1085 0
1136 -1529 -1688 0
-1152 625 -2657 0
751 2487 -1564 0
-327 -2114 -42 0
2735 -1679 1838 0
-1305 930 1009 0
-2742 395 1877 0
2705 -2043 -10 0
2546 1389 -210 0
2894 -1603 -1042 0
1482 -1995 -2139 0
1720 1574 -2708 0
529 -2836 180 0
2793 812 581 0
-2663 1736 727 0
486 -194 -1936 0
-359 -262 -742 0
-1997 1748 -1395 0
2596 2675 854 0
1717 133 -304 0
1327 2716 -1957 0
1447 -828 -182 0
-390 1390 1827 0
-1238 -428 -2746 0
-2563 258 -2387 0
-916 2609 2197 0
-1178 -1619 -1089 0
2797 -117 2689 0
673 -1965 2223 0
1401 106 2766 0
-1726 1339 -2889 0
1320 -543 -124 0
452 -1272 -1106 0
-2613 -2212 364 0
135 -1577 -2147 0
667 1365 -1785 0
1556 -2886 687 0
2928 2260 997 0
1189 -2627 1325 0
2475 -2567 1052 0
1225 -1811 -1826 0
2797 2411 -128 0
-1085 2761 -460 0
-394 -1889 -2647 0
1379 -953 1391 0
-2433 2637 -132 0
-730 2686 -1983 0
-690 -514 -573 0
-1890 -1986 2368 0
2306 1290 -2981 0
-1112 2542 978 0
1879 2312 842 0
518 162 1517 0
495 2375 1003 0
-1654 501 2784 0
-2093 527 -93 0
2730 -496 -1197 0
2298 -2440 1340 0
2650 -185 1480 0
-1349 -2863 2329 0
-1287 2674 962 0
-282 2684 1226 0
2753 668 -1634 0
1678 643 -1947 0
-1248 2388 2671 0
-2785 1143 95 0
2576 -167 87 0
566 1963 -2355 0
2950 643 380 0
560 -1206 -2226 0
1911 769 1546 0
-2065 -1071 1753 0
874 2635 1885 0
-1384 1580 -2044 0
621 -2219 2230 0
-2780 2839 -2469 0
-2360 -612 -5 0
-2175 -395 984 0
2686 427 454 0
-1049 -2619 1718 0
485 1854 -2262 0
-1218 -2665 -2795 0
1534 2322 -2315 0
179 2667 -2203 0
2898 2293 168 0
2838 1603 -555 0
-1992 -74 2867 0
-1962 1410 -358 0
-2577 -2384 -1438 0
-2491 1533 -2166 0
-1970 -60 -814 0
39 125 -1911 0
-2455 -586 2760 0
256 885 1784 0
1472 2462 930 0
2564 1599 478 0
-397 -2185 1645 0
1369 1100 2858 0
-346 -811 -545 0
-1785 -785 -699 0
-1200 1713 1269 0
866 465 62 0
-2576 -239 271 0
-2463 1537 1913 0
-37 -1274 -1406 0
-1910 -1314 -527 0
743 -1687 2193 0
1915 -2713 811 0
-840 238 -2309 0
-1038 1721 1352 0
-2218 888 1126 0
-1557 -812 594 0
-1547 2208 -2382 0
344 1645 -695 0
-891 1614 -2100 0
1510 -1351 817 0
-1528 701 -2361 0
2197 -2303 2541 0
-1421 -2529 -2082 0
1467 -945 -2465 0
-1522 -1217 2803 0
1722 -834 669 0
1330 -2987 -2383 0
-1590 -1854 2352 0
-1914 -2904 2119 0
-1966 -122 1699 0
-2865 803 728 0
-2142 384 -391 0
-2156 -1562 1641 0
2276 1682 2319 0
2949 1400 -849 0
1697 -771 -2110 0
120 -833 -2393 0
-1514 -2516 -626 0
2351 1069 1365 0
7 542 -984 0
-585 -2352 2608 0
-998 477 -2377 0
2767 710 -398 0
2 -1973 -349 0
-320 308 2728 0
2831 -2391 1340 0
60 2802 1650 0
-103 -957 -2346 0
-1187 -316 523 0
-895 -1558 -472 0
-2898 407 -342 0
-1473 -1239 2196 0
2207 -2792 435 0
2058 1348 -1666 0
-763 2751 2409 0
-2323 1562 -515 0
-399 1058 601 0
2469 580 -1654 0
1645 -2454 -412 0
2877 -2525 -2002 0
-2304 799 864 0
-871 137 -1710 0
2543 1539 -1166 0
-880 2442 -970 0
-1727 -1992 2355 0
2144 -2905 -1084 0
-1352 723 -1781 0
-1934 -2157 942 0
2486 -219 788 0
44 372 1022 0
2496 -892 2228 0
-1234 2343 1116 0
1838 178 -1163 0
-1748 -2007 2708 0
-2670 -963 2772 0
2661 -370 -858 0
-103 -2738 1757 0
-109 -661 571 0
-1461 1787 -581 0
2418 -2918 2411 0
1376 169 -212 0
1818 451 2739 0
851 -2510 -440 0
-2065 -1640 -1681 0
2548 2878 1728 0
-2510 2521 -2755 0
-2588 -549 -2541 0
-1365 -936 -1824 0
633 -714 -582 0
2593 -455 -446 0
1709 -2311 -40 0
2733 2556 1981 0
-1202 1054 1309 0
-1983 -604 -703 0
749 2663 1617 0
-1031 1567 1925 0
906 416 -2849 0
-393 449 136 0
1294 -1331 -2270 0
2849 912 200 0
-1700 -1318 -1311 0
2910 -2126 826 0
562 1120 844 0
2030 -2186 1317 0
1502 2430 -840 0
1743 -862 789 0
-738 832 -1161 0
-2403 2101 713 0
-667 -2856 1582 0
1997 -2083 2782 0
857 55 1141 0
287 -1935 -864 0
-883 2398 -2814 0
-2462 -2789 1288 0
667 2103 -1081 0
-1375 -2255 2847 0
-607 200 -2311 0
-1848 -1189 -2078 0
1506 -1455 1036 0
-192 -2906 2085 0
340 239 2732 0
-2896 -32 1050 0
2356 2101 1642 0
2163 1779 -2914 0
-467 2079 1193 0
2816 393 -864 0
-1679 131 599 0
1009 -1580 -2268 0
-198 -1427 -980 0
-2636 -378 1216 0
280 -687 2059 0
958 -760 2784 0
2210 896 -2155 0
-619 -2383 958 0
2260 -1500 -183 0
-1865 1335 -2268 0
2818 -2333 471 0
329 2954 -2470 0
1962 280 -486 0
69 -1998 328 0
-184 2015 280 0
72 914 522 0
1580 1174 -558 0
2797 -438 1909 0
-78 2681 2715 0
-2222 322 -1290 0
1272 2910 2196 0
2686 -586 -1854 0
-1047 1279 -2887 0
-2311 2624 1155 0
305 -2803 2551 0
1984 -2806 2007 0
-11 -1494 -2620 0
-2291 -2546 470 0
-1436 501 -2574 0
-759 -2750 -2566 0
-1806 1179 2549 0
-2270 928 -524 0
-2544 -2533 -2084 0
1103 -2427 -1116 0
597 -962 -1937 0
2033 1052 1706 0
1852 333 -350 0
2346 -1569 -2197 0
-670 1011 -2728 0
797 930 -1664 0
2 -156 1392 0
-1746 -1240 -136 0
-515 2360 -1399 0
-250 -2784 -1255 0
1332 2084 1807 0
-2706 -2888 -1249 0
-1812 1478 422 0
2080 2134 106 0
1050 990 2718 0
-2243 -1655 -1382 0
2163 73 2077 0
1439 2553 -1716 0
-1780 2122 1461 0
1831 -2813 2160 0
-678 2003 -359 0
-849 -1838 1596 0
-880 -737 552 0
-452 689 -746 0
-2734 1307 -163 0
1858 2684 1334 0
-1465 -60 -2860 0
-2871 -757 -1609 0
803 -2593 2699 0
-53 -1934 -2899 0
5 93 -866 0
-2007 1309 -1579 0
2547 -104 -1903 0
-2408 1833 -1889 0
2546 77 197 0
-1965 -2029 2011 0
-786 -149 2327 0
2528 -2769 1269 0
-2191 -1619 -453 0
-2166 -1230 302 0
-1334 2955 2886 0
-770 2027 2057 0
-2675 1424 2660 0
-209 1528 1641 0
-231 1049 518 0
-1605 316 -848 0
2387 -2163 986 0
-1891 -934 -105 0
-1515 -2255 -2805 0
-1880 -654 1815 0
1154 -1617 2802 0
-2343 -2958 -553 0
1036 -868 2435 0
1716 -896 1459 0
1518 -128 821 0
1259 2744 -2435 0
-2583 2461 1139 0
781 2482 2085 0
-2244 1484 -2503 0
2413 321 2587 0
-2130 -1808 2996 0
2695 -88 1982 0
588 -1213 -1648 0
-322 -1053 2486 0
188 -2411 1449 0
2988 -1638 -1584 0
-2487 2914 2032 0
-1589 2470 -1122 0
-2127 -1193 -472 0
319 -169 -1358 0
-1045 1237 -148 0
-1544 2308 -2472 0
-886 -462 -2298 0
-2302 -1586 1622 0
-2697 -2382 -2409 0
-2214 -2629 2826 0
1454 -2288 2740 0
2153 -793 2586 0
-1938 313 -626 0
-2926 2499 435 0
-2763 2370 91 0
2772 1500 -949 0
1910 -2645 1423 0
-2241 -2243 1641 0
1882 2687 2552 0
-883 517 -2545 0
-2464 1543 -1683 0
-2624 -1287 -1832 0
619 -2026 1984 0
1386 -1227 2396 0
2948 -2943 505 0
-1033 -745 1551 0
2460 1146 -141 0
-67 2606 -1271 0
-1400 -495 -68 0
-1361 -286 -45 0
-1150 -1929 -1013 0
-2802 -54 -2255 0
-875 507 -2770 0
423 1180 -1724 0
-1518 1853 -497 0
518 700 -680 0
1614 -2073 2288 0
-2443 -301 2929 0
936 -1998 846 0
-1031 -541 1114 0
-8 2400 -2020 0
-804 -765 -1397 0
1397 755 2820 0
1139 -2637 2544 0
-2077 -2649 2834 0
1020 -848 -1304 0
-145 1685 -1909 0
503 -1918 2903 0
-1418 -201 2688 0
-1339 36 -2588 0
-2361 681 -1409 0
-1426 911 -2798 0
913 -128 2374 0
-1196 1656 309 0
1389 -1523 2759 0
2625 1717 -2240 0
380 -56 2952 0
2584 1267 -1222 0
2518 -1578 103 0
2007 467 -618 0
262 -1485 -1662 0
-2778 -1837 746 0
1407 -943 -1442 0
1958 -624 1597 0
-520 -2856 -2304 0
2707 1963 -2365 0
1415 1078 -2314 0
2080 1271 -451 0
2319 332 -427 0
-1174 -1569 1925 0
269 361 1241 0
1910 -2415 -1049 0
-1647 481 -2023 0
-593 -555 -1259 0
1326 -905 1176 0
35 -386 2699 0
139 1887 1984 0
2740 -699 -1332 0
1520 830 304 0
282 -1223 -1579 0
2984 -1392 -2089 0
2512 -749 120 0
165 -288 -516 0
116 28 1590 0
475 1049 529 0
-1901 1389 1788 0
1971 -1451 1926 0
-1306 1974 1006 0
-1253 -2532 577 0
2595 -2001 -2682 0
1242 -2260 -2279 0
-2942 458 -872 0
-2068 2307 -1284 0
2073 1897 1209 0
-1196 -2832 -464 0
-773 -2800 -1478 0
-2372 1122 -1858 0
1987 2580 54 0
468 -798 -2981 0
-2833 1745 -1672 0
-1754 1579 -2431 0
-2870 67 -1897 0
90 -2856 -228 0
337 950 -207 0
-2834 -2942 1821 0
-1042 1420 -945 0
89 -669 1641 0
-1618 -2268 -2660 0
-984 -481 2257 0
-2923 749 885 0
-2150 1801 830 0
-2349 -2102 1288 0
-1595 -579 2559 0
637 -705 -825 0
2174 953 1858 0
33 2240 2142 0
-1380 -651 509 0
2167 798 -2357 0
1651 -1575 -827 0
-930 -1256 -1996 0
-1928 -553 -376 0
-1989 -2080 1281 0
-2137 -2091 -268 0
-2822 2311 778 0
1275 2631 1641 0
-720 -1826 2324 0
-2241 1996 -1407 0
-665 -2059 -2737 0
2898 -1991 2814 0
883 -1567 -2899 0
616 2374 -1767 0
-772 717 2723 0
169 762 -2576 0
-415 901 742 0
1675 576 -654 0
-2573 -8 1505 0
1098 -2114 1334 0
-1103 1506 -332 0
869 -698 656 0
2123 958 2321 0
470 -2881 890 0
-2825 1644 -2968 0
-1180 -782 -2656 0
815 1823 2516 0
2508 -1755 2863 0
-36 2762 -958 0
-655 989 1671 0
2731 -486 342 0
1453 -2355 2964 0
2789 -636 -2528 0
-683 -725 949 0
-1666 468 1528 0
2557 1266 -2917 0
2806 -20 2448 0
2084 1480 -809 0
1956 2826 626 0
1684 1832 2150 0
-1843 -773 -1489 0
-781 -1301 -65 0
-2707 1159 -1349 0
-938 1076 -2232 0
37 -639 2792 0
-728 -2494 -2823 0
-2823 -358 -726 0
430 -589 1034 0
935 1708 -2502 0
-1842 169 -2982 0
2127 -2908 -1475 0
96 390 -40 0
1868 -2767 -316 0
2553 -453 12 0
2904 -1031 -2631 0
272 -1924 23 0
549 -2886 -1551 0
2311 -1407 2883 0
-717 1397 -1256 0
-2855 634 -2150 0
-1816 -393 2935 0
-1853 -1633 2368 0
-1751 1347 142 0
1889 2797 -2150 0
-1896 851 2526 0
839 2630 847 0
704 1406 1744 0
-1714 2914 -66 0
966 2142 665 0
1926 112 -185 0
-729 2333 -2721 0
-106 14 1035 0
-259 -2466 -2941 0
2565 -350 -1580 0
1647 892 -2143 0
-845 2277 2034 0
344 -51 -239 0
1588 -401 -810 0
831 -2140 -85 0
-1116 2435 -85 0
-929 1339 2320 0
1 -618 2413 0
-1376 2300 -1758 0
2596 -2193 -2956 0
1682 2041 1377 0
1285 509 616 0
149 2385 405 0
2585 -2485 2738 0
1748 -2069 2648 0
-845 345 1456 0
-1683 2982 2151 0
1590 1650 -2190 0
502 -2121 -2820 0
1244 2005 -2309 0
2908 -2651 1144 0
2386 -2381 1129 0
1715 -654 -528 0
2076 -773 -557 0
-771 1376 -595 0
-2112 -2519 -2193 0
421 1634 -79 0
-2323 -1918 1773 0
1863 2029 -1874 0
2509 -1115 -2832 0
-2144 2245 1495 0
-2763 1603 -1341 0
484 1766 582 0
-2841 -2469 2618 0
158 -2186 -50 0
2061 -779 -1162 0
-2212 -1181 -18 0
-2378 -820 -1501 0
2380 563 -2711 0
2576 -1534 2080 0
1399 -2733 988 0
2596 477 364 0
1949 -1001 -2534 0
-2893 -957 46 0
-2768 -1905 2732 0
-2143 -2637 -1224 0
1205 -248 1551 0
2570 2625 2832 0
-1656 1027 -42 0
2439 -356 -1383 0
-2881 -2136 2459 0
2322 -1601 -1697 0
-1322 2541 1437 0
-2891 482 -1212 0
-847 -435 382 0
-1035 -817 1529 0
1799 2708 76 0
-273 385 -2054 0
-2803 -1746 2160 0
1018 1588 1438 0
2130 1813 611 0
933 15 -527 0
-1087 -433 -1185 0
2486 -792 -367 0
-2552 2427 2207 0
-876 2143 557 0
-2620 -2755 2756 0
1475 -2666 1823 0
-2071 1581 -2149 0
766 405 1778 0
2655 -2392 539 0
-2829 -1444 1038 0
30 1067 1871 0
-1858 2201 -1204 0
1434 2384 1304 0
-1798 2547 -2285 0
1232 745 2403 0
-715 2317 673 0
1315 1169 -2668 0
-1269 2362 -1574 0
2568 -2563 2891 0
2696 2531 133 0
2139 -320 1120 0
2662 -1301 2407 0
-1792 -2782 -875 0
2904 -1495 1835 0
-231 -1226 -2020 0
953 308 492 0
-1416 27 -217 0
-2936 -936 112 0
-929 1275 -1085 0
-826 -479 1225 0
-2620 -2521 -446 0
-881 -2390 2644 0
1798 -258 1517 0
2661 -2098 -515 0
2653 1943 1915 0
1110 1999 1912 0
-2055 -95 642 0
329 -1464 2590 0
2595 -1658 1274 0
2724 876 1020 0
-375 2693 -806 0
1412 -2540 -2737 0
1714 1883 1421 0
1532 1711 -1960 0
946 846 1916 0
-1125 2186 2917 0
1330 -1855 1583 0
-2441 -431 1743 0
-757 -2229 -2788 0
2278 -2988 -2155 0
-1502 -2330 2755 0
1575 526 525 0
1003 -1707 -157 0
-2993 1805 2984 0
2650 -2632 -1041 0
82 -508 689 0
2701 140 2570 0
-1701 1260 1971 0
1914 2397 -2157 0
1598 -2477 -1511 0
2791 -2205 -1818 0
2322 2633 782 0
-1721 341 -1535 0
1516 -2073 2568 0
236 -2776 -2184 0
832 -1175 -831 0
-406 -1996 -871 0
2542 736 100 0
-1457 -1497 -192 0
2572 235 542 0
1327 -2039 1663 0
2340 -622 -781 0
-1935 1864 2026 0
-2152 -950 1355 0
2811 1785 2017 0
1815 2589 -1837 0
-1055 -1149 -958 0
-1038 -225 -1379 0
-1703 1728 1959 0
743 203 619 0
-2224 -2049 -2278 0
-2295 703 -2784 0
-1746 2729 2604 0
-513 1419 2253 0
-1690 -806 2748 0
1265 -1548 1582 0
862 215 313 0
2108 -326 1204 0
710 165 -2610 0
-2676 1957 1240 0
-758 -2919 -676 0
1994 2878 2773 0
463 2632 -726 0
-567 -2767 -2198 0
-1659 2911 -1436 0
-1910 -2622 -2603 0
-199 173 2781 0
1628 -1543 2350 0
2075 1072 1591 0
-639 -749 2424 0
-1252 -2954 412 0
1447 -2799 -2249 0
546 363 1426 0
-433 -2100 -140 0
978 -310 -1995 0
2211 1142 2329 0
-911 668 2658 0
-1980 1070 2399 0
2220 -633 -2682 0
451 -1772 85 0
-445 2048 199 0
1253 710 -584 0
-760 718 1977 0
-1716 -1549 2030 0
999 -1703 15 0
2674 972 -607 0
-538 -2074 -2368 0
-21 -2839 2221 0
296 958 -1784 0
1053 965 153 0
572 1361 843 0
-2139 -1652 -2863 0
2337 695 1438 0
2204 -699 -2148 0
2376 470 -1586 0
-1342 717 2648 0
-2643 2658 -1022 0
11 -1236 -1830 0
-2127 2647 359 0
2017 -646 2799 0
254 -1372 682 0
1032 -2050 -649 0
166 2416 2183 0
2339 -2750 -1809 0
2299 -377 -2681 0
-522 1269 1814 0
1341 839 -1113 0
2231 2416 -2261 0
2100 2207 -2015 0
-1376 187 -1753 0
2762 138 -2734 0
2333 2847 1769 0
1141 2144 -2352 0
-2623 -2316 -1394 0
-2839 1820 -2984 0
-1407 -1750 2193 0
1274 1869 -1936 0
83 -2234 -1678 0
505 261 -677 0
2599 -1672 -2291 0
1323 -1505 -1424 0
-1927 892 -2593 0
-495 -1398 -2652 0
-1803 2013 -2951 0
-2052 2190 2328 0
-2752 773 2393 0
2124 2129 1538 0
874 922 749 0
-282 1673 -1463 0
2868 1888 -966 0
1444 -2625 -961 0
-1877 -1895 -2038 0
-2044 524 -2249 0
-708 1274 -339 0
-859 -1392 -2882 0
1524 -2596 -869 0
-1436 -1207 -2407 0
2156 2171 2092 0
2067 -2153 1858 0
-2062 716 -743 0
10 2589 2569 0
827 -190 -52 0
-1830 -555 350 0
-1592 -1976 1517 0
1838 1750 -1410 0
-2105 -2824 1663 0
-1371 -2416 457 0
1942 2641 -2204 0
1763 1684 2369 0
2686 364 798 0
590 2749 -500 0
-2625 -806 1583 0
2234 -1873 -2481 0
-1883 1314 -192 0
548 2086 -1304 0
510 187 1230 0
981 189 1930 0
1552 -2494 2719 0
-931 621 -702 0
-1208 2077 1659 0
291 -1691 951 0
254 -2831 2146 0
343 1958 1849 0
-2868 -2159 1496 0
-1799 -1827 -2119 0
1401 -2934 2223 0
2131 1409 -1582 0
364 -2779 2534 0
2114 -2154 290 0
1210 1319 2592 0
-1037 1237 816 0
-7 2619 769 0
2379 -1136 -1698 0
-2126 -459 -2306 0
1629 -436 622 0
506 2819 -75 0
-1197 -1966 311 0
2220 2950 1818 0
-1062 2267 2276 0
-445 -2392 2106 0
1411 -741 557 0
-2523 2953 1622 0
1609 2129 245 0
-1413 2337 -877 0
49 -1163 -2972 0
-2215 2240 -2541 0
238 336 -27 0
16 1689 2312 0
-2483 2836 2044 0
-2223 -2043 -727 0
1663 -2918 417 0
1155 2471 1335 0
1069 812 -814 0
-126 2059 2916 0
-1920 -183 2465 0
2979 -666 -1097 0
1619 2035 -1911 0
-1881 -2476 -536 0
-749 -1633 1393 0
7 -1902 306 0
-2893 752 143 0
-844 -1528 852 0
-121 -2658 -2535 0
152 -1471 395 0
94 -274 -1083 0
-757 -1858 -1713 0
-1641 -1664 -1101 0
-44 2478 1923 0
-2923 1199 329 0
-957 1285 1246 0
-1293 -1422 -2324 0
-2412 2392 -1693 0
-204 571 -768 0
2052 -1927 2958 0
-169 382 1010 0
-2127 -998 -776 0
-719 2157 -1507 0
-481 1323 -2398 0
-1290 2790 1988 0
662 -2628 179 0
-23 -1277 -300 0
1287 2923 768 0
94 1793 2833 0
-213 -1642 2983 0
-278 1195 -2173 0
-145 539 378 0
795 -1553 2443 0
1381 -1996 -1606 0
-1200 2709 -980 0
-1944 -1248 1728 0
-28 -1049 224 0
1703 -354 -1061 0
-2372 2757 2548 0
-1598 1566 -680 0
-1249 -855 387 0
2363 -50 -2104 0
-2405 2612 660 0
2090 1476 1343 0
-276 -593 -2528 0
1225 -633 573 0
233 -2440 856 0
-2684 -155 87 0
1849 -575 2878 0
1117 2655 -1575 0
-2892 -1039 131 0
515 -862 -1099 0
-126 -2651 -1394 0
-2837 1829 -2552 0
-1526 1506 -1313 0
1574 -2515 2572 0
1357 -1503 2845 0
2758 -1132 2331 0
449 -1862 2334 0
-1389 -2275 1355 0
-2208 -2155 -1148 0
-613 -2237 -85 0
201 197 -2830 0
-1978 -2651 -2524 0
1534 -148 1061 0
-1045 -1280 1786 0
189 1237 -2904 0
1365 -1456 327 0
2951 226 -1534 0
-1028 -877 762 0
25 2587 2299 0
2393 -1896 -882 0
-2796 1081 -891 0
1195 2727 -585 0
515 -2478 1086 0
1621 2193 -7 0
2896 1437 -456 0
-1750 1271 2712 0
2702 -2799 2374 0
-2185 2704 -779 0
713 -1017 2127 0
-548 -2131 -197 0
1498 -1030 -682 0
686 1776 -1668 0
944 -1794 1692 0
-1746 1754 -1805 0
257 -13 262 0
-2943 2791 2284 0
-346 1065 -1760 0
1677 2469 2618 0
-979 1287 1593 0
742 -1263 -830 0
1313 2331 -2031 0
-2168 -587 -2112 0
-860 2984 2659 0
-723 -1050 2284 0
-165 -1997 1982 0
-918 2894 1548 0
-1828 1072 -1283 0
450 161 2450 0
1824 2048 -2410 0
-2074 -1872 -188 0
1551 -1218 1174 0
-784 2401 1207 0
-458 -1828 1944 0
-1190 -2207 -1867 0
866 1300 2751 0
696 2638 -445 0
2736 -2804 1830 0
1703 1783 -2661 0
34 736 590 0
-1287 1408 -1387 0
821 -2556 -2115 0
-2451 -747 -213 0
1597 -2409 82 0
1329 -1361 -422 0
-1945 2364 -571 0
-1077 -1726 -390 0
-2968 591 -1590 0
1505 152 634 0
-1596 -1592 -2508 0
2007 1730 -969 0
71 -1952 663 0
2313 -480 -1095 0
1429 470 -1361 0
-658 -191 -715 0
2749 -2116 74 0
1372 -2259 -2986 0
857 -624 -650 0
1146 1878 -1836 0
-75 -17 1602 0
-2910 37 840 0
173 1172 1024 0
234 -55 1927 0
1863 -1726 -2355 0
-693 577 -1905 0
284 -2028 -1826 0
-750 848 -2254 0
587 -2286 1447 0
-755 -1324 -2058 0
778 -1746 243 0
-1898 550 -439 0
2514 335 1939 0
2519 -232 -2001 0
-200 2536 1100 0
-2979 1040 379 0
1381 -421 2092 0
2805 -1932 -1720 0
-2818 -794 -1413 0
-1345 -2003 2345 0
1499 1044 2658 0
-2911 -372 2296 0
-1191 2880 -901 0
-1133 13 -266 0
1523 746 1504 0
-2108 2801 -1342 0
-348 -810 1296 0
-2251 1514 -964 0
-180 -2208 1664 0
-2455 -302 2085 0
-1832 -1341 -466 0
659 -537 1498 0
2626 10 91 0
2457 -2073 -287 0
1745 -278 -657 0
-38 -651 -111 0
-629 -1834 -286 0
-980 -1097 -2202 0
863 -1710 -251 0
-2052 -282 2263 0
-2909 -2275 2171 0
1047 1511 -1762 0
123 -1038 -1120 0
-622 -533 363 0
2130 -1719 -1928 0
1638 2564 1158 0
916 1500 1314 0
-2845 1290 -1974 0
-1031 -364 1872 0
2015 -150 1094 0
-151 -679 -1754 0
2843 1415 -976 0
-2954 -378 -122 0
452 775 118 0
2583 813 -2542 0
-164 -942 -2066 0
490 2993 -254 0
66 412 -975 0
-1536 -993 2404 0
-2021 -440 1194 0
-173 -1431 1758 0
-1928 1487 -2004 0
2206 -189 -2526 0
2585 747 -102 0
-2736 -434 -1637 0
1519 2288 2256 0
1555 -1687 -2620 0
1144 1016 -1895 0
-972 -1934 1149 0
500 -2105 -1351 0
-2572 -2144 2081 0
2946 1844 657 0
-182 -1873 2251 0
337 -357 1209 0
2101 -772 2450 0
-228 62 -2234 0
-644 -335 2241 0
987 2778 -2673 0
2319 1831 -2943 0
-702 739 -1755 0
937 1004 2498 0
-1452 -1167 -2586 0
666 -1244 2577 0
745 -1428 1586 0
1197 2782 2091 0
-2363 1656 -1554 0
2294 2008 2517 0
787 -2463 2365 0
1926 -995 -450 0
96 -2335 -1552 0
-2448 -1123 -360 0
-2129 -851 662 0
-1403 -308 -916 0
136 -478 -2403 0
2657 1493 -507 0
-2482 1325 -2190 0
-1998 624 -1023 0
-1345 -1326 2990 0
-1008 2486 -2935 0
1025 559 2566 0
-2877 -2049 -2396 0
2545 -972 1133 0
529 1819 343 0
-2736 -796 1731 0
162 -1402 2335 0
-2775 -2400 619 0
2741 -492 2282 0
-1325 -2023 -140 0
-2812 2391 1343 0
-725 -510 -1974 0
-2411 -7 -2826 0
-2781 257 2076 0
2681 -1789 1508 0
-2918 1506 -756 0
-1439 -2177 -95 0
2413 -777 -221 0
1632 1997 -1110 0
779 -823 -1804 0
-663 -598 677 0
-1471 1947 616 0
1288 1041 -2307 0
2065 -89 -747 0
-2616 2548 -2759 0
-407 -671 2334 0
1997 -1385 -996 0
-856 -599 -382 0
1051 -1696 371 0
679 6 -1744 0
-2212 1635 -274 0
-515 85 2071 0
-1977 965 -504 0
-47 -1575 74 0
2090 136 -1626 0
1769 -936 2449 0
-1971 -620 672 0
2056 -2162 -1660 0
-2822 1787 2611 0
-606 -2351 -3 0
1385 -1344 2904 0
1830 -2977 2726 0
2663 1689 242 0
309 883 -2295 0
-2273 -2025 886 0
577 628 2506 0
102 2774 967 0
1085 1200 -1763 0
2860 247 1010 0
-1446 -1740 1156 0
-2456 379 2361 0
-2083 1085 -1130 0
1584 -2156 -2643 0
-1129 -2055 -1427 0
1563 -1197 -598 0
-1113 -1115 -1770 0
-735 257 2698 0
-1515 -915 2910 0
810 1392 2313 0
1174 -1559 389 0
-1081 -556 -794 0
1553 -996 2005 0
2075 1772 -1941 0
-616 1147 -585 0
-275 -917 172 0
1257 2998 1480 0
-1570 360 -1673 0
1040 -293 22 0
-1162 -429 -2410 0
1183 -2346 -81 0
-1164 2748 2546 0
-1659 -265 -1184 0
-189 -162 -351 0
2409 -1837 2344 0
-120 -1019 1611 0
-21 -248 -782 0
-912 2326 -2644 0
-2960 460 1500 0
2556 2725 -602 0
-2951 -2199 1344 0
-1213 -269 -1776 0
2840 699 -853 0
278 -344 -2657 0
1611 -2432 1689 0
2610 -217 -1247 0
525 -2744 2653 0
828 579 -669 0
-537 1834 -2377 0
-1974 -191 2103 0
-946 680 -535 0
-833 153 160 0
648 -1174 -133 0
-1171 2381 234 0
-2792 1468 -2590 0
-2975 538 -788 0
-2464 24 370 0
-469 2466 -1845 0
1389 2033 1584 0
2260 -459 -275 0
581 -779 -2152 0
2049 2934 2471 0
2560 -1912 -226 0
-1455 948 572 0
1093 2725 495 0
-1231 2042 2873 0
-447 -763 -1873 0
1656 -1350 -898 0
-976 -368 -189 0
-1723 1754 -1573 0
2693 2421 4 0
1350 -2032 -727 0
1363 1950 -373 0
-2060 2339 1498 0
-30 2290 1571 0
-2772 -1797 1564 0
57 -1764 452 0
-524 1899 490 0
1079 -2901 -580 0
2251 -1601 -2009 0
-2534 -1088 -1800 0
2692 -1613 -1114 0
-409 2420 2340 0
-145 2423 -2536 0
2796 -285 -356 0
2334 -144 2849 0
793 981 975 0
-95 2483 489 0
-3 520 -2830 0
-549 2836 -1513 0
-457 -2599 -820 0
-563 1425 -1926 0
-2161 -560 -2610 0
2231 530 2284 0
-2555 -2894 89 0
600 -234 2300 0
-1565 -2901 -2897 0
-384 2399 544 0
919 -2328 -2963 0
2869 -2956 -1477 0
998 2225 -960 0
719 504 1528 0
-243 2865 -321 0
2018 -2696 -822 0
690 -452 788 0
-895 874 -1788 0
-1726 -1878 -2973 0
2028 -1793 886 0
-301 2014 244 0
915 -1022 -864 0
2973 1092 1159 0
2701 672 -888 0
-2606 2447 -231 0
1732 -559 427 0
-2638 2833 -874 0
-1791 -1996 -1306 0
577 -234 1528 0
528 -1236 1432 0
2239 -1801 -1733 0
-69 1484 2456 0
1228 2743 -2379 0
2801 719 1497 0
-1282 -1019 -2197 0
893 2662 287 0
-1300 -2892 197 0
1613 -353 195 0
-1648 1530 1685 0
995 2516 -2126 0
1227 2695 -1939 0
-2785 731 -264 0
1537 -1201 5 0
1172 -2086 2195 0
2012 -2455 -2943 0
1945 -2027 -1911 0
1117 1717 866 0
2259 968 -1927 0
-2507 2833 2318 0
-1927 601 -1900 0
2713 -393 816 0
-2269 714 1883 0
607 143 -676 0
-1900 -358 1218 0
-2842 -2357 1761 0
-2730 1787 -1747 0
-111 -1977 1665 0
2531 654 -1393 0
-134 -1268 -2584 0
-2275 -560 -895 0
-787 -1356 890 0
-1570 -979 -705 0
-551 754 -2708 0
777 2246 2733 0
-2472 -2779 -1887 0
-101 -1876 -402 0
-2191 2721 -721 0
-2673 -1262 -1329 0
-1782 1053 -2441 0
-1589 -1295 411 0
2861 898 -1857 0
-404 2601 -1758 0
1268 -786 531 0
-477 206 -270 0
796 -2618 331 0
-776 1334 1822 0
-2881 229 2919 0
953 836 -2041 0
257 578 337 0
-2539 221 1267 0
2174 1080 2735 0
-1122 2469 1699 0
-938 105 2982 0
-593 1135 -2544 0
-1434 474 840 0
-2542 -1076 -2338 0
-1777 -2763 -961 0
399 -1132 -1674 0
-2160 -2341 1193 0
-1411 834 -424 0
53 -2358 -425 0
575 1673 1188 0
2891 1952 66 0
-555 1904 -333 0
-2766 -2897 2486 0
609 -697 -1962 0
2369 -374 2911 0
-783 -618 -333 0
2448 -2807 -1440 0
1635 1592 -1390 0
801 2278 -2927 0
1363 -851 -1161 0
-828 -2155 696 0
2879 -579 -546 0
-2976 -1701 2567 0
-2758 999 -2365 0
-911 644 1067 0
1993 926 1180 0
-2206 2844 -257 0
2116 -786 -2026 0
45 1247 1257 0
-971 1178 -2697 0
1074 -1345 -2876 0
2707 -2150 -746 0
-2751 594 282 0
-1333 1810 -1825 0
1007 536 371 0
875 -585 -208 0
626 1095 -325 0
-1206 -1664 -1096 0
-2378 62 -2140 0
-2269 684 2478 0
-944 99 -522 0
2472 1440 -2427 0
2629 -1827 368 0
583 -1714 607 0
-1940 81 249 0
-1209 1964 -1144 0
362 -1927 1960 0
752 -1877 2832 0
-983 -2368 -1372 0
-49 1118 2340 0
1861 -2873 1985 0
-1802 1868 -1647 0
-823 1206 1329 0
2419 -1685 -198 0
-256 -2909 458 0
-1074 244 -1286 0
1824 -1134 -1548 0
1144 -203 -1313 0
1284 2043 -2210 0
-1347 2143 544 0
-1488 -2103 -1600 0
-94 -2750 -1062 0
-1752 103 2918 0
-416 517 1722 0
-2500 1122 -2420 0
751 1733 1926 0
1760 1417 1655 0
766 1119 -2152 0
2413 -2655 2411 0
1046 688 -940 0
1246 -1168 290 0
-2655 2805 1673 0
-1910 -2204 2146 0
-1908 1693 -1152 0
-1494 188 -360 0
256 -215 -714 0
-1504 280 -2555 0
1440 2195 1169 0
1108 672 2110 0
795 -1362 2979 0
-2622 -1118 -306 0
2201 -1627 1512 0
-704 2546 -1859 0
2075 -439 2799 0
1762 566 -675 0
-595 -34 -2104 0
296 -1005 1358 0
-191 -486 -2043 0
-1411 4 -1372 0
595 1257 -729 0
1131 -1265 -1212 0
-2613 1293 -2477 0
-232 -1368 -1804 0
798 2559 96 0
366 -151 167 0
-2111 -1967 484 0
2132 654 -300 0
1918 -585 -523 0
-1390 1443 2653 0
-546 1804 2676 0
701 -392 290 0
2982 -2734 -2888 0
1393 1055 -2404 0
-1845 -2386 -2204 0
-2086 -2973 -2433 0
-2625 -2617 1201 0
421 1000 1105 0
-798 2653 366 0
958 -1411 -73 0
-2697 1507 -2770 0
-2709 -2612 1594 0
-2618 -2704 666 0
624 -1305 1246 0
-1600 -1067 2608 0
1714 -2450 -1067 0
2365 1424 -1094 0
-2441 1080 22 0
1254 2416 -1504 0
2125 -2780 -545 0
-2121 797 -2617 0
-49 1284 590 0
973 -2960 1555 0
-2183 -1917 2558 0
-379 901 1599 0
2336 1125 -440 0
-570 497 1953 0
-1411 505 71 0
-173 -472 2212 0
-1083 -2144 -491 0
855 574 -1650 0
-1080 2484 515 0
2652 1072 2493 0
-1852 205 2020 0
-896 -1583 946 0
335 1378 -519 0
-1034 957 2060 0
-550 453 2993 0
1293 2534 -1844 0
395 1857 2852 0
-1373 -2116 -296 0
2202 2641 -496 0
612 1594 -2239 0
-1213 -121 -1294 0
601 1856 -1313 0
-873 1867 2364 0
2510 1446 -2244 0
-2735 -1252 1720 0
597 -1156 -1544 0
-2540 -1235 833 0
-2448 -2029 -854 0
-256 824 1013 0
-1521 1388 2451 0
2053 1765 559 0
2338 -976 463 0
2524 -2445 1910 0
2098 751 1899 0
926 2152 -2687 0
415 174 2874 0
-1804 1918 451 0
-1242 -56 -2027 0
2794 -1234 -2137 0
-2845 -275 571 0
-2297 1915 1566 0
795 815 2458 0
2032 -576 -1152 0
1213 -2410 651 0
359 2128 -1866 0
2228 -82 138 0
688 -914 2990 0
-2574 -505 -2643 0
-1893 -2705 952 0
676 -226 889 0
-2333 -60 479 0
-2517 899 -772 0
-680 983 -1282 0
2386 -2424 -2313 0
-12 -222 -2578 0
-744 -1045 -2217 0
2542 -2035 -1322 0
2501 1545 2643 0
2169 739 -360 0
-304 -1698 -554 0
-2627 -1777 671 0
1595 -1681 -2033 0
-1308 -2618 -1008 0
2781 -1547 -1777 0
-1754 -2781 978 0
2417 1992 -2660 0
-1472 1859 2222 0
-2735 -705 -345 0
-2709 831 -1655 0
-1679 939 -1383 0
-2093 510 -1386 0
-366 -1617 -2937 0
-222 1117 1988 0
-1916 2726 -359 0
684 1917 1568 0
-2835 2581 1028 0
-654 -380 -1058 0
1925 -1435 2949 0
449 -1070 2378 0
-2670 1709 487 0
908 844 -2289 0
1264 1841 802 0
-2912 1496 1643 0
1311 -563 1204 0
-373 1231 1270 0
2751 -1904 2308 0
1636 -568 839 0
736 -2402 2754 0
-1146 520 332 0
2020 -266 2054 0
2836 1758 1653 0
2718 2011 1353 0
144 288 -1626 0
-1239 -200 -1868 0
872 -1578 2188 0
2222 435 -762 0
-461 2018 -1564 0
2536 -253 -1637 0
-1111 1591 -2413 0
-264 -2409 2920 0
-2670 -1796 420 0
2093 344 1209 0
-623 397 -1074 0
-1851 1332 956 0
642 994 -2831 0
651 245 -1004 0
2295 1443 -1928 0
-2477 1629 -1360 0
-1194 1403 -570 0
-2518 -2230 703 0
-1239 2502 1664 0
1427 -715 -1778 0
-1313 2323 2393 0
257 -1060 1937 0
2956 409 -2624 0
660 2077 -2482 0
-727 133 -908 0
1736 379 -641 0
2382 -66 -351 0
-1701 442 1008 0
1003 2562 2983 0
2610 -1283 2735 0
210 1051 1423 0
82 -367 374 0
955 245 836 0
-1396 -2824 1649 0
-2435 1128 1242 0
2099 2350 -2609 0
591 -2867 -2757 0
-2156 -1325 2904 0
2091 -2530 -520 0
1828 2818 422 0
-627 1963 2519 0
-967 2735 -2331 0
-1947 -1350 -1948 0
-1409 -1681 -1372 0
-1925 1051 2907 0
1901 -1998 -2442 0
1095 461 -2621 0
2281 1433 949 0
-1571 -2420 -1518 0
1274 544 1389 0
1999 -1050 2746 0
806 -1487 701 0
2577 437 -2031 0
2547 1827 -1037 0
424 -2358 2436 0
-1033 -2574 -1037 0
-217 2348 552 0
-424 -1768 -1101 0
2494 2762 -278 0
1205 1693 -2144 0
-393 1319 683 0
919 1153 -1851 0
2209 -864 620 0
2796 -2515 -2004 0
1354 -502 1306 0
-31 1062 75 0
-604 2293 1354 0
513 2434 2444 0
1927 1025 -2661 0
-2235 -951 901 0
1049 -422 1787 0
-945 -1790 -1134 0
32 -849 1006 0
-20 1984 1907 0
717 -795 -2810 0
-2497 -2663 2040 0
1878 2633 2046 0
2594 -2477 274 0
1558 2130 1301 0
1674 -909 2164 0
-2288 -1360 -159 0
-1359 1741 -747 0
2963 -2352 -1965 0
-388 1805 761 0
-2198 -2802 -690 0
-2640 -2997 -1612 0
-440 1975 -615 0
1351 -2794 1864 0
-1945 2012 -2212 0
1567 1435 -2570 0
657 -2243 497 0
2758 -1348 2350 0
833 -2296 1549 0
2163 -492 462 0
1650 -232 1408 0
-567 388 -559 0
759 1453 1676 0
-2116 -1319 398 0
-2046 -2848 1664 0
2943 -957 -2552 0
2794 2440 -2488 0
-1497 1379 82 0
-2451 -442 -1789 0
-1673 1799 -1440 0
2519 -2952 -1310 0
1906 -65 1306 0
789 -1353 425 0
-1079 -1419 -2582 0
-363 2558 -618 0
-810 2258 1822 0
-1843 1771 -2647 0
-1457 -579 1686 0
2241 1225 -2903 0
-834 -1627 -2207 0
2209 1802 391 0
-2664 494 -1882 0
-2601 -143 -1897 0
-1954 2452 -2416 0
-2283 2489 892 0
-2647 1971 1717 0
512 303 2316 0
-1221 -2297 -183 0
-1232 653 -2478 0
-1080 1415 1785 0
-845 24 -437 0
2471 1407 556 0
-1221 -2250 1640 0
1721 -2752 2542 0
1643 -2440 -351 0
385 -474 -2491 0
1924 2910 -1858 0
806 849 456 0
-546 -2058 2622 0
2169 -764 -201 0
-2414 -2566 159 0
2566 2301 1589 0
-1004 -2412 395 0
-2599 839 1777 0
-1637 2371 -2709 0
1736 -543 -1475 0
-673 843 -2800 0
2513 1785 -724 0
-1512 981 2550 0
-329 139 672 0
2179 -1095 -1718 0
1820 -1044 -310 0
1399 2302 -2932 0
-512 2944 -2140 0
-1029 -1928 2893 0
-2605 877 2282 0
-56 1991 -490 0
2795 2735 875 0
1431 -2757 2756 0
295 -899 963 0
-2457 -564 -58 0
-853 2118 1062 0
1208 1140 -1800 0
-1726 1158 2304 0
-2186 -242 19 0
532 1487 1082 0
-1555 -2282 -1923 0
1845 -1460 -2486 0
2891 2603 2916 0
-119 -1868 977 0
2744 -447 -566 0
-1794 -2782 -1203 0
-1865 -1341 -927 0
89 -2444 -2012 0
725 2747 -211 0
2615 -1871 452 0
-2743 300 1783 0
-1326 2398 813 0
-412 1846 -1281 0
847 1606 1197 0
1355 2274 -2024 0
-1750 -59 2239 0
557 -2681 -2664 0
92 1667 -2386 0
-1528 -660 2740 0
-649 -2150 -2892 0
209 -1687 -111 0
-1543 22 -1779 0
-1268 -2445 -36 0
-678 -2219 2435 0
-211 -2429 880 0
-2260 1928 1849 0
-2104 607 2945 0
-440 -1962 -1912 0
2376 -2912 -1372 0
2902 -2623 722 0
949 680 1694 0
2071 1677 1880 0
405 292 -1494 0
-1769 -1505 2745 0
-2217 2453 818 0
2177 2463 -33 0
-423 2423 1617 0
306 -215 2815 0
852 -2303 -1353 0
673 2680 -196 0
-2583 725 -2087 0
971 94 -374 0
2538 -1728 2520 0
-124 981 -2060 0
496 -377 -344 0
-184 -341 -1524 0
-52 -2039 -39 0
-1919 -2784 332 0
1385 1653 -2512 0
1532 1587 2662 0
-306 783 2690 0
-699 -1639 -722 0
-514 2746 -2089 0
1593 886 1461 0
-2491 2008 -2860 0
169 -1341 1850 0
-2978 2088 -2133 0
631 -2332 2247 0
158 1906 -1417 0
-2800 -2590 1850 0
2111 -2341 -917 0
870 2475 990 0
-191 940 1510 0
-1823 90 -2063 0
1078 2480 553 0
-1945 1573 1849 0
-2777 523 -2515 0
521 1992 1678 0
535 -1118 -270 0
249 -1233 1696 0
1951 2720 1641 0
179 2247 -2237 0
2427 861 -2025 0
-241 -901 -1831 0
-334 -1871 -1234 0
1427 1435 -1609 0
-2693 51 12 0
1985 2089 -1548 0
2625 2989 1058 0
539 -82 2535 0
1796 581 -2475 0
-650 1187 2373 0
164 -551 668 0
-1028 -2661 -480 0
-2534 -891 -1992 0
-1026 -1608 -420 0
1027 2224 2971 0
1270 1588 -2519 0
-2721 870 -1130 0
470 371 -2148 0
-466 -1813 2221 0
-2496 2627 674 0
296 -2787 -2620 0
-620 2207 -2405 0
-1193 -713 430 0
-493 -2520 2338 0
-2392 -1726 -1267 0
594 809 -2913 0
2005 2124 1208 0
-484 2384 1168 0
551 2226 1396 0
-1444 -29 -1356 0
-107 -2293 1194 0
2246 2443 -1509 0
-361 2924 1002 0
-24 2334 2873 0
1018 1589 -2065 0
2918 -2341 -940 0
398 -1562 948 0
76 658 -2657 0
1199 -1833 2440 0
1087 -572 296 0
-2393 -765 875 0
3000 1015 714 0
761 -742 -2075 0
2265 1855 -2981 0
-2985 -1214 2685 0
-2571 94 -2243 0
2525 1488 -677 0
674 1232 752 0
1521 2724 1513 0
291 -2643 -1708 0
-2335 -2777 640 0
-119 1688 -534 0
1971 -64 508 0
80 2615 -215 0
1042 2103 2301 0
-1850 438 2856 0
-245 -2905 2365 0
-292 2488 -1729 0
2022 -537 -565 0
-2055 571 -2678 0
-2348 1475 1711 0
-523 -2439 1522 0
1313 -374 1565 0
1178 1904 -1944 0
366 1425 -379 0
-2117 2103 -1497 0
-508 184 1108 0
886 2372 667 0
-1051 -1658 1690 0
779 1418 1289 0
1267 2673 1559 0
1694 -999 1614 0
215 -1807 -1181 0
-2554 279 1362 0
-953 1886 -1095 0
-1949 -1489 -2333 0
945 -2943 2575 0
-1156 -2941 -1343 0
-1895 -503 -1408 0
2490 -925 -2549 0
-761 -1396 2071 0
-2953 721 427 0
2013 -711 -2044 0
2666 1024 1450 0
1736 -2726 871 0
685 -1658 2124 0
-2161 -1081 -906 0
-2270 2015 -1497 0
1571 1902 -2933 0
498 -2343 -1020 0
-2166 2816 3 0
2372 -2043 1983 0
-2094 1141 2554 0
2122 133 1093 0
-2422 -2663 -86 0
2096 221 2573 0
1524 -366 -1677 0
978 899 -44 0
2383 -2887 2036 0
1708 -10 1200 0
-481 -585 -149 0
-2835 -1741 -2940 0
-732 1585 456 0
2844 -1710 2253 0
-247 -2459 -2031 0
2088 -905 -308 0
-2769 1175 1181 0
-517 -831 2227 0
-216 -145 -934 0
-1180 -1970 -684 0
2103 -1715 -420 0
964 -1555 222 0
-2629 -1019 -1529 0
-1829 -1692 -1274 0
74 -870 942 0
145 -301 -2572 0
1654 838 -1328 0
1402 -2650 -2967 0
-1590 601 205 0
1088 2161 1072 0
776 2690 447 0
-219 -1574 -2456 0
273 1540 2171 0
-1195 1211 -790 0
-249 -1408 -661 0
2281 -1011 -978 0
623 -1678 -1813 0
-267 -2585 1930 0
2815 -2896 -2787 0
2942 120 1089 0
-1396 2644 1854 0
-2319 31 -2125 0
2369 -513 -1483 0
858 -1172 -1586 0
568 -1831 1156 0
-717 -960 -2110 0
1464 -1432 -228 0
1171 -847 1019 0
1853 2962 -1212 0
2162 2906 2279 0
-2603 1062 -1936 0
-2675 -1851 2875 0
-1908 -593 -1407 0
219 37 -310 0
-48 -2073 2023 0
-2965 2448 187 0
1152 -1194 -953 0
-2551 1969 679 0
618 -2048 -410 0
-878 -2398 -280 0
1394 894 2837 0
-741 -51 1591 0
-253 -2999 -42 0
2295 -270 2351 0
-903 2188 2383 0
-825 1816 2360 0
2916 -1417 1340 0
-2876 2920 -270 0
-324 -2730 -1617 0
1458 -2549 938 0
2712 760 -2488 0
165 526 179 0
-873 2710 -227 0
410 2581 707 0
2170 1764 -2181 0
517 2923 -1249 0
-2037 -2860 -2538 0
-1420 2423 1618 0
2465 2216 -1879 0
-2484 -806 2651 0
180 2120 809 0
1832 953 2553 0
440 1541 2100 0
-800 -156 1654 0
2515 218 -1712 0
2786 607 -39 0
739 -144 -2413 0
179 -2073 -417 0
2556 -1935 -1621 0
1334 -1898 2864 0
-2279 1378 1267 0
-1279 -1851 2033 0
988 2441 827 0
-1786 649 1216 0
-130 -1083 -2820 0
1854 -64 -151 0
-754 1826 -1751 0
-2556 110 -994 0
2640 2663 -1997 0
-1661 -349 754 0
-905 -369 -2577 0
43 747 -1633 0
208 2592 -865 0
2186 -2080 -1045 0
-276 915 -403 0
2444 -658 1788 0
-975 2056 79 0
-1753 -1745 1570 0
1395 -904 2413 0
1230 2359 -1024 0
-2025 -592 -1314 0
2007 240 1422 0
-2114 -778 2427 0
-162 -2257 -1397 0
2035 -434 -2465 0
-1220 1282 -421 0
1149 1033 451 0
1794 2032 2335 0
771 -2178 2218 0
-1782 2032 481 0
2550 -2375 -1103 0
-1167 -1158 -1222 0
-285 -1668 1295 0
2694 -358 2868 0
-1804 -2437 1254 0
-1030 1449 -2423 0
2386 770 -1972 0
2676 1039 1338 0
-2549 -1980 917 0
2579 1029 -2773 0
1189 145 -1319 0
496 -983 -2090 0
-1345 1038 -1946 0
2268 -149 2889 0
191 936 1109 0
815 2541 -1739 0
391 -1650 931 0
704 -2760 787 0
2254 2518 -2379 0
38 1690 2532 0
1869 2465 2363 0
-1964 13 849 0
881 -1556 2905 0
-2173 -1708 633 0
-1879 -739 805 0
2660 319 1035 0
1817 807 573 0
-2339 394 1591 0
-1176 -646 -545 0
2270 -1153 1728 0
-2838 507 2417 0
2402 1661 -2549 0
48 1202 -620 0
2787 1491 -1774 0
-1179 -495 1759 0
2967 2410 -256 0
-1894 389 463 0
1748 2349 2842 0
-1576 -2085 1227 0
522 2738 -2421 0
-2300 2593 777 0
2630 -497 -2466 0
2144 729 2601 0
341 2126 758 0
1452 891 174 0
2955 -2088 -2865 0
-1611 1080 2247 0
-2679 -2653 1995 0
2932 762 1026 0
-244 1680 -1217 0
1349 1774 1619 0
2461 556 1818 0
-2137 -1352 -2368 0
-2923 -2129 -501 0
2517 -2900 644 0
1814 2736 2925 0
-2990 1019 997 0
-203 2435 -2849 0
153 2131 280 0
-831 -1467 -2443 0
2620 -1315 -525 0
-27 605 2037 0
-2958 1617 -491 0
-2762 2612 2337 0
2768 -2185 576 0
956 -35 -2788 0
1935 -2554 -578 0
-904 1844 2330 0
-1911 -999 -804 0
-1147 2955 807 0
-1546 -59 -1161 0
-1460 2370 -2783 0
-701 -1799 -651 0
-357 -460 -1357 0
-1889 398 -1954 0
-1475 823 2422 0
394 2141 -1235 0
2396 1202 2763 0
903 843 -2363 0
-1508 -85 2397 0
913 596 -90 0
962 -1366 -2241 0
2067 1134 -1906 0
950 1503 359 0
555 2718 2079 0
516 293 2106 0
1635 954 -991 0
-281 -2339 -491 0
-839 -33 -1123 0
1023 2680 679 0
-196 1807 2028 0
579 1073 -251 0
446 2597 -723 0
287 2205 -617 0
-1164 2606 1750 0
-2086 -1521 2795 0
2516 -701 -2280 0
101 233 2020 0
1220 -139 -1591 0
2426 -1726 2726 0
-135 -1477 1286 0
737 -2841 1476 0
1246 -2556 -2461 0
-976 -1803 2860 0
-605 -1186 -92 0
203 -917 180 0
-25 -1461 2851 0
2417 2800 657 0
-175 413 2519 0
-2881 -2817 1692 0
-1190 -411 2840 0
-769 -620 -137 0
1042 -1995 -2557 0
2688 2327 2303 0
-605 -1282 -795 0
213 -74 -528 0
-1890 -2035 2379 0
970 -2759 361 0
-1235 -202 -2338 0
-1897 2452 -536 0
2997 165 719 0
468 2499 2078 0
-869 -244 -164 0
519 -1384 1379 0
-2588 1963 2976 0
-952 -2951 -1148 0
-1040 2985 1644 0
-2305 890 -2913 0
-2361 -969 746 0
-2041 -1706 491 0
1095 460 1893 0
-2807 -2051 1832 0
2939 1062 1463 0
823 -1032 -1724 0
2318 -1074 556 0
-2586 -2529 -616 0
-72 -2734 -417 0
2531 1139 -2715 0
-1311 1195 -2924 0
-2938 1789 1638 0
-2534 -1816 1847 0
163 637 1342 0
2927 1912 -79 0
-2284 -751 1712 0
-212 -966 2334 0
-2658 763 1763 0
2581 -1371 1872 0
-1086 658 1389 0
-1606 1098 -1163 0
1878 -330 2344 0
1887 -2608 112 0
-2396 -1276 -481 0
-1720 -1153 2821 0
2723 667 -1939 0
773 -2737 -2057 0
-1712 2408 -8 0
2780 -1278 1679 0
-2035 -695 213 0
-228 -1301 -928 0
3000 -361 -1212 0
-2560 1886 -189 0
-893 1824 -1704 0
1168 -1582 -2367 0
-2729 -1579 -1333 0
-691 376 795 0
-413 -1667 464 0
-199 2634 498 0
-2306 -412 1705 0
-2135 2963 -1349 0
1895 807 1609 0
832 -2649 1485 0
-763 -470 989 0
-54 1360 1086 0
2850 -1535 -165 0
-1744 1949 -480 0
586 1020 536 0
2684 2511 693 0
2293 2445 -1543 0
622 -1930 -1831 0
-878 1661 579 0
-1170 -2441 -2770 0
1433 105 309 0
-2276 514 -2641 0
-2234 -1924 -127 0
-33 1034 -1266 0
119 1929 -395 0
2970 977 -779 0
1877 -1829 -1543 0
-1420 -2197 -2294 0
2746 2538 -1618 0
2820 -2288 1591 0
-2083 1274 -409 0
593 -2533 932 0
-342 980 -2088 0
853 -1840 -1460 0
2561 -1258 -16 0
-2619 836 2006 0
-647 -1167 1908 0
-413 62 2276 0
-479 2537 2058 0
-1310 -2608 -2270 0
2059 -379 124 0
-1051 601 -905 0
-2194 1956 2675 0
-1298 2139 -2326 0
-1154 2223 -2236 0
379 220 -1057 0
1545 859 113 0
2238 2841 516 0
-1350 -854 2983 0
-679 -533 100 0
2269 1764 1716 0
-2305 186 299 0
2893 -389 -407 0
2949 -148 -693 0
-496 1475 2450 0
-2676 -1282 898 0
-900 -2584 -737 0
2966 -1331 -1008 0
-2608 14 -1416 0
-1742 18 2434 0
-2072 2240 -2366 0
1608 2036 -2487 0
-1433 2360 2744 0
-2348 -2820 -1236 0
1311 1841 -2400 0
-896 -602 2990 0
227 -1227 71 0
-1077 -1287 -2876 0
1840 -2474 2214 0
-2565 1786 163 0
-1663 1147 2045 0
841 -2872 -2766 0
-1413 752 -1622 0
1347 -516 2926 0
794 1459 1870 0
-2281 2716 -908 0
1593 1042 1843 0
2673 -2209 -2835 0
1415 -1658 -635 0
-717 2363 41 0
-239 -2351 -633 0
-2704 -1362 -286 0
-2912 2353 1680 0
2766 1792 -2681 0
2183 1577 -1655 0
2403 1048 1848 0
2470 -1980 -1335 0
-753 -1147 -1111 0
-896 712 -1498 0
-599 -2675 405 0
-1697 -632 -2468 0
622 951 -1713 0
2819 260 2739 0
-1118 2207 2734 0
2474 2210 2769 0
-2640 -650 -1576 0
-1648 -2928 -2962 0
-2020 547 1481 0
-2569 1610 112 0
2101 -1085 -1633 0
2050 1572 421 0
-1032 1176 -2737 0
-867 -523 691 0
1518 -2149 182 0
-2830 398 -497 0
-355 -166 -1254 0
300 -1855 -2855 0
2821 917 609 0
587 2943 -2114 0
656 816 -1147 0
1512 -1652 -1330 0
2064 1345 199 0
-2396 -1464 1137 0
-794 -1609 115 0
-331 2137 2895 0
-289 -1722 1920 0
908 847 721 0
3 2022 -2636 0
-2831 -1332 -1728 0
1640 -2626 955 0
-334 -1293 1284 0
-1723 265 1426 0
-1210 -2689 -108 0
2261 160 -2073 0
2064 1556 -2658 0
44 -889 -995 0
-940 -36 -872 0
395 -2275 646 0
1668 -1859 795 0
-2722 2990 -52 0
-394 -2568 -1928 0
1362 -1765 -2705 0
160 -75 177 0
2445 -79 665 0
120 -275 230 0
916 -2477 630 0
2498 -1937 -473 0
2358 -2303 -2362 0
1875 -2988 2278 0
88 -1236 -2309 0
-858 2250 2636 0
-589 -1080 -1634 0
-2726 888 1287 0
2269 -771 1618 0
2217 -167 355 0
2178 1470 1082 0
694 -1115 1648 0
1909 292 -190 0
939 296 -974 0
-1791 -2249 -1392 0
-1285 -356 2156 0
1085 1218 1378 0
1248 1579 -675 0
-1576 416 2169 0
-972 -2576 -2463 0
-1269 2430 -640 0
2300 -2036 155 0
1473 1613 2446 0
1330 1388 1513 0
173 1073 -153 0
493 -2036 -1249 0
-1981 -1014 2026 0
-203 -2204 2427 0
-1834 2637 -2788 0
-1195 -1482 -1461 0
-1978 -1362 -1055 0
-2266 -2354 2718 0
-2690 -2903 2780 0
973 -1840 -1895 0
2776 2567 -1539 0
1913 -24 -646 0
685 987 1545 0
2971 -1829 -837 0
641 2689 2701 0
-2073 1670 -2498 0
-2907 -606 2671 0
-1587 -1579 911 0
2634 2382 2588 0
1544 1156 -215 0
368 -2900 -1705 0
-684 2131 -2115 0
861 -1279 -736 0
-2770 1156 2196 0
2680 -2418 -182 0
-1063 623 -183 0
-686 2010 2942 0
427 -2799 -231 0
-2436 -1743 1539 0
2116 -761 -2486 0
189 -1653 -2930 0
803 1017 2137 0
1867 781 -2389 0
-287 -2496 -1776 0
847 182 -1316 0
1365 10 1380 0
981 1897 1372 0
-297 1992 -1682 0
453 -2882 306 0
1569 -594 283 0
-56 1181 569 0
828 2026 -880 0
-684 1308 -999 0
2718 -824 1867 0
-33 2512 -2900 0
387 823 -1006 0
2593 -1929 -2496 0
2538 -154 -767 0
620 2411 436 0
-352 476 2384 0
1918 2121 -2277 0
-653 120 2763 0
378 1530 1019 0
-1739 860 1219 0
205 992 1558 0
-484 1867 1353 0
-1987 -2175 2386 0
-2251 1687 -622 0
-421 -625 166 0
-1322 -1258 1976 0
-2005 967 -2805 0
1904 -2760 -576 0
876 -304 -2714 0
-2787 -2831 -1240 0
-2814 604 191 0
-1957 34 57 0
2584 -2744 1877 0
-1564 -543 1249 0
2533 222 -986 0
-2258 1088 -941 0
1077 -1658 652 0
-2179 658 2782 0
-2256 624 -1484 0
-2328 1439 1668 0
2170 1142 1067 0
1158 205 484 0
385 -304 819 0
1688 2701 -2108 0
1504 2689 -1379 0
-2638 2275 2171 0
-2814 1404 -2114 0
1873 -1572 -2745 0
2556 1132 242 0
474 2555 2710 0
686 -986 1359 0
264 2591 -520 0
-1260 868 -809 0
-409 -931 -2196 0
1950 -2727 2433 0
1648 1800 356 0
-2189 -1431 344 0
-307 2013 -104 0
682 -294 -295 0
-2700 663 205 0
453 657 1512 0
-2674 2120 -1983 0
-2864 -329 -1493 0
-2141 -1520 1971 0
1863 1199 -2261 0
-1677 -1587 1332 0
2274 2429 -1309 0
1876 -576 1901 0
-146 -1761 2772 0
2709 -376 -2183 0
-2628 2342 1363 0
1944 2817 2767 0
198 536 261 0
1242 -1894 -2455 0
1841 2723 1037 0
-2359 -2882 -2499 0
141 -560 -1307 0
-726 -1914 1616 0
-2127 -2981 1013 0
2807 2996 -778 0
-1944 -574 -1885 0
2365 1550 -1535 0
1623 2051 -505 0
-2437 -839 1129 0
119 2226 -342 0
-2240 -1616 2122 0
526 -1455 -2174 0
-402 -2804 1495 0
-69 1628 -2269 0
-1649 2822 -2353 0
1962 -2504 -1383 0
23 441 346 0
1033 -738 265 0
-192 -2438 261 0
-1807 2574 733 0
1741 -1689 -1730 0
1041 1424 -1207 0
1600 1512 -663 0
31 21 -1032 0
-820 -1896 1762 0
508 2814 -2262 0
1735 587 305 0
385 2083 2648 0
1218 2007 1668 0
-2200 1115 -1158 0
-967 -1384 2061 0
827 -1323 2032 0
2601 -1427 336 0
2504 -1482 -282 0
905 592 2415 0
-496 -893 646 0
1999 -2910 -1021 0
308 -336 929 0
1199 2915 190 0
330 601 -1302 0
-1592 -1092 -2563 0
2197 2042 5 0
1983 -445 -1525 0
2093 -1817 -1460 0
-1619 1194 -2053 0
-1440 2459 -2597 0
-804 -1138 2614 0
64 -2957 -1397 0
-1771 -821 2862 0
-423 -85 -2442 0
-2459 -539 1138 0
-1800 2532 224 0
-94 -2644 -1493 0
2701 1826 -342 0
-2601 1387 -1678 0
-440 -2000 -1787 0
54 -2468 1802 0
-2415 -1524 -362 0
-1787 -2300 -2587 0
-2841 1883 2488 0
-1780 -1561 1198 0
-2285 -1345 -2364 0
-1033 1249 -711 0
-2613 1196 -2790 0
1632 -1154 1020 0
1963 2089 -144 0
1622 2627 -633 0
2393 1569 -197 0
-2746 2747 -1066 0
-413 -2127 -136 0
2307 -93 1854 0
-2445 2473 -2358 0
223 -1898 1047 0
-1995 1748 2180 0
-1537 29 -1619 0
-2391 2191 2905 0
-1612 1626 352 0
778 1694 -2647 0
1981 1053 2037 0
1671 -2009 1750 0
-2352 2529 -1088 0
-1024 2610 -2357 0
2375 -782 156 0
-2275 865 -2826 0
536 1683 -1853 0
1447 967 -2487 0
-40 1167 -2017 0
879 -1395 -2111 0
-103 1354 579 0
180 -1904 -785 0
2656 613 -2742 0
2080 2941 -2698 0
-2547 1472 2235 0
545 -2146 -1524 0
-2892 -792 -2479 0
-141 1377 -1081 0
-75 2599 943 0
-2883 -1176 2266 0
401 -2702 -2846 0
127 -1911 88 0
-1926 -2992 -904 0
1321 2704 -1026 0
1489 309 2872 0
-1274 415 -463 0
-1049 2886 -1443 0
315 835 -1395 0
157 -208 -2814 0
-221 -2903 204 0
-1565 1195 -1768 0
-2772 2617 2654 0
-1395 2294 -1289 0
-85 152 1716 0
93 209 1874 0
-2395 -2444 -2065 0
-1460 626 -143 0
1517 771 -1382 0
-2016 -211 -1917 0
-300 -2368 1737 0
-1734 -340 -667 0
-1356 2908 -2601 0
-856 -2878 -219 0
107 -2905 -2299 0
1211 1666 1513 0
-502 2237 2538 0
2375 -2614 1354 0
610 -395 -1273 0
1837 315 1432 0
-2932 914 194 0
-2807 -99 990 0
2081 1686 -2290 0
-524 1982 -1800 0
-170 -816 -2469 0
2897 2867 352 0
2244 1922 2569 0
2430 1944 2515 0
-1765 2302 463 0
2098 -1974 -2296 0
869 -2530 -1977 0
1379 429 1016 0
-1821 1571 -97 0
592 599 -1240 0
1652 -708 781 0
-1690 -1770 -331 0
-549 -1474 -1929 0
-1914 943 2636 0
2818 -1717 1559 0
-1978 -1697 370 0
2853 1458 -2308 0
-2821 -1125 -2473 0
1055 -1857 1188 0
11 -2763 1375 0
-2645 2871 2996 0
-444 -2942 -2958 0
-2421 -2313 -1652 0
-1102 1372 -1887 0
45 2489 2271 0
-2324 -1308 837 0
-1169 1037 1767 0
2957 1924 1569 0
-1139 34 -2801 0
118 2002 -1638 0
2692 -2515 -2302 0
1378 1151 126 0
2863 -2399 460 0
-97 -1308 -2653 0
1268 -1939 1009 0
114 -1481 898 0
-2959 -2045 602 0
-76 -2130 108 0
-506 -734 -2924 0
-2134 2914 2499 0
-2433 1410 -2979 0
-1254 -1191 -130 0
1722 2881 -2418 0
-1315 2953 -1679 0
1859 -2979 127 0
-1064 -2488 -276 0
-623 1546 -1961 0
1156 797 -631 0
716 516 963 0
2980 176 1621 0
-554 -291 1790 0
2877 -2261 1245 0
-2859 1707 1571 0
582 -1259 -720 0
1702 -2015 -2482 0
-2200 -2618 2712 0
-584 -305 -1002 0
-2286 82 -814 0
-399 -1228 -583 0
1114 -2393 -1724 0
2577 -1305 -1994 0
-1205 -2193 -1953 0
-20 -2213 1605 0
-216 -1860 -1218 0
-920 553 -2342 0
-2109 2748 -546 0
-2609 -2593 -1901 0
-667 -596 2029 0
119 366 2967 0
-2226 1243 1216 0
-2859 87 -2744 0
1044 1466 21 0
1731 -1586 825 0
-2227 640 2029 0
-1643 1463 2899 0
-2239 2078 -2049 0
-2789 -765 2397 0
761 -1591 -593 0
2599 -785 -2761 0
-1192 1624 -2613 0
-2730 -1941 -90 0
-546 1289 2197 0
2442 -2186 1474 0
-2708 -1257 254 0
-2093 -1953 660 0
-1654 -2020 -129 0
687 -1871 -2292 0
224 -2310 -2247 0
-2676 1980 -664 0
-106 -1459 -2724 0
-1098 1128 -922 0
-1515 2674 1276 0
2931 -75 558 0
-1009 -2991 2078 0
80 1616 1746 0
-2591 2602 2347 0
2248 2704 -1962 0
2306 -368 -1115 0
6 2191 1253 0
756 -1220 -473 0
-1365 929 639 0
-1464 -425 1465 0
193 281 -1442 0
1246 2023 332 0
-2330 630 -129 0
-2454 -289 1658 0
-1712 2062 2667 0
-436 2041 -26 0
-1895 -164 -805 0
26 -2353 2585 0
-567 185 -2465 0
2004 803 -1797 0
1350 -2442 2383 0
-306 -1229 202 0
94 1684 -1364 0
-73 1387 123 0
-918 46 -1833 0
1373 702 1496 0
-2787 2279 2913 0
380 -373 1151 0
2687 1353 181 0
850 -2239 -2332 0
-2339 -206 -95 0
2212 -2520 1518 0
2242 -1447 1744 0
1207 1996 -1620 0
1181 -1946 -1462 0
-2893 -830 -1513 0
-1738 236 246 0
-121 986 -888 0
-2317 2870 2461 0
-2587 348 -989 0
-2172 -2641 -31 0
2541 1901 -1972 0
-1121 -2492 1894 0
-1935 2697 1665 0
-1201 2771 627 0
-1065 824 -1298 0
-503 -1991 -2461 0
-2958 1552 2270 0
1220 928 -1706 0
2629 -2223 -1471 0
-275 251 -1574 0
2558 1829 -1832 0
-1440 131 -209 0
-2308 1913 -2005 0
-2801 2590 -2592 0
-2306 -2133 -1793 0
2877 1305 -211 0
781 -2714 1463 0
276 55 2271 0
337 1965 302 0
2931 32 421 0
1037 2541 681 0
2494 2603 -2854 0
-1180 -628 478 0
-2989 1014 -236 0
1134 -2870 2921 0
-2442 854 1548 0
-1290 1235 631 0
-2177 2201 2367 0
528 1081 -1987 0
1106 1917 -952 0
1433 -456 -1292 0
-1726 -1544 -2892 0
-1565 1253 45 0
1871 -1466 2351 0
2622 2450 -2757 0
2610 -1657 -2004 0
2598 827 -2284 0
175 -2731 113 0
-2081 1746 -753 0
-279 -420 -2846 0
-1590 831 648 0
2736 1740 -1861 0
-2520 -505 -2552 0
-224 2806 2083 0
-2616 2016 -2226 0
-605 1065 209 0
2855 -616 2927 0
1822 -169 -2762 0
1423 1051 -320 0
-1229 1889 -2325 0
1979 -2057 1687 0
-141 2885 -1723 0
1838 -1707 1279 0
-786 353 -1547 0
1511 637 2077 0
-971 -2924 2763 0
323 -1661 -744 0
1445 2010 47 0
-1629 -2586 1015 0
-1652 -1972 1018 0
-560 -818 -464 0
-1821 -1230 -717 0
-719 2210 2383 0
-2670 -385 -1757 0
-2297 -2354 1749 0
-1933 -2859 -1389 0
1677 -482 -1307 0
-247 2432 1213 0
-130 -259 -2235 0
-890 -194 -2774 0
2623 -757 -1888 0
278 1899 -896 0
-2789 -273 2295 0
1150 -1561 -313 0
-2611 1587 -2490 0
1200 -2813 2195 0
2674 709 267 0
-197 1079 2067 0
1770 -2413 -1178 0
-441 2567 151 0
-1638 501 324 0
-853 -2141 -1425 0
1052 -966 -205 0
1861 -1248 2856 0
425 2871 1024 0
-278 -234 70 0
2254 320 -2365 0
-2150 -423 -1405 0
-2253 -1714 -384 0
-2888 -688 -2765 0
1670 1761 -726 0
-2921 -1156 2599 0
-1481 2054 -1454 0
-150 1495 -416 0
-847 -1976 -646 0
-2128 642 2631 0
195 -1797 -2457 0
716 2602 1383 0
-2814 344 -1916 0
1850 281 -2692 0
-2891 1907 -1313 0
117 -1245 2778 0
1443 1189 -1058 0
-1135 -1197 2638 0
2015 2531 2128 0
2005 -1248 -2223 0
1447 -2418 -2153 0
11 1892 -963 0
2190 898 937 0
-44 1497 -2543 0
-1466 -2629 1470 0
112 -1366 794 0
-2710 -2333 -1852 0
2237 -2566 1120 0
-900 2541 -2311 0
-1936 -172 1864 0
-1755 -1338 -2933 0
383 2561 -2407 0
791 143 -978 0
1562 390 1265 0
-43 -2735 -1455 0
2045 -2397 -702 0
-2498 -1189 1298 0
2686 417 2200 0
-316 -2515 -512 0
-1598 -1036 2595 0
-1755 2241 995 0
-709 -2077 2919 0
-523 -1143 2045 0
1358 1187 -2649 0
-1927 947 -469 0
1649 279 567 0
-1415 -1835 -1885 0
-2892 1669 2746 0
2967 2647 -977 0
-1817 -546 -843 0
-2930 2322 -1839 0
-975 -2348 585 0
-2366 -1018 1511 0
-160 -217 -1655 0
644 2406 2272 0
-1470 -241 -391 0
1585 -1510 2122 0
2962 -2690 -921 0
-848 121 39 0
2789 2186 -1971 0
-1926 134 1896 0
1465 -2656 -1766 0
1297 -1301 -2269 0
1357 1797 2011 0
294 2518 -2900 0
1724 -981 1157 0
1087 -1371 -794 0
-1835 -80 2750 0
1083 -1292 -825 0
342 1196 -831 0
-2301 62 300 0
2501 -2306 841 0
-1915 1566 743 0
1561 2284 -152 0
2361 -622 -1523 0
1183 -729 -1975 0
-2742 -1208 -1553 0
-2712 -2998 -359 0
2435 -1955 2414 0
-1635 -382 55 0
-1379 903 -2614 0
-355 1776 1691 0
118 2839 -1278 0
-1547 1643 874 0
-1242 1059 2087 0
285 -2337 44 0
-1311 2026 1099 0
1095 957 -560 0
-623 -2427 -1875 0
-217 -2148 -2105 0
-1932 11 -2352 0
1722 -947 573 0
-1878 -2083 1085 0
-1319 1724 -382 0
-1190 2094 2123 0
-2614 1465 -1690 0
1898 -455 -58 0
-440 1006 -533 0
-1034 -2001 -1308 0
1019 2624 -1092 0
30 1129 705 0
-360 1453 820 0
42 2800 271 0
2001 2546 -1412 0
1833 2295 2033 0
-2070 -766 -511 0
-1267 -2644 1508 0
746 890 1430 0
-2795 -794 2247 0
-1548 -997 727 0
-1998 1220 -950 0
550 -324 2522 0
1521 1519 846 0
-1196 -436 2583 0
1256 1754 2405 0
-1000 -1609 -697 0
-1275 1539 -1902 0
-1631 -1151 2086 0
1185 -1991 2724 0
-224 1771 1647 0
-1610 -2243 1299 0
-333 -689 -376 0
1625 2251 -2608 0
1320 -1955 -2219 0
-2623 2356 475 0
2478 1298 -1448 0
1060 -27 2271 0
1492 665 240 0
938 2801 -2737 0
-938 -2060 735 0
1030 1625 1670 0
-2591 313 -1704 0
2604 -1107 524 0
-274 -1401 64 0
-1933 -2098 294 0
674 -2801 -1006 0
-38 -1262 131 0
1352 -2273 866 0
-1749 1732 2487 0
2866 3 888 0
352 -2497 -523 0
-571 689 -519 0
1217 2219 -1287 0
-1043 -1348 1071 0
791 1800 -2201 0
-316 -1808 1462 0
-1102 -555 -444 0
-264 -843 -2392 0
257 1496 2551 0
-2187 345 -1244 0
-2692 -1763 25 0
-2831 2361 1840 0
-744 -1277 -1574 0
1315 1453 2855 0
-625 20 -2945 0
-726 1176 425 0
-1965 -1694 -1586 0
-1207 -1492 2075 0
2966 -2703 1318 0
-2278 698 -808 0
2459 1016 -1283 0
1451 598 -521 0
1502 -2657 2479 0
-2361 -1954 1302 0
1619 571 -875 0
-1405 -203 274 0
-1964 1128 -1294 0
-282 -398 -1426 0
-2513 1716 -927 0
-1447 2165 -1598 0
-257 -2306 -2180 0
-1429 -2076 2770 0
-2011 -1546 -2106 0
1217 2165 2264 0
718 1425 2611 0
-1688 1066 -2559 0
1097 -569 -2945 0
2927 -1783 -2295 0
86 -846 1613 0
-391 -2186 -1844 0
1087 2514 -1019 0
2468 -2161 -984 0
-1654 1221 -1414 0
-2005 2923 -1477 0
1723 2083 -1489 0
308 2183 -1091 0
-119 -477 -1271 0
1442 -1043 -1 0
-2634 -2849 1694 0
1329 -2437 -249 0
739 761 2752 0
1523 2222 1160 0
2051 2291 -486 0
-2129 -933 1591 0
588 -2970 -569 0
2753 1367 -1115 0
2407 799 -2781 0
-1299 787 1864 0
-29 2159 -433 0
2682 -728 2929 0
-1074 -2012 379 0
571 532 1466 0
-2257 2415 -238 0
-316 1853 -1560 0
-228 -2225 -1162 0
-1629 2297 2889 0
437 913 2674 0
623 1830 -1388 0
1027 -1142 2039 0
-473 -583 1738 0
-1030 2467 52 0
-1909 -688 -2861 0
-2688 -160 -1827 0
-2868 -874 1394 0
-1266 -1927 -838 0
-1641 264 418 0
-1684 -1148 506 0
2955 -539 -83 0
350 -773 1835 0
-1965 -1535 -1326 0
-2960 2674 612 0
1592 2459 -2212 0
2939 -1025 459 0
462 2894 340 0
1457 2376 1156 0
-863 2945 -203 0
568 271 2198 0
-2563 -60 205 0
447 794 -1542 0
1064 2455 1943 0
191 1125 1377 0
-420 2027 -1433 0
-609 2732 441 0
1422 -2579 -13 0
-2878 2403 2424 0
2678 -2278 1226 0
-1879 -1842 2174 0
539 432 871 0
545 -99 -470 0
1669 1631 967 0
-887 -2860 -998 0
421 -1580 -2322 0
-1369 -734 -2400 0
815 2528 -1721 0
-14 -707 759 0
1447 2528 1181 0
-2651 -2173 -553 0
-2332 -2155 -81 0
762 710 -561 0
-1952 2296 -585 0
-2086 -44 1080 0
-2015 2713 -2730 0
-442 647 -2121 0
2386 -2383 -1633 0
-530 629 -2638 0
1109 -1702 1055 0
-4 -1311 2491 0
1915 -177 -692 0
2697 -2567 319 0
-2733 1907 1690 0
-2815 2133 -710 0
-1841 -988 1938 0
-2415 2629 -45 0
-41 -1557 -1883 0
1779 -2969 -1133 0
-2667 424 1842 0
-2010 2212 -1771 0
-2829 -2409 -2250 0
156 2491 -2482 0
2190 -1040 2808 0
799 -2593 1615 0
67 750 -1944 0
-2356 1307 -1209 0
2868 -2183 1280 0
1699 -344 -1617 0
-2811 -2858 -1728 0
233 -2644 -2408 0
-2578 -1526 1112 0
-434 1694 -2458 0
1271 -2348 1995 0
-646 -1172 1724 0
2548 -1008 -1612 0
-1895 -1938 -2733 0
2529 564 -794 0
-2637 -1720 -1412 0
620 2030 -2550 0
-1155 1846 -2242 0
704 -2499 2583 0
-807 -1829 -791 0
1315 1751 897 0
927 2445 1667 0
-276 -1547 1023 0
-620 2643 -1108 0
-2649 1880 585 0
-535 2099 -1545 0
-2030 -181 -52 0
1679 -1345 -2926 0
2480 -2825 -1764 0
-851 2666 -797 0
-1839 -1842 2899 0
2138 -1876 380 0
-729 -555 918 0
351 -2729 2861 0
-243 -1634 -311 0
-1025 -1011 -2051 0
488 -589 183 0
-1853 25 -783 0
-2463 -2950 -188 0
942 2546 -971 0
-2334 1329 2558 0
-1013 2193 2582 0
-1674 -1144 820 0
1678 -28 976 0
-1717 2983 821 0
2517 2066 1256 0
1553 -145 571 0
2454 -1395 2701 0
-404 -677 -2053 0
2949 762 -2694 0
-791 1288 -1897 0
-747 1264 1063 0
2032 -2252 2474 0
-553 -1089 -503 0
1800 -1644 1605 0
1868 -2782 126 0
211 2051 -2756 0
2098 -1178 -2608 0
1048 -582 1027 0
-2387 -1381 2611 0
-1566 -503 -1967 0
-1532 2914 -2675 0
-2035 -1218 1255 0
-1629 2227 2774 0
2518 1816 763 0
712 -861 817 0
1185 -68 2369 0
-1959 1808 -2053 0
540 681 813 0
542 1392 -2171 0
-442 -989 -850 0
-1271 1561 2232 0
1862 763 44 0
-2529 -2310 -740 0
225 2653 383 0
10 261 -2351 0
-162 472 -223 0
-112 1871 -1494 0
-2749 848 -2064 0
-1835 1461 -1602 0
1150 -495 -687 0
-710 -292 1145 0
-863 1560 -2226 0
1740 476 1481 0
1994 1271 1971 0
-819 -1605 -1693 0
-1345 -937 1154 0
1906 -1382 -1404 0
2776 1257 486 0
574 -2655 2091 0
-746 -1448 -2288 0
1936 -2293 -1678 0
-2351 531 2345 0
295 -2253 -2816 0
-75 1686 2994 0
2953 -1116 584 0
490 -208 1912 0
-2308 549 1635 0
451 2121 -2763 0
645 -2627 1847 0
-2361 2513 428 0
2238 542 952 0
-1334 2756 -2932 0
2295 -102 -1618 0
-144 2305 -2763 0
-2575 2481 1064 0
1311 269 -1071 0
-2034 -2991 978 0
2706 -418 788 0
1693 -534 -154 0
136 2372 1438 0
-2367 1000 2354 0
-2387 604 98 0
2128 -1987 -2385 0
-693 304 -1740 0
-1219 -350 -53 0
1410 11 -2654 0
-300 2015 375 0
2446 1629 -596 0
-304 38 2649 0
321 -2170 -2250 0
-2223 136 -1076 0
2375 929 753 0
995 578 268 0
313 2386 1807 0
-2887 1830 -2042 0
-2673 222 897 0
1395 1653 2702 0
2228 575 1331 0
-978 -1322 -2307 0
353 -1910 2239 0
-1243 -1113 2867 0
-1936 1980 -1091 0
1039 -1568 -17 0
2096 -2630 2142 0
901 2029 1081 0
2705 -1218 2194 0
2011 2523 2073 0
1072 2182 385 0
1292 1623 -1911 0
-1657 -1407 1819 0
867 1747 -198 0
-1032 1373 -1332 0
-2614 576 -2484 0
278 753 1200 0
2312 -2585 -2793 0
2848 1835 2202 0
-294 261 -1437 0
700 -2086 -2839 0
-1743 833 -1273 0
-277 436 -194 0
1433 2738 -875 0
1543 1164 845 0
1863 -1040 1133 0
2250 -2857 1447 0
2282 -929 1018 0
-1419 -1985 -2773 0
677 1116 -1179 0
101 770 1840 0
-2857 1762 -1928 0
-305 -1078 -2951 0
-11 -1597 -659 0
557 -2565 1507 0
396 1331 -1719 0
-1203 -322 603 0
347 -807 1743 0
-2389 -189 2104 0
-373 1742 -106 0
208 -1312 1291 0
-2966 -2639 2587 0
1675 1471 82 0
-2792 -957 2645 0
1300 -1036 199 0
-2075 2694 -1268 0
-1202 -2871 -1451 0
-934 1124 -950 0
2263 2661 1164 0
-2171 1082 -2421 0
2946 2663 909 0
1098 -136 2927 0
-1258 -2552 2611 0
1860 -849 -1264 0
-2899 481 -1337 0
1353 -722 448 0
-2859 -197 -1442 0
-1380 -1456 1298 0
-1921 -359 -1326 0
-2983 -946 704 0
2549 -2357 -1360 0
-1679 -596 1931 0
2108 -307 -1005 0
-2432 -961 -2351 0
-1361 -360 -1046 0
-2999 2334 -2076 0
-1790 -216 2241 0
-886 -1887 -957 0
2663 -1631 -2835 0
1049 -11 -1144 0
1125 -1826 1543 0
1585 -2792 2474 0
915 -2777 1213 0
-2391 2018 2411 0
1739 -1166 -842 0
-345 718 -2434 0
451 -1292 -91 0
2369 -2401 -2286 0
1814 2104 -151 0
1440 400 -739 0
1623 2102 -187 0
-2403 642 1472 0
427 1569 105 0
1539 -2526 -1781 0
2508 -2850 -2180 0
-1085 601 -1854 0
1727 -370 -713 0
2496 -2093 1833 0
-2820 -2785 2899 0
-959 1407 527 0
521 -1796 805 0
-1969 1041 2563 0
2891 -1347 65 0
1488 -1615 -1404 0
-2917 -2970 128 0
-1757 -419 2312 0
1305 160 1642 0
1349 -2042 2962 0
-1976 674 1663 0
2780 1969 1320 0
860 -1897 -2952 0
2973 -557 -1983 0
2188 2019 63 0
505 2323 -228 0
-1803 2574 2016 0
-2880 -415 -2093 0
59 2755 1499 0
-1673 1794 2437 0
-2357 -2672 -2934 0
835 -1406 -516 0
1662 1429 -1689 0
1301 -2036 -1829 0
620 1969 2308 0
1008 -2171 2674 0
-892 -679 910 0
-109 718 -62 0
-529 2837 2288 0
-2551 -635 1280 0
-1548 -1883 886 0
-693 -923 2291 0
-305 483 924 0
-301 -2331 -2188 0
-907 844 -2941 0
1025 -557 331 0
2575 -909 742 0
1291 1729 1393 0
1561 2633 333 0
2237 812 -2023 0
2508 800 333 0
2432 -2639 -1525 0
1006 -441 1805 0
2241 -1360 -1654 0
2317 768 2788 0
-646 2923 2916 0
118 331 1027 0
2861 2119 -2458 0
1486 -2165 441 0
338 -1972 -1315 0
407 -2945 -849 0
-611 2530 -1689 0
-64 289 916 0
-2606 -255 2262 0
-2791 -716 -2276 0
-2495 562 -1882 0
-877 1225 1137 0
1613 -421 -1122 0
1518 -2381 610 0
-2875 -1914 -2147 0
-228 -1238 97 0
1371 -1433 -779 0
2770 -2189 684 0
1757 1899 -2684 0
-1967 -1200 -350 0
285 -2707 -1050 0
-2476 964 648 0
-2915 -415 -1574 0
40 -188 1286 0
2297 -2632 1345 0
-921 1888 -416 0
-2241 -397 -1091 0
-2564 1206 -1997 0
1505 2960 -2211 0
-2574 1676 2239 0
-4 775 -2392 0
-2779 476 2334 0
1125 460 -1027 0
1445 859 2451 0
-2411 1059 2302 0
1686 -1620 2584 0
32 1570 2751 0
1426 -262 -1100 0
748 1353 -1850 0
614 745 -2915 0
2752 1036 -1532 0
2021 -932 -362 0
-820 -2734 1521 0
-2061 -1081 -1184 0
-2488 463 2102 0
547 -419 139 0
2587 -378 373 0
-2601 -2563 -3000 0
1824 -509 1477 0
-2274 1660 -1743 0
-621 -2054 1215 0
706 -192 -1933 0
-624 53 -2920 0
936 210 -857 0
-31 2392 2251 0
1938 1436 757 0
-2377 2505 -418 0
1744 1336 502 0
-2881 902 105 0
-1235 -1334 2817 0
1115 2260 1699 0
-368 -2133 -1824 0
1097 -2948 -1875 0
-2792 -1758 311 0
-2951 -2447 538 0
-2783 2544 2363 0
-1095 -2828 2605 0
298 -619 -2541 0
1689 878 1096 0
1054 600 -2524 0
2366 -1218 -1625 0
-2071 2838 -1401 0
-2056 433 1561 0
2743 -750 1791 0
1321 2459 -2563 0
-76 223 -2232 0
-2573 -575 1773 0
-826 2150 2424 0
2385 1805 -206 0
251 -2731 -609 0
1291 -257 1112 0
525 -1553 1625 0
878 -2308 -64 0
-2729 -2384 575 0
470 162 -2193 0
1225 22 -2919 0
-215 -955 -2778 0
-766 1655 2781 0
-1688 -525 -2962 0
-1347 530 -1130 0
2921 -2835 -312 0
2301 -1675 -1946 0
196 -1243 -19 0
630 -2116 2062 0
-946 2308 -2383 0
-820 1733 1100 0
-906 761 1166 0
-42 1708 -1355 0
2447 1024 1613 0
-2562 -2101 1157 0
-119 -160 860 0
-292 -1823 1755 0
2514 -144 2677 0
-409 111 -908 0
1651 -478 -2626 0
-2819 2461 241 0
1776 2372 -235 0
2387 -2838 -2704 0
-2778 235 -2795 0
-742 2602 1976 0
-1844 1758 1150 0
-2625 1162 1740 0
796 -2846 -1392 0
298 -124 1484 0
407 -1597 -2103 0
-1235 -2598 -758 0
-1806 2114 419 0
527 2501 -2357 0
-2885 -2605 598 0
1501 1485 2794 0
-2306 -2287 -2899 0
-1873 -1296 -894 0
809 -2389 -458 0
2938 99 1808 0
2680 -923 1805 0
2996 1308 -2809 0
1240 -435 -345 0
-2451 -545 -1961 0
-2774 707 2329 0
765 549 -2181 0
-2164 -1147 2499 0
-493 2811 -1601 0
267 1773 -2848 0
-2919 -307 1322 0
-875 692 -1195 0
-1556 359 1437 0
-2618 -2623 -2154 0
-1688 1517 -1038 0
-366 2355 1196 0
-1584 -2773 2287 0
1180 -1947 1266 0
-230 -396 -2393 0
-223 1201 -986 0
-2038 2830 -1217 0
830 -743 1553 0
115 -1476 1889 0
-851 -704 801 0
66 -1173 -1876 0
-2085 -911 -641 0
-906 -337 1369 0
1380 1072 1517 0
2637 -514 718 0
-2172 706 -2011 0
-673 2651 1626 0
1170 -1268 -244 0
-1098 2316 -1790 0
-2452 -2218 1740 0
-1544 -449 -1682 0
-1471 -2888 2742 0
-443 413 1303 0
625 2403 918 0
1899 2471 -256 0
-2339 -1100 -1470 0
-2785 1034 -2376 0
113 985 2795 0
665 260 2591 0
141 -1821 -346 0
1220 2951 73 0
-2412 862 403 0
-2524 2478 384 0
2038 2602 2052 0
-1245 -463 -660 0
2937 1093 1238 0
204 -606 -1769 0
-1481 718 1924 0
2328 -1987 -1376 0
1558 -2099 -2017 0
-870 -1162 311 0
1403 434 1904 0
1152 -2723 1307 0
-1954 -2422 -1180 0
2080 -1474 -2674 0
430 2957 -1478 0
-1962 790 1938 0
-2508 858 2415 0
2313 1207 -2589 0
2865 -274 2391 0
-351 -788 697 0
42 -2130 916 0
678 -2416 -2945 0
2014 252 2608 0
2939 1651 -1257 0
-160 137 -2008 0
300 935 983 0
-629 2569 539 0
-1831 -1851 -2977 0
-2225 694 -2220 0
-1066 1970 1836 0
916 2646 -2915 0
865 594 -704 0
-1688 972 -1122 0
-150 1305 -2021 0
-802 -1159 2567 0
-2811 -420 -2337 0
-996 -213 1503 0
1039 2490 1029 0
1705 1032 -1390 0
-2493 -2769 598 0
399 2345 -2401 0
312 2485 573 0
2519 -2466 -1862 0
1582 2627 751 0
-772 1470 793 0
1876 2023 790 0
708 1734 -2083 0
2517 -1212 -1417 0
872 2878 2147 0
228 -837 157 0
2268 -1116 2488 0
-333 2929 2088 0
-2681 -1161 1399 0
2775 2447 -1637 0
-660 -2650 -2102 0
1161 -2710 384 0
141 159 1593 0
1626 -2603 746 0
2818 -1932 -2974 0
1047 -1276 831 0
2509 2233 2122 0
1259 -991 -178 0
-516 -673 1621 0
2848 -272 2668 0
2170 -711 -426 0
1783 788 1249 0
-2089 1871 314 0
1872 799 -340 0
-1924 -378 -501 0
-1355 -2704 1624 0
-2392 -1851 2875 0
-656 -138 -901 0
-2981 648 -614 0
1015 552 904 0
565 2961 -2710 0
-555 2415 1567 0
-922 2695 -2197 0
-689 2150 -607 0
-602 -2296 2978 0
127 -342 -869 0
977 1646 1026 0
383 2693 719 0
-899 -2334 1556 0
-2204 -444 1372 0
-2897 -1732 -934 0
-2088 476 1111 0
-2690 1193 -2085 0
-1654 1025 -2284 0
-226 1822 583 0
1987 -1746 -1123 0
749 2526 2275 0
-2247 -764 -1313 0
1401 -2642 -1581 0
-2679 -3 1377 0
-1392 1365 -1956 0
1929 606 2813 0
109 -376 602 0
-441 2018 603 0
1970 -1847 1907 0
-1598 -1089 -1718 0
-685 -1027 -553 0
477 -2210 -1702 0
2657 931 -878 0
2680 -628 -453 0
1174 1627 297 0
2355 781 1325 0
-1085 2976 -2203 0
1945 -208 1456 0
2753 2584 2879 0
-1793 2666 -2989 0
1010 -2611 1081 0
1528 2864 2252 0
-981 2591 -2036 0
436 -1802 2673 0
1615 -2059 -1533 0
-2965 419 1362 0
-977 711 309 0
-1165 -2392 -1099 0
-797 -852 885 0
-1826 16 238 0
-1959 -2911 2434 0
-1297 -522 -1277 0
975 -2561 -335 0
2765 1218 2567 0
2316 -834 -2208 0
-2439 -2737 1223 0
-2647 -1618 -131 0
2007 1258 770 0
-1720 2988 -1100 0
2828 -1162 -194 0
-1638 2090 -853 0
2450 1216 -660 0
2269 -2810 203 0
-263 -374 986 0
-2792 2854 -1516 0
2131 -57 -579 0
-51 -407 76 0
-510 54 636 0
1595 -1788 836 0
-2278 2854 -477 0
201 1725 -1933 0
1550 -1608 -2841 0
-2551 -1253 -2333 0
245 -1570 231 0
-73 854 -55 0
899 -1150 246 0
-1605 -1731 -208 0
-2015 2273 -2376 0
2623 389 -1031 0
-294 1021 2345 0
1956 -2094 6 0
2709 -1223 -751 0
-723 2697 -1877 0
-1500 -660 2131 0
-838 39 1414 0
1623 -174 1758 0
1990 1915 -706 0
-500 391 -1132 0
-1613 531 2383 0
-2977 1047 441 0
-834 1575 485 0
2195 136 -1873 0
1698 2532 2757 0
-153 763 -215 0
1381 1055 118 0
-2801 1062 -268 0
-413 -331 -2993 0
2127 -2292 2872 0
1095 -1275 133 0
2271 2243 1123 0
2534 -1435 2931 0
2245 -1825 81 0
2834 -524 2474 0
-1050 394 -1276 0
-1883 -2158 1188 0
2003 1383 -2807 0
1364 2240 -1631 0
-565 -44 -2354 0
-1793 1692 589 0
-615 2004 -50 0
2445 -720 1360 0
-2231 -513 1662 0
-1516 14 -1626 0
1179 -2893 1604 0
1039 -1282 -2318 0
687 819 1981 0
856 2964 -1252 0
-2752 1401 2348 0
1346 611 2630 0
-359 2009 2794 0
650 -1833 2614 0
-1534 181 2847 0
1424 864 -2243 0
-2116 1236 422 0
-246 1658 108 0
-1999 -2836 2005 0
2381 599 1871 0
268 1602 678 0
18 42 2468 0
1759 -450 966 0
-2055 2265 2922 0
403 1851 2201 0
-2114 1391 985 0
-1140 -1197 -1087 0
-1411 -1064 -1109 0
1810 888 -2836 0
885 -188 734 0
1912 113 -1952 0
-325 1928 2668 0
1898 262 -1661 0
-2708 -2574 -1757 0
-1243 -647 943 0
2563 -2928 2747 0
-264 1601 -2362 0
2608 1438 2147 0
2930 2082 987 0
-2243 -2264 -1033 0
990 -871 671 0
1990 2913 -1502 0
547 504 -1224 0
-257 -2088 2576 0
1475 408 -1876 0
-1200 -725 275 0
-2591 -2391 -2583 0
-2104 1563 2331 0
-1883 -443 171 0
-2596 458 1910 0
-331 -1914 -1013 0
180 -2774 1084 0
-545 1182 2520 0
-1878 2066 -2006 0
1305 -25 -331 0
2083 -1268 -679 0
190 -1918 2662 0
1694 1429 -2543 0
1409 -2922 -1493 0
2392 2645 848 0
2539 -1756 1406 0
316 -2580 -1610 0
2265 -2548 529 0
2379 1940 -2219 0
-1033 1569 290 0
-1176 274 2282 0
-2417 -1229 -2539 0
1444 -1747 418 0
1505 -2600 2449 0
1582 -1352 -917 0
1915 1517 -2194 0
-1569 -856 924 0
2515 -1926 2409 0
1548 -2501 -638 0
-2389 -93 -2676 0
-17 2516 1725 0
507 2955 2143 0
1707 447 769 0
-2157 1622 -2203 0
1613 -446 -1218 0
-1994 1937 2324 0
1404 2186 -2905 0
-1592 -196 -2340 0
-273 337 2470 0
788 2827 -1797 0
-1004 -476 -1357 0
265 711 -1745 0
-505 -660 271 0
1529 -1049 -2369 0
-219 -1694 1292 0
-1200 -173 735 0
1471 2907 1936 0
1297 1983 -777 0
707 190 -2491 0
1282 -2733 -126 0
-2885 -63 1346 0
-1374 -2 -2246 0
2689 -1357 826 0
-262 1484 630 0
-801 1402 1331 0
-595 -848 618 0
1733 -2919 1622 0
-311 2298 1377 0
-2236 371 2689 0
-1525 2969 -1591 0
-220 -1881 1065 0
2113 1366 -921 0
-715 74 -238 0
-1210 1990 -2307 0
-213 803 1148 0
-2167 -1733 -135 0
-2414 1268 1615 0
1554 460 573 0
-2318 1315 201 0
-1903 201 2945 0
-703 133 -2906 0
-265 -1317 -390 0
646 48 -1236 0
-2835 -1490 1322 0
151 -1878 1883 0
522 67 -2587 0
1776 169 2526 0
-563 2979 -2427 0
-290 2776 449 0
111 547 -333 0
-2330 -112 1771 0
1874 2958 2817 0
885 1145 -1225 0
778 -2926 -2288 0
2079 -2366 1711 0
2447 1398 1093 0
245 780 -2811 0
-2463 -2850 -2352 0
1814 -2918 -2349 0
583 -817 151 0
1443 689 -130 0
-2718 2275 -2421 0
2158 -28 -806 0
2972 -1646 -2145 0
-2519 653 -2153 0
1437 -1450 -821 0
2551 -432 -858 0
-2757 -876 -1635 0
-2749 2743 -634 0
1740 -455 -927 0
2439 -1313 -2357 0
-1282 -2395 311 0
-1879 -2311 -1542 0
2375 2851 -2435 0
-1822 -2363 545 0
2243 2411 1607 0
-273 2427 -2819 0
2827 1783 2936 0
-644 -1548 1918 0
-659 1105 -2347 0
791 -2497 -190 0
-2049 2310 2617 0
1625 -4 -50 0
-281 -1682 294 0
73 2784 1240 0
-1644 1535 -2315 0
-2057 601 2219 0
-2672 -2503 -2007 0
-1462 913 -2471 0
-2485 -995 2086 0
-865 2572 -941 0
1649 1980 15 0
-598 2155 1861 0
-1050 932 2210 0
-728 -2346 -2286 0
420 -2981 -2822 0
-166 -2575 2716 0
2334 -2970 -1112 0
1040 2142 2995 0
-1970 -185 1607 0
-19 -104 -1993 0
-2276 1767 2692 0
-1008 -1496 2490 0
1913 -141 -1316 0
-1254 1236 -1217 0
-2952 556 -986 0
-1965 2547 -2262 0
1639 925 1273 0
-136 1505 2162 0
1360 -1699 -2880 0
2237 1513 253 0
2467 574 -1523 0
1586 2332 -1546 0
-2428 539 2566 0
-2113 763 -521 0
1921 -446 1729 0
2448 2283 -834 0
-1256 2297 1202 0
-46 465 -410 0
-2291 277 584 0
1503 -2214 -186 0
-319 -839 -2929 0
-1789 -754 186 0
-1328 -461 238 0
498 -3 -1023 0
-2433 -1338 1703 0
1560 -1610 960 0
-1425 -1585 -2238 0
-431 -331 2196 0
1921 -2634 347 0
331 1564 895 0
-2369 -2667 -1516 0
-1573 -707 1963 0
-1949 -1333 -2456 0
-798 505 929 0
-2349 -34 -972 0
-2901 -340 -2161 0
-300 1891 1 0
-1888 -1252 -735 0
2652 2420 1929 0
237 2782 1460 0
-2839 -1713 -2667 0
-203 -2412 799 0
2060 -2576 991 0
-2580 2367 -1442 0
412 -841 -1320 0
-1127 1968 -901 0
605 2957 38 0
2109 -642 -1163 0
-329 -2503 -2794 0
-2013 410 2908 0
-2913 -469 -2190 0
-2904 2535 954 0
2111 -820 1784 0
1444 871 -1429 0
-2985 -1587 -1809 0
-1520 -884 -292 0
-1018 -1584 -85 0
-1664 -2863 -1623 0
-2481 2124 -354 0
-785 788 1663 0
-164 -681 -2381 0
-836 -1803 421 0
-86 -1685 897 0
-1037 2072 102 0
-1854 1811 1167 0
1514 -1645 127 0
-751 -2992 -1376 0
218 -1081 2292 0
2967 1977 357 0
318 2660 2347 0
-1944 -2505 1269 0
1014 -678 -2808 0
332 1000 2043 0
2795 -1448 -2159 0
-1899 -775 609 0
2254 2353 -1122 0
1685 -482 -526 0
-441 -1078 877 0
-770 365 -1899 0
-1026 2458 291 0
-2321 1288 332 0
-580 -2534 1377 0
2323 1517 1481 0
-895 2477 2841 0
-908 771 -1457 0
-1675 367 2016 0
-1937 -2792 867 0
1363 -381 677 0
942 2241 -2558 0
2739 2343 -2623 0
2277 -979 -1049 0
1902 927 -1327 0
795 -1267 -2775 0
1776 103 2537 0
-1150 2770 -107 0
-383 908 -614 0
1209 -320 756 0
245 -2010 878 0
1608 -48 1310 0
-1443 -2912 -2974 0
631 -2476 354 0
-2986 2940 -2335 0
535 2031 -2988 0
1809 1638 2550 0
-110 -2104 541 0
-1053 954 1816 0
2739 -776 -2388 0
116 2849 -947 0
-1592 2597 1701 0
863 -1024 1313 0
-2721 -1179 -398 0
2374 -2084 -1470 0
819 2468 2507 0
-1453 768 -165 0
-1649 -78 -157 0
89 2674 -1115 0
-2969 -2627 2122 0
949 434 2481 0
-1174 -1082 539 0
-2545 -881 2102 0
703 1638 2103 0
-430 -2017 -2208 0
-2792 25 1309 0
-2796 -1712 -2000 0
1025 -1490 2970 0
-1164 2589 -741 0
-2048 539 -2200 0
-2239 -266 -2772 0
-1311 -820 -584 0
2333 635 440 0
949 -1259 80 0
174 2202 378 0
370 -2238 628 0
139 1009 -2080 0
-2888 -2884 205 0
-2707 -2940 1360 0
2444 1822 1183 0
1700 2935 2044 0
-2253 -1534 242 0
2181 222 2060 0
-2056 -1476 -2566 0
1890 -1833 2901 0
-656 -869 -2468 0
-900 -2903 -217 0
-486 -900 -2740 0
-842 2907 -1665 0
-1146 -740 823 0
2887 -1711 -324 0
2480 1172 1679 0
-2333 -31 -1883 0
917 -1820 1552 0
219 -2011 -1580 0
-650 -2786 -1051 0
317 2997 -225 0
-618 1451 -356 0
486 -885 1930 0
1513 -1251 279 0
-2452 -273 -2616 0
-1161 -2037 -2060 0
-713 1255 1248 0
-1503 -2938 -1034 0
1655 1858 -403 0
-1014 -258 904 0
-102 1432 -148 0
1238 -2327 1487 0
-345 2802 840 0
-1171 -872 -311 0
1930 -116 -311 0
-1534 2216 -2280 0
2954 1661 2574 0
872 844 -1291 0
-1553 -1457 2206 0
2582 -136 2897 0
692 1214 2656 0
2334 -2992 1644 0
1752 -2079 -1751 0
-354 288 613 0
-141 123 -1937 0
-1928 2706 2159 0
1991 -510 12 0
-32 -1747 -727 0
-1797 2807 -751 0
-418 -2987 444 0
-1861 2244 1843 0
-2426 98 -1647 0
-2536 -1371 1567 0
-221 1928 -614 0
2982 1304 -185 0
-720 -2721 823 0
1273 854 374 0
1962 -1519 -563 0
-423 399 497 0
1155 -949 2727 0
-2524 -2465 1989 0
2468 1977 -2398 0
2964 -2385 2834 0
1222 -2399 -4 0
-316 563 -2535 0
2937 1353 -2345 0
-2147 -2134 -2092 0
-462 -165 -1640 0
-1445 -2471 -2116 0
661 -2868 2080 0
-931 2715 1857 0
1022 821 285 0
2501 -2843 1328 0
-1241 978 475 0
2703 -677 755 0
-2962 2231 -1021 0
-2512 2040 2474 0
2187 -1947 2597 0
-1158 1458 2899 0
838 -2866 492 0
1315 170 2176 0
1278 -2970 -186 0
2725 2119 2486 0
1956 470 2961 0
284 1789 986 0
-649 -35 -1830 0
-1684 2143 2174 0
-1984 1947 682 0
-2618 2417 13 0
2563 388 1530 0
-1724 676 2964 0
-1571 -2398 403 0
-1861 -1899 2083 0
-2501 428 -206 0
835 -295 -397 0
-2336 -1225 1877 0
485 -2021 -2821 0
144 719 1039 0
445 -539 222 0
1734 -928 -975 0
1981 -1528 2799 0
-1685 -639 -2019 0
-484 79 -2685 0
-1121 85 1878 0
-172 594 -2705 0
-1251 -2340 -942 0
-460 -2841 585 0
1149 -1739 1646 0
-1793 -4 -2432 0
858 2135 2480 0
1594 -1941 -1750 0
30 -1041 -873 0
296 247 -2202 0
-1006 -1941 2870 0
-2830 -1438 1964 0
1098 277 727 0
1871 -642 334 0
71 -227 2519 0
2832 2330 2685 0
-109 1602 -2249 0
-1878 -876 -406 0
-2648 -2318 -836 0
-2341 -1413 893 0
-1143 1179 968 0
1434 1225 2846 0
70 755 1310 0
-722 -1718 -1864 0
1424 -1687 -551 0
-2407 -2358 -2048 0
2304 -630 -2028 0
-2969 1246 -1880 0
-2963 -390 2478 0
860 539 1866 0
-2385 -2650 -1420 0
-1690 2191 -867 0
-1207 -658 -1443 0
1447 -203 -559 0
-2841 -2529 -2746 0
-1730 -2374 1906 0
-2854 -548 -1369 0
468 -697 2275 0
1354 -2349 2976 0
-2823 1905 -149 0
-906 1029 -216 0
-1431 2850 2959 0
1450 -1391 -1763 0
-307 2234 -2236 0
-478 1842 2508 0
872 2643 -1890 0
-1012 2920 -2689 0
659 -1004 -2210 0
-1750 -1387 1744 0
-282 -781 836 0
1518 -2162 2367 0
-668 -1437 -2646 0
2736 1901 -2645 0
2785 -2836 -2599 0
1617 1907 -137 0
2920 2895 -237 0
2919 1250 -2789 0
2061 -2476 -1091 0
1192 171 -98 0
2426 -989 -1203 0
1623 848 1197 0
-1114 484 -1278 0
-1218 1213 -1269 0
-2388 2700 -1291 0
-981 -1524 -1866 0
1941 -1693 -1046 0
-415 -679 -1041 0
-2219 281 -482 0
-1827 2697 -1995 0
1789 -2750 857 0
460 -848 2026 0
-1781 -857 1516 0
-2093 2543 -1255 0
-726 2856 -286 0
-31 668 -2990 0
-636 680 -191 0
27 -550 -2219 0
2206 -2235 -2849 0
-447 1115 -1173 0
890 1577 -557 0
-2760 529 2292 0
1133 1223 826 0
10 -1972 -1370 0
2905 -265 -1603 0
-49 1132 494 0
367 2574 2925 0
-1908 2786 1916 0
-962 -2574 1284 0
-27 -1741 -2270 0
-2229 -124 1381 0
-893 2197 2393 0
-482 -275 -1113 0
2616 1525 -429 0
-614 -2466 -2476 0
-711 -1842 1644 0
746 -2375 1358 0
-1498 1021 -1307 0
1251 -2344 -2450 0
-67 1130 2109 0
-2100 -1501 -691 0
1398 2582 -840 0
2577 -1160 463 0
-82 -2192 698 0
1099 1883 -2178 0
2792 120 1782 0
2188 -2486 1127 0
1168 2034 -122 0
2572 831 -2102 0
1825 -1264 -2486 0
-2859 1175 2590 0
-1436 2715 2022 0
-1161 -2879 -275 0
-903 1056 -2314 0
1747 1612 -775 0
-1943 -2743 2486 0
2017 113 1067 0
801 878 -1815 0
-381 96 1007 0
1044 809 2223 0
2120 -985 2619 0
2449 -770 -565 0
1874 536 2328 0
2508 -1219 128 0
-2874 -1544 1379 0
-667 -905 -447 0
396 2531 157 0
908 -2696 -1217 0
416 555 -2717 0
1024 -2807 -895 0
-301 -1702 940 0
-1656 1002 11 0
-511 2809 1960 0
297 2492 -601 0
-2419 -2889 -1291 0
-14 -1549 -1198 0
-2830 -2900 458 0
2502 552 333 0
-2567 1858 -2946 0
941 169 2673 0
-1239 -2663 -650 0
2041 -1744 -2555 0
-1808 2937 -1048 0
1067 6 1505 0
1747 125 1320 0
-2525 -1197 -2728 0
-442 -1005 2963 0
-2748 -1932 -1147 0
2194 1137 -1977 0
-323 1971 1682 0
-330 -2730 -2728 0
1976 2086 2834 0
1118 -2204 1511 0
1430 -771 -2722 0
-1993 -1937 1162 0
2364 1227 435 0
-326 2587 -2344 0
1564 2767 109 0
1228 -2364 -2041 0
-2424 1692 -1449 0
-1274 51 -1881 0
-298 -2091 1672 0
271 2299 -1683 0
-2650 1973 483 0
285 -2266 -828 0
-1966 2625 -1998 0
-2759 1313 2838 0
-1990 2772 1509 0
-2780 -2609 -1606 0
-2937 -281 1760 0
2424 399 -1675 0
2203 2668 1561 0
-2180 -547 1595 0
2597 2201 -2019 0
1588 -2988 -2616 0
2412 1834 1310 0
-2647 241 -358 0
-680 -138 -2923 0
1254 -1720 2541 0
-1624 -1464 2945 0
1636 -2102 1597 0
-269 -1026 2092 0
1773 818 -21 0
-148 -1368 731 0
-710 -1721 1760 0
1892 -1909 -182 0
-2728 2062 57 0
2745 -1248 2590 0
-521 -729 -1994 0
-2945 -912 -1569 0
-2190 452 -313 0
92 1495 -1364 0
-934 -846 231 0
1246 237 2580 0
2142 2779 -1310 0
1709 942 167 0
1876 1512 209 0
2584 -1686 -2689 0
-2124 2834 -2278 0
2781 -1766 -1661 0
1444 -2004 1442 0
27 -123 -2841 0
-2736 -1877 -2523 0
-1080 1194 -154 0
-1077 1171 91 0
751 1039 2437 0
-722 1524 -2487 0
464 1507 1598 0
-1995 -590 106 0
2642 -1143 187 0
2127 -2465 -128 0
-1855 -534 1316 0
-1461 -2131 2869 0
-1354 -828 2502 0
-2651 -1040 -278 0
2920 701 -1519 0
-1057 2070 1728 0
-1854 221 724 0
-1107 2242 623 0
-1328 1322 159 0
1905 -2000 -2918 0
-1950 -1627 1582 0
-1789 -1197 2191 0
329 -234 1827 0
836 -2841 1868 0
2220 2883 573 0
2636 2836 -1123 0
1407 1347 -2378 0
-1867 679 -1149 0
1405 1683 2783 0
-2637 1320 2067 0
-824 -632 1476 0
-2421 2062 824 0
-2069 358 2423 0
432 846 2682 0
-2691 2483 2353 0
2426 2904 -2719 0
-1832 -1179 2595 0
-292 500 -2184 0
-112 -1341 422 0
2950 622 -1137 0
-39 1704 -215 0
2546 1923 224 0
986 -1817 -1071 0
12 -955 -1763 0
2464 2417 1027 0
-2372 1993 -269 0
2805 1748 2425 0
-891 -1369 2683 0
-803 -2632 200 0
1787 -112 1120 0
-1434 1864 2648 0
526 -2020 1852 0
177 -553 267 0
788 -1470 1355 0
2368 -2706 2163 0
1608 1460 -2232 0
-2770 1228 -305 0
-1511 -154 2121 0
1361 132 -359 0
1879 -1619 2986 0
368 2971 -470 0
-430 -317 -2831 0
1515 1412 -1106 0
2159 -2989 1270 0
1092 364 -574 0
-1911 1267 2428 0
-1896 -57 221 0
-1736 -1170 -1518 0
-227 -236 -893 0
1499 -2012 2520 0
-688 -520 269 0
-722 -1199 268 0
2853 -1475 884 0
-1662 916 -2663 0
140 1382 2055 0
-805 -1418 -1278 0
137 1145 -1129 0
496 -2141 -555 0
2197 220 2720 0
-829 -1979 2671 0
2388 -457 2075 0
2671 -11 -290 0
-2814 2824 -2282 0
962 1016 2022 0
1531 2047 -803 0
-474 -679 1282 0
-1799 2000 2796 0
-2674 -1453 2301 0
-2904 -2825 1395 0
973 2675 279 0
1601 -2846 718 0
-1038 535 -2106 0
-2293 -1752 -1874 0
-1643 -2510 2979 0
-213 -1331 -2044 0
-903 140 -1860 0
-2912 -990 2240 0
1076 -669 -1333 0
2416 -1175 2615 0
562 -725 1473 0
-129 1876 2611 0
2769 1955 1461 0
1789 1542 2132 0
1981 1799 1060 0
-2788 -600 1615 0
-468 -99 2695 0
-972 2423 644 0
1858 -247 -582 0
-1060 107 -2768 0
721 -901 2770 0
-759 2766 -220 0
2833 2700 2837 0
2516 -226 -2004 0
-1278 -1616 -432 0
704 -2681 -515 0
-2394 -591 -678 0
-1816 -766 -2623 0
2275 1456 2366 0
222 873 -2825 0
-1246 -2188 -2652 0
242 2467 -922 0
706 806 1308 0
-1179 -1522 -734 0
-1561 -942 -2062 0
-790 -1065 1080 0
2287 1165 2439 0
1040 -65 393 0
-173 -2366 2694 0
-2495 2578 1695 0
-2305 -463 -2840 0
825 -1770 -2579 0
-2486 2921 -2144 0
-1637 -1279 -1687 0
-2075 2062 2052 0
-1225 -404 -607 0
-2751 2186 -788 0
-555 -900 -2401 0
-2632 -20 -2537 0
121 1749 2276 0
2302 2247 -64 0
-335 -2599 -2166 0
331 -24 -624 0
2369 2990 -2989 0
-651 2553 -1317 0
688 -2458 1121 0
-503 360 -1462 0
106 -2348 -1398 0
-61 -2852 -225 0
-858 -1637 -974 0
-2590 2207 -2384 0
1540 -1430 -276 0
-2941 955 -2860 0
2505 -2115 -2828 0
-516 1638 -1987 0
2922 -2621 -1791 0
2720 76 -825 0
170 -1153 201 0
659 -2811 2717 0
221 1624 1796 0
-1692 -2057 1027 0
804 1083 -1640 0
-365 -1116 -2681 0
-2376 -2645 2151 0
-1525 1483 -2400 0
2476 -65 747 0
-1853 -2668 1256 0
2697 -963 -2499 0
2990 -1739 -2699 0
2966 -1725 1970 0
2059 -789 -2186 0
940 2964 2380 0
1724 1690 -111 0
1009 856 43 0
1620 -426 2411 0
-1521 1479 766 0
-793 2520 2752 0
2415 1234 -1940 0
-213 1835 2978 0
-365 639 -668 0
-665 2104 -2358 0
-2330 650 2327 0
-2789 -2039 1171 0
1861 1984 1283 0
-1270 -2689 532 0
1020 130 -2985 0
438 1550 -2977 0
-1049 2679 304 0
-886 95 2793 0
-2609 -1765 2621 0
-1078 352 1370 0
110 2424 1021 0
447 1866 2885 0
2135 1310 -536 0
2527 -838 2924 0
-1197 1658 1969 0
-2814 958 90 0
-2022 -2357 -133 0
204 991 321 0
397 -405 4 0
108 -2378 -1648 0
-1534 399 2174 0
2194 -1282 2455 0
-1872 -1473 -141 0
-145 1747 162 0
2150 -122 44 0
-2015 2076 -2898 0
-2559 -2929 688 0
1663 1231 44 0
-770 1075 -2303 0
-1006 -2522 -1534 0
-2706 1067 975 0
154 1799 1163 0
-1309 2869 1459 0
-214 2958 1891 0
-2448 -1868 2083 0
-2746 2888 2582 0
1467 2054 -1185 0
-747 -381 1188 0
1043 -738 1603 0
1288 375 2816 0
2200 -2818 2037 0
520 567 -1347 0
1241 2201 -1995 0
-2570 370 -2757 0
-1445 1294 755 0
-449 1455 -2155 0
1726 -1090 -467 0
-1490 2671 1088 0
2534 -2419 -2662 0
-1988 1090 2829 0
1590 2277 -2713 0
2986 -48 -762 0
641 1667 920 0
2142 -1096 2313 0
-2268 1818 -1529 0
-2860 579 2990 0
521 -2527 -1360 0
-390 -510 -2976 0
2432 -996 2925 0
-219 -249 -2097 0
1344 2605 967 0
2913 2940 2083 0
-1882 -673 -1591 0
2941 168 2624 0
-2784 -1505 2327 0
-1866 2730 1132 0
590 185 2399 0
-2302 2275 2462 0
207 651 -8 0
-1063 -1745 1576 0
1250 -2057 -33 0
1297 -1816 -1784 0
376 128 -591 0
2750 -1305 337 0
-466 2571 184 0
760 683 170 0
-2447 -2422 1541 0
130 -2010 -1417 0
-2744 -771 2553 0
619 2802 1825 0
-1874 -32 2109 0
2937 -2547 -1297 0
37 -552 348 0
-1519 2207 206 0
247 -947 336 0
2237 -1506 -1139 0
2003 -256 -2122 0
-269 -1500 183 0
2021 -987 48 0
-1702 -934 -1445 0
1929 -2185 879 0
-1125 997 2320 0
-2436 -2674 -1766 0
-732 35 214 0
302 -415 1372 0
-831 263 2492 0
-2192 -1090 2687 0
-1069 1202 -2119 0
2817 -1683 -495 0
-2691 -751 -2006 0
2006 913 -338 0
-920 2235 -1085 0
496 -343 2409 0
-1366 49 -1192 0
682 1900 -740 0
888 -1366 -434 0
-941 -781 -2180 0
1090 -2959 -2641 0
1194 1701 -39 0
-2747 -151 -2709 0
525 -2938 -2840 0
-2328 1702 -2115 0
2769 420 -2852 0
-1165 -1959 -55 0
-125 -2448 1681 0
111 -1862 -147 0
2271 -1603 469 0
2923 1229 2710 0
-488 1966 -604 0
1659 393 -801 0
-2457 2397 -279 0
-2930 1643 -87 0
850 -1897 -1875 0
1924 -1356 -471 0
1079 2841 -201 0
681 283 -310 0
-2826 -2784 304 0
-56 2941 -30 0
-1896 1934 92 0
1655 778 2426 0
-939 1241 -2597 0
-1330 -2158 -1388 0
161 2059 231 0
-2881 -417 -72 0
1516 -1723 -2749 0
-2508 -176 625 0
627 945 -1236 0
1296 -1236 -2073 0
1140 -213 -2682 0
-1479 2119 -1984 0
2908 -2842 672 0
-25 214 1585 0
-693 9 -1029 0
-759 -1127 -2010 0
-2041 2941 -1473 0
-2059 2086 2678 0
-2847 -2491 -789 0
-1739 2287 29 0
-182 -388 -961 0
-989 1580 -1537 0
1311 -337 2937 0
-2077 27 -345 0
-140 -2294 2504 0
1055 -555 -2059 0
-2791 -397 2582 0
-1106 2331 1456 0
1164 1311 135 0
-114 -46 -230 0
-596 -529 2675 0
-2442 -14 1855 0
-988 -1265 -2609 0
765 -856 -1661 0
-1338 -2843 -49 0
-286 2308 -1092 0
1171 -2419 -820 0
549 127 -2752 0
-1007 -1821 2575 0
930 -682 667 0
954 281 2770 0
1046 -2146 -176 0
1045 927 657 0
-2626 604 2656 0
2945 2542 -1445 0
1434 -257 707 0
-2622 -281 1891 0
1543 -2594 1648 0
-2628 315 1725 0
-2415 1287 -2753 0
1287 1053 -1967 0
-2620 -2484 1850 0
-113 594 1052 0
-2288 -2486 2175 0
-2664 -1616 2714 0
2221 372 -49 0
1639 -1397 2755 0
1131 443 -1351 0
1643 2225 -35 0
-856 2330 -2112 0
1124 -2163 -546 0
912 -2488 448 0
2363 -2515 1514 0
2607 -1715 -1005 0
-1505 2987 2257 0
-1402 1452 2412 0
-2184 -1550 2563 0
-2277 1437 543 0
2890 -2132 1707 0
-2396 -1359 -1508 0
1205 1815 2455 0
-1755 -86 2320 0
233 890 924 0
381 2596 -1072 0
1829 2565 1677 0
-2244 -2571 -2227 0
1309 2822 731 0
-1910 253 -1783 0
16 -1391 1368 0
1994 -2797 -1641 0
-877 -2681 2229 0
-1128 -2630 1788 0
-1010 -1803 490 0
-1359 -2751 -1416 0
1992 1365 72 0
-1972 1296 1411 0
1137 -1897 1275 0
-888 1617 -2776 0
-1248 2788 -2126 0
74 -880 2338 0
-2643 459 -1210 0
1962 -1407 -1907 0
-558 -847 -1017 0
-1563 1460 995 0
531 -1579 2719 0
-1812 2522 -2927 0
-11 1936 -1472 0
551 -1126 -1457 0
-1313 -2964 -3000 0
2650 -73 -2151 0
-1300 289 -82 0
-139 1127 -66 0
1124 2234 -1973 0
635 -1122 -1274 0
-219 -1510 -1844 0
1548 833 417 0
1093 1486 1582 0
-661 627 -2762 0
1673 -2028 2449 0
2365 -2228 -2592 0
1742 -820 -1439 0
-2976 -70 1817 0
1360 -2227 2700 0
154 2622 2531 0
1659 -598 -292 0
-1348 -2089 759 0
-68 79 -77 0
190 1179 1011 0
-1629 -1984 -231 0
-1924 1063 -1961 0
-2459 831 699 0
-112 2054 -2458 0
-2587 2027 -623 0
-1677 2584 2148 0
-2018 2001 -2353 0
-2895 -56 2817 0
2859 1951 2196 0
-2435 1122 1375 0
-2403 2041 -570 0
2121 1051 -1875 0
1949 -276 -1466 0
1096 -397 1340 0
-2061 1761 880 0
-1566 426 -1820 0
52 -1093 1428 0
-1495 -2788 839 0
-398 -1023 1364 0
2332 -2274 -301 0
-834 -925 -1219 0
-2836 600 -732 0
-2029 15 1314 0
-443 -2839 2782 0
-2120 1128 -191 0
774 702 2666 0
300 -1716 1338 0
-2086 1615 -584 0
138 -1247 762 0
-1934 723 -1535 0
1105 1985 -628 0
1807 -443 1776 0
1802 1689 -740 0
1270 1685 -1999 0
-1305 1084 1590 0
982 2568 -2008 0
-2885 2749 -2521 0
1139 -990 1797 0
-166 127 2677 0
-1763 1204 1274 0
-2874 2527 575 0
1479 2157 2649 0
1917 1689 -1492 0
-1398 -1839 -611 0
-61 -2170 608 0
2260 -1480 -1229 0
2284 1429 -1283 0
1823 1093 1099 0
2689 1294 515 0
1626 183 -409 0
-2043 1231 -1699 0
-244 1637 2955 0
620 -2658 2437 0
-932 971 -1773 0
1385 -1301 -2478 0
2357 1836 376 0
1651 1709 1775 0
-341 -615 2302 0
2484 1817 523 0
-903 1541 408 0
-1437 2101 529 0
-2101 -520 -1991 0
-2788 -1589 -2800 0
-1861 328 -356 0
1832 -576 -97 0
448 135 1044 0
-111 -1596 651 0
-2031 -929 -251 0
-39 1936 1035 0
2635 2187 -1714 0
687 -1109 56 0
-2687 65 1198 0
216 -2899 -272 0
1669 1901 1321 0
2044 1680 2055 0
1466 -2197 -170 0
-685 -1052 -1060 0
2258 -1827 2893 0
-254 -427 -649 0
-802 2279 1130 0
-2900 2855 -1443 0
2443 1425 -2296 0
-2081 -1751 2320 0
-1295 -2745 -2647 0
99 2409 1855 0
1339 1790 173 0
-1297 -223 1746 0
2330 2697 -1276 0
-2822 -2726 569 0
-41 1678 2700 0
-130 2145 2719 0
-2649 417 -2484 0
-2893 2146 -2124 0
806 -2129 -1592 0
733 1228 -1874 0
2049 -578 2310 0
701 -353 1147 0
-278 957 2362 0
2723 2528 -232 0
1001 2357 -2132 0
-2968 -969 1482 0
-2611 -243 -1136 0
1516 -2326 -2724 0
-195 -1262 2239 0
2921 768 1205 0
1241 -1251 664 0
1977 -779 -309 0
426 -842 -2565 0
-109 599 1862 0
1160 -725 -2276 0
-1494 -1701 -2628 0
676 2554 -1195 0
962 -87 -2872 0
-1398 -2951 1191 0
1387 366 1922 0
2883 2620 1829 0
-2039 1694 545 0
80 -2989 365 0
797 -2405 -2726 0
-1277 2059 1100 0
-72 796 -1547 0
1082 933 -2564 0
2795 -2851 -964 0
-596 593 1298 0
1197 1765 2899 0
427 -236 2198 0
153 -2803 2466 0
2109 -2590 -1519 0
-130 -1437 -496 0
-1290 445 120 0
416 -1642 639 0
1227 154 -603 0
387 -2338 -54 0
1452 -89 1120 0
-2104 -1558 -2856 0
-2028 2572 -819 0
2314 -471 -1599 0
-1498 -1033 648 0
-1187 -531 1470 0
2379 -1008 -2085 0
-2531 2004 891 0
1821 -2340 1864 0
-1550 130 1819 0
-1906 -167 659 0
-1147 -2857 -2579 0
-1996 -2114 -124 0
1601 -1555 -1321 0
1771 1848 1738 0
-529 -2061 2505 0
103 -1436 2062 0
351 88 1997 0
1929 -1908 1783 0
-903 2301 323 0
2126 1217 380 0
-2939 -937 805 0
-1723 1120 -2946 0
-2532 636 -746 0
1118 739 -2856 0
-461 -86 2018 0
930 -954 -2717 0
-604 -589 -992 0
-1784 -2996 -910 0
-1424 840 -2087 0
2979 1152 2299 0
1513 -1927 -687 0
2349 -1291 -2645 0
672 -2410 1511 0
1234 2712 2573 0
-1430 -1823 -336 0
2586 -1353 703 0
-210 1546 413 0
1439 -1097 355 0
-2395 2859 1696 0
-2814 107 2915 0
521 676 2718 0
2552 1230 2372 0
2440 -1873 -1131 0
324 2060 -2944 0
2601 -2349 905 0
1579 -831 -504 0
-1690 69 993 0
-2971 -978 822 0
1283 801 2783 0
2182 -1678 1981 0
-2072 -2645 -1846 0
-2303 -653 1637 0
-982 726 1691 0
-1282 -1645 -2252 0
758 -900 2026 0
-2346 -664 1295 0
-374 2601 -2193 0
-2042 1000 663 0
-1055 -266 951 0
-614 2582 -2011 0
-81 2362 -2382 0
-29 -1825 2451 0
-929 -1374 1577 0
1417 -1416 851 0
-2203 -91 2134 0
168 -346 57 0
2928 418 -861 0
-685 -2915 -34 0
2017 1649 1684 0
-2530 335 -1265 0
2350 -2192 -509 0
-2251 -659 -1108 0
2024 -1762 1403 0
-1571 -1379 -1172 0
-2856 2693 1557 0
2629 905 -922 0
1804 2548 478 0
2205 630 -223 0
-2007 1535 -15 0
-1102 2510 -1321 0
2471 873 -1879 0
-2425 -2119 657 0
2435 2470 -2253 0
180 567 -1169 0
1769 1533 -1864 0
-690 2040 -2037 0
2544 882 -487 0
2533 -2575 -1040 0
2228 2765 -1833 0
-598 -2362 -513 0
-1118 1318 -1636 0
-2536 74 2969 0
741 -2856 -810 0
166 -820 -145 0
-37 765 -1126 0
332 -709 -1175 0
-958 1316 -2208 0
-1300 860 2741 0
-337 -2449 -1249 0
2344 -261 -2567 0
139 2165 1553 0
2074 2270 1478 0
-785 2281 2312 0
-2865 2486 2313 0
-2073 1195 -2109 0
2209 -1149 2615 0
1433 1648 1625 0
1262 1360 1969 0
-739 11 -368 0
1265 1140 -156 0
1389 1818 2446 0
1932 -1156 2831 0
-2922 1713 -2549 0
770 349 -1930 0
-498 1148 -2131 0
-2719 1604 2738 0
-366 746 639 0
-2432 -616 -2802 0
-1083 1315 -1081 0
-2341 -1429 -1627 0
1949 2584 -1611 0
1835 325 -1511 0
-345 957 -962 0
-2324 -296 -2071 0
62 918 -2567 0
-1721 -1142 -2988 0
174 -1513 2192 0
876 -2251 393 0
-936 -2018 -668 0
1048 2173 -1543 0
1152 747 2927 0
2012 98 2579 0
-1656 -259 -1191 0
-1984 1026 274 0
-2015 2587 1216 0
371 -584 1550 0
1666 -2820 393 0
-1769 -1955 -1914 0
-841 -188 1470 0
808 2774 -1354 0
2511 315 1586 0
2630 11 761 0
1476 -1403 -1891 0
-215 -1973 -1654 0
1144 -279 1810 0
-2029 -856 -2984 0
404 -1064 -844 0
-2105 -2753 2612 0
-1357 -2448 2302 0
-1233 -811 -2694 0
-2524 2864 2728 0
2628 -228 2177 0
2405 -1184 -722 0
2301 -2962 -2016 0
-82 1860 -1847 0
1111 -392 964 0
49 -1781 -2575 0
-1032 643 63 0
-283 268 434 0
-2662 2183 2674 0
1288 -910 1037 0
1875 2274 -2693 0
979 1182 978 0
1938 328 709 0
1805 -1274 1067 0
-1294 -2101 -400 0
-2090 1148 9 0
696 -1417 -2921 0
1593 418 238 0
2970 -109 398 0
-1989 -1593 -1599 0
-23 -488 -1051 0
2965 -1557 1108 0
2632 -2182 1099 0
2861 2007 2048 0
-1950 2006 2933 0
-2683 -2611 1553 0
1485 1696 -2990 0
-2146 -1198 -1817 0
-1826 -2402 -396 0
-1648 2995 1195 0
504 -2520 955 0
1260 2280 2338 0
362 -1189 -21 0
-2092 -1577 234 0
2208 78 -359 0
2651 -1168 1084 0
2427 -1888 -564 0
2566 -2671 1551 0
-2347 652 1873 0
-2891 2495 1305 0
-1505 179 1930 0
397 -165 -958 0
437 2062 486 0
-2615 -602 -1539 0
-688 -2381 1615 0
-2359 -1580 743 0
2031 -1178 -1190 0
-44 -1594 -359 0
943 2516 -774 0
-89 1235 -2856 0
-824 336 2558 0
2382 1043 1530 0
2989 -2272 -833 0
-2323 2090 2105 0
-578 -803 2740 0
878 154 -1356 0
-1482 -1749 -80 0
1908 2225 1362 0
1312 -303 75 0
1329 -1989 1369 0
-2940 -937 -2601 0
2283 1499 209 0
-673 -1289 -982 0
-2798 -1305 2891 0
-2562 1926 1675 0
-1227 2554 -2115 0
654 2179 1364 0
-1589 270 1822 0
1228 -2434 -961 0
266 -228 -1032 0
1657 191 2739 0
-2463 -1860 1210 0
-1501 2752 1424 0
85 1629 119 0
1193 -52 1154 0
2674 443 -1485 0
2088 44 -72 0
570 -969 465 0
641 -1514 -941 0
-1656 1695 2927 0
-1955 2264 2261 0
1993 -854 1105 0
2910 -1392 105 0
-1157 2468 2579 0
-143 2971 -719 0
-1955 1719 2374 0
1681 -8 -1540 0
-2215 1031 2774 0
-2785 -2196 -1113 0
251 136 -2588 0
619 -1481 -543 0
1579 421 1938 0
-2714 1217 -2239 0
1385 2352 629 0
2243 1529 -1522 0
-1351 -1431 1871 0
-1761 -1743 450 0
-1613 277 -44 0
2288 -41 -2822 0
1979 -2590 -1806 0
598 1193 -2608 0
732 1060 234 0
2325 1025 1569 0
-2234 -1803 -1762 0
-2613 2888 -1426 0
787 -1259 317 0
-1604 -2127 -1308 0
-1634 -1659 -835 0
-2684 -1266 1709 0
2594 790 -2035 0
-418 -973 1218 0
1943 -1645 -2582 0
-2759 -1519 -2470 0
-188 468 173 0
1752 1534 1156 0
-785 -1603 -47 0
-458 -861 2009 0
2758 2482 -777 0
-2889 -1512 -1607 0
2101 -1492 528 0
-1182 1878 1544 0
-2918 384 279 0
1157 -2175 -1563 0
588 -2873 1988 0
128 629 -2259 0
