c Large 3-SAT formula for GPU testing
c 1000 variables, 6000 clauses (ratio: 6.0)
p cnf 1000 6000
590 807 -508 0
499 -951 -789 0
-868 889 -496 0
281 342 -530 0
-830 -672 371 0
-122 732 -399 0
-116 353 -866 0
220 731 444 0
-350 -339 -120 0
68 617 851 0
-726 -483 995 0
-18 -411 -904 0
721 748 -514 0
-762 -54 -946 0
-803 -295 -549 0
748 -45 -367 0
-228 -432 -167 0
132 931 -799 0
506 -110 -865 0
997 -609 -202 0
818 959 -605 0
285 -938 -498 0
320 -410 -66 0
650 -386 -521 0
92 -826 -651 0
-903 247 -460 0
618 34 -262 0
-133 174 784 0
479 957 -464 0
-625 85 235 0
-122 105 -131 0
707 75 -51 0
12 720 145 0
613 946 -497 0
-611 -745 -360 0
628 362 -23 0
-512 -904 486 0
-642 -993 -417 0
679 -767 -757 0
-771 -463 186 0
772 371 -808 0
-137 -857 -716 0
37 4 692 0
-513 527 -347 0
577 -359 711 0
-927 480 871 0
705 408 643 0
-947 -79 978 0
847 -441 -637 0
990 -422 463 0
142 -681 -703 0
-744 -396 420 0
-106 -119 243 0
134 -202 -692 0
-469 -433 230 0
-475 -162 -866 0
-451 746 820 0
396 461 -385 0
-626 -52 -877 0
623 -889 -255 0
-407 -321 254 0
973 816 860 0
-937 -11 -849 0
-97 -477 241 0
-167 265 -203 0
945 59 989 0
209 594 -819 0
-887 -360 300 0
-296 -490 -882 0
-539 -197 -482 0
-706 870 -335 0
412 -669 490 0
693 -364 -856 0
885 -508 -63 0
264 566 443 0
963 653 -823 0
-146 -529 183 0
-165 -749 425 0
984 130 -695 0
-380 -471 914 0
846 628 -76 0
-546 -953 206 0
380 632 124 0
-45 -78 -310 0
75 -818 -904 0
671 686 66 0
211 -659 950 0
-391 -864 -666 0
-871 -714 787 0
-940 -980 -561 0
-243 -513 342 0
95 -578 -179 0
453 469 319 0
-729 992 240 0
195 -833 -951 0
-760 248 527 0
439 -970 829 0
916 -225 452 0
543 186 -104 0
485 -727 -904 0
-996 777 183 0
237 -489 -687 0
-942 -670 302 0
-870 199 -51 0
372 -242 -833 0
-104 -534 758 0
-286 -930 -950 0
729 293 -446 0
894 245 171 0
364 774 691 0
151 582 -573 0
18 -614 358 0
895 -974 577 0
-861 -157 -776 0
-463 -16 298 0
-226 -767 564 0
926 421 -224 0
61 233 286 0
-822 69 140 0
246 40 -188 0
-858 943 455 0
-577 -546 879 0
329 257 -1000 0
380 -849 -339 0
758 -543 793 0
-369 -208 540 0
-161 -781 990 0
152 -259 769 0
-38 9 259 0
-884 -700 265 0
-877 44 -826 0
931 -567 -282 0
278 301 956 0
896 61 -221 0
-713 146 -370 0
279 115 807 0
-528 577 -550 0
821 -915 -301 0
342 658 862 0
-269 364 193 0
-985 -224 752 0
486 982 561 0
8 803 91 0
-10 980 906 0
-110 -798 519 0
873 -757 968 0
781 237 -78 0
344 -682 1000 0
-772 -358 -741 0
181 257 -886 0
950 144 637 0
410 796 -20 0
514 -139 -818 0
816 -1 -729 0
-103 306 206 0
-407 376 -769 0
-693 -187 207 0
-564 -652 -877 0
258 -847 908 0
341 794 973 0
750 229 -457 0
258 646 844 0
-875 671 633 0
-70 -202 -500 0
637 -570 -486 0
-599 301 -581 0
-952 541 405 0
33 -936 -275 0
97 403 -680 0
979 -978 484 0
-787 -565 751 0
-180 -643 -327 0
701 31 943 0
-530 761 917 0
-158 636 747 0
521 -623 -787 0
-871 -326 877 0
-428 916 820 0
-884 582 164 0
-808 994 -141 0
401 81 -532 0
913 476 15 0
-256 -737 -69 0
470 244 497 0
139 -841 297 0
-932 482 -377 0
389 399 -600 0
-572 566 -922 0
959 -479 -58 0
-146 -820 -384 0
829 -580 -961 0
649 300 706 0
-685 274 549 0
-86 -930 708 0
-81 29 352 0
320 -677 866 0
923 973 564 0
723 -29 329 0
239 308 697 0
-854 865 280 0
-586 -256 -642 0
387 390 -987 0
988 510 542 0
682 35 791 0
-632 -429 -415 0
844 741 -705 0
-926 141 -41 0
56 -307 -317 0
-272 416 -185 0
754 -35 953 0
449 -584 690 0
-834 83 693 0
-643 -75 -898 0
554 629 -521 0
-422 -924 283 0
-256 -798 139 0
768 545 -344 0
-232 -699 791 0
-212 -138 902 0
446 -202 -1 0
-886 -399 607 0
-327 47 63 0
95 -743 -264 0
-563 -393 822 0
705 192 823 0
972 -379 1000 0
-991 -294 68 0
267 -818 -277 0
523 115 934 0
-348 -981 -670 0
-367 -736 -470 0
359 37 772 0
999 -397 -745 0
-314 518 874 0
542 -414 559 0
127 -291 101 0
979 -567 -695 0
-133 -83 -143 0
24 -555 530 0
-210 -672 -785 0
291 666 608 0
-431 -992 -457 0
-669 341 875 0
316 104 635 0
835 -31 -519 0
-833 689 566 0
450 20 38 0
-333 -981 678 0
-945 705 45 0
-845 438 -954 0
528 -640 222 0
284 628 437 0
935 -215 4 0
-488 -927 -100 0
-478 694 -590 0
-43 -40 -266 0
-62 -840 415 0
-38 -237 900 0
87 -344 15 0
-115 -832 135 0
294 -491 -681 0
-131 -113 -974 0
30 -660 985 0
-977 -293 -768 0
-85 -409 -107 0
-686 -237 875 0
62 -3 -238 0
480 -192 -41 0
200 -656 -472 0
899 290 -178 0
505 46 439 0
738 -65 235 0
-412 375 -508 0
-149 175 460 0
-47 -575 367 0
170 499 -988 0
599 554 354 0
405 981 -250 0
611 668 285 0
-312 805 -351 0
192 -599 17 0
603 664 515 0
-180 -920 606 0
707 -802 -638 0
57 -204 -253 0
368 -699 490 0
-484 516 626 0
-858 172 578 0
58 22 -764 0
-785 122 -528 0
733 -429 420 0
-334 -698 -7 0
653 744 -392 0
475 894 -433 0
622 -22 556 0
787 -984 -269 0
-408 195 -85 0
-540 370 324 0
-624 216 -764 0
917 676 898 0
397 798 561 0
15 982 359 0
646 -298 96 0
905 512 -335 0
-941 -42 -765 0
-733 -206 -992 0
-383 172 -647 0
447 179 318 0
-447 -400 -683 0
960 914 -16 0
-426 91 -472 0
846 -881 -316 0
-684 723 -94 0
444 185 197 0
387 533 974 0
-505 431 -952 0
-927 -776 -680 0
-333 -850 -733 0
-465 372 -911 0
-473 456 378 0
-121 -973 -205 0
-36 -422 412 0
-13 118 116 0
548 514 -720 0
852 -756 225 0
-299 857 543 0
443 -139 -903 0
-848 -183 25 0
895 668 394 0
-846 -158 -991 0
593 -864 -52 0
373 -439 -400 0
60 422 752 0
892 453 -877 0
-924 -254 306 0
-953 -654 -268 0
-582 170 957 0
811 -983 263 0
997 -25 -620 0
-372 862 -537 0
-269 -904 479 0
225 190 883 0
-422 -398 -993 0
281 -480 -384 0
-997 778 -386 0
-46 -196 -795 0
-976 207 547 0
63 593 -958 0
-454 -617 -776 0
-726 766 -253 0
818 179 207 0
-153 888 777 0
-345 -352 514 0
-639 636 414 0
108 901 538 0
-547 -742 799 0
110 -927 -451 0
-570 -669 -751 0
187 -233 578 0
-217 -909 -928 0
154 -968 128 0
123 -140 -556 0
655 434 -773 0
-860 611 32 0
695 545 33 0
-281 865 114 0
-573 894 12 0
261 -776 269 0
642 -692 -685 0
848 233 -810 0
-771 -441 -726 0
74 719 917 0
796 123 947 0
-696 986 816 0
-632 805 -927 0
-539 435 -58 0
85 -869 -451 0
-968 739 982 0
-165 276 922 0
-222 113 359 0
971 -516 -898 0
121 122 922 0
-429 930 -836 0
-850 -684 -677 0
657 903 -910 0
-474 757 -785 0
439 -528 660 0
-981 366 295 0
-129 -481 -729 0
523 -462 -588 0
47 -330 372 0
853 779 -561 0
231 -262 -807 0
-527 -561 -190 0
-861 -594 525 0
49 45 182 0
-216 962 527 0
-295 310 179 0
166 -699 -782 0
894 -461 -688 0
-342 18 554 0
421 -367 892 0
-470 -299 -592 0
624 -336 361 0
-683 -275 -472 0
-819 -784 314 0
-377 138 964 0
309 -80 -121 0
356 -711 -967 0
743 64 857 0
-991 489 -305 0
-977 -662 178 0
-913 154 970 0
239 -973 -545 0
-446 -589 -836 0
768 49 -657 0
-260 -347 -59 0
414 222 -498 0
-653 -424 -948 0
-516 -942 -496 0
998 -72 923 0
192 -567 825 0
105 -817 501 0
698 896 -416 0
-131 198 351 0
-626 315 475 0
-626 493 -514 0
-492 149 -488 0
457 816 683 0
-658 -381 -845 0
-376 -877 536 0
-920 -203 552 0
480 665 776 0
-506 -982 -437 0
-699 318 -674 0
905 771 840 0
-423 -296 -197 0
654 587 -706 0
125 633 139 0
-24 372 414 0
363 -84 348 0
-822 -915 386 0
552 -948 594 0
-136 731 -428 0
572 901 -222 0
988 -345 678 0
-48 -267 -74 0
542 -612 -597 0
-954 -833 -757 0
771 430 -897 0
-578 821 -287 0
-540 -711 -152 0
623 878 646 0
455 -141 -112 0
567 662 -827 0
-802 -448 519 0
-983 -295 590 0
594 420 -773 0
-346 590 -480 0
-645 493 -761 0
-31 -303 403 0
719 -717 -744 0
-580 -715 846 0
610 -817 847 0
707 793 832 0
-988 -753 824 0
584 497 174 0
-373 648 425 0
909 -709 -6 0
-814 83 -657 0
-67 -353 144 0
228 67 -222 0
181 670 792 0
192 -796 626 0
933 413 813 0
920 -543 -685 0
-619 989 629 0
895 343 236 0
51 41 -508 0
62 -267 -820 0
891 -939 997 0
846 -39 172 0
303 858 -218 0
814 -206 -530 0
687 -808 749 0
776 48 -300 0
-472 -591 447 0
39 -696 176 0
919 -538 -638 0
152 -463 -300 0
359 -608 -414 0
499 -909 -609 0
807 529 789 0
563 616 -493 0
-461 17 498 0
820 -801 -581 0
676 -167 -453 0
420 -844 44 0
-886 180 934 0
925 -397 -116 0
-29 337 861 0
363 -983 123 0
984 279 -557 0
-248 313 -774 0
63 -901 -707 0
221 185 565 0
601 -353 168 0
667 976 449 0
66 68 496 0
440 -585 392 0
408 502 290 0
-272 740 -468 0
760 -428 830 0
-465 903 183 0
-45 679 309 0
-336 138 -578 0
-592 860 -977 0
233 910 479 0
-547 -788 -228 0
-846 -563 858 0
-272 -331 -171 0
928 -710 783 0
509 597 940 0
-165 -887 754 0
-507 -127 512 0
953 -776 -117 0
918 -448 -220 0
146 21 -170 0
-536 -22 616 0
870 494 598 0
189 -388 -385 0
669 -664 -784 0
-150 947 -618 0
257 122 265 0
-272 975 -439 0
764 687 -205 0
498 -470 427 0
256 617 -549 0
379 -487 -951 0
177 232 585 0
258 532 -22 0
478 864 -801 0
211 504 84 0
-227 -816 897 0
920 370 533 0
348 266 -422 0
-895 130 -728 0
-544 455 607 0
725 -188 -348 0
408 395 -517 0
414 -862 -473 0
372 103 -151 0
351 278 -542 0
-514 -476 -740 0
-230 652 60 0
-878 -633 578 0
770 185 -327 0
-921 611 580 0
-316 507 -191 0
129 -137 -566 0
861 157 597 0
-848 -773 64 0
967 -161 676 0
404 -727 -534 0
-171 782 516 0
-245 -8 158 0
164 57 394 0
2 -371 -859 0
-190 -804 196 0
-896 -90 762 0
836 -677 601 0
12 -240 936 0
-857 -659 865 0
610 -565 -482 0
380 -92 948 0
-2 -207 39 0
372 581 623 0
405 651 208 0
-638 268 -692 0
-540 -974 -82 0
147 353 -776 0
-937 -179 -593 0
323 -559 88 0
-661 654 419 0
50 536 324 0
6 -395 669 0
-765 704 117 0
-483 57 -792 0
-270 -582 342 0
-195 301 -979 0
678 -196 964 0
-823 -698 -930 0
183 849 -693 0
-798 347 -510 0
-112 -632 103 0
-603 261 957 0
-796 -938 -166 0
642 680 700 0
-580 -3 126 0
-701 795 194 0
475 -718 256 0
172 -11 -185 0
910 -241 -33 0
233 742 547 0
-398 -958 956 0
-631 -956 502 0
-720 197 -54 0
-284 103 193 0
268 -858 -908 0
-624 591 -121 0
-412 -616 -869 0
-285 -7 -129 0
909 -241 -531 0
320 -459 725 0
456 206 940 0
859 388 167 0
-2 288 -9 0
882 -510 -472 0
833 -652 -922 0
918 427 -968 0
638 999 203 0
-225 997 -642 0
-758 261 647 0
-57 290 929 0
-454 607 924 0
-799 723 391 0
238 -390 617 0
405 -367 -136 0
148 685 -632 0
749 -205 251 0
-887 -921 -994 0
-888 116 -671 0
-771 319 549 0
-148 -411 -930 0
-564 -114 -871 0
25 -45 -545 0
106 -127 -23 0
728 -800 -235 0
-554 -860 598 0
755 -182 554 0
-626 314 269 0
364 -471 -581 0
846 -222 -391 0
384 -235 -703 0
-328 713 -869 0
572 -243 -110 0
-244 -496 938 0
-198 29 -593 0
888 372 320 0
520 490 -782 0
-199 -846 480 0
-502 951 -572 0
844 -293 296 0
-732 367 281 0
-526 -225 -186 0
991 -21 -471 0
-597 -175 327 0
310 -93 -26 0
-23 940 -514 0
559 212 888 0
747 743 -347 0
881 125 594 0
-735 -865 -180 0
-269 893 914 0
-252 -73 383 0
361 325 145 0
682 -359 137 0
57 338 882 0
818 166 75 0
-462 637 167 0
360 511 116 0
-891 -7 -136 0
-858 -416 -56 0
261 391 893 0
848 -33 -142 0
-148 -469 404 0
924 646 -952 0
-161 898 -735 0
-144 -27 506 0
-462 948 -161 0
-672 -219 24 0
701 280 -606 0
-176 285 827 0
920 703 -979 0
-176 -556 -244 0
778 -282 414 0
549 596 -870 0
150 -617 314 0
584 304 -284 0
632 419 -836 0
-77 731 -940 0
705 -939 293 0
20 -207 -895 0
-165 -359 -622 0
36 124 -701 0
262 -138 591 0
587 -723 425 0
440 -667 998 0
645 212 -62 0
774 -680 -952 0
812 -979 367 0
-89 395 416 0
247 981 -849 0
554 965 -311 0
932 -222 -709 0
-406 -791 692 0
387 -926 -703 0
-401 1 140 0
347 -858 -462 0
-811 -331 523 0
-823 713 906 0
195 826 -625 0
-141 715 910 0
-339 413 -840 0
475 112 -523 0
-157 665 -330 0
477 657 711 0
-152 507 504 0
131 -981 -63 0
372 -217 740 0
-717 698 -47 0
439 -766 332 0
-91 359 232 0
265 -127 -349 0
877 546 373 0
488 -245 -84 0
8 820 929 0
-507 196 -564 0
319 -877 648 0
-451 818 180 0
-290 -496 -36 0
117 442 -559 0
-716 499 216 0
-364 904 148 0
-640 688 257 0
-368 -316 86 0
-33 793 510 0
282 -800 -243 0
-827 -798 936 0
438 883 -690 0
-14 302 -603 0
-476 970 -413 0
-595 786 -11 0
486 380 -149 0
593 -839 -339 0
-165 618 -268 0
-804 -874 479 0
496 582 348 0
804 -800 798 0
885 -388 134 0
591 771 931 0
393 673 -381 0
-435 -667 285 0
-424 280 613 0
703 404 -51 0
-327 -801 443 0
390 885 -744 0
106 -508 -784 0
-757 190 119 0
-995 880 623 0
445 -561 -797 0
901 -593 594 0
-5 -629 -269 0
-240 -715 364 0
-801 193 201 0
624 -245 402 0
532 -943 272 0
554 38 -866 0
305 -694 23 0
-748 -565 -191 0
-396 -115 -836 0
-168 -896 395 0
405 -435 -942 0
516 -121 282 0
601 674 -733 0
-542 230 98 0
414 227 46 0
-504 -463 -268 0
-142 404 -844 0
-964 553 -529 0
-574 147 -860 0
615 -849 846 0
843 -987 700 0
870 -220 521 0
-614 476 -196 0
-858 -696 -167 0
-436 -828 -672 0
-541 -521 194 0
582 -780 706 0
-229 871 -688 0
-257 679 339 0
552 -202 -10 0
849 -441 763 0
-708 9 598 0
-848 195 -607 0
-434 -167 470 0
-323 -928 968 0
400 388 -928 0
-432 564 183 0
843 590 563 0
-8 -561 -539 0
-460 977 -999 0
-958 -487 -872 0
796 -122 959 0
-11 -424 -375 0
855 -94 370 0
24 305 927 0
292 -951 -88 0
-350 807 -466 0
290 -513 -450 0
-728 -757 521 0
708 -789 220 0
-983 -288 -837 0
-932 848 -343 0
-101 469 -73 0
-451 212 677 0
-724 30 662 0
752 361 740 0
-538 904 730 0
506 599 856 0
-37 -594 223 0
-859 -923 14 0
242 404 93 0
462 231 -187 0
-47 624 30 0
-934 -755 863 0
-460 -334 -286 0
-318 -655 -959 0
81 -745 541 0
-461 322 -695 0
-806 -213 -783 0
-532 962 -956 0
-202 -130 75 0
-937 165 476 0
541 -601 -243 0
537 -675 516 0
575 -670 -335 0
-820 505 80 0
-868 578 -566 0
529 -353 467 0
879 402 241 0
-322 -266 165 0
-872 -169 -276 0
-231 979 457 0
-730 649 -260 0
-339 -27 -721 0
312 -713 -757 0
-690 -459 562 0
623 970 -152 0
-997 222 -371 0
-270 543 308 0
-171 642 834 0
-475 72 -962 0
777 548 -666 0
533 -135 715 0
867 90 853 0
-581 492 -990 0
740 -819 598 0
237 218 -200 0
-882 765 86 0
-157 713 -433 0
995 -210 594 0
-772 169 -145 0
777 -221 40 0
-149 -805 -814 0
429 -858 997 0
592 456 -877 0
-850 303 188 0
-661 700 -312 0
-264 257 395 0
145 825 209 0
-521 -740 563 0
740 549 -482 0
-520 461 -510 0
-169 46 552 0
-776 779 846 0
-430 -877 220 0
-918 -220 -308 0
257 501 822 0
-844 -552 74 0
-653 -868 -941 0
18 -170 57 0
-404 535 -681 0
888 -993 -518 0
42 -856 116 0
559 595 462 0
972 -655 122 0
-814 194 -535 0
870 207 156 0
-151 379 600 0
-514 611 -773 0
-748 489 757 0
33 -471 -286 0
992 317 162 0
-973 173 -409 0
922 -958 100 0
-564 484 -913 0
-879 -303 852 0
863 586 82 0
-424 280 244 0
603 257 -668 0
758 -740 380 0
840 -921 -751 0
-574 -638 -332 0
11 -747 -445 0
111 731 69 0
278 -800 -191 0
-981 750 -628 0
321 670 798 0
947 496 502 0
-233 -259 445 0
238 804 958 0
318 -727 -544 0
-89 179 768 0
-207 848 -679 0
-734 -402 94 0
-703 984 -140 0
989 299 995 0
-744 81 282 0
765 -862 -649 0
-274 967 534 0
962 620 -749 0
474 -255 -684 0
-501 177 712 0
441 -830 -622 0
-653 330 89 0
-541 -727 236 0
-329 -422 -858 0
-106 273 20 0
691 428 330 0
372 210 663 0
-243 45 460 0
-843 71 774 0
956 -390 247 0
-427 574 -238 0
-797 116 845 0
512 311 -662 0
848 957 697 0
-806 -742 823 0
791 -825 499 0
1000 -150 783 0
711 -78 -39 0
-534 277 817 0
-855 830 828 0
-382 780 481 0
816 -874 -997 0
968 461 506 0
535 -951 586 0
154 -254 880 0
345 -84 690 0
965 -454 -785 0
768 -236 649 0
-262 -423 -190 0
596 -380 -758 0
-106 100 733 0
-763 414 255 0
-334 -829 -736 0
-264 -600 -66 0
161 -168 215 0
-431 -139 637 0
141 416 -544 0
416 -765 684 0
-289 -902 -584 0
-46 484 726 0
485 971 146 0
392 -968 -139 0
255 379 484 0
207 -467 -847 0
-479 277 -822 0
633 -176 264 0
618 -590 -909 0
874 -754 793 0
-614 107 -812 0
334 79 -384 0
-151 53 939 0
131 976 636 0
-172 -116 -163 0
-756 267 603 0
-219 826 284 0
397 -436 -423 0
-263 858 -512 0
537 909 510 0
-702 -646 652 0
-439 -993 687 0
-407 -217 -956 0
562 -371 762 0
-421 393 175 0
844 599 -976 0
-58 -16 -503 0
-385 610 407 0
570 -444 -274 0
-424 779 -707 0
-540 -417 33 0
143 998 -632 0
746 -357 55 0
-476 -180 -768 0
822 -534 -13 0
-861 -475 996 0
33 643 -800 0
840 648 934 0
272 -360 911 0
-247 670 -506 0
-178 143 648 0
932 -250 224 0
-531 -181 -693 0
363 57 -106 0
439 702 -719 0
-459 35 -488 0
-750 620 484 0
265 -299 -226 0
-483 124 81 0
867 -420 238 0
391 -564 -650 0
353 -830 49 0
-538 -961 694 0
392 -264 183 0
-538 -68 541 0
515 918 170 0
-988 415 -954 0
320 -192 208 0
488 419 54 0
443 -625 -430 0
284 226 -143 0
369 706 -380 0
-923 -541 821 0
900 80 -572 0
-781 -971 -259 0
182 752 -396 0
-602 156 -545 0
384 -10 -743 0
259 -161 795 0
351 894 -107 0
-764 -601 135 0
-270 37 543 0
-700 117 -611 0
-159 -267 21 0
17 -422 660 0
-91 957 950 0
571 -280 -138 0
-520 443 -685 0
-886 91 -140 0
-849 505 850 0
-421 126 572 0
-155 -426 -824 0
-364 758 378 0
-933 -696 107 0
-37 -738 436 0
-525 484 -446 0
-423 -665 -420 0
393 -944 -90 0
-618 748 -893 0
-203 615 174 0
32 -340 745 0
975 -15 704 0
503 526 214 0
313 -856 -584 0
369 7 60 0
-325 -778 -872 0
870 -187 267 0
707 975 -825 0
868 657 -562 0
16 -58 -506 0
627 -344 239 0
278 -122 420 0
60 -818 -857 0
909 5 -288 0
52 -24 742 0
-17 143 -624 0
915 -617 -46 0
81 -700 424 0
-679 587 -751 0
-559 419 365 0
282 -952 574 0
-291 540 -891 0
565 334 184 0
-191 -825 478 0
-630 -177 773 0
-682 -440 -61 0
-15 -821 425 0
-600 361 430 0
-530 -293 -105 0
706 -694 -964 0
725 -897 -449 0
-129 892 740 0
466 37 -257 0
-618 -771 -684 0
-121 -246 -803 0
-492 388 37 0
187 286 -22 0
-256 345 -374 0
172 297 -854 0
-602 -572 -776 0
-361 -604 -301 0
-432 29 481 0
802 928 229 0
211 -768 -297 0
-130 353 248 0
-155 783 601 0
-749 266 740 0
-691 938 -856 0
980 300 -450 0
349 297 -257 0
586 -520 -556 0
172 1 623 0
-648 298 567 0
963 -365 -550 0
-838 -730 -684 0
-242 547 630 0
820 -77 815 0
-844 -378 872 0
870 530 864 0
233 -972 -600 0
-725 -137 741 0
-356 -583 123 0
-787 661 -853 0
-946 1000 -160 0
-36 256 -401 0
-232 -495 417 0
617 -229 -465 0
-133 527 155 0
242 -304 -636 0
-763 -432 -881 0
904 -855 844 0
-225 655 -268 0
-476 811 439 0
256 -962 -365 0
-584 -113 428 0
913 -616 -560 0
-861 -387 764 0
947 592 168 0
-449 343 63 0
712 136 862 0
544 -336 184 0
442 665 -439 0
615 756 -40 0
-242 65 373 0
-860 -941 726 0
694 826 807 0
762 922 839 0
-728 -783 828 0
-950 447 629 0
33 -904 844 0
809 211 -487 0
-687 49 817 0
-752 814 -231 0
152 -45 -264 0
-473 593 -808 0
-829 -10 -994 0
-617 378 990 0
-728 888 -277 0
-296 385 909 0
484 825 977 0
-342 -608 -218 0
84 772 -263 0
-417 611 -523 0
647 -134 671 0
932 970 34 0
-637 576 378 0
-176 -101 636 0
362 -232 -436 0
836 201 892 0
969 204 -98 0
608 900 -734 0
408 38 -680 0
-251 884 724 0
-893 789 -228 0
-926 421 517 0
55 -870 873 0
-612 -447 170 0
647 349 -702 0
948 -454 -423 0
950 -365 383 0
-975 -229 525 0
-795 92 787 0
233 583 906 0
-738 -761 33 0
307 944 -126 0
179 834 -233 0
-72 -627 -925 0
747 772 183 0
572 174 587 0
-103 -930 245 0
463 -39 983 0
-618 -678 136 0
-846 -53 -116 0
135 972 438 0
457 931 -454 0
-304 379 63 0
982 495 528 0
841 -193 143 0
643 171 862 0
-142 404 629 0
569 -989 910 0
-543 -861 282 0
346 514 -31 0
268 947 487 0
-796 -774 300 0
281 -576 902 0
-513 200 493 0
308 172 513 0
-237 152 -278 0
245 -205 392 0
739 372 -996 0
-561 662 388 0
416 650 775 0
-552 -681 739 0
687 -374 -13 0
-833 -772 -220 0
-519 453 409 0
-456 330 -439 0
833 26 -803 0
-304 -708 -797 0
438 226 -312 0
-880 963 789 0
220 -731 -640 0
556 373 -40 0
218 -347 -274 0
913 373 877 0
171 -150 -284 0
567 -308 331 0
-248 628 134 0
876 562 -978 0
701 897 304 0
971 199 -139 0
168 929 -836 0
-165 508 250 0
649 -957 790 0
-530 -88 -840 0
991 -588 104 0
-846 -494 741 0
-437 -734 143 0
-327 318 736 0
-457 -152 193 0
512 412 756 0
825 319 984 0
-144 899 660 0
-765 770 -615 0
-61 714 660 0
-445 -477 -330 0
-180 426 -714 0
353 -972 -331 0
74 932 -547 0
246 -363 -198 0
556 83 279 0
-637 691 -474 0
483 158 -849 0
-779 -20 -135 0
728 888 -488 0
185 -725 496 0
634 -984 331 0
-394 -784 659 0
817 775 178 0
312 -983 2 0
-752 98 362 0
390 -385 932 0
-654 -972 427 0
-578 509 -759 0
-9 769 -324 0
-749 323 295 0
849 -743 -384 0
-897 899 604 0
-114 -188 36 0
40 282 -341 0
-747 -235 583 0
198 555 122 0
447 -868 -546 0
395 763 593 0
-52 -624 -514 0
-579 649 -843 0
800 218 94 0
-247 972 787 0
-323 -465 511 0
689 891 -3 0
429 -845 -972 0
509 -966 101 0
-279 877 -43 0
-326 -347 -697 0
451 -382 -72 0
694 -824 773 0
-465 -917 238 0
931 182 752 0
-606 -388 -909 0
107 657 -37 0
-407 -910 -101 0
193 -564 125 0
-867 -300 -767 0
-422 94 771 0
511 -304 -795 0
-340 -220 -206 0
675 -538 684 0
239 -526 -238 0
-946 956 -750 0
-611 -105 602 0
-97 -925 -484 0
587 655 117 0
427 689 847 0
-583 -73 791 0
-990 272 -992 0
-615 -99 391 0
216 698 -76 0
691 277 204 0
-50 361 974 0
-817 368 -109 0
192 -432 -201 0
-597 -512 -241 0
-811 774 -249 0
-84 13 -453 0
-240 -498 210 0
-312 -527 687 0
-46 -630 -259 0
647 -249 450 0
-838 -216 798 0
626 -780 223 0
629 -128 129 0
259 -147 918 0
-588 103 99 0
114 -206 240 0
-384 183 -622 0
205 -233 557 0
-312 18 373 0
853 -175 -51 0
-154 335 996 0
754 721 977 0
922 -488 -193 0
-463 84 670 0
416 -591 953 0
-44 -299 -712 0
-781 -668 432 0
-552 -826 894 0
682 -169 -566 0
-578 653 -651 0
491 -493 -909 0
344 -887 469 0
708 -146 988 0
869 604 284 0
-720 -257 673 0
-255 -568 596 0
480 760 -853 0
894 527 -184 0
-268 -345 -358 0
-662 -905 -559 0
969 882 -411 0
-66 593 -266 0
-569 -510 531 0
-789 -332 -72 0
289 -771 964 0
690 -132 -378 0
360 -790 332 0
-943 219 869 0
-23 -393 -807 0
-763 -755 -689 0
843 688 621 0
-92 957 758 0
-106 107 -182 0
118 -505 -688 0
-735 357 116 0
-883 -399 -31 0
221 -340 35 0
-974 375 961 0
206 -979 184 0
-596 976 71 0
679 -585 -292 0
-363 905 730 0
-971 127 -905 0
-656 -820 892 0
-783 146 321 0
-906 24 -902 0
88 906 818 0
-184 -309 581 0
479 -653 892 0
-739 640 656 0
-705 -613 130 0
-258 -358 -574 0
641 -333 797 0
207 -253 -862 0
-880 394 121 0
444 416 -931 0
-237 910 812 0
-181 333 364 0
442 146 -171 0
-12 -178 -522 0
-359 -466 -762 0
-511 669 -390 0
-376 187 903 0
769 -771 725 0
-526 581 20 0
-436 465 -533 0
-21 -151 371 0
973 253 -437 0
511 704 -754 0
-381 809 191 0
-375 -686 -653 0
-961 -63 7 0
204 375 291 0
48 111 -990 0
81 -319 370 0
-678 -829 380 0
458 156 313 0
393 462 -935 0
-235 -554 -192 0
392 -42 -113 0
598 659 193 0
985 -317 -745 0
-333 706 150 0
739 -57 384 0
-162 348 788 0
-491 -584 731 0
716 579 -941 0
536 -909 -78 0
-504 -816 235 0
550 -380 -512 0
-142 11 592 0
-645 298 -499 0
651 -109 571 0
477 -681 854 0
-509 -718 642 0
-968 449 508 0
-614 569 791 0
-87 490 -460 0
56 -303 -131 0
971 -321 29 0
-233 -541 -648 0
-696 739 -422 0
-507 -196 938 0
-427 -470 -252 0
-190 8 349 0
-368 -788 -989 0
-300 776 347 0
356 423 -420 0
953 224 -164 0
-558 -971 -739 0
-298 625 -387 0
-400 -320 151 0
-72 2 477 0
-855 608 669 0
42 -823 87 0
33 -690 -967 0
-797 -748 -188 0
-951 -304 357 0
-172 751 -80 0
-511 289 993 0
14 983 446 0
-980 -425 -626 0
-448 112 -923 0
-888 -561 956 0
-441 -893 -21 0
675 945 921 0
-960 699 772 0
-885 117 -162 0
840 -842 57 0
164 205 26 0
822 815 -373 0
880 -33 -683 0
-656 818 754 0
396 684 189 0
-468 -804 -526 0
-890 131 620 0
116 131 137 0
-879 298 -467 0
347 -186 850 0
-912 -380 -172 0
-26 -540 -688 0
944 -81 -989 0
-499 -796 -891 0
233 -761 -967 0
869 -66 224 0
-416 -331 -830 0
358 66 379 0
-820 82 923 0
-736 -502 330 0
563 85 522 0
-530 -545 -356 0
378 280 -536 0
-489 -979 -620 0
260 314 -650 0
-785 -338 488 0
-626 -174 -157 0
-746 155 -372 0
961 100 34 0
-984 -724 531 0
632 907 802 0
-139 644 -739 0
316 141 1 0
979 -46 -833 0
718 -602 565 0
-742 70 896 0
124 -178 -783 0
982 -137 -531 0
67 501 520 0
-332 -40 -886 0
535 853 -554 0
-710 -436 980 0
-627 -174 962 0
-450 835 -24 0
-956 731 -852 0
391 417 796 0
-26 211 728 0
926 -551 -31 0
-113 -729 -423 0
-999 -296 464 0
-374 465 -380 0
-494 -367 -698 0
-8 733 886 0
145 -569 -685 0
721 -957 -792 0
241 -876 491 0
623 -428 685 0
-914 543 565 0
3 -871 -898 0
715 556 912 0
-911 292 -361 0
972 -714 -598 0
-528 -854 -523 0
863 -367 -847 0
-489 274 611 0
662 260 -252 0
-794 782 -862 0
-731 -320 -402 0
-368 598 132 0
-749 -972 910 0
-888 639 193 0
454 -12 917 0
758 -754 -875 0
182 -676 -165 0
-755 -882 295 0
873 640 75 0
-729 280 -447 0
917 -383 -922 0
-868 520 -13 0
-809 -776 650 0
257 -273 -314 0
-508 -393 314 0
258 474 902 0
-276 512 119 0
-317 955 904 0
623 -274 -836 0
-448 839 -197 0
-130 -115 403 0
-315 -541 -118 0
-292 -665 21 0
51 -103 285 0
346 957 -30 0
-25 -372 713 0
-404 -408 97 0
913 -499 -50 0
609 -243 -708 0
226 -302 100 0
702 -185 407 0
544 -427 -594 0
-901 -708 -824 0
-7 -85 459 0
501 -374 -286 0
-659 -440 -340 0
752 682 -911 0
62 297 699 0
751 11 -858 0
133 -379 -386 0
943 -640 -697 0
534 259 -619 0
37 -697 -405 0
-658 -509 273 0
-779 -508 660 0
817 -573 588 0
-330 119 206 0
668 -85 -124 0
764 398 431 0
-708 801 -140 0
-887 -402 -495 0
-508 -923 -261 0
-60 -708 -800 0
518 475 -866 0
982 298 172 0
-441 -622 -364 0
937 -536 884 0
148 297 34 0
366 179 42 0
-875 -781 319 0
-845 -217 713 0
-754 164 -544 0
134 -127 158 0
140 193 569 0
-674 223 883 0
438 155 503 0
-423 942 -829 0
667 216 822 0
-890 -79 147 0
497 50 -620 0
-360 852 -510 0
226 -253 708 0
-612 431 -352 0
-855 593 -187 0
-274 -666 657 0
-965 212 74 0
-852 941 621 0
54 -794 387 0
-189 -88 -442 0
549 429 -478 0
-497 -491 162 0
468 163 756 0
141 838 426 0
329 -658 63 0
490 5 468 0
-307 165 -639 0
521 -804 799 0
466 685 15 0
777 998 -952 0
707 290 -187 0
-946 732 824 0
-66 -605 164 0
152 761 385 0
639 -794 -90 0
802 -22 37 0
481 27 -667 0
-805 248 469 0
764 -148 -651 0
-938 -261 194 0
895 719 733 0
-838 -980 160 0
-201 -421 -101 0
-445 121 -597 0
324 -745 191 0
-941 -744 184 0
-120 287 -450 0
-337 617 -246 0
834 726 675 0
355 -322 -675 0
964 467 498 0
403 -470 -706 0
470 -229 -584 0
-603 833 793 0
-769 -368 736 0
-903 -373 902 0
251 326 845 0
888 778 -961 0
-474 -394 804 0
524 -670 70 0
-955 795 -335 0
-949 262 33 0
-769 -439 -957 0
688 407 814 0
263 -756 965 0
-980 770 877 0
-815 -525 -779 0
596 -791 752 0
-995 -158 508 0
-156 -254 444 0
-432 171 322 0
-446 129 -345 0
-557 -133 -482 0
416 341 129 0
348 743 -613 0
326 674 -505 0
764 110 597 0
770 268 243 0
-728 697 178 0
919 -393 767 0
477 -321 604 0
462 -168 -354 0
-745 -42 693 0
-831 -797 -364 0
225 -666 417 0
292 583 78 0
274 234 -639 0
243 -13 -574 0
-639 223 296 0
545 470 149 0
-139 -473 898 0
-248 969 -926 0
609 -786 -426 0
761 748 742 0
437 785 -764 0
191 -417 145 0
246 202 980 0
-705 -264 166 0
720 -548 -718 0
-686 871 -788 0
778 883 -1000 0
-756 -261 -659 0
667 887 915 0
-846 739 861 0
-831 721 -561 0
-595 -288 -471 0
50 -933 469 0
426 236 101 0
229 542 -249 0
-986 24 -822 0
462 -549 493 0
411 853 110 0
89 -139 870 0
-620 366 -104 0
359 -54 -627 0
-710 498 -503 0
603 18 -69 0
197 -716 -616 0
-92 357 559 0
363 209 -243 0
715 816 -734 0
768 -979 -117 0
390 424 -122 0
995 -63 730 0
120 -597 -838 0
-41 800 148 0
978 -398 121 0
991 -732 -78 0
-334 363 557 0
799 933 620 0
-1 -369 -422 0
-788 -217 -447 0
494 682 -218 0
927 -229 845 0
-769 704 407 0
-979 -851 -113 0
96 -928 -510 0
-639 396 -201 0
984 -835 510 0
44 784 947 0
-62 514 209 0
813 445 -758 0
767 -642 -854 0
793 585 -522 0
-261 -474 -696 0
932 301 302 0
-515 844 940 0
963 526 601 0
-747 -131 836 0
-815 -97 -829 0
440 250 173 0
-443 -105 -871 0
231 975 -608 0
614 252 744 0
1 -169 132 0
-768 -540 857 0
-987 -803 -190 0
785 504 777 0
-928 -879 -595 0
-985 535 37 0
-123 -533 -207 0
-4 -785 -754 0
818 -301 403 0
-24 19 -709 0
878 -3 236 0
761 989 -64 0
-357 265 -181 0
278 -65 -72 0
-753 192 -752 0
-364 -481 -442 0
-231 -176 12 0
812 -546 143 0
-571 -657 894 0
870 760 -112 0
237 -766 443 0
318 -450 -568 0
801 -322 426 0
-916 814 342 0
177 -557 -639 0
-165 142 153 0
-369 65 -84 0
-593 -917 418 0
-859 -651 473 0
-885 -580 400 0
-411 -702 676 0
332 335 -929 0
468 408 869 0
-976 -15 -919 0
-636 -712 -529 0
-980 104 -982 0
458 -889 -358 0
-839 -410 -482 0
-356 27 -908 0
909 -363 -161 0
422 -697 -379 0
-722 538 -577 0
254 -601 -984 0
839 -140 -944 0
-458 -751 -389 0
-716 -881 -778 0
574 404 180 0
-28 -847 246 0
-942 -97 -755 0
-254 620 933 0
994 634 -530 0
254 785 -22 0
-730 493 195 0
620 409 509 0
-181 526 258 0
404 -831 -515 0
112 -415 857 0
448 -264 -278 0
-949 -112 13 0
-233 -535 -625 0
277 -821 411 0
-827 494 -697 0
401 768 -944 0
597 -489 85 0
588 -673 -491 0
859 467 723 0
-382 262 -805 0
447 -576 -702 0
841 913 -410 0
563 -764 354 0
14 225 -693 0
-254 599 126 0
-619 -258 -382 0
818 493 -754 0
-128 -459 -141 0
-822 -971 380 0
443 189 -503 0
590 -767 973 0
-928 934 -703 0
-402 366 59 0
616 592 -520 0
108 -156 246 0
758 -614 -410 0
-657 -615 614 0
81 -924 649 0
-627 560 -574 0
-222 174 572 0
-919 106 -742 0
-200 794 -750 0
-970 127 -832 0
344 289 731 0
-408 -828 814 0
-946 -169 783 0
496 -675 79 0
-865 -790 292 0
58 554 175 0
914 611 991 0
725 -283 657 0
-709 99 73 0
-866 -346 -499 0
-824 -935 -930 0
-156 921 528 0
-246 -25 -743 0
697 782 -446 0
848 -88 -665 0
782 -643 -51 0
-895 -54 460 0
915 364 -832 0
700 154 -130 0
-770 -252 69 0
-290 144 -942 0
-802 890 -804 0
-59 -318 293 0
552 -188 -362 0
770 -496 -100 0
-787 977 -314 0
967 -524 -813 0
380 -994 979 0
-367 -497 397 0
702 355 -329 0
-853 45 189 0
981 680 -338 0
338 778 -406 0
-661 353 998 0
-625 -175 957 0
-985 298 521 0
816 -20 -83 0
-636 -588 -481 0
751 462 419 0
-456 -789 -827 0
-579 -628 -91 0
816 296 162 0
-40 -914 194 0
21 330 319 0
236 -450 397 0
-816 200 -734 0
-485 912 973 0
794 -964 -296 0
266 115 627 0
-677 -745 -5 0
394 -768 -884 0
279 -309 -927 0
-634 63 887 0
864 -258 -923 0
431 -210 -203 0
-800 -78 716 0
-699 543 -653 0
-734 746 352 0
176 833 -979 0
-378 -55 517 0
-570 723 -966 0
-362 -527 -879 0
244 -866 -933 0
830 42 -375 0
704 -596 -342 0
-766 -509 970 0
-375 418 -295 0
22 -107 338 0
-209 427 -863 0
318 -669 3 0
269 -721 -240 0
830 -486 -63 0
829 -941 666 0
31 -600 -129 0
-959 99 219 0
232 832 658 0
76 764 -398 0
10 764 -432 0
-283 -498 319 0
287 902 -64 0
393 -343 961 0
-111 -975 -59 0
-12 -402 -403 0
98 40 109 0
846 750 -614 0
-180 311 -984 0
996 -623 -163 0
-380 726 781 0
360 720 -938 0
-870 649 626 0
-490 582 271 0
513 -323 251 0
348 -384 -525 0
939 998 285 0
-329 -38 -949 0
518 710 435 0
-172 86 -270 0
461 363 -856 0
749 436 -151 0
-666 -926 473 0
-267 131 931 0
-15 809 187 0
-174 939 -489 0
479 745 -134 0
-726 551 -176 0
665 84 -193 0
-583 134 -13 0
475 364 132 0
-522 -596 314 0
714 289 -487 0
-341 -982 979 0
849 731 950 0
-964 -469 448 0
-649 -910 -80 0
-204 -494 859 0
-423 -416 -816 0
390 739 388 0
482 83 -243 0
559 370 753 0
-757 -592 -469 0
381 -413 -883 0
90 -212 953 0
452 490 -279 0
-354 -913 17 0
228 786 726 0
382 624 -894 0
-276 399 806 0
-148 -729 -946 0
452 -279 -131 0
159 246 -93 0
554 364 -306 0
-624 -593 430 0
-292 597 760 0
-890 -247 672 0
124 974 718 0
-248 625 -219 0
664 -291 77 0
253 135 -174 0
-242 338 -879 0
93 956 142 0
-744 912 -393 0
-446 -882 -874 0
63 555 -832 0
-381 -178 -272 0
713 921 831 0
472 -752 -779 0
-475 82 583 0
-215 556 898 0
158 -220 932 0
-834 -28 -230 0
-271 626 698 0
-938 -521 139 0
182 -385 392 0
155 356 -667 0
435 66 924 0
-316 181 -973 0
910 888 -520 0
808 -987 -389 0
-77 -139 -393 0
903 -203 -113 0
337 933 -907 0
-881 77 995 0
-833 116 30 0
808 641 302 0
970 417 300 0
421 -531 -195 0
-462 886 909 0
-601 -783 744 0
-361 -315 -56 0
109 -916 604 0
561 809 55 0
-806 -394 224 0
196 -594 -908 0
-552 359 317 0
993 -669 71 0
-999 -724 -766 0
-124 -645 -394 0
-58 340 -919 0
445 97 622 0
-23 -767 731 0
-454 -797 239 0
407 -564 -253 0
815 406 6 0
-665 752 -397 0
-740 59 -1000 0
737 -407 -975 0
574 -331 681 0
487 -342 157 0
44 375 -938 0
811 180 -472 0
-896 -86 650 0
933 -65 762 0
600 991 -966 0
-422 -143 -551 0
-870 106 -644 0
-936 -830 -443 0
-726 -508 -208 0
706 -355 164 0
48 698 -282 0
-930 -123 -136 0
-620 282 -17 0
-312 -567 296 0
-331 768 877 0
-242 601 152 0
644 608 -666 0
542 -72 -931 0
-902 23 -9 0
61 432 160 0
136 -967 781 0
-277 -71 357 0
424 21 783 0
-496 387 -664 0
406 309 -810 0
280 636 -377 0
-481 394 823 0
-199 -196 -675 0
952 248 -274 0
-578 -106 945 0
904 839 137 0
548 890 264 0
906 -559 90 0
-751 -292 11 0
-849 198 -171 0
305 -944 -303 0
-13 -309 551 0
-648 -397 241 0
372 12 188 0
-207 -422 -62 0
-607 414 286 0
784 386 -972 0
-714 -812 -255 0
980 -978 101 0
-654 394 -596 0
709 147 -873 0
769 -215 -803 0
-654 493 190 0
-181 -830 370 0
667 576 -305 0
377 -553 161 0
611 -320 -974 0
88 195 -656 0
-593 -642 984 0
-276 -550 169 0
-889 -114 151 0
18 -910 828 0
128 562 -738 0
-537 685 -718 0
205 500 224 0
855 360 -25 0
-505 -861 986 0
-437 -306 502 0
737 515 630 0
-537 -488 310 0
-830 -549 -114 0
-446 -542 -509 0
-146 261 -18 0
199 -337 -625 0
-740 376 244 0
761 431 -260 0
125 603 -859 0
336 -267 -764 0
-924 275 -938 0
-995 298 -330 0
180 237 -886 0
199 65 -935 0
96 545 -520 0
436 140 546 0
748 -994 -765 0
822 -108 109 0
821 -444 344 0
-32 -744 -872 0
-717 431 79 0
287 764 864 0
582 -863 762 0
-226 -624 -618 0
-188 810 -271 0
-167 448 -638 0
-257 -38 -74 0
331 -519 79 0
950 -110 -278 0
-872 554 -357 0
-41 -458 941 0
-939 -883 435 0
735 -341 149 0
-32 962 552 0
-487 -613 843 0
-751 868 -956 0
-586 712 364 0
645 -709 389 0
81 -582 145 0
-369 153 -391 0
-136 739 836 0
-909 566 -526 0
-991 -613 372 0
-366 339 -156 0
755 -43 561 0
-429 -825 -697 0
244 -308 262 0
-478 -839 711 0
799 -891 -128 0
997 148 925 0
324 -949 950 0
195 37 -371 0
302 382 -644 0
-507 969 -139 0
86 503 -879 0
-965 986 709 0
507 -142 43 0
432 -625 295 0
-404 165 138 0
-520 -191 595 0
622 -490 931 0
-435 -83 638 0
-702 855 659 0
-34 -311 458 0
891 -190 -360 0
429 -873 918 0
447 -392 -157 0
66 57 -851 0
184 -896 -902 0
187 -313 420 0
701 -215 -907 0
87 418 143 0
-249 -659 181 0
634 -870 -246 0
-465 -754 13 0
878 153 -240 0
-821 415 -437 0
-117 -326 -783 0
-236 576 658 0
-930 -625 145 0
-731 -830 696 0
680 350 713 0
-697 -233 -915 0
303 -423 732 0
-463 -741 22 0
370 -228 180 0
-223 -571 206 0
324 78 -840 0
395 -761 -290 0
-337 65 -959 0
45 980 -239 0
-381 -713 -887 0
175 829 687 0
-777 -253 -327 0
-229 894 -62 0
-813 -304 610 0
-118 -661 98 0
340 -185 544 0
-119 343 225 0
-96 311 -314 0
-668 479 318 0
616 296 11 0
26 924 415 0
945 212 194 0
859 623 -742 0
-227 -569 746 0
559 765 619 0
-648 -482 87 0
-96 606 -76 0
-444 -135 -366 0
919 -435 -693 0
813 522 -711 0
828 -993 750 0
971 -703 -697 0
-986 153 806 0
-594 276 550 0
-751 -125 123 0
727 -663 -982 0
-105 102 -243 0
-350 -734 -717 0
268 928 438 0
494 638 -207 0
-315 -993 -310 0
-956 492 762 0
920 935 -621 0
-338 287 -542 0
98 376 229 0
-856 678 -748 0
146 659 -314 0
-651 448 257 0
-320 -839 -717 0
-627 193 700 0
-823 -984 174 0
138 -43 799 0
558 486 15 0
-362 -323 -529 0
-238 -934 960 0
448 -796 404 0
139 915 550 0
853 982 -673 0
254 -199 640 0
893 -77 613 0
751 714 368 0
-470 -651 501 0
868 -394 -141 0
214 -824 -43 0
-508 906 -972 0
-836 488 -100 0
-81 -804 762 0
295 396 -507 0
-922 645 -463 0
428 -450 -372 0
-757 118 879 0
-250 -726 -34 0
249 381 305 0
-135 -245 38 0
379 -337 776 0
-933 -341 506 0
922 756 276 0
308 647 801 0
155 300 -613 0
-496 -334 -268 0
991 -507 -755 0
346 -515 -942 0
127 820 992 0
-711 -361 -381 0
-40 -983 680 0
53 303 992 0
903 864 211 0
-95 994 369 0
-35 -683 -332 0
558 602 -556 0
973 -137 292 0
832 132 531 0
-366 -93 303 0
83 799 -633 0
371 567 -608 0
-57 765 -775 0
837 20 -591 0
-968 781 -727 0
-193 -613 887 0
993 -316 -513 0
71 556 381 0
738 -749 414 0
662 -603 119 0
-720 801 621 0
442 66 -835 0
107 762 -788 0
103 46 918 0
309 -745 920 0
231 -395 675 0
-965 -218 -718 0
951 -485 -926 0
818 -113 -314 0
-147 355 -238 0
58 -798 -728 0
-329 654 228 0
808 -430 -623 0
-535 506 270 0
281 -813 -416 0
754 -373 138 0
167 69 195 0
434 369 -565 0
163 -124 -590 0
538 448 854 0
-411 760 -197 0
-112 -540 -730 0
-936 216 -752 0
795 -571 405 0
845 457 398 0
-767 -873 919 0
505 597 109 0
505 307 -815 0
30 364 -832 0
327 891 276 0
-951 797 199 0
-483 -911 -983 0
98 -212 727 0
-892 -635 448 0
-464 -38 978 0
515 -504 -987 0
421 -857 -698 0
-257 -140 873 0
-316 -67 436 0
150 479 -247 0
767 47 -787 0
-614 -893 71 0
-38 -251 157 0
-275 57 -207 0
-925 -204 64 0
754 -688 -966 0
51 794 -775 0
-262 -136 427 0
771 478 264 0
423 -752 241 0
-69 -179 188 0
-525 -868 643 0
-908 574 -889 0
-911 144 -39 0
100 -682 -510 0
-59 965 29 0
-526 -151 881 0
925 -225 -500 0
417 726 793 0
-231 226 -409 0
-119 404 -604 0
44 -19 -186 0
-781 -48 888 0
276 478 398 0
-256 700 -353 0
-857 538 402 0
-63 -524 -221 0
-80 680 -858 0
303 80 928 0
149 305 -442 0
9 -886 691 0
-461 32 920 0
739 131 835 0
948 -355 -944 0
-527 640 334 0
-345 749 666 0
313 276 -712 0
-339 252 -459 0
-186 654 875 0
-55 967 -42 0
828 84 638 0
-180 840 50 0
350 933 -683 0
433 745 681 0
621 577 677 0
-278 62 971 0
-398 423 606 0
-265 288 -71 0
23 763 784 0
-1000 -146 -724 0
-596 -592 -854 0
872 -903 892 0
-938 547 219 0
-143 459 -598 0
-702 -154 -981 0
-810 -653 -702 0
644 322 -975 0
980 -836 -742 0
-56 754 -585 0
-289 596 465 0
-265 -466 -290 0
464 412 125 0
-126 -692 -65 0
529 969 -533 0
-188 845 -694 0
-111 646 -216 0
-895 -873 592 0
367 -869 740 0
988 954 -553 0
-125 89 229 0
-31 -593 304 0
-792 -23 757 0
-473 -226 6 0
372 805 -529 0
681 -270 352 0
-562 673 352 0
-973 379 -820 0
-543 -134 -143 0
-203 -240 -590 0
-61 908 -617 0
4 -107 792 0
335 499 -1000 0
871 986 -148 0
617 851 647 0
-588 122 -90 0
-623 -335 -437 0
854 -899 -951 0
743 -482 -32 0
-39 -872 612 0
781 152 16 0
-587 650 -936 0
-771 -422 17 0
-26 -766 -444 0
-291 -55 831 0
-420 -827 -742 0
-589 805 590 0
-661 -578 107 0
111 -354 -374 0
711 499 820 0
345 857 -813 0
971 263 978 0
-633 -642 294 0
900 -921 409 0
-701 565 -958 0
-545 -384 280 0
-434 -240 -195 0
-264 -809 715 0
857 126 474 0
-291 433 156 0
-541 -464 -556 0
-466 92 967 0
460 840 188 0
716 -983 367 0
661 381 926 0
-995 -308 284 0
596 -605 298 0
-865 106 535 0
748 -191 158 0
334 -394 -360 0
-251 -438 299 0
-57 -860 -130 0
-421 271 254 0
-961 -533 635 0
-926 736 -212 0
-116 34 -381 0
-700 278 972 0
-915 -411 -120 0
674 386 574 0
-732 980 -976 0
207 232 -147 0
-640 727 -127 0
-229 120 632 0
765 820 786 0
863 -39 -640 0
634 -845 15 0
831 -832 -924 0
782 -90 -712 0
873 29 670 0
-903 -601 368 0
-140 -615 -637 0
223 772 598 0
387 -588 562 0
473 -753 -589 0
-446 -128 724 0
-565 523 -239 0
466 499 -667 0
-142 638 -408 0
-251 374 -897 0
-903 -31 532 0
405 872 171 0
-500 -526 -613 0
-388 -752 269 0
422 -38 -88 0
-599 40 939 0
-496 -169 642 0
133 908 997 0
-893 662 -461 0
362 5 -544 0
386 157 -714 0
-675 -370 869 0
-230 -627 -428 0
-172 -804 247 0
-636 232 201 0
305 513 -719 0
820 18 -35 0
68 -476 -974 0
-862 -197 -879 0
-44 -796 572 0
-74 65 494 0
-504 453 70 0
381 -60 935 0
981 108 50 0
484 -729 -869 0
-729 -81 331 0
-946 -924 -534 0
-9 -676 116 0
332 -394 367 0
-590 619 961 0
-974 287 925 0
-198 152 -682 0
919 700 77 0
637 153 98 0
696 -688 -648 0
-639 -514 73 0
-766 -848 -935 0
181 -103 309 0
104 -566 23 0
563 656 -142 0
91 173 -753 0
-601 -776 779 0
917 -282 709 0
-310 -940 919 0
-169 293 -662 0
790 612 -466 0
738 125 -357 0
190 461 794 0
341 526 564 0
540 801 798 0
-807 645 870 0
-16 -973 251 0
435 885 -868 0
190 548 463 0
255 -955 -32 0
-390 -551 714 0
114 466 164 0
807 -438 595 0
919 404 76 0
-335 217 -613 0
-472 403 3 0
-899 -340 131 0
-532 -936 492 0
798 -55 672 0
-694 950 -678 0
266 -22 231 0
828 425 -841 0
-310 -696 -141 0
120 878 -268 0
-400 458 -62 0
558 120 529 0
-173 -142 854 0
541 204 309 0
-223 22 -372 0
260 984 -351 0
623 -241 686 0
-301 645 -494 0
497 -490 -126 0
328 -166 -14 0
699 -321 -636 0
-290 -845 -824 0
931 575 873 0
381 -927 28 0
-604 -460 495 0
957 7 -154 0
-868 -956 -415 0
-223 432 298 0
356 -899 674 0
-415 -122 -943 0
-876 523 -407 0
329 -854 684 0
711 -933 563 0
284 -62 -387 0
56 916 -915 0
-652 -693 -668 0
277 982 -142 0
-884 148 697 0
-305 -122 -257 0
817 -595 257 0
667 -807 -604 0
-980 -445 -772 0
92 -512 -340 0
-914 -998 748 0
55 -353 -679 0
187 782 -54 0
-274 733 -769 0
-944 -1 -68 0
-132 -390 881 0
-888 -489 -219 0
486 -52 915 0
-997 -855 -654 0
870 138 734 0
-327 697 -831 0
383 943 929 0
50 814 682 0
-202 -428 828 0
-904 585 -366 0
-5 -612 545 0
-636 696 -809 0
675 -911 867 0
-465 -192 885 0
666 -962 -700 0
-721 -924 -497 0
-708 1000 538 0
922 -313 -702 0
-26 27 -998 0
-788 -149 640 0
-416 986 -930 0
-839 991 661 0
102 -673 796 0
911 -242 -301 0
851 -63 -394 0
935 156 107 0
307 828 949 0
-706 282 -64 0
195 303 -751 0
-190 -647 713 0
560 117 -913 0
881 -802 478 0
-750 140 -304 0
248 -885 768 0
439 -674 -132 0
567 -565 -375 0
860 -656 39 0
-51 615 -479 0
902 249 -845 0
-828 522 -360 0
-20 -707 508 0
489 742 189 0
-935 98 -102 0
-520 -459 492 0
-651 464 -461 0
-668 360 909 0
-188 434 -130 0
-556 781 984 0
259 394 -466 0
-737 -999 -345 0
-133 309 770 0
-1000 -96 646 0
-459 182 -937 0
-13 -366 -569 0
945 -311 184 0
-750 836 -8 0
261 -337 769 0
-301 -841 -987 0
217 -59 -162 0
-490 4 -758 0
-723 980 152 0
-446 919 -173 0
859 50 -761 0
-764 -34 82 0
250 -365 -40 0
-17 -368 565 0
-273 844 -111 0
415 42 363 0
-956 -866 -38 0
509 213 422 0
567 450 783 0
-330 592 -18 0
675 158 -903 0
571 668 -16 0
-925 334 680 0
-860 -475 -32 0
-495 187 -843 0
132 -81 449 0
75 771 -945 0
52 600 -545 0
-656 -964 670 0
-980 102 342 0
-426 587 404 0
-180 47 -881 0
-919 -180 519 0
278 -791 -952 0
751 -442 412 0
-58 -889 937 0
599 365 86 0
-586 -549 955 0
-445 251 978 0
669 -20 35 0
416 588 484 0
-136 707 -162 0
-90 -172 -903 0
-698 -389 -483 0
-759 -582 -543 0
-675 96 399 0
-552 -460 -606 0
-258 282 -180 0
304 562 281 0
274 -302 395 0
773 419 220 0
9 -335 -396 0
791 501 146 0
42 -290 946 0
-942 -610 -251 0
396 166 963 0
-71 -836 -713 0
202 -142 867 0
459 -267 -270 0
112 233 133 0
837 -810 789 0
-683 193 934 0
428 765 -848 0
-350 -160 593 0
-291 614 -503 0
-562 544 -801 0
898 879 728 0
-869 -744 -364 0
-689 278 -142 0
357 -209 -912 0
606 -314 297 0
-509 647 -793 0
662 772 -4 0
106 -458 315 0
-914 661 -96 0
-671 -147 212 0
132 290 137 0
418 -712 -17 0
446 -912 17 0
177 -461 -127 0
-903 -400 536 0
750 -840 -516 0
-17 885 806 0
-556 437 231 0
-402 -956 -680 0
-778 394 688 0
-886 -386 -776 0
-6 -895 886 0
554 -449 258 0
72 79 609 0
645 -778 -996 0
506 -80 158 0
977 -349 858 0
-752 -132 -726 0
-527 994 440 0
-243 -389 -596 0
-853 -498 899 0
73 505 -595 0
251 761 -241 0
824 -601 611 0
869 -816 116 0
-989 579 454 0
-908 238 377 0
-669 409 -944 0
352 -268 77 0
-148 -133 676 0
-273 754 -638 0
-670 414 724 0
466 894 227 0
-226 179 286 0
-758 -822 -661 0
-31 -132 -405 0
-177 -720 -317 0
-327 -510 303 0
-281 518 -818 0
-900 334 -79 0
-515 673 430 0
179 685 297 0
-144 -122 816 0
328 -585 -703 0
744 607 241 0
33 -682 642 0
-940 -445 958 0
274 562 -192 0
455 144 -122 0
974 229 -843 0
548 215 665 0
-267 779 742 0
-307 358 -608 0
-926 -219 -56 0
-767 -804 567 0
393 426 -429 0
883 -449 -217 0
155 793 687 0
681 -711 -334 0
256 -471 -498 0
929 -356 -344 0
136 873 58 0
838 436 -105 0
46 546 -949 0
-457 192 212 0
-377 -901 355 0
-351 -196 -208 0
-972 191 -425 0
-246 -671 -576 0
740 -397 216 0
-779 847 -603 0
144 588 -53 0
901 -579 -480 0
320 85 718 0
244 -984 -205 0
-462 -865 848 0
805 454 -914 0
99 251 -671 0
-104 -879 -107 0
371 711 816 0
-827 -818 -698 0
-193 694 -391 0
-904 -397 -690 0
774 -457 -439 0
-66 826 -699 0
-638 -223 -554 0
-638 -173 -142 0
62 -418 -419 0
952 -899 892 0
457 994 340 0
-722 -248 -607 0
427 -747 540 0
2 737 -211 0
563 981 -475 0
871 -546 852 0
879 -479 687 0
-587 417 -582 0
-486 333 -400 0
-933 -581 741 0
-566 121 586 0
678 -270 -214 0
-677 700 -264 0
-129 88 921 0
357 -661 834 0
718 -602 -203 0
-144 -716 839 0
279 -66 164 0
924 -915 -214 0
-959 508 742 0
-697 -191 -285 0
-553 306 186 0
-39 511 -879 0
-853 -227 421 0
201 616 -464 0
413 806 325 0
-428 463 -161 0
-843 189 -730 0
-960 273 -25 0
-465 377 434 0
-890 967 695 0
98 596 -765 0
644 739 787 0
-960 300 -275 0
403 377 -483 0
937 234 974 0
912 -193 690 0
637 -221 85 0
-963 699 -182 0
-411 -786 384 0
887 402 90 0
51 556 -380 0
462 543 866 0
-288 -918 -158 0
854 -687 325 0
321 -750 -451 0
-315 -923 942 0
22 703 151 0
229 -558 -386 0
527 132 -246 0
855 813 458 0
223 -27 -727 0
836 273 451 0
228 -70 -645 0
644 645 413 0
-951 -513 708 0
-994 791 -571 0
-859 43 -711 0
-491 187 -505 0
-56 -923 250 0
583 -308 -29 0
905 231 617 0
648 -21 220 0
-972 -467 -374 0
-538 357 -343 0
-943 -422 -1000 0
989 -643 428 0
973 -789 -984 0
530 605 -292 0
533 737 185 0
-51 -625 -458 0
-216 -405 808 0
-167 424 688 0
-832 636 -222 0
579 -811 -439 0
122 -891 -577 0
742 808 -99 0
-773 357 -377 0
333 585 -494 0
880 -410 -730 0
-420 -813 -378 0
926 309 -705 0
-100 -108 146 0
383 -942 235 0
768 -143 -300 0
-336 678 -474 0
-37 472 261 0
-399 -864 -93 0
-823 648 -59 0
455 662 676 0
-692 91 -689 0
73 -460 -676 0
-7 633 699 0
147 872 -17 0
362 -451 -528 0
388 -327 -264 0
-443 611 -283 0
-83 642 -285 0
134 273 -210 0
461 835 27 0
-855 793 -738 0
-126 -902 -304 0
-490 176 248 0
157 52 -395 0
-995 -895 -529 0
-151 972 159 0
-551 119 75 0
474 -156 -522 0
-798 -743 320 0
385 743 -918 0
-555 -169 -480 0
-499 942 192 0
-988 -260 -511 0
-971 142 245 0
147 -176 -246 0
-232 370 -878 0
-855 -707 -407 0
459 577 724 0
-589 313 -757 0
241 -120 -30 0
101 -615 683 0
-871 -328 885 0
771 768 614 0
996 671 518 0
-471 134 -185 0
28 808 -966 0
348 -265 609 0
68 363 818 0
-229 -406 183 0
846 260 997 0
-374 848 119 0
752 -575 -830 0
-742 314 -593 0
839 -45 -596 0
52 -735 -473 0
263 356 -438 0
-315 372 45 0
-357 -120 911 0
26 74 -470 0
493 -233 446 0
884 -857 -352 0
357 -83 122 0
-785 -831 -990 0
-463 972 601 0
-860 145 -572 0
-562 -638 201 0
113 -705 -604 0
-559 13 657 0
-632 78 419 0
773 -707 -511 0
-533 473 746 0
-738 394 -186 0
-938 63 314 0
-740 -26 -609 0
-395 931 -804 0
-511 524 136 0
-542 -193 214 0
283 -885 973 0
675 676 329 0
-787 895 -398 0
-77 376 -316 0
566 -673 993 0
-524 -549 112 0
-992 -884 780 0
730 -12 -619 0
449 -108 589 0
660 980 64 0
-62 -829 565 0
-749 -972 613 0
-78 -103 588 0
986 -624 983 0
-417 -677 698 0
621 -771 -473 0
-41 -806 613 0
55 474 -425 0
-117 -63 -300 0
273 -420 266 0
595 50 691 0
35 587 -102 0
-956 551 902 0
-199 28 843 0
-355 -687 285 0
-110 -47 -323 0
20 -342 508 0
-721 665 -669 0
708 610 -422 0
695 -765 -407 0
-210 -752 999 0
478 -482 914 0
-90 -198 -461 0
-238 -466 112 0
-372 -55 491 0
413 -348 -499 0
802 244 -723 0
-783 -344 359 0
429 -18 -274 0
-298 -179 -564 0
891 306 -571 0
-571 -455 819 0
-914 941 943 0
-434 -631 900 0
644 -596 732 0
-148 -598 -124 0
-847 -815 394 0
347 -393 -208 0
-521 -858 -968 0
491 -739 334 0
-217 -988 878 0
446 188 414 0
590 -632 233 0
-332 -396 -709 0
903 -445 730 0
777 397 -956 0
772 614 -430 0
910 85 -774 0
426 -685 287 0
-427 560 154 0
-514 -346 -734 0
-674 304 -80 0
689 288 733 0
533 -762 164 0
732 -675 -684 0
-705 194 -491 0
283 -774 525 0
-561 -434 504 0
-608 381 530 0
-829 991 -659 0
612 318 20 0
291 -812 -464 0
-178 981 618 0
-762 637 491 0
780 -862 -276 0
221 349 321 0
-418 661 -529 0
657 20 -949 0
-549 -673 -917 0
388 -871 833 0
344 930 -611 0
-246 -310 -222 0
761 -334 175 0
4 28 452 0
-169 385 508 0
477 181 565 0
236 -179 288 0
289 734 -253 0
-89 576 473 0
-257 -107 -553 0
-942 -197 -89 0
-779 20 322 0
-112 -673 202 0
884 -654 780 0
525 49 955 0
776 -248 299 0
-478 516 -568 0
233 945 -486 0
389 452 73 0
-345 -420 198 0
503 -738 696 0
731 283 864 0
184 151 580 0
243 -838 -945 0
587 380 -555 0
-332 676 395 0
837 131 809 0
-288 -677 636 0
-19 593 981 0
178 -706 -785 0
-19 625 -747 0
-409 831 -638 0
-834 616 468 0
27 154 905 0
254 36 -621 0
695 949 -584 0
678 42 74 0
-610 714 -71 0
-808 494 -333 0
-655 -354 -705 0
-997 148 -14 0
12 -892 -852 0
-559 -754 439 0
367 -807 -884 0
634 394 931 0
-722 -634 307 0
-491 198 -445 0
-159 -141 285 0
-202 758 -730 0
853 -901 -283 0
332 34 925 0
-522 -143 444 0
-988 514 517 0
-918 731 420 0
373 -920 303 0
-679 687 -585 0
-145 817 821 0
-16 231 327 0
-721 -376 19 0
-531 -785 -206 0
-398 -281 638 0
-670 -961 -139 0
-552 -839 -471 0
-223 761 -280 0
-780 52 765 0
-205 416 -146 0
545 671 -32 0
170 -493 234 0
-613 250 184 0
529 -250 -816 0
-108 637 -697 0
-752 -834 228 0
-387 860 853 0
-544 354 262 0
-863 -823 335 0
-818 890 204 0
-703 701 -738 0
-511 -588 -660 0
-113 884 517 0
-459 -576 685 0
-863 292 581 0
470 -323 122 0
217 -203 784 0
-244 -709 108 0
347 947 451 0
142 -425 634 0
-391 -296 -359 0
-636 299 746 0
-873 140 -812 0
-202 -324 402 0
-325 499 609 0
322 696 496 0
836 -335 -262 0
-174 586 335 0
-199 552 538 0
-824 -264 -72 0
-443 -416 -352 0
-725 554 432 0
-261 178 624 0
-89 -67 149 0
-447 -241 -966 0
-571 -961 60 0
-742 876 935 0
280 -768 -293 0
-188 272 -13 0
-616 -337 -990 0
62 -904 204 0
85 -711 -912 0
-991 -529 74 0
-254 -685 647 0
147 726 -202 0
271 998 328 0
-120 782 127 0
-93 840 -913 0
-607 -787 -930 0
-233 -787 53 0
-947 -843 206 0
7 -346 833 0
850 654 -587 0
-659 -382 -102 0
-158 -73 -451 0
-529 -860 -503 0
-371 297 628 0
-661 -63 -563 0
799 -797 674 0
-233 -453 657 0
-870 538 -177 0
76 820 322 0
561 -371 -624 0
-654 -839 -740 0
66 939 -711 0
814 46 -381 0
-222 793 -118 0
-614 48 -449 0
-934 895 729 0
-335 -190 145 0
-346 211 -189 0
845 111 202 0
799 -991 591 0
997 976 -810 0
-952 721 55 0
-934 851 528 0
875 328 497 0
-676 -178 -962 0
-977 -791 -834 0
775 271 -19 0
-621 -485 -498 0
-375 258 -748 0
-207 -720 -420 0
111 -49 583 0
-400 233 442 0
679 -55 316 0
87 -576 -4 0
-605 -936 -140 0
-161 -10 -389 0
-634 747 463 0
17 750 -65 0
-434 -39 516 0
-79 544 78 0
95 -341 -451 0
-893 512 445 0
-873 928 596 0
-92 -789 -398 0
-248 390 -707 0
-415 -954 -607 0
-235 425 -914 0
-439 279 459 0
-677 -449 362 0
140 442 -5 0
625 571 299 0
591 -252 21 0
363 -163 261 0
822 -595 383 0
-127 -358 306 0
-929 231 -3 0
89 -445 -361 0
-588 745 -19 0
509 -345 -604 0
-142 -860 -148 0
-87 120 731 0
-980 -98 -340 0
-533 637 334 0
920 398 -535 0
-786 968 250 0
-935 -197 -94 0
500 976 -333 0
-721 -656 -959 0
622 -307 401 0
-457 611 550 0
-618 155 -935 0
405 -885 941 0
-624 -236 129 0
-408 -442 -172 0
-547 -601 603 0
589 -282 -555 0
528 -523 901 0
-196 817 223 0
-910 527 322 0
-442 -659 -793 0
-876 -792 895 0
-976 -432 412 0
73 -577 305 0
367 124 562 0
636 760 788 0
138 -972 -893 0
863 972 -635 0
-99 7 407 0
404 567 -997 0
-858 -434 -307 0
-116 -516 737 0
-219 572 -123 0
996 -742 -629 0
-516 -346 141 0
748 504 93 0
-314 -42 878 0
956 647 -159 0
-849 -377 577 0
-704 675 53 0
223 830 -347 0
612 342 43 0
-881 499 -612 0
587 -516 60 0
-802 -170 -28 0
429 141 302 0
129 270 115 0
216 238 -411 0
-978 500 647 0
-700 830 -285 0
-189 401 -513 0
-612 -939 388 0
-418 688 998 0
-41 -728 938 0
-755 -805 261 0
-565 955 110 0
863 723 536 0
329 226 -511 0
165 -98 383 0
-978 -202 609 0
-435 731 -909 0
867 77 -512 0
-822 -891 -676 0
122 889 485 0
-723 -786 -430 0
-142 -547 -113 0
-559 -927 950 0
65 -6 -777 0
965 51 -833 0
734 -752 -860 0
-634 923 -310 0
-969 526 376 0
80 425 13 0
701 -95 741 0
982 955 -453 0
838 -33 -11 0
-728 -151 357 0
-908 -975 949 0
74 -62 63 0
-713 490 -525 0
-242 744 135 0
787 208 -272 0
385 894 499 0
-749 165 479 0
815 897 -892 0
117 -844 -71 0
745 136 907 0
-688 124 889 0
-243 927 -197 0
498 915 -978 0
323 316 424 0
466 496 660 0
800 437 -790 0
-911 513 -995 0
795 -562 -781 0
-650 144 95 0
-11 -46 342 0
153 -516 292 0
-89 -778 -219 0
-341 -475 -14 0
-420 140 811 0
-330 202 -473 0
-676 -243 -460 0
567 -883 -397 0
869 -163 272 0
751 -95 -595 0
835 -298 -601 0
-144 -558 -251 0
-250 -368 -796 0
-349 83 468 0
88 -841 -30 0
-981 775 66 0
-537 763 345 0
-292 -973 173 0
337 901 785 0
-230 -404 162 0
740 876 946 0
-105 124 -830 0
501 82 446 0
-349 341 -977 0
251 -136 121 0
310 577 394 0
320 -910 2 0
363 -840 -279 0
108 -920 773 0
-763 796 -871 0
106 607 -600 0
903 349 228 0
-386 471 -456 0
-573 -14 -442 0
397 -806 47 0
-252 103 -586 0
91 -231 195 0
7 -316 -403 0
157 176 991 0
682 377 519 0
-335 -607 9 0
-719 -24 375 0
716 -727 -578 0
591 345 -137 0
-390 -123 -718 0
343 266 -340 0
824 -263 197 0
-136 -604 707 0
882 170 161 0
184 56 -807 0
-343 117 -181 0
-907 -467 558 0
-651 177 196 0
-843 -792 448 0
-928 -630 840 0
253 -783 330 0
802 561 -854 0
-101 694 -899 0
226 -701 -668 0
-595 -563 188 0
321 406 -815 0
883 -35 295 0
433 790 710 0
-34 -690 -575 0
-816 853 810 0
820 -298 -819 0
-692 15 412 0
-395 -764 -599 0
33 173 595 0
214 586 -878 0
-668 744 -189 0
-475 474 -200 0
779 123 49 0
-757 -677 239 0
-461 387 -897 0
545 166 281 0
-148 173 431 0
-121 229 -808 0
-76 -240 -409 0
-121 191 -413 0
80 -10 -371 0
583 476 639 0
36 440 -607 0
-303 -336 -33 0
900 486 483 0
51 363 -707 0
324 662 -35 0
-661 60 692 0
-307 68 -484 0
815 177 478 0
-127 814 140 0
98 228 166 0
575 -417 -91 0
831 790 -858 0
906 -466 -446 0
-207 208 -794 0
-337 -534 -600 0
985 -198 760 0
313 -364 -318 0
-462 110 456 0
-126 -326 436 0
-127 -664 933 0
247 -77 601 0
453 144 -382 0
986 -61 723 0
396 420 386 0
-846 -581 570 0
676 962 256 0
145 483 -478 0
-260 238 -543 0
847 1000 844 0
-628 -447 931 0
-413 -184 727 0
629 758 -686 0
892 -140 381 0
-412 -962 469 0
527 -219 -968 0
-394 -721 -383 0
196 -411 828 0
-856 -687 630 0
-57 550 -984 0
188 498 -543 0
-863 -221 -270 0
419 -725 326 0
966 -472 392 0
385 512 -829 0
-945 119 -395 0
108 366 -217 0
551 951 -947 0
-869 -301 866 0
-39 656 -438 0
889 -587 -774 0
-959 839 81 0
-507 -753 181 0
366 -494 -304 0
-676 237 965 0
485 -155 158 0
-123 -309 -103 0
631 -176 389 0
-172 -379 -550 0
389 873 579 0
-118 -165 -968 0
304 966 25 0
-560 778 174 0
-948 -647 -534 0
68 624 -442 0
100 -343 310 0
-741 816 -751 0
880 -934 226 0
-165 580 -229 0
-816 -106 -832 0
633 -660 257 0
-85 103 -829 0
869 -670 -336 0
-547 -472 -854 0
-945 -847 735 0
287 164 673 0
-379 688 22 0
585 367 504 0
171 914 612 0
-637 830 20 0
784 -121 -776 0
620 330 -60 0
-19 -875 -951 0
-845 23 44 0
-495 -445 231 0
-687 -535 -115 0
80 -398 -669 0
820 489 361 0
-30 -523 -505 0
-913 -353 -640 0
-860 645 -48 0
19 -671 -358 0
-379 -218 -821 0
-456 -123 -217 0
825 -31 909 0
208 179 -584 0
588 102 -985 0
-116 -828 -667 0
-190 835 859 0
992 807 962 0
-552 -929 512 0
866 -971 140 0
155 -727 977 0
972 -181 -33 0
479 835 -965 0
-556 156 501 0
162 -985 523 0
-309 88 4 0
167 -313 -246 0
235 -356 -921 0
-18 -477 -803 0
997 -127 -638 0
-858 136 782 0
449 -51 488 0
-850 682 628 0
-5 -23 612 0
-989 -103 -714 0
-642 -265 -31 0
-267 -84 820 0
-396 677 -907 0
-297 914 809 0
-79 -10 332 0
274 -873 -287 0
897 -639 374 0
-394 777 -914 0
-128 -742 -783 0
246 968 768 0
-581 -518 28 0
828 290 -223 0
728 -16 594 0
238 904 -31 0
24 -337 -903 0
55 927 891 0
-716 724 -304 0
-241 373 670 0
99 142 -117 0
-5 -668 717 0
-400 -771 -193 0
-821 34 110 0
906 661 -638 0
188 358 -975 0
-608 -581 520 0
857 3 -288 0
-167 843 767 0
419 -879 -108 0
-473 520 -987 0
-346 96 -212 0
182 -636 60 0
-161 711 149 0
292 203 -102 0
-639 -137 672 0
234 223 -526 0
921 92 -483 0
498 623 537 0
543 -438 -74 0
-819 939 225 0
-869 542 -19 0
-119 411 -215 0
414 585 642 0
187 780 -699 0
-758 592 -641 0
589 285 -214 0
-25 -53 707 0
-126 18 597 0
-567 -249 64 0
848 -813 -832 0
-331 -497 -832 0
419 526 -180 0
-498 80 -472 0
-357 -823 351 0
973 292 143 0
-663 -567 228 0
-633 948 60 0
-673 -833 -853 0
-907 171 -684 0
-79 41 -943 0
659 267 -115 0
127 755 -641 0
-751 814 494 0
908 -905 170 0
226 -682 -515 0
457 -861 -134 0
391 -449 847 0
888 273 954 0
118 -155 425 0
-115 633 385 0
-702 483 66 0
444 -400 259 0
909 -877 -518 0
-520 417 368 0
350 733 291 0
-142 -991 796 0
884 -912 -911 0
678 516 470 0
80 -683 727 0
939 -786 272 0
-48 -864 -518 0
-347 -102 -934 0
-604 231 871 0
-606 316 -114 0
129 -319 -125 0
719 -918 -766 0
-171 254 73 0
-635 -760 413 0
-652 821 -811 0
212 -331 720 0
79 -652 122 0
390 -624 968 0
192 959 654 0
970 -72 606 0
74 502 -515 0
-648 499 -387 0
584 -444 278 0
-451 155 -295 0
211 -898 -344 0
-880 90 918 0
-39 571 878 0
-542 -674 339 0
-491 -927 606 0
-132 -811 630 0
22 -68 628 0
-630 480 -470 0
14 -692 633 0
-524 -964 -462 0
-626 -445 255 0
-486 723 725 0
763 -206 -313 0
390 437 322 0
407 187 109 0
550 -302 227 0
12 399 -341 0
415 734 896 0
-514 -844 -700 0
265 -549 -596 0
335 26 244 0
-845 -780 315 0
-718 -963 526 0
-585 -880 126 0
187 -631 100 0
-157 -725 320 0
-40 564 525 0
-616 -183 -600 0
-225 -627 245 0
-185 -65 -630 0
995 685 87 0
304 -420 -253 0
408 -519 134 0
-544 850 478 0
905 -941 -711 0
170 -157 770 0
-512 524 406 0
365 367 475 0
-665 -51 -240 0
122 -598 218 0
-444 -11 -993 0
-325 204 -89 0
-782 517 694 0
-39 -293 141 0
-73 627 996 0
-7 -460 907 0
687 395 474 0
-184 550 -283 0
266 604 396 0
597 -799 358 0
-552 -607 -311 0
-756 -744 -146 0
-75 97 -817 0
496 949 454 0
141 940 109 0
-85 970 -195 0
185 -585 -423 0
441 105 934 0
250 -960 97 0
-285 -256 -798 0
162 323 84 0
-506 554 -471 0
931 -887 -34 0
-183 782 772 0
897 -444 -768 0
-219 306 -762 0
-853 747 -467 0
-980 369 661 0
-490 259 -302 0
49 -904 -788 0
-146 -424 586 0
495 -672 -260 0
-268 -991 38 0
259 -814 -164 0
681 -815 723 0
-552 -892 309 0
728 9 -425 0
-818 943 12 0
-977 -864 72 0
-329 -172 -315 0
-624 183 53 0
719 913 408 0
35 -441 -167 0
741 -809 -447 0
-490 204 638 0
-447 -47 182 0
-290 846 649 0
-402 319 -858 0
659 -221 -96 0
-59 -629 -300 0
553 364 -390 0
-525 -848 945 0
585 -130 -330 0
-551 -62 -878 0
31 -503 853 0
-38 -532 -956 0
959 345 192 0
701 -81 74 0
-687 975 659 0
-84 895 579 0
-159 -517 -864 0
737 787 -253 0
244 578 283 0
508 648 -223 0
-2 725 378 0
134 635 313 0
881 -459 886 0
189 -55 626 0
97 391 538 0
578 641 26 0
-815 219 -711 0
750 -964 -163 0
-577 -80 453 0
711 580 -568 0
443 139 -234 0
766 712 316 0
681 -272 -903 0
363 -562 -811 0
-698 -747 -399 0
-87 -514 -77 0
-930 820 -325 0
844 -435 602 0
-10 -32 824 0
94 -82 339 0
292 9 236 0
148 -188 838 0
968 -572 883 0
-736 941 650 0
-162 -803 333 0
-376 316 -926 0
718 -532 643 0
737 652 367 0
17 -220 879 0
-947 -736 535 0
438 -12 533 0
-461 -489 5 0
752 335 108 0
95 -4 379 0
855 -861 -807 0
-52 262 531 0
-883 434 -672 0
-850 -273 -483 0
-340 -206 -797 0
985 -986 447 0
-129 -309 -205 0
-23 479 739 0
-223 -959 -973 0
-686 633 -601 0
-458 -668 -256 0
-303 656 -972 0
707 897 -537 0
275 592 -175 0
-775 906 588 0
794 -611 770 0
-728 572 487 0
699 -707 -556 0
73 507 -149 0
619 -298 850 0
-688 746 -384 0
236 -380 -557 0
-629 -950 -977 0
700 594 798 0
-836 -985 114 0
-892 839 -660 0
-892 551 518 0
-209 -84 -286 0
-471 24 -158 0
949 -507 514 0
244 444 1 0
-22 918 -925 0
-46 199 126 0
788 -663 -5 0
529 937 -191 0
-671 66 351 0
-106 -218 -270 0
-477 -590 -74 0
508 863 235 0
-514 -961 -121 0
179 622 -540 0
723 -492 12 0
-695 601 528 0
-870 -601 -483 0
546 -949 -18 0
-544 -983 493 0
72 -439 722 0
494 -492 -103 0
461 537 24 0
-78 39 -557 0
818 154 550 0
343 799 160 0
488 -6 -14 0
124 239 -824 0
-206 152 772 0
-825 -833 245 0
-235 332 802 0
-558 364 -837 0
-312 59 -690 0
696 290 115 0
-236 455 25 0
340 351 -634 0
-973 349 -429 0
-598 876 -980 0
261 43 263 0
-935 911 87 0
79 -958 -676 0
873 638 804 0
248 658 -481 0
-757 -561 -864 0
-701 -134 971 0
-486 -104 117 0
-800 -346 -784 0
-654 227 86 0
407 -328 430 0
-62 -338 -253 0
-934 298 -953 0
-490 -414 -306 0
773 616 -555 0
-364 77 990 0
274 954 -718 0
647 -785 -440 0
-62 360 -483 0
-164 -171 -4 0
818 69 -600 0
-713 -688 -800 0
-283 -688 807 0
-923 505 -990 0
264 -426 677 0
42 -445 539 0
239 -647 420 0
-230 -55 -39 0
-68 -747 -636 0
-524 -980 -55 0
-462 -613 -282 0
114 -189 537 0
-675 -748 842 0
21 -610 -274 0
754 -529 284 0
887 232 549 0
-522 -736 -614 0
626 -996 775 0
-418 -735 459 0
-567 259 784 0
-30 -102 -92 0
998 -765 121 0
76 512 -561 0
-23 -356 -186 0
167 426 -826 0
-855 -499 834 0
-945 912 -807 0
-280 -814 954 0
-930 -964 707 0
13 904 432 0
-723 -22 -652 0
-768 993 -270 0
555 167 -344 0
314 538 -383 0
-894 -642 -602 0
-784 596 224 0
-540 489 -610 0
-646 -357 -720 0
-921 834 20 0
202 673 34 0
-221 -56 851 0
173 -867 -71 0
-430 -673 155 0
100 474 -167 0
-371 -154 -568 0
873 -659 903 0
40 72 19 0
943 32 761 0
296 -837 738 0
-359 377 15 0
513 14 238 0
776 98 731 0
-461 -222 -656 0
-104 -735 433 0
-879 -322 200 0
-480 -909 -373 0
-860 -422 -244 0
-615 922 413 0
-322 -329 833 0
913 373 60 0
315 -149 -474 0
930 757 -351 0
-66 -972 446 0
619 458 -777 0
184 24 989 0
-219 80 532 0
286 -971 409 0
412 633 -253 0
-121 -10 -427 0
-425 -102 -561 0
-854 614 -882 0
-835 151 935 0
-138 17 -775 0
975 -284 424 0
-620 -476 -348 0
-695 -513 726 0
441 814 490 0
650 -625 488 0
704 -387 639 0
-58 195 -926 0
901 304 -292 0
427 -711 -542 0
8 604 -577 0
-214 -462 -232 0
-606 -679 494 0
-789 973 979 0
153 -804 766 0
-246 361 -282 0
347 607 553 0
654 -778 716 0
352 -152 775 0
-460 -756 567 0
439 754 -471 0
-642 -973 -245 0
-581 505 -333 0
-680 859 -233 0
249 -78 747 0
-145 -172 802 0
982 -15 821 0
668 -129 -335 0
979 -127 387 0
-23 -258 -856 0
-670 331 314 0
-660 -970 449 0
146 194 909 0
657 281 127 0
-694 790 962 0
563 258 -281 0
-157 745 530 0
80 957 -658 0
671 849 495 0
888 652 -115 0
877 -183 -155 0
-299 871 -325 0
-454 803 -101 0
798 138 69 0
-82 -457 424 0
-518 -312 156 0
135 5 788 0
-717 -978 -639 0
-308 -552 594 0
-35 -655 347 0
-992 311 777 0
-440 -725 723 0
-763 363 -986 0
-76 -833 115 0
432 -117 955 0
-167 -704 351 0
-291 943 -408 0
-582 396 671 0
-351 -838 -668 0
141 612 827 0
404 748 -187 0
651 404 -63 0
351 54 173 0
-161 219 928 0
851 126 895 0
-549 -581 650 0
-232 -340 895 0
-291 -359 865 0
-450 -476 126 0
-303 -471 658 0
-999 -986 252 0
-800 709 889 0
335 -662 -935 0
-781 -90 764 0
-294 855 -601 0
-193 282 -682 0
-782 -783 -767 0
156 705 847 0
991 -718 463 0
937 288 127 0
890 -395 -363 0
-933 -106 -358 0
-621 -520 928 0
-253 581 947 0
26 101 233 0
211 -870 606 0
-979 917 -115 0
-180 -548 -19 0
424 -144 -146 0
-987 -481 -546 0
-265 64 -904 0
411 -944 358 0
-108 148 -503 0
-228 222 -815 0
962 159 -205 0
-944 992 627 0
589 -829 -129 0
860 191 185 0
709 118 -337 0
346 159 629 0
894 704 -686 0
881 484 -221 0
-883 -773 269 0
-312 126 748 0
-92 -605 282 0
677 -958 -616 0
-50 -287 585 0
-310 49 24 0
-253 627 -836 0
850 -49 -135 0
-710 -569 -42 0
-917 589 -103 0
-88 807 441 0
-163 366 -734 0
474 -588 -997 0
216 -767 -642 0
-833 -838 834 0
521 -208 -706 0
35 -535 380 0
52 683 -958 0
152 -4 -96 0
796 289 885 0
-71 -824 87 0
-627 361 790 0
671 -298 -230 0
174 -911 416 0
-98 937 765 0
584 -634 328 0
510 -267 394 0
469 298 -521 0
-920 -125 442 0
476 466 -407 0
-535 -261 -822 0
-318 96 683 0
-761 -849 910 0
394 -781 -104 0
-79 217 -35 0
800 -463 -765 0
293 -566 -604 0
819 -839 208 0
-932 -530 -747 0
188 -128 -383 0
-242 -837 -395 0
-489 575 81 0
-579 -857 525 0
589 -300 554 0
470 818 -390 0
101 742 840 0
-781 39 -591 0
489 -589 -440 0
-446 -132 -113 0
910 370 -332 0
-621 469 115 0
-842 244 392 0
523 -153 -803 0
203 -561 -831 0
-301 -763 -482 0
297 -957 -710 0
-789 262 40 0
-238 -291 -985 0
41 -754 -401 0
-643 688 393 0
-816 -17 98 0
308 -591 790 0
-151 -902 -189 0
259 -225 -197 0
480 -461 869 0
268 -999 312 0
-764 -361 -216 0
-138 -540 677 0
831 -160 -211 0
-762 57 -617 0
-285 -823 -29 0
254 -310 -791 0
-404 702 713 0
-894 -453 -423 0
-545 98 -202 0
755 -674 315 0
-467 -266 -516 0
872 -60 -641 0
367 -524 820 0
328 150 -648 0
245 -970 802 0
470 908 -669 0
526 875 374 0
507 -704 757 0
-581 399 741 0
-651 -73 912 0
-52 -451 851 0
-839 -714 -580 0
202 -19 -653 0
343 -939 -297 0
-626 -193 -617 0
-929 -85 -533 0
619 29 -171 0
-356 -634 -615 0
882 545 -369 0
-28 410 691 0
706 430 470 0
216 -803 -668 0
-647 70 -423 0
994 -914 -659 0
867 80 -500 0
899 876 -157 0
-714 542 -409 0
880 -878 -444 0
-181 250 -449 0
299 -885 781 0
48 26 515 0
-748 996 314 0
54 625 -356 0
516 927 410 0
-62 44 -562 0
-403 439 -230 0
-5 -364 -848 0
-796 -667 -314 0
-780 -857 693 0
147 949 372 0
-74 391 -104 0
-797 468 772 0
87 468 904 0
-714 930 448 0
-553 542 773 0
402 -349 591 0
-362 766 771 0
-607 -444 -855 0
-505 702 -386 0
-300 -719 2 0
891 105 -543 0
533 300 235 0
569 -945 -628 0
-959 825 593 0
86 -684 339 0
277 492 638 0
68 -270 -738 0
-124 -560 -274 0
456 -11 -487 0
165 -424 598 0
821 -625 159 0
747 -155 685 0
794 -675 -730 0
424 156 322 0
-695 -446 87 0
-467 862 -563 0
940 629 751 0
-364 -284 -96 0
-339 -787 572 0
-729 769 -985 0
-566 -358 -341 0
-163 506 -928 0
408 -891 647 0
-31 884 -295 0
-461 -284 189 0
-922 3 -667 0
886 678 -787 0
372 -69 -99 0
216 725 454 0
-185 -772 988 0
235 969 -838 0
666 319 -770 0
320 633 -636 0
-360 -315 -240 0
-924 -519 511 0
-814 366 705 0
19 -600 -508 0
980 253 571 0
185 86 -246 0
31 -568 409 0
295 -208 816 0
13 35 -838 0
50 258 -631 0
738 707 -835 0
-897 -403 513 0
-18 269 -377 0
806 -104 -271 0
-905 -933 550 0
174 443 995 0
-741 380 -883 0
92 488 -25 0
-547 102 670 0
872 -354 -370 0
-746 -488 -546 0
-576 -152 -421 0
250 -325 247 0
745 -65 -74 0
968 542 -945 0
698 -163 140 0
622 -637 -206 0
348 -482 457 0
-565 480 364 0
-192 602 -963 0
488 -216 -845 0
254 506 -944 0
585 -151 952 0
142 -3 -50 0
-708 -310 -341 0
-771 -288 -293 0
813 803 256 0
-318 -603 -518 0
-296 563 -923 0
993 -478 -795 0
-670 331 -55 0
-849 358 669 0
840 -454 -123 0
-303 -788 -857 0
630 660 771 0
154 -296 813 0
-237 -312 960 0
865 167 7 0
6 248 499 0
939 451 186 0
892 535 951 0
78 228 792 0
-172 497 -336 0
418 879 737 0
-762 987 -291 0
401 118 -800 0
442 -238 685 0
138 612 94 0
107 -463 -580 0
263 465 -219 0
829 886 -715 0
240 427 112 0
-651 992 978 0
800 -215 933 0
494 -356 30 0
-414 183 161 0
-469 -377 171 0
597 -505 -111 0
-775 -787 528 0
-246 -568 889 0
43 -589 397 0
20 401 652 0
181 921 -807 0
172 272 623 0
37 -663 -713 0
-208 -729 173 0
-533 523 -953 0
-713 963 -908 0
838 -388 904 0
478 672 -130 0
-758 -696 -877 0
-408 462 331 0
-580 -3 381 0
-377 -127 -191 0
-283 -364 529 0
98 -904 -217 0
-377 65 -608 0
526 -432 -769 0
-347 -976 -961 0
-385 -78 -432 0
-767 -321 706 0
995 -716 -736 0
-967 707 103 0
667 688 -149 0
435 901 -646 0
-493 -723 -325 0
-943 -132 501 0
-619 870 -545 0
-348 -31 -423 0
990 204 185 0
-707 831 -670 0
690 -455 -18 0
355 -855 770 0
-359 -709 623 0
919 -460 626 0
461 560 262 0
571 -346 -539 0
-798 931 863 0
-308 927 629 0
-703 -13 -159 0
-490 641 -424 0
-538 287 116 0
716 -843 342 0
214 967 398 0
-505 -805 -820 0
-139 562 -40 0
481 -952 -382 0
357 815 -427 0
538 -937 575 0
-22 -153 625 0
-140 843 -621 0
-892 -463 95 0
690 109 635 0
-910 -296 -135 0
-893 580 961 0
-903 376 -542 0
865 -102 -649 0
-235 -863 -400 0
232 -650 -155 0
467 951 130 0
-178 -11 -560 0
41 85 -717 0
-946 -292 -208 0
176 -959 351 0
-984 473 -440 0
792 -250 89 0
240 -596 817 0
-996 965 -941 0
490 -788 3 0
874 -730 -706 0
839 696 71 0
-262 -53 -179 0
-853 623 -441 0
-629 500 769 0
460 -569 -750 0
-692 -884 -772 0
-491 342 16 0
954 435 -239 0
-546 216 -70 0
334 283 -943 0
983 320 -752 0
584 641 -230 0
-971 -991 850 0
-407 146 -558 0
-109 927 94 0
-634 190 -457 0
-796 321 736 0
-275 373 -407 0
129 478 -312 0
362 -665 -888 0
675 -12 -810 0
773 -43 -197 0
463 -116 -600 0
437 -944 958 0
-798 -701 -233 0
456 -454 -950 0
885 958 -936 0
674 -783 691 0
-626 913 -679 0
-340 -42 978 0
315 -303 -885 0
-299 83 -365 0
95 -858 545 0
-9 500 942 0
780 69 475 0
205 135 268 0
-546 305 -72 0
155 -8 323 0
243 960 -984 0
-596 367 -481 0
-431 -967 425 0
900 -351 472 0
-450 572 -819 0
-419 869 -142 0
-204 734 -179 0
502 500 121 0
478 409 -573 0
-671 -599 -384 0
663 421 -742 0
-725 -211 -176 0
894 -598 185 0
-375 644 669 0
-258 412 203 0
-313 -627 932 0
38 -513 979 0
510 -836 -180 0
706 174 -14 0
-324 392 -348 0
-195 147 266 0
387 -622 -403 0
29 189 46 0
386 876 -358 0
-90 -868 905 0
350 -636 46 0
528 409 944 0
890 -979 990 0
297 -34 592 0
563 735 740 0
-697 -981 -417 0
-145 -206 913 0
-180 -357 750 0
421 -543 804 0
331 501 12 0
483 879 -754 0
881 305 -92 0
-628 -410 647 0
161 528 822 0
706 -568 -16 0
779 -564 481 0
896 689 555 0
-150 -994 321 0
161 160 -648 0
-498 637 -517 0
-539 536 149 0
-557 338 -998 0
163 -661 822 0
-302 -351 552 0
-937 203 -926 0
979 475 303 0
961 111 -499 0
933 742 464 0
-228 347 425 0
708 980 266 0
-776 624 833 0
-247 602 29 0
197 -122 -29 0
329 514 -547 0
-170 641 -361 0
319 936 649 0
547 588 -264 0
89 84 569 0
781 227 663 0
893 590 661 0
-626 785 -16 0
-386 -390 978 0
996 317 -985 0
361 100 179 0
-541 244 857 0
590 492 -791 0
-465 56 904 0
861 310 739 0
-921 244 599 0
676 -674 -965 0
337 552 864 0
624 58 -326 0
156 -194 834 0
-156 788 -76 0
-752 26 -940 0
100 -289 -58 0
-476 -977 -499 0
-656 -835 -668 0
-451 861 -864 0
-980 213 -557 0
582 -155 508 0
964 -581 44 0
-668 178 111 0
-675 923 -47 0
353 504 -690 0
534 307 18 0
-159 -755 104 0
-381 506 -134 0
-641 712 438 0
589 -104 408 0
-97 -963 322 0
-576 632 822 0
916 -629 83 0
197 633 -694 0
962 959 -866 0
-153 348 -839 0
-669 41 340 0
743 256 -537 0
-118 24 -684 0
-339 -542 738 0
917 888 520 0
-940 -472 -672 0
-935 -829 -774 0
431 190 -295 0
-538 -7 750 0
-369 -360 -1 0
-994 897 451 0
922 692 490 0
-581 33 -803 0
367 546 484 0
137 144 -217 0
-558 737 -395 0
149 -225 -602 0
712 -119 747 0
-244 -574 927 0
194 -341 198 0
-696 -856 -791 0
-792 893 -135 0
-204 825 638 0
-187 -835 552 0
-340 -954 227 0
-473 311 334 0
359 -381 -872 0
-669 -954 -935 0
-40 956 -498 0
-578 -77 -998 0
-143 -50 711 0
-905 -223 570 0
811 -212 -140 0
-156 853 -539 0
-160 -724 322 0
-3 990 764 0
843 78 500 0
15 425 386 0
-196 86 863 0
778 573 -990 0
723 -747 406 0
729 403 -85 0
661 -37 -908 0
-35 -947 961 0
444 830 579 0
135 853 513 0
-331 329 436 0
-55 866 156 0
-684 78 319 0
-134 284 394 0
440 874 -427 0
325 347 -922 0
-120 20 -55 0
-338 202 892 0
-26 -322 -68 0
25 828 172 0
-360 906 374 0
807 446 547 0
917 940 -669 0
-988 786 348 0
-6 -187 -381 0
860 221 5 0
-376 -112 -841 0
-443 896 994 0
386 459 -102 0
279 52 -844 0
884 -142 302 0
884 15 944 0
-725 -686 897 0
567 -504 -727 0
-218 -928 325 0
647 -339 971 0
-645 457 -13 0
-592 956 -433 0
388 588 -12 0
389 -165 132 0
529 -767 -798 0
-391 -957 615 0
811 -987 10 0
595 347 -142 0
776 -804 -28 0
909 -933 370 0
-457 -932 -71 0
493 -311 -852 0
502 408 503 0
-469 54 -371 0
813 800 141 0
-384 712 143 0
-223 582 40 0
-765 -634 910 0
-345 80 865 0
-22 363 -120 0
-507 -829 900 0
-915 -317 497 0
428 235 -418 0
-296 615 898 0
-46 826 -741 0
-834 625 -26 0
933 -279 -127 0
118 109 -865 0
-533 -338 -353 0
-813 507 198 0
644 816 837 0
659 335 -505 0
-678 -532 357 0
-869 884 -750 0
-997 632 -308 0
-93 260 -400 0
-395 -586 -54 0
-91 -481 -777 0
-607 -362 573 0
208 725 50 0
-408 -351 856 0
134 -475 -403 0
-62 487 101 0
-982 -838 104 0
-228 -944 352 0
256 196 -899 0
141 -463 -358 0
-388 512 575 0
370 499 21 0
-20 673 -694 0
110 188 -103 0
-67 202 85 0
-165 739 207 0
426 105 381 0
517 -263 -51 0
-934 -57 101 0
-587 998 447 0
967 747 -429 0
854 -138 -532 0
-848 -328 -738 0
613 853 732 0
-301 87 414 0
74 -924 891 0
-279 803 -633 0
-122 226 57 0
579 -29 567 0
331 974 668 0
-347 85 466 0
-254 421 892 0
495 306 -300 0
-672 -478 -288 0
769 -564 -307 0
339 678 -698 0
278 -209 101 0
-196 -798 385 0
776 305 66 0
-88 412 452 0
299 -957 300 0
137 549 679 0
553 -893 199 0
362 -250 241 0
247 -331 -324 0
691 -743 673 0
775 667 646 0
468 751 323 0
-389 298 -288 0
628 81 -695 0
-603 -378 98 0
-801 -155 768 0
682 -888 290 0
-292 915 -499 0
416 -939 122 0
-649 683 786 0
-364 -953 -781 0
-644 -628 -382 0
-873 170 944 0
265 -859 -212 0
586 958 620 0
826 820 -43 0
23 562 828 0
967 -678 -821 0
-344 276 -552 0
48 -381 -296 0
-622 508 -710 0
-49 -4 -446 0
-464 914 921 0
-311 -769 1000 0
724 -473 -613 0
-565 -229 537 0
-897 -340 658 0
-308 877 -77 0
-391 -504 703 0
780 193 -721 0
-146 -493 873 0
512 910 -990 0
313 -232 441 0
157 -427 841 0
351 492 -178 0
689 490 -367 0
-950 190 640 0
308 -909 -739 0
-543 849 -858 0
-461 998 491 0
504 505 -289 0
200 -38 911 0
292 -742 197 0
671 -951 124 0
-735 -113 -857 0
-205 20 158 0
-829 -620 -433 0
-85 -538 -110 0
955 -241 -753 0
-504 256 -819 0
-527 125 968 0
-478 -137 -656 0
-303 -804 -175 0
771 124 426 0
16 -507 -737 0
-700 392 -850 0
-616 -977 972 0
903 925 250 0
-449 818 -119 0
-827 48 276 0
828 -733 251 0
234 -113 507 0
327 208 -588 0
-661 -504 -409 0
-724 -544 418 0
715 -177 228 0
-128 419 -681 0
427 -576 465 0
696 637 363 0
-171 -654 478 0
294 337 -584 0
-997 -79 -256 0
821 818 -916 0
-995 -317 122 0
641 -588 844 0
-768 612 -357 0
893 395 441 0
-446 -77 -764 0
552 -469 -789 0
-240 -472 174 0
460 73 -182 0
-331 -12 749 0
-264 118 -562 0
953 -509 113 0
-330 294 -748 0
-627 86 437 0
-16 -667 -529 0
-443 991 19 0
469 537 -557 0
-935 -575 -570 0
334 202 318 0
511 480 401 0
847 334 975 0
-952 -80 -881 0
-946 -389 -670 0
-615 -385 910 0
858 -846 140 0
456 -102 -626 0
405 -85 581 0
377 -617 923 0
-371 89 846 0
971 -455 -789 0
-360 -859 925 0
494 310 582 0
868 955 400 0
-963 379 199 0
-385 466 919 0
-546 201 394 0
-73 739 -579 0
783 901 12 0
704 74 -26 0
788 772 373 0
-225 353 -135 0
-593 217 -707 0
-808 214 17 0
-622 -708 572 0
-131 -801 441 0
-227 -750 -571 0
372 -747 838 0
905 145 92 0
-755 662 -229 0
-142 -306 -770 0
141 -532 767 0
-550 -833 -411 0
761 -829 -81 0
-670 152 -25 0
595 -295 -672 0
622 -121 -217 0
-154 -830 -909 0
-554 336 -940 0
37 956 -642 0
950 527 -302 0
7 -53 -300 0
420 984 -823 0
952 87 432 0
348 638 -825 0
-903 -274 57 0
-941 -314 852 0
213 -32 -484 0
971 -988 104 0
-492 969 611 0
27 561 477 0
-265 496 645 0
638 688 -380 0
-789 188 699 0
-464 -653 -616 0
-450 -620 504 0
518 59 -913 0
-13 615 -909 0
412 53 -186 0
-570 207 622 0
-930 -82 -203 0
59 339 -517 0
-693 -980 -356 0
-417 929 -707 0
100 -302 904 0
82 503 739 0
-650 948 779 0
-611 -346 172 0
250 193 869 0
-328 -565 979 0
-805 -777 -684 0
567 872 893 0
531 -288 794 0
-12 348 -938 0
44 684 -885 0
91 169 234 0
27 -877 -843 0
-32 29 126 0
-465 728 -659 0
260 -908 -409 0
-402 363 -596 0
392 901 552 0
-972 -345 -152 0
780 857 23 0
-452 855 400 0
-9 167 -506 0
-302 588 -708 0
196 -123 -861 0
-129 583 213 0
422 -722 825 0
-145 -435 -447 0
569 -308 355 0
-967 -799 -364 0
22 953 722 0
-526 -773 322 0
56 2 707 0
409 397 688 0
-598 -594 -622 0
329 745 -826 0
725 414 -69 0
-622 980 646 0
494 -81 17 0
-651 -554 662 0
746 424 855 0
16 -702 -591 0
653 775 689 0
-720 997 207 0
-274 353 392 0
-291 342 -192 0
-127 -738 -291 0
257 -18 -425 0
738 -403 -64 0
825 -77 -392 0
322 580 -178 0
-289 -793 459 0
-159 -867 204 0
457 -625 66 0
924 34 -834 0
482 54 -410 0
681 696 673 0
-446 -151 -102 0
751 735 -372 0
-99 -421 -801 0
73 -272 568 0
-892 -76 20 0
550 409 -682 0
-601 -401 -225 0
6 45 -253 0
-726 -58 648 0
-152 -897 264 0
965 895 249 0
-463 -341 -585 0
-938 -774 -428 0
886 124 412 0
890 312 -743 0
-532 769 508 0
394 -567 -940 0
-909 -279 919 0
190 -272 -982 0
288 -993 295 0
-203 -460 449 0
-63 511 -481 0
-398 32 -243 0
902 343 -506 0
215 485 904 0
-170 -415 343 0
120 -337 562 0
594 856 735 0
249 -673 699 0
529 -158 576 0
-368 -716 -447 0
-927 976 458 0
-891 357 -63 0
935 49 -810 0
316 391 479 0
582 -702 213 0
-958 -724 -123 0
-205 4 -726 0
-993 -925 437 0
-140 243 515 0
730 551 -758 0
-55 -349 507 0
-293 432 929 0
912 438 -410 0
-437 -491 -501 0
67 -638 275 0
855 237 -864 0
-966 482 -600 0
-639 -634 -566 0
419 221 889 0
774 -148 532 0
601 596 440 0
450 437 -905 0
774 -901 -324 0
-116 -430 246 0
814 719 -330 0
728 600 -173 0
-60 323 -916 0
-894 634 776 0
-618 827 -806 0
-660 614 741 0
360 457 -822 0
422 -751 182 0
-994 -132 126 0
-741 224 -475 0
160 -67 274 0
815 -68 341 0
-142 -685 855 0
801 70 73 0
-695 28 64 0
617 -312 973 0
985 132 319 0
497 -360 607 0
-624 845 -993 0
-604 227 -886 0
633 -298 781 0
592 -176 -498 0
-434 -873 -385 0
-38 732 989 0
-327 -175 -950 0
-956 394 -791 0
389 -346 -873 0
296 -559 163 0
415 -567 342 0
821 -11 -906 0
592 811 308 0
775 602 -322 0
178 303 723 0
-548 -566 650 0
464 929 -593 0
361 -310 -24 0
112 649 -201 0
301 -424 971 0
-83 548 762 0
-916 -684 -154 0
-273 749 559 0
-460 573 -543 0
249 -552 -292 0
992 -616 124 0
-68 526 -467 0
-935 -487 364 0
-716 403 694 0
-681 845 995 0
266 645 -46 0
-149 -334 -339 0
972 -330 -357 0
398 240 -570 0
-393 -641 -430 0
975 368 232 0
606 490 211 0
673 924 68 0
-668 -872 -79 0
-298 587 -12 0
-310 -48 -732 0
-645 -120 -452 0
-608 918 801 0
602 511 -990 0
141 -999 673 0
612 -448 167 0
-302 447 -300 0
486 -654 705 0
-786 436 -733 0
-464 -729 -897 0
652 -977 236 0
-310 252 -950 0
-25 378 145 0
328 -460 187 0
736 196 -667 0
262 210 -872 0
818 191 -880 0
854 10 -516 0
-761 741 -863 0
-463 364 474 0
-117 715 662 0
-711 443 -173 0
-680 95 -233 0
948 -720 775 0
839 813 393 0
-942 938 282 0
588 -666 -349 0
-478 461 -539 0
8 197 674 0
315 313 124 0
786 532 976 0
120 -9 538 0
-229 -554 291 0
-23 2 825 0
-51 -755 774 0
263 -881 -225 0
377 287 318 0
734 186 781 0
326 550 636 0
855 132 -10 0
-52 -196 576 0
-166 546 783 0
-76 -769 468 0
587 405 975 0
-119 803 942 0
326 171 742 0
-963 196 -318 0
-800 -640 855 0
804 -276 780 0
-777 97 -129 0
686 -982 -44 0
-433 -623 -490 0
712 532 -632 0
-110 136 44 0
513 931 -992 0
986 221 484 0
-658 355 -516 0
-446 872 67 0
-962 899 937 0
270 -475 607 0
-76 -413 711 0
230 281 923 0
-902 792 91 0
-14 34 357 0
-567 328 -360 0
-276 634 -932 0
633 -334 163 0
-324 -219 60 0
-342 -377 -838 0
778 864 681 0
148 961 788 0
991 -548 -898 0
-169 16 792 0
832 591 27 0
688 311 755 0
764 -946 -360 0
238 -313 23 0
-707 -131 -920 0
96 -396 145 0
-790 -991 -516 0
212 -147 -315 0
-768 -553 611 0
475 609 -583 0
85 942 80 0
-358 -713 993 0
-978 190 -150 0
-209 -430 519 0
-17 530 648 0
555 -40 -554 0
813 -193 -855 0
-316 789 90 0
621 553 873 0
-728 -110 275 0
-838 -611 -323 0
-173 419 556 0
-252 -686 -1000 0
-600 -733 136 0
51 927 377 0
-770 -277 -389 0
-41 523 -728 0
-437 -184 -160 0
455 896 493 0
54 -985 -532 0
528 932 -667 0
-147 -363 -842 0
-207 -374 -63 0
-894 5 -291 0
-667 308 260 0
-313 -738 229 0
548 -729 301 0
984 291 244 0
-182 338 -782 0
280 976 -388 0
425 -861 -718 0
668 121 -48 0
-257 -664 634 0
917 -212 -852 0
-813 47 -948 0
656 947 -865 0
-284 -822 616 0
-41 -842 304 0
-264 -739 -40 0
547 -282 919 0
261 964 511 0
798 -537 -954 0
-472 -309 -746 0
287 -759 -639 0
-287 -245 535 0
142 -81 -284 0
36 484 631 0
594 -16 729 0
-790 -522 904 0
-334 -405 -805 0
465 -254 349 0
-74 -560 -458 0
-131 -940 398 0
373 910 -48 0
-943 676 809 0
-462 382 -162 0
-139 -236 866 0
-484 -703 -737 0
754 704 374 0
-525 126 -184 0
-263 862 -1 0
511 250 -993 0
69 66 494 0
229 299 284 0
-80 -815 -36 0
-736 -581 -111 0
508 673 -137 0
493 -250 -270 0
-484 -311 -753 0
416 -427 457 0
-902 -107 -319 0
549 -196 871 0
-344 615 346 0
991 77 -85 0
-947 -993 -414 0
-664 333 -95 0
514 -917 -385 0
957 -368 984 0
-597 843 -250 0
-923 -481 726 0
-24 552 -542 0
-368 472 779 0
894 95 -453 0
-33 -711 -854 0
176 708 653 0
-448 203 265 0
864 -201 -85 0
340 895 -988 0
237 369 650 0
687 -675 408 0
807 35 -77 0
-402 769 -492 0
-452 845 881 0
446 233 -784 0
-432 -942 239 0
132 -77 -233 0
-28 -240 692 0
903 609 -510 0
101 544 -858 0
-577 -586 -618 0
566 398 -132 0
-178 -873 -88 0
-156 491 198 0
-39 104 -662 0
-882 -376 -407 0
50 626 -335 0
-212 -424 412 0
299 116 561 0
266 616 239 0
-389 96 -98 0
-641 -485 -743 0
-749 746 -259 0
-979 373 -667 0
-5 -832 -458 0
-725 952 -675 0
-384 -838 845 0
-38 -627 -728 0
106 -609 100 0
-1000 -87 -717 0
-791 -810 379 0
-303 689 996 0
-14 776 95 0
702 156 -45 0
-702 359 731 0
-800 407 600 0
797 270 599 0
709 -384 29 0
983 589 766 0
-550 -500 -478 0
-770 -881 200 0
40 -95 607 0
-266 343 -83 0
-311 -188 412 0
487 -991 850 0
-583 915 -506 0
921 -49 -981 0
-212 -946 -937 0
929 -628 34 0
689 -438 712 0
-652 -913 -548 0
-550 542 794 0
407 20 55 0
-212 -277 737 0
-654 934 -250 0
-999 245 -216 0
579 -681 -410 0
-620 611 764 0
75 971 -981 0
-493 -252 44 0
-100 355 590 0
-172 575 270 0
905 166 457 0
828 733 66 0
381 -630 975 0
454 87 601 0
-281 504 953 0
421 302 410 0
988 415 -981 0
553 -237 500 0
-527 468 449 0
602 -770 -852 0
-649 322 460 0
389 292 152 0
-767 150 464 0
181 334 66 0
207 408 790 0
-934 797 -418 0
-205 316 332 0
739 -69 519 0
59 987 840 0
-798 -296 -295 0
852 87 -722 0
-405 361 474 0
-916 -272 980 0
-39 725 -131 0
255 -142 399 0
-490 -531 709 0
-404 328 176 0
77 245 -600 0
-798 485 -159 0
-87 -472 499 0
-691 -652 -775 0
310 603 -176 0
-542 -338 -743 0
-811 340 -269 0
-800 -971 -832 0
-870 934 458 0
622 660 -470 0
152 251 -19 0
976 236 7 0
-709 303 -478 0
706 531 740 0
-880 536 -251 0
-803 785 645 0
-29 -600 -279 0
77 737 -536 0
226 -801 -879 0
-800 -724 802 0
-423 -389 -27 0
452 574 582 0
37 675 944 0
709 957 -35 0
-134 -790 546 0
-492 926 468 0
636 -432 524 0
-869 -770 -561 0
-645 55 -767 0
272 -575 992 0
-350 330 421 0
-776 527 575 0
-108 -101 -638 0
603 -386 -637 0
-463 153 841 0
-726 -917 -609 0
-390 312 972 0
-851 -780 -408 0
-442 -935 475 0
521 -852 673 0
-643 -301 627 0
-647 994 921 0
100 396 883 0
-760 573 -784 0
826 -594 506 0
416 496 573 0
-649 -971 497 0
-789 -221 -393 0
-916 969 -175 0
177 896 429 0
-527 240 -382 0
-746 103 -843 0
-721 -561 956 0
-933 -269 58 0
997 530 957 0
15 488 806 0
380 723 451 0
705 857 905 0
-28 609 -761 0
192 -129 255 0
541 100 937 0
483 -322 -145 0
258 -613 826 0
-480 774 966 0
-905 796 -617 0
-42 -741 -215 0
-258 245 220 0
-948 427 118 0
-128 -120 -514 0
-231 22 -405 0
537 -727 -134 0
848 569 -762 0
-198 -983 -296 0
509 291 868 0
-498 -477 -794 0
501 810 -924 0
492 -632 -64 0
990 -405 -777 0
-45 -402 793 0
-84 -755 322 0
690 741 -985 0
617 -624 -953 0
491 844 889 0
202 268 -67 0
11 -535 556 0
624 -174 -534 0
45 -55 621 0
284 -294 816 0
21 404 730 0
-17 844 -518 0
60 194 -639 0
-309 887 -388 0
-158 815 673 0
893 -618 940 0
-743 576 569 0
122 -135 -693 0
647 339 -120 0
-703 85 993 0
-226 558 635 0
-854 -800 -455 0
-140 -543 19 0
-835 952 110 0
-279 30 -711 0
-91 -605 -683 0
359 -848 498 0
895 338 179 0
-763 -563 992 0
948 991 -216 0
-661 39 674 0
324 791 906 0
-899 851 585 0
977 -534 -994 0
68 559 -996 0
790 -112 -442 0
54 -462 -162 0
654 -666 625 0
987 142 465 0
988 110 -381 0
-220 -790 -534 0
-954 961 -478 0
-946 -788 -68 0
870 290 677 0
-624 497 180 0
565 -793 -970 0
-950 -530 -944 0
900 -574 -190 0
-402 -290 -11 0
244 879 675 0
-888 315 -854 0
391 -125 404 0
-994 263 -928 0
-29 -572 538 0
-921 452 286 0
627 843 -935 0
748 -252 545 0
399 207 267 0
-744 524 -783 0
593 -132 190 0
-810 708 230 0
904 901 139 0
-672 452 707 0
-716 -315 -693 0
518 625 -854 0
813 -270 -250 0
-783 -79 529 0
697 202 677 0
694 322 207 0
-840 451 -437 0
222 431 543 0
593 -992 -739 0
853 899 -468 0
-23 562 -878 0
-843 -323 -776 0
491 -250 721 0
178 176 259 0
591 36 822 0
-72 703 -368 0
268 -846 -919 0
977 -490 812 0
221 -415 678 0
-78 171 -377 0
-737 -861 -136 0
-292 -49 -492 0
971 988 817 0
823 307 -457 0
675 -140 441 0
-120 -116 -492 0
295 -250 -629 0
-845 314 -211 0
-742 -621 387 0
764 -765 -342 0
514 288 320 0
711 -68 75 0
576 -809 -335 0
75 671 -865 0
268 -610 783 0
-319 779 -895 0
-18 -510 -846 0
-923 -19 -68 0
-870 907 -147 0
-73 276 -680 0
545 -71 895 0
-893 877 -717 0
-875 546 437 0
685 -181 753 0
-800 232 515 0
647 -295 539 0
433 96 -554 0
-617 -15 389 0
704 -550 59 0
577 168 -987 0
-247 -760 772 0
-846 54 535 0
970 -721 185 0
-595 -926 343 0
-295 517 -410 0
729 -29 -108 0
-536 600 -709 0
-650 -938 -405 0
711 -477 609 0
-143 41 959 0
877 -706 -194 0
744 987 144 0
-598 -510 -922 0
316 439 -712 0
502 370 -656 0
-710 658 344 0
-891 -263 337 0
305 -257 376 0
-113 -601 463 0
751 716 -759 0
959 -59 399 0
-266 848 744 0
-905 364 793 0
852 -448 -463 0
573 -643 -988 0
864 407 -505 0
927 -195 -196 0
-885 -20 141 0
561 267 164 0
-754 940 -994 0
-201 -489 -661 0
225 -439 -44 0
-613 492 -974 0
41 133 861 0
-330 869 -475 0
491 -209 -383 0
-281 -656 137 0
-993 -587 201 0
-472 -348 -210 0
-739 403 968 0
814 645 -861 0
-506 831 894 0
-56 765 -95 0
768 384 276 0
35 995 -356 0
-654 514 -635 0
741 -688 -47 0
-125 575 17 0
840 193 883 0
-432 914 997 0
366 -838 -487 0
515 987 -251 0
-608 -175 -596 0
713 67 711 0
561 513 -493 0
867 645 924 0
-603 916 37 0
-55 -80 51 0
681 265 766 0
337 -556 -276 0
367 907 931 0
549 364 227 0
-488 -882 -558 0
-944 -505 -543 0
3 305 -909 0
374 788 -857 0
-916 414 459 0
-725 -156 -319 0
-544 143 282 0
887 -984 895 0
727 613 961 0
-56 221 616 0
-279 924 959 0
-684 -752 -972 0
335 567 781 0
542 152 -571 0
-729 -852 582 0
-226 -952 -750 0
-837 619 149 0
-692 85 -102 0
488 -513 -955 0
800 672 -592 0
-319 -727 215 0
541 254 721 0
-666 288 25 0
-137 484 -16 0
870 768 952 0
-761 47 283 0
-484 963 955 0
596 525 -181 0
-854 493 633 0
368 -817 -16 0
-26 8 -868 0
39 -835 651 0
-479 151 319 0
-580 280 880 0
922 100 -723 0
-830 -211 603 0
447 -632 -422 0
421 564 -170 0
564 -678 -406 0
-866 -768 513 0
678 -929 -492 0
16 -366 -670 0
-5 568 -32 0
-149 -94 -814 0
-138 606 655 0
-644 -153 -766 0
482 -364 -412 0
-295 -353 212 0
923 -739 -62 0
-306 368 565 0
36 986 119 0
248 -65 -974 0
700 -916 -989 0
-232 -297 -405 0
-970 4 -364 0
38 -260 750 0
-133 -944 -23 0
-6 -435 -595 0
-730 -394 -321 0
-765 214 -933 0
681 -733 -565 0
250 -468 -178 0
500 -571 22 0
271 -516 -756 0
-160 -351 -747 0
890 -676 -428 0
307 -324 698 0
-576 956 495 0
963 791 -467 0
-614 -450 349 0
-165 650 -79 0
138 377 -455 0
-64 804 108 0
904 727 -1000 0
-6 -662 -18 0
-167 251 638 0
-411 423 -725 0
-299 176 -353 0
-336 527 -88 0
764 175 892 0
205 -434 212 0
-773 123 272 0
307 388 -632 0
-947 -966 -370 0
360 234 6 0
-85 -135 -948 0
-969 -55 -164 0
731 -693 -277 0
-543 -262 -545 0
58 756 -64 0
-899 85 721 0
629 168 -495 0
858 667 784 0
-290 -227 -596 0
787 -414 927 0
423 28 975 0
502 -712 -929 0
-247 662 615 0
572 -353 806 0
-313 827 375 0
233 407 -161 0
-904 -918 -493 0
-725 -348 650 0
-101 -311 275 0
-481 735 67 0
309 875 695 0
246 -330 -742 0
417 237 -139 0
-715 837 -735 0
-995 -468 541 0
-954 -488 -454 0
-172 286 -700 0
869 18 160 0
438 -917 -608 0
310 778 -742 0
-278 -37 490 0
813 435 586 0
-452 -130 -627 0
-187 -43 -476 0
126 -673 149 0
717 -301 -674 0
217 -984 468 0
-260 97 142 0
911 -824 210 0
-419 824 -193 0
486 -473 922 0
960 -574 -263 0
-197 724 511 0
-896 407 409 0
350 -147 827 0
-538 -97 -612 0
131 24 -168 0
127 792 436 0
637 -665 133 0
-363 58 -194 0
201 574 -358 0
-260 -568 50 0
-579 -235 351 0
-138 -484 474 0
-333 783 725 0
-230 191 -440 0
-316 -994 -49 0
659 -509 -274 0
-888 228 -174 0
838 350 -790 0
-928 -608 -52 0
615 -806 -333 0
-720 -437 474 0
227 811 481 0
-128 -26 859 0
517 981 -502 0
565 391 438 0
648 -837 -412 0
-718 266 433 0
-702 529 -381 0
413 -101 124 0
-911 -968 474 0
-490 10 681 0
-459 84 729 0
8 -70 -890 0
-265 -157 894 0
-930 -1000 675 0
451 696 -127 0
400 901 -234 0
941 598 -289 0
-35 -810 980 0
-968 814 592 0
-920 -949 -203 0
-176 714 478 0
-850 -696 -887 0
-742 165 -520 0
-442 668 102 0
-137 -919 -458 0
-876 39 -50 0
-299 454 66 0
-933 -176 -163 0
-828 257 -797 0
-91 -145 -614 0
635 -437 632 0
178 592 -537 0
-99 829 743 0
-618 370 -921 0
759 710 751 0
-467 -568 75 0
-122 93 119 0
-1000 -140 572 0
465 637 -656 0
428 330 -694 0
89 -153 909 0
-360 -865 896 0
741 509 -701 0
-295 -394 -722 0
22 398 77 0
326 -211 -484 0
762 -841 763 0
-957 987 -464 0
-492 57 123 0
-282 353 124 0
315 -362 618 0
618 -290 -582 0
-957 126 -56 0
275 288 -384 0
422 80 -124 0
159 746 -837 0
-787 952 -705 0
-275 -694 297 0
804 783 258 0
-54 -159 -407 0
515 -160 -117 0
-436 -320 -825 0
-202 732 -196 0
-784 -663 -620 0
631 594 -662 0
-943 -191 -56 0
872 814 156 0
795 879 708 0
989 432 144 0
469 213 -516 0
796 339 -547 0
-49 -922 -776 0
454 -884 967 0
497 989 980 0
-76 -118 -689 0
869 386 -383 0
268 722 996 0
-359 -121 252 0
-358 61 268 0
-326 -437 -615 0
-261 153 813 0
136 340 -595 0
557 -477 -219 0
139 -275 -28 0
257 634 637 0
-42 -374 -186 0
523 778 -850 0
-954 350 622 0
-407 696 -721 0
-827 419 576 0
-216 960 -932 0
983 -116 -249 0
327 -988 240 0
964 -51 781 0
-31 -297 -855 0
899 939 -672 0
365 -701 -738 0
724 -667 -345 0
134 -930 -842 0
-400 -365 -623 0
-564 1 -631 0
897 -506 -310 0
-361 -288 160 0
269 -964 -62 0
929 -909 545 0
-261 -592 -230 0
429 -918 -142 0
288 966 -628 0
-324 459 862 0
-243 844 -585 0
-978 -416 221 0
338 997 -874 0
-641 -377 210 0
133 -537 903 0
378 297 -790 0
560 147 227 0
-491 -968 89 0
-674 -251 -107 0
-495 -749 547 0
225 914 688 0
630 -413 285 0
779 395 384 0
-573 -105 227 0
68 -592 -646 0
-633 925 881 0
318 -473 192 0
-603 -38 -774 0
-613 -820 725 0
979 -307 -855 0
352 -867 595 0
136 486 820 0
-941 -398 496 0
-686 -734 -947 0
-627 731 -173 0
622 -117 87 0
-86 938 -392 0
-175 -157 -203 0
-494 -864 -415 0
203 -641 685 0
630 -400 180 0
-764 143 327 0
658 -939 -806 0
-974 -652 -559 0
-942 -384 418 0
-766 195 -88 0
-946 -264 -665 0
-263 -213 -899 0
766 759 -313 0
655 571 665 0
994 643 -293 0
1000 -230 -177 0
524 130 -132 0
382 -46 581 0
735 -829 673 0
784 949 -90 0
-812 654 597 0
-735 909 650 0
-841 -776 -473 0
264 -833 826 0
422 122 658 0
999 89 344 0
-171 -443 -201 0
89 -471 -248 0
-162 763 787 0
-445 -821 -724 0
-405 539 -746 0
729 384 430 0
-421 450 639 0
-787 -995 352 0
-90 -493 -517 0
-105 -350 -905 0
-228 420 -980 0
948 -71 -935 0
651 218 -831 0
-75 -821 751 0
264 947 -463 0
285 -633 315 0
-893 468 -128 0
-474 -484 -149 0
-348 225 -148 0
-176 549 -818 0
978 830 -456 0
319 -197 313 0
-812 121 -957 0
-146 -353 341 0
492 16 -629 0
354 345 -181 0
355 -164 -493 0
524 -611 875 0
418 -979 -386 0
953 -778 -86 0
-986 -378 -66 0
326 -334 466 0
265 -491 -411 0
835 735 -987 0
-177 -448 789 0
215 479 -716 0
669 750 -747 0
-761 -617 218 0
18 -4 88 0
208 614 -999 0
-315 -929 865 0
-146 -57 888 0
-306 588 -416 0
-603 393 -525 0
-886 289 177 0
-923 329 -160 0
-131 -132 464 0
-63 -493 -630 0
-20 -333 59 0
305 -857 -127 0
424 452 16 0
-256 405 177 0
894 211 527 0
997 -244 106 0
-309 -386 -244 0
-384 -152 -225 0
-170 851 -628 0
-301 -831 830 0
874 -255 261 0
879 924 -772 0
-331 -442 -669 0
-353 -309 -865 0
-406 953 387 0
171 -259 486 0
-836 493 -387 0
333 24 579 0
-952 322 -916 0
-977 624 356 0
527 547 827 0
-190 -183 311 0
-461 -487 685 0
634 -470 146 0
467 -170 -295 0
-828 -319 895 0
99 -499 -595 0
-16 -413 524 0
-867 294 232 0
-930 -625 -333 0
834 912 11 0
427 869 81 0
817 237 -804 0
-876 130 406 0
439 -172 -628 0
334 790 939 0
809 -685 -48 0
656 -237 -804 0
347 109 942 0
808 694 561 0
-451 -125 -733 0
804 763 -81 0
-259 -739 186 0
823 -439 204 0
-392 214 -709 0
914 -730 911 0
236 -809 -392 0
67 -82 -419 0
-977 354 -505 0
-567 -754 130 0
81 76 821 0
730 -148 510 0
-968 9 -157 0
-60 159 -969 0
-517 107 472 0
587 379 -322 0
625 321 425 0
-282 -388 -924 0
354 398 -569 0
869 -76 -171 0
171 -88 -480 0
464 -526 -516 0
-748 -3 -562 0
-265 -606 -587 0
536 -159 -217 0
-484 318 243 0
954 -564 -235 0
-86 1000 -968 0
-121 -677 194 0
-371 -963 -301 0
-176 812 -764 0
-796 -515 131 0
979 295 -718 0
-997 367 505 0
934 -4 -726 0
482 156 -491 0
-550 -454 -69 0
548 931 -379 0
-200 -209 -885 0
-673 -160 198 0
510 -171 -88 0
863 -297 285 0
556 873 41 0
-698 176 548 0
733 -870 -389 0
-715 18 -825 0
960 868 -11 0
94 -764 -345 0
-634 -947 526 0
219 916 -43 0
480 -260 -791 0
-240 353 -491 0
568 -427 193 0
656 531 368 0
-986 494 30 0
-236 -845 -548 0
845 -65 58 0
-944 658 -183 0
-414 315 -110 0
96 656 385 0
-969 754 861 0
283 225 408 0
-306 789 -352 0
510 -135 -901 0
358 -859 854 0
540 490 -276 0
-361 124 -923 0
-951 618 48 0
664 -140 -187 0
-615 58 176 0
875 -298 11 0
-863 168 874 0
462 -407 -631 0
-161 831 -585 0
574 730 -546 0
-850 148 34 0
-441 -351 835 0
-719 491 673 0
-314 28 268 0
434 268 382 0
-510 -779 -935 0
-201 610 35 0
502 -804 356 0
659 433 381 0
561 939 286 0
330 529 -413 0
983 -664 296 0
-148 661 -829 0
-598 152 746 0
880 -701 -37 0
472 -886 552 0
485 -792 -371 0
565 686 -482 0
748 41 162 0
-752 -523 -592 0
-94 -672 63 0
-188 991 809 0
-935 -839 -800 0
-48 -951 -412 0
867 122 828 0
937 481 521 0
-196 -166 -820 0
262 465 -654 0
987 119 238 0
-666 -189 -5 0
-165 124 370 0
961 621 -143 0
-124 810 185 0
513 -455 -273 0
-132 444 -920 0
933 -626 862 0
-610 -320 829 0
295 948 -398 0
-405 85 -252 0
-155 -112 349 0
-828 550 -628 0
-688 411 715 0
-904 -863 249 0
960 640 -322 0
-42 -690 -323 0
64 -319 -495 0
-869 -105 448 0
-302 -580 116 0
860 -741 -138 0
-767 -540 191 0
-233 530 290 0
778 949 -701 0
-735 -675 516 0
460 -583 -184 0
-164 -946 291 0
-79 478 528 0
-905 -161 -592 0
351 232 -674 0
388 -598 376 0
621 -598 -585 0
-554 479 -151 0
-781 518 -133 0
725 -726 -479 0
-845 122 799 0
-256 -147 -976 0
797 -111 -665 0
-182 -33 621 0
698 -517 -622 0
817 320 524 0
-647 595 309 0
530 706 -211 0
178 518 -366 0
-806 -605 679 0
-485 639 842 0
-380 -591 40 0
322 527 210 0
200 -732 -27 0
70 95 -99 0
566 -599 719 0
-789 790 -679 0
814 -244 -128 0
29 -165 794 0
-198 151 583 0
-151 -758 568 0
213 112 -732 0
-633 253 32 0
-492 971 -699 0
-373 -162 984 0
876 525 343 0
-132 345 -954 0
-853 819 999 0
-764 -500 814 0
78 -297 912 0
464 -326 971 0
-143 -687 -695 0
763 -137 -106 0
740 -779 912 0
-767 936 922 0
192 -164 730 0
591 958 -927 0
513 76 546 0
932 652 -897 0
-952 -230 -538 0
57 445 -621 0
-41 -792 -535 0
896 566 -605 0
-534 -225 691 0
-564 -23 -393 0
439 -603 199 0
-1000 478 -429 0
987 419 -539 0
-66 474 -409 0
-807 909 840 0
798 638 742 0
-759 -600 505 0
209 -261 550 0
-63 -429 -103 0
-753 -749 -220 0
168 -126 178 0
-657 65 -577 0
314 365 -378 0
-39 747 -624 0
345 303 -457 0
-198 -138 509 0
507 460 130 0
-131 181 277 0
149 832 805 0
