c Large 3-SAT formula for GPU testing
c 500 variables, 3000 clauses (ratio: 6.0)
p cnf 500 3000
188 168 221 0
29 384 155 0
-431 332 186 0
298 -374 449 0
50 403 -330 0
-195 265 439 0
6 154 487 0
411 206 -271 0
417 119 -203 0
402 281 239 0
-85 -217 381 0
-384 -58 -372 0
-21 -231 -490 0
-479 202 -417 0
-492 -318 -102 0
-242 48 -152 0
-306 -113 451 0
475 -196 106 0
339 63 183 0
436 13 -269 0
352 123 -272 0
64 -430 -49 0
483 178 -368 0
399 447 -118 0
285 -445 -56 0
-449 38 -219 0
306 230 195 0
-254 121 397 0
149 -190 44 0
251 287 -436 0
-323 482 135 0
-470 -120 396 0
-3 -435 -316 0
226 -286 340 0
435 10 293 0
-98 -244 -261 0
-173 433 175 0
400 -36 17 0
-170 318 132 0
-125 287 -198 0
293 -1 -416 0
-258 275 158 0
-484 165 46 0
-340 -219 -489 0
-320 179 -158 0
-11 -471 -155 0
-46 314 -202 0
169 70 492 0
355 -145 207 0
-491 -302 -427 0
-235 83 -465 0
278 -236 358 0
-91 296 -266 0
43 -126 321 0
-223 -440 -474 0
131 352 -199 0
208 -393 352 0
-473 344 -55 0
420 446 316 0
-231 495 -474 0
216 379 -493 0
-95 196 376 0
-372 -375 418 0
53 335 -378 0
315 -415 -209 0
-279 -458 -474 0
-160 -417 -364 0
452 227 110 0
86 191 -464 0
-446 -244 455 0
271 -251 392 0
-459 467 -57 0
149 -156 165 0
295 473 -224 0
318 155 -395 0
413 428 -158 0
-280 -107 261 0
-329 311 -398 0
40 -391 -68 0
-157 310 267 0
-217 185 -2 0
-76 -448 211 0
192 100 133 0
115 -247 -186 0
400 210 -262 0
-359 206 -150 0
151 466 203 0
228 215 -169 0
-407 -105 199 0
-391 290 -16 0
199 463 487 0
-181 -233 -459 0
-30 31 -400 0
119 181 -399 0
-466 -95 -386 0
-371 -214 -484 0
-23 -459 444 0
232 -264 -251 0
180 -228 -285 0
-365 404 -124 0
246 -415 -360 0
113 13 -70 0
198 381 352 0
31 -280 -29 0
-39 398 -323 0
-231 -468 -336 0
347 -131 -417 0
497 -367 190 0
-165 450 111 0
-4 -145 308 0
-2 378 -431 0
190 331 168 0
-153 183 46 0
290 308 -215 0
-186 265 312 0
115 491 346 0
13 -222 -489 0
-55 -133 218 0
-104 -402 485 0
-488 239 -180 0
-153 138 77 0
11 -182 268 0
-378 -470 -431 0
-218 -293 -52 0
-32 3 73 0
312 -181 -350 0
-105 -248 -434 0
-350 -312 -365 0
-13 -138 61 0
179 -54 -126 0
-275 199 -126 0
-199 -390 17 0
-493 -97 394 0
301 -313 107 0
159 386 426 0
261 -40 117 0
-381 -319 -179 0
-467 -453 298 0
10 -43 295 0
-105 30 -221 0
-43 144 -339 0
102 187 318 0
-274 -300 -76 0
-112 -265 -223 0
-215 193 -216 0
43 252 -446 0
-302 -406 433 0
-293 -387 231 0
-90 30 381 0
74 -2 -222 0
-288 -203 -399 0
158 -44 122 0
205 338 245 0
497 -157 260 0
-458 -418 393 0
-18 -17 -462 0
303 59 373 0
331 -193 -41 0
34 -129 209 0
258 -465 26 0
357 123 153 0
-68 266 185 0
-304 102 -467 0
442 152 112 0
-193 -463 -98 0
-144 281 -474 0
343 214 385 0
-217 -392 282 0
-498 -292 99 0
403 81 161 0
329 59 -85 0
-114 -274 -310 0
-57 338 149 0
38 -36 251 0
275 -298 -90 0
-277 403 101 0
104 -152 274 0
197 -239 -464 0
-18 495 416 0
283 -407 285 0
-413 -344 336 0
236 353 404 0
-280 -229 -485 0
-493 -370 -490 0
402 -234 -453 0
-429 -412 14 0
-211 298 56 0
185 -308 -22 0
-169 -384 -148 0
-322 -460 235 0
222 316 -20 0
-249 415 26 0
-213 -444 -149 0
144 120 -475 0
55 408 172 0
-143 165 -140 0
-276 -324 6 0
-193 -294 346 0
358 12 -120 0
19 -88 421 0
195 -314 -104 0
-78 28 413 0
-327 -196 -9 0
240 -447 254 0
-373 166 -119 0
-230 341 -6 0
267 109 356 0
196 311 -290 0
306 -356 180 0
-363 4 -482 0
455 14 -272 0
404 -102 -1 0
53 -417 4 0
300 -256 368 0
-22 204 -390 0
-143 -391 91 0
232 299 -243 0
-308 494 -217 0
334 81 52 0
22 477 327 0
138 497 397 0
367 -54 -412 0
-32 149 381 0
-447 -52 184 0
386 106 407 0
-390 189 75 0
397 206 283 0
-109 361 -208 0
230 -86 169 0
-465 333 70 0
253 -167 -230 0
329 201 -426 0
-10 51 313 0
-409 289 -377 0
-154 -410 -381 0
-496 32 -371 0
484 111 -430 0
77 463 172 0
243 -230 254 0
350 -429 -42 0
415 46 -208 0
206 260 -490 0
93 142 388 0
481 49 -93 0
34 -437 -183 0
258 -7 486 0
323 -339 223 0
246 -286 -411 0
343 70 -257 0
23 -84 -226 0
-410 239 227 0
-190 129 398 0
-76 116 -383 0
274 -91 170 0
477 108 8 0
14 -80 -53 0
432 -267 100 0
419 135 -287 0
-109 -163 -131 0
216 435 -324 0
96 -32 -121 0
-72 -134 -306 0
-427 -430 370 0
-124 216 -207 0
-170 -110 -40 0
55 -480 -137 0
485 -133 183 0
287 316 -297 0
122 52 -417 0
131 -14 286 0
-150 124 -370 0
211 -452 -113 0
-27 -375 347 0
-399 54 175 0
-243 -435 -117 0
4 180 77 0
-164 477 -481 0
455 46 -152 0
142 -11 137 0
262 -86 -253 0
-9 -39 205 0
-15 246 -210 0
493 -38 -143 0
-298 74 140 0
246 472 56 0
-213 247 -142 0
223 -56 309 0
3 470 -327 0
137 -475 -274 0
-78 276 335 0
-281 200 -237 0
-475 -58 -7 0
-374 -332 -47 0
268 349 -36 0
278 -140 313 0
436 -140 -385 0
296 -94 496 0
381 474 -485 0
43 241 -381 0
-305 -408 -368 0
-449 -365 -76 0
398 326 93 0
118 -281 302 0
-263 -363 119 0
385 107 461 0
-468 -270 376 0
-295 427 -107 0
-435 -221 408 0
-171 -8 266 0
290 239 259 0
312 261 -139 0
-125 239 75 0
-146 379 -484 0
150 -223 483 0
-143 171 -402 0
177 383 70 0
66 15 71 0
63 -426 -81 0
384 331 181 0
233 -21 32 0
45 -217 -311 0
-257 -174 364 0
-125 -338 -337 0
-196 86 125 0
500 -392 337 0
-176 -38 -266 0
421 -292 490 0
-291 25 -216 0
-194 -308 -309 0
94 473 -238 0
-457 -206 -333 0
-496 226 -477 0
478 60 342 0
373 455 181 0
367 49 -207 0
-457 471 443 0
420 -344 -434 0
-153 492 287 0
-474 76 243 0
475 -144 -108 0
425 256 -273 0
248 -135 199 0
155 47 82 0
353 453 330 0
399 127 -192 0
-155 -301 -376 0
131 412 -361 0
-110 427 -37 0
-305 374 358 0
204 -96 425 0
-274 -244 -368 0
406 280 465 0
348 184 -186 0
-295 349 -61 0
-249 378 -89 0
-95 418 222 0
-367 277 158 0
-260 -282 230 0
421 108 -63 0
-299 -368 -252 0
335 274 496 0
449 36 -493 0
470 -347 -381 0
310 -336 481 0
-319 -469 223 0
-236 123 51 0
-477 113 -142 0
78 472 -101 0
-19 164 255 0
-407 215 240 0
135 -295 -44 0
193 488 -382 0
-75 -477 -146 0
-75 -275 315 0
57 379 -201 0
307 338 119 0
352 373 -306 0
-271 -440 217 0
-139 351 -108 0
91 65 93 0
404 -53 -264 0
208 457 4 0
-16 -138 -189 0
-360 137 423 0
-61 -350 -38 0
-98 -143 186 0
149 323 424 0
-270 408 467 0
-201 35 -190 0
258 204 -268 0
-76 -162 123 0
448 233 -87 0
-357 156 -281 0
-58 469 276 0
-100 -164 286 0
-465 459 452 0
-86 28 -227 0
157 448 59 0
171 134 -396 0
-158 -193 -50 0
-331 248 227 0
434 235 157 0
-348 360 -169 0
359 -237 12 0
358 -288 -241 0
294 -56 216 0
-425 -499 -88 0
373 486 257 0
168 86 394 0
151 -225 -357 0
-394 -404 62 0
85 120 412 0
30 284 200 0
436 397 19 0
256 -453 -79 0
483 97 -77 0
-180 479 -436 0
-51 487 454 0
-79 -406 -395 0
168 360 -270 0
-444 403 -313 0
-483 -329 -429 0
-190 -69 -406 0
-403 -428 -160 0
203 443 -34 0
-355 287 381 0
307 327 23 0
489 -402 -371 0
-309 269 483 0
-257 42 -303 0
-202 351 322 0
-363 70 -197 0
-167 408 214 0
392 -255 78 0
-9 448 -179 0
152 46 440 0
-290 10 -182 0
267 364 118 0
-111 90 -416 0
127 494 -5 0
380 -269 -317 0
-430 -169 -249 0
218 213 448 0
-74 -390 -370 0
-324 461 68 0
-5 -96 374 0
98 -140 -64 0
43 -286 10 0
-197 -32 150 0
145 5 -7 0
-70 -158 32 0
198 -431 71 0
414 -159 -207 0
-90 -11 -359 0
-230 231 -80 0
139 -105 44 0
101 -412 -480 0
-64 -495 299 0
355 -371 -14 0
307 352 345 0
-475 -142 343 0
-88 -304 259 0
-34 -498 147 0
240 -493 383 0
407 157 -354 0
167 92 -292 0
-60 453 -141 0
-162 -358 -351 0
285 410 -251 0
-20 -228 341 0
-438 357 -48 0
414 -85 260 0
-388 -81 203 0
156 307 -50 0
172 326 -424 0
289 -276 -347 0
-58 429 263 0
-324 160 -236 0
-364 168 327 0
357 155 -2 0
-54 -198 -254 0
220 461 280 0
9 81 184 0
13 -174 -403 0
7 157 -163 0
-193 415 253 0
-486 75 83 0
-445 191 65 0
-251 189 302 0
-141 203 279 0
335 28 -273 0
-470 342 -98 0
385 45 -393 0
-263 -319 211 0
-136 -198 15 0
310 210 321 0
-414 -128 232 0
-214 223 155 0
-413 -130 84 0
-44 240 452 0
-406 349 -460 0
-18 462 -152 0
260 -295 270 0
409 -205 412 0
-441 -131 -296 0
46 197 223 0
-67 495 -98 0
336 -463 147 0
-19 -462 -401 0
56 -408 -458 0
-70 223 -209 0
-300 423 -66 0
279 48 362 0
426 207 -60 0
-204 -317 -288 0
-295 278 -17 0
-466 443 369 0
433 448 61 0
-215 -201 149 0
-261 -179 226 0
461 290 34 0
336 100 298 0
167 -115 -272 0
40 -148 -324 0
86 -30 -279 0
158 322 249 0
92 77 -349 0
-243 475 -235 0
-211 467 -87 0
-72 286 50 0
15 -169 -110 0
335 178 110 0
-450 3 -263 0
-308 223 -185 0
-366 -46 -298 0
-252 -484 425 0
150 248 82 0
-1 -379 -432 0
-422 -396 -213 0
397 8 -245 0
-78 -72 235 0
-370 -254 472 0
79 -497 2 0
126 253 -483 0
-202 9 -362 0
-209 -319 -334 0
242 -443 -428 0
303 -22 150 0
-241 -372 -309 0
434 39 260 0
-133 -325 285 0
-167 -142 -237 0
-413 168 -3 0
-221 360 -462 0
415 -96 -337 0
437 -415 -459 0
494 -201 213 0
72 452 -114 0
214 -385 -409 0
311 74 258 0
-489 -271 -270 0
51 65 126 0
112 122 396 0
-336 -195 -167 0
-107 213 -202 0
-58 489 300 0
-451 -474 -173 0
467 98 -310 0
-350 355 -119 0
-265 212 -160 0
362 -221 80 0
-407 -256 277 0
-176 -50 -404 0
-277 -172 -477 0
252 -194 -215 0
-69 -197 29 0
-318 -244 -39 0
-223 -217 -336 0
323 -263 281 0
62 -373 -265 0
-399 -134 -41 0
311 -425 -463 0
-475 30 -458 0
-478 293 146 0
189 -418 -475 0
216 45 1 0
144 348 146 0
349 -186 -463 0
198 454 238 0
-334 481 -121 0
108 -376 -261 0
172 164 294 0
157 -36 -457 0
464 -5 -486 0
-12 281 -349 0
250 -314 225 0
-273 -322 483 0
-155 -301 -284 0
361 -44 378 0
351 -404 43 0
-231 -75 24 0
245 62 -316 0
-393 -462 355 0
-79 -126 -31 0
454 -472 -21 0
-300 211 -367 0
67 -210 404 0
69 -344 -399 0
-409 -37 124 0
-491 192 -410 0
156 -303 -65 0
-296 335 -486 0
24 325 408 0
88 339 124 0
361 -217 236 0
314 -496 68 0
-84 254 423 0
102 394 -136 0
-243 -179 498 0
-119 13 49 0
-288 181 -400 0
20 -286 -475 0
-60 -248 -312 0
-359 196 163 0
-361 -123 450 0
-156 37 468 0
-36 -206 -480 0
335 354 208 0
351 -335 283 0
29 45 -277 0
364 -334 -274 0
-17 228 183 0
-348 30 -286 0
-324 396 -210 0
491 -367 -73 0
-442 -244 -103 0
-309 430 -200 0
-398 309 -51 0
85 -329 444 0
-440 -402 11 0
274 -295 -266 0
388 -480 140 0
218 285 443 0
21 144 -414 0
-18 223 271 0
-3 -62 -130 0
-266 337 211 0
122 -239 113 0
160 -16 -54 0
-436 -42 121 0
375 296 182 0
243 -298 357 0
332 159 46 0
394 72 370 0
-428 51 293 0
-209 86 -67 0
-2 -450 70 0
227 -468 81 0
303 346 -151 0
-70 -303 339 0
-310 180 475 0
453 331 -464 0
-477 367 467 0
-190 187 99 0
227 92 -492 0
149 205 -380 0
170 -359 -54 0
-241 496 -262 0
-75 -472 -262 0
312 -119 -426 0
156 461 -54 0
74 351 469 0
414 -77 -432 0
112 -466 376 0
-116 -414 -445 0
-324 6 -365 0
105 473 226 0
51 48 71 0
-246 270 317 0
-232 41 477 0
403 462 -444 0
80 -458 455 0
-308 318 -290 0
183 324 301 0
135 87 -68 0
70 239 -126 0
164 -399 -482 0
454 334 -209 0
336 205 84 0
73 240 -88 0
369 -65 -356 0
-234 162 68 0
131 230 349 0
-406 198 101 0
-319 -317 89 0
-351 -82 -26 0
257 34 68 0
340 -428 -335 0
480 -193 -272 0
-37 112 -121 0
13 -463 -307 0
96 -9 177 0
188 -304 -87 0
287 -11 253 0
253 500 160 0
324 251 -253 0
-343 -472 -253 0
81 222 -237 0
-40 -216 457 0
-212 -287 124 0
218 199 419 0
-484 21 -368 0
161 378 459 0
246 -243 232 0
-172 -137 482 0
413 -109 -22 0
-196 -351 28 0
468 83 303 0
474 490 398 0
321 58 266 0
348 457 484 0
-422 125 466 0
496 260 138 0
317 -23 108 0
-160 -174 106 0
128 -20 -97 0
459 -59 -129 0
-305 -264 199 0
-136 -456 27 0
-25 418 -72 0
19 172 251 0
-245 -119 292 0
-135 418 97 0
-343 -489 65 0
-119 37 -380 0
-272 -461 42 0
229 -491 -11 0
166 -193 -323 0
-315 -88 -402 0
-26 316 -293 0
-34 -255 -416 0
139 208 334 0
286 148 370 0
-40 278 -483 0
-360 -48 180 0
-491 -305 -248 0
477 -4 273 0
424 -416 -290 0
305 -27 -93 0
482 5 233 0
376 297 276 0
-212 -104 -262 0
-322 -299 112 0
-48 252 292 0
225 299 208 0
-233 -88 358 0
353 103 52 0
290 -416 129 0
231 -212 -279 0
74 434 287 0
496 57 21 0
500 217 -9 0
446 -28 -498 0
278 484 91 0
-360 99 -324 0
345 -46 392 0
181 480 -132 0
-150 74 -250 0
168 334 425 0
286 -350 471 0
-350 -277 461 0
-261 -454 -142 0
191 -273 -97 0
27 97 -227 0
-197 -139 -454 0
-497 -39 415 0
-215 -183 207 0
491 -426 -1 0
-240 -327 108 0
-220 -441 157 0
347 262 114 0
176 447 491 0
-495 478 188 0
-47 202 238 0
-309 -253 -167 0
261 -205 256 0
191 -193 -277 0
-90 204 -424 0
-459 -110 495 0
-216 183 -138 0
120 370 1 0
357 162 140 0
350 -67 11 0
-298 134 382 0
-243 -359 110 0
321 304 279 0
-26 -57 -307 0
361 -478 -332 0
289 -281 135 0
108 -345 -464 0
-397 94 160 0
98 -382 -245 0
-14 107 408 0
405 -21 259 0
319 350 338 0
89 58 54 0
-144 53 -97 0
452 159 -366 0
-100 239 234 0
221 268 415 0
307 270 -171 0
-394 -205 336 0
216 -179 72 0
-447 129 -26 0
87 -65 -235 0
85 -196 84 0
-171 -328 159 0
-417 -185 451 0
-100 -450 394 0
181 -79 256 0
-472 -420 -235 0
216 289 493 0
-121 -409 -24 0
296 -172 -120 0
496 173 -468 0
-357 31 67 0
-209 275 287 0
206 257 -312 0
-44 292 45 0
207 418 -388 0
28 -139 243 0
410 272 328 0
321 43 -193 0
494 -155 -243 0
397 -161 -94 0
418 461 361 0
-100 -147 332 0
181 326 -347 0
179 105 28 0
-213 24 -33 0
-163 -40 290 0
-93 448 359 0
268 422 -485 0
-81 457 -285 0
-144 190 -159 0
400 -251 -352 0
235 -395 403 0
-318 145 411 0
-433 229 -369 0
56 81 397 0
-124 -182 -413 0
432 -452 101 0
277 173 97 0
-302 -492 363 0
-187 -23 365 0
166 30 432 0
365 -296 8 0
215 211 -344 0
-484 -221 -200 0
308 425 -324 0
64 282 287 0
-210 -363 -327 0
-268 -371 -475 0
-408 180 113 0
7 37 449 0
418 143 465 0
-131 -85 4 0
262 -267 195 0
-24 465 -349 0
-228 -32 352 0
-195 -330 -190 0
-277 304 -90 0
144 365 -174 0
280 -32 -496 0
208 -470 88 0
21 309 -286 0
-319 -216 370 0
356 -14 -82 0
-468 294 443 0
450 405 -165 0
339 388 -21 0
217 455 -268 0
-365 227 -440 0
-424 275 -139 0
194 -67 -91 0
-335 -445 120 0
390 -385 145 0
120 -423 197 0
-248 -120 -57 0
-402 -131 -466 0
34 -289 452 0
-120 -318 -210 0
-216 -448 -291 0
-59 -13 -114 0
-111 312 166 0
-221 -78 -347 0
214 -429 -151 0
-443 -468 -41 0
452 -186 -137 0
71 -245 -137 0
-476 12 -107 0
-280 -430 -285 0
5 469 41 0
-404 287 188 0
-154 -187 -238 0
59 55 3 0
408 -379 280 0
-201 -117 182 0
-492 438 -424 0
-304 496 -434 0
-160 147 -25 0
-111 60 -287 0
-484 -357 -225 0
17 20 -377 0
-17 -292 -150 0
484 195 -354 0
-487 -286 -470 0
381 258 14 0
465 334 495 0
48 -462 416 0
397 -455 149 0
-156 -37 125 0
-69 -73 -58 0
495 237 -364 0
-425 -172 -78 0
15 -94 -106 0
412 -431 269 0
-362 18 -57 0
140 335 -201 0
308 -59 -334 0
35 -43 188 0
446 259 295 0
110 99 490 0
355 414 107 0
-340 -85 299 0
-73 -304 -86 0
76 155 372 0
409 422 136 0
-174 337 377 0
217 -488 471 0
-382 36 -353 0
-299 247 54 0
-214 -433 406 0
-134 214 -334 0
359 -479 -462 0
-484 494 -249 0
415 -388 -64 0
424 263 -168 0
165 -166 321 0
-25 257 -381 0
58 342 225 0
18 -243 -334 0
-85 224 308 0
-145 -196 82 0
62 303 -207 0
-154 -44 95 0
386 -356 -470 0
349 -483 -199 0
-234 -143 242 0
-262 -19 -368 0
-256 -196 -312 0
245 -255 -48 0
-109 115 -274 0
-162 272 -195 0
282 -179 146 0
-6 232 180 0
-420 -131 429 0
254 177 -315 0
-437 222 -463 0
-227 -9 -63 0
86 -452 -112 0
-459 420 356 0
-460 -98 436 0
-291 -177 286 0
-292 200 304 0
127 -354 386 0
-193 341 -8 0
-370 -222 240 0
-412 432 -190 0
465 -367 -259 0
-487 469 398 0
-440 123 405 0
-38 296 -112 0
387 -111 -158 0
-494 103 453 0
133 252 -284 0
-449 -154 -61 0
259 170 -448 0
-402 -403 -21 0
-335 419 308 0
350 326 -360 0
-156 -311 2 0
195 -233 -170 0
-196 455 -263 0
-24 -476 -412 0
-169 452 -125 0
408 -3 -484 0
322 414 -162 0
-197 288 6 0
396 -235 85 0
-385 -314 252 0
498 266 270 0
228 382 -13 0
-310 -172 198 0
84 146 321 0
-145 -367 241 0
370 455 103 0
-205 -338 462 0
-497 41 -262 0
287 70 300 0
50 -41 283 0
-474 -216 213 0
134 159 -288 0
-39 80 284 0
-165 -315 -223 0
-386 434 -186 0
55 339 265 0
382 435 -92 0
156 275 81 0
-192 225 -262 0
-408 175 431 0
414 220 -2 0
-120 -92 -253 0
-355 497 418 0
177 -338 -335 0
350 207 372 0
-218 -66 308 0
302 -40 225 0
386 459 -84 0
247 281 -315 0
-351 185 275 0
-270 379 -320 0
47 -454 -483 0
-280 423 -325 0
173 -333 36 0
-196 -408 -62 0
-8 162 -131 0
119 477 229 0
-224 -369 -495 0
203 -319 110 0
-85 -344 419 0
124 -61 315 0
106 -484 424 0
-326 -287 -213 0
102 -380 -241 0
21 -453 -322 0
-214 -43 198 0
325 168 418 0
-112 3 -439 0
492 140 103 0
-34 -462 48 0
180 -264 356 0
241 277 22 0
-148 -150 377 0
-173 36 456 0
-286 473 259 0
-64 349 -15 0
-496 183 276 0
-60 371 -468 0
261 -429 -170 0
-178 302 -446 0
-64 162 200 0
-194 276 493 0
65 -286 -341 0
180 -56 -389 0
337 -278 -347 0
316 -422 21 0
-309 290 160 0
-265 359 -251 0
109 -86 457 0
-424 156 32 0
-234 -43 221 0
-364 -197 163 0
490 431 -323 0
418 -399 82 0
408 -351 177 0
433 5 -487 0
430 -100 -465 0
-148 -378 -159 0
177 -487 305 0
-411 -205 -119 0
479 -250 22 0
-407 -120 -394 0
173 -76 -323 0
-226 86 -92 0
330 78 -419 0
113 -450 -361 0
-287 194 -119 0
144 -17 482 0
488 194 -383 0
8 291 -217 0
69 -345 124 0
-357 221 -333 0
-127 -15 -156 0
398 -18 485 0
-367 -490 -58 0
-477 325 431 0
32 192 386 0
312 -45 205 0
183 -198 -143 0
-187 -230 258 0
154 185 449 0
-258 246 185 0
-199 -212 -111 0
10 484 -139 0
-107 -53 -429 0
327 215 -169 0
11 449 -131 0
462 -107 175 0
67 -281 -284 0
-394 -262 -459 0
-44 -197 -248 0
487 270 -19 0
-242 339 216 0
-169 473 -384 0
-427 -37 167 0
292 359 -277 0
-412 81 -88 0
377 -298 -375 0
243 404 337 0
-144 240 74 0
-154 -205 158 0
28 497 468 0
-135 -104 122 0
-338 -246 -481 0
-255 116 -201 0
289 -459 -258 0
-325 -185 102 0
-346 -403 141 0
-412 -42 -80 0
-279 378 -394 0
113 435 279 0
158 25 -174 0
-64 -13 285 0
-443 170 -446 0
381 -360 -434 0
-346 240 498 0
-401 387 78 0
-12 246 -338 0
368 -54 -155 0
-224 159 254 0
-192 39 -115 0
473 151 358 0
-368 125 -223 0
-106 453 -311 0
104 293 50 0
74 388 -37 0
496 32 -347 0
1 -104 95 0
259 52 -377 0
209 -48 451 0
-335 28 410 0
19 -259 -309 0
-319 226 -89 0
-224 -359 -26 0
-466 496 285 0
-392 395 133 0
303 -307 -292 0
317 69 -377 0
-28 -403 297 0
-169 -210 321 0
439 459 42 0
25 -310 -186 0
260 152 432 0
-229 -223 -422 0
156 474 -97 0
-364 -372 -306 0
-231 197 -226 0
77 -295 4 0
156 471 392 0
457 -427 292 0
56 310 -359 0
-487 106 235 0
35 308 349 0
365 305 -266 0
-71 148 -32 0
-133 203 395 0
238 -384 215 0
2 -408 104 0
6 86 -379 0
-40 453 144 0
45 340 -33 0
480 152 -274 0
103 -161 75 0
-467 -176 312 0
-66 482 187 0
164 38 -245 0
288 169 195 0
-317 157 441 0
197 373 -365 0
353 -205 -195 0
423 344 253 0
53 108 -165 0
-141 168 39 0
-155 -221 455 0
277 -455 292 0
320 -224 -3 0
216 115 225 0
500 148 357 0
-313 -153 -489 0
-102 476 193 0
111 84 -499 0
-196 -439 141 0
132 207 452 0
-259 56 -462 0
-500 84 420 0
-478 -171 256 0
385 -185 373 0
193 462 120 0
376 -75 -492 0
-254 -225 -191 0
208 -495 93 0
-12 479 424 0
-357 -17 24 0
-422 309 -37 0
-60 -340 -93 0
40 413 345 0
27 398 137 0
-126 237 -51 0
-38 -282 448 0
17 362 -317 0
55 -384 -218 0
139 -125 -34 0
229 306 429 0
335 -112 369 0
132 76 -194 0
312 -460 412 0
350 252 441 0
328 354 -272 0
496 -481 -38 0
376 73 -98 0
-437 -204 -246 0
-154 -392 46 0
56 -194 -198 0
42 183 -259 0
224 -412 23 0
-70 335 348 0
255 -429 7 0
196 164 131 0
-466 453 223 0
407 48 472 0
-77 371 103 0
295 167 -493 0
33 330 333 0
163 -450 407 0
84 487 337 0
-339 -408 -295 0
-357 409 -122 0
-495 363 227 0
404 50 396 0
276 -289 -488 0
-251 -133 -481 0
338 -250 216 0
391 89 -114 0
-481 -151 410 0
413 398 305 0
379 384 -237 0
302 -104 157 0
-429 -217 189 0
-440 -380 -237 0
371 22 482 0
-426 97 -192 0
-211 -381 -383 0
320 181 452 0
127 477 -250 0
180 368 -171 0
-42 -296 130 0
-314 418 424 0
123 388 -88 0
140 485 286 0
-242 -67 444 0
50 -26 271 0
-242 -408 85 0
135 202 -143 0
-116 316 58 0
-60 337 367 0
-197 172 -160 0
183 -318 -466 0
289 122 220 0
-231 -227 365 0
-145 430 376 0
91 363 11 0
222 -140 86 0
327 367 354 0
232 62 -315 0
343 174 285 0
-46 -124 433 0
-272 -452 -412 0
214 -55 -166 0
275 25 161 0
398 384 269 0
-129 -230 -408 0
-395 474 296 0
433 -50 -4 0
-327 109 -338 0
132 -19 155 0
-445 -483 -326 0
179 237 111 0
48 324 455 0
-108 174 -149 0
-298 -37 44 0
-377 488 207 0
-1 -475 -266 0
321 212 461 0
490 -165 230 0
-433 -436 202 0
378 329 -342 0
327 230 96 0
-113 -430 294 0
477 -233 -160 0
-380 -33 -368 0
467 24 45 0
95 48 163 0
-164 -355 -105 0
-146 -38 78 0
-470 -295 317 0
-176 -379 -343 0
-395 17 -175 0
367 38 90 0
472 -92 313 0
323 -328 459 0
-205 457 -159 0
180 -277 409 0
249 -217 377 0
365 -285 -246 0
357 258 18 0
72 -345 97 0
-418 120 -270 0
365 313 250 0
-6 -451 33 0
-171 126 -75 0
-189 250 363 0
27 413 500 0
-37 -254 361 0
96 -298 -339 0
474 -33 444 0
158 470 409 0
375 479 -268 0
187 -89 -27 0
-220 -78 -452 0
-413 -260 -254 0
-378 -110 -266 0
27 354 62 0
-400 -179 354 0
190 282 105 0
214 -271 404 0
390 214 79 0
-113 47 231 0
24 356 -296 0
142 297 -345 0
365 352 -222 0
287 398 380 0
-341 258 -165 0
376 -183 104 0
-406 69 -116 0
323 174 324 0
-4 -203 -470 0
-374 -418 -191 0
-326 131 414 0
-288 -229 227 0
115 -114 -69 0
-358 -45 53 0
-71 442 -49 0
-279 156 295 0
-128 -344 370 0
-135 -242 154 0
-493 121 -163 0
337 471 120 0
-172 436 363 0
-12 -438 -104 0
-364 344 296 0
228 41 -91 0
429 -158 -452 0
-452 322 -346 0
-181 -449 114 0
57 -375 240 0
-265 -264 -148 0
-261 -125 -151 0
-89 -344 425 0
-392 -300 395 0
-148 -446 413 0
-234 -143 -35 0
220 -357 -300 0
311 -381 129 0
458 415 -283 0
492 140 490 0
-62 -11 47 0
429 -97 -52 0
211 -485 -188 0
-252 337 -421 0
-212 -286 24 0
453 249 -127 0
429 277 -28 0
-258 -97 -72 0
-193 -113 -499 0
-289 -332 -160 0
-113 -214 -204 0
-341 -163 -140 0
-335 -7 -453 0
-277 -219 -207 0
-375 365 -60 0
281 220 277 0
327 -213 -66 0
-448 286 -255 0
386 -431 409 0
207 12 -66 0
301 -39 114 0
135 360 246 0
-18 -226 223 0
34 112 8 0
259 -61 -405 0
159 63 -489 0
301 43 270 0
-68 -277 -73 0
-209 -74 -34 0
-289 458 412 0
312 -251 -160 0
250 28 11 0
-351 -389 50 0
-370 -195 -201 0
-493 278 482 0
-342 354 379 0
-257 -407 -104 0
-177 -287 88 0
410 207 -62 0
-32 -391 29 0
103 -484 -318 0
245 159 -111 0
-425 263 -259 0
338 -311 488 0
489 -184 -383 0
8 243 343 0
6 297 236 0
-339 -415 258 0
344 -70 -110 0
-12 137 -261 0
121 98 164 0
198 419 197 0
-262 -435 -85 0
-201 -75 331 0
324 -155 -54 0
29 189 -462 0
-376 165 128 0
204 -389 320 0
394 308 246 0
-327 287 307 0
-465 -500 -208 0
200 -153 -292 0
96 -262 -41 0
263 -144 -379 0
-486 -64 -84 0
410 475 -276 0
-278 333 -418 0
113 -404 -101 0
143 -426 284 0
-486 64 -199 0
373 61 -306 0
-491 -213 310 0
377 -115 54 0
-491 45 475 0
411 -35 477 0
-434 245 -169 0
323 -209 164 0
-499 -427 -106 0
483 -90 387 0
-103 340 16 0
-178 449 -283 0
-89 -107 -16 0
399 50 -240 0
411 427 22 0
-4 -385 398 0
-118 -134 -411 0
78 -264 247 0
-114 420 193 0
-278 -22 -25 0
-136 -460 -487 0
-230 61 375 0
-179 -488 212 0
-132 -67 237 0
-87 -70 -146 0
169 -120 163 0
135 -401 -469 0
-423 406 87 0
-219 -426 222 0
252 -262 419 0
-316 -200 452 0
106 493 500 0
-135 -413 -252 0
-262 -479 -305 0
107 274 -442 0
165 190 -274 0
-99 475 -337 0
244 -235 479 0
123 211 -181 0
454 141 -466 0
329 272 303 0
-243 -173 -198 0
-99 66 -69 0
-195 -67 273 0
285 150 440 0
316 124 -489 0
-221 35 -78 0
442 425 -227 0
14 195 -32 0
261 235 -174 0
166 -461 -41 0
-37 -246 245 0
-455 421 -122 0
-325 153 96 0
-285 344 164 0
360 -20 -46 0
-233 62 466 0
81 -416 339 0
72 303 484 0
-152 -66 -219 0
269 -388 -74 0
-23 325 -427 0
-10 274 458 0
412 287 -498 0
27 344 -408 0
-243 44 448 0
465 -440 333 0
245 172 364 0
69 438 -172 0
392 -351 118 0
-390 -341 395 0
-309 -462 73 0
280 -363 265 0
421 -118 342 0
-176 402 184 0
16 344 -359 0
379 237 -487 0
153 -225 -249 0
131 -463 -256 0
-195 157 80 0
-298 -379 -244 0
380 -218 -417 0
374 -287 121 0
153 -252 80 0
-303 304 -223 0
57 -450 -257 0
-48 259 -142 0
-41 442 -112 0
488 123 -345 0
-208 38 166 0
-63 -46 -286 0
164 -299 427 0
-93 44 -261 0
248 21 90 0
21 -446 348 0
374 423 -102 0
-142 59 52 0
-299 373 110 0
-10 -225 224 0
-10 207 415 0
295 -28 237 0
-411 -233 -467 0
34 137 -378 0
-7 -289 126 0
457 273 -238 0
-116 135 375 0
-71 -279 446 0
307 53 21 0
33 486 369 0
310 423 -239 0
-354 -199 158 0
-53 -192 278 0
-17 -131 335 0
314 -322 -315 0
131 133 -91 0
-282 -28 -438 0
396 60 22 0
344 -395 146 0
-468 -86 -29 0
412 -323 -325 0
-306 223 429 0
-327 203 -388 0
355 359 430 0
172 -263 177 0
335 -446 50 0
132 -148 108 0
312 302 96 0
345 -430 -468 0
-156 119 285 0
-299 20 -141 0
-129 -40 -74 0
-86 61 -192 0
-456 -43 -494 0
-454 -379 -232 0
306 -490 416 0
91 -299 -196 0
146 94 -489 0
447 -218 459 0
353 -372 115 0
-62 -174 486 0
-201 -3 263 0
391 355 -408 0
393 171 -277 0
228 -456 206 0
-434 376 -65 0
-73 -35 25 0
-410 -387 -298 0
-12 -144 -179 0
-210 80 238 0
-462 207 -176 0
36 198 422 0
429 -233 389 0
-74 326 -222 0
-252 64 482 0
391 231 175 0
13 -147 410 0
-51 437 -41 0
-13 279 -213 0
477 201 -375 0
-426 -78 112 0
192 225 -378 0
-243 284 7 0
-415 -2 141 0
-118 -77 -98 0
145 -118 117 0
7 306 366 0
-146 119 -445 0
170 -286 -94 0
341 -473 117 0
-199 340 -218 0
-203 -77 -498 0
-272 -267 -11 0
-48 -296 -191 0
-238 410 -103 0
215 419 -4 0
-151 -171 -469 0
-387 360 369 0
-380 -253 337 0
201 479 337 0
-231 -281 -224 0
421 -249 -355 0
-277 -442 287 0
-117 380 171 0
244 -99 -445 0
-285 484 361 0
424 203 47 0
323 -190 275 0
-368 286 356 0
-157 -197 -214 0
241 461 304 0
-175 -423 243 0
-349 493 170 0
245 148 24 0
425 -103 462 0
450 -89 397 0
193 -168 -37 0
158 -31 -413 0
265 -333 -173 0
64 -221 -274 0
-91 -97 -84 0
180 -368 302 0
417 330 26 0
-231 -294 391 0
-31 140 50 0
-21 4 -161 0
274 13 499 0
300 290 200 0
242 97 -413 0
-25 -286 414 0
184 309 -361 0
-202 236 418 0
295 118 214 0
463 62 -335 0
32 479 438 0
-164 216 219 0
-227 -73 -185 0
-354 33 154 0
-387 -290 71 0
319 271 -131 0
-25 369 489 0
-286 165 -150 0
-228 132 -174 0
339 445 -84 0
-433 332 -344 0
154 242 141 0
-497 156 -485 0
449 337 191 0
-426 -156 55 0
-192 -498 -50 0
41 335 3 0
196 -299 448 0
-399 347 -119 0
-33 -397 -339 0
2 -186 445 0
43 335 304 0
-335 80 -54 0
-153 -417 339 0
4 144 127 0
-206 -428 -11 0
-21 228 190 0
-313 289 74 0
-140 -15 487 0
143 -277 -176 0
-404 77 346 0
411 430 448 0
221 416 -122 0
54 -460 -478 0
-251 361 124 0
-361 -254 26 0
16 235 20 0
-464 329 293 0
-340 367 -247 0
-30 414 -489 0
-313 259 -497 0
-387 207 396 0
-226 496 365 0
-152 283 384 0
111 335 139 0
-348 203 27 0
469 173 206 0
293 -350 -376 0
-62 155 289 0
281 297 35 0
-185 -124 162 0
-382 -466 142 0
386 143 -420 0
-484 270 -346 0
43 -122 22 0
269 271 495 0
-2 -143 -312 0
478 49 -375 0
-259 -467 471 0
-223 -315 250 0
182 -119 31 0
457 -251 -142 0
476 -375 -114 0
81 -53 420 0
-15 442 -399 0
479 194 190 0
-4 -371 102 0
-148 -218 111 0
-349 367 488 0
-175 404 263 0
-40 -259 204 0
375 495 42 0
143 -466 -276 0
-418 85 416 0
-66 486 344 0
303 381 133 0
-405 92 494 0
94 -70 -305 0
381 -349 -215 0
-158 332 174 0
-235 -159 179 0
-484 453 337 0
406 96 -234 0
88 74 -119 0
174 -242 193 0
150 359 -101 0
-497 71 311 0
139 -346 57 0
-244 -84 -473 0
118 -323 -276 0
-399 -74 -54 0
-157 -443 160 0
78 271 392 0
179 490 3 0
166 23 -188 0
-427 129 276 0
409 248 -218 0
346 -481 427 0
231 23 497 0
-313 70 -180 0
-347 225 346 0
-382 -285 485 0
-126 -282 -425 0
229 -219 -402 0
91 111 308 0
106 -101 371 0
178 -47 42 0
409 -157 40 0
354 49 169 0
-151 -177 178 0
-384 107 43 0
174 -235 -440 0
-69 -67 -7 0
-29 -377 -432 0
356 -396 -346 0
415 -385 -322 0
278 -208 106 0
-78 395 208 0
-332 -374 415 0
436 -466 -328 0
318 331 -245 0
274 -103 302 0
169 -369 -126 0
-43 -293 480 0
-291 -174 -233 0
449 -279 -19 0
-180 -459 279 0
-62 -60 83 0
-421 419 24 0
318 -434 -83 0
-3 -336 153 0
341 170 -121 0
358 342 100 0
-89 -371 287 0
273 -144 241 0
-470 227 -2 0
-1 124 488 0
-350 229 330 0
-382 316 120 0
-224 -402 -259 0
445 151 -131 0
-83 -251 -253 0
-324 111 -253 0
-42 -167 378 0
-139 -225 -74 0
-367 -169 -182 0
-36 266 -332 0
-233 -148 281 0
438 162 51 0
-363 -216 495 0
141 -473 -97 0
-335 337 -85 0
-250 104 -256 0
-315 -359 -84 0
-43 -108 -202 0
331 -51 270 0
-450 404 311 0
64 -474 -54 0
468 -51 241 0
-347 -14 -185 0
403 -69 200 0
273 -365 246 0
-273 -25 369 0
66 -386 43 0
307 242 345 0
-132 471 292 0
-489 55 377 0
142 -398 -437 0
259 10 468 0
-30 -210 149 0
271 323 235 0
-320 288 192 0
-292 -456 306 0
-129 479 -430 0
-35 377 351 0
336 285 -297 0
180 267 202 0
106 -173 491 0
-160 405 -431 0
-302 -431 353 0
354 -4 -291 0
-103 39 -49 0
74 -468 26 0
26 -271 -368 0
-466 -176 256 0
-25 234 392 0
89 -223 96 0
-240 -419 -146 0
129 105 422 0
-143 370 245 0
461 -149 -162 0
-78 6 -108 0
267 -152 197 0
57 -119 181 0
89 -70 -454 0
-129 -206 63 0
247 -256 -385 0
-134 39 -326 0
220 -104 240 0
425 462 -282 0
284 140 -486 0
-192 139 426 0
-75 -483 329 0
-65 241 182 0
220 -291 36 0
-291 497 328 0
-34 -288 62 0
-168 -292 -160 0
-144 -244 -357 0
362 342 -183 0
-264 487 50 0
244 71 -361 0
489 -101 142 0
-238 -229 -387 0
199 281 -384 0
-159 -332 239 0
491 -409 181 0
-35 233 -83 0
411 -215 487 0
-403 238 -299 0
-389 142 -305 0
36 -489 285 0
-347 -21 -236 0
186 429 -226 0
260 181 -158 0
472 -198 161 0
260 -376 326 0
412 -178 422 0
166 -84 -462 0
235 245 -114 0
455 463 333 0
-400 -117 163 0
31 -121 -450 0
183 301 345 0
-369 468 -495 0
78 -441 425 0
212 267 68 0
-40 246 82 0
-386 109 -225 0
-297 -174 213 0
-164 50 -235 0
305 -407 -190 0
-442 381 431 0
11 25 39 0
-427 59 -235 0
-287 311 453 0
294 -6 287 0
111 283 85 0
-68 -272 -339 0
-276 251 -351 0
321 344 -27 0
88 453 -289 0
-63 -188 11 0
391 174 366 0
-331 -44 82 0
500 -380 -71 0
396 -480 -35 0
-351 -281 212 0
15 -56 394 0
399 -109 -348 0
109 229 361 0
-263 -432 -248 0
458 -460 -442 0
295 -254 -352 0
360 458 -370 0
-400 176 -232 0
183 -475 361 0
476 484 140 0
-452 28 -138 0
72 282 190 0
-344 -359 -180 0
-299 -115 -320 0
209 -368 326 0
342 -388 420 0
-262 -160 -1 0
474 441 -11 0
141 379 317 0
-414 224 15 0
-144 -462 -230 0
-181 98 -478 0
393 310 143 0
173 361 -325 0
118 14 -439 0
-497 -310 320 0
141 56 -195 0
315 -65 -364 0
33 -267 -34 0
-456 -136 -292 0
-291 -439 -478 0
-27 -110 -357 0
111 70 -253 0
91 -80 -42 0
-325 249 308 0
498 -107 -229 0
57 216 -477 0
434 -145 -399 0
-215 259 496 0
322 -437 -490 0
-172 259 -306 0
-6 215 -10 0
-247 -244 205 0
61 16 -240 0
-394 6 -197 0
69 104 241 0
-185 -220 -246 0
486 192 -38 0
210 11 419 0
359 -17 197 0
-187 -447 -186 0
-388 -70 -331 0
231 322 15 0
-258 77 -329 0
295 -243 212 0
-254 196 -333 0
-152 491 -54 0
147 -69 50 0
312 175 499 0
-417 227 -409 0
208 -239 -301 0
274 280 250 0
210 -117 -461 0
-134 278 -356 0
102 249 -40 0
244 364 -83 0
140 58 470 0
-499 332 -21 0
38 120 -306 0
-423 -477 3 0
488 -196 462 0
-230 -488 461 0
388 264 147 0
365 422 297 0
76 72 -404 0
128 400 386 0
-146 -175 410 0
-302 400 -72 0
-17 53 447 0
111 483 -315 0
-222 101 -334 0
-427 -54 377 0
138 173 -81 0
-211 388 95 0
234 379 138 0
-425 289 -399 0
-15 248 279 0
40 391 -488 0
159 -206 -201 0
112 -113 -424 0
-261 -230 -16 0
-456 -308 233 0
-338 311 -70 0
96 279 -387 0
146 -94 -222 0
-308 -216 -129 0
209 -4 494 0
306 35 -454 0
-137 -294 494 0
-1 -206 -268 0
-274 221 143 0
-130 -375 302 0
-405 205 404 0
390 -431 -35 0
-361 167 -280 0
-215 -258 372 0
444 -172 216 0
390 -107 -144 0
462 -479 -294 0
15 231 500 0
-271 -289 -233 0
307 255 308 0
190 -18 99 0
-283 -104 -305 0
-365 3 -85 0
-336 368 -277 0
-117 -266 -295 0
7 124 -288 0
135 -255 -56 0
271 -167 -489 0
-118 -425 404 0
10 -300 -257 0
338 -438 30 0
-32 348 8 0
123 286 -420 0
311 320 -332 0
-173 -338 -438 0
-390 84 -419 0
263 -41 295 0
-54 -79 -486 0
-77 413 -87 0
437 80 -8 0
83 249 -449 0
-390 -320 -62 0
-408 470 -275 0
45 249 -491 0
-289 -383 -307 0
245 -420 -20 0
102 -162 71 0
-70 402 367 0
-225 203 -476 0
-486 68 464 0
-69 -97 87 0
-189 38 -185 0
182 12 -211 0
391 -177 456 0
362 314 442 0
-35 -114 -33 0
-115 -489 33 0
-476 212 320 0
437 237 294 0
359 -46 -98 0
-169 322 -7 0
475 -108 -459 0
-33 312 -410 0
-330 -148 229 0
-320 484 -65 0
-420 45 -136 0
362 331 351 0
-115 -252 329 0
-389 349 -5 0
-227 -142 438 0
-347 -473 448 0
-211 -386 423 0
-68 -384 -287 0
-234 -431 -279 0
215 -224 -22 0
284 -17 369 0
139 -405 27 0
-370 -200 -86 0
-260 347 296 0
-288 -341 60 0
196 -136 33 0
353 -177 430 0
151 -417 166 0
-384 347 -243 0
250 -264 -378 0
317 -484 -219 0
91 103 -256 0
117 -369 -9 0
445 106 241 0
45 -397 118 0
-286 244 272 0
359 310 415 0
201 -347 -61 0
-413 -275 -255 0
323 -50 483 0
433 -477 337 0
342 192 -439 0
489 268 -387 0
355 -497 -275 0
493 370 95 0
152 -388 -243 0
294 -266 319 0
-136 434 298 0
-14 212 357 0
-458 105 291 0
-291 223 327 0
82 -16 -175 0
-268 -327 66 0
-214 -241 358 0
-64 -8 168 0
-367 26 -273 0
-374 -263 441 0
-460 467 -325 0
187 -492 343 0
78 431 253 0
315 -400 -348 0
-260 -243 -305 0
131 -35 -99 0
33 322 198 0
-211 193 302 0
-194 248 -368 0
-227 136 -168 0
-464 -428 90 0
-266 396 -181 0
-127 208 153 0
-454 -18 -251 0
-20 -314 41 0
223 -299 6 0
430 364 -279 0
410 -33 369 0
223 133 -492 0
-280 176 250 0
123 -356 482 0
-442 494 220 0
-204 -138 -495 0
409 129 -290 0
-322 435 -273 0
252 251 449 0
468 -190 -90 0
-178 -289 379 0
-424 -442 -133 0
-306 -121 21 0
166 384 -416 0
476 138 -78 0
-311 -440 181 0
41 299 100 0
462 28 293 0
-116 -358 -255 0
375 -104 407 0
226 340 335 0
-218 -167 -259 0
241 -67 63 0
-14 -277 -496 0
206 66 373 0
-198 52 150 0
-495 -175 348 0
434 433 -29 0
68 330 182 0
-470 -8 -290 0
-166 -444 327 0
-359 292 440 0
234 459 429 0
84 359 358 0
-102 146 -198 0
-107 -63 -336 0
95 -473 -257 0
-301 132 193 0
-405 313 253 0
-16 171 160 0
500 -48 415 0
323 -339 425 0
307 -340 145 0
181 106 391 0
-417 -446 188 0
-46 294 -259 0
108 -349 496 0
123 -73 95 0
-111 90 -462 0
-145 74 -117 0
148 -316 232 0
442 -56 -177 0
-216 -185 54 0
-140 179 358 0
-436 2 -482 0
-350 462 98 0
-232 369 111 0
-405 299 -288 0
-429 346 -222 0
115 206 -351 0
-479 147 288 0
-326 165 156 0
268 496 -374 0
294 -410 -239 0
35 208 -100 0
230 75 55 0
-51 226 -472 0
-326 -16 -57 0
217 -75 408 0
312 176 412 0
-44 -250 47 0
-414 -298 -43 0
-128 -427 283 0
132 53 30 0
-51 -358 211 0
-264 93 5 0
468 -321 322 0
312 -383 -139 0
-491 -280 -247 0
378 333 35 0
221 -393 -163 0
-26 -103 450 0
285 -499 -15 0
-323 337 -388 0
-460 101 -337 0
267 11 221 0
447 495 388 0
189 28 -213 0
397 -431 -15 0
-437 -164 3 0
-147 -273 -458 0
-105 -85 356 0
-409 -303 -268 0
-239 157 -14 0
-359 477 -413 0
-54 -290 9 0
378 -10 251 0
396 -344 -131 0
-207 40 -186 0
-490 73 -442 0
439 -234 87 0
73 40 -106 0
-95 426 -108 0
-457 400 94 0
-422 -37 -452 0
191 174 476 0
-144 20 -324 0
-272 295 334 0
-17 -249 322 0
-311 426 329 0
312 -44 22 0
227 87 -120 0
285 -94 159 0
-106 -257 459 0
491 -201 316 0
-65 300 -191 0
297 -184 -451 0
259 -315 6 0
12 -330 170 0
23 -490 418 0
333 -122 354 0
-60 37 471 0
-48 -202 -317 0
-243 -125 447 0
-342 -346 -127 0
202 445 -280 0
120 -63 463 0
286 -228 -125 0
442 -224 213 0
-33 -356 43 0
200 -259 -77 0
174 -302 359 0
-315 110 105 0
-469 273 -110 0
-246 187 244 0
155 -49 -90 0
404 176 333 0
-138 -184 420 0
-273 327 145 0
-98 -211 381 0
-107 378 -88 0
-128 -381 -332 0
-55 290 336 0
3 -127 -384 0
231 222 -407 0
-36 95 -130 0
407 -310 8 0
-194 -5 -95 0
-289 -360 -91 0
-161 381 -411 0
258 477 361 0
-187 -96 -450 0
497 172 -411 0
-402 23 -414 0
417 -64 -347 0
-310 -251 361 0
-440 -143 3 0
-386 -218 48 0
453 -126 -97 0
-215 352 -463 0
409 198 -477 0
-407 315 461 0
-28 291 -304 0
144 -470 -151 0
-469 -187 180 0
60 210 -58 0
-94 -432 -470 0
-358 -133 186 0
492 -189 268 0
454 -173 -33 0
487 -120 379 0
428 -291 34 0
-122 218 -15 0
174 -399 -144 0
-330 295 -11 0
-431 -128 269 0
386 -104 -149 0
211 115 -497 0
446 -291 418 0
-285 303 135 0
-67 489 -379 0
286 -154 481 0
-127 98 360 0
396 -129 -280 0
328 439 -152 0
370 36 233 0
-294 111 138 0
190 213 -351 0
-155 275 -103 0
-164 382 -33 0
85 310 -73 0
262 -415 -196 0
263 -116 -324 0
-351 87 202 0
-184 -106 -51 0
83 438 -442 0
-307 243 206 0
44 454 -434 0
230 -251 276 0
91 290 -178 0
136 -267 -220 0
397 -297 97 0
-359 374 239 0
79 -404 256 0
31 345 489 0
367 143 -125 0
-415 12 127 0
-350 169 497 0
-91 215 -230 0
10 103 98 0
-65 -373 -483 0
500 -196 -314 0
171 -130 -72 0
133 218 -207 0
174 -71 -432 0
-448 245 214 0
161 444 -500 0
-40 77 68 0
360 -43 -250 0
-327 -376 -154 0
-47 488 44 0
198 154 108 0
234 400 339 0
-237 -479 -297 0
36 -57 305 0
-92 313 10 0
195 387 -18 0
-23 -240 232 0
425 443 193 0
60 27 -135 0
-263 4 -112 0
423 109 -67 0
181 452 117 0
103 -17 -338 0
-195 448 -459 0
101 61 68 0
-162 -378 -231 0
-7 -199 -296 0
-140 -263 -449 0
122 -477 -378 0
-494 239 -109 0
341 -159 104 0
356 -30 -340 0
-321 478 216 0
-472 222 -170 0
-139 -12 -424 0
494 -481 -139 0
-474 38 -419 0
-179 -103 -284 0
188 60 357 0
251 -227 -299 0
-106 -296 112 0
-304 249 20 0
172 332 -115 0
475 -270 300 0
340 401 -201 0
296 47 486 0
210 176 78 0
-10 176 -498 0
155 120 187 0
-144 489 449 0
-261 241 -366 0
-278 123 240 0
124 104 244 0
-299 4 -28 0
-397 -9 299 0
-239 -166 -19 0
497 34 -334 0
-256 -193 378 0
479 474 221 0
-22 -82 301 0
-174 271 -490 0
453 -372 -466 0
-200 -390 359 0
-172 420 41 0
-86 -327 -301 0
-435 -417 -325 0
153 -212 252 0
-168 -406 -164 0
-295 156 199 0
-17 -242 281 0
127 381 292 0
108 -119 -65 0
-76 -125 -269 0
-67 160 332 0
-191 -227 -319 0
-11 -212 -365 0
182 49 267 0
366 -368 157 0
40 183 -219 0
-70 82 243 0
-407 18 -290 0
-500 87 -308 0
-224 9 -390 0
499 -207 436 0
-77 342 287 0
-488 -314 103 0
-301 -250 281 0
16 -69 -105 0
-151 479 162 0
-93 248 -119 0
-22 15 -182 0
-304 -371 250 0
378 296 372 0
-108 301 -79 0
-209 433 274 0
-162 -298 496 0
234 -251 -383 0
-361 -318 -387 0
-293 -382 284 0
207 -285 -125 0
171 366 -427 0
-259 376 -114 0
498 431 -321 0
491 322 -305 0
-356 190 -380 0
31 121 286 0
454 -347 -446 0
-232 -375 -42 0
-152 106 111 0
95 49 39 0
-464 103 339 0
162 -98 -11 0
-278 238 -148 0
-451 145 -159 0
42 -468 402 0
200 393 -306 0
428 72 -136 0
-27 360 -25 0
-238 -411 84 0
140 -215 224 0
74 480 -259 0
478 215 -335 0
49 222 145 0
-62 -58 108 0
231 297 -200 0
190 -350 -394 0
470 126 344 0
70 317 157 0
178 -316 291 0
140 -4 449 0
-299 -207 489 0
-201 -29 -35 0
-146 -44 137 0
165 227 302 0
-143 -366 -345 0
-229 -143 367 0
-107 102 262 0
64 341 -25 0
-109 -271 379 0
351 -318 -105 0
43 57 -205 0
-176 -118 -79 0
391 459 -262 0
461 -438 -327 0
36 -362 410 0
92 482 -36 0
-292 316 -260 0
237 395 -427 0
-314 337 -267 0
-81 -289 -498 0
-54 -222 187 0
-377 -369 -409 0
100 429 5 0
205 425 376 0
-333 -189 -242 0
-185 -291 -426 0
-4 25 -431 0
451 -284 -283 0
492 -383 130 0
145 351 -266 0
-168 499 347 0
400 -199 -411 0
-243 483 377 0
-203 346 276 0
247 219 -368 0
139 -492 -181 0
182 -384 -44 0
-256 -189 140 0
48 -35 -101 0
492 442 186 0
29 408 -61 0
424 164 148 0
-67 -256 6 0
224 -382 -430 0
-348 -461 -39 0
43 305 -500 0
-82 -199 -144 0
473 -18 296 0
136 -183 -14 0
74 315 313 0
388 364 -207 0
80 -242 -277 0
497 65 465 0
-344 -376 79 0
275 500 -40 0
-358 -500 -120 0
201 289 -52 0
205 24 -320 0
-179 -146 363 0
215 -206 -466 0
326 476 -68 0
458 -229 -238 0
182 118 181 0
-185 -497 -491 0
218 253 -484 0
-415 56 421 0
310 258 111 0
-197 87 -190 0
-43 471 136 0
-321 -84 -316 0
-166 220 -309 0
180 -154 -346 0
-49 48 72 0
-183 74 -263 0
55 146 410 0
326 -109 173 0
-229 -465 -439 0
271 352 355 0
-142 -277 -195 0
-337 -466 -243 0
-125 381 176 0
186 -384 -40 0
367 -378 -408 0
82 -467 363 0
412 9 -438 0
335 199 83 0
95 287 -236 0
42 -47 -368 0
-317 -160 -240 0
438 -369 -171 0
-266 -360 135 0
-204 -61 19 0
365 45 37 0
51 382 -343 0
-336 -419 -73 0
-369 41 -243 0
260 -1 450 0
-178 -8 -405 0
163 129 71 0
459 111 126 0
-19 -253 -10 0
388 -167 61 0
-34 -96 -324 0
348 473 410 0
-84 458 160 0
-408 450 -72 0
396 489 -114 0
68 -199 232 0
354 182 -427 0
23 -291 465 0
237 460 -359 0
472 -497 -103 0
-68 -383 420 0
-123 -485 -166 0
-25 474 103 0
134 -434 181 0
81 -369 460 0
454 -103 -324 0
-249 -31 -432 0
134 -433 -123 0
396 -298 30 0
103 251 -460 0
-28 -204 212 0
253 -423 -313 0
3 -223 29 0
-206 380 427 0
-471 -124 153 0
-99 -70 -381 0
209 -332 -167 0
-92 -126 429 0
-91 -41 -3 0
80 168 119 0
-151 -123 -40 0
-458 343 -188 0
218 460 310 0
-63 -298 -416 0
131 -330 43 0
-394 -378 243 0
-421 -372 -187 0
301 -427 -293 0
-406 228 480 0
51 397 25 0
194 216 -483 0
-16 -382 12 0
-306 423 64 0
-295 -203 -78 0
-230 -458 349 0
-64 190 -382 0
-333 -389 -100 0
106 -225 47 0
315 -425 -366 0
-213 52 409 0
-189 185 99 0
-385 378 -146 0
-242 68 420 0
-338 138 -90 0
129 -345 -219 0
-244 48 316 0
-313 -253 -346 0
324 361 -402 0
-112 368 255 0
328 343 -262 0
-300 204 -458 0
268 333 -13 0
98 375 -228 0
353 403 393 0
-206 31 112 0
-174 386 -298 0
-107 -194 -395 0
421 -438 368 0
189 -194 181 0
339 290 -390 0
-347 351 306 0
412 61 -296 0
-85 -106 93 0
222 -374 276 0
-45 373 271 0
240 97 164 0
428 416 323 0
33 441 -284 0
227 400 -130 0
214 295 254 0
56 -379 488 0
206 -485 -245 0
-483 475 456 0
323 -92 313 0
-432 422 451 0
-392 -471 -266 0
195 -416 -384 0
-485 -293 -41 0
388 -210 87 0
189 88 -306 0
208 -183 -387 0
23 -72 -244 0
130 -325 -395 0
227 -260 258 0
362 -283 -471 0
-305 -51 -242 0
-27 -295 -168 0
-132 -74 446 0
-41 179 -219 0
469 -480 -170 0
83 130 400 0
283 404 123 0
-28 80 -411 0
427 -415 26 0
195 128 15 0
244 194 -110 0
-97 -140 170 0
-253 462 119 0
371 441 -21 0
-484 -221 -123 0
353 -108 237 0
329 472 34 0
147 -143 -314 0
255 -119 -51 0
274 -87 -381 0
-7 228 230 0
-165 332 -189 0
-423 -4 -167 0
-354 102 -272 0
-326 55 -491 0
492 -23 374 0
366 395 417 0
-58 500 392 0
-470 -260 207 0
-107 -56 327 0
385 -357 82 0
454 -442 -58 0
492 304 -220 0
-291 -431 409 0
380 -409 -72 0
-445 322 -48 0
-485 -474 -373 0
-250 -345 202 0
-387 320 44 0
12 -333 -426 0
-473 -482 63 0
20 393 36 0
-245 -479 -406 0
-419 405 -336 0
-12 252 -74 0
-415 498 -282 0
321 -262 468 0
-175 333 336 0
241 443 -359 0
-90 -49 266 0
457 290 -239 0
372 338 -99 0
202 -298 -461 0
296 83 88 0
-274 -37 465 0
450 125 413 0
-274 -291 -27 0
107 -6 -478 0
374 -457 -179 0
-31 -341 39 0
362 -126 434 0
-365 -460 -334 0
469 -138 188 0
211 -445 -454 0
21 323 -275 0
-39 -489 86 0
437 -312 254 0
-80 -448 28 0
-6 -54 75 0
-126 -7 -131 0
-333 89 -261 0
-139 14 408 0
386 373 -265 0
464 143 35 0
-387 -469 -461 0
-302 98 378 0
385 -255 265 0
175 -242 396 0
-311 -387 50 0
-349 145 -168 0
491 -425 62 0
311 306 392 0
-235 322 99 0
-96 -350 -445 0
85 94 41 0
337 -116 195 0
248 345 66 0
305 190 -337 0
-377 -404 340 0
-270 -301 384 0
-225 370 -156 0
-96 73 -331 0
-46 166 -102 0
316 -454 -355 0
442 -64 -495 0
-454 -122 -456 0
-258 339 120 0
-108 -440 81 0
-379 -331 3 0
-393 -399 349 0
-330 428 227 0
397 -410 -401 0
157 301 73 0
92 12 -360 0
417 -313 -305 0
-217 237 -476 0
162 360 419 0
27 104 -23 0
-301 -427 -117 0
144 291 -146 0
333 -153 328 0
480 133 -248 0
-454 395 450 0
-128 460 -496 0
264 -268 430 0
-199 197 424 0
-207 -318 -341 0
-436 -76 178 0
357 -359 351 0
-161 21 62 0
-111 155 83 0
414 34 184 0
-421 345 -173 0
-267 355 -436 0
422 217 -361 0
-222 252 439 0
428 -228 152 0
-71 94 424 0
-57 40 -134 0
-467 485 57 0
164 119 -150 0
451 200 -449 0
167 294 481 0
235 475 161 0
-195 -78 53 0
-335 -161 -429 0
349 220 -172 0
-34 491 389 0
-423 271 -428 0
-163 -97 -53 0
-80 -52 337 0
107 -73 -63 0
109 137 1 0
408 -239 -148 0
-158 306 -199 0
-429 354 -2 0
-320 -230 -254 0
45 -262 445 0
-63 360 -31 0
-73 -62 -401 0
-155 -291 -491 0
48 7 -394 0
12 -142 358 0
265 -488 361 0
-357 79 454 0
-41 338 361 0
-281 460 -360 0
-307 -21 -286 0
171 225 164 0
-123 500 441 0
207 -19 -225 0
-290 -82 -12 0
103 -176 -249 0
-27 274 -98 0
192 -414 -213 0
129 -149 433 0
226 365 256 0
-206 418 96 0
467 -126 46 0
-329 -413 5 0
117 169 -133 0
228 450 16 0
-456 177 314 0
15 235 -491 0
81 337 429 0
340 476 233 0
314 -75 5 0
397 480 469 0
-473 -267 -46 0
469 80 -180 0
-359 303 -495 0
355 -467 261 0
236 16 -429 0
464 -213 -218 0
-279 32 39 0
310 165 14 0
-483 -145 66 0
192 -136 24 0
446 -262 -375 0
-125 -462 195 0
-168 -404 476 0
87 445 36 0
300 -432 -181 0
-312 455 419 0
-277 -486 -398 0
73 -460 278 0
-152 366 -165 0
-53 -389 5 0
456 257 73 0
191 453 -248 0
256 113 208 0
-357 -423 121 0
135 92 369 0
-361 -203 25 0
-343 112 366 0
-175 477 -293 0
-20 -264 225 0
436 101 -25 0
399 -472 -152 0
-407 -31 404 0
-447 -430 -90 0
-175 129 -312 0
379 150 450 0
-444 -84 489 0
254 460 -59 0
53 -114 -269 0
83 -333 -196 0
-329 -27 -337 0
196 472 59 0
123 -148 481 0
397 -202 -140 0
-199 246 228 0
209 -212 92 0
-469 423 47 0
469 500 359 0
-499 -16 -250 0
63 52 -300 0
-106 389 -123 0
-437 -473 -238 0
442 460 -318 0
-199 -300 -62 0
470 -17 -305 0
452 37 461 0
-293 160 -462 0
-500 -323 -152 0
-443 228 29 0
-355 -35 16 0
425 -143 -194 0
-95 325 -164 0
260 138 493 0
432 -79 5 0
56 141 -391 0
351 -26 458 0
-433 -430 -228 0
202 248 4 0
-152 262 -233 0
-25 -360 73 0
13 -135 2 0
186 -439 -276 0
-151 -386 -461 0
368 -305 -267 0
370 288 -381 0
-461 -495 -339 0
-350 -305 -116 0
248 -21 395 0
325 -127 -294 0
-296 116 208 0
-97 316 412 0
-315 -250 -239 0
-58 -108 371 0
437 -26 168 0
-190 -58 222 0
-255 12 -14 0
154 -355 -4 0
409 133 198 0
-283 -498 -238 0
227 -375 199 0
-162 -174 -61 0
369 -222 394 0
-497 -247 -259 0
-469 -391 137 0
151 183 -497 0
308 266 448 0
-80 217 -346 0
75 139 -147 0
-317 296 499 0
-302 -308 -326 0
157 -267 112 0
-372 321 159 0
83 399 64 0
-185 328 107 0
36 174 195 0
-163 200 -289 0
168 -134 -223 0
-93 -186 -495 0
180 27 -60 0
342 -353 -299 0
454 153 -267 0
298 99 412 0
57 -386 338 0
72 207 281 0
-83 306 -36 0
45 217 -368 0
-96 -298 217 0
-493 177 334 0
-241 229 358 0
353 124 -210 0
-303 476 31 0
62 217 89 0
-304 -328 354 0
-421 45 238 0
244 114 -428 0
46 -194 -461 0
462 -74 121 0
-395 -388 479 0
-50 -430 -379 0
188 -496 -222 0
-419 -478 451 0
-194 -107 -73 0
-27 446 -371 0
89 134 -228 0
-250 481 -273 0
-125 392 -450 0
-198 -51 -146 0
-435 -247 12 0
