c Easy-SAT formula for GPU Gaussian elimination testing
c 1000 variables, 2000 clauses
c Designed to be easy to satisfy (fast SAT) but large (slow GE)
p cnf 1000 2000
1 0
2 0
3 0
4 0
5 0
6 0
7 0
8 0
9 0
10 0
451 355 73 -123 734 0
-354 897 14 523 -795 0
424 -888 -909 110 567 505 0
-101 712 952 -529 0
-745 -408 -40 -666 -577 446 0
799 894 587 563 -769 -236 0
-767 539 714 784 601 0
245 -239 -247 -92 -113 -128 0
192 -218 -75 -229 571 0
-904 -281 418 -328 215 0
-284 -177 662 -680 -479 546 0
-618 -225 774 133 0
879 325 188 422 0
592 536 376 -593 0
342 772 -947 624 0
550 79 -764 -383 0
592 -899 -673 -329 -365 122 0
-851 31 -840 510 -447 234 0
315 633 -956 -368 -17 -34 0
601 414 53 460 503 0
710 -630 238 603 0
124 666 -491 -221 0
-339 293 -900 -370 0
-635 270 -201 -922 881 0
-547 164 -755 28 0
657 -696 -192 228 -180 734 0
225 -320 26 -72 -366 781 0
739 975 385 -689 0
-731 44 -959 -213 792 245 0
-156 -822 -9 -832 -79 0
554 206 -657 559 207 -40 0
622 925 345 142 708 0
-831 949 69 -351 671 101 0
-922 281 303 319 0
527 -824 -952 889 602 0
-937 748 901 -756 972 -557 0
-254 -111 -375 -888 752 295 0
597 864 -939 -194 -773 0
-282 -129 -782 157 0
88 -764 167 604 719 136 0
-197 208 354 182 -619 -86 0
-912 301 -590 -663 928 26 0
-895 800 346 -774 0
-123 557 716 -632 0
-903 84 400 -96 200 -497 0
-11 -467 911 -682 0
386 2 -811 601 0
-684 -542 -743 7 190 911 0
529 779 357 -162 -436 0
-560 521 -166 443 0
11 -669 90 955 0
416 193 -923 -994 -409 669 0
-641 671 -508 -811 0
3 361 -806 317 306 -528 0
-59 58 865 168 -115 -159 0
-813 377 412 -33 0
-313 256 169 437 -724 -414 0
339 -282 775 157 571 427 0
-270 -169 302 274 586 -198 0
787 -403 -20 -213 0
925 -323 507 -683 0
315 292 979 -441 -806 -19 0
-713 406 184 -934 -375 0
-60 -104 -708 778 -853 0
-527 241 -52 641 103 0
346 -388 442 -642 -146 0
118 212 -833 -908 0
-351 212 633 619 -959 951 0
-502 -938 873 -478 0
-849 -480 -833 843 0
999 656 -607 203 346 0
-52 352 -982 390 67 0
-721 -155 -847 -503 -453 0
267 569 658 -576 -608 492 0
673 916 -98 -606 0
-401 -126 -12 -475 588 0
471 -255 923 335 236 0
915 -443 -597 -861 0
-857 806 661 -779 0
-880 644 -982 524 260 43 0
708 955 807 627 -796 0
259 -670 338 -688 0
850 -706 -953 -39 620 351 0
689 341 932 757 -467 -461 0
-496 -392 -3 461 970 0
-605 745 839 -178 -145 0
533 265 -972 -30 -12 922 0
-874 -239 360 -803 0
-435 148 817 131 -38 -578 0
869 -588 472 -39 0
-965 -801 65 772 902 728 0
691 781 422 43 950 0
145 -253 407 -491 153 0
-703 -173 217 566 0
-625 -223 -270 -895 241 -391 0
930 872 432 -645 0
-403 -340 579 -925 764 677 0
-260 450 -175 959 630 295 0
107 553 -99 -627 -131 928 0
-203 444 -191 982 0
944 392 -130 -464 0
-967 -275 598 869 0
-208 -701 462 528 13 0
225 996 329 278 0
498 63 -250 -788 -123 -616 0
-500 -425 554 606 245 -983 0
-437 -335 -715 -737 546 443 0
159 204 77 862 0
637 -812 -20 -610 348 0
-343 -492 388 -260 -878 0
-435 114 -953 722 0
454 -710 -788 -752 463 140 0
509 959 779 -62 -958 176 0
-480 737 96 -612 668 0
-57 -499 -915 -986 465 497 0
-160 -104 589 290 -359 0
295 -113 397 230 845 -422 0
-451 108 -859 46 0
569 -52 859 -698 -194 0
-612 662 125 -304 801 -687 0
376 -369 -603 582 0
284 309 -868 -13 -357 922 0
-350 -171 -127 -310 -204 0
-463 492 -795 808 513 -76 0
-610 -770 -427 -410 -752 0
792 456 277 388 -133 0
577 -513 -956 753 256 -421 0
-321 -130 101 631 0
854 347 -273 -544 -470 0
190 140 -519 -243 967 0
-729 -650 -188 808 -81 564 0
-380 -771 -945 241 369 0
-977 558 182 -891 0
529 -266 195 620 716 433 0
-725 842 -846 -983 -834 660 0
-551 -872 -790 238 -93 -896 0
921 -468 925 -962 553 0
446 -784 855 961 301 0
975 -822 937 836 0
-896 -541 477 -631 -370 181 0
570 -137 -511 -624 -561 0
292 -718 296 -710 398 71 0
-809 929 897 328 0
176 -911 780 770 444 0
-507 881 705 -78 0
856 -877 313 -506 189 0
799 -706 -793 -55 -528 0
-429 353 407 -507 0
-780 -543 -208 -905 261 -12 0
125 -336 -792 -17 0
733 -115 99 -621 0
-771 -617 -43 340 690 0
613 498 848 162 -641 0
62 -371 880 -942 898 389 0
-165 463 -478 501 -710 366 0
-686 -757 -162 -768 989 0
-116 767 248 638 186 0
62 -114 3 -384 0
-412 298 -746 46 0
-25 -335 -297 842 -694 0
444 829 152 -919 -153 0
60 -868 -627 871 -948 -924 0
49 -352 880 554 -411 0
328 -622 -436 -947 -441 504 0
964 -18 -720 -300 727 0
348 170 337 412 210 0
-235 669 -365 926 -276 999 0
-793 569 -452 -534 543 -154 0
-88 327 624 644 0
-263 908 -215 564 782 0
-281 479 586 -212 534 -69 0
-906 -376 -254 597 0
-84 671 -606 -496 96 0
836 -907 367 -365 -20 753 0
424 -239 -958 464 0
-133 624 125 -466 952 0
12 -40 713 -230 671 -314 0
935 553 118 421 0
885 71 145 372 -439 0
63 681 50 141 -465 964 0
-262 -435 560 550 -394 0
333 -883 624 -753 0
-582 -761 -574 -335 119 -390 0
949 244 -812 202 27 718 0
565 865 984 571 -462 0
-346 260 839 632 -878 565 0
-430 795 -620 691 -255 0
523 874 275 194 0
-913 83 43 523 75 0
648 945 464 -449 67 0
713 935 184 237 0
662 -965 -343 -741 -928 314 0
-375 310 -520 294 0
587 868 664 -771 641 0
47 -363 50 790 453 0
-797 -418 -501 655 503 -921 0
219 -305 -951 518 -110 -5 0
589 816 551 549 533 0
551 280 322 644 202 789 0
397 -42 992 -428 103 0
367 -540 695 -800 450 0
-869 -267 -969 887 -405 0
69 -496 679 307 0
-293 -507 366 355 680 0
364 538 -192 -876 0
-884 179 419 361 0
619 -252 192 -221 0
-790 -500 984 161 0
-413 -172 -471 645 0
-978 -463 -19 552 -223 0
25 28 -673 968 708 713 0
-62 546 -567 490 0
452 -284 -971 945 -528 0
-62 823 706 -219 909 0
210 -252 -242 853 0
431 624 546 841 0
-724 932 -39 -403 -807 0
501 746 424 226 554 -662 0
-853 -503 696 -942 0
-657 -94 184 -514 -196 -890 0
488 592 -847 -792 262 0
12 411 303 -177 -386 0
504 -463 -625 -372 0
-815 -694 165 176 -968 0
831 -717 623 237 -435 0
190 -399 -332 527 -124 0
-59 907 683 -425 -347 -451 0
-681 -401 840 -461 806 -69 0
-831 91 973 214 0
-673 706 725 -404 -323 205 0
-103 -828 987 474 0
695 738 -598 131 0
-624 834 -892 -502 514 667 0
928 -769 -496 -398 -706 950 0
-545 -80 125 1 0
-551 816 768 242 487 -185 0
-155 430 855 578 0
-740 -992 -41 870 -285 -517 0
-698 -427 -287 361 0
-124 -515 -57 622 0
625 113 -982 615 480 -708 0
-85 -902 986 -159 -466 -5 0
-406 108 177 -849 302 796 0
238 -515 861 -952 352 -939 0
-675 844 -361 -836 -970 0
-837 242 491 -774 0
-658 330 550 113 0
199 909 423 -796 0
101 -902 -606 -812 987 0
576 -861 216 -491 0
459 85 365 313 -17 -733 0
-952 -321 190 -955 648 0
-959 929 -136 340 596 -605 0
-680 189 695 817 899 0
-539 -340 -163 -455 -512 -538 0
-784 -263 -334 149 -403 0
931 62 -86 -386 187 365 0
-600 -618 -274 906 -701 -753 0
-205 508 -934 -128 -575 -78 0
678 667 -924 562 536 -74 0
-927 -557 661 745 -944 0
-312 59 -239 785 758 -230 0
654 999 -231 545 0
-764 346 -925 -369 0
-690 4 566 130 -723 0
-651 712 -708 -719 543 0
-781 -972 378 -420 -583 0
-264 646 615 -676 0
-593 516 507 963 -871 0
-633 41 732 -938 0
431 543 -193 319 325 62 0
239 -927 -93 815 0
824 323 -162 -337 0
-102 156 558 -551 -725 0
664 515 768 -921 0
-723 -507 936 -341 0
724 -270 978 648 -854 0
758 780 -146 -440 0
-97 -76 -990 -150 855 -707 0
-863 -211 -460 -675 -907 -65 0
78 669 -28 -969 562 667 0
100 997 -339 666 0
136 867 494 957 -315 372 0
-770 478 -609 890 773 -713 0
-246 -295 -699 -89 0
-836 258 203 797 -337 0
-107 -959 375 349 325 539 0
668 -440 -475 -59 711 -649 0
776 330 -431 71 -192 0
-405 -113 234 -40 829 0
-163 -371 -427 -823 755 910 0
718 863 713 414 0
657 -335 986 -496 -953 0
900 160 214 -945 0
-765 -303 32 607 -789 601 0
-657 893 168 181 0
308 240 632 -727 0
523 -401 370 889 -506 455 0
665 -867 920 940 175 0
-145 323 -722 737 55 30 0
927 -482 26 -640 782 0
-528 -706 675 -65 -605 -903 0
129 75 292 -385 829 134 0
359 281 764 -321 0
-308 -703 -665 885 -817 -886 0
689 242 -135 -81 -651 0
-22 524 244 -145 956 -894 0
813 402 -372 -125 0
-243 -412 -615 937 0
-717 -273 85 -604 0
-582 -928 -635 -61 -876 0
-892 350 -213 -279 -584 345 0
938 902 -279 -815 291 0
196 363 -111 -699 523 -335 0
-505 749 584 698 -221 -19 0
667 -355 353 628 0
-545 -979 889 404 441 -300 0
919 983 376 356 402 -443 0
777 -66 -332 673 0
-144 276 -438 -139 0
-348 12 -306 -128 -392 -553 0
770 303 885 496 0
-5 -652 190 -732 528 251 0
983 17 431 -559 536 0
595 407 -331 684 221 -523 0
-410 871 -165 -789 -711 0
-192 289 171 -113 0
743 280 338 871 -463 0
377 232 -215 427 635 0
420 -776 868 738 -760 -899 0
-594 292 659 -27 968 165 0
480 -427 -594 -513 802 641 0
-14 -393 436 -325 659 0
-456 -527 -485 319 499 -599 0
-178 162 -804 -300 0
640 960 233 567 222 0
505 -485 -389 405 629 0
503 342 864 -583 284 0
-376 -559 971 -333 0
809 221 -268 307 -516 0
-476 -11 -474 -800 -389 -245 0
-14 -778 -415 -95 570 -426 0
-857 796 -39 -546 298 -421 0
-226 -761 -767 -754 0
-869 255 848 -953 0
-358 -242 475 -597 364 0
459 525 852 560 690 730 0
967 890 -687 -887 -747 -959 0
868 894 650 -265 -331 0
536 -325 -399 390 493 0
890 -723 -215 -282 0
833 73 633 -519 758 -578 0
466 245 -565 -331 0
-244 -316 616 -588 489 -609 0
-433 -29 -834 -758 -554 903 0
397 918 71 642 0
684 838 772 836 0
947 -639 511 -224 -386 0
424 -8 -184 647 106 0
981 75 -725 455 -23 0
-888 -536 466 -980 324 0
804 623 -1 -190 612 529 0
-466 928 -125 -459 -537 0
-960 -165 855 426 -43 0
-938 209 -227 -553 23 -264 0
520 491 -757 472 -492 737 0
469 487 -105 678 601 0
379 -656 360 41 446 0
-453 -437 187 -159 -705 0
490 -943 701 380 -871 0
13 -735 841 -867 -987 0
917 10 -181 -976 -171 0
-666 -864 825 643 996 0
310 -495 -908 -403 0
686 549 -335 312 -612 0
449 -184 817 269 13 0
-120 330 21 199 663 -849 0
840 443 859 -587 882 0
-339 -898 -458 588 82 -185 0
-330 -4 -576 -368 0
198 -57 -456 -612 0
706 -293 366 869 0
109 155 -569 -593 0
817 -702 953 -664 0
-290 -186 384 793 -299 758 0
788 -159 -478 235 0
-885 577 -770 -560 -871 0
-633 513 147 349 -673 0
385 -856 32 -998 -903 0
885 271 482 866 -263 0
895 -798 -638 -862 408 119 0
-453 896 977 665 42 -699 0
-141 -499 -51 -11 -972 -5 0
608 17 907 -541 720 0
-880 -615 918 515 0
591 931 -257 31 -359 73 0
-301 -215 -326 -872 0
-410 587 459 657 -623 290 0
-809 -845 -486 414 477 0
-901 94 944 -408 0
592 535 -962 -822 -239 -153 0
-955 -516 -768 71 122 316 0
-392 807 -26 577 0
182 107 319 -55 -569 165 0
186 -647 392 702 81 -762 0
-330 125 236 754 -74 0
-883 479 -993 632 -613 0
-876 612 515 -325 0
-426 157 -982 -36 -582 0
72 -469 -867 -157 0
-742 486 -87 573 0
-943 -862 959 -600 -534 0
526 217 117 351 48 767 0
633 -854 816 160 -665 0
-131 223 893 -931 -285 0
580 726 971 -354 324 -273 0
-16 -733 -977 -620 -8 0
-768 -569 853 -693 515 0
-174 660 -209 -681 -786 0
-154 372 -89 548 165 0
-233 110 165 663 359 524 0
-252 273 993 477 713 0
749 726 645 258 711 0
-248 -145 818 174 -697 -13 0
-987 321 188 -475 448 937 0
700 -301 -259 -666 481 218 0
40 838 -84 382 0
-615 -773 742 122 -14 -414 0
512 759 -698 -544 -726 0
-796 -894 680 -582 187 -860 0
740 103 12 -530 -558 181 0
11 818 -233 -420 286 0
568 -504 109 322 915 0
577 -616 -248 923 -746 -25 0
288 -597 461 937 0
-352 -316 -176 49 721 0
-966 1 -704 -519 -358 -196 0
162 -147 -114 -510 0
614 -802 161 -471 0
-627 940 633 -652 165 0
-5 771 -395 -902 -835 674 0
-921 -456 -725 597 -743 376 0
-491 -292 693 -80 -521 -422 0
977 959 -890 -716 0
788 761 144 342 -218 -731 0
-379 -389 204 -700 906 0
440 -128 689 -714 0
748 81 826 831 0
-771 -753 -353 466 -187 0
-142 -702 -896 998 728 0
-252 962 -762 875 797 693 0
529 -546 123 416 209 0
889 351 530 -616 -203 0
969 -80 -953 -589 0
128 -968 549 335 476 -825 0
-637 -207 224 79 -402 -473 0
-4 -101 875 321 743 0
587 -750 -365 -351 0
306 849 499 651 853 98 0
689 490 392 862 330 0
-966 232 929 -673 0
699 -81 -444 -464 -956 854 0
-964 -470 268 285 -320 0
36 -947 -589 -948 -285 -570 0
-36 957 682 -488 0
-801 -113 -820 306 691 0
-280 -158 -16 822 0
-930 1 690 820 0
-707 532 627 860 507 0
291 407 24 -384 -874 0
-867 839 -107 -711 0
-747 -431 655 108 159 -33 0
914 880 393 -35 6 -716 0
362 -78 -274 695 684 0
-455 345 -124 -183 501 0
-969 579 -379 254 2 -700 0
-914 -448 851 -48 0
175 387 643 639 0
66 483 477 284 0
414 55 -687 -99 280 0
-582 543 102 622 405 44 0
-493 887 667 -646 -527 0
-40 -493 662 -367 663 0
380 -750 794 126 -741 575 0
-708 -52 -796 679 0
-801 640 -866 -934 -258 0
802 -757 -862 108 -730 338 0
-815 -902 278 448 -805 586 0
-300 -546 -372 297 528 0
286 240 -443 711 0
-970 -132 271 588 0
90 733 -205 630 667 0
-89 -107 -492 -688 0
-888 -154 886 708 934 0
-455 -293 482 -725 0
-681 813 240 784 563 -829 0
-568 -324 -649 901 595 0
668 496 -56 -315 -702 0
342 237 -193 -961 -463 129 0
-143 162 -978 976 0
811 109 42 525 0
636 780 812 -485 -48 0
-717 -39 -4 -658 -185 0
857 -500 -386 810 692 0
-536 -217 289 41 -715 0
-426 82 -480 787 -4 878 0
-234 -327 -94 -494 959 903 0
430 -489 473 -467 0
561 -625 -869 414 199 -230 0
214 -829 909 -441 -77 0
-810 -978 787 -878 0
303 -120 418 937 0
27 -322 -956 205 772 0
-218 183 -198 151 0
-955 57 223 498 0
699 581 -120 689 285 0
140 65 872 -268 0
759 537 -465 -879 374 0
-140 -793 -287 581 -924 -330 0
995 534 -627 439 583 0
-981 276 501 -789 -403 -638 0
673 394 586 591 0
-25 -716 639 274 0
-642 405 -940 749 0
153 507 -680 -332 -867 -290 0
969 -995 213 138 -843 -765 0
159 363 -509 804 557 0
130 -801 -310 168 0
802 319 -91 869 -65 833 0
469 986 -38 618 0
836 -865 892 844 119 521 0
325 -792 202 54 -567 314 0
-653 443 -915 605 0
-849 876 -987 -913 0
778 735 98 292 0
-810 -377 740 541 -835 0
-909 248 469 754 828 0
950 965 -140 672 0
-862 145 29 668 0
482 223 -544 -952 0
416 870 -757 314 0
362 681 769 -976 0
-716 -892 606 526 0
-540 411 -166 -897 -941 0
201 -566 768 177 39 -502 0
851 -640 -692 -310 -95 0
-394 -986 668 -846 -573 -343 0
-723 731 -991 -131 -987 0
799 -650 -345 -371 574 928 0
-854 123 -65 -878 -202 -679 0
648 82 -982 -415 507 0
103 470 73 578 -619 0
245 133 -313 -926 0
438 -700 108 354 -14 -380 0
278 -216 450 464 796 0
792 -539 -108 -390 121 -683 0
475 301 359 752 0
-128 -824 -518 -873 -444 0
622 658 -929 -405 198 291 0
-769 686 674 84 -27 0
-488 -271 -210 283 -763 -353 0
-592 -912 574 -335 -322 0
143 -317 61 578 -139 0
-118 -627 -182 -368 642 0
640 -386 -166 -654 -834 0
913 -550 281 757 -800 0
519 762 880 446 -321 0
264 552 -669 784 -985 816 0
-733 473 996 -129 542 0
-356 -813 712 817 -63 -68 0
121 -370 63 -390 524 807 0
-435 768 -137 -139 273 -781 0
722 377 -812 -735 39 -431 0
-984 400 -318 -982 -339 -930 0
833 -861 225 916 209 0
3 477 910 -335 0
-992 395 229 436 0
989 261 713 293 600 -279 0
-732 -541 752 705 357 0
-648 292 -454 -232 -590 0
933 662 315 804 697 -831 0
-963 -931 334 674 68 0
704 990 -693 796 -1000 0
-691 28 -324 -928 0
341 748 -154 896 -769 0
-633 -165 -685 664 -631 0
902 -710 361 869 438 0
-155 -849 -167 -566 51 -574 0
-559 -894 -567 -16 0
-715 22 101 125 -597 0
9 50 653 -332 235 -159 0
-791 99 -792 -435 981 0
-583 -494 863 464 915 0
-331 -834 249 -127 0
-981 -174 939 600 0
995 -939 -896 -548 779 835 0
-327 468 686 -457 0
821 18 949 295 -760 0
-301 115 -737 -14 -770 126 0
924 607 -592 452 -985 -712 0
-668 743 317 62 226 0
-423 758 -233 22 303 0
-433 -641 -224 -230 424 164 0
-724 -9 -500 820 414 0
-325 -932 71 -657 935 0
-802 -790 443 368 -594 -36 0
232 -10 -851 241 -463 0
-922 37 258 -524 -285 0
-961 842 -61 740 -918 -315 0
-748 -177 419 -210 466 0
646 -977 738 -92 69 -976 0
-90 -20 617 423 -626 -549 0
-880 342 -830 -288 0
-834 447 -925 -670 0
-631 -144 209 996 0
624 -720 798 852 0
459 920 706 -172 813 -686 0
-327 749 280 -535 0
999 288 860 -219 544 55 0
542 346 -196 991 533 0
852 -999 168 -340 0
-390 39 378 -391 0
545 16 983 978 -604 463 0
-172 -831 -973 880 0
205 436 -221 940 0
226 -817 45 547 -391 -345 0
596 186 -144 -422 -925 0
696 -85 211 453 331 665 0
-456 966 238 -690 -964 0
739 609 -800 97 418 197 0
944 -598 -900 -724 848 0
-14 -431 746 538 765 0
-673 742 888 -583 -410 -804 0
-514 73 397 153 161 -117 0
-493 -691 -77 -191 0
-536 -685 345 507 94 0
-232 212 -603 367 -645 -916 0
-679 770 -260 613 0
580 -708 -526 -380 0
-163 -958 -597 -29 678 373 0
-13 301 467 3 487 -369 0
-27 579 94 -70 -329 0
968 887 -513 -208 -668 0
-250 690 527 549 59 -448 0
783 571 32 917 -672 0
412 455 687 981 -259 0
227 -788 -668 149 0
477 -933 -987 711 0
-781 -609 144 177 322 -368 0
454 561 928 933 -998 -903 0
185 270 -43 -554 896 0
304 217 -79 -89 0
471 996 -547 -658 0
380 668 -293 570 -520 0
180 580 -652 -910 972 -977 0
-413 -429 21 272 330 0
340 -604 857 -311 0
888 726 -791 -784 868 0
758 -605 -341 -216 -918 0
697 -595 -798 -374 0
-505 947 -334 -24 -643 0
-814 -524 681 572 0
-649 -819 434 -449 -785 704 0
-459 177 911 -436 965 0
141 -759 586 -370 920 0
536 942 -928 -224 -592 0
524 100 94 351 614 835 0
-195 362 -621 -414 0
796 -337 258 692 -51 0
-552 -167 730 581 0
-707 577 248 120 0
640 22 -353 -676 0
-109 -271 726 -708 0
376 -262 -380 -156 0
919 -648 -704 -15 355 0
956 -649 -70 -311 928 -356 0
249 -740 -485 -581 0
-378 -54 -262 765 -74 -32 0
830 -832 404 -289 0
-67 -917 -998 -803 -691 0
354 104 -315 158 -985 0
488 -233 -404 -946 -145 0
624 399 681 289 486 0
437 -600 404 -887 0
213 -628 132 738 -656 0
962 756 224 783 763 0
411 -464 868 -404 313 -255 0
372 926 -428 -300 912 179 0
-633 -713 -842 -356 -587 0
-419 664 -39 -96 0
-477 -912 -404 -122 -830 0
981 224 707 546 -27 -342 0
-41 -343 -152 -150 0
492 -990 863 454 0
-150 -875 -478 -231 -738 109 0
671 -634 -562 324 172 916 0
756 -803 905 -489 -816 0
378 -868 63 727 -107 0
126 393 -609 507 33 0
-375 -713 601 -23 -334 0
-614 -633 -918 -145 0
136 -443 128 560 -49 701 0
546 731 304 -297 -77 0
644 360 961 -593 0
-976 -648 -272 511 0
-342 -271 -130 226 -420 0
-257 -613 220 -941 0
383 961 -604 686 0
296 -222 80 345 -835 0
784 70 380 -303 -781 0
-727 410 -231 -201 845 0
-775 898 606 -487 532 -700 0
611 42 -841 757 -685 58 0
-717 320 -102 -733 568 0
-569 -609 584 -735 -826 0
-498 -497 -373 937 511 0
69 -927 -663 502 713 -787 0
-82 62 800 -348 -582 -86 0
794 -768 -572 715 480 178 0
407 -912 -576 617 0
-393 359 -983 -98 0
114 -694 -486 66 -795 571 0
-27 763 657 674 33 0
-949 761 -950 821 1000 0
-228 -156 650 -584 -183 800 0
-908 313 -143 -743 0
-710 705 -801 726 356 0
574 496 -382 466 0
-41 -781 863 -435 -713 -232 0
-611 -475 468 343 0
-510 598 -475 341 100 0
824 384 -629 -505 -585 290 0
242 -631 -449 -688 0
173 -951 722 564 -382 755 0
140 -325 334 949 -306 892 0
-686 669 949 380 -728 0
697 -102 904 103 0
-202 17 -447 -362 0
-1000 570 910 857 -516 -965 0
-568 63 -720 29 0
321 -217 28 -791 -602 0
-672 -550 -288 52 733 0
556 207 -81 317 -919 0
-57 -403 -831 -705 0
-474 -248 -691 -495 369 0
-899 -172 640 -443 -260 0
-516 918 613 -370 948 0
894 362 478 -547 -13 565 0
-399 163 -954 720 0
-272 923 -236 694 -196 -969 0
270 468 -154 567 35 575 0
927 -750 -653 430 0
-123 -787 -255 722 0
-725 -836 -122 408 0
-415 994 -650 502 -7 -118 0
-160 -631 -49 145 0
561 771 -157 -611 921 -408 0
-934 -653 -148 578 0
-294 -856 -453 -624 0
703 705 736 -441 0
-68 -444 301 246 -279 -388 0
-483 582 -954 269 -493 -984 0
206 297 527 -126 -708 -866 0
10 976 -693 45 0
-789 300 -751 475 -962 0
291 583 -621 306 0
-234 327 -304 -346 342 0
793 973 -24 235 0
-591 -10 -117 -760 -628 583 0
-779 -990 -348 -328 -402 334 0
714 -437 634 876 -933 0
-740 500 722 870 574 0
241 520 96 -787 207 0
-973 -841 -128 -632 -206 0
784 352 544 -166 -956 0
379 -73 -661 -286 -479 96 0
337 455 242 623 -585 -611 0
65 -179 161 174 0
-364 181 3 426 524 0
-263 551 -658 -390 0
-852 977 -226 197 0
836 -68 660 -410 0
-121 -116 -982 -234 208 757 0
-381 56 -487 -76 -375 0
-581 -537 -411 329 -707 0
-562 569 -1000 -68 -762 387 0
-250 9 134 -139 0
-100 -359 -913 227 -403 747 0
-707 286 -522 613 650 -384 0
-661 -54 -175 320 0
-78 -934 -661 844 0
-544 -176 905 -353 0
-611 357 615 377 -259 0
-349 159 -712 -469 0
-359 781 329 396 0
259 -519 785 74 658 0
959 818 -221 -31 630 0
-333 -877 66 26 0
726 -396 321 152 305 -602 0
-699 443 96 861 0
928 391 -253 -152 122 364 0
-1 -974 247 -77 865 545 0
-633 682 -501 655 0
-705 -980 -33 -471 253 -348 0
320 -918 -288 -199 0
-964 422 -296 134 0
53 -23 711 225 0
-814 -233 -198 1 -525 -74 0
195 85 -608 -924 -824 -259 0
237 -669 -995 -642 785 0
-928 671 420 -456 0
22 -274 584 748 663 267 0
474 223 -304 -904 -963 0
-545 -564 -594 -380 -42 1 0
624 346 -724 893 0
28 -882 842 445 -654 284 0
989 444 -217 -860 -156 0
-454 126 493 -851 -70 0
-177 -180 415 275 0
-168 -430 -989 829 -772 0
450 802 538 -514 -427 -234 0
-457 573 979 -227 0
-73 425 34 67 -47 -29 0
843 560 905 -257 0
-561 -698 888 520 -170 0
641 -555 620 -825 -525 0
-22 964 -126 -510 -230 -448 0
482 669 -683 418 -582 -413 0
374 -853 -331 -634 -242 0
-374 430 -619 -618 -309 -960 0
-371 -875 -666 190 -771 -118 0
-957 519 -557 -540 0
-589 839 838 58 494 870 0
174 80 -4 -171 -392 -159 0
-83 -146 -942 194 345 0
-690 -786 430 -741 320 111 0
140 443 -313 255 -483 -83 0
430 -770 71 830 -962 -516 0
338 536 -131 -796 0
-880 -812 181 959 -209 0
-827 -890 -152 -761 -395 106 0
-895 544 405 501 0
-199 -671 -413 -243 503 119 0
985 -420 485 -971 679 -973 0
-406 -611 -201 -93 -850 0
-83 524 767 173 27 -602 0
549 -116 -160 -324 907 738 0
-760 -303 846 -546 0
611 373 271 -42 -563 0
-711 430 -929 -546 0
-160 210 777 -866 0
945 -24 54 -517 -815 0
-116 -393 -586 -938 0
257 -435 -494 -786 223 -184 0
-107 663 86 913 -395 -757 0
-450 280 -365 -154 611 0
860 -988 -577 916 -432 -748 0
-597 257 -294 -114 -216 0
-414 16 74 -331 -372 0
-310 132 -173 374 -32 -712 0
-314 601 -539 -242 544 0
-560 -466 -407 631 -81 0
25 -542 814 -68 -79 -269 0
9 509 -98 -404 -581 0
-786 480 915 965 379 -50 0
491 770 -497 -51 767 0
-331 126 -23 -795 0
887 -923 -292 519 -567 220 0
-615 321 181 -973 0
664 -756 -8 560 -273 64 0
-83 -90 700 609 -713 -861 0
733 -604 -847 -687 0
-751 341 -956 -394 826 0
479 -658 -466 -918 0
-858 -452 -197 -559 295 82 0
60 746 353 687 0
-477 -251 882 874 -991 0
367 220 721 -862 -697 0
-257 -708 139 691 -820 786 0
932 987 -170 -960 -768 844 0
-882 972 -797 -493 0
946 -811 -999 -771 833 0
-859 -75 -316 -582 953 492 0
-490 -329 -635 8 386 0
414 631 -344 863 532 0
-725 974 176 480 -827 0
642 -231 496 -358 965 0
407 52 -585 906 -313 -916 0
830 -473 702 -354 0
526 994 -520 -696 931 0
-208 184 200 -686 0
181 912 -858 -319 -981 -36 0
51 402 148 -600 -903 -456 0
-136 -118 -456 556 -532 -834 0
-934 -138 -536 642 0
384 9 -770 -303 0
518 -280 -896 904 545 681 0
445 -109 831 -283 -585 0
535 -232 868 50 0
-466 -38 581 -596 0
-525 238 -995 -355 -894 0
153 -268 -922 -294 -955 -867 0
991 -12 -182 -663 0
-505 866 305 -550 861 -181 0
687 76 -955 869 -849 0
-224 579 504 -220 -925 788 0
680 -100 -20 304 -93 -103 0
-513 -578 582 -550 487 0
-213 -438 921 -589 -111 -419 0
-106 -33 379 -561 -646 0
-293 519 264 503 73 0
-914 -657 -455 571 977 853 0
256 526 -481 115 0
390 -711 432 -480 0
89 875 321 824 -997 -96 0
740 710 93 -342 0
-803 -773 -177 336 -463 -647 0
761 521 885 807 -926 0
-818 822 -736 916 362 0
-787 463 -244 200 0
-626 -534 -708 -99 587 0
-436 -179 -769 543 2 0
992 824 -224 834 0
-590 54 409 -40 -56 322 0
-202 -981 940 21 0
-656 -509 -191 144 -562 -599 0
862 435 639 526 0
469 -286 -338 461 349 0
808 671 -67 -381 575 40 0
769 951 264 -360 0
-985 -385 59 -252 187 -45 0
-515 148 -942 397 0
-674 450 981 255 600 0
210 -155 758 736 0
-484 649 412 -703 0
726 -444 97 -478 0
893 -631 802 -636 439 0
-368 -466 3 448 976 0
-121 869 458 132 -430 0
-33 -358 529 628 0
-916 299 -736 360 295 -930 0
53 -362 -744 404 333 969 0
572 464 -139 579 872 0
-747 746 -260 -512 402 0
857 -18 694 756 0
345 88 -988 -665 -312 596 0
32 -364 -750 -924 0
-310 17 184 330 253 0
35 954 119 746 0
-821 146 -664 -451 -306 0
282 -24 -861 -118 694 -470 0
-59 -351 -268 693 0
-337 -944 313 766 -30 0
-565 -506 -163 -291 -373 0
880 56 -16 -263 0
740 580 -55 -894 -374 999 0
457 196 -772 808 0
164 -809 32 13 347 0
-426 -434 -557 918 -706 -930 0
-126 -35 557 769 -316 0
-776 510 -904 487 380 0
-609 -482 315 -363 -831 0
667 749 -356 -848 0
-443 490 -376 -438 -512 0
-689 401 -23 774 -900 -51 0
-612 -263 726 299 -36 0
-177 -246 -389 919 -949 0
551 -235 -170 766 871 -983 0
368 604 -510 588 958 0
333 107 -631 486 -869 -979 0
-409 331 952 -422 0
-18 -605 928 -717 0
304 -101 -333 -521 0
297 395 237 336 0
-467 -718 -704 531 701 855 0
-944 -301 -461 911 -157 0
946 -754 -929 -90 106 0
165 -211 -615 642 -939 0
270 -89 -968 95 315 -327 0
805 350 828 870 -191 -668 0
141 -461 -362 -152 -608 0
-920 -932 225 -441 0
792 -262 -341 232 0
689 -150 -129 -342 30 865 0
843 904 -186 -232 -806 693 0
-210 273 387 -195 0
236 -109 794 143 0
-376 -532 691 549 0
956 -963 51 -736 -70 -42 0
-438 940 146 -364 0
-393 118 398 669 0
-2 106 -609 402 0
258 -374 129 598 193 -693 0
-825 136 592 53 12 -800 0
-109 -230 -855 -763 -968 0
753 -727 603 460 -20 -145 0
814 -12 624 -826 761 -967 0
-655 -713 705 825 -747 -289 0
-22 -24 -73 -64 564 -331 0
931 241 448 -234 898 0
-299 -942 -972 -48 0
-478 -790 862 782 -85 0
-512 -434 647 -963 0
-782 211 313 453 0
968 983 363 -30 232 0
501 -879 317 -20 -254 0
731 -5 780 -896 0
-732 140 -244 -652 826 837 0
-615 182 -316 748 0
-313 632 697 195 775 0
-860 -258 -329 -647 0
738 703 -528 -995 55 0
313 882 587 -563 -490 0
-885 850 -241 -84 0
5 -486 272 949 -695 929 0
658 -116 468 270 741 0
784 357 720 743 -364 0
-489 -361 -291 -179 238 0
822 236 -88 -366 -176 -414 0
331 -193 903 661 300 -508 0
-967 -796 -362 -90 118 -226 0
63 -439 -47 408 783 -810 0
176 150 -187 861 992 0
317 -331 760 710 659 -544 0
-457 -314 248 974 -116 -792 0
-470 765 914 879 -122 919 0
-845 893 -662 455 57 -688 0
-252 351 399 138 -375 0
651 -620 -504 -26 0
870 317 -578 -403 0
519 718 691 -612 -506 0
444 748 -62 208 0
719 664 -218 -872 253 592 0
304 340 -142 -41 739 0
632 619 131 -972 0
-700 -495 785 488 796 0
-526 -953 30 2 951 958 0
-521 956 472 381 -813 422 0
700 -724 -663 427 0
600 748 444 -811 -121 212 0
667 841 -396 732 876 0
124 644 -312 -393 0
-940 -705 -532 -178 -856 0
-934 -691 -270 471 0
-802 -170 736 -717 0
207 -969 499 470 0
-794 338 -137 801 -798 -758 0
847 898 342 449 0
745 824 -63 -728 -164 0
728 -1000 -312 -517 161 697 0
-347 120 -971 705 0
728 -130 402 333 0
251 394 -992 -389 319 0
503 984 975 950 0
833 -675 -363 744 0
368 -481 427 -554 241 292 0
377 -169 -731 342 242 978 0
381 553 263 -954 -228 0
127 -15 -896 782 -844 0
-878 -186 310 471 0
313 -546 -860 -690 -573 -168 0
-305 -908 -875 814 -950 539 0
859 299 -757 -190 0
663 838 236 570 0
73 -993 214 -661 755 0
287 131 837 514 0
-165 690 -734 -322 0
496 582 583 37 0
-75 499 -820 10 -784 -775 0
587 -469 218 -146 -566 882 0
362 -361 -586 439 -41 0
611 883 794 -550 515 0
690 -107 -899 777 0
-404 -445 10 982 111 0
-559 159 -593 439 0
369 -920 453 945 -103 0
978 -672 167 521 896 -494 0
-293 373 412 876 0
524 363 -975 -217 489 0
-28 93 -458 -83 0
-642 -40 -615 548 -552 0
-398 654 355 -621 -498 0
966 815 -496 932 982 0
461 -93 214 -683 713 0
251 834 -215 764 -236 0
-576 -797 938 773 -926 0
-607 4 188 -376 0
-83 -615 784 575 -501 0
-226 1000 -410 -137 -289 70 0
-899 451 -288 648 -869 -988 0
-733 -969 365 -456 0
6 781 -95 493 599 0
341 119 793 -993 950 -35 0
-351 789 -342 510 -532 -890 0
694 816 584 629 63 253 0
29 58 53 -427 0
-418 -392 257 -670 121 204 0
137 -605 -659 178 875 23 0
-887 109 280 278 469 0
-431 155 -270 617 -452 -464 0
-182 585 -264 -378 115 651 0
341 -610 -70 894 -782 0
153 -765 39 415 882 0
-529 963 372 -760 729 -728 0
794 568 330 49 -288 714 0
-1 -116 922 890 -127 -588 0
-893 -767 -172 915 0
-867 477 -485 546 580 0
732 872 -573 58 -148 0
-613 -745 -399 -310 -667 -554 0
-484 -15 459 -267 0
241 -843 212 -831 401 87 0
-561 651 -727 -420 -947 -569 0
-812 813 616 418 -804 -124 0
-442 575 -544 305 -371 -843 0
622 -733 759 325 324 842 0
-969 354 463 -86 -31 0
-493 103 813 -430 0
-828 -604 -581 574 -893 0
311 395 840 -664 -178 40 0
-67 -744 854 61 -307 0
-386 -273 -202 -709 0
-414 -228 -516 -614 0
-171 341 632 330 -804 296 0
447 -211 -110 -868 194 -388 0
798 591 -662 -810 0
-733 605 550 370 -926 0
339 776 -550 -434 -598 0
-679 -890 -748 -518 644 -872 0
908 13 488 -813 -853 527 0
-802 -234 341 980 -571 0
788 332 310 221 769 610 0
-718 77 311 432 99 494 0
321 418 -263 -307 628 -726 0
-509 69 230 -372 0
397 714 -73 -720 656 0
-680 -47 -282 551 -213 0
799 -816 -209 -15 679 0
228 673 -393 882 -741 0
863 510 -881 681 -302 334 0
988 -469 888 760 0
378 -89 899 -957 -147 739 0
414 167 -675 -714 0
690 -536 -229 -51 -158 460 0
-801 866 428 551 0
-543 -598 -438 -79 -49 -817 0
387 -412 -483 -762 -151 957 0
954 637 -687 -215 958 0
553 204 606 -567 -738 0
783 -453 939 772 -878 0
-194 -628 364 -826 0
34 399 -343 -857 -823 323 0
-622 708 237 -948 0
582 764 906 -899 513 0
-256 -181 167 963 0
-475 898 552 -979 0
163 485 689 913 547 0
-130 -393 982 515 -905 0
330 309 -144 835 0
940 583 914 -751 257 0
818 -196 -770 341 -731 0
615 905 -634 399 -313 660 0
592 305 -871 -563 -680 0
460 -186 -13 -566 737 0
968 755 -282 -405 -725 158 0
-667 225 -663 901 -240 0
918 619 -160 -808 0
-288 533 157 -297 0
-732 -790 -605 -897 117 0
-42 698 -901 750 -624 -98 0
-56 804 963 -639 -966 889 0
-148 325 -543 240 680 0
148 -951 -483 77 967 644 0
758 -911 982 81 0
-733 -567 898 276 0
536 111 -653 -198 12 -247 0
-584 164 842 -162 548 0
-997 230 250 794 -684 0
-817 -885 -494 -568 0
-819 468 69 -485 0
-481 421 198 515 -796 923 0
-976 -418 -838 389 0
204 402 412 531 344 0
166 -454 259 385 51 0
770 754 -544 -972 416 0
786 -914 -313 -696 382 -857 0
750 -998 -706 -836 0
972 469 240 409 456 -1 0
348 908 651 -168 79 -113 0
446 871 574 154 0
846 925 -703 47 0
330 -647 527 422 0
-396 -277 675 484 339 0
-510 -246 -828 -921 -422 -516 0
-942 -876 429 542 624 0
-329 573 -199 -991 75 -477 0
-208 -218 787 8 0
165 -706 493 -154 0
-829 103 -314 -454 0
-837 787 -955 -701 -456 -470 0
-142 -723 -856 -314 991 0
936 634 -756 -293 797 0
704 -174 596 -817 -807 0
-785 -332 337 63 584 0
-293 -972 904 -356 -711 -547 0
-647 -696 -316 904 -98 851 0
403 15 -150 937 -793 0
571 218 566 376 0
440 73 -355 -975 0
210 36 -16 -459 0
-834 -91 497 720 -625 -960 0
-616 -678 -149 -801 -930 -841 0
-834 157 960 -543 -522 528 0
920 322 456 386 0
728 -105 169 133 0
766 769 -463 14 -705 -657 0
73 23 -40 43 -279 -138 0
959 -112 -256 -656 -912 880 0
357 427 -520 -411 -475 0
202 200 611 -85 319 0
54 181 838 469 689 625 0
-663 837 -27 640 -810 0
-892 234 294 930 434 -5 0
288 -130 -947 -764 0
-113 948 367 -885 693 669 0
750 120 924 72 86 -749 0
-402 685 949 102 0
476 714 136 -182 334 0
-92 266 -88 374 -691 0
-181 27 558 -602 605 -478 0
289 -676 -458 473 0
-777 377 -987 939 0
-571 -475 142 599 584 0
975 -427 -936 -488 933 -156 0
-704 204 495 -214 -825 0
979 778 -713 -309 -991 857 0
67 666 359 -526 -696 480 0
-693 788 -49 -777 -23 -363 0
-368 -110 199 498 -861 0
-578 -37 756 874 0
-768 402 863 81 0
-466 -944 -332 953 688 -402 0
658 -924 609 -342 -617 0
335 594 -205 -119 -101 249 0
-539 299 340 -360 799 0
65 -446 797 459 379 902 0
-136 189 -584 833 0
942 -347 -45 -899 0
614 597 979 -872 -795 0
345 716 859 -530 -128 -349 0
-698 182 -447 -332 27 0
-690 416 -229 803 -552 0
687 681 863 607 -748 0
-321 495 -111 -814 -73 713 0
969 -212 509 934 -494 0
250 -378 -9 269 -724 821 0
648 -849 -869 -129 -584 871 0
18 213 -366 772 549 0
6 -58 -198 -311 -514 -139 0
483 934 -361 870 0
86 -388 -814 -590 0
-959 587 -478 -810 -189 937 0
431 -231 430 962 278 -229 0
-495 -302 970 975 0
-777 10 -161 -677 0
-581 -160 -26 -987 -970 0
854 -736 -828 -852 -937 0
-712 405 -308 355 0
449 814 32 963 -98 -536 0
817 -939 -903 -272 0
-576 -500 -591 380 0
591 -246 995 -516 0
-861 768 -420 760 0
778 -180 -1000 959 -931 0
120 -759 219 -812 0
629 199 216 256 420 -946 0
523 175 -171 139 0
-452 -480 -757 -114 0
-505 947 -551 -775 887 -243 0
-333 916 55 475 0
-673 78 -844 -287 189 -301 0
-973 -290 692 958 394 0
-100 -765 228 788 -363 158 0
210 331 -105 316 474 292 0
264 266 -579 41 582 0
425 277 -952 617 0
-381 -39 -899 227 667 921 0
-744 -789 -134 -278 -273 -919 0
713 -42 554 -625 0
719 916 954 -377 0
452 71 -451 931 691 0
323 -431 638 -926 0
397 -661 467 -611 -775 381 0
-868 -813 309 784 0
-558 -134 -566 -551 -335 0
-228 678 -622 -996 0
474 359 178 -179 318 -15 0
984 218 -715 -774 -527 0
-5 -434 756 280 0
625 77 755 -173 428 794 0
978 992 -901 -183 -380 0
388 -263 -421 -559 -832 0
616 -45 157 433 279 1 0
-432 862 844 -193 516 71 0
-752 327 -913 117 -64 -97 0
-222 -254 -888 939 0
-404 -429 -149 -424 386 -19 0
-787 -195 -766 27 0
-249 -167 -50 -638 -765 -621 0
-527 -293 908 -636 0
18 -10 249 -904 511 0
458 459 627 -375 -628 194 0
273 773 345 -417 -174 0
-251 -329 -721 -337 -8 -842 0
-786 -66 -725 -92 0
-773 390 -320 840 -558 0
976 -380 560 766 0
141 -211 483 -217 562 0
-474 314 883 -802 -264 -466 0
-947 610 -84 -279 261 0
-692 -905 -257 56 0
-779 -515 -65 411 -601 -68 0
516 837 36 -932 661 0
302 260 -11 203 687 0
741 57 704 -989 0
-219 890 301 823 252 -292 0
686 765 -947 -129 0
-592 -379 -183 608 94 716 0
-446 -661 -287 -281 0
-742 982 33 914 391 -338 0
253 518 -237 -478 962 -443 0
-166 -207 -774 -476 0
-638 -450 523 -894 -392 0
688 -467 -914 539 716 815 0
-179 -586 964 553 126 -582 0
-606 248 -557 -974 767 0
32 132 -490 -562 503 0
712 733 -920 -20 -842 642 0
990 265 988 315 0
935 634 663 -613 -894 -6 0
268 2 -614 -50 697 0
-863 861 -489 230 -821 417 0
-177 147 741 381 817 128 0
426 48 274 -705 0
-529 594 -236 203 0
899 49 716 -151 -6 0
926 634 -86 -73 0
521 -918 -527 882 0
751 -239 244 257 0
402 -2 -785 693 0
-789 -610 162 -221 0
264 189 -298 431 0
-688 -423 -584 -306 857 0
912 82 889 916 0
455 -662 -130 -250 0
655 624 -293 -769 0
873 359 -679 675 0
-198 536 -811 337 797 -293 0
-219 677 861 -165 0
-840 873 447 -564 590 -500 0
15 400 292 -460 863 0
983 -615 994 787 18 0
809 35 44 17 -580 667 0
-325 706 -999 261 0
-361 -584 723 -16 0
-50 -178 -438 951 999 985 0
-473 461 68 -240 -411 421 0
571 501 -453 -979 446 -44 0
-247 412 586 -510 -578 0
-725 -207 -223 629 0
995 143 453 -541 574 350 0
115 486 108 530 0
276 2 280 -789 -366 -842 0
-394 158 -44 -420 0
-563 -249 -448 195 811 -449 0
626 -5 609 532 0
-902 -340 -522 521 0
963 -295 37 435 -926 0
671 688 -578 398 666 -696 0
-515 320 22 996 0
-732 624 -811 165 -146 0
931 -858 -62 164 14 -549 0
-492 890 162 -306 691 0
-880 -443 303 656 348 336 0
544 847 931 833 -654 -530 0
-327 692 -220 -730 0
399 563 -941 -416 0
-77 964 692 -833 999 0
-268 613 -300 48 0
845 768 660 810 650 559 0
-258 -776 767 -826 160 0
-790 546 350 874 0
-679 786 -641 126 791 0
-590 -791 -410 -203 0
603 -899 996 -200 -530 563 0
-57 633 524 920 -791 0
167 -370 753 614 0
-724 734 643 -676 0
816 457 558 432 -144 0
-753 701 976 -257 -876 -531 0
-493 -607 554 -21 0
-22 -310 -902 730 -14 -785 0
-627 -363 -314 -572 0
-9 208 92 918 -852 -824 0
-132 544 289 479 0
352 590 -449 -560 -693 -752 0
-339 -934 662 -670 304 -590 0
-568 585 -675 -840 0
467 -5 -500 204 -835 0
-823 27 -528 -413 -375 -24 0
-523 -465 -858 254 0
193 201 824 697 0
-295 -851 403 213 0
273 647 -46 717 -533 0
667 234 -378 -46 359 283 0
-695 -280 45 -678 -196 0
-87 501 178 -47 -596 0
187 -258 -315 524 716 194 0
-798 127 435 -149 0
-586 608 748 -90 -928 350 0
-106 -924 205 -224 605 -214 0
356 -603 -783 -684 915 40 0
485 36 995 746 988 -748 0
-312 730 -922 -311 150 834 0
951 -756 -748 -736 0
47 -660 15 678 -856 -773 0
547 668 -384 187 0
-765 -812 -801 -858 -232 0
607 -135 463 694 0
-849 -518 287 236 0
-184 -414 -266 -191 0
-542 297 721 657 -656 0
265 29 -750 -378 -531 0
572 532 378 -770 -70 482 0
-824 -435 167 694 0
23 -722 -812 629 -838 430 0
-429 797 -133 -115 -497 343 0
-785 859 -645 962 305 0
545 -41 -391 -741 0
-789 13 296 -802 -900 0
253 897 -591 959 -524 -12 0
-971 -935 381 -857 447 -119 0
801 -749 619 385 0
949 501 -401 951 -846 4 0
399 762 363 319 -64 0
189 968 389 -738 -122 568 0
771 -305 -512 222 0
707 -610 -748 -367 0
878 538 -645 -613 -762 -747 0
-251 644 -48 147 0
-937 -538 -133 713 -79 0
-937 -471 279 -632 -794 -372 0
501 645 453 146 -937 0
586 992 226 579 0
-517 615 954 58 0
-921 467 548 845 -748 -834 0
66 -878 269 -806 0
-385 -712 -638 -791 -802 -728 0
693 21 -23 -720 57 550 0
101 304 -863 -722 0
226 428 119 700 -349 0
-166 347 219 844 0
-391 665 552 113 -5 0
-848 659 -188 -455 0
419 828 -566 610 0
-987 570 -194 82 -832 957 0
259 -305 -374 -275 0
-77 763 -279 -151 -518 0
824 -321 -879 617 0
-900 359 114 502 841 922 0
-315 -38 -277 -30 455 685 0
-170 -280 68 908 -494 0
283 665 -689 416 -321 -327 0
-552 -35 534 -269 613 0
-872 275 -289 278 0
-658 -770 54 812 0
323 14 31 844 880 0
921 849 89 885 -431 0
210 280 -549 621 0
-793 -872 21 547 -826 -593 0
-616 332 176 968 -980 -605 0
-815 486 -506 -407 540 0
-646 787 353 -153 -333 309 0
-951 -545 -869 104 45 0
-67 50 -283 883 0
471 355 204 -197 0
-789 -842 844 21 0
-483 -918 -678 -165 0
-665 259 -779 -377 0
673 460 325 306 0
-178 -408 809 168 0
-462 -554 459 -461 943 564 0
933 -132 726 485 -537 -757 0
-512 -842 558 -6 0
233 995 -637 -189 0
-210 -680 494 790 0
-934 267 825 -176 812 108 0
956 -284 106 728 -428 0
9 -225 -587 194 -961 0
671 973 -489 265 0
980 647 -865 -313 -303 0
-629 -522 -56 422 0
-558 -616 -533 -375 920 -771 0
-61 -339 -280 -295 193 120 0
-421 827 774 -291 149 0
-780 -533 675 667 615 0
-4 323 -669 941 0
749 937 914 -830 -121 0
374 -378 -828 486 -615 0
-817 624 -559 724 195 -218 0
-424 991 898 443 643 859 0
134 918 893 931 0
-886 736 -254 853 0
-534 577 297 352 0
-934 141 -693 139 0
995 471 721 491 -85 0
593 456 -399 450 468 -616 0
593 108 406 233 0
843 716 -569 -964 0
719 -773 -315 -690 52 0
788 710 -721 -191 -552 0
380 -309 -481 -377 -421 -977 0
-145 -52 -25 -416 -15 0
13 -370 901 552 0
898 -862 857 70 990 572 0
378 -868 -110 -298 -933 0
-356 -637 -393 443 -444 992 0
-290 -744 -818 579 0
326 -231 -732 -155 0
346 -525 -95 -255 -992 0
-123 -430 -663 853 -631 -68 0
-514 803 -377 -543 0
71 275 -999 334 0
556 -250 710 451 -585 -6 0
-83 -481 377 319 0
-992 -51 -474 -910 0
259 -955 -182 40 -50 0
778 -815 -112 -386 -338 97 0
-440 -351 871 45 233 447 0
847 -740 845 -781 561 0
-221 487 835 -142 0
-750 637 66 -526 161 -207 0
-381 -764 -546 926 -704 -483 0
-1000 -299 625 726 0
269 586 -352 324 -964 678 0
-731 -145 -351 129 -594 932 0
-18 62 -827 -462 0
769 -996 466 227 52 0
-353 -550 -996 -181 0
-646 -925 -945 524 0
209 733 -789 740 240 -937 0
791 810 -695 -240 0
-49 -683 -912 -753 0
-430 335 528 -665 73 0
719 60 629 135 -578 0
435 852 -912 843 807 0
-379 315 -862 705 762 467 0
425 939 864 -305 923 -563 0
610 536 -709 783 664 0
356 -205 417 339 0
-904 -155 479 -525 969 0
332 936 963 730 659 0
766 -240 972 -456 368 834 0
-507 -452 -253 -573 409 0
-82 653 -94 755 -156 102 0
-446 -194 222 -145 -124 560 0
-617 -719 702 257 147 -333 0
695 -579 786 687 0
144 606 -471 474 575 0
457 -894 493 -192 392 -760 0
-557 613 -279 948 -666 0
-328 -764 -523 49 -458 -528 0
613 546 814 -600 936 0
-405 103 -202 252 -214 375 0
844 -297 112 -118 428 -824 0
649 -386 314 -408 -664 582 0
714 -476 135 -444 0
-997 -17 -44 -322 223 0
930 500 822 881 0
390 -132 -845 984 0
-541 -101 524 586 48 463 0
261 605 186 -196 738 -979 0
493 638 -629 -10 447 0
-639 928 -498 754 307 0
325 -372 -79 876 -164 291 0
151 -492 92 -814 -600 0
-116 131 682 767 -630 129 0
-360 -921 401 -262 347 -547 0
-910 -304 687 -885 -17 0
-999 726 -782 -923 -822 0
831 -488 763 -44 -600 0
-89 -843 312 -402 408 227 0
948 831 -661 801 0
336 -172 271 -839 -205 -539 0
-516 970 -319 168 -677 0
367 150 -154 -768 -584 0
-336 -379 895 85 0
-858 -524 -766 -272 83 0
-143 -484 -990 -739 707 0
77 -398 275 356 -215 -915 0
-595 -147 -227 -873 -463 0
221 188 -912 343 80 -777 0
-997 -7 -604 916 -97 644 0
643 753 692 572 -288 0
-933 -244 770 426 0
-438 -515 236 -399 -527 0
374 -398 543 626 -249 -997 0
-29 195 160 -496 -410 0
-790 -195 -609 111 0
691 545 912 -380 -475 -59 0
-158 705 128 192 0
470 100 168 395 -647 582 0
771 -211 -973 324 -479 64 0
722 -981 980 590 0
-217 -504 300 -272 -611 0
-107 854 458 915 0
239 731 215 230 0
-320 630 727 -136 -977 0
-237 -573 964 -499 404 0
-610 -939 -241 -421 0
277 -850 24 -772 -141 -820 0
257 305 -348 600 0
445 684 338 -7 882 0
-917 -459 800 -371 -191 -93 0
135 -442 421 -341 0
975 184 509 -387 -31 0
-720 776 -808 973 0
461 -703 -357 981 0
-664 385 942 134 18 599 0
-746 709 967 -297 733 0
16 776 -909 -961 0
384 788 236 268 -650 0
-604 525 -643 843 -135 127 0
106 978 733 854 205 922 0
665 603 776 424 290 -911 0
98 -711 971 629 92 0
-113 -242 626 401 -151 0
-67 -756 853 -92 428 0
116 -794 912 577 307 0
-133 958 900 618 168 0
-84 210 483 591 -168 0
335 -527 -726 342 -786 651 0
-588 -953 -155 -735 -549 525 0
790 491 -923 826 -473 -710 0
474 -110 -767 -103 394 -666 0
72 -284 320 -540 0
-297 -502 713 884 0
754 802 -909 -755 0
424 -69 209 -358 150 0
-845 -929 82 29 -760 0
-547 -658 853 120 0
-906 -550 711 -440 0
-113 -808 -189 966 -205 0
-529 -562 -452 3 -318 -301 0
-277 23 -115 852 0
218 -692 230 788 112 -127 0
401 -474 -124 -938 0
54 -726 -428 -599 -297 -225 0
-32 677 -461 131 527 -967 0
22 963 820 -88 759 0
-526 679 -472 -758 0
399 2 -1000 281 0
-225 814 -201 136 0
-347 -3 -815 -517 0
483 627 942 637 0
912 278 -357 -281 559 0
709 323 378 -453 -492 0
83 275 148 933 90 -227 0
-644 -581 -866 53 0
-741 -715 273 -38 0
-208 376 -878 419 -350 640 0
428 -322 348 -50 31 0
-844 942 -41 -239 361 0
676 -71 657 -635 265 0
-660 47 211 753 0
-533 -70 463 675 -324 0
-66 -317 150 81 0
-663 42 529 -393 -294 398 0
904 -674 936 -755 -832 0
115 477 -977 -806 -917 0
846 -203 410 -22 0
517 -739 893 -788 -708 527 0
-358 -252 855 -88 -654 0
-236 205 165 -218 -40 637 0
526 371 -47 459 0
-981 278 150 -118 0
647 500 994 437 3 0
766 467 366 -889 0
-129 -607 522 7 671 564 0
-648 -341 232 101 -613 0
-414 -266 674 -634 -47 507 0
-342 -876 -843 -10 794 -57 0
-29 -453 507 914 450 0
-679 -368 -153 320 164 0
-918 275 -583 -819 0
869 565 143 505 79 0
95 497 218 74 934 0
-570 -99 -638 975 452 896 0
-170 345 3 -173 516 0
581 -530 -487 -395 180 4 0
-709 -644 411 -12 -539 0
297 -627 555 -635 0
863 441 -581 -811 763 0
991 -747 934 -776 -752 0
-922 -795 554 439 -18 0
349 502 -948 454 0
1 954 391 -141 -501 0
-775 372 -981 963 -592 0
-922 -53 633 954 618 945 0
-520 115 936 482 -296 0
-229 -904 -255 683 71 0
-564 340 -75 388 -635 -892 0
822 147 -437 -256 612 0
-320 232 -387 -518 0
-811 462 510 381 0
-970 -996 -973 599 721 0
-647 165 332 -57 147 -774 0
-620 458 426 869 -950 0
-858 126 127 -968 0
-343 597 -1000 114 803 -632 0
-557 -133 106 584 219 0
397 215 -554 234 96 0
-408 -629 936 330 667 741 0
789 -128 -109 758 -531 -161 0
810 -282 -603 -553 0
152 694 739 618 290 272 0
-908 533 90 -711 -401 -344 0
63 -310 -549 514 0
-355 -272 -923 -835 -2 0
-911 556 -581 -77 0
216 -122 789 -645 29 0
-760 -77 -555 163 -695 0
176 529 733 -861 0
-767 -243 -953 431 0
395 -489 437 396 78 0
-54 -198 -177 -631 -226 882 0
506 -910 -961 23 698 -275 0
-159 298 213 -245 0
-490 -898 -724 759 113 0
386 704 273 -987 0
659 45 157 -192 276 0
160 -13 -48 -830 0
591 -377 -995 744 865 -251 0
-539 -367 -97 -719 263 0
667 963 912 682 0
-659 456 -451 380 693 0
-166 500 850 -91 -252 906 0
-690 -139 441 201 -711 0
814 -917 788 -737 -539 0
-915 830 -705 -527 -549 -303 0
839 932 528 635 669 0
630 -979 -40 747 0
-633 -310 -407 605 702 0
-292 -637 -931 197 0
902 143 -241 -691 0
329 -694 66 -268 0
669 563 -326 -328 305 351 0
899 998 -471 129 826 -152 0
-791 177 -602 33 -898 -824 0
289 -725 -68 -500 214 -440 0
-249 -98 -387 90 -114 -617 0
890 -636 -455 680 0
92 -113 -824 21 -609 0
797 -612 550 309 -172 -853 0
-111 9 -580 547 -47 0
689 -255 -87 -73 -413 0
937 -533 334 -497 -651 -644 0
-98 950 423 70 930 314 0
499 330 945 454 235 0
434 451 210 799 0
656 -957 714 -229 -279 0
590 374 -806 -812 -254 0
907 122 27 -92 993 -132 0
813 181 -126 943 894 0
-883 -343 313 -625 190 0
689 315 501 -834 574 0
502 -71 970 881 0
971 583 727 384 -764 0
-157 265 -727 -787 0
358 438 -991 952 -744 -35 0
860 644 294 -770 0
446 -841 524 900 614 0
-935 -644 587 778 0
-42 675 77 262 844 -196 0
953 388 -494 -770 0
364 210 270 -498 856 0
-651 771 -505 -592 -537 252 0
-206 -423 398 473 -825 883 0
230 993 355 832 707 490 0
640 -612 870 -526 505 0
-121 -839 872 -312 0
954 -27 426 -872 -714 0
-510 -854 -707 -399 -405 689 0
99 -300 267 -893 -207 -244 0
-78 -825 -704 -840 270 435 0
929 274 -383 -487 0
937 223 -8 -9 704 194 0
-611 838 542 986 979 -712 0
-63 682 915 702 0
-757 80 29 -366 -527 0
602 879 906 352 -564 65 0
124 -893 491 -853 256 0
-277 366 8 -426 -358 -934 0
-154 190 -548 -209 0
-67 856 -574 198 0
713 250 -111 529 -683 -164 0
925 823 -30 -376 9 0
-384 -529 -824 -518 -779 0
-382 994 121 711 272 0
68 550 -586 355 308 0
-798 -149 77 -234 0
-225 552 -981 666 -607 -167 0
599 416 -874 885 593 512 0
256 591 820 -126 0
641 143 705 -638 0
-855 473 -498 826 0
728 -91 -742 -140 396 0
330 144 953 -123 164 62 0
-624 57 -689 856 699 955 0
309 -885 68 855 0
185 403 -317 218 0
163 -345 513 -621 -237 -777 0
37 119 143 504 952 0
592 -904 -628 -90 -223 0
-761 -331 -89 436 0
864 -509 308 56 0
-978 -638 -195 7 -440 295 0
-96 745 543 -89 0
-886 -62 655 650 34 0
-560 418 -842 -327 0
-807 460 398 -626 -305 0
957 852 436 -197 0
973 237 -792 -107 0
-111 69 -200 -508 -811 -662 0
593 -749 -107 816 0
558 922 -529 -690 -94 565 0
512 720 -125 -180 -764 0
490 312 908 193 211 0
808 -668 -35 699 0
9 256 731 545 0
928 473 870 763 0
833 -485 814 238 -903 0
-180 557 -466 -26 0
-522 -364 -79 631 0
-56 -803 245 -908 672 0
20 50 179 -48 231 -894 0
971 -989 806 333 38 0
-912 -881 250 -997 4 26 0
-869 553 -568 143 -26 180 0
-100 711 -318 -661 0
49 -848 582 -928 -267 874 0
664 -583 657 -671 545 -505 0
-466 -537 -129 844 535 -506 0
-446 -891 407 979 0
-367 862 -826 563 -782 0
-682 806 420 -800 38 0
862 -957 126 786 762 -67 0
-709 -440 644 225 0
-170 -909 -373 -18 834 756 0
-896 834 -142 -52 0
-147 744 142 578 0
-220 544 247 -588 -71 0
213 659 -837 -146 -704 -802 0
771 278 497 166 610 -754 0
621 852 36 -808 0
-736 701 -510 323 -843 0
378 697 542 -848 0
877 -864 -446 645 872 0
552 -386 -360 -615 -613 0
815 270 -64 915 0
124 -190 157 61 -6 -48 0
332 -543 14 -609 0
-748 234 -236 -44 0
574 195 753 988 482 943 0
733 673 80 711 -638 0
173 -591 -7 442 653 669 0
-713 -12 -603 -662 -279 953 0
-143 -77 -66 387 -594 0
709 888 87 -937 513 -607 0
518 -783 -734 801 0
430 -146 467 -781 228 789 0
-881 -523 291 -107 0
870 -208 96 -836 -689 0
-339 60 -527 449 699 0
-960 -327 237 401 139 674 0
926 -256 -861 56 -66 0
-193 42 896 -297 -777 94 0
803 668 -374 -578 -118 0
864 446 -240 377 -813 -708 0
-560 150 -453 853 0
172 497 855 27 -541 0
-435 -455 286 -78 -900 0
606 -452 790 900 726 -239 0
-245 -82 371 277 -452 -524 0
511 -207 -512 257 -147 0
707 -837 113 -84 0
548 983 -223 -820 -404 0
-107 345 736 933 555 0
-317 -882 -422 840 -86 997 0
326 -144 -282 786 665 0
103 375 491 571 328 0
-287 -570 523 -798 0
370 864 314 966 0
314 -152 595 -306 -163 749 0
185 62 -602 155 0
-637 766 666 311 -826 -657 0
-208 -684 77 -745 0
400 98 977 795 -809 -533 0
-789 645 -122 -93 303 803 0
-739 245 -852 -171 767 -565 0
275 704 -118 888 0
-401 -179 -522 357 0
-291 177 450 -159 640 0
-328 978 353 -414 0
7 -423 370 -960 426 0
-433 92 106 -785 0
659 -226 366 -679 0
-515 -959 -125 -155 0
-71 31 -358 -971 0
-685 -885 323 -324 0
179 657 500 182 0
162 -193 -721 -764 0
-898 -45 -638 424 539 0
940 -569 -964 -479 0
-222 448 -251 -843 -5 655 0
-505 -141 589 -241 -464 215 0
-385 198 545 -911 735 0
-999 -854 -82 237 -150 -794 0
581 -654 -147 -175 0
-432 425 -309 460 301 0
240 340 171 883 -604 -165 0
733 -231 -631 810 -953 672 0
-372 -725 -359 731 0
760 562 -376 898 0
419 -951 -286 -52 -363 0
-656 489 472 946 -791 51 0
888 -530 24 436 0
-282 -626 581 -447 0
597 -655 -644 -216 10 0
-779 -553 -496 904 161 0
-258 -380 271 485 -206 0
977 847 -481 -960 0
-76 -203 -400 374 0
731 891 700 -920 -147 0
-816 -419 -365 192 0
-307 -3 230 -441 -864 0
-317 -402 -239 194 350 0
-880 35 -485 244 944 427 0
331 -305 274 -350 -970 0
-701 -59 683 -800 -684 -392 0
-385 -791 -285 710 0
-434 -704 -512 572 0
384 -397 -898 947 502 0
204 -923 841 -894 -368 0
-86 -426 -230 -195 0
711 769 -895 240 313 0
-892 -328 778 549 0
-175 -373 -925 -235 -248 -553 0
3 -973 -686 236 -663 -922 0
-600 -957 -711 615 -40 970 0
670 319 296 541 -106 -710 0
-489 -685 -156 -901 534 -95 0
-159 948 -48 970 -507 0
-977 -990 39 656 -303 675 0
966 734 464 313 0
-353 186 105 -4 713 -799 0
954 -870 97 -464 427 950 0
-636 -412 437 15 -367 0
296 -687 -375 -102 145 0
-592 99 337 -977 -142 701 0
-369 -338 979 -3 0
-299 981 -554 -534 -914 646 0
-302 -103 142 163 -272 0
45 -163 -939 730 434 -435 0
-327 809 -185 869 993 0
331 -585 -830 -66 0
341 -452 -133 32 877 0
149 -148 -855 -141 0
440 403 -687 283 126 631 0
-165 -761 125 -444 0
-986 -49 -104 -954 2 -805 0
-290 -72 344 214 128 164 0
-975 -746 329 492 596 169 0
298 -332 -438 -655 0
-967 893 984 -256 970 0
-814 875 454 659 -513 0
877 65 61 -795 -692 -633 0
682 -579 -225 168 -995 581 0
-674 -896 -542 -144 655 -85 0
708 79 -234 -620 0
