c Easy-SAT formula for GPU Gaussian elimination testing
c 500 variables, 1000 clauses
c Designed to be easy to satisfy (fast SAT) but large (slow GE)
p cnf 500 1000
1 0
2 0
3 0
4 0
5 0
6 0
7 0
8 0
9 0
10 0
187 -245 -385 386 -426 0
-79 460 -246 343 -8 -124 0
305 -141 446 466 -435 -206 0
142 -74 -183 390 362 0
221 -394 434 -275 0
-236 -308 450 500 41 0
111 -487 -352 -306 454 319 0
-416 -67 -155 -250 0
-416 -413 -361 -7 -228 0
25 437 101 -155 -332 500 0
-136 294 -340 374 -419 0
60 -211 339 -321 -223 0
320 383 142 51 384 0
432 -100 173 -152 -265 296 0
493 -84 294 -345 -248 -273 0
-140 238 357 -412 494 373 0
111 170 -472 -184 473 0
302 -222 -366 382 133 -168 0
291 -245 54 -237 342 0
-23 246 51 197 369 -26 0
276 -456 -19 91 0
452 447 -193 -180 90 0
317 -369 -399 -366 0
-253 -102 -52 -84 -35 23 0
285 452 -413 -61 449 0
-467 420 -4 -262 -448 0
-97 220 -382 -465 0
327 129 -234 466 312 0
455 -280 234 229 -232 0
333 -298 -213 -363 0
-391 -404 -242 104 0
-390 -76 -113 43 0
-323 -62 -76 -302 -214 0
441 -494 253 -45 0
-140 -272 378 -494 -441 0
-199 451 -343 242 0
250 -449 -96 -64 0
-85 -473 -98 -416 242 -441 0
424 194 -300 302 440 -208 0
-70 329 -144 295 0
216 345 -329 -283 0
-469 -212 136 143 0
-466 -379 178 -458 -284 -197 0
-99 -37 -213 481 -167 392 0
225 -383 438 82 -338 147 0
212 447 -152 184 -423 0
-309 492 368 246 0
249 292 -49 -277 -437 0
-7 -369 -435 -482 385 138 0
-450 -439 -140 -155 -145 415 0
-4 84 -357 -496 -211 0
-483 323 -481 -268 0
121 351 -395 -28 294 194 0
473 40 208 -404 0
17 -489 -73 122 -14 0
82 -132 366 -402 0
208 177 -431 -134 -374 193 0
111 -21 -223 162 -464 38 0
166 105 250 -279 0
-59 384 -49 459 8 60 0
182 450 -331 436 122 456 0
214 -486 -388 53 0
442 -17 -9 139 0
-125 -277 -378 192 0
-361 -259 38 487 0
382 171 -50 97 -259 -390 0
-425 -12 170 -31 0
-338 215 499 -154 -1 185 0
94 -192 31 45 0
32 -272 422 -317 -170 0
212 230 -376 -174 0
-271 72 -56 -47 0
458 391 -379 225 -491 0
296 98 190 221 -300 0
138 -75 -37 -319 0
-180 293 199 462 0
-259 -117 -177 226 -401 0
-210 -212 -63 -255 -353 -233 0
104 216 -236 -433 0
-397 1 -429 -387 0
224 337 33 402 -66 0
483 211 11 -338 22 0
463 -442 57 264 -241 0
-460 373 140 -82 -362 -251 0
-153 181 -33 -197 363 -474 0
398 -88 -224 -92 -263 0
-319 -258 -390 119 0
-39 -484 -100 -384 -378 -142 0
-402 98 4 -126 0
141 352 244 103 0
226 -115 -419 -106 0
172 82 499 -74 0
222 290 -484 -142 394 0
-155 -466 -425 -195 -184 -232 0
-113 34 -173 124 -17 0
419 -284 -390 2 0
-392 -63 344 -420 287 0
-208 143 54 196 163 123 0
-94 -266 -251 406 -453 377 0
325 -374 100 -202 0
307 60 -89 -54 476 0
-298 -192 199 -410 0
-368 405 -118 484 -454 111 0
-301 -23 356 -397 -491 12 0
314 307 -342 -294 37 -372 0
320 107 339 75 0
130 391 -140 -7 -107 128 0
102 -481 384 -444 0
143 382 -298 471 0
-151 -462 -15 -397 0
23 322 -397 -437 -236 -382 0
-458 204 -220 -157 -32 -72 0
401 -340 -218 81 391 -26 0
-402 474 -140 123 -62 0
-217 -26 -23 407 0
-146 -398 -140 -346 0
-79 322 -483 218 -345 0
-146 -264 31 256 0
-116 -53 418 -247 297 0
-475 402 84 -434 0
14 -387 -118 -240 0
146 349 -242 -425 390 0
-94 -228 87 -257 0
-353 -77 336 403 -138 0
60 -292 -73 15 109 0
-22 328 452 351 0
-372 392 201 193 0
1 164 484 -107 342 492 0
207 -409 335 -168 378 -135 0
218 -356 -187 374 -339 -144 0
-476 -63 -306 -256 421 0
115 -405 358 223 479 0
255 236 22 331 263 -458 0
481 386 -260 149 0
-235 261 -192 -454 0
87 487 6 307 -460 0
142 -500 -297 -176 -321 287 0
-493 -18 27 348 -4 0
-122 173 70 364 -276 0
-492 -157 -285 -17 375 -269 0
325 -139 -362 73 -135 0
444 -203 171 261 -193 446 0
-256 -23 -479 103 0
-108 368 -492 -48 0
146 220 271 -496 0
-179 237 318 -143 -148 0
96 -52 132 497 0
412 269 436 -427 0
104 262 267 249 -75 392 0
-76 480 -166 -207 407 -46 0
-283 324 -406 -208 -189 0
-464 287 219 -482 -32 -6 0
347 345 -386 346 0
-177 -316 -215 -109 279 -112 0
221 167 320 118 -35 -212 0
-128 354 -253 -457 0
38 -236 -245 253 -455 0
473 55 58 472 18 466 0
126 139 -421 258 0
430 138 500 413 431 -149 0
-118 -20 205 -403 359 0
-366 230 163 -165 0
-424 120 -237 -207 -184 -201 0
385 -218 453 263 -22 -57 0
-346 -39 396 -315 0
-467 -340 15 -325 -219 0
-368 344 72 -125 468 0
124 163 99 -408 266 0
190 74 -248 395 -435 0
-194 -303 139 47 0
-176 443 353 272 -60 0
140 -335 42 188 -205 0
-404 75 -416 426 0
-22 314 -415 -42 423 -155 0
-475 -209 -236 -170 -492 0
70 52 -277 -238 283 0
429 143 -21 481 363 0
-3 -272 -149 -160 0
118 -331 -493 -461 6 316 0
-223 394 136 208 111 0
378 432 59 216 -155 0
-324 -16 440 -110 -378 435 0
-343 -151 12 -486 0
18 -365 -56 378 0
410 151 50 469 -338 115 0
-363 486 251 121 206 0
-253 -121 290 -284 0
-263 486 -383 326 288 0
-226 2 -133 440 99 0
32 -313 -257 423 -158 0
372 149 -439 -164 0
179 -86 306 123 152 0
-494 29 229 -409 -455 0
277 220 162 94 439 -185 0
178 392 354 44 -130 243 0
493 -380 85 -43 296 0
-496 -447 409 74 271 379 0
-83 -392 458 263 176 -66 0
-37 -55 36 -486 270 0
-83 -482 -55 4 -293 0
-332 309 432 -474 34 0
496 185 -336 -321 0
-498 194 -122 -223 -269 0
404 -281 -412 -181 0
-248 331 -61 316 -184 0
-217 -305 -201 294 -250 0
389 -104 285 -170 288 -259 0
-31 237 365 -146 265 439 0
86 -167 -122 205 -180 -146 0
-147 -279 -94 -160 -184 0
6 81 -497 285 -463 0
408 468 -274 219 -354 0
126 -156 -78 -174 -88 412 0
-464 -140 472 -160 0
69 -439 342 43 -353 0
31 -227 257 483 427 0
-495 286 290 318 404 0
479 -496 -14 -254 -275 0
60 229 -424 -269 201 328 0
16 -360 -143 -95 -317 0
-16 195 163 -297 -53 -403 0
483 -444 183 125 -255 0
-300 -31 -311 209 -10 313 0
-32 312 490 417 -335 -148 0
-100 -372 -63 -45 -322 -361 0
219 499 -171 -122 0
-407 274 341 -311 54 0
-119 303 -120 -98 337 0
-402 289 394 497 0
63 137 -295 -194 150 0
208 105 20 80 459 0
-257 210 279 64 0
115 -130 -7 -220 -465 -299 0
-378 -282 480 -200 0
-278 429 -1 155 0
-270 477 -276 396 178 443 0
-147 -433 -470 139 0
-252 480 -273 79 0
-127 -493 -136 385 -263 0
499 -461 -318 265 0
-222 447 -212 102 0
-70 -255 -51 402 0
478 54 -138 -321 392 -469 0
412 -88 138 21 0
13 483 322 -205 -471 -90 0
357 -336 -439 138 -298 -328 0
-207 -166 -421 -26 253 0
460 111 122 58 -7 -500 0
-394 493 -215 -421 0
-73 160 400 452 0
20 -55 -83 161 -270 0
-321 366 -157 -261 271 493 0
97 492 -224 383 6 0
296 443 341 201 140 -386 0
-203 -385 -257 -281 387 45 0
-173 403 470 -159 356 -238 0
404 126 -162 -376 0
-258 -32 -382 -25 213 0
-165 35 -297 -340 0
132 -416 88 -381 -25 0
440 -13 -160 -83 -329 0
313 -141 -371 452 -24 0
-39 -156 293 62 -207 0
-304 -31 268 -276 158 -252 0
-402 115 -343 -473 -264 0
56 196 82 110 0
322 -255 313 -79 177 0
205 72 -269 -171 -467 0
112 395 -479 -362 0
-55 -456 235 452 -99 -196 0
-153 214 96 173 22 -56 0
54 256 426 -167 30 0
-424 339 397 -267 0
139 -2 78 327 77 215 0
-203 423 -471 93 379 -275 0
196 163 -457 -236 0
427 305 -476 -289 -310 153 0
470 141 -465 -87 -220 -228 0
-177 217 323 -29 423 0
-13 -374 112 -66 293 -411 0
342 21 -337 52 480 0
-189 360 469 379 0
142 -403 427 254 0
-296 -126 -302 -362 351 -227 0
-70 302 164 457 -431 -58 0
346 325 425 227 -73 0
-73 364 -396 -181 440 147 0
-424 7 208 57 496 0
438 8 -481 -325 0
269 144 -396 175 -116 0
352 -495 137 488 -449 -67 0
-498 437 -349 414 -350 0
-413 290 146 -107 322 0
373 268 416 484 0
-353 262 -260 -402 0
60 -327 -159 -5 0
237 -468 -104 -300 0
-251 -297 -431 -284 304 4 0
-284 458 -184 -384 0
-225 194 -480 128 0
-484 -388 382 -169 -220 0
471 473 207 334 359 0
-320 356 325 351 -32 445 0
-314 210 -9 155 100 0
482 -318 -148 187 0
223 -464 154 -481 0
-23 450 -392 19 313 -468 0
5 -339 -352 -49 210 134 0
300 -125 -62 -267 446 0
115 -160 405 179 0
180 489 204 -137 365 0
-367 -499 -80 182 0
-162 338 267 290 0
-273 125 -93 64 0
-165 -41 -277 473 0
-335 168 -398 -419 -273 159 0
-340 261 373 -435 0
380 404 410 402 0
-143 -301 -63 -431 0
-36 -348 -192 294 336 121 0
458 322 -99 119 -153 0
99 -14 -472 -317 -85 0
-484 178 -235 289 -262 -488 0
139 -317 200 -380 420 165 0
-481 -390 273 -295 -250 0
396 -233 -456 -139 -268 28 0
95 194 294 229 0
174 -373 263 -165 333 0
-499 -147 -211 336 0
440 167 83 227 0
191 -469 -245 -227 84 0
456 -450 -137 430 424 496 0
-181 -225 257 -280 41 -385 0
-370 72 -390 133 163 -289 0
334 -428 -306 -387 117 0
96 77 -242 -153 -79 460 0
-154 32 417 94 -137 -460 0
-2 -368 -263 129 21 0
71 -237 147 420 389 228 0
471 -22 -210 -485 0
404 -40 497 350 -351 333 0
-378 -413 -242 -203 304 0
-274 265 260 -120 0
-321 -35 -209 218 -363 0
-178 -55 105 -246 45 -135 0
90 13 31 -408 498 0
452 -200 441 55 0
-447 98 -428 -458 -40 -175 0
314 301 450 447 163 0
-185 33 -392 430 -340 -218 0
-433 -362 5 221 0
-297 -352 -279 206 -343 0
-439 203 369 -118 485 0
411 -8 -488 -153 -275 395 0
467 333 -7 112 0
-162 57 -13 243 201 0
-396 -500 -380 100 -368 436 0
-7 -57 168 -272 0
498 -396 240 -325 0
-125 237 -18 87 428 0
332 -162 -132 -63 -450 -471 0
302 224 -157 -394 131 0
139 -58 44 95 0
317 -489 227 -81 0
309 334 467 277 -120 -138 0
-444 -327 320 292 -152 0
262 93 -9 400 0
351 6 -396 -432 197 0
-429 -395 293 -367 0
177 -342 -358 -245 -19 0
-373 106 -293 -78 417 0
12 401 -234 -78 0
14 144 140 319 0
153 200 -18 83 0
-420 -202 204 54 -489 118 0
-495 352 -404 -413 105 0
315 230 192 -169 0
259 -212 481 -60 -450 0
-116 187 352 -472 -115 236 0
308 -396 -457 -5 357 -465 0
-207 165 145 273 77 0
-476 326 128 346 360 0
-88 308 285 -65 0
446 176 -457 -436 0
240 275 254 242 0
-12 -166 -197 78 0
312 -449 -463 -348 -135 23 0
-218 -199 -262 -235 0
176 -120 -73 -268 -248 0
274 -174 443 1 0
427 -490 -252 458 0
-407 -254 -79 -27 -172 -94 0
384 154 2 29 329 412 0
-156 -485 -372 414 276 24 0
128 -420 -312 -334 209 -145 0
202 474 -449 -200 0
-207 208 -420 226 0
-460 -284 472 380 0
300 19 -189 -453 431 0
-356 470 152 -369 -422 134 0
-489 -471 276 -498 164 268 0
163 -334 219 143 -204 0
184 452 25 -488 0
242 125 339 364 0
-191 354 33 368 0
-309 98 471 112 0
-43 387 210 -328 -248 405 0
-398 -78 153 -106 -409 0
7 18 56 -211 422 0
43 -497 -354 230 -116 0
-402 235 422 346 0
-280 50 188 -199 196 0
437 -77 35 255 -448 0
-283 -85 6 -438 58 375 0
317 -125 -439 127 0
103 426 -422 249 0
454 410 -405 -319 -309 0
-150 -360 -264 -226 0
-248 401 90 -411 0
-375 -383 -213 -157 -124 153 0
-387 -491 305 -139 0
-55 271 -401 -398 0
119 116 -185 180 495 0
-282 -201 390 48 -30 256 0
-75 337 -275 -355 0
187 -282 25 231 39 0
-346 -432 10 -450 -220 356 0
490 -136 254 -113 23 0
407 -427 -2 -392 -78 -467 0
-185 201 -138 -223 -56 0
177 -30 -398 -483 0
-166 -391 -479 414 0
209 202 375 -69 385 -289 0
384 -411 157 -78 -207 0
-39 -314 494 471 32 0
497 -48 -493 482 11 -322 0
-261 -119 277 -240 366 485 0
-101 -472 90 -265 0
-493 -90 349 -279 0
-327 239 119 -41 319 0
96 434 339 211 -111 0
-47 289 242 342 -243 0
410 59 -379 -363 -347 276 0
430 -450 175 286 0
235 -475 361 328 414 0
-444 -169 77 327 0
-418 164 424 87 0
424 -404 278 -447 0
289 -70 233 -167 96 0
-106 -477 -342 -34 276 0
-461 292 246 224 -247 0
372 251 -400 -300 -70 0
145 -128 498 282 0
-444 -203 -27 -438 112 0
178 224 -450 417 0
221 380 449 336 0
-333 383 -58 34 369 0
74 18 347 21 -49 0
-92 -400 -427 227 0
178 3 186 141 45 350 0
-32 -103 117 -163 0
-300 -409 410 -174 -19 -414 0
330 324 -267 214 120 498 0
224 -121 58 -375 -442 0
49 212 -213 365 307 0
-261 352 -21 334 363 0
485 -168 28 431 226 0
-379 -171 -217 28 -310 0
463 -95 -484 -274 -36 -119 0
-76 -431 60 434 0
450 -323 -109 353 -169 -196 0
214 -354 248 42 -12 0
432 -171 -424 -250 257 494 0
498 -52 25 429 0
192 202 131 400 410 367 0
478 -194 -92 -67 183 0
-442 104 473 -307 0
-3 -467 -107 237 -13 317 0
482 295 82 86 0
30 -49 -229 401 390 0
-479 -159 36 -334 0
324 109 185 416 0
344 -158 381 326 227 388 0
490 197 -185 499 167 0
109 -159 451 325 98 0
254 368 -320 205 -340 -243 0
381 361 288 -50 0
278 -141 499 -238 455 -21 0
129 141 325 -443 306 0
-155 -429 -239 -192 -390 0
500 52 -79 -43 -178 111 0
-179 72 -169 -390 -198 0
21 87 -233 -495 0
-304 -415 251 -432 0
57 -135 -349 -377 -168 0
-199 265 -379 -166 0
-287 -460 315 474 -258 -375 0
144 -191 98 491 -108 -5 0
302 -418 65 213 -447 144 0
-135 133 -494 492 493 198 0
406 59 424 -421 -262 -490 0
67 120 -269 110 0
-109 -36 243 482 129 0
-139 26 312 -35 -66 128 0
-231 -3 468 -30 107 0
473 -281 124 -225 -334 0
-67 -229 234 96 0
-331 80 89 -303 0
196 96 -405 113 -437 0
-437 424 -233 54 158 0
-288 351 216 272 -128 -467 0
306 -500 -307 139 -250 418 0
-386 -284 5 -285 186 0
182 418 -218 -466 0
-44 323 -400 -361 -397 333 0
-415 -66 -225 -57 479 0
477 -483 -208 -134 0
487 -244 445 -150 0
49 97 -332 435 -253 0
370 61 443 83 0
78 -97 351 486 0
-498 338 -302 -78 0
-215 309 -85 -11 319 0
436 -334 -340 -298 0
-64 -461 -339 419 6 0
-391 -145 332 -487 384 -186 0
345 -150 -266 -133 267 246 0
211 462 218 187 -318 -76 0
166 81 201 52 -355 0
-73 146 -158 -206 0
-206 -21 321 88 -428 0
-248 -404 69 -349 0
-86 226 -265 -36 -485 46 0
-33 73 -281 241 392 0
-268 343 157 -79 -118 0
344 -436 -308 -366 0
440 372 -335 259 0
407 -97 -20 -171 0
-324 443 472 -155 -207 172 0
-462 7 36 455 0
-108 -49 -104 484 0
71 203 151 -2 88 -62 0
388 8 -102 -39 0
-208 -288 204 -329 312 -367 0
417 92 -129 330 219 0
131 -407 159 -200 0
-96 -11 -143 -213 -363 0
-197 348 -173 440 307 0
-115 310 151 196 -19 0
-176 -7 -421 366 10 123 0
169 -220 -187 -308 0
-328 143 -43 119 189 84 0
353 84 -23 128 495 -257 0
469 444 289 449 -345 0
9 89 -221 -194 416 0
25 -420 -499 -359 -454 0
94 -22 -92 -185 0
-452 -81 -284 356 445 438 0
-34 452 48 -381 214 0
433 -107 -31 -78 0
18 473 -125 -328 -425 -478 0
186 -331 364 66 0
-189 -76 -216 283 0
377 499 220 267 -311 0
-207 211 -104 -58 0
-359 345 -306 -108 -169 265 0
350 -38 67 392 112 437 0
106 -285 468 -97 -8 0
-269 461 -77 98 437 0
397 -19 333 -64 38 0
296 75 295 116 -215 0
-217 341 -119 -497 -23 -310 0
351 -434 29 114 323 0
-360 -297 -399 355 453 -180 0
-238 63 -500 216 271 -469 0
-135 240 286 -187 -258 0
-58 70 164 234 0
-145 174 -410 -366 172 -268 0
218 207 267 457 479 0
44 78 -450 166 0
-345 238 -66 -353 407 120 0
-45 -34 -70 -237 0
21 -31 439 225 0
252 -271 218 -323 0
91 -84 -65 151 0
467 -21 -393 -187 0
497 -291 -422 -81 -284 -217 0
151 -431 342 -88 272 0
200 91 -469 -139 -82 308 0
-194 350 495 287 307 0
-64 -226 -255 -22 379 0
-326 219 -205 -313 -201 -422 0
390 5 69 -138 0
-204 123 383 188 -326 0
-210 240 -491 -307 0
14 322 320 5 0
236 -161 -347 344 0
-26 -397 489 -330 423 0
-35 -327 -147 -498 319 293 0
-402 251 -140 -244 432 328 0
375 290 -478 -86 329 196 0
46 -281 443 399 0
252 404 -228 17 123 124 0
-112 403 375 -476 0
-353 -238 204 398 0
283 23 30 330 35 0
-86 -373 276 -25 -13 48 0
-289 116 -448 416 0
412 -311 168 47 0
-265 -488 383 239 0
-117 204 364 -401 -162 0
-214 -227 -62 404 149 -225 0
265 -417 266 287 495 279 0
-49 -338 252 -358 0
-189 142 286 186 -447 0
221 -236 -489 -377 220 -137 0
-333 421 -207 316 0
-344 84 385 -183 8 0
86 -337 -43 -474 -437 0
28 497 73 307 357 -200 0
305 -448 421 -438 -155 -469 0
-481 232 -360 59 -483 0
394 377 409 465 0
440 -140 333 437 0
-196 -159 312 -408 168 0
352 494 38 -310 381 0
400 302 16 56 -435 0
-41 -156 -118 431 0
181 343 164 -74 16 -271 0
-332 -316 -435 433 48 0
-425 -143 337 -56 0
-182 -479 -338 -416 -454 0
-107 -8 149 233 0
247 -194 -221 51 0
416 254 144 -71 0
-371 376 137 230 -416 0
-72 -156 -470 298 394 0
-260 -42 24 -138 0
-268 -96 399 -57 -86 -108 0
81 -377 168 331 0
-138 459 -424 319 -472 -357 0
96 485 -464 168 0
275 -343 117 218 124 0
186 334 171 241 -112 -168 0
454 198 439 261 -296 246 0
-471 -130 241 261 -133 0
-473 372 179 439 0
-240 352 -277 -44 0
-254 210 416 157 72 -371 0
50 -235 397 -416 0
147 65 227 290 0
432 382 -112 74 -289 0
-199 423 75 -413 0
-257 323 -146 -443 212 263 0
-223 182 44 267 0
-287 -309 -55 285 0
-362 -258 -343 429 0
-426 331 28 -443 -431 -317 0
-259 -104 142 -90 428 -89 0
-395 -356 374 150 -73 0
286 245 -422 357 0
296 -182 -307 -336 -146 0
346 -333 249 -453 355 -419 0
3 -395 -304 -196 -406 370 0
-20 -226 -77 -68 -283 0
-287 132 -312 443 63 -33 0
-150 104 397 -430 136 0
-141 450 -421 484 0
326 -365 229 -412 118 379 0
-496 -62 480 -357 -383 0
-444 -425 -65 62 26 -185 0
456 262 41 247 -24 167 0
-11 4 479 -325 -300 466 0
472 -34 -441 -47 0
-457 -327 -355 486 -193 0
428 39 -42 440 -336 0
-5 -116 192 -432 0
350 -269 -258 -460 197 0
-400 183 -295 -286 305 -308 0
282 -211 -72 -184 177 -476 0
129 -390 49 -201 -209 0
-316 -106 -174 55 230 -31 0
437 499 -192 -455 0
-236 -273 -296 -98 192 2 0
76 311 -423 -40 268 0
-118 297 146 -379 426 -248 0
492 485 482 148 118 99 0
229 -236 -138 -106 -319 0
-134 2 -228 -182 0
-123 255 -94 379 42 -100 0
-301 -163 -395 -140 -120 0
399 353 134 391 396 0
114 -482 130 185 -36 0
-162 -357 -415 467 0
409 79 36 -377 -339 0
378 435 -145 -460 -67 -329 0
-366 -381 30 27 -409 43 0
225 426 115 358 -143 388 0
280 -426 367 -383 460 0
265 -156 -126 -395 -9 0
-203 -371 481 260 0
-60 309 67 367 0
233 -19 -371 -48 -30 -64 0
-114 41 325 253 -359 0
304 -346 -432 -87 134 0
340 173 382 469 -17 313 0
-45 -310 388 155 -499 -293 0
421 168 119 -234 -358 99 0
284 82 42 334 -375 0
-373 308 407 -446 0
-201 213 -362 71 284 0
-271 -38 -298 -369 0
350 266 259 -196 -93 0
473 -109 309 92 311 296 0
-113 163 -461 -80 38 290 0
301 -384 225 60 0
-271 19 315 -409 0
-327 -9 487 -373 170 -59 0
-178 -72 472 388 0
475 478 -63 -277 0
201 362 -184 392 -332 401 0
-97 -78 408 -23 7 0
-440 -164 447 -482 19 -424 0
479 137 428 -145 0
-426 -78 -470 430 466 0
473 -450 -186 -183 252 -165 0
307 -477 -23 363 50 303 0
-166 -190 103 275 343 -270 0
-50 -461 158 -59 -339 86 0
12 -288 -296 400 0
-433 -322 298 267 166 0
-93 -477 -341 45 475 0
479 441 9 -94 -396 -71 0
-274 -141 417 -353 0
-465 263 193 360 -421 291 0
-453 108 331 367 42 -40 0
-277 127 192 -380 0
-280 283 252 -430 0
278 464 -404 266 0
-60 -57 -240 -103 -460 0
329 13 247 -229 -246 0
-308 -335 167 -66 294 424 0
-388 200 -500 -297 -114 0
-364 226 21 81 0
-30 473 -393 -191 -492 134 0
-24 -280 47 306 0
-461 -250 -354 -438 0
-110 -76 -209 240 0
165 -189 487 177 -249 0
-304 -236 329 -427 -255 -124 0
-354 -428 -387 146 99 237 0
-282 -401 238 -72 174 0
-113 -17 -372 -321 59 0
145 296 49 177 -174 0
149 -454 -389 -291 298 0
-43 -194 -330 -129 1 0
475 481 367 325 0
-182 351 71 70 -297 -428 0
180 -239 423 351 -298 0
381 -145 -490 103 -346 0
-40 437 338 -391 0
-32 4 7 481 0
-24 378 -144 293 0
228 -399 381 -303 314 257 0
-470 -379 422 485 -301 -404 0
72 65 -106 -446 0
249 -450 350 166 0
276 232 240 291 -55 0
-374 103 -482 283 438 488 0
178 210 -484 487 496 58 0
-55 391 -259 -192 -268 -289 0
288 -377 -258 -364 0
271 295 307 -302 180 0
-146 -52 357 -360 -385 -378 0
-481 127 478 168 -82 0
-379 11 77 -442 41 0
151 443 -289 -182 0
180 240 -462 13 456 -234 0
-227 270 -159 -140 0
124 -268 -27 338 -430 -304 0
-277 358 318 -294 0
-44 250 446 392 0
435 -182 73 -353 0
-198 104 -365 423 481 0
-48 121 -344 252 -363 0
149 233 -471 -17 334 -310 0
-387 -243 108 -137 0
-316 -20 -172 238 0
306 -40 312 334 -141 304 0
-413 253 -89 17 164 0
413 103 203 400 4 -102 0
392 -59 -409 -410 -160 478 0
488 -313 -302 127 0
-205 -352 -333 -146 -372 -315 0
-15 107 109 150 -454 263 0
15 -168 486 -422 0
116 -369 21 265 -449 -136 0
-81 -96 -251 -477 0
-377 -71 249 184 -431 -82 0
380 325 343 -189 -90 0
13 -167 41 -343 -416 1 0
-337 312 218 302 0
158 448 401 431 345 0
-423 479 359 -112 -252 240 0
180 -333 265 -291 0
-232 75 -38 373 -159 241 0
-177 -500 30 239 133 -470 0
365 -259 332 313 305 -30 0
265 -222 415 301 -272 -56 0
-188 -47 473 400 0
-115 -190 300 188 0
260 351 417 435 0
170 300 -262 452 -307 33 0
-149 424 237 -156 -345 0
99 70 279 444 -208 0
-195 448 433 -210 -177 0
353 237 480 -485 -271 -358 0
-18 -93 -260 276 -192 236 0
-280 -223 -406 448 0
-285 246 250 -440 -253 0
31 146 -180 -109 0
-270 397 180 331 226 -170 0
20 -281 -341 -477 134 0
69 -40 199 -140 -72 0
-117 -227 327 -266 69 -173 0
270 128 -361 218 0
-365 -171 19 122 392 -499 0
-444 -200 345 462 -375 -92 0
-432 192 -247 57 461 132 0
-318 287 416 -417 -451 0
-95 -231 -35 243 -207 -167 0
-131 -257 27 -377 -370 0
325 -359 6 129 -361 0
218 352 -55 229 0
330 -53 297 -249 -146 0
443 230 -22 471 47 144 0
-332 412 -311 -272 -24 247 0
389 -243 -233 283 499 0
-213 430 -87 -196 -459 0
-30 -33 -452 112 -213 386 0
-371 -359 313 86 0
442 -313 418 145 373 0
-380 161 -163 -453 64 0
15 397 -488 403 371 -366 0
314 -176 -398 -82 0
51 -163 294 400 47 0
191 178 -29 -411 0
-490 -496 169 -477 470 0
358 291 -353 15 231 0
138 9 10 -213 166 0
53 446 237 -338 334 0
147 -431 373 241 -435 -9 0
-367 6 -429 323 0
91 114 296 -301 0
405 174 176 449 212 0
383 -316 -334 -419 0
-368 1 -353 -66 0
114 292 99 -86 89 60 0
106 204 159 -146 -394 -120 0
288 -41 -222 356 -209 428 0
-110 -239 -15 -342 0
102 148 398 7 -76 0
283 -199 396 -123 0
59 242 -302 154 464 378 0
-353 201 209 18 0
-63 243 -403 -480 305 0
415 302 99 -392 -292 0
445 37 -220 48 58 19 0
-381 420 394 -177 0
-76 -32 269 487 -330 -482 0
-303 -196 173 -191 0
-154 130 -319 399 -418 0
-386 -417 474 -3 0
-136 -70 -120 -333 422 0
258 -263 135 341 407 0
133 -249 494 -131 355 0
-450 -129 13 -490 0
207 -107 -346 235 133 136 0
466 -33 413 475 0
-397 393 252 247 -347 0
273 315 425 -292 106 497 0
376 258 485 123 314 0
413 405 -276 113 221 0
409 -452 -157 -57 -178 0
-390 -400 -354 451 -252 -448 0
-7 -25 198 -322 478 -259 0
-460 -430 138 130 0
-348 -332 -175 -256 0
-403 246 199 213 -242 374 0
-9 -357 406 225 379 -334 0
-475 6 68 -248 -120 0
266 169 110 218 -119 0
19 233 -455 -286 417 418 0
340 381 -263 76 -144 166 0
-202 274 485 -235 245 0
-325 497 -151 77 0
-416 -375 -430 -62 167 0
-133 -238 -340 -304 409 410 0
-443 -221 360 342 467 375 0
98 136 160 -298 -58 276 0
-276 -202 391 355 184 -458 0
326 486 -241 -140 0
-200 76 -220 -261 -158 0
-139 -454 60 256 334 -452 0
-222 -339 -378 148 315 -321 0
475 -322 404 -459 0
-421 110 -167 -384 0
-480 383 -54 86 0
-421 139 269 414 222 -412 0
439 -363 -349 -181 -92 53 0
329 444 384 296 -177 346 0
85 108 396 -223 -437 0
306 -309 411 -161 -168 0
-271 -100 -150 299 435 107 0
106 27 -245 373 431 350 0
316 -440 399 -124 -431 0
72 312 -309 85 379 0
177 -20 156 256 337 -300 0
319 426 452 150 447 0
376 55 115 53 -446 -389 0
499 111 12 -490 237 0
-141 386 434 243 393 453 0
-328 443 317 -256 244 0
93 -178 -73 -386 0
235 386 -299 -336 -347 0
309 -68 -296 -458 194 335 0
351 -333 369 474 0
-164 178 -239 -205 -379 -266 0
74 -40 -34 -38 -47 0
78 14 446 -454 -365 0
494 214 -77 -283 -171 0
16 489 -368 -33 98 -446 0
152 428 -26 360 -55 -465 0
199 -153 -184 -222 0
-414 -54 -8 117 0
9 -316 -309 -275 0
-349 238 184 -249 153 0
-84 -190 -217 -14 -74 0
162 164 118 -62 124 -69 0
-347 58 303 -405 0
-91 482 -14 303 0
499 -393 -161 -474 -297 470 0
341 454 -323 197 355 -183 0
135 349 391 87 410 -360 0
-310 101 -134 195 -102 0
302 -400 241 -126 0
199 444 -451 245 0
-212 -379 145 -271 -471 0
-40 -426 253 -171 0
48 -203 147 -88 432 0
-206 69 461 -449 0
416 -16 -277 168 342 98 0
121 -408 490 -420 441 -20 0
-144 -27 -372 298 0
-112 174 340 224 -444 0
220 32 56 403 -200 -462 0
-165 -383 -407 448 0
460 213 -360 -354 -295 -251 0
102 -451 420 -105 0
491 349 -146 -455 -436 -2 0
24 478 -45 12 -458 -89 0
-272 77 297 447 0
47 20 323 307 -414 138 0
153 475 -399 145 -312 0
391 -491 -255 -247 207 -37 0
477 96 241 294 -314 0
-79 474 -490 278 -39 0
-446 -103 101 -467 -247 0
255 -19 468 -227 0
126 99 326 -166 -30 -173 0
-48 -234 320 -229 -366 0
210 -157 247 419 142 0
-138 -177 160 -329 496 0
163 323 203 296 0
8 -192 -269 -13 -43 0
294 186 241 161 0
221 -390 -394 -488 0
33 102 471 -97 -139 207 0
464 385 420 -175 231 0
123 462 -412 -209 -466 0
303 -42 458 -223 265 0
463 -72 109 -103 -195 408 0
-184 -451 442 -20 0
33 379 127 -229 0
312 24 140 -201 0
111 127 -167 291 -495 0
-488 -104 -307 253 0
-396 242 -126 -327 -11 0
103 135 -470 43 0
-301 -43 228 41 333 -155 0
