c Easy-SAT formula for GPU Gaussian elimination testing
c 1000 variables, 2000 clauses
c Designed to be easy to satisfy (fast SAT) but large (slow GE)
p cnf 1000 2000
1 0
2 0
3 0
4 0
5 0
6 0
7 0
8 0
9 0
10 0
905 -683 -894 100 641 0
-492 -631 37 -657 720 -982 0
-545 285 852 -144 171 0
-633 403 455 -337 166 -672 0
-590 880 -682 498 486 -748 0
-133 97 373 619 0
278 -479 804 -909 0
578 304 742 641 847 0
-661 434 306 575 833 836 0
-507 -890 585 69 0
-409 -955 -769 854 0
949 -608 978 -365 0
-787 447 -664 15 2 0
-202 -963 -550 -99 -189 0
516 26 393 486 0
648 -564 645 -948 0
215 97 -951 694 595 0
92 994 -362 -976 -940 0
279 -239 -351 904 175 107 0
621 -651 -659 636 561 709 0
544 -233 173 715 0
-847 964 34 634 705 440 0
751 -899 -132 -370 0
148 -226 -668 381 0
-336 109 -716 -276 -117 -543 0
40 447 -537 -239 591 0
522 -665 -613 527 596 0
-672 -983 -858 8 -819 0
384 295 583 -617 0
-136 -975 793 -235 877 -380 0
228 -101 -790 186 0
606 -244 -408 -652 -705 -670 0
-247 849 986 823 390 0
959 -992 43 -799 0
-639 -217 -397 460 -168 420 0
17 283 -94 389 -301 0
463 666 179 926 0
-756 -723 884 386 0
-554 -751 903 -252 0
291 776 -605 643 -714 0
-752 638 519 -515 -126 -847 0
-947 -534 565 -611 0
-127 -749 384 266 0
-755 105 -321 699 0
311 -314 302 -632 -569 0
-784 458 -226 -240 367 0
-310 -342 -699 359 0
858 193 -522 -259 -829 0
-594 283 319 757 387 0
382 -312 808 612 -850 188 0
718 -411 498 -314 -373 0
798 538 483 628 37 400 0
-34 236 -263 684 0
785 -886 -249 -496 478 -172 0
-919 611 909 403 182 -832 0
977 526 -415 -665 0
864 830 -684 14 209 0
-289 551 -535 -68 0
680 -601 677 79 -578 0
333 744 -157 335 0
-928 -593 -432 -920 -284 0
953 304 -502 -175 0
-286 847 -805 -621 -595 0
665 -611 108 -150 0
-536 -537 720 29 344 0
477 432 747 839 761 0
581 575 713 712 0
-221 -983 -826 146 0
-990 -992 196 -917 173 0
418 -977 -208 -439 226 0
-62 283 996 595 378 0
799 29 -250 -863 0
-611 522 251 -178 269 235 0
-288 551 -569 -175 223 0
965 664 -176 -448 0
637 -275 503 73 0
-228 -775 -159 -189 654 474 0
644 -695 136 782 0
-198 -833 -864 -101 0
514 1 188 365 835 157 0
175 324 768 549 0
33 573 312 300 0
294 891 280 -15 0
-778 -160 -522 -340 -980 472 0
-808 343 -732 96 0
-37 624 449 750 709 392 0
-197 -714 351 7 -269 -847 0
-533 791 397 679 -330 -81 0
110 31 169 454 0
357 -818 -359 203 0
-85 202 -655 831 -402 255 0
-785 500 475 34 0
-882 567 -418 -706 0
352 64 243 -797 0
109 -581 887 487 622 -703 0
224 445 -540 254 955 -263 0
475 -761 -801 -881 0
-235 -861 -561 -72 0
402 -686 -244 -25 -735 -715 0
386 545 -468 -99 -756 0
-935 -964 639 -719 -89 -988 0
-472 195 -549 604 -269 0
-279 -84 779 -531 52 0
58 970 901 742 335 0
-764 -477 -783 836 -404 663 0
733 141 -50 88 0
-980 -904 -973 -283 228 0
302 -803 -261 -647 67 -559 0
6 208 499 -166 -130 0
-530 414 196 430 -293 0
485 330 615 255 0
-135 884 -1 437 283 -907 0
-149 154 -42 668 788 0
383 417 -602 155 0
987 277 948 -801 308 -870 0
-704 -112 -429 65 4 964 0
330 -962 248 -801 0
42 708 -918 -721 673 0
401 -667 71 -203 0
-626 -307 -827 -319 923 0
331 382 -795 -288 0
156 694 -721 -875 0
-543 -306 -237 -471 -549 -833 0
-682 -342 -413 411 157 0
-7 181 -789 407 504 0
-678 -817 -726 -491 681 0
-88 997 -810 -717 898 0
181 53 279 250 0
-627 -635 -840 442 364 0
651 587 925 957 0
-800 -12 79 807 0
-193 305 -787 924 -298 -26 0
-283 -334 141 901 0
-870 781 -17 -874 670 -402 0
143 -694 -178 659 753 0
893 -760 -967 -36 61 0
647 263 807 -886 825 0
246 -249 610 210 323 0
-181 452 416 51 0
247 -499 541 -222 0
-901 354 -410 -885 831 -43 0
-636 -498 944 -31 -436 0
-665 -935 -810 -590 0
-684 176 449 -366 397 327 0
-912 552 227 -97 0
690 -739 484 445 365 0
-122 -225 331 837 698 0
91 -99 -705 164 -900 0
-762 -403 724 264 0
96 673 -306 -526 -886 0
300 955 662 996 231 404 0
-327 -852 -480 960 -405 228 0
499 598 -450 146 -23 0
918 972 -443 -897 -965 237 0
-637 589 -985 807 0
-861 -888 854 829 901 0
-44 727 -715 138 0
-922 -976 331 -295 0
-646 459 160 -133 -710 -539 0
501 -493 -452 829 -649 -109 0
-908 -789 -491 435 0
99 -893 374 -125 -168 0
223 -777 -472 -395 990 236 0
930 372 -518 102 0
-485 -464 -906 354 0
233 110 157 569 -400 0
-225 251 517 914 508 0
193 352 -750 -614 469 0
-546 865 -814 -634 0
-719 352 -112 67 0
786 63 220 -21 -498 0
523 -609 945 -42 235 0
538 -313 872 959 170 848 0
437 529 645 139 0
899 -22 104 -784 0
153 567 832 65 0
552 -832 -712 4 0
223 596 -390 57 0
301 817 -110 -746 0
-626 523 43 -817 0
437 -25 70 -988 0
-98 -397 599 -993 719 767 0
644 6 581 -824 745 0
773 -646 -172 -296 950 0
739 -24 -926 -115 -300 0
585 -715 -181 -579 0
223 -812 -169 -53 0
-881 -279 -6 -220 0
-960 224 495 -477 0
-680 -356 -576 -271 0
659 273 1000 597 -720 214 0
-452 625 817 765 -348 0
-366 -771 962 -281 0
-628 -820 816 -22 0
-488 -262 725 457 -862 892 0
384 -712 179 328 -471 -677 0
-147 565 -444 850 0
476 -240 163 -24 883 -679 0
-45 612 -67 -557 0
167 11 660 -246 -222 0
793 -947 243 212 0
-326 290 623 -684 528 0
814 950 962 890 0
669 717 460 -160 0
-449 -280 -398 282 0
588 477 -182 -763 -522 -966 0
277 -91 919 -434 -141 776 0
976 -286 958 -505 -895 0
845 389 -672 43 0
911 155 -701 406 -488 -540 0
-288 541 225 42 -588 0
357 -257 44 -718 -411 -623 0
874 -82 -328 26 0
-748 548 -561 -54 367 0
-726 319 174 616 -63 -80 0
181 307 992 -94 257 -107 0
774 -790 592 564 0
180 119 -226 286 0
874 -857 -847 -541 0
138 -557 337 586 284 0
288 -752 -325 -43 -107 -688 0
-868 -776 788 -628 0
-950 -220 -345 -153 945 -261 0
614 547 -921 -977 647 -10 0
469 360 -965 -448 912 0
895 -882 -384 55 37 0
185 176 -262 497 0
228 433 -527 -818 336 0
-529 13 -793 -589 0
35 368 -360 -270 419 0
379 845 837 -566 0
949 238 578 745 0
463 198 -865 71 -623 0
809 879 390 -527 695 -757 0
740 -591 -890 -334 899 0
-467 52 45 761 575 0
713 -982 -965 488 765 -1000 0
572 -611 645 860 621 0
617 -771 677 71 0
-963 993 343 -239 0
316 99 46 504 0
-532 -8 459 -434 495 540 0
-529 776 -987 -932 0
690 561 515 987 0
-415 613 -926 961 0
837 -968 762 988 0
-451 438 869 -248 0
-58 -29 -590 -212 168 587 0
-133 860 -968 -769 -438 0
-991 -976 185 -593 -259 -744 0
-477 -289 592 775 -983 0
415 -903 -808 543 368 -871 0
-199 783 635 -240 -14 0
944 586 -223 874 0
173 842 702 486 141 0
-150 -742 -183 -927 -454 0
-810 9 916 644 -513 379 0
-248 274 -410 580 -583 0
487 963 287 867 0
-39 654 -807 -1000 -33 0
863 531 836 960 0
426 -606 -819 636 -408 -699 0
-398 -313 -221 -899 0
578 -730 -979 -54 0
-115 -151 784 -679 0
397 -932 -509 840 95 555 0
7 -559 305 -181 0
447 -253 205 798 202 -792 0
-506 -38 797 441 -50 0
167 -597 -2 72 0
-42 745 -192 265 0
65 -364 -943 -392 -740 0
-876 -558 491 -216 781 0
-255 -606 -823 -698 -704 -252 0
910 -894 796 -79 -22 -20 0
-439 -928 -866 -95 -860 -902 0
287 369 -67 -313 -690 0
-412 168 493 918 0
413 114 -749 -767 -829 254 0
810 172 611 -473 350 0
317 926 -231 -205 0
780 -36 293 -177 0
651 554 864 86 0
353 -980 64 -613 -875 91 0
881 590 260 218 0
-19 485 -449 -423 354 274 0
358 -949 711 -727 730 -361 0
-451 454 -892 152 0
-714 652 942 -745 0
-571 -443 -621 -106 260 663 0
-754 839 -661 141 114 172 0
138 -288 702 -376 207 0
-405 118 529 259 -69 -163 0
639 336 -899 -434 0
-162 97 737 -36 0
-743 312 223 -353 0
-620 -770 -346 92 102 0
-725 -262 -46 748 -39 0
908 334 905 -462 650 5 0
448 279 -105 149 20 0
-851 772 792 -562 -504 0
-221 -847 -451 394 0
663 -917 -95 554 0
-440 90 755 544 -715 0
545 -503 -779 474 133 0
-378 592 -945 -854 619 0
288 -582 633 -366 0
-967 854 700 871 -853 0
170 921 -268 -623 -193 0
-687 565 -610 -911 417 0
628 -376 -331 150 0
972 187 873 -528 0
-107 -695 76 -912 102 -862 0
732 894 586 996 381 0
-195 -304 -268 -17 0
464 -618 -571 560 -748 -721 0
-684 321 -197 -505 27 53 0
516 382 595 -512 0
-831 535 634 135 -148 -898 0
152 -138 -760 -939 -194 -861 0
-887 443 553 -600 0
-774 149 286 720 0
-399 621 386 -45 -209 0
579 -84 -415 433 -753 -609 0
312 694 372 -984 0
-135 823 -153 595 769 0
173 69 953 -342 -461 0
-687 -672 612 -269 -310 0
701 -848 984 -165 0
-494 -203 -554 -351 -304 0
586 -247 792 208 578 0
250 -721 808 726 0
-499 -456 35 197 368 0
-5 133 194 -303 -620 0
-832 105 -785 349 -934 0
-835 183 -157 744 0
706 -929 848 -740 0
87 618 842 148 -884 -530 0
-504 -635 634 -879 229 -302 0
-298 -178 136 744 -39 1 0
-734 727 -244 -919 0
-968 -728 -373 -267 177 102 0
672 99 -223 172 0
90 453 -572 349 112 0
11 -981 -406 494 298 836 0
359 -461 -455 -438 91 0
-352 20 -175 -90 -226 0
-809 -915 -95 -798 0
816 -112 924 -20 554 257 0
-108 -681 -961 -432 -360 747 0
829 -276 -33 -622 4 333 0
-844 -611 113 -558 -990 0
777 493 120 -129 842 0
978 -335 -257 206 102 -549 0
694 464 -644 -257 -795 0
196 770 -772 -499 0
844 202 -299 -569 -798 40 0
-982 462 267 -87 20 305 0
-589 -560 -782 -164 0
-664 714 -144 532 0
423 791 -650 -289 -316 -95 0
388 590 563 589 0
-15 243 -587 -822 0
-500 -330 -864 890 699 -919 0
981 876 -968 455 -445 0
110 982 654 -776 -539 547 0
4 529 -81 254 -977 -199 0
-306 -948 -518 -78 -123 -77 0
372 760 -740 -992 268 140 0
570 -854 -89 -39 979 0
-31 680 -632 -534 222 0
131 24 -834 -966 -800 0
258 -208 763 458 0
9 837 -576 -80 0
994 379 -723 -150 0
-66 966 931 583 0
-138 855 734 -184 978 0
-499 -291 208 8 326 -60 0
57 633 181 699 0
-27 932 817 -874 -979 0
-954 958 -683 -169 -476 -600 0
-398 211 -81 187 204 0
486 -652 716 -600 -696 0
-448 818 15 -825 644 -674 0
699 166 566 -80 0
393 917 -766 741 0
-688 -359 626 -823 958 0
317 -835 316 588 270 0
-944 618 -19 -316 -552 0
890 339 -952 -227 709 0
508 -202 -472 263 -935 657 0
926 380 566 -106 0
-408 545 -209 935 0
-287 -248 834 -602 0
-552 -355 -694 -604 -1 0
-175 -8 9 -575 996 470 0
-925 205 651 -531 0
-558 453 -921 580 -486 0
-668 -910 135 -792 -129 -620 0
546 614 -354 -869 -368 208 0
-996 218 -859 -737 -305 0
458 -657 92 946 0
-925 906 -377 880 0
-771 407 -410 -788 -228 0
696 276 70 798 -109 -251 0
-97 -234 875 606 411 824 0
-681 715 482 57 -994 -43 0
37 -674 149 615 0
-259 115 -580 -388 0
-649 566 -126 269 -93 0
923 520 -81 -416 890 -828 0
5 -559 778 -502 0
-97 969 -154 -501 -228 0
585 -96 408 526 0
560 -767 475 -534 632 0
221 441 442 83 674 -498 0
-141 480 106 545 -17 0
-32 -488 -389 609 0
621 180 -771 501 -343 0
-64 938 945 49 0
-181 760 227 451 0
-356 -324 411 973 -834 0
639 -748 -407 -520 0
318 -803 -279 -498 -918 0
520 460 -708 -458 0
-990 -771 597 157 -360 0
-954 -676 884 -247 0
768 -721 -401 -247 -34 -112 0
-82 -901 971 -831 -508 0
-793 533 -178 571 585 0
673 285 -753 646 0
-494 -775 540 375 0
17 -331 292 -33 93 0
-918 -695 324 -649 0
-518 -516 -101 -591 0
100 24 -791 -608 -489 0
-135 24 -19 -684 -329 0
-886 689 -216 573 -209 43 0
836 -696 -266 -105 -881 0
232 857 -534 541 126 0
26 -82 -222 797 -643 792 0
-282 640 794 -661 242 0
-206 685 243 166 0
529 393 -238 203 -836 109 0
998 -879 986 224 -776 0
75 -987 179 627 327 -460 0
6 -208 216 -707 484 169 0
550 836 960 -664 0
131 -889 -96 -424 0
966 -787 -588 564 -630 0
-494 -492 -317 -106 0
-180 -552 863 -40 200 0
385 -517 -901 -886 -867 0
-278 965 -760 578 470 114 0
900 941 115 159 0
515 -148 -86 -846 -583 -523 0
640 7 -536 -991 0
-400 -440 137 317 115 0
791 627 -538 284 0
-1000 -961 -990 -674 0
-728 843 -524 -766 -95 0
138 799 487 376 -769 586 0
110 -715 -600 16 -842 -934 0
-654 -230 -568 -766 -579 0
-232 -638 -749 -240 150 0
-413 788 -494 -399 0
-403 -871 -659 -375 0
-381 506 356 937 -59 990 0
75 -314 120 618 -186 527 0
919 -990 -65 -107 432 0
105 782 -130 869 0
803 997 -668 712 -170 108 0
-772 765 2 266 -827 0
-239 599 -167 457 449 -820 0
839 938 -520 -300 -699 -554 0
537 -155 172 76 184 -502 0
778 129 812 270 917 0
514 -820 607 466 -481 74 0
-915 933 -974 825 574 0
-514 872 -788 792 651 0
-176 430 814 318 786 0
-366 -991 -700 -582 0
-825 -922 879 -605 -77 -399 0
-501 771 545 266 51 0
-717 152 481 -711 0
403 -261 996 -144 0
-740 698 -624 775 506 199 0
363 -629 208 -433 -870 239 0
-599 516 -118 729 570 0
-132 -115 -178 276 0
-958 821 638 559 -941 -538 0
-207 -474 -732 709 97 0
-25 -290 48 843 0
-439 -922 -916 -161 558 553 0
-561 793 845 -1000 475 0
413 -104 -293 927 0
946 153 -329 416 61 -900 0
-927 83 166 -41 0
945 -314 150 -544 -280 -946 0
-172 -395 449 813 168 -519 0
-51 74 98 -220 896 0
368 -421 -943 -824 497 848 0
924 -359 114 853 333 0
800 251 727 -307 0
-619 -882 259 -415 -574 0
705 -921 -904 -867 457 0
-238 -55 411 731 567 -314 0
498 905 189 -38 -334 -630 0
424 654 -666 -554 0
-944 -205 -207 -199 403 0
-706 936 1000 -320 0
164 -940 -487 379 -79 594 0
290 -644 899 318 619 0
-945 214 86 -747 0
-498 2 241 -397 0
-63 -102 968 139 0
-346 709 305 811 -772 0
-464 165 -615 -607 33 624 0
994 863 116 773 -939 499 0
736 -414 -535 309 -174 0
-647 707 164 -124 999 0
607 6 284 -905 218 0
475 -956 308 -314 -818 -468 0
252 792 -934 708 -99 0
-238 -401 855 45 147 101 0
-146 -910 61 582 406 0
-817 -87 854 -206 -819 -974 0
246 -844 -522 -471 -370 0
-851 334 -692 -794 900 -667 0
357 406 -141 50 -600 0
192 -667 -475 -167 0
-490 -985 -268 548 730 0
-554 573 626 -159 -982 0
-101 934 138 904 993 0
905 -600 -677 731 0
70 -620 949 -362 -38 911 0
983 -961 -901 -289 0
-661 989 647 890 0
704 -626 586 -225 0
-737 2 414 732 697 -143 0
510 328 -454 -930 0
883 266 334 -797 -884 0
911 -128 -40 -225 0
-327 641 -115 -988 -649 0
763 -753 -632 -915 87 0
912 315 -419 967 0
-513 -995 504 827 313 260 0
-444 -798 -914 -885 640 -255 0
-325 -61 -669 -907 0
-916 -757 -25 -677 0
-603 -907 795 -797 18 -514 0
-758 -843 548 55 -959 0
698 869 370 -248 946 -704 0
-262 470 -126 258 483 -329 0
484 -680 -99 250 -599 0
534 -871 -556 168 0
-69 -240 800 902 -509 728 0
930 -437 364 666 688 -963 0
-958 -183 -950 -268 937 0
-948 -976 391 1 -837 -688 0
-596 -897 -535 -836 -377 -134 0
-56 -256 917 792 -985 37 0
285 -467 910 287 0
611 -157 -922 467 380 656 0
-172 716 -416 -999 0
-883 -461 53 187 -718 0
368 -468 -655 -153 -139 -192 0
-346 940 829 135 -480 0
430 -939 -518 -343 0
-145 -550 -854 -261 652 893 0
667 -110 -650 790 -138 231 0
-191 460 716 122 689 0
762 -578 304 -439 -733 914 0
-132 23 261 88 523 0
-790 -25 -41 -271 0
-401 -951 950 -775 0
-91 -934 569 415 -620 0
-613 860 397 325 -466 264 0
-343 -502 -727 676 0
-858 527 -156 259 0
771 -570 -472 645 -567 0
877 669 499 510 0
-655 307 403 -729 883 210 0
38 -535 91 -241 381 333 0
39 640 -52 -664 723 0
-560 439 697 143 14 641 0
-258 -234 -800 -737 0
-938 -214 694 -279 0
271 820 859 -356 -498 0
895 440 474 638 0
-472 182 882 985 -316 -729 0
-21 -870 301 -497 668 0
127 630 928 -481 660 -753 0
277 947 -432 484 -627 -860 0
-350 -886 611 147 0
-589 551 985 -433 0
-510 -838 982 -649 0
-671 292 518 983 677 0
-300 -712 435 -141 0
172 -945 -789 -834 328 0
-457 -356 147 808 0
405 441 884 373 0
-965 256 700 152 0
27 944 553 -595 710 0
993 -390 -132 735 197 425 0
76 -558 521 121 717 -235 0
426 -142 845 172 -823 -690 0
987 417 458 824 -854 -890 0
585 296 121 27 -578 -801 0
-180 161 1 -98 -142 723 0
958 -107 236 -772 -604 0
-622 963 219 -272 -799 0
-240 640 476 -641 701 -963 0
-761 -624 590 199 -536 0
-167 821 748 -929 68 460 0
-989 916 590 -193 461 342 0
890 982 -115 680 0
742 -993 584 113 490 126 0
216 -677 843 486 0
-841 241 -49 536 439 559 0
-260 -749 -825 191 -878 -84 0
726 -392 428 -711 -248 -509 0
-142 -962 -148 47 0
-161 -322 -916 -317 677 0
-997 82 -441 -769 0
792 -79 -613 -666 0
202 491 364 -958 -739 0
791 -280 190 351 0
538 -706 597 239 -329 -527 0
-464 -465 -16 758 -557 0
-260 -987 471 -784 0
680 -607 -722 788 -934 506 0
545 -299 -966 -832 0
-162 659 -282 -547 0
135 544 30 -734 257 325 0
293 -575 -448 -625 0
-788 830 -437 -938 107 275 0
149 681 -55 -223 904 -175 0
443 215 172 -433 0
-178 668 -999 -262 161 0
-92 134 -495 -438 -295 0
-875 -1000 306 24 -345 225 0
-779 -56 901 -490 -735 951 0
37 481 441 -87 584 669 0
647 -851 377 211 141 402 0
987 -890 844 378 -579 0
-467 -20 -672 -146 899 890 0
483 77 477 -273 -154 0
-466 -606 25 -269 0
-817 -802 285 947 -153 -877 0
-131 987 584 213 -395 832 0
-836 648 -573 991 -235 972 0
-958 -866 778 -592 0
-768 -666 862 868 -742 0
-872 879 49 -76 82 0
-619 278 -791 -952 0
645 -376 -544 -434 0
119 922 -543 75 -911 -283 0
-786 -506 -148 19 -991 0
272 742 -959 -441 -641 91 0
-129 -500 389 764 -80 -132 0
-565 -285 571 967 204 439 0
-926 -257 -497 952 297 0
627 -193 270 960 418 154 0
-755 -746 718 -642 0
-370 113 -851 -436 188 933 0
-635 441 -972 698 0
-373 1 -168 341 -821 -532 0
582 614 423 60 -150 415 0
-258 884 -61 -484 0
61 715 388 -422 -27 0
365 546 -959 892 -194 -442 0
120 479 -183 875 188 0
506 -814 -328 850 566 562 0
444 59 717 -965 0
239 -571 -958 499 -626 -429 0
337 143 -228 913 -46 718 0
-450 -40 938 712 0
126 319 850 719 0
49 -43 524 171 -407 0
-341 -798 412 708 0
-716 396 369 689 0
-445 -605 -796 -123 0
714 268 -717 242 288 0
-277 889 858 492 588 0
-15 815 -613 -999 -469 0
631 373 -491 -101 0
-149 -331 498 -826 636 0
-827 393 -123 -853 295 0
-406 -799 254 -986 0
-863 417 -282 904 0
-834 -861 944 -258 -919 0
-571 -902 -830 -217 554 0
362 -352 -600 218 -790 0
-530 -786 879 -144 -419 189 0
161 609 705 275 -499 86 0
-843 779 581 264 -322 0
354 442 872 439 664 763 0
-538 -901 937 -777 0
-356 -243 -519 555 -977 -927 0
-199 -645 335 19 0
344 215 -799 864 825 528 0
149 235 -221 -110 0
258 667 -734 723 647 0
434 -491 902 -327 -65 0
604 285 -785 -19 -306 0
-447 -821 988 -858 337 0
-483 -772 -968 -301 0
-753 -612 -474 825 0
-939 190 -746 596 -62 -807 0
284 326 -344 536 920 0
-463 703 938 778 -438 0
887 -151 506 94 393 0
617 -24 -465 -291 0
23 -91 -469 860 -12 376 0
556 146 -118 -911 -787 -521 0
385 395 56 816 0
-466 -946 101 -160 856 0
216 -480 266 994 -514 0
493 15 -324 -404 150 0
-588 376 138 430 0
-16 377 -537 155 237 974 0
165 -13 -943 189 547 -805 0
206 -638 615 596 0
-819 -11 463 -408 143 0
-496 -861 535 -292 -593 0
-90 426 -898 35 786 56 0
-653 273 -963 -769 0
-11 -900 714 742 0
-941 768 -571 -774 -191 702 0
847 404 -138 848 0
-551 -388 -893 -664 -572 0
95 246 515 335 288 -807 0
490 525 210 -385 0
-731 -160 793 -65 929 183 0
622 -208 825 311 -780 -893 0
-574 760 71 467 223 0
303 -81 -384 238 0
350 294 949 -750 -829 0
-907 150 735 11 -387 -291 0
-346 -561 -266 -935 -3 0
15 725 -317 -356 498 761 0
-274 863 -558 744 0
986 -637 750 -455 340 -634 0
-322 -665 704 791 0
459 193 -236 662 0
137 23 440 434 -189 -832 0
-898 647 -810 -823 -547 0
-205 385 166 415 -829 0
-906 -811 -975 -241 -522 -8 0
-926 -722 -139 -132 -511 0
-32 -510 110 530 476 -79 0
567 -290 -459 674 -436 -529 0
391 357 -91 -450 338 738 0
-612 2 -531 21 0
-887 1 752 -663 299 -541 0
-794 -103 440 -814 -772 0
726 296 692 -899 -221 0
528 -30 -902 421 0
-122 -143 -515 -734 944 0
19 -535 -859 822 -697 943 0
578 -494 371 -63 -121 -65 0
-763 -518 -83 -76 -234 0
-101 759 315 -375 0
766 -57 79 440 972 -149 0
-53 -386 463 -266 -660 102 0
-374 -214 339 626 -11 -922 0
836 821 -116 703 0
147 618 -259 -517 -93 0
-550 -887 133 963 0
715 836 -902 887 -600 85 0
994 875 146 891 0
588 -181 -10 -473 -986 0
716 -532 921 960 -216 0
14 561 -538 -751 972 0
682 704 -731 82 -121 -189 0
280 996 -82 -854 -681 0
578 -453 840 -320 0
29 361 235 -886 757 0
-532 563 856 918 169 0
986 3 18 -226 866 -462 0
-13 544 150 -789 -817 0
425 250 585 706 0
-210 222 582 913 -723 -504 0
36 -622 606 -320 0
821 -123 -314 -279 903 -163 0
817 -667 -628 -975 0
837 -656 -21 824 296 0
241 364 -466 -482 330 368 0
-490 582 569 -248 171 -950 0
949 421 -105 970 -697 0
-301 238 752 128 -321 151 0
-709 521 921 -917 405 0
-957 263 443 -364 0
-669 47 -316 -863 0
-57 -267 -945 94 0
849 -430 78 995 8 0
773 300 674 -928 -966 0
795 -881 54 709 914 0
-712 -659 234 710 668 83 0
696 1 -748 321 0
967 -361 -152 -866 589 -35 0
641 -440 -710 -230 -179 -245 0
12 998 632 838 0
-507 252 37 955 196 0
-531 382 -325 471 862 0
783 555 452 225 0
-501 -400 479 195 -870 0
349 862 -327 -480 -945 0
176 -268 -929 -701 469 0
83 -456 -467 790 0
-56 139 -511 -790 -986 0
-325 -343 -222 -349 0
-836 -539 -185 -834 552 -395 0
34 148 -288 246 0
-967 -226 -886 -99 0
248 -631 430 -452 0
-39 -598 -295 843 -200 354 0
-618 459 860 -152 368 812 0
867 467 493 484 0
-712 222 766 444 52 0
-110 -753 -154 -388 32 271 0
990 362 444 -616 0
802 -372 -254 19 0
169 -897 661 -586 762 -761 0
568 -129 -682 -262 0
131 126 243 -307 -728 280 0
-523 -440 -43 274 228 0
-620 389 497 890 446 -441 0
62 858 -207 -803 242 0
-533 364 -759 -214 0
98 -133 1000 134 0
-234 692 412 477 9 -609 0
818 -10 -396 -34 -50 932 0
776 409 691 -733 0
103 652 172 -754 0
-519 94 654 -742 -571 0
223 70 -398 -653 660 25 0
-226 536 -634 185 926 0
134 350 953 -323 -596 444 0
-105 -768 -376 -544 -146 0
672 435 819 466 70 -101 0
405 -554 971 944 300 105 0
395 886 252 327 -567 0
996 150 934 911 518 -174 0
-116 -900 -980 138 -669 -313 0
940 -679 677 -6 0
-536 731 -257 -2 -742 0
-970 -785 -248 666 426 0
-828 405 -950 -419 0
-764 -708 123 854 646 70 0
-52 609 -375 -734 532 0
-413 948 -588 740 861 466 0
-79 -628 163 124 732 -862 0
885 480 59 -1 -366 -118 0
-384 353 77 -816 0
962 453 947 -300 -870 -876 0
-181 434 -894 988 514 0
-901 -449 211 -186 816 775 0
149 343 626 427 0
-106 463 -33 97 0
-820 -327 -190 -867 -231 0
769 155 -556 353 579 0
-864 225 -860 -389 0
-310 -856 -278 407 177 0
720 -546 -276 -584 -113 0
-203 -593 15 872 799 848 0
649 -909 720 -269 594 -845 0
-147 398 -963 -600 0
745 -993 425 441 -348 0
-992 539 764 602 250 0
605 868 176 -538 -928 0
404 -381 -92 805 -460 -539 0
758 -243 -983 -100 0
803 -339 -646 12 -39 0
-107 -720 -43 -894 -943 283 0
704 -106 806 547 0
317 -207 -526 651 50 0
-90 -592 -434 -585 820 0
479 -765 -582 428 138 0
-283 327 19 954 0
848 732 248 38 -91 868 0
-582 511 -674 -75 -262 0
633 -674 43 -305 0
-147 43 839 692 207 0
501 -392 471 -337 -727 -12 0
-232 352 608 800 -387 0
-214 -737 -700 508 204 0
-588 -336 21 973 0
-387 553 837 -539 987 -875 0
814 -415 -58 900 0
437 881 879 614 374 568 0
-696 -899 -509 721 0
95 116 -893 80 0
-763 782 -430 -36 -37 0
-550 322 745 -846 0
425 965 134 7 -785 -92 0
-730 813 404 851 0
113 -556 -532 934 0
973 -234 -520 -930 716 -627 0
-352 -852 439 -521 0
908 808 -883 -419 162 0
3 -796 77 603 564 598 0
285 -949 -126 210 837 573 0
-824 402 -384 250 -651 0
575 395 78 -106 0
-234 281 -678 -227 -752 -339 0
-911 -568 449 -14 -248 778 0
-454 228 -206 -691 966 0
-984 220 -436 -78 -862 0
-368 839 763 626 0
197 911 87 -180 50 0
-961 -327 938 880 186 814 0
488 529 908 -336 -774 0
740 41 -925 -219 -564 0
-820 83 817 336 0
427 146 587 -13 0
-685 640 -56 -429 588 0
477 -221 -664 162 0
843 -864 -144 -231 711 0
161 332 -596 78 -4 234 0
238 -727 -563 -400 -321 0
-825 155 -851 -548 -681 0
646 -265 -380 -14 175 758 0
338 535 -193 -399 875 0
28 -51 975 617 445 0
-648 256 -303 465 0
-463 -122 98 416 0
888 49 -330 -290 389 0
120 -797 -517 642 0
272 -719 -904 333 943 -937 0
-677 -18 -255 681 0
-99 910 -388 -877 -27 -696 0
-721 -992 248 538 0
888 81 715 690 -904 0
-207 -254 -90 -39 -332 0
-857 567 -91 -974 -66 0
133 976 -830 457 966 -693 0
-299 618 -579 461 -656 0
-442 -382 -769 -38 0
-885 -807 -575 -319 330 0
-537 -663 897 986 558 -827 0
522 -421 -260 979 557 -206 0
-220 -885 950 728 879 0
-84 936 -373 -193 566 280 0
392 -84 244 -772 564 -495 0
-251 -797 -933 -328 -709 841 0
767 393 -463 222 0
-772 754 -691 265 -985 0
673 288 453 978 -718 834 0
-863 -237 -917 -524 647 0
-945 -520 -973 176 854 0
-807 381 -964 -798 279 602 0
-564 254 -630 -384 0
469 -614 911 807 -133 0
918 157 -632 -767 666 0
-162 -253 389 -624 -407 0
-562 -748 -661 -660 0
-395 -651 -408 -588 462 156 0
872 100 474 -396 -793 -178 0
211 362 -827 -740 228 75 0
78 719 -145 69 0
-896 854 -25 -906 0
-366 139 880 -868 67 -567 0
-628 -577 -252 347 -514 -129 0
546 -27 -488 749 0
-819 596 19 -176 -856 -523 0
385 -163 206 753 -299 -546 0
50 -576 -886 -731 -77 -984 0
-817 716 251 735 54 -488 0
-438 -176 217 -230 0
-552 72 -274 -206 412 -456 0
997 698 -887 814 -745 0
-540 -142 -682 57 349 -872 0
575 495 880 -223 628 0
-996 764 -700 -334 0
623 -900 -692 -521 58 -4 0
442 -530 -236 401 354 -635 0
260 -514 840 -842 652 103 0
-482 544 854 -52 738 -848 0
502 446 -744 59 0
-154 797 -511 -10 844 -749 0
-750 -493 373 -503 811 0
-116 912 -470 -200 0
-780 -256 -843 321 -388 0
857 -373 -632 -168 909 0
-935 710 894 -278 0
312 -767 459 -357 -156 865 0
411 973 525 211 -989 894 0
-634 -375 -977 -622 7 0
-75 -650 492 -700 -533 0
-901 310 961 -972 801 -704 0
-295 -711 -576 525 0
77 -472 -498 -830 0
221 791 952 86 0
-781 836 -591 782 0
-48 -851 -103 600 0
716 -992 -422 737 -537 85 0
715 -616 378 -650 401 0
279 241 -350 286 -758 -737 0
-949 -416 -127 125 -991 0
-975 535 -144 -114 620 258 0
-874 440 -778 -263 0
-977 353 115 307 -72 374 0
240 223 -894 334 957 -562 0
-294 -218 -32 580 -938 112 0
121 535 -64 467 -790 0
-453 519 82 249 493 78 0
941 -85 -305 -762 995 -815 0
-221 -417 -77 -628 610 0
638 -245 -981 -940 0
418 481 132 813 0
144 -257 231 -3 189 0
-202 -672 -743 950 90 0
249 -754 -901 49 932 -226 0
245 -320 -159 -264 -32 778 0
253 566 721 -974 0
196 577 -970 868 674 0
-632 -291 636 38 0
-60 285 -236 927 0
174 -922 -285 58 -340 217 0
342 184 -121 611 -316 0
372 -915 -287 -857 -57 0
139 -664 -207 -34 -566 0
366 328 -888 -667 0
-97 678 576 -150 -934 0
-591 879 942 -214 0
867 210 -181 -108 -61 0
-763 702 764 -751 0
414 -300 362 -552 0
-734 109 -202 387 -111 18 0
347 789 -585 -366 0
-264 331 768 369 639 0
373 -13 830 996 0
691 229 -619 -788 -348 0
-687 815 -244 261 204 611 0
-190 959 -862 94 0
253 679 487 120 64 0
998 537 -399 -366 925 803 0
436 -315 619 -968 0
-125 -257 941 72 166 21 0
-751 -424 -233 -778 -152 0
244 465 -932 959 636 0
800 245 -71 959 -743 41 0
55 -377 -167 115 0
-501 -574 -611 984 146 -660 0
-516 -372 -343 -967 995 842 0
-282 -142 173 427 -968 0
-388 -176 -514 -829 -784 0
-51 793 -918 -202 90 591 0
-195 175 264 -458 432 -96 0
419 -571 -250 -476 200 0
280 -228 -63 732 -657 0
-801 874 990 927 0
-369 319 447 -490 -279 49 0
-767 -702 435 -123 -471 -733 0
-764 -77 100 -466 891 0
907 -698 987 566 714 0
-551 -443 490 -62 779 0
451 266 134 -369 348 193 0
488 -48 -986 308 431 0
38 -761 628 -648 141 950 0
-961 -880 -742 -602 -709 73 0
-841 -464 -607 508 717 694 0
-787 -108 -946 -863 -127 364 0
318 -803 482 287 0
706 -526 158 170 220 831 0
561 948 592 -195 0
63 -564 -184 657 381 -856 0
-810 924 -386 587 -661 0
-705 132 -430 -44 0
-803 -99 -533 -597 0
-376 892 -933 534 0
318 -141 388 -397 -710 0
500 -79 743 599 0
786 858 -540 -594 775 0
-417 -60 967 -130 854 0
-107 316 -691 28 -310 0
-217 -723 771 7 716 845 0
-261 105 -410 -204 0
237 15 814 184 453 701 0
215 -243 -779 582 457 893 0
555 -640 781 -448 -389 0
-999 27 820 872 525 0
-580 -741 111 842 765 0
768 -595 -874 334 -819 -434 0
892 722 -883 236 0
453 192 -460 156 -56 -755 0
-999 -137 -473 -862 460 -475 0
-4 -139 -29 426 0
159 -165 -359 -44 0
3 -579 -912 -118 521 721 0
-294 408 205 166 429 0
805 -573 -666 664 0
-783 -656 473 925 0
-538 -634 778 196 -332 0
774 -139 -278 525 0
694 -222 559 189 -778 0
-874 494 -770 -666 0
359 -34 -143 -857 -85 0
-223 534 582 -655 0
-75 800 -307 226 741 0
-771 328 -691 -447 0
980 -918 -522 883 451 0
646 274 -955 -440 0
375 -117 -632 -122 0
729 751 980 675 487 0
252 -245 548 -709 -151 -349 0
-30 565 -588 -576 -70 -898 0
-664 -462 -454 638 -641 -789 0
21 683 -609 645 0
-445 -918 521 69 833 0
-175 629 884 -580 305 228 0
97 -159 606 -420 298 0
-852 -350 -11 -512 -828 0
804 314 716 643 536 235 0
-49 -501 880 -795 -423 0
-43 -823 9 711 466 0
568 188 -951 398 0
-681 233 -646 721 -724 682 0
951 -375 -737 473 -86 0
287 993 813 -527 0
570 -997 -389 -53 -886 0
149 668 -824 -586 -191 0
975 -519 443 -84 -572 0
913 -58 881 710 -831 346 0
-607 974 -760 -381 825 -771 0
-154 453 415 888 -891 0
630 574 170 497 -336 0
1000 840 -519 -263 -141 0
-417 -211 -329 136 447 0
-79 312 -577 689 218 406 0
824 409 -899 637 -364 -635 0
-904 595 59 -498 0
-140 -186 -838 431 0
5 772 410 683 0
-523 893 537 156 -967 -362 0
59 604 -486 -551 0
-100 691 -595 561 0
408 -32 -94 -200 0
81 311 -136 271 0
497 619 -928 643 766 0
-533 375 156 -483 0
214 -806 -112 -944 -727 -974 0
-753 840 -40 946 457 513 0
-299 756 688 453 0
-176 596 -352 -590 411 0
339 -275 -47 281 0
498 -720 -62 -925 0
377 583 -928 -652 651 0
271 586 -605 343 0
-729 -881 233 -811 0
221 -844 855 -669 0
5 559 721 -803 0
-852 -115 236 429 0
-89 -945 276 404 0
-249 -645 -407 684 -115 382 0
317 522 -656 847 -551 767 0
865 -428 -242 814 0
133 -862 211 -474 544 0
-677 -273 134 -292 0
-42 383 -676 490 0
-437 796 -417 562 0
-698 220 687 -222 -119 0
-170 755 610 -265 958 0
-318 471 -716 -751 324 0
-633 -255 829 -326 860 0
349 515 -585 995 0
-702 -275 942 -673 0
436 -189 88 892 168 364 0
667 -625 -756 -766 -177 547 0
-296 65 -974 -975 -493 0
-142 470 213 208 -628 -738 0
-913 209 -121 195 -811 0
476 790 -367 -731 0
-240 -507 160 -102 0
643 658 677 -158 426 0
-926 811 -794 640 -774 0
168 119 -857 -2 -420 123 0
491 -336 561 503 -555 -325 0
428 -329 -590 -287 0
-156 497 -83 -256 840 161 0
-716 -538 658 -772 -277 -254 0
-285 344 -26 759 840 -36 0
641 464 417 853 538 -820 0
87 172 -210 556 0
-15 -799 -99 415 -285 54 0
209 -108 783 -997 343 -679 0
432 -620 138 -648 -71 280 0
177 801 -995 278 0
-113 -227 -745 893 517 0
665 570 552 -736 -498 0
-723 691 -994 -463 0
-411 829 -395 438 -665 380 0
-203 -772 -316 -484 65 0
-362 447 243 593 0
-402 -7 903 -127 -186 -54 0
923 434 -146 593 0
-207 135 -424 141 0
-627 936 -577 993 -288 223 0
33 -882 163 -19 -159 937 0
-720 -785 -267 -24 -551 4 0
628 941 -141 381 66 0
586 160 -826 -695 0
-918 950 -56 169 0
-184 577 177 -14 0
126 392 750 -703 -819 0
-239 533 -421 265 -89 0
-137 223 -581 -608 875 0
247 677 -605 -161 -297 -624 0
40 828 -990 279 240 -133 0
288 -299 213 -264 598 0
836 -99 897 -673 525 0
894 604 -443 801 0
-980 307 370 -63 0
491 324 -998 494 437 -450 0
-665 -169 392 -575 373 0
641 364 -553 -325 0
511 -542 -250 974 -890 -644 0
420 -312 -136 -160 -775 423 0
-568 -263 -448 253 -806 0
329 -32 -80 105 112 -872 0
64 599 -567 -869 241 -815 0
942 171 683 40 0
613 696 -514 -425 588 787 0
378 926 -761 459 834 0
-201 885 575 934 -673 0
-969 45 538 -273 980 182 0
246 -950 -640 65 0
-833 -618 -991 978 0
887 681 512 -274 -328 0
-1 -993 401 730 -851 -44 0
640 616 112 254 570 -544 0
-804 -893 245 221 0
739 -810 -392 823 0
-72 -169 -647 947 376 -433 0
249 -931 161 814 -15 0
444 -994 62 329 -217 899 0
650 527 247 -730 0
62 814 486 94 830 0
-608 472 -356 535 0
-543 652 -26 -502 -985 -262 0
800 -935 729 -533 104 0
-269 512 -971 -852 0
26 913 225 281 0
-234 -441 -608 593 850 663 0
59 -464 445 149 0
666 973 141 -59 -718 0
-727 695 87 -219 236 891 0
-888 -242 910 -632 -233 955 0
160 730 -511 -576 0
422 658 -147 -433 -683 937 0
-880 -54 -133 774 0
-843 -138 797 -872 -761 0
-112 -227 433 -51 790 170 0
777 -23 318 986 -783 -764 0
-171 -767 454 670 16 -893 0
-101 -91 -224 777 426 0
-637 134 -972 -460 -760 0
-460 973 -98 -941 -620 762 0
-459 -186 -797 -439 786 0
-519 -702 -648 -476 0
611 647 827 -212 10 0
-307 155 860 -463 -950 0
187 -210 -270 232 514 919 0
197 -588 -526 990 -194 651 0
46 -669 -310 -30 498 0
-66 476 973 -502 0
339 768 657 761 -899 -232 0
587 -830 671 575 717 -286 0
601 -864 126 725 -381 526 0
-32 -538 724 -483 0
880 497 -69 -762 -536 -311 0
-261 492 -578 -754 596 -46 0
-728 145 -467 -55 -944 0
381 744 24 -236 0
751 84 68 351 0
-446 -212 189 596 79 -269 0
325 -361 672 -331 -40 0
344 565 -162 -658 -261 -340 0
-69 -320 -515 34 0
-984 -853 -476 -750 0
854 256 -234 -305 -684 -374 0
907 940 445 -256 0
941 804 -810 805 817 0
844 -274 -769 429 0
326 -841 919 267 499 -312 0
-150 665 -429 -286 -965 0
56 -46 -777 -155 0
-592 586 -615 -40 0
-180 -666 393 -817 -56 0
540 -490 988 -596 -237 -529 0
489 615 -80 722 -811 0
438 254 402 263 0
-317 441 816 -902 666 0
967 346 975 517 -863 -161 0
-611 606 -917 815 -646 0
-562 -536 -362 -187 0
551 -712 814 -380 0
163 -713 -693 -176 -730 0
-861 -491 -713 243 -659 163 0
520 -940 -308 998 0
918 245 242 629 -508 0
-648 -224 250 45 -982 0
857 -697 241 391 -23 -390 0
-884 -555 -983 -60 0
-745 -788 34 -648 -889 -621 0
-220 -947 -399 974 22 0
-454 777 285 961 -644 788 0
-310 -810 -786 197 -275 133 0
463 545 -962 -604 0
402 117 331 -851 252 -665 0
-629 -952 -857 612 171 0
581 442 348 -880 -228 0
896 -381 955 -895 -599 0
751 -766 -77 145 988 0
-116 507 -195 719 -965 0
-164 -830 923 -779 364 585 0
541 625 -572 607 -655 0
748 772 -857 539 0
-205 -371 636 -841 0
564 -110 -683 -130 -569 0
-354 52 46 -409 -383 -601 0
16 783 -891 446 -345 0
-956 -819 19 -642 -207 -754 0
-803 -580 933 -998 -160 0
-362 -620 -340 -746 470 0
222 827 646 -206 0
-214 337 -793 -817 232 0
610 516 -689 -183 0
195 702 309 851 0
-446 -17 -67 442 954 429 0
49 521 27 -377 878 632 0
937 -491 388 -364 -964 0
-47 122 142 -609 748 721 0
-361 -546 802 375 0
754 424 158 39 335 0
681 26 719 -660 -500 -375 0
974 991 907 -3 -75 0
187 331 -635 737 192 700 0
979 484 501 142 373 0
303 -120 -288 -771 -968 866 0
216 -156 949 -999 -298 0
838 -502 945 53 0
-499 745 154 127 -81 0
-104 -357 -798 -525 -563 -303 0
14 47 -515 -620 0
-700 234 -611 191 337 0
687 -957 583 -471 0
-65 651 269 -99 212 0
-705 621 -426 -543 133 0
820 830 479 -512 0
-471 -662 -115 539 -23 234 0
-707 -646 -264 -476 423 0
324 -311 -662 -184 0
431 759 -316 -599 0
-55 275 -231 721 -776 -777 0
753 -617 630 -221 0
-730 901 -534 207 0
-489 -795 -109 -706 -362 0
625 -266 256 -538 598 722 0
175 269 116 188 246 0
585 140 129 -35 746 -397 0
865 -709 33 688 0
418 -531 -543 -715 -872 401 0
-143 -224 -123 32 -704 0
357 -683 -354 91 417 0
413 -729 -998 18 -625 0
948 -58 702 335 0
-690 90 414 341 -162 953 0
108 -158 803 -876 0
-124 -384 -241 1000 0
-74 -296 726 767 858 0
533 -697 24 705 405 173 0
-618 520 129 -213 908 0
-109 -317 -961 -183 -947 566 0
252 -152 560 -728 -532 -545 0
584 461 619 -368 -727 0
-488 306 779 940 -854 496 0
-606 590 600 383 0
240 -220 157 489 -349 -25 0
729 -129 126 -416 -306 74 0
-256 -811 357 -386 0
109 -612 549 411 -62 0
-953 -14 166 404 0
842 288 522 -350 958 0
2 -357 1000 673 427 0
-449 772 241 26 -878 945 0
-182 553 -674 962 0
687 927 -915 210 0
-784 -529 465 849 136 -5 0
-599 -731 352 588 0
360 -832 995 436 664 -409 0
483 505 -928 -893 336 -948 0
920 -889 -1 828 0
613 -95 314 -537 521 0
-548 61 -41 -962 228 0
982 -805 -228 -999 0
114 -183 233 41 0
661 -1 821 621 -242 0
-833 483 -395 254 -45 -916 0
232 448 -350 697 0
-8 955 699 436 776 966 0
-881 391 148 -190 0
701 -32 -403 -217 -770 0
911 424 -481 862 0
570 397 145 -592 0
-180 -444 674 -400 0
-410 -825 -164 943 -307 0
507 -899 -619 327 302 263 0
985 87 590 981 679 0
37 -330 -899 -800 797 0
-118 -489 -106 -428 153 -238 0
712 -214 -853 -711 960 279 0
638 -200 985 578 -5 0
521 -883 -781 -252 -196 -880 0
-387 -377 642 708 0
432 374 -423 -566 216 -807 0
595 -137 -962 393 0
-544 -306 947 599 801 -506 0
996 370 -984 -969 190 168 0
-804 331 -276 -803 -9 0
450 -540 -559 654 772 -411 0
-878 -808 582 -867 581 -5 0
-758 110 816 544 0
-798 135 320 -544 0
327 670 -174 -900 734 937 0
145 -846 281 221 869 931 0
-813 246 901 903 253 870 0
-423 655 601 12 -547 0
-846 45 -508 936 0
423 178 648 232 0
-757 -991 -143 413 243 0
410 -380 -321 275 0
974 -228 -976 -326 -876 0
228 968 208 -923 -163 -50 0
-493 -170 556 623 180 250 0
-15 487 313 735 -32 0
-637 477 -73 52 0
-851 699 84 -749 919 0
501 284 563 740 -55 116 0
-507 744 -899 553 0
364 -537 934 -981 0
652 68 -166 -956 -424 -184 0
-908 -798 -736 432 0
571 962 -999 -941 313 -654 0
-269 964 385 921 -636 726 0
156 -798 -874 357 -889 0
937 371 -941 -370 -186 0
118 710 -394 31 230 0
831 -336 -280 -370 0
-774 -214 691 -510 0
212 -110 368 743 0
761 -84 -725 950 912 0
-223 481 118 34 -816 -285 0
-531 -558 -466 160 -409 0
-631 67 -339 628 0
-466 -602 -808 -234 606 0
-567 204 -829 -51 511 541 0
-834 -406 205 610 165 0
466 -446 -961 989 593 0
867 607 47 161 0
-754 721 277 -491 63 348 0
855 -994 912 -767 0
916 -990 -859 -286 -129 0
6 -184 -708 -615 -507 0
881 -464 44 -863 -504 537 0
-528 556 -207 -921 0
-424 917 -534 -126 -955 -943 0
-516 -864 283 -128 -486 824 0
485 693 -771 754 0
-9 -35 194 582 -874 214 0
194 86 404 -240 0
-271 810 193 -423 -353 0
699 -173 828 63 0
-519 478 -116 -864 -766 -881 0
-69 -226 -127 -997 -148 0
-991 -768 -183 -161 -4 0
100 434 -83 -110 69 -342 0
488 535 253 454 0
-160 780 -306 -808 819 685 0
-37 372 -32 516 797 417 0
-964 -896 504 -601 -83 398 0
241 843 76 -690 0
34 -345 951 36 350 -403 0
-916 193 -290 -567 16 -915 0
946 750 921 -958 -670 0
-641 342 -585 -670 -129 0
-728 -885 -995 -672 0
-912 -240 23 150 -791 0
939 200 -884 402 454 -737 0
97 489 147 -149 -138 -117 0
815 -763 845 143 -774 0
-56 684 791 552 -517 0
-26 510 602 -536 0
-258 -520 -309 722 0
-133 388 934 850 -803 0
150 854 390 -120 769 227 0
854 -770 -598 -900 -991 -575 0
791 -734 811 -191 -705 -489 0
-934 442 -181 172 37 671 0
530 -393 -100 -864 0
747 -682 532 -848 847 315 0
838 -264 -458 887 0
41 -553 -936 -739 44 0
465 936 -926 -471 -779 829 0
-960 -848 91 -87 0
-897 -532 182 -206 0
-970 -771 930 -39 0
96 139 -403 -882 655 -387 0
-177 -56 -271 -542 0
-76 -754 -123 510 0
-735 748 591 958 0
-575 -772 -966 -536 0
-591 -991 -710 -790 0
-255 -694 -173 -374 -336 0
131 -314 -708 -173 -141 452 0
-655 133 84 -123 838 532 0
-68 -627 -363 776 0
103 -400 767 720 -33 0
952 806 869 992 892 0
-551 -783 83 -915 -929 0
16 -892 187 -550 0
-956 -279 60 -170 673 0
-275 -640 281 889 335 0
700 668 -984 -90 497 193 0
-376 -696 -781 298 15 0
800 785 795 615 762 0
-62 -448 -994 -423 214 0
-269 440 -535 263 875 -427 0
-351 -51 -820 -977 35 893 0
788 -310 965 849 -863 -746 0
-265 -454 -730 889 -792 -546 0
-230 -801 -241 736 0
433 474 -977 -181 -341 0
39 -481 -821 447 0
331 -809 699 -562 0
402 694 -614 -704 -138 0
-92 700 -666 42 71 -731 0
-444 87 -979 -357 283 0
-283 574 538 247 0
53 -498 8 166 482 0
-282 -901 191 -402 0
-776 514 -760 -600 0
-982 -547 932 -166 -410 0
679 625 -975 -292 859 0
-900 -271 -57 103 0
-692 474 688 -477 0
-330 -940 -649 936 0
609 58 238 -700 506 770 0
-856 343 -555 368 0
703 948 381 -480 479 -391 0
-603 38 -535 274 -174 0
-868 -842 -596 -634 0
-618 888 -333 -138 167 0
-268 945 991 558 0
-770 -114 -229 19 35 870 0
625 886 -70 275 563 0
495 169 81 -923 995 -237 0
822 -180 -760 -587 -681 -446 0
169 -687 -911 751 0
-838 -567 -138 -989 -548 243 0
686 433 -898 560 0
273 3 -885 26 610 -215 0
66 -633 -228 -266 277 941 0
427 -973 -749 996 391 0
776 60 -667 -404 -844 -608 0
-929 12 -599 -423 0
886 -795 -750 -346 595 386 0
-48 953 512 -611 0
403 828 -43 505 0
-246 -566 304 867 980 0
825 -568 -159 -127 0
897 -901 654 -180 -171 652 0
697 586 -626 724 -111 -637 0
963 626 -367 860 -684 -262 0
-64 -498 720 -286 140 0
-54 806 -562 802 -340 -298 0
334 743 -364 -35 0
-227 365 -229 111 0
428 133 745 514 -92 0
-356 -894 -337 -503 -517 0
-486 385 241 -745 434 0
-412 673 -191 860 123 -748 0
-511 -611 461 547 0
453 863 -309 -39 443 0
862 -131 522 -859 -243 446 0
56 172 -113 -919 -583 88 0
-768 -752 -158 -798 0
-772 458 -399 -10 -251 0
872 657 486 -101 0
502 517 -595 279 0
-556 772 -70 -149 0
-349 -965 607 218 216 0
708 528 267 355 755 0
811 -521 -529 -404 0
334 85 -17 469 564 672 0
-280 777 51 -963 -786 0
-562 -43 -787 2 11 0
457 -538 -715 -796 -108 545 0
963 310 382 243 -469 -950 0
211 -802 -654 -669 0
368 48 445 -944 0
860 -82 904 -480 -437 -952 0
969 466 151 -391 207 0
-54 28 900 -902 277 413 0
226 875 307 -833 -5 -678 0
349 967 -675 307 254 0
155 597 -475 -830 0
-357 -51 792 918 -116 0
-124 338 821 -500 -815 0
46 514 350 910 87 0
-448 483 286 204 0
447 -216 -453 937 576 497 0
788 -532 630 -27 0
202 714 -106 511 -135 0
-719 -855 827 974 -29 -756 0
73 404 156 924 0
-680 424 -758 716 897 -696 0
-420 -974 -766 -449 517 0
928 681 -125 -291 829 0
-36 400 52 454 0
-597 56 -476 525 370 0
630 392 -627 -662 0
-323 -922 -704 -872 136 -741 0
-14 -750 -624 -211 0
414 -817 -366 28 -112 0
-248 402 842 -768 341 411 0
-930 250 -330 -420 407 771 0
620 -679 564 85 0
344 -809 329 112 0
-244 -719 449 439 813 942 0
919 841 140 598 -999 -823 0
216 -831 -45 -684 -814 795 0
-743 -903 -922 -138 0
-695 -703 783 -940 264 0
-297 815 944 217 0
100 -29 446 -241 0
665 545 -778 -577 -589 968 0
602 934 -647 106 0
-343 260 60 858 -663 0
-163 36 -853 -246 340 0
207 -642 51 -17 160 581 0
177 35 -597 -73 -428 0
-377 -390 774 -421 -785 -957 0
937 -67 -986 704 -258 0
496 260 -553 -429 -25 0
-297 -921 -67 -531 485 0
-845 -280 824 -125 0
-276 634 -992 -275 607 0
-752 -665 -149 -792 -324 0
500 -935 -602 954 250 -223 0
436 829 -976 8 -499 0
304 576 318 -981 0
-970 469 -815 352 -983 -570 0
232 703 901 189 0
95 155 -393 -119 92 -221 0
117 397 -718 462 0
492 -61 671 545 129 0
222 -900 -66 -371 0
-144 -786 421 -293 633 -461 0
501 -2 -174 -982 110 0
258 993 633 523 -896 0
399 460 -26 765 -614 0
328 373 847 -618 -936 0
919 -743 664 -274 139 0
-977 354 -45 -500 -943 677 0
18 -301 -545 815 570 -27 0
-722 -317 782 -740 754 0
574 684 600 -850 282 0
829 -692 -711 570 -844 -447 0
460 -124 -605 -626 895 0
176 -231 99 -846 -901 0
716 -481 -374 -941 936 -114 0
790 803 -471 434 0
845 816 24 -103 800 0
-34 364 488 37 -939 0
-118 665 -400 787 -105 0
-182 629 -550 -394 379 366 0
-686 -190 401 314 0
-926 171 -572 -438 -34 0
126 -622 417 -935 509 0
136 835 170 971 338 697 0
767 -112 892 950 -897 -375 0
774 654 213 -355 0
373 -85 645 -17 -9 392 0
-863 267 -639 -631 -332 -907 0
762 127 -425 830 0
-486 -608 -790 -338 0
670 620 -75 -876 678 -510 0
-426 -823 438 -266 -926 910 0
-977 615 -957 649 0
-627 935 28 -730 92 -941 0
-110 -18 -602 -248 648 0
416 914 -748 -961 566 0
-41 -328 -978 112 0
625 -310 -999 -276 795 -491 0
114 -864 -671 -981 -277 504 0
249 512 267 211 122 -945 0
-537 533 -948 284 0
211 146 484 -317 765 880 0
700 -388 410 -974 -193 655 0
364 664 -522 416 0
873 -728 -152 -377 -647 -159 0
892 -703 717 -755 -401 0
-281 816 100 -304 274 0
513 -752 27 713 -785 312 0
703 813 437 709 0
129 -344 91 928 0
843 590 -228 920 -97 0
-481 607 743 -202 0
-848 403 -408 -913 -328 -918 0
166 -747 -617 998 4 232 0
-86 251 -641 -308 0
-191 -826 546 -337 0
-389 595 -680 -648 0
-826 -122 -499 -506 0
-756 -970 172 721 0
516 890 818 754 0
-306 -602 803 -155 -944 0
-566 225 259 430 -419 0
-964 745 716 -2 0
67 685 63 840 458 0
407 -12 364 671 -48 0
-151 153 -29 -789 0
-264 555 753 319 -760 0
-371 961 162 -737 623 -636 0
739 -85 125 -793 397 76 0
-508 -640 -4 -937 0
-261 89 363 -970 -491 278 0
-211 -387 -569 -392 0
217 274 -698 -836 -994 464 0
-562 -141 646 78 307 -985 0
180 631 -178 -451 69 0
-538 932 -582 -414 -590 0
-567 524 -821 557 672 0
99 525 -861 181 139 753 0
617 -209 630 -628 268 959 0
-226 315 -732 289 0
-686 301 -299 219 -810 -906 0
924 -646 40 716 137 0
-270 890 -75 948 0
117 651 -612 632 0
98 -373 1000 934 -924 446 0
550 804 -989 -13 0
37 715 370 -784 -426 0
399 -800 555 -453 479 0
277 -97 -545 -990 0
408 816 -342 -804 234 -868 0
-151 829 -499 -979 -476 -524 0
99 -558 -408 95 468 0
-577 -280 -355 742 948 -851 0
-111 -934 534 838 -716 -764 0
99 257 -986 -990 0
-744 -346 422 22 234 0
-583 487 161 -909 -176 0
-740 720 473 -467 0
-456 -886 612 937 0
780 674 -654 -544 295 0
-939 -97 -674 831 135 0
-739 711 -946 -792 843 0
-752 -930 -148 -754 -622 0
745 -355 529 32 -534 0
546 914 -457 -551 -991 116 0
840 -751 -529 183 196 0
776 70 906 -285 -112 -469 0
-706 291 681 -375 572 -302 0
974 -377 -23 -501 -926 0
421 -125 -383 -726 0
324 -850 -483 164 0
580 -633 321 -184 -116 0
342 651 -311 948 0
-688 -51 68 -384 0
-328 125 -334 463 792 -90 0
173 799 611 -18 -670 0
561 -238 521 -87 -864 965 0
-2 125 695 130 -411 0
-426 496 152 -909 0
-256 -706 789 763 676 0
-780 724 -434 153 0
443 435 -111 995 324 0
384 -40 -447 951 -654 0
762 -644 -79 -772 -397 299 0
-567 526 383 -307 -653 0
-445 270 327 -153 -246 0
424 -918 -834 358 0
312 372 -668 -24 738 455 0
282 761 -478 691 -735 -290 0
847 367 -424 318 -933 0
-815 543 -135 28 -145 -695 0
561 193 127 -910 552 517 0
646 -16 786 699 0
818 -55 -602 -822 0
215 -432 653 -501 931 -245 0
875 659 412 580 654 0
943 -688 -117 198 -401 -303 0
247 692 302 -64 877 0
-488 854 132 77 955 680 0
-464 -652 796 844 615 97 0
359 -706 949 -156 0
-681 532 362 86 -226 0
-704 -808 421 -872 215 0
30 -702 913 756 -725 0
-557 825 -117 -805 0
-443 -413 -706 449 -591 -450 0
-7 -199 728 781 0
-811 447 -671 951 0
662 295 -975 392 974 0
198 -330 -646 268 -384 0
-557 -3 565 -977 -258 894 0
54 -339 -555 366 -173 0
-45 -22 668 761 -129 0
-876 -468 620 389 865 365 0
65 402 881 113 -705 724 0
632 468 -677 -117 -798 -355 0
676 -507 -22 388 81 520 0
-775 490 -597 -572 756 0
-4 -255 154 948 143 525 0
-819 453 -823 -967 919 -834 0
2 718 394 -382 -400 0
287 -253 198 940 0
455 827 -931 -470 0
124 225 36 709 -300 0
964 -169 820 596 0
-182 -155 738 54 -421 0
-893 372 571 -126 136 -919 0
-469 846 -839 132 371 0
256 554 -61 715 706 -956 0
753 770 792 -952 -132 -307 0
534 546 -336 937 -507 0
841 -781 330 431 0
-997 -90 534 -868 106 -501 0
410 383 -898 816 -144 248 0
376 -567 673 -110 -480 -971 0
-497 391 -27 -695 295 0
-39 798 740 255 -836 0
-771 -492 297 525 -822 -335 0
246 728 -1 225 0
319 355 -909 -617 0
859 -564 631 132 -1000 0
491 -508 678 -375 0
738 -761 -961 -92 556 -86 0
-186 9 -948 574 -175 0
-824 336 -623 574 -223 882 0
307 221 715 30 671 -830 0
831 695 4 -965 0
275 -33 829 610 -81 795 0
-920 -569 849 -347 0
1 -623 -613 158 827 774 0
173 -144 616 -212 0
-341 312 -828 -808 0
-365 302 445 -637 0
102 751 -117 322 -814 -720 0
-53 -764 -718 -719 0
291 -790 -702 -247 -962 0
932 928 -137 707 350 -182 0
-235 88 178 726 0
-280 -838 415 -772 95 0
805 316 269 58 809 -154 0
139 -685 -88 576 -963 -557 0
569 -222 184 -676 0
-764 -571 909 618 225 0
-193 -292 -776 22 0
397 233 28 427 -694 0
-99 -211 -209 697 5 0
11 218 258 100 278 0
436 -459 693 419 0
-342 -955 -155 1000 465 623 0
-585 -156 945 367 -495 482 0
77 -584 -880 533 757 0
-941 381 -949 -824 -342 0
-841 307 45 -660 -824 0
-944 499 678 295 -762 -348 0
-470 143 -678 416 543 -986 0
589 -711 -629 -708 0
-9 -842 -224 -318 -99 0
-538 339 536 898 -148 -48 0
-462 177 -629 644 0
809 182 -272 522 554 0
397 889 46 205 657 810 0
218 382 -745 256 798 873 0
924 -768 197 -693 0
797 702 216 -298 0
818 267 -763 -215 0
-895 741 48 -592 -461 -229 0
-675 -733 28 719 0
-803 297 267 -845 -198 0
-511 -765 -865 -941 -214 400 0
553 -774 -927 714 0
831 -862 -838 737 0
422 839 -234 724 0
-64 -939 -381 418 23 0
625 -111 -651 634 819 0
-4 600 -651 -174 0
175 -221 -274 -204 0
491 831 -754 161 -771 508 0
543 -908 -821 662 0
85 117 12 -872 -35 0
948 -475 -843 -232 236 423 0
-229 337 540 -600 168 688 0
-412 718 400 -311 -18 972 0
-777 -249 193 412 0
-431 -471 335 290 0
-952 -768 -475 -842 107 -947 0
97 -189 84 215 741 -220 0
419 -227 336 905 64 0
-830 436 -969 474 302 0
878 -428 180 -679 651 0
-872 606 999 257 -384 -772 0
347 731 -31 -603 -362 0
826 -221 -668 -879 -139 0
634 -970 764 48 -429 606 0
45 -819 946 -441 -1000 -699 0
-703 707 418 64 -122 0
887 -907 -21 948 330 0
758 -814 -990 -516 0
264 -53 -350 248 -692 0
725 351 213 834 73 0
-138 -616 405 -859 0
-583 -141 -159 -244 1000 464 0
-824 805 419 -236 -734 0
-583 -29 -178 -415 -279 0
-850 -529 -769 689 0
-261 723 546 282 42 0
858 571 -358 634 57 0
369 254 -685 -267 859 694 0
776 784 30 388 0
383 -476 -1000 322 0
-828 480 -64 157 -673 395 0
653 -116 -352 -282 0
-136 802 -218 847 -559 -449 0
-788 831 440 -765 0
-472 -435 829 38 0
853 -641 932 729 0
-8 -862 607 -494 411 287 0
981 -681 -543 611 0
692 264 -310 -732 -286 0
800 463 272 725 -966 -803 0
-33 931 929 862 885 -487 0
45 764 216 425 761 156 0
-813 622 301 107 0
601 -144 638 -675 139 0
65 -669 550 570 -121 0
453 953 -881 -351 -532 0
863 8 512 -143 930 -741 0
-203 59 -227 308 0
133 950 794 -516 359 876 0
687 -22 365 42 0
973 -106 -719 914 -711 0
-615 777 -746 -741 -706 -827 0
-576 115 -324 -532 -992 0
-725 164 345 788 0
-593 -363 973 -303 258 0
-429 -313 66 566 -219 864 0
-30 -640 -584 -60 0
410 -337 113 890 -532 -764 0
-386 -618 547 -214 -541 0
68 -215 -756 443 740 0
-568 617 -118 -152 -246 -888 0
563 -546 621 955 0
-173 806 15 989 -415 0
196 -130 -871 -350 -62 0
859 -267 192 306 754 0
468 214 -665 -228 100 574 0
-105 699 -702 -145 -764 -798 0
956 -917 -566 568 401 0
348 777 -812 -364 -974 197 0
987 -209 418 442 269 -297 0
325 88 -697 -326 783 -66 0
-187 -310 899 -135 0
-132 -128 -693 -921 911 0
-332 834 -416 -259 821 150 0
-383 294 -147 -271 0
231 318 -764 88 0
542 156 -96 -517 514 0
-992 473 -399 -379 0
-290 -692 62 -997 768 -6 0
804 -155 778 569 678 474 0
-968 800 791 275 67 0
43 459 330 -648 0
657 401 891 -454 0
-388 -320 -579 569 -372 0
-407 346 -359 690 -264 -790 0
-848 821 -343 437 0
-455 42 557 985 55 -229 0
-975 -654 541 132 -679 0
768 -25 828 764 -627 933 0
-9 911 -674 659 -962 0
474 462 -301 -343 992 0
952 60 -850 575 617 0
