c Easy-SAT formula for GPU Gaussian elimination testing
c 1000 variables, 2000 clauses
c Designed to be easy to satisfy (fast SAT) but large (slow GE)
p cnf 1000 2000
1 0
2 0
3 0
4 0
5 0
6 0
7 0
8 0
9 0
10 0
-550 959 -797 -515 0
-979 -503 -141 579 414 127 0
-807 353 654 -362 229 0
89 705 -354 135 -674 0
-967 -802 134 902 -237 54 0
230 -878 215 -253 551 -719 0
462 460 451 -299 0
895 -473 754 129 -447 -4 0
450 26 557 272 222 0
777 147 -354 187 -23 -983 0
570 -817 -948 -424 611 -92 0
326 32 92 315 -332 186 0
-631 474 -788 -544 -345 5 0
482 -578 76 -172 5 -119 0
666 997 -263 -943 -31 0
274 794 -46 79 0
626 -967 64 -469 -551 -756 0
-252 504 -720 21 309 646 0
340 424 -98 852 0
535 881 -895 497 0
-996 -29 -716 960 594 0
198 -365 -536 -651 491 0
-93 901 -371 -141 0
-592 897 356 -229 -534 -174 0
674 636 401 632 -332 0
-953 299 109 -44 0
-248 977 317 902 746 802 0
-897 -263 67 545 657 -35 0
221 271 482 -292 0
936 450 394 -489 0
54 -993 356 -390 0
-764 -525 -824 492 0
-960 -313 344 -355 0
-588 691 -374 -67 -140 0
762 -222 -405 818 -745 0
-1000 744 -320 -60 -116 0
-475 760 -897 743 787 76 0
-403 472 -678 257 0
-357 833 105 -818 -234 617 0
663 -245 -690 -165 634 -360 0
-347 -290 951 567 0
219 -290 -796 577 943 0
-453 632 -784 -159 -449 0
-262 -491 165 37 -257 -442 0
-605 -852 -888 -211 -721 -768 0
-216 33 -746 -297 37 0
-674 134 -276 656 -478 445 0
628 -58 711 571 993 -916 0
331 -268 -919 191 -771 -157 0
-5 558 -899 33 0
207 -664 -547 -932 0
161 856 -270 487 329 0
161 852 -898 -328 -819 0
-337 -534 301 24 -773 -526 0
-748 932 -132 -107 51 0
849 -965 -73 -838 -455 0
507 -914 -36 969 0
-997 -152 -853 -874 0
-497 -314 -321 218 480 421 0
-281 239 932 569 0
-233 199 428 859 0
225 -390 825 -836 927 0
-663 -519 454 -675 0
-804 -159 -224 692 -90 0
826 715 987 -899 349 110 0
603 481 -275 -799 0
86 568 77 -411 759 20 0
509 467 559 671 606 0
348 -872 841 58 -577 680 0
-980 240 -287 -477 369 0
-307 -411 -873 224 -523 0
33 -468 824 -68 -743 0
-692 -998 14 86 -250 -478 0
-306 281 -346 -749 335 0
638 325 218 556 0
381 559 504 180 -872 0
-956 693 203 145 219 0
-686 -575 -111 -490 458 -504 0
-455 789 -853 -873 894 -11 0
-648 -307 -579 -974 -817 -430 0
-61 -474 -198 675 768 318 0
515 -791 873 -325 680 0
139 691 -534 109 418 0
706 123 -370 -99 311 -865 0
-156 -347 473 545 -761 784 0
418 -982 -483 -552 0
763 -665 420 287 0
186 520 32 811 -137 130 0
-499 -171 347 -89 -326 0
872 922 930 -189 541 -497 0
306 -794 -36 857 0
952 425 -818 -789 0
7 27 433 -640 0
844 439 826 -945 0
-378 -768 219 -757 187 0
855 -188 -822 -194 0
526 354 -339 -369 -235 23 0
-527 275 324 -525 -154 0
549 -931 962 33 0
37 -879 406 -655 -431 0
444 -857 705 -832 0
-866 519 994 -471 810 0
565 -206 -364 -637 -253 0
43 -130 732 -864 -878 0
-154 -153 -85 -933 -255 -837 0
500 -852 -173 464 0
175 908 825 707 -467 0
373 -470 195 86 0
-88 305 795 725 0
-665 430 -903 -290 0
-270 778 858 57 0
557 -612 529 -74 0
77 -709 -597 -110 -905 0
570 -505 209 -66 729 959 0
790 -971 706 19 -90 -216 0
-910 761 -736 -599 -980 0
906 -950 -271 569 0
-879 532 -780 747 0
937 -759 -232 -923 0
422 -319 -402 209 11 -215 0
-475 29 746 146 895 -9 0
290 68 -838 871 0
292 -749 230 370 679 0
159 75 -309 598 0
111 631 -968 485 0
-963 907 -688 -80 641 -943 0
336 -285 -673 -415 424 -657 0
-23 262 -237 -30 225 0
-775 500 -874 183 335 0
-744 669 467 -859 0
-798 238 -600 -428 -836 0
499 889 -745 -318 117 -18 0
-392 -40 868 -509 -51 0
226 -387 -278 -984 0
242 220 274 145 0
320 763 -651 -81 0
-480 -755 350 -597 -327 138 0
-955 401 997 -93 313 257 0
-52 -495 -657 -257 188 -927 0
-906 43 -759 -270 839 0
604 -81 -59 15 -424 -449 0
138 -12 -196 -13 -570 0
-419 -748 374 -780 0
47 873 878 703 -12 -622 0
-898 -215 872 -774 -263 0
514 -435 -785 -851 528 -288 0
441 63 316 966 -618 0
-893 -595 782 3 221 0
-676 -367 825 -787 -136 91 0
355 272 263 577 -920 -193 0
-885 287 250 535 -734 -951 0
707 380 904 -745 0
465 -279 -684 80 0
-327 171 778 -358 0
-977 -560 357 726 0
8 -229 -407 -568 -356 0
813 -439 -960 673 870 0
964 667 176 520 0
-786 -505 374 950 -965 -207 0
-917 271 -283 932 0
-517 -404 -73 -959 142 399 0
-85 -703 908 -418 394 -836 0
-565 706 -644 -575 916 0
234 286 253 672 0
199 664 908 -607 -855 385 0
657 -547 -755 -718 863 334 0
-565 -275 549 -185 -533 -196 0
-218 416 521 353 0
244 798 -101 479 867 -4 0
-618 -382 -101 628 0
636 -914 -16 -719 0
-651 3 429 127 -961 0
286 296 -517 277 0
-413 -502 -546 -768 0
-465 689 -443 235 -902 311 0
503 727 878 -879 185 0
-204 -299 242 318 0
-727 -524 -161 979 315 337 0
-258 -151 -206 696 505 -481 0
573 -973 361 560 -444 167 0
-49 956 434 510 -90 0
669 725 -976 398 0
-533 -888 -983 510 -827 0
85 773 -284 546 -910 0
448 -332 901 -923 -728 -918 0
-374 -106 -284 873 675 0
-739 373 158 698 -577 0
-389 -528 315 -637 0
-305 893 -367 950 520 0
763 684 -882 -972 0
-630 -629 225 231 0
-841 896 369 991 0
902 404 899 -507 0
216 -978 290 518 0
523 -280 118 316 761 0
-831 -626 950 -965 138 151 0
-517 8 981 164 -76 0
414 816 158 357 601 -1 0
537 908 963 788 805 -275 0
992 55 614 -451 612 -589 0
-671 -899 -483 191 280 0
276 -217 -906 501 499 0
-240 -950 -860 721 -85 -823 0
-20 137 -136 270 -978 840 0
884 -783 393 -822 0
-384 447 -686 912 990 0
-569 -300 604 83 0
801 -344 609 380 -490 989 0
-34 741 187 930 0
-770 965 57 -384 0
-402 590 -547 465 0
-513 356 711 -589 -598 -203 0
575 616 -751 -583 782 0
-627 -899 -943 -642 0
53 -845 831 -182 -864 0
930 363 502 703 0
804 949 -820 -500 0
355 661 322 -500 -728 458 0
-492 828 353 281 0
-118 633 -949 335 544 0
227 163 920 -809 -98 0
955 348 717 -92 -979 -749 0
-182 -19 276 816 508 0
-643 989 -441 205 70 0
-651 -69 213 246 -122 0
766 418 591 -796 -895 0
955 -651 -840 -443 0
138 -820 748 967 -247 685 0
-122 -27 -25 457 -971 0
-769 -395 -393 94 574 0
615 887 -277 -121 0
242 -568 -921 -640 -98 -856 0
551 -249 175 -370 892 0
-62 472 944 463 0
658 -113 904 954 262 808 0
-137 -930 489 16 -581 0
193 379 -616 -969 134 -429 0
-422 -269 513 477 -787 608 0
-145 -618 521 -296 -679 -861 0
-476 -212 -346 -889 226 736 0
76 -326 953 -797 -172 0
737 788 755 -841 -969 303 0
586 -754 993 423 -8 394 0
-352 -936 605 -440 0
-408 271 585 -534 0
-290 85 -153 799 0
-828 -979 388 414 412 0
330 -313 446 -625 343 0
848 411 74 520 -697 0
575 -193 -907 -873 0
-190 540 -713 458 598 224 0
-359 114 428 -220 49 581 0
-867 -933 -700 -434 -270 0
161 4 -307 -128 -736 0
-773 -798 -30 -25 947 -11 0
239 765 449 -189 0
912 128 825 109 -663 -414 0
-407 -242 -259 -262 250 973 0
125 882 -1 850 0
864 128 708 -514 0
899 836 -855 -973 91 0
288 547 -369 629 -137 289 0
701 -356 -12 -551 -368 0
-852 -933 726 -21 649 0
-549 140 -134 300 0
561 133 688 467 249 0
-156 564 -768 702 866 0
708 -199 624 310 0
-767 -411 -660 796 381 -571 0
851 243 779 -129 -424 -101 0
-659 558 179 -500 -843 0
450 -600 -709 958 0
-762 931 -797 -510 888 0
-183 -186 -529 59 -509 0
-893 -697 -362 239 673 0
-198 -626 -132 782 -875 0
989 364 160 -471 574 -164 0
575 -265 549 -92 0
-33 -943 -2 -246 -439 0
-896 -910 817 30 954 -544 0
194 -472 65 20 656 0
-563 -146 -975 651 -630 549 0
472 594 -377 -749 -659 736 0
116 -163 -196 -542 -403 250 0
550 689 -326 252 -784 142 0
774 -830 -623 63 0
-997 -678 -447 214 163 776 0
-228 415 -868 240 0
-954 -778 818 906 -459 253 0
-666 -104 -809 -191 436 0
-429 -851 70 172 36 -557 0
353 584 -246 77 -237 -168 0
-228 -90 -509 -98 -497 0
-626 -448 850 948 789 486 0
419 -988 -912 -435 0
355 818 -914 317 -580 0
-589 -441 661 202 0
702 139 841 706 0
-211 949 172 -795 0
-766 -517 342 801 -984 0
-381 544 -955 477 -976 0
-43 199 -384 938 795 0
955 526 -133 661 303 590 0
-736 468 -520 229 0
712 692 -102 91 -999 846 0
-67 -702 -499 -477 -778 0
256 726 -632 -668 967 -786 0
549 -997 -174 250 0
-888 862 -672 614 0
-573 258 387 610 0
-91 -431 -188 -520 -126 0
-239 191 -627 -126 0
433 -566 902 -345 38 294 0
996 -395 197 -76 -84 -110 0
-46 -950 -32 530 -988 -962 0
455 559 267 -863 293 0
529 608 -560 -684 916 0
-24 -74 -39 -227 -252 0
-615 588 170 846 -669 701 0
393 -335 -399 -616 587 0
-583 268 556 -464 984 0
563 -82 -446 -894 0
138 -809 -60 234 986 -304 0
932 671 923 -872 702 0
-584 -879 975 983 700 0
815 -834 -420 -241 0
996 -955 960 347 762 -288 0
-433 -210 397 -577 5 0
593 -108 -231 424 -554 177 0
-504 -41 652 927 -290 245 0
-514 167 -505 492 951 -616 0
969 -65 -803 331 605 0
-622 -907 -336 -855 -299 0
956 633 731 74 890 0
264 -728 -334 -772 0
764 -304 -938 -598 726 -681 0
372 590 408 927 -47 0
-235 955 -442 92 0
155 -454 -731 -948 0
-933 -811 -44 -50 0
-2 916 -234 254 790 22 0
608 -376 -895 -944 331 0
387 524 851 -551 -249 -943 0
552 -218 -202 56 0
639 443 -223 841 907 -981 0
610 703 608 375 449 809 0
-167 -885 937 -525 0
-490 -367 203 -493 153 -289 0
-990 486 259 -73 0
408 -340 46 -595 822 0
169 -478 -46 -954 31 0
893 -862 -718 313 -949 -975 0
-686 -223 30 -908 971 0
-810 525 651 147 -852 -727 0
-810 -660 -29 -673 0
588 875 -195 -486 0
539 508 975 -878 936 -812 0
277 -328 -461 779 -275 378 0
950 115 -590 299 735 0
509 357 -123 709 0
-74 178 -958 -615 -480 -524 0
-125 66 -281 -711 -149 0
338 329 343 -366 -679 0
374 464 -351 -334 849 589 0
-905 228 -53 -906 -474 -752 0
329 -326 -440 -344 -29 303 0
-372 852 -967 263 103 64 0
974 -709 -415 923 259 0
166 440 -727 545 -875 0
-632 653 -618 -595 703 0
-216 -516 165 827 -321 -622 0
182 -221 738 -260 -591 500 0
-297 -629 519 337 -102 0
-601 923 -661 583 0
989 -33 143 154 -66 -122 0
-64 -133 532 510 -362 760 0
-343 -717 802 265 0
162 630 911 508 0
566 961 409 -467 0
-911 -531 77 985 -749 277 0
-760 620 -936 424 -661 0
-739 -354 -717 618 -441 0
-244 -30 311 114 484 0
712 566 221 313 537 0
198 468 939 -123 0
-750 -820 -720 -525 346 -564 0
-937 617 218 -82 -607 0
800 365 834 -620 -486 96 0
901 -93 658 498 0
952 312 989 -306 0
-315 260 24 775 0
-205 -506 -200 39 0
58 860 -952 299 -807 0
271 506 944 -150 722 0
537 -871 -721 -770 -917 0
-234 -291 -736 456 908 0
554 723 444 -366 904 -862 0
-709 -421 997 811 -456 0
414 827 883 176 -254 0
-365 -236 -418 174 93 -370 0
921 309 580 472 0
913 -700 -489 99 -899 0
680 547 811 440 731 594 0
900 -896 405 751 318 0
772 497 -869 -968 0
-953 955 856 809 0
769 -264 -663 673 171 698 0
-715 709 -701 -129 -290 0
326 52 -898 -422 0
52 729 -589 -655 0
872 -394 -850 -597 609 0
707 104 -281 766 -705 0
-942 226 561 546 -171 0
-995 -301 74 114 0
-522 -848 -420 196 -946 0
-836 -1 186 -458 -183 879 0
968 -716 -940 508 -528 -164 0
688 -726 -793 -994 0
-593 -519 -592 51 145 0
-313 -899 -957 152 0
282 730 672 647 0
-969 542 330 657 739 0
517 -174 -726 998 843 0
-289 381 -871 -37 0
-898 -424 -991 846 774 0
-853 681 -552 -484 0
936 -283 -68 248 0
505 803 -763 -868 266 0
373 -620 -883 423 0
881 506 883 899 -75 0
75 647 302 -340 0
-99 189 -196 21 794 -998 0
28 68 -951 63 0
-834 150 69 -685 96 -108 0
-944 -699 870 -432 -494 0
-91 757 851 823 -320 83 0
-40 -98 -425 543 348 0
825 -547 680 -468 279 0
623 629 608 -205 -492 0
-788 772 -611 868 103 989 0
-481 -876 445 628 931 0
-632 341 169 808 300 -669 0
-908 -264 -944 604 440 -606 0
876 -185 430 618 -64 -784 0
-256 -674 -663 -388 0
636 -688 -729 -958 0
767 161 -798 -486 0
-362 778 -863 939 -395 780 0
-417 289 966 559 -990 8 0
-892 -454 839 240 -204 536 0
-888 175 -98 451 0
30 411 -950 607 -318 -589 0
813 461 -262 2 7 0
396 -81 737 -509 -827 0
759 491 632 335 0
588 227 263 926 -46 0
453 113 -370 -765 -213 -119 0
-582 -348 977 752 -967 198 0
106 -491 -931 -814 0
-984 2 958 -292 684 -671 0
139 952 -206 491 0
199 -731 -853 389 739 0
834 99 -542 -436 621 366 0
689 -731 -18 30 422 0
-635 -362 -905 -885 -876 259 0
638 -288 806 -757 0
-590 -484 632 -444 0
-270 -560 -267 868 547 724 0
-733 -291 -480 -748 586 -844 0
361 704 -375 434 0
-926 933 -550 438 844 -144 0
548 -961 -297 -269 258 -209 0
-851 559 830 -34 -680 -894 0
300 926 -449 219 0
863 -818 -773 27 95 0
-620 -135 -164 -899 -622 820 0
340 193 -672 20 368 54 0
-468 -336 -563 -732 -372 988 0
-878 901 -535 -677 277 16 0
561 678 -872 350 0
677 -638 -710 4 -78 -844 0
402 898 397 -292 710 -556 0
-982 -419 -350 435 -687 -230 0
170 729 372 -119 449 0
-511 -591 -388 252 0
-507 -902 550 635 -520 659 0
-199 -586 -677 127 503 818 0
-452 -129 -907 -458 0
-511 614 -360 608 0
436 970 157 214 362 0
124 -55 741 902 0
692 137 378 62 513 0
-836 65 563 -727 0
-259 681 198 175 -225 0
523 -385 -362 -664 -422 0
997 949 -510 -16 0
285 675 726 -877 0
-841 106 -356 137 -969 0
-629 -701 820 457 19 -575 0
204 655 154 384 0
715 330 -434 -390 -791 -291 0
462 -45 783 619 0
-138 250 790 538 -983 0
-370 479 586 -213 600 0
402 437 37 132 -737 0
-327 -646 -973 855 -4 402 0
-831 -223 400 -140 -845 0
933 274 901 -868 0
513 611 346 953 -955 0
-715 -287 -12 -373 -364 891 0
-973 -855 -19 544 0
-93 -597 -325 125 732 808 0
764 -492 255 -857 -11 116 0
258 369 516 -176 -533 -815 0
257 -548 685 432 622 -644 0
-104 -560 -865 -326 0
-589 -948 697 224 -943 0
497 635 -961 666 0
-243 403 -627 720 -678 0
-912 -621 146 -220 669 -223 0
475 784 186 956 424 0
-865 -162 -779 -259 -169 439 0
-514 -127 -528 870 -714 355 0
-121 -854 -298 -601 0
2 -970 -807 939 -782 0
312 243 383 -882 -677 0
62 -44 -84 -583 0
313 -552 -229 938 -90 317 0
474 -410 -258 -829 -798 497 0
-823 -796 -71 -976 -308 343 0
760 297 389 609 0
833 919 -100 923 0
342 -141 682 -580 410 0
486 -275 356 -677 -202 0
-374 -798 -370 -787 510 -482 0
980 530 -138 917 0
-498 721 -285 -932 0
-720 377 -18 13 -814 0
-490 636 83 -202 0
-558 207 624 -70 102 0
507 789 -20 -964 773 -948 0
-548 373 -38 967 274 879 0
-148 -897 -705 18 0
-133 -582 810 -85 101 0
-918 835 339 870 19 -833 0
-499 -340 -731 317 -102 0
866 376 -17 -949 -827 -36 0
-155 887 832 840 0
-732 661 -624 -537 681 -332 0
209 205 746 -434 519 0
116 -127 -210 -550 243 -976 0
-459 -604 -317 451 -628 0
-844 11 725 429 87 0
552 883 86 -202 0
675 898 102 -924 -875 0
497 -914 -600 627 370 -310 0
899 205 260 -732 0
818 -398 -605 -669 -149 -739 0
855 684 -515 548 412 838 0
580 552 -389 -577 308 -602 0
73 514 -846 -824 0
-218 760 -62 -737 491 0
-46 857 -523 -605 824 0
-583 734 491 452 853 0
521 730 -580 -90 -633 601 0
392 -477 -602 501 382 0
225 -77 -625 -351 -118 0
842 -907 116 508 -676 0
-359 180 -277 547 0
-769 -800 246 -247 0
386 -382 -418 653 712 0
-490 -933 -813 -611 -730 0
282 -719 -776 -994 -228 0
-355 216 -628 -132 0
-800 -14 668 -467 0
405 -980 -681 -290 -890 0
-257 -924 -529 -369 0
105 -956 -959 -535 -985 -268 0
-698 -191 423 93 875 -941 0
-809 -478 -684 706 -546 -379 0
53 -250 -102 302 -886 62 0
951 390 443 81 -935 0
-754 649 -409 998 942 -667 0
-552 -674 -259 -450 0
-372 74 -274 477 0
345 307 -705 -341 -395 541 0
-675 879 671 143 212 -947 0
791 614 -206 562 -590 0
47 754 -810 -984 0
921 -135 816 981 0
868 -20 -255 971 -918 22 0
-341 658 -970 685 0
482 -474 565 990 52 0
-716 -896 -900 -469 216 -17 0
-943 -845 -66 360 -477 0
-4 561 -192 168 370 0
-873 636 661 626 -332 0
480 273 -864 342 -711 0
246 575 -534 525 988 -616 0
-942 882 567 -947 -473 0
273 911 21 173 -36 0
-977 -462 -140 16 281 -463 0
-156 165 -639 -795 0
-426 828 -781 363 -398 644 0
-53 -99 -253 822 -397 976 0
937 87 895 306 -642 0
844 -786 -541 -979 0
796 -317 28 978 990 0
-646 -21 418 -867 -822 0
256 -765 752 889 -526 0
-367 619 -959 570 0
767 807 -709 -272 0
780 862 463 -207 818 -415 0
-233 928 -551 891 468 0
-685 -460 -476 355 -221 0
748 -686 -447 282 0
471 -399 -974 -112 0
255 -362 -268 825 0
-439 474 986 138 -220 0
-255 -7 -55 -647 0
80 178 671 -538 897 348 0
-271 -805 -630 -823 242 0
-587 187 -342 -366 681 0
-513 497 -432 -996 0
191 7 -318 883 0
703 -936 -850 -296 -242 0
280 -87 428 268 127 -493 0
874 -261 -238 122 0
-158 -103 -386 -766 0
206 377 -169 548 764 0
-36 949 143 79 0
-948 -814 -985 -602 766 0
335 -5 -294 477 0
442 239 -800 220 0
-143 -239 -181 994 699 0
-517 -584 -756 -482 -28 0
-916 -824 378 -532 0
849 192 806 810 0
-130 -403 493 -604 -610 0
479 390 503 978 0
-146 -783 217 -347 0
-461 245 -471 -787 0
-122 -304 -197 598 -399 0
178 185 -553 -568 61 0
278 -729 -728 372 0
856 -476 -683 -811 -225 0
567 761 -822 536 486 432 0
983 -887 -607 -842 -868 0
-102 -989 -97 -694 0
582 115 -82 562 0
568 295 -684 -95 0
503 -509 -828 -841 843 0
708 583 485 677 837 0
-712 328 163 -154 0
-401 -511 984 -478 0
-727 -820 -330 -178 855 0
-953 642 -793 -783 0
215 882 -959 -77 0
-274 -850 -502 13 142 426 0
-419 -674 -970 514 0
-718 -739 912 -886 0
125 -360 -927 603 -470 -109 0
853 267 -148 -920 -837 0
657 946 -710 135 0
-325 142 747 -856 -134 0
-485 179 -509 -585 556 57 0
42 943 -727 92 -641 0
179 -619 183 629 0
666 141 -246 -647 -742 0
859 -292 -296 -74 -587 0
154 97 -569 657 -740 0
993 -702 195 -440 154 0
-22 -147 -757 -744 -550 397 0
912 331 -662 -111 657 0
505 -504 439 174 0
378 839 -497 -496 0
780 873 -236 40 0
949 -130 -931 -604 0
298 754 -940 586 280 -983 0
-653 -631 -173 570 0
117 501 -205 100 0
462 -968 -517 -652 168 0
560 -6 -829 -471 0
-325 -167 997 625 0
-574 -118 -227 178 291 0
-872 -725 689 -85 -51 0
-933 -789 -225 326 0
861 -96 -702 7 0
-323 792 667 679 770 570 0
688 -601 509 50 752 0
-271 -133 -532 -261 -515 173 0
803 -691 793 184 197 0
989 -369 401 312 635 0
-691 -71 306 348 945 0
-701 858 857 17 404 -478 0
282 269 -551 273 -141 -502 0
-707 88 456 902 0
590 717 -653 -398 -657 358 0
148 -144 -836 841 0
-310 519 35 -522 634 -950 0
-631 -897 -667 -204 0
-116 275 -419 -649 -412 0
-666 -32 -718 -726 0
-881 -944 -42 894 -809 -707 0
-407 861 109 -970 -349 0
673 -567 846 -755 -85 134 0
-153 -901 283 -590 994 -967 0
104 -952 532 -22 0
-830 756 -47 -257 162 -285 0
-617 -359 -452 772 0
-823 689 -205 744 0
227 -224 600 883 -774 -285 0
829 875 629 866 465 0
-199 987 531 -625 0
-317 -728 358 -49 -392 240 0
-637 -410 -744 524 330 0
563 673 -231 -376 29 0
-504 364 496 -325 805 0
-664 813 874 -454 963 -82 0
621 6 -734 897 -658 0
-38 -453 99 -670 434 0
854 306 901 72 -630 0
411 586 770 -71 921 864 0
861 143 146 -356 -980 0
-553 -161 -95 442 448 -940 0
-615 -69 -813 -314 323 0
495 17 700 347 0
676 -70 180 -14 0
-519 241 -203 -987 -749 950 0
512 784 412 -53 -679 302 0
-371 -387 -726 -522 0
375 -453 -944 -87 -868 0
728 508 -978 645 -895 -622 0
-283 669 -597 -396 306 -295 0
590 -74 425 126 521 0
-524 773 -530 205 -973 428 0
241 519 399 -575 64 -285 0
-244 -452 -901 519 -453 0
-131 -551 -175 761 -184 -388 0
122 581 953 -548 0
-75 -664 -828 969 299 0
446 975 -825 -834 449 0
-444 595 -784 -762 0
-791 434 361 -53 471 0
290 -439 875 858 -772 -304 0
-435 -254 -142 886 0
-934 574 -233 126 -451 0
-217 323 128 274 -22 772 0
-966 -635 62 -4 993 368 0
915 -812 457 -787 0
210 -487 -895 637 0
658 604 464 -445 895 -949 0
592 676 966 -532 0
644 980 -341 697 0
583 -274 427 -472 -163 0
-361 -845 -987 831 0
-28 -940 121 -847 669 0
-507 12 456 -185 0
755 18 -725 784 -838 0
-317 257 -728 -329 893 -34 0
-352 -550 164 84 -299 0
-282 -930 -907 -549 0
642 -767 -726 650 -782 -197 0
-85 509 -435 159 0
-867 -506 -471 403 653 0
424 553 -151 -285 949 0
939 -477 -206 -378 -36 63 0
-11 570 -253 231 -263 0
58 -317 -457 957 768 0
-783 -480 842 -863 746 0
854 -457 764 340 584 97 0
-442 945 763 -415 -2 407 0
-877 -169 378 -272 -245 862 0
-537 196 -681 -63 612 270 0
534 736 -769 -44 1000 -124 0
963 754 39 50 0
-795 919 -179 933 0
946 -430 -590 -977 109 0
-706 -762 853 -134 0
-906 528 454 34 187 367 0
-198 -341 -333 -943 0
260 777 -217 -74 0
-72 -583 420 -254 -656 133 0
976 -76 -20 691 -140 0
-674 151 802 -45 0
-122 -303 478 231 -214 558 0
95 586 57 370 -793 0
664 -946 -940 667 293 0
-314 -726 -86 778 148 62 0
583 43 386 542 208 0
-617 -970 -348 142 0
-61 847 -299 -921 377 -203 0
399 848 -759 -982 0
311 106 251 525 -51 0
70 -95 -969 384 803 -472 0
505 401 516 48 51 -729 0
-391 907 -428 -793 0
-910 896 204 190 -94 -583 0
433 -671 824 137 0
-755 854 601 796 0
-537 -126 211 644 0
-414 645 908 -438 -197 -481 0
497 168 -747 -792 -648 649 0
671 -626 -805 -242 0
-682 822 91 -915 -663 0
-953 275 -687 626 -309 0
584 653 806 297 -635 0
969 870 488 -430 0
765 -385 -362 431 521 0
528 -200 -739 -872 0
-880 574 -333 -810 983 120 0
-625 -808 -562 147 730 0
-966 -750 -126 583 0
-702 643 -651 295 445 823 0
-755 39 -612 -301 0
-813 443 883 -715 -517 0
237 925 -596 983 -999 0
556 519 -136 -886 614 0
-571 417 292 323 331 622 0
712 913 -566 -541 834 -801 0
-449 -83 386 374 0
495 721 767 -590 0
-413 -587 143 514 0
301 -895 778 357 0
-742 615 158 -313 955 0
-446 -61 894 -589 33 -999 0
741 -356 -477 58 0
47 448 -493 -776 0
-108 123 606 -539 305 -676 0
741 308 655 727 124 0
-718 -686 -468 -133 143 0
-784 807 -177 -418 0
-526 -982 462 -381 0
-958 -947 395 -402 -859 -479 0
-294 251 960 92 783 -399 0
889 -43 677 301 809 0
-74 -992 76 77 293 0
941 -958 -719 -998 256 496 0
-832 -474 560 -769 -847 0
-541 -196 -822 127 -705 293 0
-281 -629 423 860 -165 0
113 -522 774 -979 -207 -212 0
-694 537 101 -456 516 0
818 714 -417 -174 -673 -151 0
870 -367 877 -102 -817 0
-807 436 -180 618 346 0
651 411 11 -622 0
889 362 418 -702 -284 0
528 -876 193 136 0
590 -561 287 137 -187 0
-145 713 -76 665 -570 -926 0
467 -513 -440 -66 0
-239 -482 686 50 -268 -594 0
358 513 -516 -605 0
40 -174 945 479 350 0
-313 664 129 -816 0
-519 -506 45 -374 -951 0
-684 -120 -749 -409 0
-833 -708 -257 378 0
926 -462 -221 -496 0
-266 237 -549 -332 668 -81 0
167 446 163 337 -54 -945 0
673 -16 603 -612 -657 761 0
-847 -713 845 -704 0
-768 948 -415 666 -416 878 0
775 649 774 759 -58 0
194 583 -32 -622 -860 0
-619 531 -401 -467 201 152 0
-52 206 -566 195 0
-602 18 -84 -99 -658 0
-409 -139 181 979 666 201 0
-395 227 794 -524 0
-6 746 823 21 653 0
153 -401 -4 957 0
973 -712 66 -774 367 37 0
258 -10 759 185 314 0
-643 122 -406 459 292 0
749 886 -770 -15 0
602 251 819 237 494 0
-893 -459 211 157 219 0
817 637 417 -498 -734 712 0
-323 322 -291 -6 0
-317 775 -53 -299 0
-409 -162 -419 -176 722 83 0
-675 -158 390 502 0
-269 -790 -852 -625 0
-343 446 -803 550 331 563 0
-328 -430 -96 -282 285 2 0
-230 -461 -274 -705 -376 0
842 804 -618 -879 303 0
352 -686 482 400 0
-187 -188 748 269 398 454 0
-602 835 518 -45 -167 320 0
-705 -146 370 -226 0
770 692 552 -658 0
712 -580 -733 -706 759 0
-14 512 -747 810 0
580 -844 -21 937 0
61 762 -468 -87 801 0
-826 141 -566 908 977 -157 0
-269 42 852 621 0
-914 9 360 -575 0
-31 -300 -898 344 685 -819 0
-202 192 470 291 0
-490 -618 -986 -81 0
986 -313 917 667 635 0
124 958 809 166 0
521 68 40 406 -247 -809 0
41 -97 535 -179 -395 0
-875 442 -597 444 828 0
546 979 615 835 -607 0
-946 -89 -939 759 -308 0
-540 867 965 -463 0
-921 -178 -423 824 0
517 381 -510 -890 84 -743 0
-541 131 -630 498 -96 -89 0
-58 -404 183 -133 0
-771 -540 883 501 969 0
-875 -291 -856 -826 337 -835 0
-434 952 835 602 0
372 -729 652 -39 429 -744 0
833 -295 189 612 -996 954 0
-363 410 -437 -988 0
139 719 565 -1000 -657 0
-225 -299 -289 -49 -701 0
580 -112 137 521 -766 0
694 400 -173 -657 -671 0
796 463 425 -669 -371 0
147 998 -340 543 -323 0
272 -370 -517 135 851 -864 0
624 989 -495 -752 -273 0
-795 176 -613 602 0
-294 -808 -84 639 -515 795 0
188 -501 -175 139 0
52 -966 56 530 -811 77 0
501 684 998 -720 0
444 724 945 -769 0
158 -106 -90 -458 0
29 -322 -724 375 -108 272 0
687 432 -924 56 -53 24 0
-785 -732 359 -903 -208 0
937 531 -589 799 -251 0
971 -979 945 139 0
808 796 -221 -314 797 0
-455 -490 458 -183 0
796 -97 -305 332 -838 89 0
895 754 164 459 0
-743 910 -661 -374 0
-583 -334 -128 768 183 202 0
374 682 378 -912 -78 0
462 -268 347 616 -150 0
-226 -591 215 -923 -54 124 0
300 -664 -240 244 -793 0
387 -700 743 -562 -911 428 0
-848 -533 542 219 -96 16 0
-991 257 867 308 530 142 0
-670 -247 -577 -64 0
-236 -960 323 -474 0
-594 -308 19 912 -294 0
476 515 -546 270 -209 -721 0
146 -39 -184 -226 -397 340 0
-210 -24 724 243 618 -621 0
886 935 883 -917 426 -423 0
155 418 -275 -205 -299 -536 0
979 -211 936 392 -601 -919 0
645 638 -937 556 0
-221 393 -927 324 0
-739 452 -816 -566 0
-210 -651 400 277 -813 0
-645 -107 450 -510 393 0
332 -465 -597 588 555 -921 0
670 745 482 -791 0
-604 -670 -185 -274 392 442 0
-212 -660 645 -178 44 -601 0
-996 312 25 421 0
688 -92 150 398 0
216 816 220 -277 0
-688 -187 -523 -363 124 -445 0
-52 349 188 -820 252 0
56 -115 -471 -189 0
401 633 222 -831 -261 -529 0
228 -295 -968 278 289 -196 0
-158 339 -98 -227 0
-343 909 448 801 -149 0
656 -952 -890 -412 893 -797 0
697 -438 854 -876 -958 0
725 840 637 -32 -411 430 0
317 -262 -945 -176 0
573 496 -876 176 568 0
922 -817 986 20 589 -776 0
-894 -1000 876 -520 0
-767 20 148 -167 -493 867 0
574 -598 169 -137 638 620 0
422 -942 322 791 603 993 0
383 -275 -13 692 -623 -573 0
-553 147 -852 -528 -691 0
-284 164 417 -393 0
711 -432 -876 161 450 0
352 412 127 -787 -223 103 0
433 -627 -187 -760 0
-217 -243 -649 -41 154 0
-299 506 312 738 877 -204 0
-230 520 702 201 0
-760 -605 373 -628 9 -954 0
80 -947 436 -480 253 -487 0
539 -108 662 711 759 0
609 133 -718 437 -528 0
990 -808 513 397 -858 0
-888 -338 -722 -950 779 61 0
-348 720 -605 -637 869 0
-463 -207 66 211 747 -744 0
-850 845 734 -880 -339 -177 0
748 555 -647 206 -12 0
741 -40 962 -33 269 0
961 468 79 -202 0
628 -599 118 820 98 0
-929 320 648 -539 0
-196 -451 -843 141 -834 0
-831 -8 -809 66 -883 0
-257 242 -699 -503 0
-188 446 346 -248 0
716 -43 -621 942 -837 834 0
-443 -155 -956 -216 -720 0
-614 -588 184 -378 0
-25 -761 -431 -345 764 150 0
-981 -958 420 -726 0
-181 -207 684 88 729 0
-635 -563 506 -552 -90 147 0
310 -756 210 939 909 0
-194 107 -232 -305 0
-683 483 -502 -720 788 0
208 410 -998 476 -661 0
-900 -769 958 -221 -513 0
-913 -23 -63 -753 828 0
173 -247 478 -273 0
-110 932 -907 -528 874 -962 0
-187 35 -418 -534 -208 601 0
-532 561 -948 684 73 -239 0
-935 -236 329 497 -338 917 0
-157 910 623 -451 0
777 541 -651 -553 0
-199 -517 -593 -741 650 0
-238 170 575 -75 578 0
306 142 -211 -175 0
248 818 -789 474 -260 777 0
975 821 262 600 0
-22 -772 -809 -761 -80 0
-343 -63 672 72 0
459 -545 610 -217 421 0
-624 -281 373 388 767 0
116 134 -77 -411 64 96 0
938 -295 353 -395 560 -370 0
-375 536 606 -190 0
-604 -331 -305 290 439 506 0
-264 -269 560 -458 925 0
68 -346 171 -37 -608 98 0
-517 190 -475 854 366 0
-335 -491 -855 617 -66 0
129 -372 206 -492 -961 -38 0
649 -464 652 571 -872 0
4 -273 -577 -29 -188 0
-912 292 -328 294 0
323 -455 9 -978 0
982 806 951 926 0
136 861 441 -948 0
-702 226 234 -657 796 0
-931 -845 -846 609 -598 -686 0
-143 -49 -589 6 -990 -666 0
-591 -345 -459 118 635 0
154 -886 669 348 204 0
-832 740 -901 302 427 848 0
-580 834 -283 807 0
-31 -576 -946 -36 970 0
-100 -407 519 -990 -580 88 0
121 -718 -817 -148 656 0
973 135 -11 -94 -822 661 0
-850 -918 -481 -363 -893 -930 0
422 516 483 847 284 0
331 -688 -57 -103 -666 0
-359 538 286 926 0
207 172 400 -504 -837 0
-188 -381 -295 -262 -378 972 0
-203 -129 178 -37 0
-100 -239 -985 -930 569 0
-490 -785 652 722 426 0
-959 339 439 16 0
-649 -282 101 96 0
-681 -594 248 -759 297 0
80 738 375 727 -499 0
-966 -942 -845 315 0
687 699 -413 16 -538 0
847 -460 266 825 0
-788 -558 -149 618 0
856 935 -875 703 0
376 -334 983 -150 0
614 194 -30 33 0
-775 -509 -473 264 778 -270 0
-252 -441 681 303 396 -812 0
106 630 82 58 0
158 357 160 965 0
-406 565 918 738 -983 926 0
160 126 -615 -102 595 -324 0
917 176 83 500 0
325 604 700 -564 -598 -808 0
965 -947 -100 438 300 -302 0
-278 -25 -773 -770 781 0
-433 -138 341 -340 0
218 -977 526 -308 481 293 0
-787 544 570 -353 -735 327 0
211 741 -237 89 -272 0
-886 -874 -561 -350 -961 -948 0
-689 -240 -164 -942 -967 0
364 -595 121 643 -326 247 0
-781 -539 318 -619 -932 516 0
-586 158 138 -369 973 -351 0
-489 541 -423 751 0
839 -431 -412 -970 882 0
-773 -660 -722 408 852 0
856 806 -129 -795 -686 0
-663 -190 886 -632 842 730 0
-823 -427 -695 348 0
-370 445 -178 -146 0
-294 -505 233 -771 0
-841 699 958 -913 -473 -748 0
122 724 -433 571 785 427 0
493 -364 528 -953 906 0
-414 464 387 834 510 958 0
-113 -679 349 -746 0
-829 -213 757 631 0
924 511 198 174 0
-558 485 598 468 403 -830 0
314 558 -234 -79 0
-837 -318 407 100 627 0
-540 -901 916 283 -702 -55 0
-713 363 -222 352 -151 595 0
-150 -786 323 -813 -172 486 0
415 38 880 -669 692 773 0
732 594 -417 -726 -30 0
-84 -721 995 411 970 0
-877 -462 780 -592 904 -632 0
409 424 872 -27 0
-824 801 45 856 -461 -70 0
-466 874 -189 375 783 0
-572 200 750 -420 -508 0
-642 -264 875 -927 91 0
292 411 -636 -314 0
53 36 511 313 367 -608 0
585 429 -597 536 0
-309 998 363 735 0
-482 502 18 986 -456 443 0
-745 641 81 695 0
-96 -322 261 125 237 0
807 -976 -719 20 -260 -940 0
-459 596 420 763 853 0
132 553 -928 -494 0
840 -135 773 -175 0
484 -916 -86 529 -652 0
914 -940 -977 -93 -520 0
645 -981 351 171 -999 -519 0
561 -382 331 241 -285 0
-213 435 173 -376 755 432 0
-160 89 412 -661 0
431 -719 7 -488 -931 0
-61 -529 62 -187 -612 -758 0
-8 -577 659 -903 437 0
821 -24 193 -90 0
-989 -140 -769 150 -649 44 0
-323 702 -922 -20 0
-260 684 -770 947 -945 -32 0
907 -892 -955 -222 0
86 -957 -830 -207 112 960 0
-562 107 664 725 0
177 16 531 -14 0
666 -571 -894 126 609 -637 0
278 -658 -809 531 -279 116 0
-827 664 736 -601 0
-108 -843 -179 43 0
446 634 -836 123 0
695 52 351 -342 -949 269 0
-956 -513 661 768 -826 0
111 14 202 -940 -158 0
-12 208 950 321 -288 0
909 -994 853 402 0
562 -392 631 692 979 -888 0
-630 -682 -649 -936 -635 -160 0
46 -216 538 -589 -213 0
953 648 138 -267 -905 997 0
-814 -189 448 -15 0
-868 -562 524 680 281 0
19 -842 -876 -860 836 0
-409 -806 295 -101 0
-683 703 764 86 -430 0
-645 -716 -433 506 456 0
-150 709 174 -451 0
685 927 844 -63 0
638 211 336 918 0
-177 989 966 -27 -144 0
622 -617 349 -720 0
-464 933 114 768 -563 0
774 -37 311 994 0
-969 -884 -212 653 286 0
59 252 -118 746 669 -80 0
672 -630 977 -956 -784 0
-670 814 -933 -48 0
126 -342 405 636 16 0
-528 -444 766 470 0
38 -955 -251 -653 0
-58 -937 -852 -165 0
762 -872 869 -863 0
-509 408 311 523 0
-112 -798 450 -385 0
-323 -271 450 -663 -882 -511 0
221 -800 -94 -168 411 0
-398 -117 279 -841 288 0
964 -436 646 -604 0
-265 -942 -29 -121 864 0
927 -513 681 912 0
-467 129 -167 963 -874 0
347 -556 161 73 218 0
563 -446 258 -135 0
657 -967 37 -882 0
-553 -198 695 -322 0
915 13 -515 -181 -675 0
-265 -384 -142 903 0
-814 226 -873 -169 -927 -829 0
-938 -43 -828 124 789 0
539 573 -77 -45 487 0
-544 -978 -383 -33 0
-522 594 -481 927 661 -249 0
607 697 407 -766 683 -569 0
-812 -650 -352 -376 992 0
-398 952 -796 -498 -268 774 0
-942 733 -665 943 0
803 348 -233 680 -220 605 0
965 979 583 -540 574 -262 0
-484 -781 879 -46 456 0
522 623 924 660 -257 -285 0
216 531 -700 -423 136 -684 0
505 590 745 311 298 398 0
-148 -931 779 907 0
665 797 -893 18 0
326 144 901 -641 554 782 0
292 624 467 118 152 64 0
-101 200 24 932 -301 -350 0
-106 414 115 632 0
-488 -723 -161 -6 0
641 -60 288 438 78 0
152 -955 965 -983 724 0
-766 -227 368 152 -849 291 0
-336 -884 -103 -283 -800 588 0
-462 -809 945 -752 0
-25 -801 774 74 637 0
516 -121 242 -458 275 0
-606 189 986 -410 0
-502 298 237 752 919 -518 0
420 724 163 -19 693 0
-765 981 -709 931 786 64 0
-552 -321 686 936 303 670 0
-295 87 566 227 0
207 299 615 814 876 552 0
-457 991 -337 -684 0
-562 903 -63 624 0
-705 -602 960 -326 -588 0
455 -661 -409 -731 0
-739 -416 901 -976 0
-711 -496 638 245 0
515 -704 891 968 0
-686 388 607 -964 716 0
-321 -457 -578 -475 0
82 -501 715 -412 339 0
357 518 422 61 -864 0
-432 953 -73 12 0
-935 -729 811 130 -694 479 0
552 -681 866 -249 797 0
-386 421 908 672 0
255 902 515 412 -591 0
696 1000 -67 -177 0
303 -659 -853 -876 -830 -883 0
572 -393 -796 -438 687 0
456 895 362 149 0
-388 -979 -987 703 0
-902 687 645 -553 -915 0
28 -489 -314 -51 0
-325 885 942 326 0
86 537 568 390 0
-957 158 -961 733 0
995 -97 569 -613 0
100 611 291 962 146 -82 0
-852 -143 -966 544 0
714 300 733 757 504 0
756 -482 -229 -146 -410 0
421 424 975 972 494 437 0
591 218 353 463 0
422 -954 688 76 -293 165 0
-763 13 -534 884 -791 646 0
-272 390 270 816 -856 567 0
482 272 -399 994 -931 22 0
719 325 -844 685 0
-797 270 982 -168 -283 0
748 268 -338 360 -740 -152 0
-654 -753 88 -618 -61 419 0
-860 745 -996 -980 0
-849 651 305 -832 -538 0
721 888 -535 -771 -263 163 0
-258 958 -653 389 0
537 706 -704 7 0
752 -274 -613 -983 0
-534 -806 -390 -528 -484 -473 0
-561 588 10 139 0
-890 12 704 73 0
-89 -59 857 238 938 0
923 -784 395 409 0
-461 -631 125 -134 0
-623 -456 -580 703 99 0
664 524 139 198 0
-792 -517 -970 -709 522 807 0
168 685 -498 -661 0
877 754 650 265 984 -152 0
-279 113 789 -978 0
14 -342 -960 -659 0
-396 -317 -53 -571 -399 601 0
209 -135 -939 -369 -917 0
793 888 -260 -658 -353 0
-417 789 120 -32 0
-5 343 -691 528 -567 0
-826 658 -638 -372 0
-578 -161 -225 -884 293 0
359 -106 391 254 0
-287 -746 -702 48 -482 0
-142 -889 832 45 213 0
-283 526 437 932 619 0
-577 885 643 110 841 -390 0
533 392 244 -900 187 0
-609 -753 158 -940 791 0
-332 570 924 -947 -562 342 0
-232 884 770 -153 437 -7 0
546 620 -276 -639 266 0
-854 304 -887 -151 0
724 -662 86 311 81 0
357 218 -204 -481 0
-425 944 332 -685 146 0
107 -479 144 -640 0
-996 -192 -484 592 -833 0
777 -648 -107 137 -266 0
389 696 537 289 -173 -791 0
672 971 -777 661 0
-291 -689 565 72 0
-81 238 388 417 357 904 0
-250 873 -874 341 0
547 -6 -558 463 -539 -581 0
736 356 -93 510 -940 745 0
290 -94 828 262 0
592 -241 -804 -146 0
829 -587 -733 -636 -899 966 0
-805 -47 -905 -118 0
956 -632 335 -511 -420 423 0
361 -358 712 694 993 0
900 -460 49 906 447 403 0
831 -664 136 -505 -319 0
-226 -241 692 -486 400 0
547 -45 342 -614 -858 0
615 556 -986 31 0
-797 571 -372 813 -99 18 0
-624 -905 -973 -181 141 -362 0
151 -374 -432 318 340 -161 0
-355 142 117 906 0
892 -246 528 299 0
698 324 -424 835 -580 0
-974 -167 684 -439 916 -277 0
-605 -960 -89 393 0
713 -615 -421 -922 -411 -876 0
374 -155 -261 675 0
251 857 959 -700 718 773 0
-885 -856 147 198 -133 0
891 -686 272 254 0
-110 -856 -100 16 -472 805 0
-292 -929 353 -903 761 -149 0
428 -555 -18 573 97 -752 0
-713 -994 637 -350 50 -648 0
-377 -440 -68 -853 305 0
384 -261 -68 308 -500 -237 0
-228 210 422 904 855 268 0
-363 -304 -287 303 942 0
-198 -960 948 304 871 507 0
646 922 -870 874 -972 828 0
1000 561 -426 326 0
-956 591 -598 127 369 0
365 -9 292 38 -6 0
515 -161 331 -674 386 0
-180 -147 455 503 -331 561 0
-791 723 -332 -540 0
575 660 -266 -643 -539 621 0
-196 -358 56 88 45 0
299 637 378 -732 0
91 -624 426 613 -451 0
-983 288 -783 -504 0
-118 479 -604 461 0
320 -27 -515 -767 -328 0
654 701 -495 -805 942 244 0
-203 -939 917 133 -116 921 0
-958 942 275 947 454 0
-565 847 -993 -353 0
846 864 -799 -698 -298 0
576 -445 -294 693 223 20 0
500 -749 -281 -289 -944 -69 0
444 927 882 315 0
-427 -203 672 93 -389 0
314 -57 -344 186 0
-781 -172 364 -216 0
191 -306 750 6 901 510 0
572 836 659 753 -331 -724 0
498 308 -772 350 -972 0
484 -516 -860 -291 802 -215 0
323 -251 -691 -163 -743 638 0
-224 517 -609 -935 476 749 0
897 -624 601 816 0
486 582 923 -847 939 -454 0
779 -461 -338 -512 0
862 151 -390 -289 -851 826 0
273 -284 360 -480 -975 0
538 -553 -686 799 854 0
-266 677 614 -343 0
-576 448 991 -902 932 -358 0
650 -569 -782 378 -101 151 0
-190 944 465 733 122 0
153 -248 -276 619 -872 0
223 429 -301 370 0
-979 -606 -597 -103 0
439 875 -50 -484 163 774 0
961 572 -366 -948 167 -654 0
138 -375 -209 -357 827 289 0
264 534 -94 -212 0
9 -99 -335 -115 -22 -573 0
-828 -260 -640 482 0
974 -476 393 -873 231 348 0
765 -992 21 6 0
229 879 -343 -283 0
585 83 983 721 917 787 0
-405 -532 257 728 -444 -248 0
-510 -162 53 686 0
-696 785 -595 584 0
572 -626 940 156 958 0
236 250 618 -789 0
849 -995 756 903 91 0
-984 -723 -395 -90 -997 0
-175 908 228 397 0
805 -854 623 -450 0
-132 -940 203 -119 -59 -849 0
-283 761 -944 194 0
226 -625 728 -789 464 0
753 -708 868 -713 0
741 -500 760 706 175 0
-937 -429 -268 -88 343 -70 0
286 925 297 -476 368 0
-893 -648 810 -214 0
268 348 403 -133 109 -879 0
379 132 -441 443 -202 602 0
-196 -368 -325 413 -556 0
78 -693 615 72 478 -555 0
528 -796 324 -480 0
163 -767 313 401 -922 592 0
-418 -638 -253 748 6 0
771 -893 -286 -115 61 0
146 399 970 897 -491 0
20 -208 -904 962 0
351 -817 -244 254 786 0
778 -568 651 654 -298 219 0
-765 917 875 287 -661 0
622 -517 12 -190 695 -643 0
-263 -203 672 -473 -455 178 0
-549 725 -566 -383 -919 0
-984 -423 916 -537 -446 0
368 -45 613 592 0
463 -743 -205 -154 -790 945 0
852 990 -559 705 0
-326 50 -447 -819 287 -969 0
953 537 668 -409 257 0
293 -614 -646 806 622 0
867 578 -224 136 0
274 288 -149 410 179 -259 0
-729 -295 989 -635 0
554 963 -695 -618 710 0
234 118 759 -109 0
262 31 982 -453 0
-707 -640 812 -864 -175 572 0
818 -296 -467 -745 0
10 -880 466 -751 -260 0
156 184 93 316 -790 0
-617 403 709 26 0
326 338 -292 896 0
-500 -442 364 -720 0
489 860 173 -249 -246 20 0
-440 -745 -735 259 280 -384 0
-129 455 -728 -164 -143 0
-215 969 -44 636 -392 -192 0
645 330 865 -112 368 0
-250 -745 -453 662 -421 0
882 -631 328 927 -98 0
-106 -604 331 -38 0
-872 932 -876 879 -36 259 0
669 -133 -239 55 -397 -247 0
-16 -416 58 -543 0
-769 841 -859 -708 -103 0
-759 877 -814 123 401 -579 0
511 913 -723 -675 -419 0
-977 -199 -155 -185 772 787 0
503 59 370 575 0
-593 691 156 736 0
869 -690 197 -783 -530 446 0
860 403 930 -687 0
-27 264 -703 693 0
-556 -464 835 877 0
635 91 -750 691 0
522 -815 -881 764 830 0
761 -435 105 -775 890 643 0
-840 85 -908 899 0
317 -7 459 745 466 372 0
-88 641 -123 90 -58 596 0
-510 475 558 -186 0
785 248 383 -885 0
-367 -867 -348 -678 0
904 -49 -55 713 0
889 694 227 104 0
518 -500 786 -655 -927 -8 0
581 108 -358 435 -246 0
814 -90 843 55 -317 690 0
320 -749 302 -140 0
440 915 -292 569 0
153 3 -57 -472 0
528 -103 -421 811 88 0
75 81 -716 -740 568 -970 0
852 315 -985 448 718 0
182 -3 -57 517 -88 101 0
652 -115 -667 947 0
411 40 799 -424 0
-373 -422 -249 880 522 0
-494 233 -791 -486 -508 0
-826 -71 -605 -837 991 0
257 27 -526 -224 840 -156 0
-564 827 82 -215 820 0
252 -500 -308 -23 -635 0
93 -814 463 150 117 -203 0
-487 177 67 323 0
411 -330 494 -174 0
892 -584 591 -307 -823 0
559 218 666 426 626 0
173 843 846 -153 -272 0
162 -176 -487 -321 0
-182 -9 328 -330 664 647 0
812 -819 611 -364 348 0
-883 786 573 -507 649 0
339 -94 678 -991 0
823 -796 -836 -818 864 -557 0
374 -216 -118 773 622 0
-869 312 457 448 16 778 0
-556 -407 357 246 991 0
-559 393 463 110 0
-247 -870 -52 270 0
867 660 -643 659 0
753 -61 766 -817 633 0
645 -933 604 905 -871 589 0
201 391 -842 416 114 248 0
788 -668 -979 -56 238 0
-566 -756 703 212 -515 -363 0
-81 546 325 -177 79 424 0
-53 667 538 -696 -518 -536 0
657 681 -670 -915 100 0
-77 -544 562 931 470 31 0
958 -817 -271 993 -57 0
-355 -738 -840 -660 0
268 -943 -47 -517 404 0
903 79 894 244 87 -701 0
582 355 -479 325 0
107 -737 -444 868 -879 773 0
729 -881 488 -69 -728 0
-153 -563 -121 84 530 -668 0
320 646 423 -991 488 0
-459 -342 239 40 0
457 326 462 -944 0
959 -500 -596 412 0
488 -450 243 -778 0
769 122 -977 -456 -84 0
364 482 -115 -850 -634 -706 0
397 -513 145 569 -765 0
432 -91 199 -228 843 849 0
-774 -769 228 797 64 376 0
415 -370 -21 -833 -876 0
897 721 815 79 -517 0
719 995 -389 674 0
743 -591 868 895 0
947 131 516 -583 0
760 -591 791 -738 288 660 0
995 200 204 -116 -932 0
-561 914 -392 493 122 0
-873 -281 218 542 57 0
-112 735 -601 -804 168 0
-893 -620 835 677 517 429 0
-654 -592 112 -620 0
552 -393 410 -124 378 0
355 121 -900 78 -83 -451 0
-1000 -621 849 438 -115 352 0
-348 -850 23 552 0
162 -627 470 285 0
512 26 47 -68 0
614 410 -14 29 -674 220 0
-928 76 784 929 395 56 0
578 -363 218 506 338 0
619 -963 732 699 0
-110 93 97 705 0
779 853 -82 809 -584 0
495 -902 -573 -484 0
-952 -964 -100 -909 0
839 -921 -43 -206 0
154 46 569 928 126 962 0
642 -959 650 -940 -738 0
280 734 273 757 -438 350 0
536 906 -580 -845 87 0
-344 -328 989 287 -835 0
-957 -247 961 -56 0
65 657 -167 1 -614 582 0
-678 930 725 443 -86 480 0
-753 632 -622 935 -30 0
-428 304 -793 -667 -481 0
-606 -980 -390 796 0
545 143 757 604 -126 0
-255 610 -925 -22 0
-56 -842 23 618 0
99 246 122 -270 -256 -832 0
-769 734 -950 -605 -818 0
-101 -903 -601 -390 0
-778 -577 697 -696 0
-563 685 -360 466 0
-480 -58 -55 713 915 0
-445 632 -954 864 435 0
197 962 821 97 808 498 0
650 822 448 -526 -958 811 0
-781 -237 242 382 0
152 -293 -380 -907 -331 0
-972 -402 -797 813 0
62 239 240 853 -649 0
-873 332 196 373 0
-39 790 -133 -970 -218 -152 0
-443 139 -322 -646 0
97 -924 188 87 331 0
211 95 -8 666 911 0
-614 -301 -984 -266 -84 0
280 -9 218 -569 910 -660 0
-537 530 -204 262 0
-112 46 646 101 632 0
-553 947 351 -294 0
988 388 122 -936 -568 0
77 105 242 932 0
-605 -407 297 -279 670 -488 0
441 -847 375 910 118 465 0
-406 443 -765 977 353 -614 0
788 373 525 479 0
49 636 -546 722 -281 0
-984 -101 45 -522 -214 0
677 -933 -89 -462 336 0
-114 429 -106 312 -331 0
-976 640 681 788 -836 -423 0
284 818 -242 248 231 0
-948 972 924 209 0
-455 -136 450 754 0
-720 -384 -639 413 103 0
-337 -291 -903 643 0
716 532 844 -93 0
-355 720 -209 -771 87 0
680 -636 200 493 0
-608 -134 258 -801 0
-867 -62 836 -188 0
425 -890 649 -92 0
201 266 -984 337 -394 0
529 963 223 -139 -310 -905 0
-777 394 -181 833 892 0
-459 -382 -377 423 78 491 0
683 649 -51 -138 -536 0
-723 -16 591 -862 -264 -725 0
-312 572 -590 -192 0
-901 758 445 -958 173 -320 0
606 -710 -532 580 -866 0
-649 39 -453 773 0
58 -869 -931 78 637 -858 0
482 -848 -284 987 0
-754 -45 359 764 -497 276 0
121 919 -12 424 0
-367 -311 759 -383 0
955 -303 437 566 -930 0
-887 257 -945 -174 0
114 488 857 350 0
-517 -902 -835 -468 0
-557 -626 923 -87 -856 -71 0
-663 -823 -644 889 -651 850 0
-216 454 -919 154 284 0
478 -604 -538 -450 192 595 0
-994 971 -680 -31 0
859 -104 -783 175 590 172 0
379 -785 -432 -210 -118 975 0
-485 507 -853 328 901 0
883 -987 879 405 -531 0
312 -296 -982 -134 917 985 0
287 786 2 29 0
-665 -140 -125 -659 374 160 0
80 410 -600 952 0
607 841 188 -880 923 1 0
-27 -875 811 451 -563 -412 0
-501 -584 -894 -504 0
-941 166 -248 678 0
713 787 18 460 0
65 302 -590 -180 486 327 0
627 78 -233 -811 0
-237 -647 272 -887 -284 0
-211 490 409 884 0
-244 -737 -688 836 -9 894 0
-786 573 230 855 0
849 62 -17 203 247 826 0
-407 -938 -665 -227 -892 -932 0
728 259 -821 436 4 -906 0
-485 -37 832 -992 -513 281 0
291 -823 570 983 485 -102 0
778 848 947 -968 452 -206 0
-773 -391 148 22 0
334 -415 -293 772 835 0
-434 -549 -281 -827 -198 0
-935 -389 12 357 923 0
584 -676 701 -460 0
219 -685 180 135 876 -384 0
-737 -394 502 -834 -276 0
816 751 -15 89 -898 657 0
865 321 -533 -869 0
-994 -59 28 241 -954 0
-147 116 88 384 285 -52 0
-286 -442 -436 390 0
-699 -5 -47 -265 -891 246 0
-904 -796 237 -72 396 631 0
-532 493 149 88 0
784 -925 -942 479 -280 880 0
-772 778 -609 -653 260 0
-973 -146 -556 -741 -298 0
-443 -446 142 220 0
586 -276 583 -933 0
-870 608 231 -40 0
167 399 117 27 800 0
-506 620 780 383 525 0
749 468 -453 -474 -916 0
303 -176 141 -4 74 791 0
186 -110 243 -882 -989 0
-372 306 593 -644 -472 0
-439 601 629 -72 875 0
29 274 -503 -763 739 0
-920 -639 -687 623 296 696 0
720 501 417 513 0
368 582 403 720 0
-451 -218 956 740 0
-186 869 -492 839 -270 -750 0
188 -287 311 650 -410 -975 0
537 900 -165 -387 -890 0
951 132 -907 -645 157 0
-190 784 410 639 23 0
292 729 680 -810 -327 817 0
58 -836 157 -420 -196 0
-645 989 322 -546 317 0
-628 196 231 -35 -249 -799 0
-219 -223 -578 -902 -137 0
205 -955 740 -445 0
358 -346 -913 232 686 25 0
-902 -169 -535 -51 749 -238 0
-896 467 945 -238 0
-25 -222 -962 538 0
620 756 -384 -79 188 0
-251 -231 -611 542 0
650 -701 -470 158 959 -419 0
483 -842 908 -730 479 288 0
-286 -973 -679 937 470 -267 0
679 206 -682 916 874 0
61 441 -623 -73 -439 0
708 -615 -193 -896 0
264 -603 734 621 -788 462 0
-941 -357 -142 678 -483 -964 0
659 379 391 -793 -521 0
5 569 230 -415 0
616 915 680 -223 -968 7 0
962 401 362 -869 -817 -977 0
-439 287 244 277 419 -27 0
-426 437 -728 -320 452 0
128 478 599 -665 -200 847 0
204 127 -295 96 765 -499 0
-162 750 954 -701 0
-160 70 -847 693 0
-763 521 -334 841 0
-698 -906 -73 -38 0
-118 -61 -402 -401 0
289 -537 -283 -161 -23 0
900 593 -211 457 554 0
-288 25 400 871 0
-65 -589 511 961 0
-315 -211 499 143 0
-50 186 133 -707 295 0
-761 442 -144 88 587 -922 0
-648 -307 261 288 -818 651 0
-399 811 -986 981 0
-305 -9 784 617 735 307 0
137 -302 945 299 0
193 -737 -902 -75 -846 0
-688 -810 -455 937 -863 0
-413 611 -228 663 -62 349 0
714 -968 289 457 937 786 0
15 -654 -967 168 799 0
349 591 734 963 -235 403 0
-661 -270 524 502 0
87 -148 -856 353 -254 0
-762 -800 186 491 981 210 0
-589 -381 588 400 -770 173 0
-55 409 -787 856 0
-597 -574 -758 261 164 0
-473 710 97 924 0
-862 954 -886 934 0
716 592 -595 775 599 0
-242 -762 219 -987 -49 -93 0
835 810 880 -331 0
-913 -782 406 705 0
966 -155 -165 -782 -873 0
765 -541 243 -886 0
-884 886 -467 902 501 750 0
215 -711 -955 -677 940 0
-983 838 -301 329 982 -278 0
403 452 -690 -553 959 130 0
-905 435 235 243 -871 -710 0
-34 961 -862 238 885 0
-683 327 356 -827 249 0
-83 187 577 419 0
-233 811 268 -734 283 556 0
-865 -169 808 701 679 0
-221 316 508 -556 0
-350 154 950 528 -296 782 0
507 -841 -497 -666 0
-431 -94 -994 -537 757 0
-807 61 -501 -360 468 0
-453 -20 -574 933 0
761 -615 -694 -972 0
925 -527 899 285 272 702 0
305 744 374 -180 -394 0
836 -878 908 -400 -146 -902 0
-284 165 407 291 0
-757 -111 608 964 160 108 0
263 830 418 -616 -988 0
509 185 841 -545 -80 0
-83 -650 -697 -634 408 -541 0
-903 -781 -981 871 690 0
155 -758 662 -842 -691 -853 0
432 -209 851 287 -516 -283 0
-374 441 -25 -277 0
-503 60 -915 -348 236 0
129 -701 -247 541 -483 499 0
-702 -422 240 575 -455 0
-772 -264 8 -224 -525 0
-731 673 -703 107 -349 0
173 1000 51 746 -19 0
694 806 -671 -306 863 787 0
-421 -814 600 -542 0
-438 927 -341 -172 -7 -469 0
526 -791 518 -139 0
567 988 645 -144 361 0
991 804 -677 -798 216 0
177 647 -616 1000 0
-303 369 -917 335 0
43 -72 372 -676 0
-100 -427 -177 520 -332 0
-224 -942 784 -826 -80 0
-264 -138 -198 258 0
-529 650 -157 310 36 0
748 945 -968 828 707 768 0
-561 677 -662 -473 0
863 204 -188 -44 964 0
-361 -151 385 313 0
995 327 212 -272 984 -299 0
833 584 -625 -432 925 0
468 421 38 -220 -94 -655 0
981 -149 -366 -942 0
-719 -406 432 -242 0
-703 554 338 -10 0
728 91 316 -925 -739 0
-946 -455 -917 962 565 870 0
684 -899 -59 -717 -454 0
-125 -299 -713 55 797 0
593 94 654 528 620 0
324 803 387 -865 146 923 0
-722 339 346 -766 0
165 -45 -775 426 -469 -702 0
-930 916 367 -225 -29 0
9 511 -553 349 -270 619 0
795 -902 -451 143 -232 -56 0
-459 394 -360 -480 0
-405 836 -410 -422 0
284 232 570 467 -430 996 0
532 53 -38 595 -800 0
113 -344 40 -315 -13 428 0
-642 961 -470 -191 -571 888 0
799 -555 151 -915 -697 0
798 -216 -328 737 -818 633 0
558 807 420 -278 654 -923 0
-492 502 -74 346 0
-27 -644 458 214 -590 -326 0
-615 283 468 773 281 -876 0
-600 -273 -135 938 0
-243 440 669 -404 0
129 -91 862 387 0
-300 573 976 -569 -261 808 0
-803 73 918 741 0
807 -201 -501 -70 988 -9 0
494 -857 173 -308 722 -254 0
-398 958 -563 -762 249 623 0
979 816 -349 65 94 399 0
-205 -94 48 -338 0
560 648 920 -365 -275 0
620 -922 -774 633 318 0
271 815 -397 155 -433 -132 0
591 804 89 -267 0
-487 -851 825 -799 939 341 0
-424 806 824 148 -81 -110 0
934 -418 185 235 0
-343 -666 -265 943 -507 0
61 -402 -144 -243 0
297 -737 -838 876 -435 0
927 -946 210 -863 -97 0
761 708 936 -730 764 0
-181 626 -973 -446 0
555 149 -73 554 -20 166 0
96 585 -670 -118 -543 0
-501 -650 -575 -559 -422 676 0
398 256 357 -382 -739 0
-173 -692 -712 914 -666 46 0
8 922 -557 -325 273 0
859 620 -1 -911 857 0
-763 953 173 -259 117 -413 0
-934 975 -429 -352 0
734 -873 -669 -644 0
634 94 387 912 808 -158 0
-902 468 -453 481 138 0
593 -650 990 -956 -631 0
539 -162 376 -305 0
-869 -139 278 561 178 -195 0
491 -850 727 435 -89 0
886 292 -460 783 -436 -729 0
363 679 -729 718 0
890 401 -725 290 -388 982 0
791 279 215 -7 89 0
-186 332 940 -972 0
-48 -115 -79 -442 0
853 902 96 -77 -495 422 0
579 -75 323 948 853 0
-366 643 49 -579 902 0
797 991 611 -648 149 0
-403 -850 -492 -87 698 0
-146 709 -351 496 350 0
18 576 -791 -461 -886 0
-751 -195 -175 385 -644 0
720 -874 -407 573 860 0
423 438 -792 -79 -845 0
-397 -764 643 534 0
936 -463 129 97 0
327 421 150 181 81 -379 0
-972 -653 901 -779 -376 221 0
140 -585 388 453 -540 0
294 22 106 -63 34 0
602 959 -805 492 -174 0
624 -823 377 237 0
-365 -534 906 -578 269 -104 0
334 182 -322 -488 662 -285 0
586 612 386 974 -114 0
180 -21 599 -298 0
-833 340 342 588 951 0
-638 308 260 -727 0
-207 669 -99 -651 -601 -512 0
-988 -769 -808 697 -483 -101 0
-723 354 -681 -280 411 292 0
533 -721 -205 -464 605 0
-878 244 -386 -939 0
460 -128 -359 180 0
-493 -986 -553 -747 793 -303 0
244 260 -750 447 0
-958 857 580 -532 0
830 12 955 -402 0
-435 393 265 -121 529 -422 0
-833 -587 -694 -11 590 0
454 801 577 942 -850 0
882 163 364 -528 0
-872 -116 -415 -254 688 788 0
-90 840 -128 -141 -222 0
-821 -299 584 849 421 -610 0
