c Easy-SAT formula for GPU Gaussian elimination testing
c 500 variables, 1000 clauses
c Designed to be easy to satisfy (fast SAT) but large (slow GE)
p cnf 500 1000
1 0
2 0
3 0
4 0
5 0
6 0
7 0
8 0
9 0
10 0
-148 353 -23 -249 0
266 111 355 -4 -299 205 0
246 -68 -323 178 0
-427 -328 453 -444 -41 0
-93 149 338 355 -268 0
-452 189 119 67 271 -155 0
390 172 115 491 0
478 -246 -137 -57 230 -301 0
350 -456 -128 401 0
-279 -398 42 -201 -333 113 0
197 161 81 479 -319 0
-156 -352 -177 -359 -207 0
-469 -24 152 -360 0
-322 429 439 -117 419 286 0
-412 -147 95 -165 -430 269 0
-218 379 -413 -108 -462 117 0
300 -476 174 314 177 0
370 -352 292 216 0
-7 384 308 -13 473 0
-352 307 -345 72 427 0
469 486 -266 -2 0
-326 148 128 332 -456 464 0
-335 399 -97 -8 0
-377 404 -253 -425 0
-356 -162 -98 -267 -288 -368 0
-341 169 -223 -218 386 0
488 9 -25 393 140 -200 0
410 340 174 -88 240 0
-252 260 103 432 0
-454 -191 -180 -471 86 0
-254 41 -30 -277 -489 -87 0
106 361 154 -338 0
-175 173 277 -149 412 0
-489 98 258 -235 465 0
40 -146 361 197 0
-138 -345 489 303 355 0
487 -211 -442 -217 0
393 -398 120 231 412 0
384 -238 281 23 0
100 -231 -216 329 -194 0
-334 -103 -279 -386 -345 0
47 -72 65 280 0
76 -172 286 -366 379 0
199 -461 -214 -310 -26 0
107 185 459 365 0
-289 -270 145 429 0
353 -211 484 499 23 111 0
-328 375 354 -27 473 290 0
-348 316 2 -24 0
-180 469 -424 187 -124 0
42 288 314 471 -25 0
-185 384 -128 -387 0
-97 -78 -466 451 0
-455 492 260 -3 0
-183 -49 -236 -330 -59 0
-53 279 -426 257 310 346 0
-304 447 56 -457 -201 0
-32 109 347 -307 -120 315 0
-70 -448 176 473 229 0
-231 -28 387 372 434 0
-225 189 399 90 0
-235 -145 -41 242 0
187 343 -184 -198 0
-264 460 -439 166 143 375 0
-423 250 62 30 -55 332 0
-72 -413 369 -158 179 0
411 -290 -273 -412 79 0
288 -401 129 81 -82 0
-85 -99 235 -161 -272 269 0
467 452 210 365 -221 -471 0
-75 437 -460 195 0
-406 345 30 67 0
-402 -128 1 -343 213 270 0
280 -153 -330 140 -191 0
-12 142 -305 -231 313 406 0
374 48 -24 151 0
151 -450 -28 99 0
43 -392 -376 500 127 365 0
-362 4 476 257 444 -177 0
-225 -395 -268 -376 -472 183 0
-210 -135 402 381 -106 0
458 -495 -170 315 0
155 477 478 123 0
329 482 24 -291 381 153 0
345 63 60 423 -378 -421 0
-36 -144 -225 -357 -21 0
155 500 333 9 0
272 -10 425 297 -313 -55 0
-356 -209 202 141 172 0
70 -280 -250 327 -88 0
369 -398 -120 38 461 206 0
400 327 -223 464 326 0
306 -221 -35 491 247 0
308 172 -381 356 32 -191 0
405 203 10 431 -59 -179 0
178 382 365 325 -323 0
151 -148 -372 381 0
-295 301 222 -424 -41 -488 0
-276 -198 -94 82 0
289 -49 363 372 0
-316 399 266 356 453 -96 0
-263 -96 -242 478 465 0
-378 -353 238 -91 0
377 -478 457 -198 2 -271 0
437 351 -395 458 -69 -173 0
-477 217 49 21 -282 -87 0
268 -222 448 -100 0
-124 413 -106 365 0
-289 -174 -449 -318 -123 -357 0
-1 300 -488 -49 0
-341 255 262 -354 -127 0
32 311 411 -7 0
-259 -294 -56 201 -397 0
-388 278 -160 -40 0
398 -34 80 299 -218 -479 0
476 -494 -77 93 -416 0
287 211 -421 -376 0
-340 162 -290 363 0
-328 487 -91 330 -78 0
-260 177 393 -136 -27 0
412 -442 -163 -476 0
186 434 146 248 -291 0
-404 374 -71 133 189 403 0
207 92 -288 441 0
-289 125 -43 345 298 -362 0
-153 465 210 479 0
499 39 -269 236 0
-274 -68 -281 -496 279 0
370 55 13 -154 0
-66 -69 462 313 0
473 483 -358 156 57 -353 0
88 -129 255 -38 -269 0
397 -329 -324 -218 361 0
-408 -215 -53 290 0
-54 425 19 -147 -349 0
-147 183 -452 -27 0
16 -116 -40 452 0
-303 309 -137 -66 -87 0
369 -74 -493 -316 98 0
429 -461 -174 -480 274 0
-74 170 223 303 0
-107 304 383 -472 413 -243 0
-102 110 383 -447 175 0
-320 -322 -185 -257 41 184 0
417 -331 497 207 0
435 295 312 -294 0
258 194 75 -192 -450 0
-62 -215 -408 213 116 -393 0
-13 -211 -384 -408 -476 0
158 -497 -175 -487 0
439 106 152 130 260 -47 0
358 -225 -143 340 102 146 0
83 -335 -289 -23 494 125 0
-404 14 69 159 0
-144 -461 431 393 0
288 402 235 375 0
393 115 -280 -24 148 0
292 476 -382 -103 0
251 331 318 167 336 -176 0
76 348 213 -61 0
-201 -76 -408 490 0
278 -162 465 90 215 0
475 476 -190 105 113 -398 0
-88 -266 -142 -250 0
-195 -92 271 -274 -223 -293 0
460 395 396 67 -296 -14 0
-296 232 -404 480 285 -10 0
-473 26 -319 449 98 361 0
-11 -102 141 -198 0
-453 -466 295 -269 0
101 290 -486 68 -397 0
-222 438 276 -200 478 0
463 38 192 395 0
-49 -268 -142 491 0
-267 231 -243 268 -424 365 0
-88 137 -312 -333 0
-112 -25 -399 46 -195 -328 0
151 -355 144 125 0
-465 -436 387 425 0
455 -396 474 -487 0
248 -444 -15 111 0
420 -84 -482 467 -384 -257 0
-136 211 -161 315 81 0
25 383 78 43 -343 312 0
386 412 -293 -208 0
416 487 390 439 0
-315 -150 -38 -317 -195 0
14 -226 -443 -30 323 265 0
-327 -8 -467 -399 35 -75 0
102 395 86 447 -145 0
-285 342 215 198 0
-175 -347 -216 -384 -473 -66 0
84 -490 500 -68 428 -468 0
467 63 344 212 0
199 170 -83 187 8 448 0
-395 -84 55 122 235 446 0
230 456 136 115 -386 -72 0
55 -139 396 -278 -315 429 0
236 78 -332 358 466 -74 0
-170 -483 320 149 -60 -291 0
5 -465 285 -38 -106 -461 0
82 231 176 321 0
-247 -273 -158 -312 -418 0
-47 487 -133 -146 0
90 -252 4 -49 222 0
487 -17 485 374 0
395 -489 76 -167 0
-92 -9 50 -433 264 -416 0
214 471 -334 415 -21 0
-296 418 43 467 101 0
-301 -237 -102 232 412 0
447 73 414 236 0
-35 -202 358 -449 -258 0
-280 -192 -176 464 342 -156 0
296 -429 -165 -207 124 0
-262 -224 -198 135 -99 0
-171 372 -429 343 -158 266 0
294 -333 -107 -454 0
-175 -181 -13 -151 0
-473 -492 -19 -56 0
481 322 450 -85 229 0
84 135 -70 -395 229 0
-196 -68 -362 268 204 -381 0
-470 -486 -320 -133 0
183 269 129 491 -400 -350 0
-64 191 -362 392 -248 0
209 160 254 155 441 -369 0
356 470 240 -177 -157 179 0
174 41 477 -328 -290 0
128 -104 281 472 -80 0
-25 378 -27 -466 409 498 0
44 254 -375 -281 -481 0
-227 -325 169 -465 0
-405 -461 -328 -451 0
-444 -460 -1 -102 380 0
241 292 -413 -239 204 0
-148 -140 -398 138 0
137 75 -428 -209 0
-472 -468 285 -221 314 2 0
95 -63 148 -156 -69 -60 0
-107 336 -302 113 151 0
-195 -432 -51 180 0
394 151 498 -451 272 0
-87 -367 244 490 387 0
239 -131 -130 189 62 0
-30 168 -77 65 -351 0
-296 -363 -200 -11 0
-138 263 362 -234 422 0
59 -457 -221 -425 -370 -196 0
494 34 427 175 0
-419 314 -210 224 0
499 8 80 211 219 0
-263 -265 85 -381 485 0
250 236 -425 233 -38 0
-301 133 -236 -500 -119 105 0
17 -328 -443 -273 -247 116 0
-180 -134 379 -65 0
-323 -343 -432 -68 0
-159 248 -77 -16 119 0
-102 -21 465 494 80 0
-331 475 -454 286 0
487 71 -459 -213 -79 480 0
154 -441 326 385 0
-387 161 65 334 7 0
35 296 215 69 -30 -281 0
252 -357 97 -405 352 -381 0
-344 148 154 -354 0
-24 -110 -192 -156 428 0
493 462 57 159 0
25 430 420 -87 310 464 0
288 146 -486 498 214 -164 0
-440 -3 -277 -402 349 0
19 97 -241 -343 23 0
487 247 -91 -270 0
205 -218 472 182 -119 0
26 421 -146 -420 334 0
326 -261 -428 196 0
-92 489 388 306 -205 -299 0
289 12 394 85 0
57 -322 -263 268 -329 0
472 368 444 -432 -3 405 0
-484 -181 281 -304 294 0
-38 -409 30 165 121 0
-227 -450 -377 -148 -354 -311 0
251 -219 330 47 -183 -166 0
-227 -111 -396 49 342 423 0
323 390 -21 421 0
-470 -107 -255 -31 183 0
-373 41 -63 188 -470 -491 0
208 -201 78 483 353 26 0
-196 -127 -8 -278 0
-2 -120 341 -278 -10 0
181 352 -115 -446 167 0
441 -121 87 107 -468 -455 0
-258 -409 -470 -32 -478 0
25 -281 -298 161 0
-266 107 257 -256 0
43 229 -488 354 70 0
-144 319 -344 -439 0
161 20 270 247 131 330 0
194 -210 -254 -382 304 422 0
166 -10 -55 -438 -87 -484 0
197 -317 -430 498 -245 -31 0
155 116 476 -420 489 108 0
393 -202 439 -291 0
223 -108 -238 235 -420 -459 0
-240 426 -374 428 -451 0
-488 -272 -243 79 277 -124 0
81 357 19 -333 239 -99 0
110 -327 235 406 324 120 0
-278 -324 8 -129 91 0
-180 284 -327 -135 68 306 0
278 -326 -78 -39 0
67 -382 162 -270 0
198 -364 -276 414 -461 372 0
-92 247 -67 -479 245 -95 0
-21 303 52 -322 0
291 -235 255 -5 19 0
-384 219 334 410 17 0
-318 -154 45 -70 -113 0
-39 358 -361 -124 405 -280 0
-348 -456 -212 478 -27 0
-451 -278 452 -287 103 0
70 408 428 -144 -125 -184 0
92 383 -133 263 -362 0
-330 -401 210 -187 24 -98 0
225 -59 413 -433 392 482 0
169 -272 328 174 0
283 99 -223 37 346 -469 0
-262 355 -324 -214 0
401 -280 204 436 189 0
-32 -137 375 -420 151 0
73 344 -135 -141 -271 40 0
-423 -112 -403 334 -469 107 0
-322 482 -172 257 0
-92 -478 -15 35 -258 0
-182 354 357 -417 0
237 -325 -365 161 242 0
189 -416 -24 216 266 0
-146 401 -415 348 -292 0
-395 -259 -460 149 0
-69 127 44 -468 -307 309 0
-472 275 144 -67 471 395 0
-54 -410 19 -390 497 0
480 136 -299 -371 0
-10 65 41 -347 0
314 -172 -439 29 -499 -125 0
282 411 43 277 -414 -221 0
-35 343 243 264 -461 -175 0
311 95 -348 191 352 0
-59 -140 -4 172 -204 353 0
487 -339 -129 127 -80 -84 0
99 -61 -332 182 0
-61 69 -348 -427 0
62 -263 -343 -304 0
-403 69 409 283 111 0
-54 -123 -408 -436 0
481 -333 498 -266 429 290 0
103 230 34 494 0
-276 230 462 227 0
-399 -202 -19 285 463 -237 0
151 144 -274 79 0
-447 318 -28 -204 0
-78 -417 455 359 -451 0
221 263 482 -345 177 0
-93 97 -185 -452 0
-384 483 224 405 -479 0
76 183 93 -323 -204 0
-331 122 287 -161 425 -199 0
-435 -463 156 -31 0
-313 -36 -445 -50 194 0
-103 -429 332 269 -243 0
486 320 75 477 0
352 250 -268 -121 0
-16 -190 157 -69 -335 0
167 422 -81 -477 415 0
-140 -86 429 -175 0
-2 474 -7 213 277 0
-167 46 225 2 -494 -184 0
-29 -220 -319 -79 0
-191 -424 -140 -473 303 98 0
117 467 -371 -71 10 0
-93 237 275 381 117 -294 0
125 436 -142 -244 0
-51 -421 425 459 -120 500 0
212 166 -16 284 0
224 154 -232 -43 0
-211 405 -3 412 -52 0
186 282 121 -296 -460 -355 0
-23 438 399 -315 -62 0
-372 426 362 174 0
422 -36 -213 485 0
108 -144 290 89 -255 0
-188 300 -464 -278 0
-349 105 -158 -165 -459 -480 0
-327 -172 277 462 267 0
-302 417 305 -127 0
-448 477 231 -191 0
-204 -215 434 374 325 0
297 -406 -329 -180 142 0
-185 -300 442 141 0
33 222 -140 -340 230 117 0
-455 416 -207 -110 337 -295 0
404 -42 91 185 321 0
384 -285 -203 271 -289 0
-434 303 -249 194 0
404 -223 322 412 426 0
439 359 -288 -331 128 257 0
375 -23 -441 -169 -211 -500 0
186 444 -112 425 -417 -139 0
-370 -211 -243 -342 0
-301 323 -347 191 -364 -279 0
-10 -446 134 481 -464 -162 0
31 183 389 102 242 82 0
65 300 -384 364 160 135 0
-192 75 443 195 218 0
-145 104 -125 -488 0
-160 79 -25 36 -206 0
-33 -278 -89 -185 0
138 -468 -80 126 -415 0
-64 421 120 -35 -208 -126 0
348 21 -344 340 -301 487 0
81 -287 -264 -454 -89 0
425 -239 -105 -185 333 14 0
455 432 -311 -60 0
-459 -172 321 3 98 213 0
197 400 398 -498 0
-224 122 -114 -148 457 0
378 -422 -252 -143 300 0
238 247 -58 -388 463 340 0
412 339 110 -182 -11 183 0
-223 163 397 390 0
242 -229 133 -421 0
125 218 -76 397 0
139 297 342 292 0
497 170 51 -288 115 -379 0
-500 380 -307 -73 457 0
435 387 351 -306 0
-412 434 314 -479 -358 361 0
201 -217 35 -457 203 0
299 164 -483 -285 64 381 0
486 -392 17 22 0
-284 70 -131 -96 -308 140 0
71 243 336 -188 388 0
-430 -471 -218 79 10 0
220 11 226 -169 0
-168 37 99 448 -276 -169 0
-438 -21 395 -24 -89 0
179 -497 -219 247 232 0
401 438 108 21 -311 0
216 122 -234 226 0
276 -382 -104 -230 -161 -495 0
413 375 224 301 -65 -153 0
-207 304 19 -34 137 0
-82 -352 -334 -172 0
-171 489 16 259 366 0
485 -352 198 117 -309 426 0
-24 199 -48 -341 195 0
-267 394 -13 -270 -117 0
-379 -159 -15 54 0
414 -72 -55 433 0
-70 168 327 -419 241 189 0
48 343 -386 495 -397 -347 0
260 138 344 451 -463 290 0
480 -263 478 329 0
408 -382 -406 465 120 0
358 239 -485 215 123 37 0
310 -52 -379 -427 -250 426 0
343 390 -224 -461 109 0
-159 -390 -110 201 445 29 0
-144 354 -179 264 0
8 136 -373 13 304 0
295 24 -480 496 -203 159 0
-331 168 -326 -222 379 0
33 37 -251 226 175 207 0
-167 -237 -384 -268 471 326 0
59 198 387 2 113 -304 0
-380 155 371 384 464 0
197 111 446 -39 -496 -451 0
353 -274 201 58 0
-64 53 399 128 0
-7 -72 369 280 -141 0
242 -93 114 -392 39 -374 0
51 323 331 152 -313 -132 0
301 296 -274 414 189 0
268 -322 -475 -78 -488 0
195 400 277 499 0
490 -176 432 -464 0
-352 -65 174 80 244 -232 0
422 471 58 -463 425 488 0
227 -131 -263 446 -185 0
-328 126 -390 428 -145 0
70 97 8 61 -4 0
-384 -173 -37 219 -46 136 0
335 245 139 69 0
463 28 -256 207 0
419 40 417 -179 123 258 0
-102 347 -181 -160 -455 290 0
454 168 38 383 0
-290 106 329 -326 -444 -321 0
316 367 -435 276 0
366 180 112 197 467 -22 0
273 465 62 -495 -52 0
-389 -384 341 303 0
49 58 112 348 0
-208 -74 130 -135 157 190 0
-344 161 308 -493 320 -374 0
-61 -149 -163 64 0
-189 347 84 -151 0
128 -329 401 -122 0
469 -86 -467 35 0
340 292 135 -117 233 0
18 -419 424 -312 0
-402 497 -328 -366 0
100 467 -326 125 0
161 8 479 -368 0
-195 -369 174 422 256 0
95 70 -300 -420 333 251 0
116 -463 426 -402 -309 0
489 447 139 307 -102 0
-252 -434 -485 -246 125 287 0
-158 -55 -146 -370 -397 0
-267 454 -264 -12 -162 280 0
-24 342 479 -319 252 304 0
-386 -267 481 -467 -80 385 0
57 -296 88 313 277 500 0
269 -346 -146 -31 227 0
433 -462 60 390 0
166 6 361 200 469 -70 0
201 171 252 -213 217 0
-390 6 436 -396 -163 0
-198 353 -390 -360 -87 0
-294 397 -199 -119 0
-102 -210 -400 -325 445 243 0
214 -494 -152 56 0
429 -62 193 275 0
-267 328 -19 -138 206 0
-487 278 -173 74 0
-269 -180 -330 33 -138 0
-450 47 489 -128 -166 0
-357 -148 446 274 -329 0
149 -167 275 59 -444 209 0
345 14 352 -153 0
-265 409 152 -480 0
417 247 79 134 23 0
-256 302 340 -310 0
-152 -361 -116 -431 413 0
-94 286 -409 66 0
56 -343 -219 -201 -320 -80 0
281 36 200 -27 -338 -168 0
142 -192 -431 -317 0
103 -434 -186 402 0
460 -111 230 -44 -120 412 0
-25 431 -129 361 0
406 -165 -55 -149 21 384 0
-2 -407 -164 317 -33 379 0
-257 471 356 54 160 0
-323 -152 -57 -388 0
478 -9 169 486 493 -329 0
106 142 -256 -262 172 0
32 11 -500 -477 0
69 485 200 -366 367 143 0
487 263 414 283 0
259 334 -49 252 0
204 -343 -199 154 -358 -445 0
227 -442 360 238 310 -400 0
488 -354 -225 92 0
205 -19 -398 -384 0
16 434 87 411 0
-19 59 161 -422 -265 0
-377 229 -198 399 0
484 192 -86 -127 -11 -167 0
48 135 161 -334 -53 0
-414 -210 263 56 0
-343 214 -159 465 383 197 0
204 -241 -153 -446 0
374 -78 -54 -292 0
270 -255 -127 351 353 0
-230 -57 -126 369 -36 0
-352 -413 -331 474 0
-164 81 224 -422 241 0
-12 130 14 46 -321 -161 0
326 -351 398 315 0
-215 -290 200 70 0
-222 158 -147 -192 307 314 0
-133 -400 100 -207 0
183 208 489 138 -365 0
484 462 106 272 434 0
-193 -496 -234 259 -369 0
419 336 -35 -489 0
-429 -264 -33 -371 397 113 0
264 237 -170 -228 426 16 0
-354 345 405 -208 0
429 115 -288 -136 0
266 -321 -315 355 0
319 223 488 -76 284 12 0
-308 -419 -449 4 404 -304 0
84 -17 -373 348 0
-311 345 -78 -385 0
310 485 288 297 64 0
-195 -232 455 -306 -327 0
-167 256 356 -440 -68 -122 0
190 336 -250 -473 286 0
-416 456 -244 59 0
232 20 -248 151 66 -239 0
-275 -45 -314 -403 0
233 220 -163 -67 270 0
297 -455 -258 473 -194 0
223 -401 -26 -213 141 0
117 461 -136 45 -412 0
376 277 456 -235 -379 0
-224 22 -207 430 35 0
-435 -490 66 269 -400 454 0
-108 -19 346 309 0
-279 -369 -283 112 259 220 0
126 184 278 -46 0
324 -384 -319 -211 0
341 -49 -295 398 -211 0
-150 -306 -101 -92 -284 0
281 50 -30 173 -286 0
-110 -128 227 339 -365 0
106 -490 -232 -51 243 22 0
-185 -58 -1 348 -223 0
-442 -127 -424 430 0
-202 -64 -252 -51 326 -80 0
-141 -253 40 232 0
-162 -473 -222 -274 -249 -242 0
-82 4 125 274 0
-112 -211 310 -62 0
-77 -30 500 137 320 0
-392 -478 -256 -118 0
224 -40 208 -351 457 0
-484 -75 -173 271 -203 0
-406 -324 -125 -23 78 -99 0
59 332 16 389 0
355 308 -47 63 -166 0
-414 -308 342 224 78 223 0
-410 -129 -8 -35 0
-2 -154 416 109 -345 0
-498 -237 151 -482 -426 -322 0
148 71 -270 -186 -225 -423 0
-72 -33 13 209 370 0
382 -344 -124 -458 0
-339 -10 203 285 -343 48 0
183 -130 308 17 -415 402 0
487 -422 108 271 200 0
-25 -8 155 215 -474 -61 0
161 -149 -245 74 -4 -494 0
50 167 -403 -129 -404 0
-230 -301 345 -204 186 -300 0
-36 -163 -409 -312 311 0
438 321 -348 478 100 297 0
316 -457 -445 -26 0
-317 -201 414 -257 398 0
-395 380 216 -220 0
-444 47 92 258 474 0
-171 -462 500 -251 -227 465 0
-251 -113 -368 146 327 -197 0
258 -460 207 370 -358 0
-55 279 -346 -146 0
454 -188 -289 18 0
438 206 -226 -84 0
21 -470 -111 75 -401 41 0
406 -159 53 323 126 0
454 64 356 -336 35 -256 0
-46 -374 -339 -419 299 0
-277 204 -476 270 -307 0
-247 39 -326 -305 462 0
-338 -155 -152 -111 313 0
418 144 -102 380 80 494 0
194 -184 13 475 -105 0
-58 247 -43 87 -70 0
189 128 38 -39 115 -296 0
262 -91 -451 -71 73 0
99 -396 -470 452 -279 0
-246 349 -305 -66 483 0
148 226 -85 -42 0
237 -193 -60 -244 -179 120 0
225 -378 227 -337 -112 0
-329 -426 -223 -197 313 67 0
-478 327 267 233 -139 0
-204 -174 -210 -482 360 -283 0
256 355 -268 25 49 407 0
494 336 -164 -380 0
474 379 -17 -287 0
295 414 51 -88 0
231 107 91 430 -22 0
378 -153 -16 -107 0
144 394 -448 458 -367 -479 0
-288 -428 399 -184 0
-14 222 482 439 -78 446 0
125 -6 151 -462 445 0
252 298 -387 -270 392 -419 0
-369 84 379 151 0
-338 -267 -245 231 -87 173 0
-96 447 -300 -498 -302 -413 0
-156 -480 -315 170 -298 -356 0
99 -338 -404 -143 -297 0
-218 243 -196 -48 0
96 26 86 -270 -94 -3 0
-311 72 -224 360 0
-131 -438 -378 -158 -118 0
161 -263 491 -74 0
493 232 488 -356 159 280 0
-89 -315 -60 -239 0
-427 149 -425 -327 -225 17 0
93 200 -42 286 -146 0
284 -151 -313 -439 -373 0
16 -301 46 416 351 0
-246 371 162 35 0
338 -162 -138 403 0
97 -79 -107 440 -303 0
164 361 286 76 335 0
-417 -459 -238 -452 0
-320 -180 -88 -310 0
-272 96 184 -203 0
454 -467 -392 -107 202 60 0
-330 -183 -179 -313 0
-35 308 284 92 0
471 -34 291 -271 -175 -287 0
392 102 -63 259 462 -488 0
357 363 465 -320 0
-478 -14 -187 136 0
79 -268 -108 348 0
21 333 -350 -170 -124 -108 0
175 -266 -149 -166 -282 208 0
-386 360 145 368 437 0
404 -426 391 395 0
370 -309 424 270 -68 -184 0
160 -217 -195 293 242 0
-284 -439 340 468 0
-142 -303 -461 -63 -24 0
-231 -235 -495 443 158 0
304 -273 318 -187 0
-4 -350 42 171 0
303 -108 120 -25 109 -226 0
-384 -61 -169 -358 -383 489 0
378 -27 473 -255 0
-428 204 -97 -358 -276 -122 0
-131 -340 470 249 -312 112 0
113 -42 -200 164 303 0
435 40 -430 -206 -120 0
-316 500 -256 -273 -112 0
317 407 -417 286 429 9 0
230 -266 -471 380 400 0
-415 -270 -320 -231 -7 -292 0
374 -312 -465 172 234 0
63 499 207 365 0
272 19 147 -251 -327 0
-257 -377 -17 -34 329 0
-36 382 145 139 0
-398 459 126 -208 262 0
-393 -208 278 399 0
285 212 28 76 0
-383 450 193 -93 163 0
391 90 -3 -249 310 0
-474 139 -182 -272 0
467 37 -73 341 0
-363 -225 344 265 0
-389 -142 -387 128 16 -4 0
-298 -465 -289 -28 0
28 -102 210 366 -116 0
-236 -392 81 -27 95 0
-255 -225 297 378 480 0
-104 -227 333 -89 73 0
182 148 489 150 452 0
-299 -426 -176 -26 0
-385 -128 -366 345 90 0
473 222 -308 427 -445 0
-99 -232 467 27 -368 194 0
237 -169 -475 412 161 -413 0
250 -53 296 285 91 0
-22 369 -85 480 471 0
-192 -427 481 482 0
135 480 274 246 0
-341 -225 -177 -192 335 0
-364 481 -376 67 -33 -297 0
-104 39 -135 487 0
-493 -69 -415 -163 -207 0
421 -457 141 -80 399 0
-11 -111 -445 -286 0
-179 -183 348 -125 82 0
79 -200 62 -334 0
-368 -105 -192 256 0
-50 290 -311 -156 0
-352 -73 -247 -396 0
428 -305 -357 315 412 -293 0
108 277 -315 375 -189 26 0
-237 490 493 -407 -259 0
112 385 264 121 -185 131 0
-212 -450 189 -102 235 0
391 -64 -342 325 0
173 204 -82 -105 0
-159 -339 155 455 493 0
-368 106 -496 -349 322 -323 0
-317 -183 472 369 -370 0
356 -193 206 -316 238 186 0
-90 124 210 -500 -300 187 0
179 320 389 63 434 0
21 -104 152 250 0
312 383 -488 -445 0
-203 -439 116 -218 -393 0
-333 -255 261 265 375 0
-139 269 103 149 0
368 247 -9 -113 -202 34 0
-226 476 89 27 0
400 494 -330 197 -208 0
85 -326 -267 -383 -237 -149 0
-346 -119 144 160 -293 -458 0
-391 -353 448 52 -419 -134 0
354 182 -471 36 -343 -440 0
-441 -14 -108 -308 336 -61 0
-424 -374 -422 87 0
-31 -94 215 245 -345 0
401 70 36 106 0
-341 -395 -297 202 365 -271 0
-1 -460 95 273 0
-497 -301 250 78 -343 141 0
-58 65 282 -337 255 95 0
57 -450 -281 -461 0
297 342 87 -247 61 -445 0
148 170 -456 281 -309 0
-185 -4 -220 30 -420 0
287 128 18 -196 -210 0
427 -297 -171 249 -223 0
-86 246 244 -209 0
217 -152 182 -448 -199 0
263 -260 -289 112 -212 0
-294 5 55 172 -132 0
244 -61 235 -407 0
-23 -378 -293 -90 0
384 254 -307 263 230 0
-184 -92 -58 -154 -224 418 0
272 108 254 -20 391 412 0
-430 103 227 -224 -452 43 0
392 -225 366 359 479 0
-458 54 163 -447 -223 0
323 -92 58 335 70 24 0
-364 335 -170 -133 -471 0
-231 6 368 -470 0
-50 391 86 295 -23 0
392 -483 320 -31 0
374 355 -141 -213 350 0
-489 -472 -288 417 -238 358 0
173 -393 -39 214 -460 -144 0
73 -268 251 171 258 0
324 -177 326 -404 0
114 134 -43 249 0
330 184 -273 -328 -346 0
-393 95 389 -72 -157 153 0
-154 -347 -264 417 -35 0
250 137 225 -94 476 0
-105 -442 -320 -277 -447 276 0
47 190 27 308 5 324 0
339 -323 234 284 0
-173 -2 -80 -67 -446 -499 0
304 -91 -1 -39 0
-351 -168 48 366 -42 -10 0
116 -315 -193 174 0
114 -90 145 -64 -441 0
-228 -160 124 -468 447 0
400 -26 375 257 253 437 0
-313 377 302 192 368 0
427 241 461 183 150 0
-435 -469 94 -250 336 118 0
-300 -228 42 9 0
-167 200 -463 -182 -172 53 0
-256 -258 -117 370 0
-213 -146 -393 209 0
-235 89 17 -398 -444 0
-254 133 328 -283 369 -488 0
27 -11 -115 350 0
-463 301 407 -57 0
-451 -109 452 -482 -246 0
-34 -28 -6 -344 -232 -133 0
-433 294 374 235 -25 0
142 -469 -17 101 0
-491 -63 98 170 0
180 -50 -379 264 0
-105 226 382 110 22 448 0
423 -255 61 351 0
-141 -359 484 58 -390 155 0
370 71 -105 -273 93 0
250 254 -76 239 -326 -303 0
-166 336 -116 470 -29 -294 0
-26 114 202 -340 -427 254 0
81 16 -201 497 -348 -494 0
-193 431 380 131 381 -294 0
339 -81 -410 489 -196 181 0
-382 413 -6 114 5 448 0
-414 380 8 72 0
230 -303 -48 -411 -95 363 0
-379 -144 145 -203 -113 196 0
-131 149 232 139 348 175 0
-107 389 -479 -464 410 264 0
-329 -130 286 -449 -392 359 0
-371 -49 -206 -290 0
-332 150 -318 275 105 21 0
-398 -422 48 -414 232 500 0
164 10 239 -431 383 0
-125 -248 284 251 123 -153 0
126 -118 -283 469 -195 -464 0
125 -267 481 285 -160 0
-110 156 371 -418 0
295 426 -301 367 241 -75 0
205 -62 -444 -221 0
20 -215 477 298 -359 -97 0
158 264 466 152 -270 0
-87 69 282 484 160 0
374 37 -29 435 0
-3 200 441 -445 243 -235 0
462 -68 -360 401 498 34 0
-283 186 -307 397 -149 -373 0
365 224 480 50 134 -141 0
-24 428 169 332 8 0
-123 146 -233 -411 0
339 -317 -424 -167 0
-124 -23 -208 252 0
-359 -489 99 449 297 468 0
-227 -166 -14 115 304 0
173 364 -191 -277 98 0
113 461 193 -17 -491 0
-5 -465 13 -180 176 0
240 49 -100 481 -6 0
382 -240 -334 313 -488 0
469 -63 -338 186 -329 0
-279 496 277 109 -399 0
317 -369 309 82 121 -40 0
221 -134 375 -388 -49 0
-218 398 238 408 0
491 -299 -44 -445 455 0
29 -238 461 276 -440 0
217 -433 230 207 -195 99 0
142 -343 392 35 0
351 -266 26 317 60 0
-432 -134 -486 120 -314 82 0
342 -409 -497 297 -379 0
-30 -316 15 92 -352 0
164 343 -114 -24 0
-430 483 183 -386 -306 0
-225 148 -163 127 -334 0
28 472 35 17 -121 0
423 381 -455 -480 361 -297 0
-385 272 440 -287 0
338 499 -180 490 0
-436 -230 -118 263 0
-59 158 -427 231 81 0
-346 161 -383 195 102 0
383 289 348 -489 -27 496 0
-396 148 -3 -331 176 0
162 355 -444 24 345 0
-145 -307 -250 -113 46 313 0
498 -250 403 -78 -179 -279 0
-490 -244 -307 204 -29 0
-66 -253 340 111 174 202 0
-476 -302 -339 67 -111 114 0
282 348 377 273 0
-215 -51 -255 -87 0
22 -7 74 -21 375 -381 0
265 -41 -304 -251 235 0
-133 -492 -337 -309 -5 0
49 -35 -461 426 -269 0
342 -207 91 343 0
28 -330 250 351 -45 0
337 282 -88 306 -164 347 0
-232 -198 -79 115 -339 98 0
418 113 -416 478 -454 -318 0
-57 -209 -85 466 0
411 -447 -68 -32 -292 0
-286 -314 142 -42 319 -273 0
228 387 193 328 -206 0
330 95 -208 -109 0
337 241 -2 357 0
-136 -431 252 416 -83 0
321 233 -388 452 -288 122 0
-165 -151 214 -49 0
485 -380 168 473 234 0
449 124 -89 -155 215 0
-86 95 -291 -165 0
107 49 497 257 0
-383 -255 137 356 -408 0
130 -140 333 479 155 0
-251 -385 245 -296 0
-116 353 352 107 67 0
18 -123 440 309 24 240 0
-16 -466 208 431 0
103 125 41 361 356 0
-228 -36 -235 -332 156 0
106 327 -266 65 0
-425 101 -30 -331 0
