c Easy-SAT formula for GPU Gaussian elimination testing
c 5000 variables, 10000 clauses
c Designed to be easy to satisfy (fast SAT) but large (slow GE)
p cnf 5000 10000
1 0
2 0
3 0
4 0
5 0
6 0
7 0
8 0
9 0
10 0
-154 3013 4440 -2746 -3076 -2583 0
-2447 277 -3169 -206 0
3641 4181 429 -4161 4461 -1547 0
4565 4959 3266 -651 0
619 -3971 -241 559 2372 4139 0
-2883 2749 -715 -4749 0
-3364 -4865 -4834 3221 -1326 0
1095 1897 4959 -2297 -1230 4902 0
-23 984 -439 -1192 -4300 0
688 1613 -1841 -3123 418 -4942 0
-2699 513 -651 4025 4257 -388 0
218 2282 -3635 2212 4572 1413 0
-4006 -2659 768 2304 0
3776 709 1816 -956 -2584 115 0
-805 -2737 2767 -785 -4617 0
-3997 3701 1357 -4086 1574 -4199 0
4126 -1632 -198 -3235 -4954 0
-311 -4422 -3881 1627 -4665 0
795 -3386 4398 -1365 0
4378 -3389 -1881 -2819 4929 0
-686 -2916 495 2392 3953 0
-365 -1917 -2162 -1975 0
2878 -2981 3045 -2047 0
-1121 -871 -1749 -1839 -4517 668 0
3403 3072 2079 -1181 0
623 3883 484 -3583 1269 0
3716 -1758 -2466 2178 2098 -4106 0
449 4783 1622 4684 2521 0
-638 -3916 4831 2760 0
-997 4374 -1704 1705 0
-2982 -4725 -3827 1902 3733 0
-3916 -4044 -3291 -4106 0
-969 -1486 -4357 3949 -4052 -3959 0
-2902 -2831 -4829 1936 0
3182 -2281 -785 807 -4777 -856 0
-628 -3237 -1047 -3652 0
2844 2840 -3655 -80 0
2421 -3456 -4186 851 -864 0
-2430 -774 1080 -1841 -838 -3734 0
1334 2571 -1860 2335 0
669 3204 3253 -1654 4287 0
1822 -4161 2838 -1533 2661 0
3753 4683 -781 -468 0
4010 -4357 -3361 2014 1795 -2333 0
-3470 -255 4610 -3178 0
3674 2311 -2182 -771 -4065 0
437 1465 -1876 3350 -2538 4153 0
2951 -4183 -4231 1978 2497 0
2923 -4119 -2661 4657 -2990 3867 0
-606 4955 -2702 -1684 0
-3801 4316 4533 3417 -1161 -768 0
2445 -1398 -3747 3548 -559 4770 0
3215 1307 243 -4850 0
-2253 89 3009 -1118 313 4112 0
-1473 -818 -2997 -2418 892 0
-2749 3314 -3665 -618 0
2096 -1017 -2756 -4037 4250 0
3634 1803 3918 1942 -2732 0
4509 1207 -2436 -4719 0
2337 -2833 765 1463 -3609 0
-4211 -1652 -4473 -445 2343 785 0
3422 3899 3142 -4141 0
-4403 1668 3876 -2431 3496 0
3108 -4923 2263 -4940 -906 1026 0
142 1874 -3313 -5 0
-183 -2004 -3921 782 0
-1477 -3731 -669 -3614 1878 0
2087 -2558 2989 -2324 0
2035 -743 -1405 749 3870 0
-4125 4298 104 -2539 0
-120 -215 -2379 -1480 -3593 -44 0
-1045 -972 -1528 3030 3111 0
-1214 3569 -542 2390 4021 0
2178 -665 -4643 -3474 2161 0
1499 3155 657 -2845 3664 0
2248 -3008 -2127 -2226 2113 0
95 1394 3479 -4910 3439 0
2102 3180 378 -1767 0
-2739 -566 -4634 3896 812 2191 0
-833 -927 -4758 -2834 4008 1173 0
-4489 -236 -3996 -963 4712 228 0
-1481 3057 -1984 1544 418 0
-2910 4113 -2249 -558 0
-1276 -746 -4967 1991 0
2047 -1270 -3795 -1227 -3023 0
3022 -464 -459 4451 -3082 -4252 0
-1162 2990 -4424 -884 2221 0
-1046 -3766 3873 -3424 0
3258 -3004 -2270 3398 3466 -4844 0
-4638 -4980 891 2006 549 1181 0
-643 -3754 4326 1099 -1857 -4112 0
-2824 -1112 3133 -3825 -2793 0
-2764 1678 -3864 -241 0
-340 -3114 4585 4002 3097 0
725 4178 3089 -3045 -2193 0
4277 -4157 -4931 3953 1020 -4519 0
-4024 2294 -1246 1711 0
-1804 -3285 -347 -39 -4968 3161 0
-2201 3751 1320 3920 -3579 0
-171 -3908 2808 -1262 4304 233 0
-2847 -571 4167 3738 0
-177 930 907 -1326 0
2760 3141 2644 4719 2397 0
-39 -859 2761 3814 0
-4335 -4358 1926 -3020 0
-1692 -4010 3377 -4067 -2734 -2244 0
-4255 139 4374 -3303 -2785 159 0
-974 -3162 -3453 616 3662 0
-1146 4489 35 2999 4599 -2826 0
2086 -269 -1151 4600 3154 0
-4541 -3965 -425 -2947 4199 0
3306 -3663 -422 -1292 0
-4061 -2640 4911 591 -1348 -809 0
-1363 -2336 -3535 4131 0
-139 -2709 -298 -306 -4762 0
4861 2511 3591 1141 0
-1988 1091 3552 547 2253 0
4396 -4113 -393 1023 0
-1737 -3201 3008 4300 4412 0
585 -3104 103 -995 -864 3372 0
-4261 -2008 -3523 -3991 0
-2729 2965 -347 -4117 0
3156 -1016 290 2809 -4280 0
-814 -3730 -4904 -3512 0
1407 -3815 3175 1482 -2833 0
2597 -3881 -1144 -515 2677 4805 0
-918 -88 -1395 -584 0
2278 -3967 1390 3782 -1980 0
-4711 -662 -1816 2341 -864 4511 0
4698 -4557 -4264 -1711 4320 0
3645 4687 4590 1149 -3972 0
1965 -1924 -4014 4195 0
-3974 -162 -1315 3893 504 0
641 913 2885 -910 0
1696 4597 263 3771 679 -761 0
3693 -1743 -84 -3113 0
2031 -2642 -1878 1480 4052 0
256 -2699 -2301 -1923 1586 0
-1032 6 -2664 3905 0
602 2821 -1183 -1169 1174 -1400 0
2132 -157 -1143 485 -2266 0
2916 -877 -4826 -2802 3548 -358 0
1143 3423 -3888 596 -3947 0
745 1072 2777 4396 3647 0
778 -707 940 4129 0
2438 2290 -1442 2679 3533 -4115 0
-4956 -3148 1583 -2456 -3850 0
1234 4256 4231 -826 0
2409 1049 -824 4543 1727 -2073 0
4697 -892 -2888 999 -2261 -4744 0
-266 4100 -2113 2189 -1859 0
-4389 -1827 2056 -22 1341 0
-4456 55 4872 4124 -3196 0
-51 3423 1102 1804 3783 0
4352 -412 -2054 2555 -1566 -1434 0
4685 -1127 -4283 609 0
2634 4085 -696 2729 -659 1284 0
3209 -1593 4174 -1230 0
1749 -3447 3825 934 1753 -3365 0
-4191 -2316 -986 1685 0
4184 922 2715 -3313 -2626 -4720 0
1268 -4624 738 -2342 0
1284 2634 2922 3965 635 -858 0
-1491 4165 -2296 -2245 4423 0
2302 -16 4391 4472 -4467 0
3453 -3148 -1655 800 0
2303 4057 1686 2482 758 -1615 0
-4867 -232 4215 -3117 0
-990 3102 -2086 -1561 -4729 0
-2551 -546 -4677 -4673 0
2981 1933 -1013 -3340 3129 1049 0
-281 2322 -2873 2993 0
-3577 -3273 1476 664 1044 0
-194 -4252 3581 3989 3514 0
-498 2655 2592 941 -3246 -2612 0
2017 -784 -377 4892 4447 0
2132 4204 -4427 -2028 -30 0
4334 8 -3256 2361 -3379 3867 0
1094 -2748 2347 -4805 -3099 124 0
3957 4186 2764 2675 0
-3380 -3656 4313 3257 0
2183 -1814 -3939 4162 0
3600 1642 -2659 4457 3643 0
940 4704 2433 -3644 0
-1064 2203 -4384 3554 -3094 0
-1474 1146 -3758 -3425 1409 0
3739 -2653 -3052 -407 3346 0
-1077 3914 893 -1425 -2143 4323 0
2548 1779 4424 3958 2854 -4516 0
955 -3539 889 -3617 0
-3474 -1956 2253 4785 -2981 0
-2404 -4279 -1794 4689 0
-3023 -4034 146 4817 2056 0
914 -345 -1632 -3489 -3911 -194 0
-865 -3347 -4867 4948 -4194 728 0
-4649 -488 -2221 -1116 0
1166 -4282 -4477 1197 0
-4145 2681 933 945 0
-1723 638 -255 -907 1939 0
2813 1985 -3250 3101 -3359 0
2511 863 3248 -4236 0
-4151 -152 -404 453 -3347 -69 0
-1054 -3306 3188 1238 -883 -2750 0
-978 414 -3538 -1444 0
-837 4542 1450 -4385 4269 0
1054 3031 2424 -1346 1928 0
-3733 -187 752 -3593 0
3574 -2391 4969 -3595 -3233 1234 0
-2600 -4439 1902 -2102 0
259 -1894 -4137 -3237 -4305 0
-4461 2987 4895 -863 4315 0
-999 3288 -3293 -461 0
426 -4833 -47 4063 -1218 -208 0
-149 -3639 3121 -3869 0
-42 1093 -1025 1896 0
3109 -441 2746 828 0
3037 529 -649 -3584 3682 4072 0
-678 3911 1739 2591 0
1670 4700 -1073 4655 3410 -4768 0
-4711 2833 -4552 -3643 0
-3954 1357 4895 -1502 2165 0
-15 -4894 3294 -724 3129 0
4904 -746 2488 -3183 759 -3862 0
-1921 -4364 174 4561 -4938 -744 0
4575 -1749 -808 -2871 0
-2779 -2367 -191 4777 0
-3816 -3872 -4808 -1697 0
-1471 11 -4531 -549 0
-1941 3083 -3390 -3765 0
4911 3901 1517 -2325 2228 0
471 1359 3089 3967 0
-771 200 4721 3698 -440 0
3395 1190 -388 -1923 774 -1059 0
1143 -4082 3254 4097 0
2458 -4669 -722 -216 -2487 0
397 -1761 -2953 1597 0
-883 4261 815 2295 3299 0
817 -4650 1934 4135 43 0
-1613 -598 2806 2827 0
-2797 -1162 305 415 0
1236 -2466 1663 961 0
4002 -839 -2294 -3355 0
2973 3430 3598 -614 -4911 0
1188 3706 1480 -117 -3864 3653 0
191 631 522 -458 1754 -1995 0
1512 -3378 -95 -4174 -2080 117 0
3056 -967 -4539 3535 0
726 2279 4082 1945 0
-3022 246 -1189 -4249 0
33 2483 4152 -2386 1852 -3438 0
1172 2554 -1248 1231 -3890 0
-3034 957 -2231 4806 4495 0
-653 -4067 1762 2593 1104 -635 0
3295 3739 1073 492 0
-3975 -1459 -3855 -1878 429 4051 0
3413 -4477 3385 -507 0
3659 4600 1715 4578 -3419 0
4318 -4497 -4149 1723 -4771 4012 0
2448 -2821 -4190 -3193 0
-1352 -225 -4131 -1123 -1668 -812 0
3024 -4114 -4087 4179 3147 0
-2240 40 -1175 -2315 0
2622 -578 926 -2194 3400 -4217 0
3810 -1801 3423 -4127 -2742 0
2305 284 -4902 1840 -61 4399 0
-3080 -3825 -4280 -2169 997 851 0
-2869 -3196 3705 2748 1312 0
4842 -457 3997 -754 2564 -4990 0
-4543 -470 -1056 3305 1816 1949 0
4508 4788 2407 2443 -333 0
2655 -3159 4985 797 -3241 3261 0
-410 -897 -4847 -3598 1054 -2879 0
-2613 -4050 3496 1465 0
4341 -277 4501 4241 -2617 4780 0
-3625 347 -3850 288 -478 0
2505 2867 -2972 -4904 -4938 0
1916 2042 4190 1851 -1782 -2073 0
3899 402 3475 1240 4370 1743 0
1667 4509 3763 -1651 0
4764 4173 -401 48 0
-3952 3857 70 -1180 0
104 -2253 -2086 177 2493 47 0
6 4254 2486 3400 -4193 0
2900 -3198 -4005 -4231 483 -4314 0
1247 -2965 -134 -1210 0
-4389 1948 -3200 3461 0
1569 97 -2650 4647 0
-3377 -3324 124 4886 -3241 0
-211 -4145 -919 3124 2413 -3787 0
3634 -1844 2999 4909 -3252 0
157 -4084 3408 3620 0
3744 -3892 3470 4456 3070 4194 0
1007 -4528 2356 -2622 2045 4315 0
-1492 2598 -1902 -3566 0
-2802 -3203 4297 -691 4023 0
-4479 280 810 -4237 990 -3497 0
-845 -4310 -440 -515 0
2293 586 -4486 -2503 0
-3130 -407 4099 -459 0
-1322 959 -2514 3527 -869 0
286 1937 4813 -776 -484 2513 0
-3797 2023 -3699 -3106 -3983 16 0
1440 877 -2357 -3139 1823 4294 0
-1765 3150 -4540 -2717 0
1487 1646 -4579 -623 0
-1968 -3250 3813 -1577 746 0
-604 -2609 1050 -1269 1120 2314 0
-69 -1400 3017 -3920 -2876 -3515 0
3413 4317 -1339 -2777 -3887 4749 0
-2624 -4893 1041 -110 930 2080 0
-4271 -2412 4383 -1709 3374 -2201 0
-4693 -2891 -648 1000 1283 0
908 -1106 -176 -2799 -4648 0
1443 840 -2960 1837 0
86 -227 3230 -4118 -4119 0
4071 -1536 1858 -450 2528 -2913 0
-1921 -3030 2133 -1991 1114 0
-1059 1902 592 -1605 2452 0
3470 -2808 -698 -4233 0
4746 -1148 -3162 1391 -830 0
1282 -2501 3731 -2284 -974 1469 0
-735 -2445 -4904 -210 950 0
4209 -2138 2207 -1903 -3361 -3565 0
3337 3116 -1000 -4295 -852 -3892 0
3519 -4797 2946 -151 0
4354 130 -1707 4163 0
-4344 901 -2568 2660 4643 -1644 0
3532 4712 -3139 -2414 2407 0
2094 -1210 -2013 -4318 0
-1603 -2735 -1757 -1313 1585 0
3347 -2121 -1009 1102 0
-174 4358 3499 3979 -4491 3319 0
2063 -2445 4437 -1256 0
351 -2331 -327 1953 -3916 0
-2524 4154 -1118 -2448 0
-3905 -236 4455 -3724 0
-4931 1616 4717 -328 -476 -794 0
-4737 -809 -493 -2417 0
2777 2401 3774 -1042 -1446 0
-3404 -3693 -4574 3220 4270 0
-892 3447 -1665 -760 -3096 -98 0
434 630 4399 -4523 0
-1172 637 -3229 -2177 0
3853 1906 -93 -1892 3987 0
-1856 -3876 -3724 -2914 0
883 -2359 -1490 -1340 -2077 -2357 0
3108 3518 291 -3283 2637 0
-1084 -3019 -4149 -2498 0
4387 -3171 -4840 2111 -1725 0
2072 -4165 4361 -3750 0
3390 -3483 -3777 -497 0
-214 4063 1959 -1980 0
-1889 -520 4982 -1790 3419 2794 0
272 -3727 -4940 535 0
-743 -819 -881 257 0
-531 3306 -4562 -2253 -4070 0
-1855 2480 -4450 42 -1704 -517 0
672 -937 -1808 -1009 463 0
3055 -2695 4049 2652 0
-2596 -1869 4769 1797 -1173 0
1384 2021 -4441 -1498 0
4024 3553 -3527 1425 -4844 -4828 0
-3346 4817 -1892 -3446 2999 -4628 0
-4187 734 4687 -3024 1410 -3887 0
-131 1299 1239 -3629 3698 0
3703 1255 -1682 -3843 0
-101 -2733 -3374 -1571 0
-2397 836 -4762 -3749 0
-3296 -1144 -4470 -3979 0
-1019 1719 -544 3541 -2421 0
-1690 2095 3414 1022 0
2562 3126 2071 -2692 3306 0
1059 3060 -244 -55 3846 -409 0
-954 903 -1049 -2593 17 0
-4484 -844 199 -229 0
-4118 -1123 3834 2349 2970 0
4903 3854 -2835 4606 75 3534 0
818 425 -3254 -4348 3771 0
-1131 -701 -2292 -3824 0
-2377 22 1854 4771 -3396 -2393 0
4289 1953 1760 2216 -3620 0
-614 3441 515 2459 3208 -3757 0
-4438 3281 1676 -389 0
-2712 4503 4972 -1850 2882 -4059 0
-403 3849 1680 -768 0
-1215 -3241 -3557 -80 2699 0
2729 -4508 -1156 83 2417 0
-3921 2779 -834 1308 -1491 0
-2297 4325 -3397 -4303 -4125 0
3628 -3934 -4320 -1295 -4151 -866 0
1939 -4046 4652 -1940 2901 -1173 0
-2576 1575 4473 1396 320 0
-2296 -4344 -3608 -2513 -2350 -378 0
-3929 -3068 -120 748 4228 0
-2137 642 3057 -1745 -2481 4857 0
-19 -2619 2851 -3444 0
3506 -3002 4830 -1061 0
1639 4130 -675 1010 0
-1611 840 2035 -2150 0
4546 3391 2172 1556 3898 -1048 0
1049 4467 4098 -1959 -1246 0
-3168 -2425 -727 2503 0
3420 2184 -4384 -4168 836 112 0
4221 -4797 -393 -1229 -1853 0
-2267 997 -179 -3133 1199 0
857 -182 -3307 -2628 2381 0
71 3429 -3951 70 -1453 1575 0
1137 -4231 -4951 -1372 1716 860 0
-3775 1953 -4831 4334 -4678 4337 0
2092 4162 1120 -4055 0
3909 2952 -2862 -4188 1939 -613 0
-312 -4637 3657 4658 1263 0
4611 1525 358 2246 -897 2547 0
-1702 1534 4193 3189 2669 2161 0
-3 -183 328 -3997 2326 0
-4803 -3834 -4437 1670 0
-2400 876 -2691 4609 -845 0
-421 2717 738 -3840 3534 -2544 0
-3438 -3163 -443 -2330 4631 4567 0
1805 -3273 719 4533 4381 4071 0
-3950 -4998 -397 1880 3343 0
4213 -4343 2272 3876 0
-2460 244 3282 -3376 797 4290 0
3492 4099 -2445 -4470 1284 0
-2330 1614 907 1765 -3136 0
-819 -4902 -45 -2555 -1643 807 0
-579 3804 4187 3832 2581 0
-2229 2631 720 2717 0
1439 370 3924 3842 -2097 0
2225 -1317 -857 544 642 0
4214 -4136 -2634 3541 3126 0
2732 -4522 2274 3160 0
-2963 2745 4309 -770 1174 0
-704 3212 4087 1185 4509 0
4057 -4452 3381 -3206 2326 0
3233 3472 -2738 -3146 0
-63 2630 -4267 3618 4324 -1110 0
-3749 4532 622 -3994 -934 0
1138 424 579 2898 0
-398 -421 -4773 -2900 0
4688 1336 -1766 -1610 -2291 0
1182 -3338 -4642 -1506 0
537 954 -2 -466 0
-2612 -1629 -3711 -2040 1190 3094 0
4122 -1727 -3311 752 0
730 -343 3 -1822 925 4793 0
-89 -4230 1471 -2861 3363 4246 0
1267 -3959 2366 1234 1992 0
-538 2942 -4861 846 0
-4728 2940 -2486 -3879 0
356 -1801 4160 1220 0
122 2788 3365 3647 3922 0
63 1365 4907 -1279 0
-3699 2017 1037 282 3769 4991 0
1394 -1692 -1568 3005 166 -404 0
2173 818 2097 -2163 -912 4816 0
-552 662 -3321 2638 0
2156 4417 3518 88 4438 0
2782 2171 -2168 -1256 0
-3587 3230 2869 1888 1751 3067 0
-3544 3446 4647 -2933 -2235 0
4620 -2960 -3309 2412 2790 0
-2876 2733 194 -3359 1156 -4127 0
-2776 -4530 735 -2772 3221 -4139 0
-1999 4107 -3344 3765 4255 0
-1844 1388 293 3492 0
4710 2096 1424 3387 -4072 1048 0
1569 4060 2134 -351 62 48 0
4451 2518 -3859 -3208 0
-4093 2387 2178 -3684 -3131 0
1516 1623 4941 -3922 0
4683 -4557 -1547 -884 0
526 4947 -3860 -913 0
-4389 -2589 -1222 -2936 -4736 0
-3041 1975 -2880 -2166 -3844 -2501 0
1325 -3723 3728 -3368 -2965 -2787 0
1870 56 -4888 630 3449 0
1448 4281 4740 -1464 -436 0
-879 -4628 4884 -1049 -3753 -1369 0
3123 -1813 2223 -2024 0
4672 2226 354 -962 -700 -4636 0
-2709 742 -1606 1483 0
1444 3314 -3152 -3017 1509 0
-914 -3832 4391 -4412 444 0
-2083 -4893 -3526 2229 -3230 -568 0
3922 -3040 901 1964 1928 0
-1476 3163 4999 1015 0
1823 3123 -2638 -1442 0
-1423 2927 -2493 2599 2884 4866 0
4546 -2829 1993 1557 4045 0
-3828 -4750 -4668 2445 -2683 0
2951 4431 1730 4696 0
-2589 -121 461 96 -793 4876 0
3927 2338 -4530 -96 3758 -1339 0
-4357 2335 1905 -4999 0
972 4855 -1903 -2205 -1520 0
2621 -3120 -1904 -2031 2526 0
2159 -2796 -4837 747 0
-784 4087 -3924 2149 -1121 -979 0
799 2374 -1836 -59 0
-861 -1317 -655 3441 -3820 0
-2661 -3075 -1172 -491 4685 -1662 0
36 -2694 -409 4094 0
-1805 -2283 4450 -4898 -1684 0
-2575 2339 -2617 -4430 391 0
195 -2155 -1435 -3757 -3097 2335 0
1729 -1761 -1699 1860 -136 0
-4592 838 380 3050 0
-3713 -4165 3525 -1777 2257 0
907 -1501 2451 -3878 0
619 2595 -1430 -449 -1267 4348 0
-4356 -4508 2034 523 0
3420 -3599 -3023 1051 1867 0
728 -3882 -3273 2119 0
4294 -3848 3079 2611 0
2751 -209 -517 4240 3233 487 0
-4643 3258 736 151 3188 0
-3943 -2854 -2537 -484 -783 2197 0
-130 -1123 4406 -40 3105 -285 0
-1321 -1617 -923 3320 2892 0
286 -2931 -2896 1536 0
-3663 -1762 -1908 4115 0
-1113 3286 1826 2936 3908 4228 0
3206 945 871 4882 3437 1528 0
-4048 -3415 1928 -1565 0
2278 525 3498 -164 -333 0
-2506 1582 2250 914 -2302 1732 0
2164 2498 -2446 2130 0
2067 -578 612 1669 -3326 0
800 -1957 2733 2247 0
-1701 4792 3076 4138 222 0
1112 3624 -3109 -4586 599 0
1277 -3377 4465 997 35 -3452 0
1649 1889 3737 -3923 -4546 886 0
1139 3188 -4862 -3410 0
-2919 662 211 -3678 0
-4511 -1457 -1258 -3483 0
3786 3950 2623 1322 -863 0
1883 -1053 543 -2134 -3015 0
3232 2064 -217 -4259 0
935 2498 1835 -4175 -4480 -2698 0
2627 2820 2645 -2165 2822 -2714 0
1997 -2736 1315 3793 0
-4330 -2051 2020 -4123 0
3028 -1836 2741 -318 -4842 0
146 -4572 -2135 -106 -4854 -1517 0
-480 -2 1415 -1642 0
3073 260 -1476 -3885 -929 0
-3353 -701 -3667 -464 -1962 0
-1191 1409 4379 -2889 -1685 2566 0
-2862 612 1710 3805 3775 467 0
-3173 -2735 -422 3984 -4090 0
1818 -3922 3461 -1956 -1396 286 0
-856 869 -1416 -2590 2088 1248 0
2295 -3436 -2441 5 0
-1496 4958 -4960 1572 0
-3782 4919 -3512 733 -2558 -4240 0
-1424 -414 106 -4442 2113 -497 0
3401 1518 2698 -1513 3884 0
2379 3849 -30 -2759 0
4425 -4721 -3965 -1610 0
351 -1577 1186 -3761 0
-1747 -762 -2427 4106 607 0
-2580 4435 -2409 3468 3439 0
-2672 -1574 872 -3126 -3331 0
1358 4915 1661 1206 3440 3169 0
4959 1724 2532 560 0
-3642 3860 -2475 3329 -3501 0
3582 -761 -4949 1662 1639 0
-4829 -3108 -3044 4060 397 -1650 0
-3441 -4607 2249 -3454 3892 4635 0
-3205 1162 3731 1587 2122 3247 0
-4139 3631 4107 -1107 1395 4847 0
2879 -3056 -1165 4985 -3789 0
456 2781 1013 3756 -3143 0
-2212 4101 1129 -4130 3094 0
691 2339 -2217 -2629 -4143 0
3662 1612 -2231 2623 -1414 0
-868 -1846 275 1568 555 0
-20 -4129 1117 -599 0
3112 -1500 4913 1083 0
-776 -4334 -2220 3422 2724 -2652 0
4600 7 2405 1806 3893 0
-1326 4133 3420 -4404 0
3341 -2382 -547 1454 3160 1254 0
1350 2574 831 1204 0
-4954 -2153 3816 -2990 -439 0
-1069 -246 2255 1492 0
-4442 684 4521 -1477 1821 0
-4826 1111 -1966 708 0
-2866 2644 4543 246 -205 -1423 0
304 -4675 -1314 -2191 0
2769 -2920 3046 -1590 3460 0
-1000 1057 3609 778 0
-2427 4646 1485 441 1865 4824 0
-350 -2364 -2234 -2514 2370 -3258 0
991 -3600 -4085 -1609 4346 0
3526 -3551 -629 4961 1084 0
-883 3723 -3761 -4857 0
3223 2707 -3292 2046 1350 0
2652 -1522 -401 -10 -737 0
-433 -4358 2024 -668 795 -2967 0
2093 570 4268 1319 -3714 -928 0
3587 878 -1112 1509 3816 3318 0
-1666 3358 -2480 3687 2958 0
153 438 -2303 2331 0
-4480 -2257 2266 -4807 1724 0
-2379 -2251 3686 4029 0
-4940 -2441 229 383 0
347 -302 1781 455 0
-4497 3850 2111 984 0
-2776 763 -4406 4956 2264 0
-1126 -1859 -2377 29 -241 3729 0
-110 -3303 -1224 4239 -44 2818 0
1642 -4939 -2178 3273 0
4198 -2779 -87 -856 0
301 3762 818 1016 3468 0
2292 -4853 -4599 4857 0
-630 2796 136 1708 1177 507 0
-2260 -3813 195 -3880 2757 0
869 -2022 3258 437 0
1152 -4 2643 -371 0
-1269 3560 2435 840 -2289 2546 0
483 -2518 2185 3972 0
-2446 4992 2074 1174 -4086 0
-1722 3566 -3700 -166 3699 1895 0
816 -91 3493 4014 0
-3836 -2800 -3809 2173 -2566 0
887 -2713 3475 -3223 -1565 0
-4941 -144 -1870 -3350 0
891 -2018 -2173 3787 -2508 0
-4038 1197 -4995 3964 -4987 0
-1029 -2222 3347 4952 2142 -1200 0
3924 1240 -1436 -266 -4459 1391 0
4217 -2418 -1419 -4907 4788 0
-4093 -176 -1953 4291 -789 0
-126 2226 4094 -1417 -1474 -1566 0
1486 2639 -3441 -4507 0
1815 4317 447 3377 1869 -3734 0
3786 -1141 -4095 1496 -3714 -3840 0
2823 -3603 4104 -1393 -4609 -3881 0
4187 4610 318 -4757 0
-123 -1745 437 -196 -4261 -333 0
-818 1429 1924 3608 -3322 3169 0
-3579 -2111 487 -1251 0
1073 -3641 -4539 -4426 2677 0
-1411 -1314 4786 4056 -3685 -1165 0
-1761 1312 4503 -2978 4093 1832 0
-4291 -4496 -3740 4814 1672 0
2345 -1886 4190 -3566 -2822 0
231 -1264 1052 1852 0
3104 449 4806 2949 -4887 1939 0
-2937 216 3422 -4356 -2343 1899 0
3600 801 2945 -235 2299 0
1401 3418 4949 534 0
-3319 -2635 4371 -4952 -1509 3337 0
-1265 4389 -252 -3621 0
115 2454 3304 1132 0
1344 2146 -1001 -1957 -2180 -1564 0
1212 2876 -182 -3548 0
-760 480 422 -564 -4463 0
-1889 -3008 -4657 833 2143 0
2498 -3389 -4890 2199 517 -1705 0
-3250 4100 -3161 1709 2635 0
-4966 -4904 -2601 287 2851 0
1604 -1238 1939 2980 -3007 0
4953 967 2994 1582 -97 263 0
3726 -4983 -2216 -365 0
-373 2441 -2018 -3010 0
4405 -267 4523 -1888 4368 0
205 -3804 599 4168 0
2521 -4458 1378 -4106 4839 1775 0
187 -2325 568 2315 -48 -871 0
-532 713 3040 4259 -1854 4669 0
3667 344 3651 -1964 0
-1803 3671 -1178 1420 2096 0
1126 -3625 4020 -90 -3814 0
-3578 4074 -49 -1218 2818 1797 0
3759 -271 -3878 4523 0
-1079 4133 -3896 -4872 0
460 3308 2704 -4376 -1713 0
-2431 -693 -4126 -3083 -571 0
4312 3296 4829 -677 1013 -4820 0
3340 2181 4456 670 -2118 0
-2727 894 620 2549 -1077 2945 0
4960 4734 3602 13 0
-3704 -1034 1495 1291 0
1765 -1622 4278 -665 -3399 0
213 -4300 -3403 6 -2286 0
-4495 1557 -2382 2763 0
-3787 -2165 -977 1801 0
-2876 2563 -3053 3494 939 0
4862 -3327 374 3567 0
-254 -3812 3961 3354 -1018 0
-4249 -3233 -4782 -3193 0
613 47 891 -2165 0
3897 -3778 -2015 2571 0
-1404 4217 1505 247 0
4912 3071 -2038 4497 0
-4666 -2540 4952 2009 -2652 0
450 4618 249 3111 0
3756 779 -4957 -617 1776 0
-2085 3559 4602 -401 683 0
-3835 -2076 3548 -1228 -130 1473 0
-4033 -4043 -1693 974 0
3665 2082 4644 -3000 -3162 -1701 0
4871 1223 -2769 -2540 -1966 -3427 0
-4157 3103 -2346 1211 4274 0
-1232 -2655 3756 -3108 4216 3457 0
-2744 -1910 1102 -4699 0
-4734 2935 83 2796 -4562 0
-3473 2461 -4673 2417 0
-3869 364 -3777 -3282 -2868 1949 0
3934 872 -1028 3393 -4511 0
-4739 2436 3325 -4090 -3348 0
986 3393 3703 -440 -2659 0
-3061 797 4779 813 0
-1097 -1273 858 -3685 0
-2951 3917 -585 -2195 -2208 0
-4692 -454 711 3612 -4086 -985 0
1954 -2449 -790 -1249 -807 -3577 0
2670 853 -1598 -1196 4986 0
-1696 4192 -4509 3613 -757 0
-3409 -3964 -3005 2775 0
2274 2153 -3607 -4411 -1123 4984 0
-4260 -1213 -1509 651 -2497 0
-1494 1245 2643 4762 0
-2055 -3932 -4059 -3226 2373 0
-2552 -4013 3330 -389 0
314 4811 -1342 1967 -1010 -4132 0
-1331 -3680 -1230 3451 4807 0
2835 191 3839 4573 -3384 0
-4120 -2122 -3055 -1196 215 0
-3493 1390 -606 826 3110 -2739 0
-4162 -3975 -4315 -2349 2362 2507 0
-313 -2758 4173 4251 4034 191 0
2973 -1005 3460 -3966 4165 0
3974 3479 -2981 -4301 -3909 0
-3361 4578 -4035 4247 0
3845 -4537 3118 3128 -1413 34 0
-685 -409 -4597 627 -4336 1863 0
-466 -1432 1846 3264 -4956 0
3602 -4069 -3822 -3648 -2339 0
4661 -2315 -1048 -3767 1606 0
-1590 -4803 4940 -2049 0
4756 -2542 -1117 2316 -879 2741 0
2539 2634 -1472 2895 0
-4178 -4508 501 325 -2411 3254 0
2628 -1722 4446 -2495 0
-1708 -1172 -445 -2946 0
-4522 2704 2142 2270 0
1503 1956 -2604 -1691 2562 -3479 0
-3709 3158 3718 160 -2037 3572 0
-3178 3689 576 -2002 1831 0
-2076 -3352 3733 -2276 826 464 0
386 -3143 120 2406 0
-3392 -3021 3170 478 1008 0
4739 -2266 -557 -4233 3266 -3996 0
830 -4684 3792 -810 0
542 4922 -441 -3272 -784 0
2934 3820 4995 -735 -2827 0
2506 -1541 -77 -3143 -4456 -3815 0
4554 4771 3818 4021 597 0
4543 -1120 -2827 -1603 1154 1873 0
160 -4472 -2967 3365 0
-3514 -2535 -4526 -2705 -487 -2132 0
-2380 -685 -253 -2991 -1237 -2973 0
-3017 -3437 3055 4824 0
945 4327 1379 -4946 0
3888 -4737 -2261 825 947 0
3058 2953 -3865 -4374 2023 -2873 0
28 4049 -726 4327 0
-1916 -3075 426 1114 842 -4787 0
1005 750 2995 -1098 -403 0
1675 -2873 -1946 -2350 2484 -1151 0
-2194 221 3537 4558 -4823 1938 0
3620 598 -2271 4966 2967 2081 0
-4876 2868 2504 -4333 -1621 0
-1987 -4336 2022 3097 3894 3738 0
4039 1525 -2345 -2488 3449 0
-629 -55 100 3524 -2144 0
-2894 4574 3499 772 -4702 0
3944 1312 4973 -1098 -4589 0
-1579 4385 3361 -3574 0
1184 3020 -2129 -2608 0
-3237 2273 -1727 2073 2308 -1564 0
2398 -898 4843 1756 497 0
806 2953 777 -2720 -783 -1238 0
1625 2170 -2015 3052 1825 0
3918 -2464 4067 -1643 -1686 4769 0
-4765 2024 -4371 -904 0
2105 668 1721 -1273 739 0
-1332 1544 4488 -3105 0
3787 -4403 -149 -2174 -3572 0
-4473 3391 1936 -4172 1686 0
-1691 -783 -1507 3041 0
-667 3577 -2900 -1487 -4855 0
-2639 4210 3185 535 0
240 309 2526 -764 0
4928 3233 160 4298 3553 4972 0
3092 3357 4599 1718 0
-4698 2993 -2018 3125 -824 0
-1720 -2268 2159 -3209 1948 -935 0
-4579 -1319 -3459 3828 0
321 -3468 3703 154 0
2442 3679 -3291 -331 2980 0
3057 2879 -4092 2100 -3191 0
4077 663 -4436 3714 1077 0
1443 2858 1316 1359 2047 3372 0
1523 -316 -1527 -666 4272 0
754 96 4716 3734 -2447 86 0
2289 2435 4044 688 0
-3327 332 3375 4024 0
364 -2203 3752 2728 0
-1571 2644 2820 396 -967 0
1066 2367 -698 4731 0
-1077 -18 1028 3030 -251 0
-1605 3322 -1444 -637 4608 0
-2771 -931 -880 4716 -3635 -646 0
-2917 184 -2304 3391 2540 0
-614 -1273 576 1934 857 0
-955 -4681 -4219 3248 1627 0
2589 187 1520 -4814 -539 0
1919 -1077 2353 1871 -257 0
-3548 3047 -1966 -3539 0
3995 3198 2839 1429 -2057 0
172 -87 245 -1765 0
-2682 1297 1267 3367 1638 4880 0
1530 1789 -4239 4137 2904 0
-3775 3360 2068 -2726 0
4564 1756 2327 4570 0
-424 -3605 3315 -1522 1708 3641 0
-1897 -4712 2572 4945 0
-1653 3016 -2570 2032 0
4126 -2696 -1505 953 0
-1311 4838 -4402 -4534 -312 2752 0
-83 -4752 4106 -210 -2249 0
474 2360 -3375 3058 -4345 -3742 0
676 -602 4710 -600 0
1332 -1679 4757 -389 0
1681 2683 2181 3992 4387 2272 0
1275 364 -23 1987 -1187 0
3896 -2204 331 -4868 4469 0
-1266 -2707 -709 3457 -3307 1771 0
4190 1155 -1606 4418 0
2781 -3953 -605 924 1924 0
1822 2754 2262 945 -2006 0
2900 2684 1275 -340 1105 0
3049 -3973 -412 -3166 2536 0
-373 4862 4151 1379 0
-4025 -1338 1347 -4417 3997 -1290 0
462 -3138 2838 -3690 3732 -3699 0
-4852 1529 -2650 -3659 2895 2235 0
-3652 1453 870 4616 3212 4518 0
4957 3451 4406 3750 2971 4280 0
-961 -656 3822 -4322 4416 0
-290 624 315 -2735 3120 3397 0
26 4473 2647 3904 -1037 720 0
4919 765 4979 -4952 3757 0
-2047 1097 348 -4833 -2000 0
-3181 -1520 -1118 -1929 3522 0
2031 3427 1014 4245 -1353 385 0
25 -1351 -4175 -1956 3692 -1790 0
1659 3568 1441 -2253 0
1931 -2295 4645 1597 1124 -26 0
-2373 -921 -1495 -2781 -3390 345 0
2701 -3255 -2428 2829 -689 -2255 0
-2634 -1857 2653 3245 0
-4447 898 -1020 -95 0
4006 1982 89 4010 345 0
2029 -2113 4940 -709 4009 0
-1175 -531 -702 2758 3920 4765 0
974 -4138 -2946 2926 3600 0
-2973 4414 2553 832 0
841 -285 1325 4594 -3893 -2218 0
3355 4755 -3124 -3843 937 0
-4882 2145 -1325 -2752 0
-4142 -3776 -4909 -1912 -2247 1360 0
-2667 1482 4980 -3145 -2700 4561 0
-1517 -2418 -1534 4043 -228 0
1886 2905 4438 2117 -1467 -2666 0
3121 4349 268 -638 1990 0
957 -2243 2844 3324 4203 3465 0
1610 -2631 1686 2221 0
448 -3911 -711 344 0
1946 4027 1979 1022 3139 -1968 0
-3552 -1469 -800 4819 0
1405 -3552 -2897 -1320 0
-4135 -4335 -684 4105 -3629 4584 0
-794 -4930 4633 2090 0
-250 -139 -1720 -2139 0
1094 -3534 2614 3718 -2990 0
4021 2841 2187 271 -1456 0
1966 -4559 2266 -2968 -3038 0
2474 -4717 2921 4119 -3962 0
3113 -4262 1416 3710 -2021 0
-843 33 4490 -3539 1098 1065 0
4013 -4996 4915 -2568 0
-3384 136 -3630 391 -3420 -746 0
3072 -1979 1961 1281 1503 0
1694 4891 1696 -2147 -4042 0
4421 2034 -3313 750 -3240 -3223 0
-3505 -4983 -3021 -2973 0
-470 570 2107 -1935 0
-46 -3430 -3386 -4939 -4463 0
-1362 3959 -1967 -3614 -612 -2336 0
-3184 1318 -3810 -1828 -1879 -888 0
-3827 -2610 4246 -4259 -602 2452 0
-607 -3247 3749 -2624 2038 0
-1169 1454 -2513 3851 -1581 -3915 0
3346 3430 604 2917 710 4606 0
-723 -467 -2044 -1034 -4973 4681 0
-3833 1822 -3305 184 3936 -3997 0
-155 -2233 -2365 -2057 455 -2015 0
3337 -3994 2651 -1633 1998 -3455 0
-3628 1298 3734 -2540 729 3235 0
276 1736 4943 -997 -2734 1878 0
-2895 817 3274 -4178 0
949 -1184 3272 110 -727 -4582 0
930 -1079 -96 2731 -1346 -4180 0
-2155 2219 -4871 -2066 0
-4310 -3999 -4383 -2145 1842 0
4391 792 -1192 1551 0
4166 -4420 -4029 -4636 0
-4772 152 -4931 2603 -4315 2742 0
-3542 116 -1667 -2502 0
-4375 289 -985 2555 -662 0
4863 -3087 -3415 -1151 -68 0
1917 1007 -2894 881 -4116 0
-4555 1333 34 3843 -503 -2029 0
-3515 -391 4245 2937 0
1598 3638 -4759 2273 2546 0
1364 -1842 3454 4367 0
-510 -1401 -4426 2980 4088 1364 0
458 681 1940 -449 4244 1955 0
-2403 -449 -1993 -2501 3917 3284 0
-3088 1447 -3961 718 -48 306 0
3253 912 1809 -2254 -425 0
3905 -4213 158 -4693 0
-4047 267 234 -4553 -2871 -3803 0
2928 1281 4536 4378 0
-1577 1305 1352 82 0
4792 3813 -3168 -3686 -1248 0
2076 634 -1807 3404 4938 -1779 0
4534 3532 2559 4888 333 -4893 0
-1668 2077 -246 -4785 -3545 0
2724 -1523 1700 3086 965 3203 0
-79 -3229 -416 -4802 64 0
3711 2602 -2102 -2367 1340 1230 0
417 1444 2372 -1283 447 -3554 0
-851 -651 -2613 4639 3699 2412 0
-4809 -2305 3382 2947 3754 -2243 0
3218 -4313 4377 4708 2818 0
836 1836 4011 559 -4458 0
745 -2424 -3907 -4150 0
409 1054 -1040 838 0
-531 -1056 -1371 893 0
3961 4457 4997 -2009 0
-4985 -249 4357 4752 4172 -4679 0
-2760 3301 -404 3223 162 0
4933 2099 3988 2053 -276 -4505 0
-124 2390 4021 -1405 -2742 4826 0
-3875 -4277 -1953 3881 -2159 0
2869 -2577 4397 4173 2072 -3782 0
-3137 3206 4126 2449 -637 0
1615 -614 3200 -4554 -4404 0
2037 -3050 -1503 355 -2479 -413 0
1700 774 -770 -4799 0
3080 -3174 -105 219 0
2379 1124 4975 -4253 3084 0
-2610 2581 1146 3134 0
2780 -2576 4105 2811 -1245 -4684 0
-1097 3614 -2728 2727 -224 -4992 0
-1742 -4435 3191 -1501 -4147 3743 0
4836 827 225 -169 2592 0
-1772 -1782 -4369 729 2207 0
4519 -4492 -312 -428 -3884 0
4169 -4202 4823 -4245 0
-4292 1528 -3518 -2036 -3225 0
3232 3116 2454 -3886 -335 806 0
1558 -4672 1202 -3611 0
4550 -1394 1801 -4958 0
-2431 -2986 -4435 -1291 3948 -2179 0
-2203 1334 -2458 2067 0
115 -1831 -864 -784 0
-4641 -118 -1619 834 -3734 3941 0
303 2559 2628 -1745 -706 -2293 0
-4165 3278 1964 -1318 0
-3691 -2256 -379 -3007 2511 0
2791 -1756 -4001 2867 4635 0
4842 2425 807 1491 -3429 -4187 0
1141 4863 960 -494 -541 0
965 -2403 263 -2666 4142 0
2504 4248 -960 2885 2847 0
-1264 554 3700 2326 -3518 4464 0
-4210 -21 -1128 3264 -376 -462 0
1393 -4930 1179 3513 0
2288 3392 2952 4439 1344 0
-4318 -2204 4071 1984 0
-4133 -2865 1631 -2904 -2206 0
2410 -4579 419 -2305 0
4206 1208 4006 -1195 1292 -1031 0
-2342 2031 2500 -422 -3481 0
1951 3715 4145 -789 2031 0
-546 -4499 4164 -3392 2859 0
1583 -2297 -2466 -2332 0
-3050 -3799 2622 -4523 0
-2202 4943 2346 -1548 -1158 0
2415 1224 -4328 2350 2551 0
2354 4948 4633 3484 0
541 1093 -3129 -4019 -3204 0
-1313 -3204 -2420 -1287 0
-2229 -1780 -1051 2127 -3773 0
-3622 -4758 -1705 -3297 0
-48 4897 2333 -4357 1971 0
-2962 1772 -2438 -2437 -173 -1958 0
-4589 -2516 1652 -3556 0
4789 -707 3110 -3644 -1420 -2612 0
-1967 171 3068 -1842 0
-2552 4639 4743 4592 -1341 0
-4117 3030 517 -1071 -4312 0
1988 -2176 125 -611 -3227 0
-3672 149 1551 3863 0
-4794 -1827 -1714 153 -1929 0
2465 820 3572 -135 -2912 0
-4976 -3877 4798 -1489 0
1719 3168 -1266 4730 -1770 -3003 0
4209 149 4643 3465 0
244 3883 -1057 3052 0
-3966 1574 -2073 1901 1662 0
1545 1355 -3765 4606 940 -1476 0
-2924 -3622 -772 161 4765 -1101 0
-4468 -2594 98 -1486 0
254 2996 -1381 -741 0
4412 1487 3641 14 0
-820 1686 -722 -165 -4022 3866 0
4814 2577 -363 -2061 0
2978 1703 -4598 -1239 0
4017 444 4749 3149 0
3796 2810 -4894 2964 -770 0
-725 2319 3213 2822 -4852 0
-807 3738 3615 -3351 1600 0
-4508 4791 733 -1397 -2621 0
4588 478 -1967 -1209 -4203 -1947 0
-1183 4562 4077 4174 0
1798 1505 3996 -2137 -2041 0
4444 3993 -661 1249 319 838 0
-3907 -4976 -1442 739 -717 4632 0
-4072 -3888 2602 -2352 0
-3706 -2910 10 4749 -873 0
734 -792 3042 3452 0
2652 -1362 -1843 -3011 4580 -423 0
-1992 1143 2551 -2032 3300 0
-1775 4042 -2696 -3247 0
-300 -851 4388 -947 3903 -2532 0
2298 2666 3932 371 2346 0
2712 -1549 -2448 -3262 1327 0
4049 770 -2223 -3987 0
1106 -2231 -2630 -456 -2091 -3445 0
-3519 2019 3495 -2242 0
3681 -2307 -482 -2488 -120 0
2522 2957 4258 -383 3029 315 0
4700 -885 -2725 -2369 0
1219 -3630 37 -1208 0
4294 -1061 442 562 0
2662 -2827 2554 -1441 0
2415 -2865 2057 4681 0
1763 3433 -225 2204 -4241 0
-772 -212 -1636 -4489 -1049 0
-1661 -2528 4505 -836 0
1913 -1340 -3273 1826 0
290 -2892 2556 -2544 2897 0
1146 -1389 3333 -3974 1071 186 0
-1788 267 -2286 4997 0
180 3988 -2626 1890 0
552 -3427 2616 1859 -773 3454 0
4645 -1864 102 -4311 0
-2456 3716 4745 3456 582 -452 0
4500 -1168 3502 -2514 0
506 -2119 -1752 1655 0
507 4206 2003 -4654 -2215 3187 0
4544 -4625 3933 -4661 -4557 0
-4260 622 2629 -4604 -1757 0
-2217 1588 -4955 -3943 2510 1415 0
-695 -3024 3347 1818 -4516 -1860 0
2635 -2016 4192 -1519 0
2169 -2898 138 1402 -4918 2637 0
-679 -56 -4245 1414 0
4340 -4084 4608 3517 -2878 0
-1419 -2575 -1349 -4799 0
2338 4812 -3035 -4609 0
2899 -2668 3683 1761 0
-98 -2472 -4963 -3221 -1770 0
-4536 728 3545 3524 -1325 0
3120 -4616 -3747 -2509 -3877 -3473 0
314 -919 -3108 -3106 4009 2450 0
-3870 833 75 -2406 -4645 0
-1716 -2306 -172 -1816 314 1702 0
4626 4583 4872 4969 0
2885 -3513 706 3278 -1250 0
2679 -1067 -2124 3638 0
4541 -617 -4298 -1211 0
2437 4616 -3856 665 -4229 4779 0
-477 -4683 -760 4450 0
-824 -3779 -4093 -3252 -4547 0
-1006 1615 -2836 -2009 -4485 616 0
966 -1677 -1099 3893 -3940 3019 0
1458 4097 -624 -4248 0
359 4622 2056 2507 -15 4075 0
-4766 2226 -2337 -2381 0
-1017 4338 2666 -3575 -3545 2257 0
-2686 405 2750 -4577 -8 -2061 0
2026 3231 1617 2184 0
-446 -4464 -1977 816 -211 0
2802 2975 -1631 -4329 1154 2297 0
-3979 2325 552 -3953 0
-4384 2774 2828 -1266 -106 -2789 0
246 -2026 -1580 3379 -3759 0
-407 3673 -4113 -2021 0
-541 2277 -1699 -314 366 -2881 0
-2382 -775 -1291 -415 0
3381 4285 -3632 1172 -1683 0
-4331 192 -2570 3186 1189 1076 0
284 754 661 2411 756 -11 0
-2490 2183 3913 230 0
-902 -3318 -4276 -2423 4976 61 0
4029 2353 2989 1844 -4315 -4547 0
21 -1805 3542 -1452 3870 0
1865 -1488 -3228 -1462 -2801 0
4362 799 4424 1495 3028 774 0
-4707 -2758 -2202 -1641 4853 3351 0
-3482 310 2686 1495 2972 0
2059 3081 2509 -3716 -4709 0
-4017 -2405 4162 -881 0
1296 -310 -4370 2992 -3611 -2400 0
-1572 1407 3486 -231 -3304 336 0
3454 -149 4889 -2078 -1917 0
-4865 889 1578 -3954 0
811 -2074 750 933 1539 -1246 0
4229 -2437 -2317 -2027 228 0
2020 1496 -1579 3096 0
830 3763 -3321 -637 -906 -911 0
80 -4519 248 2769 2577 2345 0
-1735 670 -1381 -573 -3414 0
3941 -2530 -841 2600 1142 0
-4994 -4061 4141 -1144 337 -1267 0
-630 -588 3486 -781 0
-3906 -4128 -4489 -4628 -984 0
-1147 -3146 52 2420 -3903 0
1082 1635 4256 2218 0
1686 2493 2409 910 1987 2555 0
3327 416 -3021 -996 0
-3144 -398 -1549 4438 0
-1644 4770 125 -3307 2770 0
1525 -1096 -3762 -1030 0
4393 -555 -2470 1306 -3309 3864 0
2067 -2657 4240 2895 4280 0
-395 -369 1118 2164 0
-1523 867 -2516 -664 -4344 0
1768 2926 -2741 -248 1069 0
250 950 4642 -1065 0
944 3481 -1628 1765 0
-1379 -4254 -1452 4723 0
-1611 1789 1562 -4838 0
712 -3307 -3736 -3708 -3640 0
-1199 -1063 -4452 -3552 -2498 0
4731 1267 4138 1813 0
1883 -502 2103 2519 -3418 4647 0
-2230 4999 3395 4423 -2541 -3862 0
-208 2310 1119 2403 1344 0
4927 772 -2667 -3413 -4911 0
1078 733 4851 4922 3254 -4087 0
1505 -4038 953 2346 -2409 1856 0
-2306 453 -3837 -2912 -37 0
4140 -4272 -750 146 2461 0
-3764 -1698 822 2584 -1861 -1992 0
-814 -4456 857 845 -4758 0
-3357 -1284 145 -908 -214 2733 0
1759 -1403 2751 3596 0
-4121 3306 -738 1054 0
-1461 -2978 3623 -3079 0
-2841 -4604 -1849 1594 -3437 0
-4549 -212 -4657 4737 -1863 -4385 0
-12 -3852 -556 1124 -4865 -1612 0
-423 3107 -4862 3283 4207 4209 0
-4472 -3436 3127 -2244 0
-1986 4747 1553 -3196 -824 2391 0
-2694 2814 4233 3912 -9 0
655 -207 -1762 -2093 0
3625 3515 3210 3831 4670 0
4616 4490 1112 -3578 -1307 0
-1655 3084 884 -4689 -3018 -3443 0
-785 889 -380 3719 0
-525 1042 -2489 -3384 0
4984 1344 2834 -2251 2673 -4277 0
-4848 -1609 -175 -68 4100 0
1685 1794 -1802 662 2032 -3279 0
-4441 3799 4811 -3059 0
-4749 -4477 -638 -2327 -1616 1309 0
-2584 991 4698 -4741 -2859 0
-4096 844 952 -3214 -1272 1124 0
-3245 1199 -1758 3703 3051 4711 0
4584 3720 4354 -2690 0
-4893 -1627 901 4841 10 -4539 0
-3763 -745 3321 735 0
4189 4486 -136 3048 4243 0
4454 3818 4782 -3274 0
-4651 4920 -1544 4878 -3517 0
1673 -4442 -3337 3549 2860 0
-4165 -1005 -2996 1154 0
4934 2616 -3720 1132 2283 891 0
824 284 -1356 -1002 0
2670 -2569 2938 2041 0
-3288 -4522 -4495 1332 2663 3290 0
2949 3125 2609 -4936 0
723 -4022 -3623 1375 0
-1935 -2568 -2499 -4886 -4078 0
-4132 -1136 -1121 -836 0
3806 -3996 4403 58 0
-3625 646 4061 3187 0
3393 1277 -4814 -1739 1445 0
3601 3586 57 -355 -1970 -2001 0
-1271 -777 -4539 4696 -4863 -760 0
1520 -463 3047 -2941 0
1166 -3687 -895 -844 0
-3521 3811 -602 1853 -1071 0
189 -3426 4770 -4805 0
4398 2304 -3894 4920 0
459 1022 -3793 1329 0
4577 55 -2776 -496 -119 0
668 -3236 -815 -1411 0
-2649 -2007 -1049 3163 4886 0
-2509 3592 1165 -4501 1145 4216 0
-394 1013 2890 -762 -548 0
-4005 3553 852 4416 0
-4122 398 -916 -156 86 0
-145 -2923 2263 937 0
-4366 -4655 -3138 4234 0
4943 2996 -990 -3655 -1295 1173 0
4506 -722 -682 -4551 4009 0
1247 -218 131 -2379 -3478 4935 0
-4983 1903 -2047 3942 -2826 0
3351 3562 1085 3348 0
194 2320 -2713 -462 0
3036 3877 -3026 1121 -2440 0
-3565 -1896 831 -2884 1131 273 0
2962 2088 3304 2819 0
3487 -4347 -327 -3491 1465 0
-2765 -2310 4541 4264 -2191 627 0
4606 1232 -4729 -2459 394 4541 0
3371 990 -2131 -2454 -3427 -4392 0
-1945 4552 -1241 -2728 3259 0
374 3929 730 -2090 0
1279 -2766 3213 1347 0
291 3586 1588 -1264 0
-200 -1621 1853 2035 -265 -3469 0
-4101 2408 4308 -4871 0
-391 1801 2909 -2583 -295 0
2310 2672 1011 1419 3318 -768 0
-1489 -2366 -1594 3653 0
-4055 3044 1894 4192 -1657 0
-370 -580 2021 -4330 0
3275 376 -1652 -1739 0
-3032 1899 -3348 3563 0
1664 3491 704 70 0
1491 2043 3991 2527 -3829 -894 0
4737 -4119 -2672 1343 3346 -3941 0
2484 -3161 -4849 1984 0
-2059 1058 -795 -4095 227 3397 0
-3484 2407 -3866 -4257 -2105 0
3348 -3028 1111 -3474 4632 0
802 -1144 1909 1968 0
-2336 -585 -4767 -3319 4180 -933 0
-981 1765 2086 1810 0
1266 820 207 3030 -464 0
-4002 4550 2273 3817 -4801 -2596 0
-1381 2834 -2194 11 0
3140 374 -1961 1377 2261 0
1258 722 2062 -3300 0
-1208 4683 4028 -4477 0
-3570 -475 3566 -3158 0
2484 4753 -2891 71 0
-239 -2323 -1003 4302 1404 -3162 0
-3523 -351 -4630 -483 0
3358 2980 -1904 3856 2699 -1531 0
-1899 -490 -153 17 0
3407 1883 -2090 -1591 787 0
1706 -2537 1370 -3922 0
-454 366 -3926 -4140 -711 0
-1295 -2822 -4786 -2312 1225 0
-2148 -4410 -1520 1469 0
2676 4973 3607 -2728 0
-1062 1484 -2830 -3333 -4551 0
4544 -4242 -1780 -3642 0
1101 963 3099 -2377 0
189 588 4341 -3912 442 3223 0
-2015 -1887 -2541 -1933 2343 0
3155 4713 -1407 -1918 -2195 0
-1068 -1416 235 2872 0
3943 -229 677 3803 0
2057 4739 544 2197 -1784 0
-3325 815 4650 1821 0
-3258 4297 2335 -1282 0
3612 486 141 3744 3349 3733 0
-3851 -4981 1938 -1152 -1739 3319 0
3445 -4823 -4779 -4220 -1463 -572 0
-4291 1066 416 1919 262 3958 0
3557 -4200 4429 -1511 0
369 3146 3804 -1130 1688 0
-4059 -3712 3269 -2836 -4014 0
3472 -2612 -2928 -3797 -1334 -2272 0
3454 2035 -1016 -759 0
2039 -3219 3888 4798 0
-4497 -2584 567 4294 0
1075 -3225 -1988 3200 3964 -756 0
-1688 -536 4873 507 -3838 3212 0
-1006 3027 492 3178 -2301 -3626 0
561 -1058 3154 -443 0
4894 -344 -302 -3008 0
653 4703 4922 2 431 -1670 0
-1897 -1498 4127 4981 -694 4875 0
617 -263 -4853 -4105 -2699 426 0
3164 -2158 2003 4477 3764 -90 0
990 -1284 1350 -1500 0
395 2803 -2952 -4287 -2734 0
3874 989 -2879 -1007 0
4832 -4838 2330 4533 0
1455 -1054 -1398 1383 2521 -2173 0
-4207 -757 4161 3351 -1874 0
-3127 -4120 342 4952 0
-452 2821 -2316 -1216 1174 0
-1539 4573 4475 -2929 4029 0
1534 -1081 -2539 1848 2178 0
-4853 -2248 4148 -952 0
4040 -273 2357 653 3399 0
-585 -3425 -1193 4175 -4924 0
-1588 -360 2414 4063 -1409 0
-462 -2261 1690 -3785 0
-478 -866 -4474 2030 269 281 0
-1850 3492 -3923 1308 0
1032 -4100 -1551 2816 -147 0
-2608 2996 1363 -4039 0
-1842 2945 -4543 -3419 0
-1687 -3776 4138 1026 1107 0
3037 344 -3678 3402 -2055 0
2883 3522 4308 -2935 -491 0
-3143 -1890 -4622 -4098 0
507 3002 -3658 -1523 0
-3234 4775 292 3821 0
-2574 4675 -3262 -1993 0
735 -4333 -57 4631 0
2621 2304 4017 1882 2738 0
2206 2753 3857 1587 1213 0
597 1387 -1492 4087 -4006 0
2652 -733 4803 -4440 0
-4532 1040 2691 2799 -4251 0
227 -2891 -865 -1120 0
2366 2607 1231 541 0
655 3294 4446 4442 3782 0
-963 -4102 3931 -2493 0
-3980 -3530 3687 3384 3060 0
-331 -3098 -2139 1594 -2484 -4143 0
-2872 322 -3899 -2377 4503 -426 0
-885 -608 -2752 1264 0
-1338 -3255 -3319 157 -3550 0
2857 -3784 3512 1612 0
1742 267 4575 -4403 3228 0
-3932 -1686 1389 1826 0
2788 -3684 -4656 1838 -4304 4347 0
2150 -3270 2802 -79 23 0
1373 -2821 2576 1170 -3167 0
-2513 -4563 4076 3162 -4719 0
-4354 3006 3115 -4632 4519 0
581 3298 -1422 2658 0
3312 -1629 -955 -3173 0
-1313 945 -1785 -2405 -51 0
3012 594 4429 -4540 695 0
-1524 92 305 2137 -243 -4429 0
156 -2451 3190 801 1112 -555 0
4598 4626 -3253 -2044 0
-573 -4524 2186 -186 1725 0
355 2886 -3201 1516 4249 -92 0
2863 -3087 3995 -4033 -1161 -4363 0
-1319 -2274 -272 3793 0
2794 -120 3088 4775 -1712 0
2756 -78 235 -1185 4409 0
495 -4480 2817 707 0
-3534 -3057 4324 885 0
3463 -557 -2343 -4697 3035 4401 0
-640 3327 -2563 1193 0
-2735 3067 -3847 -2988 0
-178 432 -1486 -3212 -4325 0
-3904 -1674 1422 2536 2700 0
-1550 -4690 3969 -4694 1101 658 0
-2187 500 -3967 2151 3760 0
3858 -3991 2053 -3149 -3035 -4872 0
-1235 -1525 -2553 958 1055 -1083 0
1536 -2434 2927 -586 0
-2112 -4874 3563 2711 0
4662 -3204 4993 -35 2609 317 0
-2281 -4313 2941 3574 0
-187 1552 4143 2046 0
3266 4530 2533 -3291 -521 0
-1529 2673 -3792 3455 -4578 1599 0
-2345 -397 -3492 -62 -3955 0
1394 4732 890 4608 0
468 -844 3599 3438 -4883 -2748 0
-1055 -4077 979 -4726 -899 1956 0
-1483 -3368 1035 -3672 -2669 0
3950 53 -496 -3371 -4797 0
-4204 389 3866 -3967 0
-2203 2627 1217 1673 -2668 0
4132 1229 2948 2631 0
-3244 -1331 491 -1998 -3153 0
1963 4738 3754 2373 3395 -227 0
1644 506 807 299 -1829 0
-1554 3619 -2922 -4140 1260 -4163 0
1141 2899 -4868 549 0
1120 1214 2181 2418 -3065 -2833 0
3843 -504 -4104 -1322 0
-3788 -3331 -4184 3898 -3978 0
4136 -3152 -949 4185 -2940 -1047 0
4133 -4713 -4469 -2149 -1311 0
1792 3938 1864 -1372 0
-1228 4695 -3464 -73 0
-4071 -2831 -2182 -573 0
-4599 -26 1318 4560 0
-3055 -1887 1314 1976 3198 -4654 0
1506 -3201 2884 -1420 0
-1002 155 1733 3022 -3115 -4819 0
-397 -1325 -4875 -510 0
2463 2125 3182 3104 0
-1295 4641 3898 4393 -1645 0
-367 2152 -2144 857 1002 0
-1654 -870 -3714 -2033 0
-1750 -1048 2348 1718 -3634 4078 0
192 2300 -3320 -2104 0
2163 2892 -3770 -3184 -2412 4602 0
1596 -4073 1936 -1116 -4149 0
1220 -3465 -312 -4473 3636 -565 0
-1119 -1406 -3711 235 4406 3407 0
-2256 2290 -262 -1488 0
-1312 -4559 2360 4885 0
-756 3881 4484 719 0
-2597 -3485 -947 -2735 -3649 0
-4891 215 -4159 -4400 0
810 4283 -465 1737 0
3167 1647 3911 1317 -269 -1159 0
-4780 -3354 -1424 -1346 2074 0
-3840 703 -1622 -1530 2893 4113 0
3746 2501 4960 -1698 0
198 -1648 -4443 3530 -3368 0
-3285 1887 1699 4106 -412 0
3406 2931 -2118 3279 0
1254 3685 -646 -409 4200 873 0
1264 -2777 2581 -1484 2658 0
-3848 592 -3437 -4668 3599 -1694 0
-1806 2666 -2972 -3846 1508 0
-1515 2218 1517 333 0
-2234 3881 -1435 1228 -1720 -3441 0
869 -4603 3062 3630 0
4187 -2884 1976 -2271 0
3426 4159 4818 -1109 -4214 0
-2272 -143 4434 -913 -3118 0
1268 -2638 -3265 -4663 3675 0
4856 -305 -771 26 4814 0
2486 4591 3404 3137 0
-613 -2161 3373 2693 -3509 -2204 0
3125 3908 2640 -4273 0
-1573 4996 4044 3242 1435 0
-4543 -309 505 -4703 0
4672 2645 3482 -4341 0
3625 4234 2342 3192 -400 -4971 0
-4514 1038 -4509 2335 0
-1196 -3221 -3810 -1321 0
-2410 2126 186 -3290 920 0
4156 1309 -4388 -983 1253 4083 0
1669 3518 1910 3636 0
4347 -4230 331 4203 -4725 0
-2509 -1111 -4983 3196 3032 0
2780 -3584 179 -2391 0
1723 4886 2075 2919 -2291 -1696 0
-4009 3304 -4915 -2132 -2535 0
-2177 -4863 -2562 -4418 2569 4297 0
762 -473 -1874 4562 4639 0
-2157 3767 3654 1623 -3816 0
4338 3775 -4313 1859 0
-1092 -3794 3866 3511 -2742 0
3850 2596 1551 -1402 -3426 0
-738 -3340 -67 136 4568 0
-751 2536 -3221 2628 -2302 0
2482 -3855 2964 -1336 861 -3055 0
-3275 -4590 569 -4323 0
-1566 1263 -4902 4675 -1075 0
2819 -4051 3618 -1767 -1308 0
523 4539 2571 1580 0
-493 -1672 2696 -3365 0
-2352 -3551 -3678 -4780 3117 -4805 0
4448 1956 1367 -1192 0
-3799 -1075 -3175 -974 0
-751 2732 4413 -1174 4373 1789 0
-3382 -1678 -404 -125 312 0
1119 2506 2595 4338 200 -3257 0
-4700 2132 -3622 -115 144 -2769 0
1109 4544 -4168 -4447 -1432 37 0
-2617 1013 -2595 -487 4906 3532 0
1306 2405 146 778 0
2010 -4506 -4301 1653 3095 917 0
-4023 3064 -1961 -1020 359 -2389 0
-4839 2867 -838 3 0
1230 2897 -2230 -4697 0
-1341 -3097 -1067 -2689 4880 -3305 0
-3349 -3980 3501 2009 3882 -900 0
-3921 -1890 1214 2163 0
-4954 2140 3344 1824 -370 3804 0
-1209 3269 -2648 -4906 0
-523 2439 -1909 -1158 0
196 1018 3354 1524 2152 -2807 0
416 -2629 -1638 4634 0
-2592 -834 -2040 -1824 -4588 78 0
-2503 -1784 -3270 -963 0
-597 -3523 1290 459 -368 0
-2290 -3195 -657 1534 2790 4672 0
-2338 2741 2528 800 0
4760 -4641 3742 -1335 2014 0
728 4215 2995 -1352 1244 0
4592 4775 -4272 -1434 1048 0
2017 3593 -1256 1422 -4815 0
4375 -3294 -4385 2765 4101 0
4207 2648 -3116 -334 0
-2537 2057 -1133 3705 3636 0
3345 -3201 -1287 -4307 0
-2034 -413 1455 1804 4003 3047 0
-3918 3230 -2387 -1124 3957 -4164 0
-2979 -1625 -3349 -3328 3601 0
3684 2037 467 105 -1208 0
2356 -2327 4279 20 2021 0
-2005 -1737 -1668 4035 2395 0
-3419 1349 -1142 -4897 2623 0
1703 -1678 -4419 -2187 2023 0
-262 2296 -3307 -2685 -1245 0
-2089 231 172 -1647 -4451 4202 0
427 4071 -4285 1671 4116 -1646 0
1872 -2541 -421 1772 2845 4699 0
-442 2837 3725 -3269 806 0
-1468 -905 -732 207 1478 -4886 0
4525 521 2966 2951 0
-4355 -4061 -3918 466 0
513 1777 -3492 3870 -99 872 0
-4396 -4505 -4387 -2264 0
-1079 -2966 3905 4185 -3588 0
1920 -3790 -3654 563 0
-3707 -4812 3570 -4960 -4739 4659 0
402 -3567 -2616 78 2737 -2633 0
3802 1395 -1750 -4281 -4603 1691 0
-1410 -3150 4999 2431 1495 0
-1262 3174 3652 4903 -3312 0
-713 1342 2867 -912 3131 -488 0
1867 -2666 2450 -1229 -3173 0
-3798 -4508 -4741 2833 -4490 3502 0
2413 -1030 -4296 1266 0
-3757 -4348 2921 304 2762 2212 0
754 689 -1742 -757 2245 0
2272 -4442 -1681 1909 -2994 71 0
-4907 1871 -946 2751 1625 -2230 0
-939 -3669 956 3563 0
-4093 1787 3540 2584 0
-4450 -954 -4740 -712 0
-4737 1834 -509 -3591 0
-2696 1466 -1891 -826 0
2443 500 -4088 4446 -3031 0
-469 -2026 2747 -4192 3841 0
335 2510 -1642 -1618 -4630 0
1734 -3525 -2259 -4452 -2050 1830 0
4264 -3663 -632 -1465 251 -3157 0
1651 3746 4622 3241 0
-2404 2273 2707 -3678 0
4828 4136 -3228 -2774 0
4706 -4453 -1279 645 0
-1925 -2372 4038 -317 -3847 0
-4650 1579 -3370 2217 -4407 3019 0
3315 3713 348 831 0
4865 1426 1855 4503 -4024 4075 0
-4950 2050 4783 2322 0
-4211 -2630 -2700 1187 0
4725 3620 235 2797 0
2775 4899 -1118 1397 1302 0
-1850 3412 -352 3724 4062 0
-1815 -2655 2105 -4666 4074 4651 0
3315 -3745 677 2038 -1005 4291 0
4194 -3492 -4688 3062 2200 0
2747 4130 -2334 2412 -2175 51 0
-521 -961 -2647 -186 1461 0
4728 2614 1935 4740 -1478 -3526 0
3680 3676 1638 -4892 -2992 -2499 0
-287 -1762 -3202 2317 3221 0
-804 452 -4048 -1517 1819 0
-4158 4633 392 -52 0
-2138 -3516 -3753 4314 3336 0
274 3721 -14 3401 4967 4863 0
-3174 4113 -3242 2251 0
-2732 -301 -4604 -1996 -1846 0
-2174 2843 -3598 -4712 -3825 0
3745 4562 172 420 -3600 0
2996 -3383 -1493 404 -3624 0
3351 1722 3176 1422 -1428 3303 0
4968 2510 -1564 1675 0
-4229 4264 -2775 -798 -1746 0
4077 3468 -4128 1567 -3473 0
-4640 1124 -3771 1290 0
10 4074 3903 -1003 0
-866 4623 2988 829 0
1392 3410 2321 1851 0
-2568 -1217 2911 57 4660 -4126 0
358 -2086 236 110 0
-775 -485 4171 967 4602 0
352 -2471 2836 -2094 -3096 0
-4948 3555 4021 -4479 0
-200 -1255 4786 -2970 0
-818 4155 -3897 -3710 0
1541 -110 2093 -3514 935 1126 0
2436 18 -2274 -2741 0
4503 3643 2365 1550 0
3969 3661 4434 2783 0
-2128 4263 4123 1834 -999 0
464 1664 1243 -4456 -3486 846 0
2632 406 3123 -1204 2213 -2057 0
3789 -4688 -3369 1328 2239 0
-4087 270 5000 -1097 4941 1593 0
-3389 3255 4 788 898 0
2034 -3860 4237 4419 0
3831 3054 -302 -2391 -4609 2843 0
2353 -614 1244 -3807 2525 0
2447 -1222 2062 -1436 0
1391 3877 589 -4257 0
-2601 3673 4275 2001 0
3539 -628 -4766 -1746 -2806 1195 0
-4138 2772 -1414 137 0
-3425 515 -4287 598 0
527 -3821 -4359 1901 3498 0
1223 -4925 -356 -1003 235 0
1073 -133 -1205 -3177 -4929 -4705 0
-2370 -1677 -2645 2002 4831 3382 0
-894 -4492 -3974 856 -3001 0
4253 3736 -581 3668 3309 0
4265 -1022 2548 1297 2311 -4114 0
-1652 4499 3853 3665 0
-2818 -4257 2683 -3318 3537 0
-4062 4900 1468 -3596 -988 -2462 0
-266 3799 2096 3114 491 0
4592 3298 -3323 -4947 0
3931 1818 -2190 4253 1099 0
-4860 -4075 -3118 1223 1972 0
4529 -4293 -372 -2731 3590 0
-3742 -581 3974 1747 -2773 0
3274 4105 4490 -2979 -1788 0
4535 3555 -471 3738 4623 0
-425 3401 231 -4848 -3966 758 0
1564 3015 -2692 1026 -1344 -2888 0
-3012 1020 -1803 1934 3111 2213 0
-2225 -129 1599 -4361 -1148 0
1653 1275 -4616 -2646 -4410 0
500 -4172 3861 -1840 0
-295 789 -3169 -3513 0
-1708 2425 887 2366 0
-3283 882 4991 4069 1349 0
-4586 782 2980 -1215 -284 0
807 777 -4679 197 4620 3548 0
-4307 -344 -3225 2922 2707 1207 0
-2829 3281 3735 1568 -4064 0
171 -3525 -2004 3334 0
1689 -3951 -696 4622 -1453 3960 0
2915 -2848 -2724 -98 -624 -436 0
1385 -4646 -313 -2710 2507 0
4152 -3325 -242 1102 -4566 2397 0
-2597 -3237 -481 -4583 -471 -4123 0
2472 -3946 4746 -2004 0
951 -1103 -3282 -3729 0
4395 4676 4779 -4072 4122 0
537 -4903 -129 2673 0
-2692 1832 -3022 644 -201 3771 0
3911 -1757 3615 604 482 0
493 -2510 2612 -107 3754 2616 0
-418 2016 -410 1348 0
3581 4946 1707 2421 2841 1321 0
2575 -3925 185 1769 231 0
-2170 -4009 406 -4637 0
3525 -4478 2344 1392 303 -1584 0
2964 -3166 4998 -3257 2201 0
-4510 2130 4148 -3632 4247 -1192 0
1297 2572 -4976 -3341 3754 0
-2820 4739 1209 148 2389 0
706 3566 702 -324 -3407 -1449 0
4013 -3649 -2055 -204 -4404 878 0
-4570 1403 -2798 2451 4521 0
-806 4448 -556 -706 2269 0
140 -2373 3359 4401 -4242 350 0
-2737 -134 -2951 3323 -932 0
-4888 1771 3248 -477 -1490 4070 0
-3736 3534 -978 3252 -4231 -258 0
-2142 -3677 -3588 -857 0
-74 -2293 -3856 -4776 2359 -1832 0
-1874 -748 39 -3169 -2897 0
-4868 -1329 3664 -4087 2204 0
-3014 -2882 2032 -3566 0
3627 3763 -1719 -142 -3191 0
-1011 -2043 -3367 -579 -2386 0
4585 4686 -3755 -1449 -1793 -1948 0
2098 1381 970 -792 0
4213 -634 -1290 3817 -3859 -1724 0
-4346 -1223 -1873 2048 3823 4184 0
1004 -1916 -416 2044 0
-3911 4583 -4932 -1993 -4002 -2760 0
809 517 -3371 1095 0
679 152 779 -4779 -1370 -502 0
-2453 1983 2647 3138 -3202 -4519 0
-2731 2301 -724 -2027 -1107 -3299 0
-2403 -1615 -513 230 4029 0
2086 1610 4100 -810 -1087 4261 0
-2759 -241 -3176 1659 -3225 3919 0
-499 -1384 3269 -4241 4975 0
1951 -4473 1387 380 -2324 0
-2586 1629 3825 1028 2638 0
-3022 2519 -3904 -2893 4446 -2008 0
-4710 4646 3643 -1954 -3756 0
-2204 -2305 1998 406 -4261 3326 0
-3415 -341 1394 1069 760 0
-2956 626 -2696 3693 -3626 652 0
-2607 1309 -3122 -1785 0
-1478 2364 2780 185 0
-3182 2063 3056 1817 0
-2644 1585 3133 -4082 -411 1846 0
2567 1278 2337 -3585 0
792 -1324 -4797 3504 3919 1814 0
3620 4281 1362 4316 2101 1016 0
-2037 1476 -3303 2400 2114 -1033 0
-892 -4943 3175 1474 -584 0
-2840 1772 1130 -692 3567 -3672 0
-1559 -4583 -2752 470 -955 202 0
3833 -3934 4067 -3340 4556 0
3592 1556 -2655 -649 1129 1650 0
-2199 362 -128 2379 3198 0
3988 -29 -3840 4198 -4064 -3737 0
-3129 -2517 -2670 4381 897 -4675 0
4488 -2887 636 -3849 4457 3223 0
-2996 2485 1297 -2234 -2923 0
208 -986 -4855 -2738 -1395 -4854 0
2082 3655 -431 2629 0
567 -2911 2176 1516 -2181 -2806 0
3683 -1436 497 -3804 4328 0
846 1338 3046 2836 -20 0
863 3710 -3842 -1150 3144 2426 0
-856 -2333 -508 3856 -2404 3508 0
1618 -1115 -4576 -2726 -649 -783 0
-1575 3994 4823 -4342 0
-1629 -1301 4838 1719 3639 0
2807 4377 -664 2678 -1070 -1178 0
-2264 -4150 -3068 2297 0
-3076 4433 4359 4080 -2013 0
-2899 -1390 -3216 -3321 0
349 -1803 -1310 -3124 3923 -3727 0
-1481 1412 -4786 2493 -4990 3668 0
2022 -1044 -4594 3569 -4766 0
-2119 -3388 -1051 -1471 -394 0
-2207 1630 -2353 174 0
1793 -750 1879 3868 -1298 0
1875 2720 -4837 -3669 0
2358 -4618 3453 2430 3964 0
3345 2603 4988 -1150 0
4568 2014 2243 -1087 3850 0
-1841 3918 -4242 863 0
637 -4693 -4141 -2748 -3778 0
193 -3232 -4385 -3956 0
-3140 4074 -2411 -3495 -3620 -768 0
-1978 384 -2724 2818 1337 823 0
-2607 -1328 -18 3952 1749 0
2292 -2221 -2494 1153 0
366 854 -1365 -93 -834 0
67 -1687 -3837 1334 3047 0
-3193 -4237 -4732 4802 4385 -4953 0
-1642 3544 -2874 3814 1643 0
-638 -4126 -2770 3551 4626 0
3489 3869 4137 342 0
1335 1935 1627 -1026 3194 0
607 1941 -3230 1388 1413 -3489 0
2232 875 -2947 806 -2171 0
-1924 4382 4821 1028 0
-2761 -4890 -466 1985 838 -20 0
2302 323 3706 1323 0
3514 1184 -749 3539 -1123 0
2899 -4864 -2392 3426 822 -4965 0
1400 3042 -1721 2153 0
-1148 2020 2404 2302 2589 0
-1556 3780 315 -1118 0
3644 3326 2478 1505 2164 4903 0
-25 -1749 -3009 3939 -3924 -1226 0
1196 2829 -1543 -706 0
-2551 -2119 1855 3038 -905 1243 0
4678 1986 3391 -190 3505 0
5000 141 116 -963 3600 0
220 1657 4155 -2811 -2900 -374 0
3792 1207 2516 4424 0
-2258 845 2185 2495 -64 0
3441 1934 2539 762 0
-2436 3831 -3890 -3224 2034 0
-1263 2321 4150 2077 -3435 0
-4021 564 -3597 1844 0
2653 2451 4603 -2274 0
720 3108 -3891 4213 2759 -4365 0
1642 1348 -1192 2111 -509 0
4271 4565 1524 58 -268 0
1548 2871 1137 -206 440 4951 0
-3814 4811 -3223 -4016 0
-953 -1514 -2192 -3650 0
-2496 3048 962 -4446 -1622 0
4513 38 -2413 -301 0
-388 -1829 -3610 4339 3634 -4474 0
2886 3771 1782 -3708 -1250 0
-4840 2526 -4857 4420 0
-3004 4908 494 4952 0
3671 -403 1271 3452 -187 0
3376 -1325 -4209 -481 -2305 0
1317 1938 -4165 -3231 1462 0
1996 1959 -717 -498 0
-4757 2002 2055 -2777 -4637 0
-2839 -2882 -2973 2523 0
2190 -4092 -4556 -3037 -3913 4323 0
3349 -4832 1502 3319 0
524 -2197 4686 -4139 0
-2073 -4270 442 -867 -512 0
-588 -3132 428 -2077 3218 724 0
3930 -4657 336 -2700 2549 0
1479 1370 -2945 2733 -4317 4279 0
2138 3547 -1009 -588 -3253 4308 0
-3038 23 -3146 -987 -1418 0
590 -568 4151 3622 -4841 0
1327 -3745 -2848 -4413 0
-4089 4457 2192 -347 0
2806 -1810 4118 -4775 0
1523 4968 -4451 1394 -2055 0
-1309 -2892 385 1257 0
-3697 4730 -1977 3288 0
-4244 -4576 -4364 2615 395 4612 0
-3968 -1351 3402 97 3905 0
-2121 4938 3295 4991 -4358 2067 0
-2152 696 -2295 516 0
3437 2275 -4192 3316 0
1967 -1757 4684 -3183 0
-1985 4431 548 -4754 -3300 400 0
3372 -2347 -3743 1448 90 0
1719 352 407 3785 -1372 2362 0
-618 -4437 -3545 -2436 -4945 609 0
1997 -3204 -1796 -158 -1320 0
4803 2662 4709 4729 996 0
3653 -1900 -3751 -3634 298 -300 0
-4287 2414 3184 -1920 3179 -1444 0
-1486 -1116 3085 -2796 0
422 4225 3929 3599 0
3951 3836 -573 2726 3735 -1393 0
3811 3392 -661 -2433 0
2379 3929 1593 -22 0
3811 -4986 347 4087 0
4365 4894 -514 795 0
-51 2557 626 2070 0
-4526 -1612 4044 -3215 0
805 2705 -474 103 0
-1775 -2563 3694 -3148 -1007 -3368 0
3924 3030 -4635 3293 4092 -2167 0
-3751 4047 2272 4079 0
-4003 4432 -2940 -2650 -2505 3492 0
-2779 706 -3601 -3425 -4643 3013 0
-1888 -1250 -1088 3733 -4995 2232 0
2116 3793 1329 263 1234 3409 0
4212 640 -1586 3165 0
-2767 2541 2182 -3699 3168 -4740 0
-3348 4829 -727 -1486 0
2583 2661 2667 3433 -1554 0
2491 -3601 3354 -3663 4000 0
1741 3815 -786 3117 1246 0
-1345 -4222 -4218 -1154 -2766 -572 0
3544 -468 1165 -3968 0
2256 1925 -1215 -4700 0
3888 -3568 -1575 970 2540 -3768 0
1243 2461 4286 1319 -459 -1858 0
1931 1117 -2842 3599 333 -4416 0
3226 -4211 -4864 -3460 972 0
-1922 -1631 -4032 -1495 0
2106 3430 -418 1134 1258 0
-3471 -3300 2332 605 59 392 0
-3012 -4408 -1428 4237 0
3882 -4424 -2334 1890 99 -2382 0
-884 616 -1690 -4200 -205 0
3934 -218 -4950 -3155 -3564 0
-4232 -3231 1250 2136 488 0
718 1928 -4041 -948 1224 -831 0
2062 -1000 -2647 -433 1430 1545 0
-3682 -1543 2132 660 0
45 4824 1911 428 0
-203 -4939 -4968 -4990 -1119 0
3834 970 -4887 -3890 0
1831 1453 3395 -2017 -2145 0
-2255 1643 -1517 35 1817 2466 0
-3629 -3948 3745 1546 0
3357 -2500 2519 -2507 0
2041 -3 436 -2942 4757 -1524 0
3973 -1088 725 -3754 3441 0
4033 3697 -2096 -1532 -4067 1596 0
-3609 -1133 -4444 -3523 929 -1324 0
2530 1694 -4953 -4024 -4946 -1153 0
-665 -2459 4354 3102 -1650 0
-7 -3352 -4908 3709 2200 0
-3834 -3314 -1049 -4529 0
4411 3999 -1360 -1154 -1213 0
3314 457 3746 4140 0
4154 692 -4631 -4042 2858 0
1848 -2637 -1501 -665 2575 -1543 0
1665 -2010 -3377 -3836 0
-3635 -3305 4872 4888 0
2160 4075 1981 3416 0
-137 4515 3615 -153 2094 0
2426 3139 2593 -1873 -657 -543 0
-2960 -4119 -4274 1361 -620 1506 0
3418 3832 1520 3494 0
-2935 -538 3873 -2770 3782 -3123 0
378 -926 3568 -4615 0
-3628 1797 3058 -1908 -4686 2151 0
-637 3001 4118 -1038 0
-334 -1763 -2234 2187 -1103 4311 0
-408 183 -4843 -1505 -4722 -2107 0
802 -4366 -4760 -3654 0
2892 -279 -128 3260 680 -2374 0
1543 1006 -46 -3048 1224 1472 0
-2804 -4205 2803 3117 4465 0
2931 -2393 -3423 -1696 3999 1160 0
2359 740 -3870 -585 2745 0
639 -970 2763 -3902 0
-1250 423 3491 -2 -4324 -4248 0
4971 1556 -1311 -4176 0
4082 2413 -1590 -897 0
2853 112 1733 -4999 -3594 0
766 812 2505 221 0
-379 1155 -3917 -3125 1664 3088 0
-4665 1299 -1914 -4053 2163 3560 0
4977 2877 -4259 158 191 -2230 0
2498 2395 -1317 2316 0
3641 -2756 4522 3420 0
2662 2336 -1116 -3008 0
-1477 -2689 4536 -1536 582 -2395 0
-4072 -3214 4952 2106 1889 0
4086 2880 -4537 2430 0
-644 -2346 1997 -1888 -4136 0
-2579 -4161 -729 4423 0
-3321 -1044 -3294 1699 0
4960 4500 -2935 3949 863 0
3818 -2067 1969 4788 403 -1148 0
-1181 4314 -4111 -2099 -3849 3261 0
1218 1292 2936 1521 -1815 0
-741 4905 -2537 -3349 -888 -111 0
3633 1861 -2398 -3963 0
-3765 -1690 2529 2181 -4217 0
-3264 -2599 2402 2046 0
-903 -3179 -3954 4603 -3322 0
-691 -4036 1215 2507 -255 4293 0
1229 -1610 4645 2386 412 0
4449 3887 3022 3694 -688 0
670 1324 4757 -3982 -4745 -1050 0
4827 -1539 1399 2914 0
-759 -2850 1878 -794 0
2133 3019 438 -763 2733 2637 0
-2946 173 2073 3010 0
1095 -3790 1293 3783 -1436 -4278 0
-4615 3297 701 -478 -3320 3515 0
-1617 -1114 -2714 -3876 1991 0
4585 4914 2638 2530 1388 2549 0
628 2483 -1005 3977 0
-2979 3029 3445 4454 -2897 -4547 0
-3863 -1893 4918 -363 0
-1844 -4558 684 2244 -4243 -1576 0
-4613 -4939 19 217 -1904 3182 0
-4948 -658 -272 1056 1197 4970 0
-3803 -617 2328 3949 1855 0
3482 -54 -1959 -1842 -2487 -1549 0
2986 -1537 1911 1234 0
-3476 1493 -342 289 -1968 0
1685 -508 1441 -3084 0
-4303 -3158 614 -2341 -4052 -1019 0
-3360 -3776 -8 4486 830 0
4839 660 620 -993 0
4149 -1419 -3536 4062 -554 1747 0
-4012 3929 -1982 1553 -2749 0
-4655 2769 3697 -2919 -1735 0
1142 3841 -2288 -4635 -3789 0
3291 -3520 -3826 -1090 0
3005 306 1742 920 2057 0
4865 4988 1453 -3704 3873 0
3753 -1060 4475 658 2673 0
-3652 -3798 -4709 -2630 -993 0
-1610 352 -1227 -2838 0
-2431 -495 -1940 -3246 -4867 -3582 0
743 4193 -1638 -4714 3915 0
1934 4148 1592 -2892 1906 0
-4973 3704 1332 -1751 0
881 1022 -4115 3159 -3052 0
-1343 361 2267 3522 2434 -364 0
-2483 3380 -4125 -110 4144 -3696 0
-2427 -3777 -4824 -3894 0
3583 -1287 -1077 1817 3881 -4019 0
1382 -1209 -2064 2463 713 2352 0
-1577 3087 4323 -412 0
1545 2660 2662 -1311 0
3724 -3422 -2704 3132 82 -1756 0
168 557 -992 -4692 -1443 0
3547 -2830 -4382 -1915 4466 0
-2485 3031 -2404 651 -3437 0
2590 -223 -905 -603 0
1200 2374 -871 -4033 -3437 0
4999 -3705 -464 822 0
435 3284 -2721 3631 4431 0
222 -1866 1425 -1470 -2200 0
1322 2600 1131 412 735 0
562 -3772 -3677 -1047 -3210 0
-4232 -2778 -1121 -4410 -112 0
-916 -969 -2226 -1183 -3031 0
966 -322 -765 3134 4414 0
2615 -1507 4229 2520 0
3661 -1480 2549 -2333 0
-1198 -4806 -3260 2447 0
-2612 -159 -2510 -29 -1463 0
3175 -2642 2360 1797 1007 0
1504 2394 -1025 2190 0
-3859 3817 3143 -4672 3370 0
4285 -3896 1171 -4328 0
394 2480 -2259 -855 0
-1574 2393 1490 1591 -2471 0
3826 -2131 -2891 1522 -2223 0
406 -2268 -4924 2239 0
322 3847 2107 -4259 4454 0
-4565 -1227 -133 -1640 -340 -4002 0
4822 2809 -2364 -2139 0
-1148 -1241 1063 -357 4810 0
-2048 -3994 2955 3185 0
1226 3583 -1191 907 1591 0
1058 -1039 -2789 577 0
-2145 883 -1992 -2396 4144 2618 0
1247 -2539 -1498 -2333 21 0
1549 1735 4306 -4150 -3975 0
1163 -3568 4996 -814 2703 0
3905 606 1211 3252 -2796 -3601 0
-3700 -4967 228 443 0
-4331 4187 3256 705 2718 632 0
-3728 -3261 3839 729 0
-4045 3641 -4104 -331 4011 -1900 0
-3642 -2920 -3827 -3781 0
3438 598 3022 1975 255 0
-1778 -114 3991 -4566 0
-491 -976 3179 3884 -590 2512 0
4382 584 4577 -878 -522 0
4215 3456 -3021 -29 -3931 0
3884 1062 3144 1365 253 0
-1816 -2699 2479 -4938 1217 3242 0
-2572 4497 -1749 -2040 0
230 -3495 679 -2641 0
2516 -2718 1948 -120 628 0
1671 -4522 3644 -3690 -3141 2443 0
4750 2500 2419 1512 1071 0
4321 424 -4858 1103 -2879 3162 0
813 -1760 -3874 4302 -827 -2723 0
4284 2257 196 -1893 3137 0
1936 -867 -4899 -196 -2376 0
2082 -799 4220 -3116 -4076 2172 0
-3029 -4989 -443 -3202 -2160 2435 0
-918 3953 4153 -1196 -3926 -23 0
-1154 2652 -2919 418 -1849 -1059 0
4838 3022 -3734 460 2544 0
-1910 -2413 3940 3020 3087 208 0
3982 4713 4140 1105 0
-3758 -2436 -2335 2392 1122 0
-4157 1331 3808 347 -2514 0
-3820 948 -4057 -4645 -1747 2467 0
-1632 120 282 3241 0
-4536 1250 3005 1165 2938 -4909 0
3957 2441 3778 4384 0
1895 632 4167 -912 4650 0
-2086 4861 3406 2464 4393 0
-2779 4678 997 -4638 2485 -1548 0
-130 -854 1138 529 4963 4415 0
365 2800 1387 1933 0
-3972 -3825 2799 3841 1868 0
-762 -1412 334 4247 -2114 971 0
-2566 1375 -311 3837 755 4666 0
4187 3414 -4961 -4452 -672 0
-3615 -2454 -907 -113 -522 0
3737 3705 4465 3131 0
408 -2321 1016 -4600 0
-2657 -4116 4834 4697 0
-4628 3374 398 -2094 -2162 -2933 0
3007 -798 -1235 -434 1699 -1834 0
-1353 2694 3675 -427 0
3056 3597 -4189 3875 2710 -3160 0
-1936 -657 -3909 3052 0
4113 -442 -1190 3798 0
699 -607 1202 -1093 0
-4444 -2691 761 171 2096 0
4713 -4275 972 3460 3068 0
-4125 2825 -4417 4387 1211 1527 0
3330 -4165 303 3506 4961 -3185 0
-2411 -4772 -1542 1389 -2768 0
-1888 4576 -981 -353 0
-756 3088 4976 1057 0
-357 -3909 295 863 4197 0
-1151 336 -347 3475 -2404 0
4780 3449 -4914 -3645 -4132 -770 0
-3799 1650 1236 -2081 0
-1093 2933 4132 -1609 0
3545 -3159 -1547 1475 955 -4 0
988 -1889 -2093 223 0
-2480 -2295 -4020 792 0
-405 4221 -329 -1618 -1020 2127 0
572 -4319 2309 -1715 0
3692 454 -4693 2020 -2006 886 0
-1775 -1518 2141 -4510 0
-995 -4764 2045 -3326 -613 0
-2469 -3704 1118 1435 -3225 0
4069 4114 3164 3591 4120 0
-1324 -138 -2415 650 -1588 0
-3753 -930 -2742 -1579 -3262 4830 0
-1851 4041 -4832 649 2729 0
2290 -137 -3717 4352 0
-2145 3449 3814 501 4594 0
-3361 1668 3907 1717 0
750 -1518 1443 620 0
-1221 -3690 -4228 -2439 0
-4993 2665 -1620 -2621 0
4511 567 -1754 4364 -4959 -1131 0
1266 -1868 4893 -208 3902 0
-2240 638 2019 3848 2121 -1173 0
-1867 -1514 -4680 4683 -643 3072 0
-286 -817 -1906 -143 -4453 4003 0
-3948 -2602 -4293 -352 -3594 -261 0
3797 2115 -3466 -637 -3832 -1338 0
2882 3390 -2160 -4903 0
3192 -4684 -1266 -2012 1211 0
-151 1025 1066 1284 0
933 671 4599 1170 0
-4184 4032 550 -3380 -4055 -4320 0
-1005 -1952 3704 -1351 0
4406 2808 -2049 -3141 -506 -1093 0
-3804 -2993 1615 4101 -4588 1141 0
3909 1019 -1115 2989 0
-3924 -3235 -614 -2650 0
3354 1679 -1023 3285 2824 1156 0
1602 3344 -967 888 -1591 3415 0
3634 -4009 -4317 -127 -4138 264 0
3596 1136 -2505 2374 4418 -3150 0
1887 -4369 -3513 -1386 -1133 -3877 0
202 1856 3901 832 -64 0
-2750 1625 170 -1604 2544 0
-3783 1490 4761 3464 0
4792 3945 1678 577 -4143 -189 0
877 -553 1698 1937 44 0
-4048 308 3844 -1361 -1253 -2414 0
-4608 -4464 2235 -2198 1086 0
-4342 -3990 4884 1309 1592 1621 0
197 -1716 -68 2953 0
1936 -1895 3237 -2383 0
2366 -1511 1957 2494 0
-886 -638 1582 4050 4167 -1041 0
2677 -4729 -1650 -3406 0
2913 3470 -4189 -3959 0
-2441 -3956 -4219 -3525 -3924 0
3575 -2002 3933 2010 0
-2337 1292 3787 -4238 2667 0
-803 -2972 -2785 -4508 0
1928 2404 4074 1592 -2518 0
-2062 1876 -2221 4824 1425 0
3424 243 3921 3198 -2435 0
-2795 339 2763 4961 0
744 -2146 566 -1916 929 -271 0
85 4038 -2193 -3805 -1954 0
-1939 -3142 -4145 2643 -3622 0
2411 2077 -2882 -2702 -4522 0
-3908 963 1047 -3830 0
2911 2177 -2826 1588 2568 631 0
-1582 -4018 1778 2328 2343 0
2593 2570 2576 2307 1143 -3221 0
2213 -3467 1367 730 -880 -3719 0
-2440 1080 2260 3921 0
298 4233 1414 -4961 0
1894 -3328 -4106 -820 -4843 0
-1443 4890 -3836 -4748 -4146 0
-2873 -1677 -4344 160 -1481 -2830 0
-4593 -3496 2828 3067 4325 0
-4139 349 -114 -1198 0
4905 3745 3029 4373 -383 0
-3949 3876 560 1509 0
-2428 2622 3727 4973 -4128 0
-4688 3008 4374 -3879 -2898 0
4711 422 -4088 -4020 -2997 0
3911 -1739 -923 4099 0
2865 -2723 -2867 -3670 3181 0
-3723 335 -3466 -4690 -2433 527 0
4818 -282 3663 -1651 0
4693 2810 1143 1111 -332 -3606 0
193 924 1591 -2117 0
-1245 -2880 2728 2285 -1194 0
4710 4382 -2999 -4234 0
898 -3455 3503 4328 3656 -970 0
148 -4812 -2553 -2532 0
-1688 -4357 -2636 -4622 0
2178 4916 -3832 2740 0
2374 -2316 -1551 780 697 0
-297 339 -4806 4998 -3595 3054 0
-41 3386 -238 1151 -3084 0
-1796 -3414 -4888 -4443 4168 3767 0
640 1761 3288 3033 3553 -1316 0
4389 122 1228 4968 0
3834 -4260 123 -3956 1075 0
-3591 -1963 -2057 -450 4073 4591 0
2922 -3555 649 2705 0
-1468 -2630 -4578 1837 0
3734 -2211 4778 -3488 0
-4750 3113 -4094 -2029 -858 0
1700 2822 4523 -132 0
856 -1326 -238 -2601 709 0
-2322 568 3047 1790 -4176 -624 0
1116 -372 3456 -3872 0
1311 2038 -4792 -3149 -657 0
-1516 826 -4601 2769 0
4755 -1728 1732 -422 0
2512 638 1611 3841 0
2308 -3847 -4636 2676 3327 4366 0
-1258 -617 1386 -2749 0
-2661 4735 3563 -653 0
4703 2680 -57 -480 3793 0
822 -1898 549 -2302 0
-1431 3272 4065 4916 4838 0
1767 -4846 4879 325 -3337 -4639 0
1255 -4569 3457 -588 -2700 0
-1042 1722 -4943 3345 0
6 -3719 1600 3165 295 -153 0
4534 -4798 2239 546 -2637 1024 0
-2633 -3141 -1820 35 2849 4736 0
-4938 -1345 -2757 1705 0
4826 3492 4207 -3413 2881 2510 0
-981 2622 -1915 321 0
-1189 -1841 2739 -1666 -2557 0
-4063 -4167 4518 -1520 0
4994 2366 -2169 2528 0
-1412 -454 2923 -1153 0
-3433 4801 -910 3686 0
-4884 3555 2608 1802 -3340 -4610 0
-1857 -200 1810 -4648 -301 0
-4713 -902 -155 -3936 -1559 577 0
4872 -3190 -1176 1567 0
-2164 -103 816 -2782 1588 -2771 0
2859 4765 -382 1312 423 -820 0
-633 -4767 252 -2701 0
3335 -1731 4916 1875 4218 3671 0
4549 -1898 128 224 1648 0
-2418 1561 2915 -4710 2039 -4929 0
-2449 2247 -4339 4994 -1548 0
-995 -620 -559 -1141 1520 0
-3158 1397 -2910 3772 -4157 0
-4316 378 -2133 158 0
4398 -2245 1591 -2716 0
-243 -1087 -4887 -28 0
741 2554 3510 -590 4768 0
-3330 484 3214 -1175 -4104 -2359 0
-1254 -134 4602 4988 2814 4310 0
1739 -2682 4931 -1401 0
1230 -1589 3533 788 0
937 2402 3495 2492 -885 -3518 0
515 210 -2072 -4830 -3533 853 0
-2378 4472 85 3575 -2841 0
-4435 -3678 -3304 407 3311 0
165 3766 2558 207 -668 691 0
4458 -4185 459 -115 0
-4534 2022 4298 756 75 -2691 0
856 2593 213 1794 -3 0
-2880 3042 -1564 -3521 4759 0
-1179 4432 4620 -809 2395 820 0
-4505 129 -241 -1793 -3678 -2428 0
2655 -2800 794 199 0
-3655 2564 2828 3209 0
4295 4887 -3221 -1480 944 0
2817 -4087 -2607 4371 -4856 1188 0
1358 -3248 3321 3992 1760 -4213 0
3585 -2240 -2175 -4599 -2744 -2628 0
-3618 2642 1624 -654 -788 0
-469 -4267 2683 -2063 -1898 0
-4437 4256 -707 4259 -1271 -2524 0
3938 1723 -4394 3798 -2286 2519 0
-2201 936 -606 627 1681 251 0
-2653 -774 2014 -2911 -4210 -1733 0
2328 4834 2831 -1158 0
-3384 4468 1246 3956 -1737 184 0
889 4675 3307 -3032 3823 0
-4877 -1187 4291 -918 -455 -219 0
519 -198 1724 -1983 0
-3002 -742 -1277 3695 0
96 -76 -3507 14 -4564 2336 0
3313 4885 -3958 2547 0
1782 1637 1151 3263 0
-1957 -431 2294 -242 -1150 1123 0
1858 -1280 -117 -3286 0
-3657 -3187 760 1717 0
771 -3935 -3678 -519 -3358 0
-4727 2735 -559 3134 -808 0
3627 3826 4594 -317 -3115 2093 0
-2660 -3616 186 3836 2874 -4409 0
4991 -4104 938 1965 0
-3038 419 2779 -1765 -4628 0
-344 2401 3872 -4078 -65 0
-1611 -2999 2629 4426 0
-4582 -2178 1883 -2233 2497 -1221 0
-2525 558 -2113 -1104 4893 0
1861 -4497 1549 -3938 1505 0
-1989 -1531 -302 992 -4045 -2867 0
339 2709 -3298 1921 0
-3455 -2441 1469 2568 0
4516 -2962 -4052 -4780 -3269 0
-2637 45 -1516 1727 -4588 0
2197 3528 -3370 -1830 0
4308 -4918 1800 4083 -2922 0
-190 -2977 -202 -3651 -1340 0
-1922 3212 -1125 889 2745 2735 0
-4043 -2261 3487 -155 0
-4719 2219 -4 101 0
1507 -4531 4663 -2147 3872 4640 0
-4272 3173 2237 -2226 -1928 3809 0
1123 3162 1652 -2096 174 0
-499 -2779 -2543 -4100 0
-1173 -3579 -2910 1635 -1272 1709 0
4815 -1500 -1649 686 -2780 1106 0
3885 -4151 -439 -1701 0
-2933 -3157 1036 -3262 0
1450 565 948 -1289 0
-1067 -3300 -834 2822 -1622 2560 0
-2218 2624 -2771 152 -1315 1408 0
-1568 -493 4339 -4966 4450 3656 0
1191 1890 4044 4839 0
-1911 -1988 4498 4007 3756 0
3400 -1181 -4593 4691 0
-763 -4602 -2424 -298 4880 0
-2342 -3933 -387 3250 1705 3120 0
433 -4500 -3011 1514 1278 -1898 0
1228 -1698 -2598 3243 -1773 0
-652 1138 2453 1661 0
-2923 1814 3357 -2385 4687 0
3094 -3360 372 4241 2544 -4217 0
799 1875 -1194 -4726 -4796 4117 0
3102 -4966 1809 -805 -4055 -2412 0
56 -1938 440 -3980 3209 0
-1665 4824 -4584 1192 839 3171 0
-1074 371 -4146 2341 -87 -3215 0
-1984 1485 3169 2556 -1899 4133 0
-2452 2930 1338 4033 2875 2149 0
-2696 -2088 2510 -2964 0
-4248 2251 -3302 -4698 4081 0
3481 -4191 1105 -4180 2709 0
-3627 -636 3323 2838 -338 -4334 0
3644 -1519 -1198 3851 -271 2653 0
3415 2046 -4031 4255 0
776 -2386 2639 -325 -773 -4895 0
716 -981 -3285 -797 -4384 3959 0
850 962 -3572 3775 0
3866 -4795 3546 620 -3372 0
4970 3281 1250 -3132 0
3222 322 767 -539 2769 0
1827 1678 -3489 4436 -4853 0
887 4000 -332 -2727 143 0
1021 -1883 -3071 2932 0
1807 -2138 -1752 -3645 4237 -2190 0
2723 2616 1639 1022 4225 4097 0
1765 3614 1238 816 0
-1637 2172 -4087 4078 -3374 0
-464 2867 1752 2071 -934 0
2408 -3787 -3426 -3416 0
1178 2247 -3572 -684 4669 0
3481 998 -167 85 -1029 -4442 0
574 -2035 4506 -2199 -1618 1912 0
261 -1143 -2049 2484 0
-790 1939 4360 3847 3776 0
-2987 -4107 -793 4446 0
713 1880 2533 2861 0
1338 567 2919 595 -4347 0
2032 3769 -3050 -3610 -1892 0
-3362 43 -2985 2612 1723 -3593 0
3169 -4230 -440 865 -3874 4519 0
-2409 -2115 -3217 -3330 53 0
3823 -103 765 3407 -4491 0
-4650 4095 2892 2817 4559 0
-582 -1175 1935 -2768 4998 0
2635 -4187 3136 -48 0
3983 1240 4358 1774 -1132 0
511 -4197 -4629 2064 0
682 -2511 -904 3429 2366 2358 0
-2866 4764 876 -1047 0
-1145 786 -3151 -4543 3172 0
-424 3373 4520 -4066 -1302 0
173 4827 -2407 -1824 0
-4617 1608 3233 4687 0
1312 1778 3279 -838 1745 0
-2939 3898 -1371 1051 0
-2436 4664 2071 4514 -4213 -3449 0
-2158 -383 146 -2876 -3889 0
1862 680 646 2793 0
-3274 2971 -3530 -3505 0
3606 1932 -4515 2267 1111 -2616 0
3750 -2084 -2308 -4525 0
1244 -3110 2457 -4085 2192 0
-1219 -2677 -4344 309 1220 0
3349 3747 343 1348 -653 0
-1031 -1436 1619 -1308 -1928 2913 0
4133 -2273 2216 -1617 -3985 0
2807 2907 3641 -4875 -3889 -2725 0
-3948 -4372 -3274 -1471 -105 -564 0
-3503 -2623 4786 -3972 -2710 3886 0
-1479 -2562 1304 2727 0
350 -2087 691 -1974 -958 3137 0
3816 1993 -3034 2497 0
-3583 -444 3166 2264 -1004 0
-1712 -119 -3885 3061 -2790 0
-4516 187 1296 2068 0
989 -4419 -2884 1445 4347 -3496 0
-3416 -905 2163 -2651 -214 0
-4909 -87 3657 2537 1492 -3382 0
4654 -3141 -1151 -424 4976 2683 0
-1542 1526 749 1147 1939 0
-1157 3988 4464 -3452 0
4961 2283 -4690 -2203 0
2489 1030 -4850 -2734 3197 -4647 0
4470 -1905 302 -841 0
4802 3019 -3634 -804 0
4576 806 -4023 -1673 -704 1963 0
3157 -2864 543 853 1463 -478 0
-2333 1547 -1843 685 -130 0
902 -4751 -3544 -3129 1611 0
-2072 27 2963 41 1350 0
2328 2507 3897 -1480 706 0
2907 -3465 1731 2204 -2081 228 0
-3465 1272 -3021 -70 -2838 1246 0
1536 -2883 3780 3158 -453 0
-1224 1373 1791 1649 0
-3158 -1684 2965 -3644 0
365 4320 2822 158 -1680 0
1056 -2587 597 1964 0
3656 985 753 -3028 1744 -1070 0
345 -732 -1961 -878 0
274 -4325 2469 -4513 0
-2868 1509 -1787 4107 2704 -895 0
1944 -4158 -4167 2611 -288 -632 0
-3946 480 1396 -1470 46 -1259 0
1359 -215 -587 -2471 0
2135 2423 3451 -4953 4363 -3722 0
1687 1749 -4418 -3251 0
4524 -4001 117 1151 -566 0
-114 4510 1630 3862 0
2196 -958 -563 3974 2021 944 0
-4143 3365 4822 -1382 4991 413 0
-2464 -1517 1187 4933 0
124 -3730 -2988 -4610 0
-4049 1757 4748 -4576 0
-3268 -575 4615 -640 2081 -3205 0
4836 -4265 2047 4708 0
-3713 -2687 -4385 -4697 1773 -389 0
-2689 -3449 -2996 2960 0
-1928 -3798 626 -1045 2736 926 0
-1416 1328 2257 -1230 4 0
-3819 3637 -3031 -2900 -4264 0
1038 -1925 1838 4184 0
4223 -2436 4347 -445 0
-3125 -10 2331 -4725 3279 0
-1623 4677 3356 129 -3536 4922 0
-4230 3226 2968 -2290 -658 838 0
3509 -2717 2691 -2879 0
-4372 -907 -1736 75 0
4416 -3451 2016 165 1647 0
3479 -3189 3501 -3332 -67 -2412 0
1395 1344 359 2606 -2721 0
4450 3918 1281 2508 0
4442 -3122 -2969 421 -990 1888 0
737 347 -2394 -4780 -2852 -848 0
-1869 3318 -2135 1606 0
-3563 1663 -3658 -1450 0
-2978 -3899 -2034 2567 0
-2507 4929 4067 -3431 3006 0
4156 2283 195 4374 1524 0
3453 -3093 -643 2335 0
-3924 4993 3298 274 -940 0
2383 -500 3720 625 893 3942 0
4311 -3907 100 -2651 0
199 -3375 -1837 -3257 -1331 0
2741 4151 4872 -4972 -1415 0
1438 4740 2223 -2706 -3602 114 0
2229 -3078 -3351 4615 -1265 -2045 0
-1912 3100 -4709 -1036 0
-4594 4828 1573 2249 0
-4025 1956 -3165 -2385 0
2904 2344 4928 -4700 -2617 0
4017 717 -517 4630 2130 -3629 0
-424 -2441 -4715 4552 3624 0
326 -1322 4195 298 -2606 0
-4301 -486 4548 -3849 0
-4975 -2505 -4405 -3882 -2436 0
4053 -2152 2260 463 -719 4032 0
-1876 4819 324 -613 0
4140 4895 -2357 -2515 -2699 4409 0
3971 -2032 -656 3041 2954 0
2032 4841 -4469 -975 1800 0
-4431 -2275 -122 2623 -372 -2190 0
-2256 4442 -1370 -3935 -2808 668 0
-4369 1776 905 -3112 1348 -1561 0
-3872 -3739 912 4459 -2155 4101 0
-1612 3901 -3704 -346 0
384 -1371 1399 -3044 0
787 3255 -2313 -2302 -4783 0
-4480 4570 251 -924 4228 0
3590 2904 1156 1575 4445 -812 0
584 2489 4615 -2176 4141 0
-3353 -3149 -4902 -4297 -3891 2982 0
4197 -1910 2602 -1060 0
-1266 -2015 2777 3792 4777 0
-2351 4024 -3686 3251 -1081 4169 0
-673 -4423 3532 2582 3869 1006 0
2886 2432 -668 -1704 3080 -2312 0
-2121 534 -2246 2745 0
3325 -32 1963 2705 -1725 0
1917 712 -720 -1566 0
-3976 -3064 -2485 2264 0
594 -4513 -500 -2829 -1768 0
-3020 -910 3336 -4736 -2925 0
1532 -3820 -3688 1786 4503 0
2024 3047 63 -1425 554 -1219 0
4886 -739 1163 -15 4933 0
3612 -150 -3389 4389 0
-1233 -4848 -3091 1285 0
-3225 2034 390 3641 -292 0
-3051 -3988 -3057 -757 -3116 -3453 0
1616 -549 -1424 -1500 922 0
1340 -4046 -239 -499 0
3576 4071 3389 -615 0
2360 914 -4924 -3573 0
-3526 -4292 4888 -2086 1688 0
2655 2687 3659 -3483 -193 -3063 0
-1578 3840 664 -1228 0
-91 -1874 -683 -328 -679 0
-4035 -1249 -3171 -849 0
-1660 2659 2221 -1650 -3397 0
4932 1447 111 -1021 -2775 0
512 3247 4512 -4606 0
-3023 -2729 -2433 -3140 0
-1376 -1666 -1907 -4438 2540 0
-826 2638 3170 -2570 -24 0
-1300 -767 784 -4863 -3203 0
-1564 1933 -4365 -1314 4045 0
-2955 4756 1133 693 4585 -4812 0
4672 -1281 -4895 3448 -360 -1897 0
-384 75 -2776 -2086 0
-3570 -2066 -1713 2225 0
4757 -1367 -1128 947 -2523 0
-2559 3165 956 -1585 0
1945 1467 -3110 2154 -746 349 0
-4125 3505 -802 4522 -2866 -2317 0
-3571 -2400 -1727 -2281 -3845 -2148 0
4130 1339 -2598 3904 -891 3653 0
2195 4103 -3267 -3716 955 0
-3240 2948 -1839 2738 426 0
-3391 3483 -3958 3668 -717 3125 0
-3136 -3939 -3782 -2327 -921 529 0
1103 -2168 111 3436 -1220 4589 0
4329 -321 -4333 1420 3514 0
-4531 -989 -4704 1068 1892 0
4251 2368 249 -3789 0
-3201 89 2231 261 -541 -4315 0
3042 1856 -2997 -1241 0
530 -295 2082 -3561 -4154 0
-2789 3445 -3302 -1063 0
-1422 1456 131 -61 327 4461 0
-2051 1444 1686 291 0
481 -2404 486 -2982 0
-2366 -671 -3090 -409 0
-2458 -942 -2533 -2809 0
-4757 2485 -1434 1348 0
-2039 2474 3187 888 -2166 -50 0
4321 503 4098 2360 -1452 478 0
-223 -3320 -2599 -3296 423 -3227 0
-1382 -3385 -967 -3621 -1636 -4366 0
3020 25 -632 -1583 2944 0
3719 -2204 -2925 4233 -977 1331 0
4250 522 -1157 -1600 -1012 -623 0
-1362 4003 268 -2924 -3494 0
1377 2470 -2288 -2180 -3201 -4148 0
-2712 -3861 -2308 3727 1041 3854 0
-2304 4654 -595 -2478 -626 0
-2289 -4132 838 -3123 2988 2989 0
1477 579 1176 3105 -1472 -879 0
3051 -2442 578 -1104 -1246 -4960 0
-1264 -4373 4271 -2881 0
-169 194 -3087 -2863 2949 0
-591 178 -2598 -3148 0
-110 -2006 1364 4923 0
2967 -808 -2040 -298 -1213 -1251 0
438 1415 3321 814 0
1765 4711 2160 -957 0
-3985 3978 -4579 4390 580 0
2506 -1895 -2784 2343 0
-2162 110 3325 2249 -4896 0
-4254 3766 753 1181 -4265 -2787 0
2094 -1875 -2222 3522 1640 0
-555 -3223 3017 -2857 0
-2955 -3862 3451 287 4118 953 0
4144 -4198 -3969 -4181 1345 571 0
2426 -2329 -1323 -4662 2019 0
2314 -3663 -585 4126 3008 4360 0
3962 4502 1588 2761 0
4170 -1942 931 1707 4403 -1148 0
-2937 -1428 3575 -265 4584 -1431 0
1687 1773 2603 2460 0
4961 1327 -1161 4300 0
-3847 -1260 -1811 666 1507 0
-1020 187 -2971 333 -1410 0
-2881 3251 -3209 -108 0
4857 -3678 -3941 -4896 3705 0
3455 4802 11 -460 -3001 0
-594 1359 -328 1966 0
3537 264 -4768 2028 1859 3127 0
2216 3653 4894 -3176 2532 1176 0
2146 -3147 -3367 -4335 647 4898 0
3864 1746 4173 -673 -3686 51 0
711 -624 -4560 4085 819 550 0
-1606 -4507 -1690 3558 -2753 3663 0
-3697 1271 3591 1564 4545 0
797 2931 -3415 -3502 3894 0
1201 -1570 -3911 1329 0
-2075 4844 3061 3655 1230 2684 0
-4944 -2341 382 3476 0
-2944 -80 1158 857 1713 0
4684 3715 -2915 -2155 -1063 2585 0
-436 1763 309 -377 792 1654 0
-4650 1753 -4206 2461 -246 -3098 0
-4763 186 1503 -817 0
4466 -3978 -2511 -2622 0
-1648 3032 -3819 2274 -744 0
4566 -3491 3035 1257 0
-601 3364 4112 -2644 1326 0
-3115 4447 3144 2781 -514 -3042 0
-3437 -2783 3253 4186 0
-789 -2165 -2230 3413 -4266 3548 0
3264 1535 -1547 -2250 0
-1211 -3467 -778 -3692 213 0
-377 -4960 -3542 -220 0
-1897 -2658 3174 2809 0
-4536 -553 2421 787 -2183 -601 0
147 -1149 -2979 -4549 -2337 4353 0
2697 1172 -1956 -1474 542 0
199 -4273 -1382 313 -2576 0
4053 2200 -4876 2253 2936 -526 0
-3735 -2101 -4805 463 -4908 1879 0
-774 1346 835 -4233 1884 0
86 -2135 -4109 -763 0
-4062 3636 4604 -1890 2356 0
3296 3172 2474 450 -453 908 0
-3391 3292 -1233 1471 -3296 3649 0
-76 -3306 -2422 -1603 0
1376 3220 -955 -3132 0
541 1598 -2237 77 0
3254 903 2767 1923 3258 0
-831 -1217 3930 -4532 -1782 -2120 0
1481 4841 4994 -3938 0
1931 1748 3218 -206 0
-1889 3629 299 -91 2799 0
-3787 870 4880 3591 -2588 0
1745 -1 -1954 -4769 4729 0
501 2855 -965 -4078 1746 -3424 0
-3431 -4068 -207 4408 0
-1864 4091 1980 1724 -3729 0
2144 4579 -2320 -3631 -3920 0
871 -3818 3225 2073 -503 0
4143 1259 51 -922 -3867 -2331 0
-430 -551 -2443 233 0
2083 -3144 500 -768 0
-2520 -1451 -4433 1281 -1632 0
289 2918 -3483 4782 0
628 2585 -3589 4610 -749 -1483 0
-2948 996 -67 -2093 0
1665 2117 -1436 4714 907 0
-714 -679 1437 520 -1950 0
3650 2705 -2256 -738 4148 1751 0
2073 1597 3506 4115 2150 0
4867 -3924 -45 3974 -2999 0
-4862 682 175 1574 1167 0
-805 -1697 -2842 1492 0
-2130 2172 -1667 -1579 0
1099 -175 2286 3816 1333 -667 0
-395 -2877 3025 73 0
-2975 -2036 -2341 -4162 4278 -2018 0
4771 4406 3323 -762 2053 0
2771 1652 1728 525 0
-1955 -2745 -2771 -1181 1233 3730 0
1912 -3442 491 2231 -2007 2188 0
2892 -4420 -4431 -829 -1549 1696 0
-735 3240 4507 1037 -4627 0
-3338 4318 4946 3629 -3053 0
1528 1660 2953 -2375 3954 2202 0
3348 -1435 4704 -4074 0
-2062 -3846 -256 -4340 541 -2823 0
3446 -4160 -1160 -263 -3284 0
-960 662 3343 -952 3298 4453 0
-2556 178 4134 1618 192 1577 0
1382 -3248 4051 3321 0
332 -3669 -3646 -1261 2409 0
-2208 -1148 -342 -3712 0
-103 -3404 1473 -3839 -3632 358 0
1437 -3986 -4908 3322 3068 0
-3765 3071 4422 4952 0
-1823 2766 691 3089 0
-4998 4754 -3933 -3526 2558 0
1560 1547 4428 -2071 -4195 0
-2585 -2853 3109 2166 0
1039 2341 449 -4617 3137 2126 0
-2821 -2519 -2246 4738 0
-4105 1226 -3655 1717 3101 0
1937 4613 3865 1219 2525 2811 0
-2133 -3947 -915 -905 -4434 3581 0
1662 -1144 293 -3807 3516 -3239 0
1794 3151 -1765 843 -2026 -3188 0
-237 -907 -3231 2412 1605 0
-1328 2568 -3561 -2872 635 -2423 0
3226 -917 -2118 -3324 1071 0
-4239 -2033 -2045 652 4103 0
1517 -4632 1134 -4293 -1782 0
3683 -1359 3518 3863 0
-833 1100 3982 -3477 0
2447 2012 -2753 -4085 0
4156 -3888 3017 2319 4717 0
-3961 810 4251 -2920 -2202 3159 0
-4038 1662 2140 -4348 -4656 0
3339 -1754 -3428 -1862 -4078 0
2214 -898 4773 614 0
2094 -1486 -1055 1335 0
1566 2613 -3170 -4672 329 0
236 -3040 4139 3566 -719 4677 0
-2624 -4983 71 -650 0
1308 1582 -417 -4125 -1674 -4188 0
1175 -2391 3091 -3531 4989 -3830 0
4980 -2190 -2208 255 -952 -3257 0
4612 -3138 2901 4252 0
4157 4449 721 -3486 -4931 -4777 0
1021 4104 -2846 3184 1711 0
4601 1505 -2310 2945 4633 0
-921 1235 380 295 133 0
-2158 797 1539 983 0
-4283 -1254 -3556 -2854 -1666 -941 0
-1584 -3771 -2093 -1573 0
-3335 -4262 2170 -2935 3698 0
1937 -3284 -610 -4627 0
4213 -1101 -3729 4980 -1415 0
2189 -212 -928 -2499 3500 4885 0
-3122 2541 -798 2547 -4551 -2327 0
-1403 -2407 4545 -1843 -2075 2864 0
-2095 -4266 4732 540 0
1198 -868 1425 -3691 4016 0
3616 -934 3375 1009 0
-973 3341 -3678 1311 4059 0
-3850 -3082 367 2269 1401 2545 0
-4337 -2597 -3769 -620 4411 -489 0
3237 -2219 -775 1094 0
-1395 975 1050 615 0
1906 -1983 2361 -989 2949 0
-2781 -2158 -2698 -3531 -1210 3238 0
3416 -4591 622 -3505 -1751 817 0
531 -3382 -562 -2601 2694 0
4414 -2118 -3547 -1203 0
-3913 -3339 -214 -3232 4414 -1923 0
-2283 -1426 990 -4661 2677 -3038 0
-1073 4965 -1660 4062 -1678 0
4259 -1811 4854 4666 2498 0
4222 -2021 4353 -20 957 1092 0
-3907 2461 3334 -2108 -1344 0
3794 3656 -4669 4915 -3686 0
3941 -2642 268 222 126 0
-1888 4862 -2532 832 0
4529 4477 -4716 3321 2974 0
955 4462 -3506 -355 -207 0
540 3386 -1539 -1215 0
-4874 3592 382 2646 0
-1778 -402 -2502 -1562 1006 0
-3802 -2102 664 185 0
-728 3607 -1081 1524 -4220 4333 0
4822 -1096 1738 1343 2683 0
954 -951 188 1333 -3778 -640 0
4399 -1707 -4480 2488 -3524 -1458 0
2535 1416 -904 -3381 0
-1998 -944 3023 4272 -4658 -1307 0
-1005 -4535 1783 -14 0
1070 -2007 -3422 -1980 0
-3980 -2037 -3041 238 0
3883 2676 43 955 0
660 -2175 2788 4728 -1586 0
-1647 -4178 1128 -3614 -4640 1922 0
238 -205 -749 -3202 4904 -430 0
1195 3216 2081 4629 -47 0
887 -3338 4869 -1266 499 0
1731 3434 -1671 -635 1516 -3939 0
1022 -3169 2515 1575 0
4870 -707 -2553 4331 0
-3045 -2909 -4269 -1633 0
-2360 2941 3465 -4497 0
-2005 -412 -1406 -3330 0
-4283 -151 -3880 494 4697 3823 0
-4440 -4175 -2981 -3589 0
-4339 -1903 4504 766 0
-2473 2586 -2400 -2641 1735 0
2990 3470 -3811 -4771 -1343 0
-2549 3886 1616 1473 0
-2183 1819 1756 4247 0
4275 -3855 -1616 -3215 911 0
2047 -1733 3092 2712 1136 4016 0
-4509 -3988 -2530 -2234 -2351 0
3866 1016 2330 2797 0
-1121 -1600 -379 -2040 0
-3820 -2145 -3489 3557 1339 0
4705 67 1047 818 0
-4565 -2423 3985 3138 -3980 0
1718 282 2939 4878 0
-381 -2380 -1678 2724 371 0
-1700 -4961 -721 -1945 1476 -3397 0
3068 -2680 1571 277 4804 2647 0
4501 -1851 -1343 4003 -2210 0
-4920 -2848 324 -3358 -3135 0
1426 752 992 -1602 3187 0
-2064 -3115 1225 -2864 0
-3123 3007 4510 4899 4649 -3756 0
-3778 -2951 -95 -4623 -2973 -3790 0
-263 1455 3043 1117 -3550 0
-4310 -2122 1573 3503 2831 4093 0
-1722 -1658 635 3957 -3159 0
-4203 -4764 -3272 3169 -682 1103 0
2696 -1858 2949 -4415 698 -567 0
2572 -4372 -600 -666 4616 -364 0
-126 691 925 -1301 0
-1095 -3630 -1654 -1959 4541 1079 0
2089 2652 -1354 -4038 4116 0
-470 -56 2256 350 1972 0
-4042 4115 57 -173 -4350 -56 0
2476 1704 -164 -816 4308 -777 0
-3272 -3992 4761 -327 4596 -296 0
-4183 -1018 -4033 3930 -46 0
3203 4049 -4696 4629 -3976 0
-3271 -4529 557 -2482 66 2089 0
3808 732 -2537 -3121 3515 0
-2777 -3946 -1054 -3096 406 0
-3156 3971 326 -3423 -2620 0
4102 4521 4866 -303 4698 0
-4436 3778 4016 4204 -4397 -4573 0
1340 -1191 -4928 3565 0
3086 -3106 2876 -3939 2431 3350 0
-3886 203 -4747 646 -4424 0
-3763 -4672 -1619 -745 -4255 0
1391 -245 -440 -4435 2538 -1847 0
-3430 3961 2766 1322 -804 0
895 1421 4570 -2276 -3496 4818 0
4096 -2980 -4549 3152 3928 -470 0
4139 -2474 -2945 2287 -226 0
-1670 1848 -386 -2732 2797 0
1411 -3892 3090 4655 1040 0
-4345 -3124 -2778 3548 -1973 -2325 0
206 -593 3380 -4815 2602 2652 0
3197 3083 -1005 -2844 4784 1567 0
2498 -3378 -4651 1159 1243 0
3217 2665 -2310 4787 130 -1720 0
3505 3078 -2346 -2908 0
-4230 -3895 -328 2566 0
-3935 415 -2912 -800 0
981 -4973 -855 -1985 0
149 70 4000 -2126 0
-4890 -1620 -3190 -3006 0
224 98 719 -581 -791 -3162 0
4821 -4704 -4284 1547 0
1913 -3081 -1165 268 4611 1979 0
4825 2079 -1088 3921 0
1895 -3581 -4181 4110 -3093 0
4794 -4615 3550 1465 0
-3833 208 3555 3602 0
2326 -3681 3559 -3690 0
-3125 186 1023 -848 0
-1358 1081 384 1137 873 -188 0
3415 -2242 2128 4542 -4513 0
-15 4115 -3810 -2080 -1054 0
4745 -4006 -2454 3348 3815 0
-4081 3449 -3276 2552 -1522 0
-4720 3981 -3232 -4967 0
4722 -754 -245 4520 835 -2792 0
4155 -3210 1490 -2694 0
-3033 1061 4052 -2095 0
1381 -2699 -3202 272 -4677 0
1625 -879 1516 -2692 0
-1813 -3669 -1680 -670 -2784 -111 0
1512 -3888 -3657 -2958 3981 0
1006 1056 1567 -2994 0
1317 2449 -2264 -1570 4448 0
-1149 -367 3717 -2789 1189 2561 0
-4870 -2319 -1382 -1474 0
-4593 4909 -4949 466 4217 0
-476 -2562 1550 3265 -1337 0
3365 4393 193 -2256 0
377 1858 -3100 -3779 666 0
1538 -3219 -3618 3494 1291 -1199 0
3797 4227 4264 -3417 0
-2263 -3329 42 -2958 2202 1751 0
3143 798 3829 506 0
-898 -839 -2003 3142 4017 -2061 0
-1096 3151 -3437 -2913 -3733 -4081 0
-1950 1076 3669 -511 -2469 1085 0
2663 1398 -2019 2667 263 0
4031 812 1890 2779 -1872 0
-2628 1026 -1478 -1914 1485 -477 0
2473 2807 -1588 -3695 0
4576 -4622 -4826 -1904 -3108 0
1603 502 -4579 -3832 4107 0
3010 -2651 2056 -3960 -3177 0
-4453 1080 -1700 -3974 -3557 -1694 0
-2343 4105 2606 2115 0
-393 -4674 -3691 -3138 2195 0
-4584 -47 -3306 -2883 -975 -4707 0
-2058 -117 -60 55 3110 0
-2858 660 2705 -1851 0
-3243 1321 -1561 2571 779 0
-2574 2624 147 -3915 -2133 0
-2105 -584 -2785 -2772 -3904 0
-2009 -3721 4559 4377 -1689 0
-1279 -4467 -1596 -3743 5000 -918 0
2658 -4605 2333 4599 0
1951 4359 -3800 -2087 2365 3089 0
3760 1516 2291 -3971 -1510 0
-2388 -3900 -4315 1207 -256 0
1750 -3072 3522 4813 1972 0
1444 198 -3238 3912 0
2344 4599 -2135 -2118 3638 2397 0
-383 2771 156 -2912 -600 0
2599 1145 4606 -217 -4999 595 0
-4598 -3188 -4640 -2844 3180 0
577 -896 -1162 -2120 0
248 1144 -3999 4613 3281 0
4066 -3972 -4595 4098 1678 2307 0
3902 -1578 -4742 1831 166 -730 0
-2969 -619 2738 517 -4586 -991 0
-1070 -1735 2123 -2711 2225 0
979 -1161 -806 -4822 -4174 0
-4176 -2756 104 -3744 2496 -1772 0
556 1219 3010 -3127 3606 -3827 0
-4700 -3009 -4877 -3067 -3943 -1733 0
-1011 3819 2708 -1107 0
-2180 4229 -1103 -1070 3471 0
1787 -1962 2768 -83 4312 229 0
-4731 2067 1823 1048 0
-4472 1175 2643 4690 -4540 0
-3087 2486 3088 4424 -3021 0
1621 -4608 -1020 4399 -4337 2962 0
4818 -4223 -825 2199 0
-4720 -4669 1196 -1928 -2321 -2287 0
-1306 2644 -1988 -2661 -1917 0
1736 2581 2411 1785 -4634 1212 0
2164 -4159 1528 1573 0
-1759 -2858 3815 1679 4439 4149 0
-2737 -4122 -1526 2123 3026 -1255 0
-2956 -3347 -4389 -3064 -2047 342 0
-4174 1540 -1201 1850 3840 -1038 0
2542 803 -435 -1225 3388 0
535 3595 3160 -1712 2874 -1529 0
2668 4762 3427 3076 3508 1014 0
-3067 3145 1374 -1967 0
-4519 -1422 788 2837 2468 -2384 0
1903 4722 3934 -319 -3579 427 0
-2299 -2033 -3422 4125 302 -811 0
2916 -984 -4849 -2609 -379 0
-170 1196 -3575 769 0
-4427 -467 1931 339 0
2004 1522 -174 158 0
-2063 3715 -4940 -1906 0
242 -1906 -1139 -1970 3763 2691 0
-2146 -332 -2662 -3278 -2894 2671 0
535 -3681 4844 -8 4411 0
-4475 1521 -3943 4357 -4516 0
3140 -35 -929 1994 3390 0
4648 4610 1302 3425 0
-2770 -2429 545 4998 3665 -2136 0
-2837 3475 3124 2776 0
-1512 319 -1479 1723 0
-546 4359 4776 4685 3353 278 0
1670 4365 3155 -1353 -639 0
-1285 -347 2215 -3319 0
-594 4645 2703 -3149 1529 0
1678 3451 861 -2873 0
-4510 -2975 -2565 -613 2472 0
-890 -322 -3090 2324 4630 -2087 0
1580 4833 -429 -1791 -908 0
-2352 2560 2149 2244 0
-2077 3212 -2608 4278 0
-3358 -3173 795 -3350 0
4925 96 -3439 -1755 -1276 0
194 1118 -2021 4108 2061 -2107 0
-914 -2702 -1988 -1069 0
3819 1750 4862 -530 1075 4577 0
1008 -3636 -3654 -1418 -779 0
2697 -1030 5000 -1332 0
4210 -22 1739 3375 0
3286 -4025 -2368 -2347 847 0
3709 4570 416 -2044 4715 0
-2735 732 -3839 -2495 -4981 1084 0
-2426 3755 790 2507 0
-1662 -3247 3468 4988 0
-4108 2778 -863 -3270 -4892 0
-3453 2540 4810 1475 -2764 -1067 0
2167 267 1230 -1946 -4567 0
586 -1877 1276 -2599 -191 1640 0
3878 1660 2642 -4486 0
-55 4427 4478 -461 1877 0
4187 -4761 -1844 4771 0
-2418 -4309 -4137 2493 0
1231 -3234 -1570 1239 0
-1631 2851 -4965 1904 0
-2728 -1320 2519 4352 1455 0
1649 3841 2189 1897 2549 -2778 0
-2942 -2298 -56 -3395 0
-3392 4543 4638 -4575 0
-4963 1473 1545 2465 913 0
-3855 4764 -4068 3368 2954 0
4013 515 1570 2556 0
236 1762 923 -4692 4716 0
4267 395 4895 1989 0
-549 3690 2259 -3599 3856 0
261 -2072 4297 -3255 3395 4750 0
4793 1398 1329 3420 0
-3763 3873 3646 1425 4933 0
3188 -2677 3515 -4663 0
-1684 762 918 -944 1948 0
-730 1587 1496 -1178 0
-3617 -2740 -3796 -4909 3580 -152 0
-890 -1428 3362 873 -2325 -3238 0
-4068 3247 2280 -3905 -2859 2323 0
2420 -2648 4163 -2598 0
3691 1570 -3876 -1873 -1242 0
-2141 -3860 1921 -288 1010 0
305 -4160 273 -4713 -2680 2273 0
-1329 1686 -1502 133 479 -3577 0
3607 -4829 -617 -1923 2161 0
-1367 1951 -3464 164 3856 -2523 0
-3580 4930 913 540 745 1746 0
-2847 -1577 -1544 3472 -3316 -1618 0
3569 -1472 2341 -776 -1060 -1923 0
1608 -570 -3055 745 -4420 -4978 0
3150 -763 3320 2704 0
-2648 3000 1913 -1513 2288 841 0
2168 -2937 4943 1663 -2746 0
4401 321 583 -3682 2325 0
-781 1196 -239 4401 2632 0
3582 -582 -2498 4664 0
-4451 -1588 3834 4831 0
1247 551 -2864 -2506 0
793 -2543 2229 -2886 4778 0
-2120 -2995 2751 -1045 0
-1553 -2017 -2501 -2835 0
-4242 -2003 730 1199 0
4280 -927 -549 1535 0
-2024 -2537 -1627 -1683 0
-66 -2639 -1807 -4035 -4233 -454 0
-1979 -2547 -4894 3620 706 0
4610 4590 -4545 -4223 -1606 -2600 0
2836 -785 1596 1248 4526 3968 0
144 3492 2993 -2318 -646 0
2579 546 3080 -4262 0
656 4940 2914 1842 4467 0
-661 -3154 1390 -847 0
1815 2514 -4373 -634 0
4679 961 1323 4067 0
2851 -3421 2184 -1871 627 0
473 855 -1893 101 0
1768 4440 -652 -986 -1958 4129 0
-1379 630 -705 -3453 -382 1689 0
1774 2447 1185 4089 3027 -4699 0
2646 -1083 -708 -4261 -1304 1540 0
-3523 -4742 3793 451 -2906 4968 0
-2179 -1421 659 2906 0
-3803 -1601 -4844 2031 0
4539 4195 2039 -3107 630 0
-1696 984 2308 4952 0
-2408 2439 -3829 -179 -752 0
-3714 -2881 4361 3244 170 1758 0
2255 4636 -3910 -3127 635 0
2677 -480 -395 -4567 1671 799 0
3165 -474 602 511 1323 -4144 0
1102 -2994 1112 4612 0
639 1324 -2757 -993 1512 -2505 0
-2155 -3356 -3851 1213 16 2356 0
3501 1521 -4365 -3786 0
-2853 2868 3879 3983 -4799 0
535 -3591 1219 2599 2703 0
1494 -827 2163 1543 0
3980 658 -1196 3636 -1029 3553 0
-12 -214 3018 1687 -108 -123 0
-1176 1418 4587 -2752 2274 1005 0
3855 -3330 1291 -3192 74 -3837 0
4013 -4425 3391 4754 -4913 -4858 0
3615 1773 3496 -636 4496 3170 0
781 -54 -3092 3419 -505 0
-3488 -1124 4456 -4152 -4026 -2408 0
647 -3622 -494 393 -2308 -1106 0
706 3757 3927 1440 0
1630 997 -1451 314 -1549 3436 0
3470 352 -3541 1030 -3070 0
-3867 306 -1421 2474 -262 -3167 0
4126 299 -4366 1069 -4256 0
-1049 -2327 3586 -2501 -693 -4421 0
-3650 -4177 1080 -3299 2172 -3420 0
-2362 -4401 -667 760 3041 0
2256 3813 4774 1576 -4336 -2002 0
-804 -4230 -4973 -1307 3069 -518 0
4917 -3688 4313 171 4519 432 0
-2503 1243 257 -3927 -3148 0
-4860 -906 -3109 -4574 0
4546 4038 -1140 -4428 -4255 0
-302 1081 -4263 1821 0
599 959 -616 4414 -459 1380 0
4545 4399 -3821 -82 4403 -2519 0
-1635 1560 3014 -3985 0
-3173 -3202 2413 4448 3010 -1860 0
-1592 3750 4613 2490 4700 -1928 0
2837 3563 -3257 -4364 0
-2196 -3291 415 1110 1101 0
3461 -358 -324 2455 0
-4736 -3497 3581 146 4195 1831 0
4749 -536 503 459 0
-2009 -3743 -3342 3689 1321 0
-2994 2624 2542 2709 -4012 0
-2627 -518 -2418 2652 -751 -1945 0
-1336 -4952 4712 4452 402 0
3875 -1333 -3616 4147 0
2367 -3616 -3473 -4994 3365 0
-4453 4533 4197 3074 -198 2662 0
-1815 -1831 573 590 4006 3533 0
1110 64 -3218 -2679 969 1047 0
4396 2887 -3645 -1096 0
-709 -1890 -2462 -2785 -2617 0
1944 -923 -4238 4426 0
-3989 3640 -3906 4586 -4213 0
-2465 -4985 4526 2620 4547 0
161 3473 1812 -4086 1562 0
2248 -541 -4220 -1855 967 1086 0
-550 650 -4163 -4185 243 -1141 0
-3387 3336 -4745 -2652 0
2861 -4369 3150 1543 -2855 0
-4042 4798 -4086 3419 0
-4159 4566 -1766 479 -4295 0
-2964 2975 -2366 1087 -1725 2528 0
-1611 4773 -1586 2124 -3339 0
3431 -3254 2789 -1649 3953 0
430 -1525 -314 -645 0
2387 -3946 2999 -2583 -3819 0
3884 2953 4550 1314 538 0
2894 3488 4811 1385 4830 3948 0
230 -16 795 -3588 4559 2582 0
-779 -183 -482 2756 0
597 -3448 -2119 405 1500 0
-1742 63 1656 -852 -749 -159 0
-4719 -876 1934 1137 3475 -1120 0
-1612 3108 -4051 2451 -3872 4644 0
-1407 2351 3178 -4972 3594 -4756 0
1556 -2489 -4647 -2778 0
-4521 -1823 -494 -1673 -3574 0
-337 4919 2970 -289 1236 -3343 0
-1515 -2189 -1535 141 4198 0
1938 -424 -1709 1499 -3770 -4408 0
1699 -3819 3945 990 4467 243 0
-790 202 -856 3735 -507 -4413 0
4833 3286 -1906 3709 -1723 598 0
-3646 3440 170 359 2164 0
-3756 -2578 -282 -4780 -4392 0
-1007 -3624 -104 1979 -2773 0
3329 4185 3367 -3441 -1197 0
1692 3531 -2598 -1056 -2818 0
3171 2484 -4294 1454 -4083 0
-822 -2117 -792 -2634 0
2963 3076 -1013 -3319 0
585 -2791 -3905 1490 0
-2559 -1000 3348 3907 0
-3900 -2084 -4452 921 -1888 0
4942 -1363 -3274 -2831 0
3987 -402 3394 3482 -1754 0
-3360 3680 -1803 -1551 0
-45 -1637 1157 -2500 3427 1575 0
4842 646 -3783 3547 0
1334 4455 3781 3954 4511 0
3375 -1254 -4697 -461 3321 0
-4739 -3482 -532 1738 4250 0
-360 441 -383 2251 -4650 0
-323 -1446 3681 -550 -4226 0
-4837 2362 4936 -2926 -533 0
3043 -655 36 -3421 -1317 0
-1447 -584 -601 -3619 -3488 -918 0
-622 2002 935 3885 0
-3483 -4927 2298 -3489 0
4196 450 4604 -3260 0
1730 -4070 1643 2607 737 0
-2781 2396 3181 1678 0
4204 3871 -1046 1503 -3194 -378 0
-6 1648 -3915 -123 4279 0
-1072 -3519 -971 2352 -2762 0
4089 -2781 -2820 -1000 0
-2687 1023 -1787 -3110 -3758 0
-1165 -2567 -4736 -2032 -4978 -4554 0
1789 -1223 4015 -2497 0
1820 3742 -3308 -4032 -4149 1503 0
2891 2909 -1014 -373 0
4755 -894 -1210 3113 0
-978 -1341 2018 3979 0
-707 -3389 -4609 -200 1386 0
-4071 892 -3218 -1186 -3339 0
4099 -4108 -2381 1434 1826 0
-3188 4077 -1490 1745 -1156 0
847 -4796 -370 456 0
-1936 -169 -1022 -3919 0
2262 -1906 446 -1503 -4641 0
-265 4838 -4820 -796 4588 0
5 2714 -4070 -2791 2095 0
-876 -4607 2473 -3678 204 -3661 0
2130 -3655 1400 -200 0
3985 2275 -3185 -4826 -3257 -320 0
75 261 2943 1973 0
-813 4106 2854 3358 0
-4639 -2788 2204 -1614 -1493 565 0
2106 -3298 532 -3176 -126 0
4720 -3967 -3304 1705 -882 0
-786 -186 710 -17 2645 -368 0
2710 876 4717 2617 3034 -2218 0
-2231 -3510 -3498 925 0
604 -3127 -3354 3624 -4256 0
-2684 3495 -1220 80 0
615 3846 3460 1129 -2333 4559 0
4900 4450 -422 -1292 4878 0
-2456 2982 -3658 1958 0
-780 -3113 -49 2592 -1417 0
2996 -857 1727 -2786 4906 -262 0
-3186 3594 -3399 3027 0
404 -2389 -4607 -3925 0
-2201 -2929 773 3092 -4762 0
-1835 -3012 1880 3100 3909 3272 0
1614 3830 -3161 2586 -3112 2764 0
2530 -385 -3682 572 0
-1732 -1716 677 -722 0
-784 227 2467 4701 4459 1487 0
-3080 -4786 -2744 -25 1539 -1141 0
4437 -4964 -1059 -3387 0
-4702 1276 3945 1653 3294 0
4446 -2529 1988 1220 -4517 3517 0
4747 -1506 5000 -2409 0
-1715 -4725 -4120 -1558 -880 -2237 0
-1380 -3911 4329 2616 -4080 2296 0
-822 1387 -4085 4066 2694 -1304 0
2539 1932 3446 239 -847 1879 0
-1487 1881 -3312 3495 0
-610 -1715 4433 -3987 0
4951 -4954 3417 -688 0
-2121 282 -1715 -2612 1539 -4830 0
-1705 434 -1151 803 4221 -1447 0
-3043 -3441 4288 -594 -1019 0
-3955 1334 4220 445 3401 -1536 0
667 1663 4921 -1880 0
-3778 -891 -4536 2313 658 0
-3309 -4825 -1354 3256 -3513 0
-3666 1324 -1787 1116 0
-3719 -4078 -3792 2207 0
3877 4208 -236 -3242 4020 0
-151 -2611 -93 -4038 -828 -4363 0
-1147 -2079 4449 66 0
-3205 957 469 -2553 2402 2585 0
2611 3832 1909 -2344 -2510 0
1512 4713 1687 -620 1063 0
-2672 -2032 2846 -4369 -2764 2380 0
3519 952 1410 1279 -2370 0
2219 -3686 4633 -1859 -364 0
3887 4609 2960 -1420 0
-1618 3013 -3511 -312 -713 0
-3461 -3510 -1917 -3377 2245 0
4379 466 1460 3666 878 0
2048 -131 4036 1183 74 0
-2487 -996 2391 14 -4845 -4003 0
1171 4317 -2045 -2376 4906 0
2095 3439 4054 -3953 0
-177 -403 -4163 -3735 0
676 -4980 2645 1741 205 0
3643 -1411 -2783 -3226 0
-3965 -626 -1187 -392 -4870 -331 0
-1157 4370 1549 -4956 -4564 -2726 0
4368 -5 -2070 -552 -281 0
-1240 434 78 -1594 2814 0
-3255 316 4126 -706 -1150 91 0
3500 260 345 610 3026 0
-603 -3512 3800 -1248 4486 -3806 0
538 -2406 2249 -1268 -1724 0
2736 2481 -714 -3481 2181 1934 0
-2423 -3807 4593 -4366 -1428 2929 0
183 665 1786 3770 -4861 -4324 0
-1924 1747 -4768 3539 2755 0
4644 -3982 -2213 -393 -1220 0
1333 48 4306 -3169 2073 1323 0
-1804 -209 -4092 -4677 0
463 -69 1573 -3518 836 1851 0
4590 280 4096 -3765 3935 0
2109 -4832 -4631 517 0
2585 -3652 -2153 4887 0
-1978 -2119 -2974 1582 0
-1446 4579 3860 -1581 -1600 0
3440 -2959 1303 4848 0
3872 -710 3522 -4634 -1316 0
-4515 4127 -430 168 1668 1263 0
-2013 1077 -369 -1153 2012 1854 0
566 2657 4738 4401 4937 377 0
2530 -3028 -3247 -4553 2139 2768 0
2963 4074 -3394 -4135 -4400 0
-2088 -3803 971 4004 -535 329 0
620 -4376 -62 4181 0
2057 -3678 91 -832 0
2177 -2028 -4186 -2280 3551 1836 0
4813 4012 3855 69 0
2890 4831 1951 -3879 343 247 0
-4736 2478 152 -1328 -4297 0
3358 -2851 1862 1585 0
-1437 -1637 489 4615 -579 0
2986 966 -940 -4308 -2736 -2824 0
-2366 3765 -1830 2562 0
-346 -933 -2603 297 -3492 4933 0
-1143 -4168 360 3242 -4477 1554 0
-1036 4095 322 782 1917 4490 0
-3731 1170 -3070 448 4795 403 0
4267 1683 1114 -3026 1974 0
-4441 4788 4028 572 -4591 0
-4202 3003 -3025 -141 0
-2694 -11 -4604 2678 3886 1489 0
-321 3193 -965 4879 0
4947 -4126 3437 -1548 3338 1630 0
2535 -372 4694 2405 0
2800 851 -4249 4036 0
-185 -3393 -989 -4771 0
-798 3998 2559 -3656 -4307 4209 0
240 523 -182 4827 0
4181 -4074 -3590 -3109 -2954 1548 0
2935 -4025 -1585 3116 2418 0
1358 4109 697 -3891 -3220 1448 0
-4613 -4360 1790 -3645 -3736 0
-2797 -4150 -3832 2384 0
-2091 -701 1313 4049 1451 -293 0
-355 1546 -3118 859 4587 772 0
-1322 -3497 2050 -4559 -2463 0
2898 1932 2964 2707 -1528 0
-2686 -1433 1477 -4988 -3982 0
-4722 4012 3008 -4942 -3396 -4860 0
-2621 994 -3000 -998 0
1591 -1393 3817 -3908 -1053 0
308 3426 -2267 -183 -497 2681 0
-2526 4866 -3027 -1835 0
16 -1514 1168 -3910 0
3830 2957 1428 3802 3140 0
-4048 -3641 -3425 3282 3901 699 0
-4477 -3478 3686 1839 4279 -3633 0
1180 -1776 -1902 702 0
3656 1781 2958 -4488 -4744 463 0
5000 -3981 1863 3965 4010 0
-759 4617 53 3472 0
3053 -78 1393 590 -226 -350 0
359 -2167 4840 -4951 -2890 0
-1332 -137 -3811 -2091 -4607 3719 0
-4846 1957 -729 2375 0
323 125 -1293 1932 447 4179 0
-2316 3794 710 -2297 0
1993 2216 4518 -3554 2399 -183 0
1582 -4525 4606 -3478 4034 0
3323 -945 1610 -343 0
3414 -56 3424 -3051 -897 0
928 -343 -178 3109 3919 4812 0
-757 -2076 -6 -2864 -575 -445 0
-3515 3317 -4277 3264 2971 -178 0
1978 1712 -4301 2510 -2996 1450 0
-3993 -1902 -384 -2692 4719 -4858 0
-525 1824 3119 -3173 190 -228 0
-1490 4185 3709 460 -54 1828 0
4781 -63 -1674 -2446 -1746 431 0
1768 -2644 -798 4635 0
-1042 -106 1428 -405 0
3658 2421 -2081 -4901 77 3910 0
1876 -3408 -4160 -2996 -4113 -2241 0
-4374 964 1007 1265 3097 0
1852 2715 -4588 2123 -1833 -3347 0
-574 2588 -1908 -1306 0
-1113 -1882 3523 -3415 0
-3069 2284 -3171 -288 0
-1695 4484 497 -4261 -4777 0
-1708 -4015 4291 -1891 671 0
-3907 -2731 632 -521 3025 3210 0
2190 -2784 1624 -2652 -2508 1874 0
4015 -2663 1379 -2991 2571 0
-4590 -1281 3729 -2089 4318 2104 0
3896 -108 -4863 -4333 0
-2194 -4377 4901 -3676 0
-4745 1034 -1099 3428 866 0
1807 3904 2289 -3800 3027 0
2683 -2048 -3389 -2563 -4192 0
37 -4541 3590 977 3265 -3785 0
326 1842 2088 -826 -4802 0
-4881 4823 -3196 1781 0
490 2469 -2094 313 0
1452 -4544 3352 2199 265 0
-2350 -3175 -2237 316 -1140 -4641 0
998 172 -4981 4073 232 0
4998 -2004 1543 -2590 1162 0
1150 2102 -2161 -603 636 4110 0
4196 1295 2724 1688 0
2096 4850 -1692 -3092 0
-1696 -864 1848 -3120 -1587 -1028 0
-1616 -1664 3740 3250 0
3700 -3018 -3122 2006 -986 2966 0
1193 -1170 -2441 1442 0
-3933 -1922 -1458 -4789 -2281 0
-930 4531 -3118 -1646 -4140 -276 0
1932 977 1795 1756 0
3268 -1611 -2929 4894 0
-3568 3052 -2780 -1727 -210 -3207 0
2628 270 -1863 4286 0
-715 -2014 4539 4882 -1049 503 0
-1185 1278 -1088 -2251 0
-2309 982 -4721 -2920 -1258 0
3197 1365 770 1328 0
-4149 -2879 -632 -4074 -2951 -1051 0
-1621 -4619 1650 895 0
4834 58 582 -3461 -4524 1975 0
1232 2482 3295 -1847 -4364 1184 0
-2068 -2715 -748 2201 0
-385 -2037 -3826 -4753 0
-1309 1411 -2773 -479 0
-2828 -239 169 4213 4010 0
-2145 2384 -3253 4611 0
-2019 3498 -1934 -1223 0
-2485 1956 -1988 -713 -1444 0
666 2994 -993 1921 662 0
4582 -2290 4594 -4224 -3521 2847 0
-1031 -4471 2147 -3632 -1327 1999 0
2938 -115 -262 528 -290 -2877 0
-3470 3539 4654 -4376 -544 0
570 1611 -3581 -2627 4955 -458 0
2465 3367 -1548 -3333 -1220 0
-3631 -330 -1526 -4271 0
-492 749 -4030 -2685 -2330 0
2019 -1521 -3846 -1979 -334 0
4372 4080 -1194 -3061 0
3217 -3519 -858 -766 -4275 0
-801 1328 -1783 2939 -2083 3475 0
-1410 3343 3203 -741 -3800 0
-4851 -2841 -4267 -1594 0
1859 4513 4852 -1167 3498 4044 0
-897 -1837 -389 -2411 4445 0
-392 3078 -573 -19 0
94 4341 -1122 -4044 4609 0
-292 -544 1868 3264 -4007 0
3669 837 -464 3530 0
-4564 -1122 4201 -2547 0
-1056 4543 -213 3763 0
-2905 -3205 -3658 405 0
-202 -1537 -1575 1490 -3534 0
-1069 -3873 879 -3348 3780 -3014 0
1865 -3662 1737 -3393 0
1511 2311 -347 4052 44 2765 0
-3758 -322 -2980 -304 0
4474 702 -189 1918 132 4753 0
1750 4390 637 1503 -1417 -148 0
3347 -688 -190 -2015 4698 0
-177 -1080 -3828 3763 -230 0
4293 3196 960 -1388 0
1857 -2998 175 -3401 0
114 4320 -4311 -2605 9 -4219 0
-1231 -4021 -4433 -1541 701 2948 0
822 -4331 3362 918 -306 0
-447 -289 -4135 4054 -3361 -787 0
3590 815 -1925 -836 0
1021 -2096 -2171 -4231 -4672 -3704 0
2528 -1352 -2138 -4755 0
-1313 -4873 5 3398 4160 4938 0
-2766 3425 2238 4561 4178 -2922 0
-864 4777 1186 4352 0
275 -2536 3117 -4396 -2712 0
716 1818 605 -1404 -3906 4321 0
2829 -380 -3637 -1115 0
1882 2040 2896 1227 -385 842 0
-3645 -4437 -599 -3880 703 -1499 0
2390 4236 885 2693 0
4933 -4649 3843 1018 -3223 -1794 0
-1491 -2 -4359 -2063 4634 0
-4098 2411 -4234 -1463 3974 0
2726 -3168 1587 4443 -3869 0
-3453 -3077 -4449 -1484 4965 1686 0
3954 382 -3976 -2430 0
653 -3638 2026 3046 -1575 0
2404 1254 -2774 2930 4465 0
3154 -577 3299 -419 0
-4305 3144 2744 2679 0
-3246 3152 858 4529 0
289 -1034 -3373 1397 0
-3225 -427 -4583 -3852 0
-3110 -453 4131 3900 0
4888 -2219 113 2298 -4679 0
-850 118 -1892 3395 -3518 0
-3830 -724 -3191 -4648 -448 3078 0
-3497 366 -3351 1821 4382 0
4977 3974 -633 -1028 -368 0
-2751 -963 -4289 -4558 -3915 0
-3479 -1704 4027 2452 0
-3918 -2149 -3713 -3148 -2012 0
4920 1477 3231 -349 0
3883 -210 -3824 -1585 0
-4944 4653 -1690 -1580 -2261 1546 0
-2225 -4353 -3498 -4739 0
-2963 3118 -1210 -3588 0
688 1303 -1377 -1241 -126 4898 0
2497 3804 -2706 469 3212 -3646 0
561 -2302 -4054 -148 -112 0
-3937 -4377 4081 326 0
3567 -3903 -3396 -4567 -2558 0
-1513 4683 -2624 -2982 0
1449 -712 -3360 -3695 -4845 843 0
-915 40 -2846 -469 0
3779 2287 -2090 -2392 3611 -1085 0
120 -2238 -4820 2768 0
-338 3289 3100 -2378 317 0
4038 3378 4128 -3191 0
1476 4300 4097 2386 -2339 0
2798 715 -3163 -903 3043 0
2096 2948 -1460 944 3429 3374 0
-2417 484 -3531 -1999 3274 -690 0
-1458 4418 4731 -219 3779 3088 0
4108 4421 -2293 -4136 4170 0
-4225 863 4590 -2976 -3897 415 0
-1254 -463 4956 -2199 0
-2970 4932 -2604 -1705 -782 0
1255 4631 -2445 -4085 3548 0
-2311 -3980 -1919 -4377 4428 0
-4416 -1745 3105 -4084 0
2929 1752 -1578 -190 0
-1632 -4820 1034 -3507 -4708 -3722 0
2181 4725 1054 3579 -923 0
470 -2632 -834 -1167 4087 -131 0
-819 4195 -828 -2475 4092 0
4260 556 1855 -1331 0
-255 3648 3253 -2557 0
2493 2971 2449 4678 120 0
4226 4477 1816 878 -4975 -4419 0
1202 1795 323 4455 -1088 0
3376 4461 -2234 3823 1119 2293 0
2061 294 2546 1884 0
-1255 -4040 3869 356 0
-592 -1355 3269 3467 -2531 1683 0
4733 30 -4235 -3518 -4224 0
-4650 3094 2861 -53 1716 0
2214 -4871 -188 -1986 -1596 0
803 3799 -3079 805 0
-1866 4227 -2662 3263 -4410 0
-3574 3641 4616 2193 1804 -2168 0
-3062 -2478 -2405 547 858 359 0
-2733 514 2916 -3228 1322 -242 0
-1865 3793 401 -2395 -375 0
77 -4886 -2343 -409 -1757 691 0
4528 1017 -485 3898 183 2770 0
4723 -116 -4186 -348 0
4278 1365 3697 3024 -2651 1574 0
-3531 2491 -3414 2028 0
-4795 2686 -1459 3624 0
-306 2213 2543 -2817 4468 0
3948 -1062 -2185 578 -3664 0
-2814 1889 1986 -3569 4195 448 0
4171 4396 3653 1355 0
-4201 2250 -3700 -310 4340 0
-2860 735 1809 -2284 0
-3800 -1279 2389 -3215 0
3790 1350 3774 352 -2368 0
-4949 -3205 1758 2750 0
-2172 1152 -1726 3521 802 0
3973 -2269 4641 -1724 0
2687 -3502 3848 960 -721 -446 0
1830 -2715 3085 4059 0
3654 -1284 3368 2889 4632 -4566 0
-3572 2155 -414 94 -1395 0
-3067 -611 2143 -669 -4082 0
4443 -1343 -4547 2762 0
1284 1794 -3457 2532 0
-490 2567 3437 -3198 622 -469 0
2059 4211 -4956 -1723 0
2319 2594 3606 561 486 0
-2964 -343 -3680 2756 0
1221 1293 -4342 2601 -2575 0
-220 -4287 3338 3136 0
-2025 16 4446 4357 0
-4474 4067 -603 2705 -2642 0
520 1685 1863 -1955 0
-3854 -1870 875 -4343 0
4686 2208 2515 -4268 483 558 0
871 -728 -2804 -4067 0
-4167 -4247 -3949 4447 0
4352 -460 -2002 645 1002 0
92 -1851 -3776 -58 0
-2256 1295 -2178 -3779 1157 0
-3604 -4807 -2478 -763 -4658 -577 0
-1930 -1429 3993 1653 4795 0
-1840 3907 -2889 2205 2107 0
609 -1433 3470 -3726 0
4252 4913 3151 44 0
2271 -1065 -3408 -4603 2066 -4103 0
-4683 -1190 -432 -249 0
3196 2908 -4654 -3382 -2862 0
3422 875 -200 2775 0
-4092 -2000 -1916 -2229 -457 0
-1987 -706 698 -58 0
1703 -3013 -494 -2036 0
3020 494 4527 314 0
-3257 2856 3834 -1048 0
-1600 908 -1784 3075 -15 120 0
-3224 -1670 -3786 4562 2621 0
-4111 -3025 -3353 -1296 853 0
3716 406 1522 -921 0
3396 -1123 -4979 864 4903 -2432 0
2162 1127 4231 3352 -3349 4711 0
1213 -2329 2697 -1699 -2554 0
-75 2038 -1679 2069 -1119 0
908 4691 -449 -2819 -357 0
-1526 3581 -3690 1837 0
1116 1308 1013 -3443 -1763 3802 0
893 -4200 1178 1703 -1154 489 0
899 -4125 1106 -3778 0
-3610 4421 1750 -2633 2898 307 0
1214 -1797 1547 -2365 -1161 -365 0
-4760 4579 -3988 -1284 2027 2537 0
4895 744 1597 -1476 0
4131 4632 3898 -509 2678 0
-974 -1077 -3793 1478 1238 2916 0
1986 863 2631 -2413 0
-530 -4122 2664 -2717 -3784 0
3970 2357 2593 1300 -4519 0
4806 3578 1024 841 -2541 0
-3911 4620 229 -3158 2072 -113 0
-4952 -224 1455 295 1261 2951 0
1764 4717 -4606 4914 1408 -810 0
-2255 2026 61 -2642 -394 -2468 0
-1747 -3660 -804 1904 1961 4064 0
2202 540 -493 -4887 0
542 94 -299 -3682 -4095 0
520 84 856 -1913 -476 0
-4601 889 -1170 2139 -402 2222 0
1013 2832 4315 4797 0
-350 3430 -3421 3609 0
1612 -1126 4561 853 4175 0
69 4556 -878 259 -4340 0
-1153 -2762 -423 -2009 976 0
-2586 1703 2781 845 0
-3208 2823 439 -247 -83 0
-3628 2317 -709 -1611 2292 0
-4154 26 2907 4659 0
1938 -3901 491 -1277 3405 0
2678 -3190 -3288 159 0
4633 1434 -4195 1674 3289 534 0
-3700 -4432 2075 4421 3503 -4940 0
-856 -1996 -2601 -1418 0
-1754 4137 -1704 -1496 -589 0
3964 -3877 116 -4719 -590 0
1660 -3941 -1861 566 0
285 697 -56 3168 1304 0
620 3936 4809 -2257 2764 0
-4855 -4961 -1809 2302 -3579 4164 0
-4164 -2122 563 4567 -3893 0
-720 2199 3872 -3873 4138 4680 0
-1698 -152 1673 2611 4333 0
3475 60 3927 -911 -228 307 0
-3 -3844 3467 1401 851 0
-4274 3651 -4298 -2443 -555 0
3274 -3142 -706 -3111 0
-3226 -4401 4049 -217 -3602 0
1604 -334 -3377 -4136 -3920 0
-4044 683 -3139 -2757 748 0
1245 1674 -4150 1748 4566 0
212 670 1267 -2347 1762 1687 0
-2198 146 -4651 -3059 0
432 -3213 2769 845 -3540 0
-4643 -4419 -768 4801 4121 4810 0
291 3857 -805 -4440 1762 2864 0
4456 -1812 380 -1512 2566 0
-4233 -3963 1865 4462 4439 0
4225 -4842 -288 4260 0
3577 4765 -3596 4696 0
4795 2068 975 863 -966 3852 0
391 -36 3930 3314 0
-3656 3101 3487 -877 0
-1779 -407 2438 2423 892 0
4066 4347 4514 -3708 0
1827 -3211 -3308 3905 -885 -187 0
125 -2765 -2260 109 0
2686 -199 -764 -3485 0
4819 -1990 -2227 767 0
891 1434 959 -1824 -3720 0
5 835 -2806 -1822 -1321 0
4736 -3260 4614 2163 -3973 4545 0
4889 4714 -1658 -4104 4324 449 0
3444 -3353 -4800 2677 -543 0
-2099 842 -4790 2796 -316 0
4462 1963 -1308 -4487 4972 4253 0
849 3571 -2741 2601 1541 0
2969 2402 3466 -900 -2132 -1652 0
4327 3432 3135 920 1310 -2990 0
4234 3069 2697 4308 2247 0
2071 2550 2819 4437 1809 -4717 0
1684 -115 4392 -3971 367 0
-1547 529 -1885 1700 2126 226 0
-282 3978 314 2791 -1182 0
-1683 -898 1759 -1027 -1580 2900 0
4034 3172 -2159 -817 -1719 0
-2760 3454 1822 702 0
147 -4245 88 -867 3276 0
598 4680 -2168 1496 0
2008 -4009 -912 -3295 0
472 4898 4421 -4095 505 362 0
1930 301 2525 2012 0
1228 851 2015 3842 3081 0
1171 -3459 1157 -3673 -1471 -2439 0
-2737 -4133 -461 -4006 -37 0
4524 -4864 -891 -4981 4952 0
-1247 818 -3520 -1084 0
51 4137 -960 -418 4269 0
2755 -2239 -3767 -2760 792 -599 0
-2452 2108 4106 -3255 -1009 0
-2380 -2227 481 -1846 -29 -2536 0
2789 1216 -690 3184 0
-1916 2591 2817 460 0
-1923 2198 -3460 2194 -3892 3180 0
3840 -3184 -3992 -3465 4237 0
-4142 371 -751 -3046 3338 -3057 0
4237 3785 4133 -580 -3185 2036 0
-618 3218 -1508 655 2223 237 0
-4380 -3371 1225 601 -1239 0
-4337 -1980 254 -2302 0
-2746 2049 -3642 2314 0
4695 -4201 4807 -2955 3356 4969 0
2104 -2879 -2876 4577 -188 -3664 0
-4442 3718 -3492 15 0
-2852 -4227 3633 -4612 -2771 -2240 0
4110 4443 3401 3015 0
-460 3970 -879 2193 -3198 0
3282 278 3528 3458 2516 2645 0
-4644 873 -3522 -3626 1405 0
4430 -889 2681 3781 0
1074 -426 -1307 3689 0
-774 453 -3264 -467 2811 0
-3414 3632 2878 1450 2126 0
3100 910 -711 1917 2595 0
-3187 -1553 3729 1530 0
-568 -4236 257 4422 -2008 0
-4041 -4349 3529 -1622 0
3682 -1063 81 3679 0
-2972 -3456 -3656 -4719 -2145 0
-2756 2060 833 761 0
-3092 -411 -820 -1654 2647 -4337 0
812 415 -3276 3539 0
3160 -2498 2125 -4764 1013 -3705 0
1284 796 4404 -2493 -162 4007 0
4747 -4920 1099 -526 861 -1777 0
3043 1969 784 4890 -457 -3070 0
-3394 3049 27 4023 -4953 0
-3485 1290 1567 -4518 0
-1168 732 -4128 -431 4786 1328 0
-4996 4332 3053 -276 -4922 0
3492 2595 316 1809 -650 -4305 0
-449 -4789 4488 737 2218 0
1979 -2601 3236 3808 -3477 0
-1754 -712 251 1358 -1118 0
-1138 493 -4377 4627 0
3142 1253 4023 3475 -1038 0
-4946 -3864 -3681 4339 0
-1010 -4002 4143 1216 0
4982 654 4938 3499 2064 0
2746 -4232 -3834 -2319 -134 -2928 0
2523 -3170 4445 1996 -3376 1041 0
2173 4868 -610 -2479 4257 0
-2528 4043 -1219 -1605 784 -3900 0
1787 1398 1607 4978 0
2052 -2047 4008 96 0
4742 2454 3872 -2522 0
2529 1190 -1549 1836 0
2787 1924 -4101 2308 -3592 0
4960 3925 -1994 4478 -3466 0
-1823 694 -4858 4932 942 0
3596 -4943 3879 4342 721 0
2075 3292 -3326 2479 209 0
-1862 -4044 -3735 4216 0
-4000 3344 -2971 -3839 -2030 0
2856 -1524 506 -4812 -1846 0
1317 2981 -3450 -1917 -2319 0
-2888 -3766 4119 -3273 -2467 4206 0
-4949 -3781 2479 -28 2110 0
3845 -2676 1455 4906 0
2294 -4982 -4689 4706 0
353 -3903 1603 -4449 -2980 0
-2686 1317 -2656 -4720 3175 0
4261 -262 1198 -3050 0
-2454 412 2422 -1846 3260 1590 0
691 234 3732 -530 0
4669 429 1254 -3520 0
-1962 1653 3842 4309 -2171 0
2906 446 2915 -4128 0
-3620 -834 -1065 4536 622 0
-3434 4151 -3388 -2690 4863 0
-1897 3727 -3995 -183 37 0
-1809 -2347 -946 -566 0
4066 288 -4354 2879 -4925 2743 0
4210 -2943 508 -3891 -4518 -4432 0
4485 -2956 -3410 -468 -3581 3331 0
2413 319 3780 -3447 -2357 1575 0
1552 -3232 -205 -1086 -2444 -2142 0
-957 2903 -762 -4301 2685 -3038 0
5000 -1297 -3987 -3347 2185 1500 0
-854 4629 1304 1834 4996 0
4277 1990 -1988 4307 799 0
-3959 -672 4950 2020 0
4975 1924 -2563 3874 0
-1326 -231 1215 -4635 -4465 0
2543 3842 4024 203 -3585 538 0
3222 -4489 4093 -815 5 -596 0
-4156 -750 994 -738 -2958 0
1622 1685 3686 831 -1451 0
3329 677 3066 -4852 -860 4434 0
3470 -2598 -3912 -2176 -4919 -4558 0
-2036 -3841 1537 -3440 0
-2297 -4251 -2756 1883 0
-1336 3298 2627 265 4201 0
307 -1547 -2631 117 -4851 2283 0
2957 3640 -629 515 3830 0
-4198 229 -4448 -3545 -697 0
57 -3843 -4822 3673 483 0
4272 1993 472 -339 3629 0
-245 3992 3995 -930 3816 0
3963 -3353 4657 -1812 0
4861 4948 4489 1142 3112 -2966 0
-2401 -1348 -3399 -2926 1025 0
683 2515 1796 4999 -3429 0
-631 -4531 -1100 -772 -347 812 0
-2531 -2243 -2482 1447 495 4917 0
-833 543 -4885 -2877 0
4242 3261 2540 -1509 3903 -2841 0
-4575 -904 -2073 4231 -1204 2606 0
542 2491 4837 4316 2634 2966 0
-4953 2808 2525 -4385 -3430 0
-1090 1591 1874 3056 -1342 0
4680 4637 4112 3622 -3771 0
1506 1377 3257 -2181 0
-262 2077 4737 -2782 2476 2033 0
-827 -4830 1217 -1762 0
-672 2276 3595 -3560 0
2342 4576 2090 857 934 -945 0
-4621 -1793 1865 -3070 4561 0
-1600 1754 -1046 4660 0
3378 -4242 1750 2410 4952 0
-3468 3185 3025 490 0
-808 3760 -1113 4579 3205 -2627 0
603 1526 -1937 -4292 0
-999 -2963 3238 721 4748 0
-3138 3143 2245 -2046 2460 -3663 0
2011 2704 3099 -2814 -851 -4749 0
-805 790 -2672 -4445 2100 0
1138 -1394 1363 4225 0
3796 387 -629 3090 -1481 2562 0
-1987 -3271 -2450 484 241 0
1019 -1669 -2302 -481 0
967 1839 -1240 3817 609 0
1805 -609 2476 -4451 0
-3611 3641 -1646 -2828 3227 1008 0
3532 -3144 1401 2702 637 1871 0
-1996 1881 -2152 -2715 4631 0
1596 -2257 902 -4532 0
511 -1357 1216 1827 0
1591 -4904 -2617 3397 1659 -2687 0
-2278 4644 977 3457 0
3986 661 -1559 1441 3059 0
940 -2667 2947 688 0
-653 -1760 -4816 -175 -3943 0
2506 -3752 -262 -1220 0
3938 -1276 -575 55 -4593 4424 0
-4162 3559 -798 -1016 1466 0
913 4806 -3769 141 -1731 1331 0
-3434 3942 -876 -394 -2656 0
-3716 4540 225 -597 2561 3270 0
-3280 1217 -2727 3841 -3450 0
-2457 4854 -4575 2148 -1253 0
459 -499 1990 1404 0
-2859 -4990 590 1430 3482 0
-4625 835 4050 -4679 3801 -3529 0
3668 1257 -4529 842 2161 0
-725 -3726 735 -4202 0
2887 1228 4798 -524 0
3922 -2707 -626 4961 0
1929 -1071 -2301 2707 967 0
3020 -4727 -765 -3791 1719 0
-4404 4766 -4872 -3063 3336 0
-2046 -2790 -3415 2768 -1179 4579 0
1472 -2452 -3180 3353 0
-496 1910 2822 1372 2703 0
-4310 -4345 2580 1038 -3402 -4662 0
-323 -28 -4805 355 0
-3631 -886 -1030 1384 0
-3385 -4323 3175 3709 3734 2716 0
1441 -3682 3427 -441 0
3049 3142 -2477 613 3204 0
713 -3379 -3471 -2687 -498 4895 0
-3562 1579 -2509 -3051 2902 -4933 0
-4630 -3512 2732 3504 0
3136 -468 -683 -2598 -248 0
-1803 4510 4018 -1559 3606 -4094 0
4601 -3379 2646 4470 302 -2317 0
-4293 3576 3066 335 3225 0
-4051 3673 4189 737 0
564 -210 4746 2231 1441 2371 0
3822 1500 -3432 -1951 -3042 -4383 0
2952 -3817 2382 -4264 736 0
-1109 -3552 -3058 1633 -1973 0
-4401 3249 -4105 -1162 1537 0
3335 2669 3453 3303 -1145 0
-378 -3709 361 96 4657 2917 0
319 -990 3978 1002 3970 0
2535 3859 1667 4907 -4862 0
547 -1846 -461 -4558 -3028 0
-4550 2907 1500 2153 0
-345 3906 -80 -2440 -4892 0
753 2896 2829 3705 -3940 -1465 0
-3585 -3094 1451 -2375 -2736 0
4348 3692 1563 4863 3494 1125 0
3516 -399 -2802 -4181 0
-1161 -3156 2780 2568 -2637 -4353 0
-1056 -1274 -4508 4676 0
3846 635 3827 205 4047 0
-2111 4339 -3487 4909 2601 0
-2780 2269 410 4409 1564 0
3091 4295 1946 -4101 2198 -2560 0
1008 193 2555 -4176 -678 1691 0
-2024 148 3636 -4004 132 0
1909 2814 -1972 -2396 1604 -1648 0
3263 317 -1437 2364 1089 0
-4683 817 2599 -4254 -944 4504 0
-3225 -3263 -4416 -3045 0
2153 -925 489 1795 4274 0
3051 -4265 918 599 -1993 0
4235 2777 -1449 -2015 -1534 -1615 0
-3499 1909 -1561 2287 -3295 0
3828 4962 1177 4068 -2481 0
-603 2188 -2797 2370 3684 0
-535 1827 2924 4384 0
3550 -4456 872 -1486 4557 -1756 0
-3741 2937 4600 1217 -512 2750 0
447 119 2344 2043 4340 0
4885 3610 3 683 -1131 0
3086 -738 3497 -2309 -172 0
-347 -2177 3186 3864 1300 0
2005 2547 -2534 1059 0
-985 2987 -3925 -2403 0
-4666 4301 3544 4552 4397 0
-3490 1035 493 -1395 4163 2724 0
-697 -3950 -2892 2563 -1363 1241 0
-1684 -268 -452 2766 1393 -2241 0
4666 264 1318 955 -2956 0
-107 230 -1206 4444 0
-2110 -3664 4343 -3179 -569 137 0
2830 -2109 899 1162 -178 -2005 0
4019 -2637 -173 -4033 2755 -3135 0
-1791 4201 1235 3788 0
194 -4805 2521 2455 0
3386 -4425 338 4777 -2313 -2690 0
4451 -1447 3595 2104 -1918 4008 0
-3505 -4799 3849 -4143 1993 1835 0
-4671 4409 4214 -1916 -2610 1120 0
1625 -3688 -818 -3348 1636 0
1468 1305 -3502 976 -4624 0
-3162 2186 -2195 -924 291 -3779 0
-3076 -1127 1136 -14 -2961 0
2675 127 4520 1092 1551 -4963 0
1825 -3248 3592 -414 2534 -680 0
2863 -2486 -2927 1829 -4610 0
-4075 -1356 -2480 -3201 2040 0
-597 1247 3 4714 117 0
1563 -387 820 -2363 -4782 -3669 0
4301 -4249 -658 -1237 -3956 0
-101 2006 780 -3818 -3636 0
4924 -664 -1644 1674 3940 0
4169 2222 620 1710 -2318 0
-3986 -1682 3683 2032 0
-353 4376 1527 2550 186 0
-1699 3616 4701 4026 0
3087 -1694 -2878 825 1026 1427 0
2822 2406 -2799 -1816 -4353 1933 0
667 -1165 -2330 4374 -3253 0
4283 4033 -4715 1557 -205 1627 0
2230 3729 4308 -1066 0
-4720 -2327 -3502 -2150 0
1363 -3652 -4896 -3980 -4780 2513 0
-4172 2481 -4156 -2052 446 209 0
-2119 -2128 4778 -4031 -4436 4355 0
1161 1168 804 -1554 4527 3657 0
-2768 4669 -290 -2612 -4848 0
-11 4970 2093 1977 0
2502 168 1780 611 0
2360 1557 331 -696 7 0
-431 2408 2213 -1175 0
902 -4013 -3571 -3585 -1391 0
3224 -4809 -3441 372 0
4687 979 -766 -1714 -3438 0
-248 2104 -1506 1016 0
-4200 -2593 -2232 -811 3665 -62 0
-2637 -3335 2311 -1645 0
-2858 3065 -418 3726 -2303 -1028 0
-940 -669 3919 3171 -3202 4790 0
-4062 -2409 2518 -4143 3236 -224 0
119 2931 -1479 1065 0
4942 1689 -4957 4840 0
-2116 4856 3285 -501 -39 0
1415 -4078 97 3764 -246 -3376 0
-4255 -1516 -3171 2301 2877 4173 0
4950 -4225 1411 3108 -1296 749 0
4691 4662 118 -2646 0
4537 2522 2938 3875 -4826 0
-4358 -3779 -1221 -1672 -2534 0
1079 -165 -2616 -3753 3879 3343 0
-2542 2916 -1578 -3889 0
-871 1881 2697 -1055 0
-852 -733 4291 -4143 0
2896 2664 3430 3966 -2396 0
4576 -3447 536 -454 0
-538 2224 2218 -2598 -90 0
-221 -278 -1229 239 0
-3282 2471 140 -3579 0
4440 -803 527 4084 4688 0
3561 429 -2558 4701 -3851 -1522 0
349 -3883 2851 -1603 -2261 2242 0
-2607 1216 2307 -4454 823 3531 0
4708 -2029 -4385 673 0
4720 -320 3257 -186 4475 0
-4180 -2613 -3239 1804 0
3220 4140 -4926 -4764 2790 0
2671 -593 -848 -4675 1405 0
4021 565 1864 4563 4806 0
4105 -396 -3605 -3751 0
2229 1888 -4842 -4434 -4350 0
571 -3535 -2158 1675 3384 4754 0
2651 -3172 -263 3838 -1812 2464 0
-686 -2086 -756 2344 0
2849 -2211 1629 -1321 249 0
3555 -1326 -4332 1426 0
-1158 -4544 -604 441 -1157 0
-3726 -3730 2380 -2538 -2237 3913 0
-4540 4665 1966 -264 0
-60 -2701 -2048 -4007 868 0
210 -2778 2845 -916 1637 -2663 0
-1248 700 1120 -4422 -3562 0
-836 -221 4071 -4186 -3557 -2016 0
-4972 -2006 3471 295 -2404 -2551 0
-2811 3676 -2136 2101 0
-4359 -641 3062 1941 0
-61 -2040 799 -4789 0
-1706 -4494 -1992 -3979 -3770 0
-3597 -4783 2873 940 4817 0
1214 2812 394 -4818 -108 0
4511 -2691 2855 1826 4446 0
1486 2759 -27 -251 0
-3366 -2859 -3033 -1700 3267 0
-2958 807 2080 -4114 0
-3096 2687 4908 -4646 0
-3912 -728 -809 4795 -1192 0
-1673 -928 -4548 3304 0
1654 1462 -3752 4256 -23 2375 0
-2458 -3638 1982 1433 4460 3178 0
-1424 -4630 4353 2850 -4288 -199 0
4547 466 2270 4892 0
-4124 1160 -262 2107 -1833 0
1930 4237 3532 4137 2468 0
-3076 426 -983 -3883 0
6 1066 -821 -1148 -1557 2484 0
-4596 3796 -1665 563 540 0
-4182 -2708 -1363 2022 3937 34 0
3830 3524 -4008 -3109 0
2271 4694 4643 3334 0
3349 3988 -2375 1391 -4397 0
-730 -4998 4721 3010 1048 659 0
-3536 -4011 3413 14 0
-1597 1443 762 -2152 4342 0
1817 -2886 -4516 4522 -2999 0
-1964 2840 -4866 4169 285 3159 0
-933 -669 -3011 2901 -3453 0
4468 -2447 514 2842 3959 0
-244 -1020 1918 3059 -3004 0
4292 4040 1254 -1000 -4652 -4283 0
-2931 -3841 3935 -4238 1447 0
2404 561 142 -2217 1483 0
-4370 -888 4474 -3125 -4466 0
-3582 -2428 321 -1246 0
3979 -1466 -2992 4018 -141 0
2390 -2993 189 2781 -3302 0
541 2853 -804 -1997 -2369 0
111 3578 1983 -1421 0
310 3970 1600 -3699 4351 0
1575 -4416 -4734 -1303 -1735 0
68 -2524 -2483 -3080 0
-683 -51 -1948 4105 -2579 0
3707 2862 -1794 2115 -1364 3438 0
-3299 247 213 -997 0
-2648 4555 -4780 1165 -2196 0
3888 2880 -3007 -2092 0
2203 612 4676 -2632 4507 0
-4297 -414 -3735 -4327 2304 338 0
2726 -4367 3474 -2297 0
2853 2965 -107 2620 3194 0
3573 1754 -2204 -2740 -3017 0
589 -4777 -1392 4154 -4528 0
2219 4114 2109 -2911 2525 0
4708 2173 2827 803 -4703 0
2314 981 -292 2442 0
2655 -4904 -3524 1361 -370 0
-3957 71 -2038 -206 1146 0
2889 4014 204 -2252 -3421 0
-232 604 3778 -153 87 0
4111 407 -1324 948 4695 3784 0
-2744 -1048 4813 -1845 0
1903 2088 4887 -445 -189 4441 0
-3368 4415 188 -2931 -1933 0
3056 -3442 -3620 1354 0
-4351 -2033 851 4320 0
4882 3181 2800 -1044 1950 164 0
-1529 1722 995 4213 -38 717 0
-2973 -4638 -4933 430 161 -4356 0
-3759 -3528 -2423 1436 3347 3683 0
533 -3910 1306 665 780 0
918 3259 4340 -3425 -230 0
451 -3117 -647 786 -810 -2236 0
422 1283 -463 835 -2008 -2384 0
2308 545 -1473 -4317 270 0
816 -1503 -4148 -2570 103 0
3147 -1775 -713 1003 2161 -488 0
-2141 -198 1643 2767 0
-2737 -545 4438 -2325 4692 0
1696 -3351 4001 4091 1625 0
-4305 2089 1194 -971 0
1370 -981 4255 4095 0
2169 -355 4488 3587 3412 0
-1340 -4145 2160 1656 3211 -2865 0
852 -2779 -2140 3324 -3817 4633 0
-365 1806 3639 -259 -2457 -3570 0
668 3741 1670 -3147 2645 4527 0
-4743 3235 2298 -1578 -4406 4675 0
3507 -1159 3829 -2096 1675 3691 0
502 -3691 -2520 2639 0
-3354 -2830 -2991 -68 -3090 -3179 0
-764 -1394 4191 -2971 -4883 0
-875 -212 3383 4903 4525 0
-4389 4415 2778 -939 -1957 0
3316 -4227 4523 2807 2740 0
86 1370 3662 3724 0
-539 -1603 -1542 -1438 1631 -1470 0
2224 -3994 3343 -1889 3573 0
-4379 3013 4768 -3411 188 -3120 0
4996 53 2716 2532 0
2160 -4278 2548 -407 1149 0
4389 4012 324 -2846 1249 0
4595 3871 -3095 -1813 0
2754 -149 1380 -1529 -2348 4365 0
4668 2680 -2670 4284 0
-2391 1802 3928 4463 -3492 0
-3977 -142 2349 610 0
-2683 4023 783 -2087 -3077 0
2916 -2155 689 -3764 4453 3223 0
3406 -1165 -915 3804 -1723 0
-4482 -2761 3705 -4954 -1533 2689 0
2389 2443 -728 -3854 3485 4691 0
1599 -1649 1520 19 -2365 0
4898 2905 -3549 2901 -1785 0
-658 -3803 -3766 -3449 0
-4217 2109 4229 4439 0
-3546 -2228 -1459 3512 3583 0
2043 -2009 -2345 -3239 -4381 4955 0
-540 3366 -4300 3285 -866 -1709 0
2275 3759 -3595 3962 0
-2757 4897 278 -508 20 -217 0
509 -3070 3652 -1106 1661 -1984 0
144 -1473 -3650 -1821 -1312 0
4842 1876 1212 579 0
-1966 -3713 4279 211 -4652 -3989 0
3869 2072 1426 3152 0
4559 1074 -2477 -3184 -1262 0
-3758 3408 2555 -4141 0
-3243 -4493 3781 779 -3090 0
-809 -4991 -461 3458 2880 2041 0
2260 -3759 3258 -3303 -3436 2488 0
836 -4565 3355 -19 0
3662 -665 4202 -377 0
4153 -415 3605 -4732 -3506 0
-4298 -2701 -3496 2326 2338 1311 0
2135 4623 -2410 901 -3203 0
1067 4305 -123 2496 4956 0
-4205 -3806 3872 -4212 -1381 696 0
-733 -974 -2755 936 4298 0
4058 -2208 -4767 -3596 -2797 3934 0
-3790 3366 -3513 -3739 214 -3370 0
1967 -3690 2168 -3736 4977 -1257 0
2795 -1559 3789 -1015 3418 -4438 0
-1951 969 -3422 -2233 -3188 0
-3128 -4694 -1419 4931 3937 -3290 0
3402 585 -1130 -1721 0
-4820 651 2666 -2518 1637 0
-4371 2242 -1189 -4773 0
845 3246 -3947 -83 -2843 0
4535 4174 -1703 3665 -4517 741 0
-4054 -1591 -594 4741 -2071 0
2184 -2988 -4719 177 4144 -1050 0
-632 2037 -183 1846 -1818 0
4042 3692 1680 4147 -4484 -3865 0
-3161 -1397 466 -4400 2935 0
4097 -905 -1707 4053 1138 -302 0
-2578 -4646 350 2543 -3811 0
994 2731 2986 44 4519 1582 0
180 4962 808 -2519 0
2971 3650 -1977 450 -401 4985 0
-627 212 139 -3576 4199 0
4154 -389 2069 -4676 -4181 0
-4453 3353 166 2710 3674 3808 0
1781 2812 -2234 1930 -2120 4068 0
-922 -708 -701 -1616 2947 0
-2312 -4036 2759 1632 -2753 0
-2314 3307 -1770 -250 0
603 125 1795 23 0
2459 -3614 3772 4865 3343 1623 0
1297 -3654 2097 4984 4842 -4867 0
2367 636 -2712 -3657 1453 0
2505 3076 -1564 -599 1241 0
-2200 -3233 -696 -1735 0
979 2813 4262 4936 -4574 3176 0
4482 -957 -2617 -4980 3274 175 0
778 4583 4231 -3986 0
2568 -2963 3118 -3537 -707 0
1244 2661 2341 1728 0
2920 4530 999 3538 0
4105 4983 -2762 1820 -964 0
-604 -3020 -482 -457 -3110 127 0
4230 4930 -195 3969 1482 2200 0
866 -4717 -461 -2097 -4721 0
1817 2375 -698 4607 -3317 0
4791 -2495 -1039 -752 1020 -2959 0
4698 3891 -2216 3014 1455 1737 0
3002 -3600 4463 1991 0
1917 -2888 2266 -1514 -4763 0
3662 -4555 620 4302 0
-1482 4578 4460 4407 4048 2762 0
-1674 -3351 -4669 4130 -2192 1454 0
-1593 -4164 -3347 2871 3069 0
2510 2397 -4433 3384 0
578 -4958 -1436 -896 0
1493 1446 1475 4853 -4452 1617 0
-1093 -714 4803 2810 3498 0
826 2572 -3214 -59 3416 4339 0
-2991 4306 -3780 3489 -1505 -2653 0
-179 -3298 1099 -4609 465 3021 0
-2528 699 3197 -4173 -1346 0
-3715 -2884 -415 4 0
4781 -4216 -3410 127 4427 0
4352 471 4419 -3056 0
-50 2908 553 2317 707 0
2347 779 -1949 -1911 0
4702 -3760 590 2308 2009 0
3668 -1772 1073 -2446 -4492 -824 0
1820 3499 -2930 1604 0
-2478 -4558 3306 -111 0
773 880 -2138 4604 1797 0
-519 61 -4105 -3208 3702 0
-2260 4993 -127 1557 1425 0
-589 1221 -187 3721 2475 0
-1986 -4703 -1514 3328 0
-3055 1306 1557 4768 714 0
-3859 -2354 -1131 4035 3150 -2795 0
-4936 -3260 3704 3303 -2116 0
2835 2331 4435 2102 1294 0
345 -1650 -1125 3983 0
-3971 -4570 2488 -4567 -3280 -4607 0
-191 -4854 2403 1530 0
1817 -3963 -4139 1745 0
3445 -4656 -2666 2227 -3588 -338 0
2933 -1736 4864 2817 -2142 0
-4627 -3209 1901 -521 0
4631 -3837 -4029 3369 2196 3946 0
-2913 4377 -4599 -1276 -92 821 0
-2135 4926 -1721 2354 -3560 0
-3891 2314 -4284 3351 -4568 0
242 -948 3490 -2107 -2730 0
3137 -2015 -4844 -1859 2626 -2608 0
4500 -2731 1002 384 0
-4203 4969 1181 -853 0
4659 1799 1347 1296 0
4614 209 -3353 4665 -3811 3569 0
1695 3358 -4456 -1475 0
3729 1316 4496 3421 988 -2053 0
219 -1188 2534 -1155 -3412 1475 0
-4621 -3615 -3524 -236 0
-2892 -2621 -3586 -3311 -2479 -3265 0
-4748 225 -1253 -1210 -2066 3385 0
-1080 4251 2201 -1831 -1684 0
-3861 -4562 50 -4591 0
-326 -3603 3845 3987 -1014 0
-3872 -1476 602 -4148 0
1122 -3792 2217 1005 142 0
54 1636 2642 1479 0
4156 962 2429 -2388 -1975 0
-3091 -140 -1034 3061 -2133 0
-1711 1254 -285 4915 818 0
323 1364 -231 -4281 3771 -78 0
-2828 -3489 -2601 3442 0
-3903 -1260 -2617 -1512 0
-3731 3291 -4610 -3688 1287 0
4435 -337 1269 -805 1042 -4561 0
-1252 -1813 -914 4656 -167 4642 0
-1296 -3436 4470 675 2036 0
3890 116 -3596 -3705 2441 0
4362 -4215 -4695 4439 0
-4486 639 -1364 -3439 0
-3163 2259 2093 -3149 0
-2384 -3502 2589 21 4367 -3025 0
-415 167 2109 629 -338 0
-2602 -739 -2738 3039 0
-3938 -3577 3887 4724 0
-3306 3616 4092 -4675 2887 -4470 0
3261 -1527 3341 -122 0
-1262 -3790 3013 -2367 1036 -1981 0
-3920 4729 1760 3643 -1882 -2913 0
4737 4150 3260 1273 0
968 2532 738 2775 0
-1462 -3914 -4466 809 -3667 -843 0
1831 3693 1260 -1636 0
-2139 3376 -3008 2342 0
-2055 2906 1841 206 -175 0
863 1429 -2909 -4762 -3700 0
-1176 4577 1387 -197 423 2144 0
-2317 -4174 -4377 -339 0
3129 2009 4328 -4364 0
306 -3712 -1056 40 0
-2957 3654 -4129 -3548 -4329 11 0
-3866 -4878 -2820 -1473 -1204 4221 0
-3698 -152 4573 1779 0
233 -2835 4832 -330 -3828 -2858 0
971 2733 3311 -4587 4914 0
4317 -3773 -3208 -4615 0
-3583 -624 -1193 -52 0
-1132 3868 -2923 1173 0
-3405 3840 -4597 4780 -2511 0
2318 1198 2877 -1256 3879 4296 0
-3516 -148 3175 -3407 1159 1975 0
-2250 3755 -4965 -2680 0
-3612 516 -1836 -6 0
892 -1374 -638 -3562 -3042 0
1853 2733 -2732 -4063 -2429 339 0
-2638 -3438 -20 4853 909 0
-4642 3154 3810 2898 4720 0
2772 -731 -1983 3667 -2798 3472 0
4618 518 3065 -3202 -1931 -3390 0
-4290 -211 -945 2849 1589 0
1219 474 -783 604 3245 -1892 0
454 -4359 -3409 634 -1808 0
-3689 -4540 638 -1469 1489 -4793 0
4078 -717 1592 2149 1964 -871 0
-2178 4313 3 2665 1535 -3947 0
3338 4602 -1735 3253 -4302 0
833 -1064 1695 -3104 -657 0
-1656 1699 -414 -4710 4203 0
-1984 -999 -1558 -4325 1091 3510 0
-3740 3160 -1317 1419 1861 0
-3825 1719 -3612 1380 0
-2984 4553 3624 -865 4263 3803 0
-393 -1556 3520 -2456 0
3502 -984 3945 -879 -3858 0
-3916 4604 4913 -2337 0
2743 2153 -2409 -3329 0
-1760 -57 -4826 3235 -4549 0
2390 4929 3201 2075 0
-3884 1275 -2168 2713 1388 0
-1747 4490 1911 -2521 0
3812 -1178 3544 -4190 0
3976 -1812 2364 -3206 0
-3356 516 1534 2428 2920 2219 0
-2354 -1777 -3854 -4050 651 4115 0
3073 -1818 -2443 -3477 0
4214 972 -884 4672 -169 0
-806 -3568 156 -1036 1542 0
-3391 1894 2224 2521 0
4323 -285 -4525 -4028 0
4475 1811 -2606 -1464 0
-4122 -2881 -1283 4230 -2591 -2825 0
-4386 -4996 -2866 -4142 2874 0
-2442 -727 -789 3655 2263 267 0
-4756 2456 -4291 1980 3190 -1342 0
-1841 1500 201 2214 -1803 -4649 0
-3798 -3944 -234 -2878 3489 0
4957 -988 -3475 -1653 3982 0
4340 1672 1146 4320 0
-1706 -1815 -1462 1348 3502 -4747 0
4292 1317 2147 -2669 0
-4912 1820 2277 2215 0
339 -1969 -3819 -4686 -2582 -4924 0
-943 -1257 1130 -3937 0
-2836 169 -2296 4952 1000 0
-750 264 -2237 -4627 3240 4576 0
-23 3246 2350 -1726 1870 0
96 -3839 -479 -3533 2464 0
3109 3769 185 -2980 0
1836 4784 -2763 4456 3490 0
3725 492 -1228 4459 -47 -4885 0
1625 3005 -2204 4018 2787 -1441 0
-1556 2950 -1414 -4051 4662 0
-2812 -4730 3402 3220 0
4331 1842 -4441 -4014 0
2615 -1558 854 -2446 -1195 -2814 0
2194 -3592 2252 3477 662 -3508 0
4640 4305 -192 3693 2246 3225 0
4448 2397 -2159 1145 319 -4246 0
4683 3380 -1083 1545 3454 1307 0
289 -3216 -3320 -4181 -2751 0
1137 -629 3465 4769 0
-3846 -2825 3690 3146 2062 -1680 0
-431 212 874 -4186 4189 0
1359 28 2551 -727 0
4640 -3628 -1100 1358 0
2624 -3286 -951 -3310 0
1668 1747 -1111 1198 0
-3697 2778 1384 -43 0
-1512 732 -3366 -2106 0
4334 -4795 -4497 -1078 664 0
-2946 -2904 603 4461 -4424 4921 0
1825 -381 -1133 1853 0
332 3133 -1155 -1454 0
-1310 2803 2370 4966 0
-2903 265 -4957 2692 0
4634 -476 3375 -908 0
-2890 196 -3896 2513 0
-3412 4957 -1031 3382 -741 0
3463 -1392 -1169 -4290 1372 0
4427 4065 2392 440 0
913 3627 1115 2599 1006 -1076 0
-1630 -118 -964 2413 -3673 2716 0
1370 1269 2680 -4848 -947 769 0
3178 -2268 210 3314 0
-3627 -4909 -34 1602 -218 0
-2656 -1420 -4388 2124 4750 -22 0
-3512 2322 -4926 2428 -905 0
-797 -4853 2116 3304 -3948 4026 0
3302 -4117 -4881 -3678 1280 4 0
1518 3665 2945 -499 4779 0
4362 -3959 4494 1964 -142 0
4086 -2835 2289 -99 -4543 0
-1075 1502 1793 -131 -4476 0
1513 -3190 2148 3 -3614 2288 0
2315 -1017 -2485 3337 -3114 0
-1614 -4775 -232 1008 4594 -493 0
1330 4187 2274 -1086 0
-4373 2271 2460 592 -3100 0
-1061 551 1060 3107 -483 2883 0
-2132 -2585 -3249 -2929 3856 0
-493 -1465 2914 -4300 -3543 0
-1074 1735 3282 -4030 -2754 0
2268 -2313 267 3861 -3691 0
-751 -2780 -4865 -123 3658 -4203 0
4941 4053 -4091 432 4047 0
-3368 -3413 -1903 356 -881 0
493 3943 -1937 -242 -462 0
4992 -310 2910 2837 0
-1035 1256 -1900 -4670 2133 -3366 0
-1279 -4214 289 -3466 3661 0
-1764 2697 -465 -1710 0
4595 185 2082 2666 -3665 4208 0
4943 -4183 -1074 461 0
-1596 242 -3201 1185 0
2866 -1441 -4747 3532 2721 1793 0
3128 3359 1560 -3613 0
4010 -3652 4597 2909 0
4445 2798 197 4190 3267 0
-2356 4396 -3953 -4709 -4607 3498 0
218 1033 442 -2306 0
2606 4617 -3379 2142 0
-4037 -737 2537 2050 0
3376 4917 1607 -4152 1545 0
4972 2723 -315 -4048 1219 0
1549 -4230 -4143 298 4778 0
2917 3407 1985 1347 -1803 0
-2127 -1568 -843 -1204 0
868 -185 -1097 254 -1747 -1093 0
4492 -236 -4358 -1221 3032 -2328 0
-4458 -3657 2574 -531 4841 0
3600 -1298 -4241 -2602 1130 -3452 0
2763 3503 -3610 -3232 -2644 4075 0
-310 4418 3720 -3362 0
1472 -884 -2693 48 0
2672 -3630 3196 1939 -1066 0
-1318 1236 -3950 -343 -4517 0
4675 -336 -4816 1341 4048 -502 0
4285 -928 987 -841 -2261 0
-2680 843 -2713 -1651 2469 -4608 0
2692 3074 -3015 -3471 860 0
3060 -1623 3367 4021 4122 0
-3454 -1754 908 -2846 1531 4295 0
-3817 4087 -2763 -3774 0
-4398 -2394 -4613 -1092 310 -4041 0
-3764 3055 2569 4692 0
41 4580 -1598 1154 1651 -3192 0
2152 1199 1599 -1995 348 -1811 0
-3254 4972 -1374 3191 0
-1232 3266 254 3833 -2774 0
2246 -1232 3850 -4216 4060 0
2370 3392 -4065 -3409 605 3634 0
-774 3330 92 807 -1157 2507 0
4235 2141 -484 2084 116 0
-2013 -1803 4289 2737 1793 3365 0
4186 -3327 -742 2495 -721 1684 0
-2807 216 28 1750 -2184 -15 0
-3606 3344 3773 2489 3212 3444 0
-3693 4441 -305 -327 0
-2274 1919 -4999 3128 0
-828 -1538 4280 4608 -1031 -3984 0
4362 4453 -2834 4006 0
-3470 3578 1289 1513 -2381 1215 0
-1031 -3293 4330 950 3220 1724 0
1866 4771 -4276 -768 3726 0
1019 -1020 258 -4007 -1556 3853 0
-1613 4808 -4922 2174 0
-2579 -291 1919 -3104 0
382 35 2671 -576 0
-1001 269 3781 2460 0
4220 -3890 -163 3701 3440 -1224 0
3705 853 -3116 28 3792 0
2799 -692 -3713 4281 0
4680 3692 1534 -4711 0
746 1460 -4235 345 0
1137 4090 -3287 2989 0
2040 -1216 -175 -1309 4681 0
565 -3123 -4491 -1940 0
650 3196 3352 4178 -4788 -3874 0
103 -1106 4686 -982 0
-341 -2328 -2183 -74 0
3394 -1360 3824 -4177 0
-961 -694 2580 4533 0
-2372 -123 -52 1670 -3136 -4157 0
-1859 -1568 4515 -3484 0
2844 2287 -4415 -3467 -4618 684 0
4768 -2469 -4353 -3455 -4086 0
2549 1276 72 -1445 1981 0
-4261 -4584 -3728 -690 -3758 -3062 0
-3661 -2439 2863 3302 -3534 0
-2354 4332 -3122 4067 2924 0
-4912 3098 -2950 1015 0
2522 1363 210 -4751 -4156 2376 0
3262 1538 3941 -3446 3833 237 0
1574 -2915 311 -4111 419 0
-280 31 -4820 3598 0
4514 -2508 4281 3845 0
4716 -1883 603 3376 0
-4159 -1157 -1994 4566 -2120 242 0
-188 2488 1557 998 0
-3949 2220 1336 -73 -1361 0
3239 1017 -3090 -2296 -2747 -18 0
2060 -2616 3172 1669 958 -1426 0
-2483 2396 -561 3403 -3148 0
-3412 1775 3577 -3913 4570 0
-2466 3857 452 4020 0
4322 -2932 4043 -4018 0
-3834 -1283 1921 2667 921 0
807 1522 -4516 4377 1725 0
-1593 717 -4751 -2458 0
2431 -2460 4905 3613 -1571 0
-1514 -3534 -1848 -532 -4337 0
4488 4499 -4237 2758 -3556 -1756 0
-1698 302 4083 3453 -2832 3781 0
-3554 -3200 2443 2652 0
2597 3077 358 -103 -1153 517 0
-2050 1358 -3424 -4567 -3252 0
-3057 -68 -4925 -633 0
-1176 328 -4125 2262 0
3917 4966 1865 1085 -4286 0
-697 1072 1901 4624 3754 0
-485 -387 -1987 3832 131 -3024 0
3887 3357 4660 -351 -1036 0
338 2807 -3422 -4797 1189 0
-4906 4688 -4535 -1777 -3561 0
2911 4639 2620 -1242 -572 0
-1260 950 2405 948 -4797 -4563 0
-2520 -77 -3002 3572 0
2709 3398 -1823 -4589 0
-2370 631 3132 -2880 0
1467 -2568 -4682 559 0
-3809 3266 2830 -1582 0
-4107 -741 4630 619 4990 0
274 4954 4064 -2737 2729 1431 0
-4392 -2398 -734 -4924 2479 -1689 0
-2179 -3707 -2157 482 3384 0
2915 3663 4606 -818 -3825 3088 0
-2771 4558 -386 2065 4418 957 0
-3483 2131 570 389 -4674 0
4381 -847 -1672 -3799 481 3425 0
-3480 -1975 -3575 3705 -3162 3997 0
-4631 1084 1991 -3565 3584 -873 0
4373 -45 -80 -4319 0
3244 3360 -1605 -2095 0
3843 3219 -1535 -430 174 0
-4045 -1316 -1817 -3324 -1432 0
-1635 4076 -1548 -2039 2465 0
1541 -563 4144 -1080 0
-3979 1099 214 -2852 576 0
-319 -4258 -2124 -3981 1464 0
3969 4348 -3071 -4123 0
-4303 3266 3762 -1768 0
-356 -4607 -2473 3901 3830 0
-2614 -3330 667 3543 0
2350 -1678 4498 -199 -3188 -3368 0
-3212 390 1903 -4992 0
-934 2153 -2615 -3778 1575 0
-683 3110 -1341 4764 2796 -3099 0
1842 -892 -2255 125 0
2628 2411 -2168 -519 0
3794 -3839 4367 -3085 -2802 2433 0
1450 3730 2361 -373 0
635 -3410 -1737 984 2048 -3246 0
24 -795 2646 -202 -498 0
3744 -2089 2664 -705 -405 0
787 1618 3660 -4012 0
3865 -4459 -2607 -4484 140 0
406 -3227 -802 4102 0
3550 -2518 2074 2291 -1262 1727 0
3728 -2633 -3827 -4426 0
4063 2066 3449 2910 0
-1585 -3083 -1996 -1065 3306 284 0
-1253 2307 -4145 -2083 0
876 -2569 2915 -1952 -6 2505 0
625 589 1353 -884 0
-1515 1006 4450 -2876 4199 -2080 0
-2889 -1997 3608 -3418 -85 4835 0
-1809 1125 -1087 2239 3941 -2270 0
-2173 3376 -1558 646 -436 0
3009 -159 1185 3354 -2948 4026 0
51 -4415 3421 -4696 -3872 -4610 0
-401 4491 3747 -3847 -2188 3780 0
2475 -323 -302 1234 -896 -3 0
3897 1885 -4437 -2428 -4981 -4626 0
-66 4978 -2137 4596 -2479 -1065 0
148 948 -1680 -4722 0
-4045 247 -3003 1678 0
-2044 -3023 -3983 1844 0
3022 3226 -3298 1109 0
-1278 856 -3289 -1607 0
-472 -3773 1320 -4928 -1601 0
-4711 3445 290 805 0
4617 -639 4424 2696 -4047 -4630 0
4751 -3041 -1859 902 0
-1772 -1927 3570 -2005 -2657 -3053 0
-4086 -2785 -3632 2086 0
3321 1436 -3968 2393 0
4300 -4434 -771 -3154 0
4582 -825 3009 767 -4262 0
-4263 -4939 -3461 3530 0
3815 -4064 -1350 -3144 0
-2899 4360 -3571 -1429 0
1380 -3585 -991 3206 -2433 -1783 0
1502 1881 2875 -3355 -4769 3793 0
4605 -4243 3145 -60 0
-1906 -1768 3374 702 1666 2067 0
-4727 354 -4281 4704 -2215 -49 0
1895 3234 -3265 -2291 0
-3611 3210 2055 -2647 0
17 720 4985 514 2041 51 0
-4487 1787 -244 1790 -4528 3297 0
3644 2356 3583 -2507 -2972 0
3638 -4339 -2050 -1075 -701 4682 0
-3119 -2781 571 -2964 -200 4014 0
3622 731 -3148 1099 341 0
4919 -1354 4083 2462 2288 0
2823 -3019 -4945 4295 0
3770 -4966 -4151 -856 -3169 0
3582 -4219 -1719 1831 -1779 0
3663 1272 3620 544 3196 0
939 3076 2623 3044 -425 0
-2262 -3526 -2083 4224 -2167 -4581 0
3051 -2139 -167 2838 -2512 4466 0
3510 -287 1573 -1304 0
-35 -4198 -3005 -3422 0
-306 3652 1137 -2429 -2341 2476 0
3572 2837 4932 -4552 -4281 0
831 -3606 -4899 -3289 -4016 -2109 0
-1123 2810 -4741 4526 0
3068 3909 -1253 -354 0
201 2790 -4371 -3549 0
-303 -756 -3421 1640 -2416 -4092 0
1571 1137 -3857 3450 -1096 0
4531 1684 2480 2824 0
1751 -4408 1206 1701 2741 0
3524 -3300 -4743 4504 0
1253 -3330 -886 -2492 1359 -336 0
531 1345 275 -300 0
2775 21 -2287 4855 0
2654 2472 4734 1985 0
-2782 4134 -3686 3652 -142 -4111 0
-3561 1193 -2602 3632 0
-3003 2899 3482 3389 1396 -1054 0
-1247 -1801 -4845 -2645 -3579 1114 0
-1740 1851 2641 -721 -780 0
-902 2402 40 3268 -2796 0
3366 2925 -4934 769 883 0
-2135 -4084 3496 -3002 0
1083 -1576 236 557 0
2856 -2804 -837 1486 0
2657 -3610 -463 1773 74 0
1828 -4293 1842 884 -3520 -3134 0
-2534 -1192 4385 -2662 0
-4549 238 838 115 -2851 -4139 0
-5 4777 3607 -1094 832 -2325 0
4391 -2379 3433 1274 -3730 0
2806 1105 -1085 -4224 4192 -3223 0
-396 -2826 1671 418 4229 4973 0
-202 -2054 -585 -1887 2848 0
4398 3464 -779 4851 704 -1923 0
-921 2333 935 -317 4049 877 0
1030 -2750 4856 1885 0
3093 -1927 2859 1278 0
756 3162 3717 -2832 4521 -920 0
-4598 -1879 -3149 -824 0
3315 3149 -4465 -4873 0
-2463 4596 3882 4565 0
1389 -32 2275 -3902 -3398 0
-4862 3394 1438 2588 0
3231 1636 2314 -4787 -1712 0
-1994 2196 -916 2885 -1885 948 0
-4809 1332 2228 3762 0
2615 -1449 -1541 1356 471 0
-395 7 1129 -1698 3708 3160 0
328 4582 -4494 1274 0
-4925 4115 3908 3116 -490 0
3899 1732 2866 4103 0
3308 3460 -3667 -208 3812 0
-4376 -1254 -2126 -2460 -275 0
2519 -3733 -2789 -2348 0
4250 -1132 2638 -3428 0
558 2136 -1586 -1524 -1806 4724 0
3774 1312 -3724 4791 0
121 -1346 147 -1610 -4006 0
-1853 319 2508 -4308 -2093 0
2725 2924 -1321 3653 -4701 -4851 0
-1871 742 -256 -1413 0
-4621 -1198 1583 -817 0
1974 -266 -1847 -396 -2797 0
-1383 -1558 -829 1247 0
-4794 -1192 -2663 1053 -31 0
4218 3732 -3607 4399 0
-4220 949 -2168 4859 353 -1663 0
4848 4390 -862 -2837 0
-4751 2715 3767 3205 0
2704 -2085 -3044 2249 2332 0
-557 -2829 -4252 -683 -1117 0
-3877 2984 -472 -2570 -324 -2484 0
1500 -2624 1118 -4256 3708 0
-3699 -1385 -2126 3435 -3000 -4040 0
1924 2476 -4677 -4373 -4511 0
4584 -1958 4502 -3250 4550 1217 0
-3503 4917 -2333 -2725 0
-333 1760 -2375 259 0
-1758 1823 4456 4041 358 -2578 0
2132 1527 958 -1606 3970 2757 0
3767 -692 -93 1444 -881 2538 0
-3459 4952 -3435 2547 0
987 103 3138 -3142 -662 1203 0
1034 -103 -4503 -2618 0
-1822 4421 -1446 1208 -1534 -3151 0
-3383 -4284 324 -1947 -2880 -2236 0
-4732 3830 3691 -244 0
-4540 3269 452 -1288 0
4722 601 -2539 4272 0
1999 -2208 -2899 466 0
520 -3816 -4027 -1815 -4866 891 0
3047 -3403 -1970 -3321 2856 2471 0
-40 1331 -4316 -833 -3207 -2568 0
225 -1996 51 4984 0
1689 -3346 4782 3810 0
649 -699 2147 243 3846 0
-2249 1887 4058 385 0
2260 -3753 -3804 -114 774 0
-3281 -626 4066 3858 0
-4560 2293 -4396 -119 3850 0
179 3749 4877 -3558 -4081 0
4177 1948 561 4401 -2831 4452 0
-2121 -4453 2173 -2261 389 0
-2300 3814 -1106 -4534 0
-2309 3695 -1742 -589 2122 3075 0
-4315 -3907 -2644 -1299 -3622 0
3393 4818 -3603 -4351 2549 4800 0
-3159 -3957 -901 -291 0
3977 809 -547 4660 4704 0
1883 -1751 -632 -4076 3892 0
3807 -187 -3397 -1274 -1865 0
3418 2050 -2001 4620 1154 0
1850 3082 -3085 -4244 -3330 0
4513 2582 -4267 3882 -4105 -95 0
-3225 1224 -4188 -1623 0
2697 1209 2797 -3669 0
-2317 4145 4953 4411 67 0
1728 -1027 -1520 3490 -2038 0
-472 -3669 -1024 -4248 0
-1652 -4300 991 4558 -2481 183 0
249 1445 4735 -3683 -2445 0
-2131 -314 -4207 -3609 4830 54 0
1781 3469 -991 3896 1619 0
3713 2738 3308 -499 -4992 0
-4239 4802 4168 2594 -1963 4026 0
-4718 -3880 1975 2430 -3129 4679 0
3190 1495 -4761 -3547 -2410 0
-79 4103 -2481 713 -3498 3581 0
-4846 2476 -217 -2077 4776 -2569 0
-4345 3180 -888 547 -3207 0
-3306 412 3672 2854 3201 0
-856 -180 -618 -3798 0
-3032 -3661 -4268 4925 -4283 0
-2105 910 -4356 363 -3637 -3812 0
-1701 4774 781 2781 3676 0
4816 -1637 -137 -3789 0
-3213 -3034 -2030 1319 43 0
-1119 -885 -4460 -2171 2577 -1203 0
-3460 3937 -3639 373 53 0
-2106 4951 1378 4418 0
-2837 1195 3769 -2462 2409 0
1851 -2572 1457 3166 -2874 -492 0
-1324 -3278 3246 799 -1002 -1276 0
2124 803 1147 1036 0
-3253 2537 3537 3840 494 0
-1566 3173 -2409 4295 -1191 -1259 0
2160 3050 -2558 -74 -454 0
1593 279 4950 4982 261 0
-1249 -1923 4198 1278 -4701 -2783 0
-2401 591 3937 2613 1443 291 0
3960 35 2841 4743 -877 -1243 0
4744 3301 1098 1218 0
4732 2374 2756 3647 0
1630 873 -3191 1370 0
-3322 -2182 -4303 -4103 -4360 0
-3832 4296 -3710 990 4211 0
-174 2413 -1322 -4607 0
-2407 4788 1141 2375 2998 4898 0
3539 -965 4360 1242 0
22 3807 3216 1418 -2626 4868 0
-2294 2571 1581 3511 0
994 1812 3997 -3550 -2827 0
629 2788 -644 3945 -4587 0
4591 1009 -4570 4106 -3647 -2434 0
-2667 1468 1954 1991 0
3596 3316 -3091 895 0
239 3392 4053 -3717 1765 -13 0
-281 -4046 -1969 -1478 3934 -3294 0
-3340 3433 4066 -1059 2992 0
110 2560 -4942 1521 -1338 0
1620 -1136 2269 968 -1379 0
2452 4182 243 1492 -3580 0
-4103 -3022 -2726 2979 0
3206 1439 2268 -4120 0
1125 4839 -4003 2828 1912 0
991 -1703 1761 3600 -4104 743 0
-952 -4148 528 -3302 -4696 638 0
4012 2953 -4079 1671 467 -2207 0
-4959 2253 -4453 2258 -3127 922 0
-4530 274 -1031 1450 -3820 -116 0
-4615 810 4557 1094 4110 -1561 0
55 -1314 -3562 519 0
1257 -1252 -447 3737 -987 3183 0
-2742 305 -149 -2004 -415 0
2559 -3878 -1622 4842 -4701 0
3350 -2775 4644 -4677 -1149 4577 0
4396 -1716 457 -4762 0
4837 2204 -4680 2883 935 0
-1157 2465 -287 1855 -201 -1964 0
943 -2416 3123 2781 4381 0
2045 563 2850 763 -2473 0
2721 -3284 -97 -4753 0
4045 1690 -891 -2136 -647 -1663 0
1898 -92 -4563 4874 -2802 -3637 0
-3227 4992 3 -767 -2599 0
1828 2796 -4819 -1991 4807 419 0
-2143 -776 4707 1418 4335 0
-97 3371 -1060 1957 2031 -1327 0
141 -1723 3111 3718 0
-1201 435 -1484 -66 2658 -4420 0
-1240 -883 -4125 1891 0
-1161 -506 4136 -2027 -2103 -3937 0
272 -3783 -1154 182 0
-3376 -4514 3184 -4436 0
3114 -3661 1713 2108 3634 4163 0
4780 2719 1984 -14 1104 1899 0
-2657 2768 -1922 -3401 64 0
4357 -2273 -3761 2520 -4344 354 0
-3581 -864 1922 -2822 0
1260 -1538 -1372 1548 192 4746 0
-249 644 -165 -4500 0
-2759 -3958 1535 4957 -4274 0
1713 -2295 -1985 -278 4327 0
4146 514 -4438 -860 -4664 0
2949 -1688 -1633 -1438 -3888 4941 0
4538 295 -3666 -330 0
-4177 -40 -3974 3803 0
3493 -3584 -1590 -3972 0
4665 -4927 2790 -2021 399 0
4185 971 -4042 4190 0
-1442 -3916 -1632 4155 0
-1075 853 -235 -3541 524 0
-877 3424 -2794 -4815 0
1512 2304 2 -926 -4609 3477 0
313 -4373 -181 1774 -1855 1562 0
1553 4644 -607 -1718 0
3991 2030 1027 4912 -939 -1007 0
-3550 -4413 -3190 -4220 -4407 4580 0
3702 4001 -4868 -1320 536 0
2059 4569 -769 3586 -4099 0
1721 -3903 3486 -2055 46 0
-3716 -4599 601 1248 0
-4838 -3794 352 4154 -3789 3020 0
4167 4882 -3735 306 3483 132 0
3542 -4856 3955 -312 369 0
539 -1517 4113 -1098 428 292 0
-3867 -384 -4339 2550 2395 0
-1367 -2397 1380 -414 0
126 2771 -574 -3970 3795 -4990 0
-2508 3960 -732 2302 0
-359 -1267 -1112 -1493 0
-759 3151 -4884 1402 -2555 0
1619 -73 -2908 -2798 0
-4859 -1494 3290 1370 124 0
-4852 2495 -4634 3514 0
-2937 1753 1137 -2354 1217 1285 0
-4867 -1832 1135 -1091 0
-41 1454 1332 -2583 -3984 -4083 0
4532 19 -4417 -2543 1048 292 0
1992 3122 3449 503 2324 0
-3500 -4070 -659 -3984 0
303 611 4119 1616 -3355 -2195 0
-1414 1264 -649 2590 1413 438 0
1928 376 -2530 -516 3236 0
77 4151 -1481 -1999 -3256 0
3754 -3 4215 3049 0
-3454 -3185 -3131 2499 -66 4945 0
150 -926 2175 -2045 -4308 0
-2776 4106 -4486 2037 2486 0
-1099 3303 -2195 4563 -1655 910 0
2929 3604 3380 -1502 751 0
-2702 699 -4463 -288 0
-1563 -672 3921 939 0
-1085 -1098 4712 -4991 165 0
-355 -130 3965 -4246 0
-231 2651 3956 3539 -3912 0
-2624 4343 3522 850 -708 -4168 0
942 -2946 3652 690 4704 -3346 0
-3523 -835 -1376 4891 1257 0
-641 -2162 -4067 2009 0
-2753 -4337 2677 -463 -899 0
-1636 158 -3874 -1664 -2658 1552 0
2298 -1707 2509 -3685 -3905 1121 0
1437 3729 -4849 -385 1925 0
3711 1962 4005 4369 -1800 -2095 0
-3109 -3732 -749 3590 2666 0
997 -937 2942 4130 -2933 0
4430 4207 1991 -27 0
3226 575 2839 1165 -608 -459 0
454 2529 2555 4304 0
-2008 1428 2949 -1674 -1071 -4335 0
785 -4538 1020 152 0
2336 2117 4094 -1067 -2280 -2369 0
-679 -1885 -1394 3659 0
239 4335 36 -3381 -3207 2683 0
-3565 -3258 1932 441 -1616 2852 0
1750 -308 -688 4111 3003 4000 0
1601 -2515 4949 -3063 -4410 4171 0
-3796 -3947 -972 4327 1780 -4699 0
2260 -2645 -2153 2806 3769 0
-3103 2022 -4150 -1835 -2885 0
2840 2565 -4860 -4629 0
-3918 837 -3333 -1195 147 4041 0
4425 639 -1945 2810 435 0
-1031 -3242 -726 306 4780 0
-3300 4328 -542 4182 2646 2790 0
4514 -2819 -3381 1820 0
278 3292 -2443 3811 1314 -4917 0
-962 -1050 1400 -789 1309 0
-80 3492 -4532 4798 0
4110 290 -4565 -3979 0
-4067 -4752 -4046 -386 1702 -4531 0
-64 -4297 -875 -2890 1146 0
-1592 -4268 583 2947 0
-4395 -1249 -2253 4060 0
-3963 -1945 1840 -4741 0
4398 -3862 1069 -2554 0
945 2423 4000 3928 1219 -4602 0
-1845 -2618 -2664 4033 0
2691 2803 493 3028 -479 -2487 0
-3518 -2078 -1250 -2390 0
-1472 4324 -1796 -1962 0
-3108 -4075 3918 2451 0
3932 -2788 1835 944 0
2798 1419 -289 -1056 0
4028 207 3793 4225 -144 1563 0
1896 -4053 669 -2242 3021 0
4539 3765 -1857 -731 -3961 0
1336 -4254 -1355 -1984 4416 0
-2226 -1672 -1645 -286 -2912 0
893 -4962 2541 3416 3775 -2319 0
-2110 3220 -4979 -1373 -3512 0
-4869 -702 -1085 1479 -2504 0
-1806 2724 692 -4331 1123 2271 0
1342 1510 -3115 3146 -3463 0
-3613 -3925 -2916 3798 2779 2396 0
817 -800 4345 -1725 -3864 0
582 2041 4174 439 0
-2576 2857 808 2717 -765 3276 0
3158 980 1440 670 0
4531 -1191 3219 2437 3978 0
4449 -1132 4001 1979 0
-3520 3152 625 2003 4247 0
-3663 3880 856 4324 0
2525 4805 23 2997 -3214 0
-975 -4102 -683 -4392 2048 1899 0
1830 -903 -821 511 -3683 -2226 0
3462 -2273 2531 2506 0
-3574 -4275 -3552 -1126 0
209 1902 -839 -1706 0
-4239 -1698 -2250 3709 0
-2630 -4644 -323 -1386 -1404 -4690 0
-3583 4275 4420 -782 3858 0
-996 682 -1910 3883 0
3085 3207 2290 2084 0
-2526 4361 1897 3160 4533 4871 0
-3659 -625 -778 -116 -1664 0
-4997 820 4098 -4411 -2704 0
1006 -4354 -3942 -1667 0
4024 -3350 -1685 1291 1774 -1014 0
2295 -637 551 1367 -3077 0
1882 4998 4676 2456 0
-1879 4692 -636 1742 -4708 -4053 0
-203 -458 -2593 -990 0
-3153 -141 -367 -4997 -4261 0
4508 476 1189 4079 3993 120 0
3758 -2356 1235 1322 3695 0
4835 -472 4430 -3102 0
4607 -2897 4943 -3842 309 0
4857 -818 -572 -3206 -2243 0
3628 1243 354 935 -787 -1934 0
2279 1298 201 -3893 1161 -545 0
-4245 -2913 4466 4247 0
212 -894 -4775 1931 -3131 -1273 0
1171 1326 241 -4585 2768 0
3591 3270 575 -4096 0
-2170 558 4815 -1812 -4823 0
-2298 -433 -3268 2235 76 0
2962 2879 3195 -919 -2293 -3351 0
-4998 2626 1568 -774 74 0
4713 1114 1657 2927 0
3954 1454 808 -3435 -2187 0
-4198 573 -3055 -2108 2973 0
-4175 772 -881 4017 0
-737 703 -3431 3256 3072 0
3673 -3757 1234 3713 4277 3739 0
3723 -4480 2163 -1824 2754 1871 0
-2831 -2139 689 -1013 0
-3358 1807 -2295 2689 -4028 2820 0
3025 2638 -2297 4448 -1644 2061 0
-4445 828 2176 -4044 -1474 4990 0
-2859 -3732 508 -3505 0
3560 3126 -1946 -3039 2683 0
-1350 1716 1138 1151 2794 0
-3820 3346 -3952 356 4505 -2324 0
-4616 498 -3385 -1398 2521 572 0
4126 3096 4838 4894 4406 2011 0
-2959 -3603 140 -892 0
-3479 2552 1866 -1586 -3088 0
4017 -717 1606 2462 0
3720 -3620 -3032 -4890 0
2538 -2115 3433 4053 0
2787 -2100 -3949 1980 978 0
-3396 -1487 213 374 0
-2654 -341 2281 -74 0
4823 -4499 1249 -796 -4120 0
-1573 -4379 4845 2036 4862 0
1881 -263 194 -3065 -3022 -439 0
-3110 -2443 2020 -4951 0
73 3685 -3070 1285 825 1261 0
-1760 2050 -2735 -4674 -2916 0
715 -4692 4221 2638 4561 0
888 -4442 -3309 1479 0
3688 2971 4974 -1922 0
4306 -4594 -636 -3207 1494 -1653 0
-2461 1785 4667 1590 -4033 0
4684 -838 -556 -2932 -1679 0
2452 4374 -4854 -3988 426 1904 0
-3187 -4008 -3864 4638 0
4525 -4422 -2834 4437 0
3796 3215 -4568 -1276 0
3999 104 3151 -782 -4700 0
-1278 -4415 -2763 69 919 0
2691 -2575 -3550 1768 0
-3606 1563 -4186 -1725 -4642 0
-1119 -1589 2514 826 -2943 0
-3051 -2166 4783 4849 -619 -3381 0
-2328 -916 4243 3577 0
4601 -1146 -2770 -1852 0
4311 3437 -2499 -4971 937 0
4804 3369 -4540 -3897 0
-4200 198 -2781 -1623 2947 1200 0
-1197 3766 3322 -1723 0
-973 4072 -4685 1773 -2943 1936 0
-72 3457 -1055 -894 -3896 0
-2078 1607 -4414 -149 0
-3862 -4045 -4172 2436 0
-660 -4087 3983 994 3292 434 0
558 3091 -4718 -592 0
3436 -1381 -3559 700 3177 3597 0
2891 -2659 -1876 162 3733 -2425 0
2905 1355 -997 -2464 0
-2916 -10 2917 -913 3938 0
280 -3926 -4927 4351 -4873 0
-2126 3850 -476 1554 -3468 0
2554 1920 -1942 -2477 0
-1300 1642 -853 -2285 -748 0
3825 -1258 1498 -1293 1788 0
3837 2845 -1456 2497 -2360 0
-3066 2946 3494 118 -4004 0
525 929 -4606 2408 0
-4054 -4181 1323 -1276 0
3853 1858 2735 -942 -1717 0
-1854 3093 2009 -3815 0
-2028 4303 -1652 -1481 -1210 -880 0
-295 -1282 4739 -3300 -3470 0
-1239 4601 -852 -685 2537 0
-4396 -4047 -2740 -4833 0
1004 -4193 -3793 -3469 -225 0
1097 -888 358 -2600 0
312 3483 2096 1768 -891 -3583 0
-4381 395 -2370 2253 623 0
3174 -1521 -3369 -1133 2936 -4132 0
4457 -3948 -3157 1108 0
-3472 3713 65 1951 1254 -15 0
644 2426 -3315 -4273 0
-3769 922 517 4138 -4429 0
1012 -710 -3457 -347 0
4186 -4059 -3855 -4438 0
3868 -1174 1659 2750 -3711 3659 0
975 -4123 2634 -1108 4365 -465 0
2891 2719 -802 4897 4030 -3294 0
352 -3610 -3571 -1001 4733 -3288 0
-3389 4678 -4758 -3731 0
3384 3747 4758 3124 3321 4798 0
-4048 3436 1167 1444 0
4050 3662 4199 2322 4664 0
155 3933 2626 -1023 0
873 -1064 -4032 3877 1900 0
339 -1359 -1749 -3119 1087 -308 0
4970 -4661 -2852 -4927 0
-3698 -32 -4456 561 0
-829 4966 666 3866 -4642 -4799 0
-3856 -4712 -29 -4876 0
-2350 4613 -2785 -2399 -4856 -2611 0
1553 4090 3150 3553 -3983 -3306 0
4950 -1740 -1892 -1587 -220 3298 0
-2924 361 2234 1404 1422 4252 0
-3547 -2842 -1945 821 4446 -3252 0
-1076 -3595 4250 -4420 4167 -1796 0
-2225 1205 671 -1197 0
195 741 1994 -1403 3702 0
384 712 491 -2193 -4146 -2714 0
4934 -634 -2287 1411 1900 0
-303 1549 1795 -4704 0
-4620 3718 3768 3187 -3567 3622 0
-1872 1433 3254 -4552 -305 0
-4028 -3330 4027 -3009 -1995 0
2049 2790 -2019 -1892 0
88 2965 713 2051 0
-4001 3837 2906 -432 2141 0
2676 3306 3699 -4579 -4734 -1144 0
2635 -1137 -1082 -520 487 2475 0
3875 558 -4198 1463 0
2803 -1590 248 3238 0
-1273 -4501 -4410 -275 0
-567 -2752 -4150 2840 4319 0
-3936 -1864 2165 2458 -586 -2008 0
3658 -3360 -1118 95 -3389 1651 0
-4000 4080 1741 4098 0
-3982 -1328 3924 2426 4115 -581 0
2186 44 2836 1568 0
-4131 -4184 3592 -1242 4191 0
4754 8 3073 -2433 0
4682 -842 3742 -4889 -1031 147 0
1640 2354 -3523 3801 -1978 -830 0
-1924 2212 -1207 -2796 -2324 0
2040 -4980 1588 847 548 -153 0
-1225 -2833 -2074 -1099 -4435 0
-1859 -3181 3429 3301 0
-1269 2373 -1574 -3500 -3037 0
-3363 -4120 1867 -1535 -552 -4359 0
271 -3760 4071 -173 0
4268 2197 3037 2462 0
781 2731 -2029 -4603 0
-2429 -1254 1507 -3560 -2395 0
1837 -2331 596 -4317 0
-3443 -2979 2061 -4831 396 3003 0
-608 -2223 -4529 -735 0
-2614 -1719 1722 3454 0
2740 -1170 300 -3159 4370 -2195 0
2073 -3624 -2027 -2323 0
358 -1274 -2117 -2368 -445 0
-3793 -4326 3071 -4447 0
4834 -2994 -2420 2584 -2751 4763 0
-4038 -2332 1165 -3899 -4887 0
-4596 4414 -4062 4925 0
-1376 4952 -3681 182 1427 0
-275 -3121 518 2471 0
-1529 -3934 4982 1146 0
-3874 1967 -2787 -314 -2563 0
3128 1580 4257 842 3879 -1118 0
-4034 -4573 4424 -467 1063 0
-4372 3044 2402 4334 -3308 742 0
-2556 1668 3878 3041 541 0
-1528 3897 2867 4829 -3810 0
3832 -1614 4646 4058 -3255 0
4158 2592 -2527 -4118 0
-2686 -3539 -2151 -477 -4973 3802 0
2116 -1715 -1311 -4888 -3426 -3387 0
-837 4920 2969 1415 1353 3578 0
2886 -499 -1104 3326 -1257 0
-2314 -3866 -2607 4552 0
74 -214 272 695 -1690 0
674 1525 -1677 677 0
-2235 -850 -4877 4062 0
2269 -1759 -3828 -3581 -3671 0
148 -328 -4696 -4353 -4203 -2686 0
-2235 -3927 -2059 -1142 4138 0
270 -12 -3254 991 -2897 0
-4348 -2883 -4316 889 0
-1681 -4631 -2464 333 0
-87 -931 -3013 -512 0
3467 1051 3583 -974 0
-4558 1953 -1533 2057 3351 0
-697 971 -850 1219 -3966 1362 0
-3970 -1896 -1087 2801 -4515 -4937 0
-3742 1835 -1185 1934 -3053 0
-3399 -1813 -2127 -3404 -1198 2601 0
4948 3406 1274 -2382 0
-4341 -3675 -1967 -145 -4015 0
2429 -540 -4325 -1786 0
-2307 1519 -1735 1443 -1503 -2893 0
114 2719 2132 4656 -3653 1329 0
4698 -1771 1526 1549 0
4738 3690 -3669 -4927 2591 -2075 0
590 2862 -3014 -1740 -4222 -1183 0
608 -3150 3803 2371 -4445 0
818 -972 449 -352 3820 0
4778 -1338 3162 4720 0
3388 -4197 3701 1742 3909 0
-3307 3729 662 -3236 -4539 -4233 0
-2637 2098 2953 4401 -329 -1473 0
-1370 2360 2106 -2630 2510 -3167 0
3196 -3192 4995 -4530 -3410 0
-4681 1399 -4601 2974 -3136 402 0
-3654 2303 1019 4140 -2012 0
-220 2542 3428 -949 -3474 -2860 0
1896 4744 -1513 -3674 -4879 0
2352 -1344 -2313 2446 0
1505 -3102 -3094 4199 -3499 0
4436 -2142 -4878 -2795 -3250 0
-3444 4111 -1206 308 1716 332 0
3060 3713 806 -3103 -2909 0
548 4949 -83 -4946 -1398 -3302 0
3866 -1720 1992 4332 -334 0
2045 2639 -1051 -1806 -449 4923 0
1699 4266 601 3098 -4437 -1361 0
-4825 1333 -3813 -1620 -4062 3899 0
1963 -4515 -3407 -4782 -4511 2599 0
3750 1215 -3424 -2854 3475 327 0
3043 3411 -3137 222 -2318 0
767 -2083 310 4926 -1180 0
-3309 3772 -3497 -3798 0
2315 -3663 3444 -2424 0
3186 3612 -913 531 0
4183 2695 2494 557 383 -4506 0
-1940 4370 -3008 -1882 -3431 -751 0
321 -3074 -1546 -2429 2038 0
3696 339 -1975 528 4943 0
-3743 -1191 -1440 4293 0
988 916 -297 1198 -206 -1095 0
-1452 1061 1528 2809 0
-4804 4534 -1707 -2494 0
-1465 1994 -842 -1431 -2818 0
656 2084 -2458 -1250 2118 0
3302 -3010 -3572 -1363 0
1531 -2381 -720 -2755 -2801 0
4057 -4942 -1274 -3120 0
3063 -2693 -3118 3846 4147 -913 0
374 1322 -4438 1571 0
3845 -4263 -2724 -747 817 -1755 0
-4437 -4384 -3454 -1349 3228 -3309 0
2444 -2691 4333 -2784 -1413 3403 0
876 -4952 1542 15 0
2464 -4724 3741 -1880 0
2769 117 149 2663 0
-446 3646 -1661 2952 4160 3067 0
3425 4293 -1748 -1575 0
4934 -3608 517 -1434 -3846 0
2886 1892 3333 784 2023 0
-2667 -4667 786 4878 -4522 0
-2664 490 -3764 4332 0
-447 -4608 3400 3455 -737 0
-3361 998 -1834 -4370 -619 -2817 0
4441 -4286 -4842 -1674 -2145 0
4701 -846 3912 -2649 0
-69 -2584 732 -4672 -882 0
547 -1686 -532 4596 -585 0
2962 -3443 152 -1685 -1465 -2642 0
-1015 -1256 1590 -4208 -4281 0
2601 -1677 -2062 618 601 -3680 0
3618 4700 2316 -116 -179 2614 0
-422 -4649 3551 670 0
-4830 -3437 2822 -2924 0
660 4893 3630 -1473 2641 654 0
1314 -761 4897 2505 163 3648 0
1352 -2640 1423 2321 -4129 0
-698 -828 2595 89 -4178 2608 0
2920 3982 -4110 -3911 0
-539 4936 655 4892 0
-3744 3693 -1950 -2234 0
44 2905 -1680 -3090 -3494 0
-1223 -2403 4326 -2653 0
593 252 4233 -4380 -3048 0
3870 479 4912 1921 -3242 -1907 0
85 1306 2510 4103 233 31 0
2446 -3989 2357 -1129 1027 -3956 0
-4015 76 4739 329 35 -4370 0
4749 -652 -3764 4397 -1155 2402 0
-2853 -2862 50 4265 -2785 522 0
-1131 -4810 -4699 4791 -3603 -4374 0
1126 4786 3036 2271 4010 931 0
-88 -4055 4636 757 0
-2792 439 -4250 467 -4286 0
2773 -230 -1781 -118 -4013 0
3419 2433 -56 924 0
607 3036 2569 1240 -904 -803 0
3859 -4484 -3627 -3995 1435 0
2990 -1236 3706 -3427 -4350 0
-4864 1675 350 -2206 0
-548 -4755 3328 -4435 0
-4804 3553 386 -4922 3282 0
-43 144 -2799 4749 3790 3363 0
-4050 -1589 742 -2917 0
988 -2960 1022 2818 0
1647 4180 -4171 4012 -3336 0
-1689 -4614 1260 3518 0
-1525 -4544 -826 -4161 -4430 0
811 -3581 -4420 -3977 0
-1514 2141 4096 2313 1257 -381 0
1217 -244 -2023 -3582 0
-4142 4658 -507 -1703 2440 0
3830 3869 -926 -4499 1340 0
472 2359 1399 -2333 -642 -1595 0
-4479 -2078 4912 1669 1261 0
-4722 3611 4226 -3459 2685 -1040 0
4491 -3806 -4163 -68 -898 1732 0
3087 -668 2965 -3513 2124 1674 0
3558 175 3318 190 0
3641 -1574 -1637 910 0
795 -605 2646 3922 -305 0
-2272 2251 -71 3922 0
4818 76 125 2543 -4394 -244 0
-2825 2409 2300 4439 0
4955 4290 -4673 -2346 0
-1864 2014 402 -1998 -2363 -5 0
-729 -4299 1731 -2173 0
2765 -1897 2767 -108 4812 -3757 0
-3011 1259 -4311 3834 0
102 -3235 -1108 -958 0
2810 -1645 4373 -4734 -1061 0
-2116 -3374 1364 402 1518 0
-2343 -1593 -4668 -191 0
2387 -2601 -4826 -2659 1422 -3603 0
459 -2849 4047 -3609 0
694 3646 -2133 4328 -1523 946 0
4945 3214 -2233 1109 0
-231 -340 789 -4135 -3330 0
-2468 2159 3874 431 -1307 0
825 251 -1495 -3146 1506 -3779 0
2112 -4357 -1318 2012 -1686 0
850 -1067 -3448 -3439 -3750 0
-4644 -1111 -2775 -1148 3199 -826 0
2785 -1922 4401 -1956 4559 0
-6 -4795 4414 3607 -2833 -121 0
1530 4658 3166 51 -1137 0
-4692 -3893 -2650 2847 0
1595 3587 605 2174 0
2037 -1023 -4920 -4834 -3866 -4393 0
3513 2116 -3800 3584 -2249 0
3122 -2199 -165 623 0
2612 3074 2469 3461 0
3316 2752 820 4159 0
4069 -930 -3097 1122 1370 0
-2262 671 1705 187 -3860 806 0
-2519 -4670 1974 3186 -1238 0
2181 -4925 -2110 -966 -4762 0
1026 -4857 1386 4457 -2903 0
-4551 -3877 -2481 116 0
-3236 4089 2517 -4265 0
-1214 -4288 -485 3059 4531 -1875 0
-3396 -2201 1921 -1695 0
1820 1632 1231 -4481 0
-2788 4789 -2334 3206 -1590 3418 0
4704 3645 4817 4755 -2384 362 0
1795 -1199 -4410 2671 472 0
869 4011 3557 1927 -2189 2301 0
3919 4101 -3825 -1417 0
2250 -3403 1387 4886 2347 -3973 0
-4143 2924 -4928 -211 0
-4152 -562 3880 2608 0
-4217 1203 4254 1321 3071 2598 0
-1734 1623 557 3649 -3790 4232 0
2781 16 -4723 -2289 -18 -201 0
-1909 3307 1175 -4737 2132 0
4589 2750 1543 3107 0
3872 -4289 2329 -4285 1040 -4305 0
1121 -3944 -3732 -869 -3199 0
99 -2264 -2366 3695 -3516 0
-1871 -2815 714 4254 -1405 0
3761 813 980 2847 2173 3842 0
4220 -1287 2326 -928 -4585 -4752 0
-3158 -4051 -3854 2473 -4866 4653 0
-3138 -2502 -3032 -3691 1892 -1027 0
-4375 1465 539 2360 0
2920 4608 -1438 -2203 703 -4602 0
4541 -4476 -2434 -4705 3753 2791 0
-827 -661 4241 -2258 0
287 3648 -1310 -4202 0
-1871 -1486 -2843 991 -4497 1023 0
-1594 142 -1222 -399 0
2442 -1554 -2298 2405 -2181 0
3190 -1222 -3897 -2890 0
-3238 -2013 969 693 3699 0
-667 -1856 -4637 -4860 1464 0
691 1574 3565 -489 2931 0
3599 -4123 -1665 -3591 -3551 -3151 0
-97 803 1817 3494 476 0
1830 -1755 107 3256 0
1476 -1331 -1321 3067 704 -1384 0
4050 -1215 4770 -717 2696 0
-2376 -4917 -532 1799 -4996 0
-1944 -416 -594 2694 -4891 0
4288 27 1514 3794 524 1060 0
4071 -4134 2076 2002 0
-4416 -3909 917 4007 0
89 -3812 -394 3971 852 0
-4123 -2199 -10 1727 0
-1017 3212 2083 708 -3491 0
-2134 66 -939 4467 0
-3872 -4984 4514 -3259 0
3604 -2775 3889 -2416 -4755 0
3445 3216 -1037 -1732 -4665 -2458 0
2276 -2718 -2698 -3322 -880 0
2942 1250 1339 1154 -983 -253 0
3945 4707 1925 747 -1299 -1489 0
214 -1361 -556 -1888 -2026 1381 0
453 1837 4494 -231 -1110 0
3472 -3536 -4259 524 -3391 0
-4275 2686 1235 -2409 0
-740 -4243 -4877 -1607 -3070 0
4394 -4491 3658 2355 1474 -3868 0
-263 2202 -4165 -231 -2106 0
2524 4886 798 892 -4246 -570 0
3168 4160 -57 -2029 0
1976 4838 500 -3408 -2290 0
-3502 -174 -3601 -1003 0
-4574 361 1463 1602 4294 76 0
-280 -4517 1096 2625 877 2612 0
2477 2286 2069 -1798 0
-3259 -3570 -3954 -2648 1722 0
-3232 -2773 3375 -3512 4573 0
-3499 1466 2908 1647 4305 0
-1810 -3541 4653 -1023 -3285 0
-876 661 -4838 -1342 -4483 0
2777 4413 4194 2512 2302 0
-1402 466 1425 -1535 0
-2583 712 -4323 -198 -4935 -4850 0
4637 -2512 -3078 -2028 0
2663 1458 847 1425 0
4167 4217 -4386 -4274 -4706 0
4840 -2948 1750 1115 0
-1567 -2130 -620 3381 0
2125 2605 1560 1930 -2480 -3060 0
-545 -1561 -3099 1933 0
646 -284 1653 4905 1529 0
4864 722 -465 -4750 0
1285 2764 1174 3283 4387 2729 0
-438 -3181 2605 3547 -3709 -3299 0
-1182 1927 -4849 -2291 -43 -1214 0
-269 1830 4776 -3008 2328 3414 0
1487 -2215 -4534 -2013 0
3851 1230 -1833 3458 1636 -2216 0
1694 -3595 -2701 46 2937 0
-813 3002 2592 1360 0
-1650 -3362 -2415 -52 745 0
-2273 -4397 841 3427 0
-3723 3732 1062 96 0
3962 1381 665 -2372 -2814 -4340 0
4369 2384 653 4536 -1997 1416 0
4694 4330 4452 2666 -4366 1517 0
1304 -3667 -989 -1456 3996 -2296 0
1751 -3804 -3731 2322 0
1425 -4845 1020 -384 0
-4873 -12 3682 -2404 0
-1740 4235 4865 -4857 4609 -3345 0
53 4145 -1397 3034 -1806 0
-3917 2670 1514 2871 -414 0
4648 -3648 -1163 2512 -3871 0
-2744 148 -329 -3593 112 0
114 -3068 -4026 1846 0
-4438 -3482 -4770 -3723 -1653 1462 0
-2100 -2413 3641 -3116 1705 0
-804 -982 4900 660 340 1200 0
2641 3344 -2650 4161 0
-1697 1234 -188 -1730 0
627 3690 4749 -1424 2636 0
-2446 -1198 -1213 355 0
-3325 -555 1619 4518 468 1528 0
-4403 3635 -1723 2954 -2884 0
-637 3895 -1508 -3661 -626 -2854 0
-395 -637 -1495 -541 4995 -2432 0
2409 -1608 -3277 -3565 0
3346 -4213 823 1710 0
-4598 4948 4977 1721 1450 1719 0
-2308 -3946 4450 4099 0
57 -3344 2598 4288 166 1573 0
1432 1371 -361 -3344 -3569 -2181 0
1557 854 911 3624 -2478 434 0
1932 2194 -3405 -3380 -2780 0
-2231 864 -3378 -652 0
-1895 1979 -916 -4922 0
-1663 -2735 -3022 3467 -3757 -4681 0
-2678 3602 2398 1103 0
-1231 -1226 751 -2498 0
-3583 3982 -2969 1909 0
-1343 -4783 -3258 -4879 -3851 -2998 0
3540 -1321 -4600 2337 2896 2569 0
2468 -474 35 -4159 898 0
-4449 -3375 998 4096 3418 2450 0
-620 -1944 -674 831 -1682 -4855 0
-1432 3643 -3156 4159 -4349 0
4716 -31 -989 459 -263 0
1046 -4790 -2982 4533 18 -1579 0
3019 353 -2533 -479 461 2267 0
-3567 2022 -2743 2131 0
-1052 -4383 554 1398 0
2828 -1537 4345 -2577 1473 0
-3711 1380 -3175 -749 -4010 330 0
104 -1321 -854 -2779 874 0
-3037 -1587 -388 -3047 -2770 -3176 0
-3637 737 -3543 1900 2985 -1180 0
4298 -814 -4951 815 0
-3311 -623 4071 -289 -1281 0
1908 4829 -2097 -3427 2484 4904 0
-4207 -4057 2998 2964 0
1008 -3911 -339 1458 -2754 962 0
-1981 -1068 275 -4658 3150 -4335 0
-427 -1459 1070 1045 0
-4929 -3966 4154 1366 -4489 0
-688 -1218 762 -2653 -2761 0
-2184 2461 -286 -3884 -26 3775 0
-4064 -2506 -3023 -184 4712 -2106 0
-3458 -562 3174 2298 -344 0
-1615 -276 2301 -3356 -671 1141 0
1504 1776 1206 -4852 4020 2898 0
4702 4816 4236 2498 -4640 0
-4277 1763 -1349 -4050 1393 3660 0
1694 -2294 -4516 -3836 4676 0
1812 297 -3247 -2277 4341 0
3035 707 -2679 -1874 0
-1438 199 -3518 -3778 0
896 4043 -943 1847 -4267 -3882 0
3567 -3326 2892 786 0
2265 -3573 4965 -2067 4470 0
779 -2669 -4563 2736 -2296 0
-4999 1111 -881 2909 3629 0
-888 -41 -1155 1340 0
1244 2538 -4771 -4607 2916 -2683 0
-939 1412 -393 1428 947 0
-3134 4148 -1976 2685 2608 4753 0
4272 1894 2237 -3354 381 0
1321 -20 -3866 -3601 -3876 1744 0
-1355 2 1873 3406 -1570 0
2089 4488 -318 2638 -2561 2571 0
-1371 368 2245 1262 0
2984 1433 4295 2115 901 0
3801 -4758 2326 -1241 0
-213 -1658 250 1366 0
-2025 2203 -1413 -996 0
3809 736 -2985 -4448 -125 0
-1425 947 1832 849 2637 2132 0
-1295 314 532 -475 0
-1666 582 -3416 -3640 -242 0
-156 1465 -4394 -712 -4711 0
3379 -3755 123 -99 -124 0
-3302 -1199 257 1607 3974 0
1240 3155 3474 -3624 2993 3417 0
-3328 -167 3661 -1060 0
519 2458 -1759 4096 -225 0
2507 923 3898 -1877 -3325 0
4393 4560 4732 4512 -267 0
-1884 -3403 -4750 4480 823 -1343 0
-2134 -4078 2808 -4879 0
-1259 -4153 2142 -1238 1271 0
3281 -351 4847 -1257 -2020 0
-475 -4011 4159 -4354 -2661 0
-4699 -604 -4973 -3979 -1900 0
-984 1476 -585 2566 0
3698 -1430 -4556 4457 2043 217 0
-781 3211 -3690 -3089 -4357 3437 0
4757 -1707 -2799 2382 2468 0
1804 -2281 -2199 -2381 -4813 -2813 0
-4360 4877 9 484 0
1889 -3657 -790 316 0
-4191 -3507 4284 3149 -1260 0
-649 4344 2321 -2157 2751 0
-1256 -3188 622 3862 -3767 4182 0
-4122 -2882 1671 -100 -3390 2282 0
1652 2006 754 2157 0
-2137 -1261 1251 983 4453 0
-3358 4529 -2494 -1770 0
-221 519 -4564 2393 1814 -4509 0
4372 4863 3497 3391 0
-1842 -2996 -908 21 1986 4934 0
3386 3712 -25 2743 -861 -2404 0
-1775 -1628 3018 3599 -3506 -803 0
3370 -2214 4402 -2257 -235 3422 0
2083 434 3696 4325 0
-1773 2620 4419 -1652 0
-316 -1560 -4274 1786 0
-1663 -1142 2026 -352 -770 0
-1525 -4856 -2867 4105 -1290 0
2779 374 -4646 1079 2025 0
2504 2421 163 3315 727 -2883 0
-132 -4878 4912 3676 0
4825 -486 2331 -4044 0
2437 3881 -2769 -2541 1840 0
-4381 1076 -247 2012 592 -1290 0
-3802 -354 -4105 -1910 1786 -3239 0
2498 -2405 4111 4674 2366 0
-547 -1314 -743 1987 0
-4103 1069 -3285 103 -4269 2920 0
-1376 -1474 -2732 -4870 -3344 -1132 0
2229 -1296 -3191 4821 2992 0
-2192 2479 -2955 -3178 -2735 0
-2307 -3949 1222 2235 -400 0
87 3455 1820 -1626 4204 0
-1127 1576 3721 -1262 2874 -2442 0
-2344 353 1725 -2162 0
-1274 -4037 -4234 -519 1206 0
-4562 -4335 -295 3202 0
2174 1057 -2729 -294 1418 315 0
2153 -2407 -2891 -4599 4644 -2419 0
2277 -3929 -2187 4700 0
2761 -2405 -4123 -2908 -4358 4344 0
2704 3106 -3076 -344 4758 0
3914 3109 3358 2355 4994 0
417 -734 3479 4869 -394 0
4169 -2228 -4506 -889 1610 0
4077 3486 1159 -2316 0
4275 4717 -162 -3400 0
4342 4737 -3013 -3677 0
1141 -3499 2780 4568 0
-3894 -156 -2010 1628 1739 0
-492 -1064 -3609 -2981 2812 0
716 844 -1593 3910 -222 0
930 3993 -2876 4716 0
-2398 -4152 2979 4848 2903 -567 0
-1352 -3183 4249 749 0
3800 -69 161 -4165 -1707 -2979 0
-2141 2395 -3697 3764 0
3273 -3464 1910 -2757 0
-949 -1608 3592 2300 0
3009 -3722 4218 970 3880 0
1959 4105 -2251 138 -2413 0
4772 -1018 4428 3646 0
99 -2490 -3264 -229 -2924 -1836 0
202 -229 -1440 2637 -2887 0
-4823 -289 -1404 -723 0
-1326 2774 1823 951 0
788 -1793 1779 -1445 1794 -3522 0
4196 1081 -1682 2310 956 -2055 0
-3717 4993 1533 4241 0
2149 -4807 3256 -3081 0
-1734 1157 901 -447 -4570 1490 0
4186 -693 -2421 -2172 2075 3639 0
721 -1557 -435 -2580 -1503 0
-1675 2420 -857 3605 0
1897 4521 -3839 -207 4653 0
1519 -4586 3929 -68 -2082 2659 0
-1824 -296 2968 -334 0
-2055 3953 647 2557 -1647 3486 0
1626 3820 -4930 -650 0
3870 1462 -4938 1310 0
-1830 -1452 -1967 19 0
-2783 4336 -2231 385 -1342 0
2478 -2273 -2560 3301 0
-1877 -1662 1441 2669 0
-4366 -2946 4327 3528 -4305 1093 0
-2850 2583 -3057 1036 -4287 0
1578 -2788 -3870 -656 0
-1574 -4021 -1905 2252 0
2508 -1916 3031 -3775 0
-2187 -3820 -4447 1301 -1933 0
558 -2681 -2032 -2954 -2510 0
4684 2517 635 -763 3230 3639 0
4652 -908 4297 1288 0
1935 4384 -3579 4840 3803 -4995 0
2105 -4102 -1140 -4289 0
-573 2757 730 -331 0
4059 1376 3706 1009 -872 0
-594 -414 2940 4947 0
2037 -4768 79 4525 -2609 0
3402 -2827 -1172 -3794 0
-4291 4620 -124 -2602 991 4416 0
526 -1660 3006 -2587 929 0
-2499 3406 2581 -824 0
3319 -2295 3539 -2310 3563 1024 0
751 676 4065 -3156 0
1951 158 1561 -2069 0
-3138 1852 -355 -3918 -3293 3291 0
-986 1931 495 -3920 -4567 0
2175 -4293 -4302 3919 -1451 0
-4029 -3212 -577 3152 3420 0
1588 165 47 4419 0
-776 -3552 -559 -62 -4813 0
665 4862 -1306 3848 -2919 0
2444 400 -2999 509 2563 1808 0
-3018 -3468 2596 -716 0
1984 -3213 1335 -2369 606 0
3082 -1020 4579 603 2752 0
-752 729 3574 4124 0
2485 4524 1662 4936 -632 0
-835 -1717 -4214 3701 1137 0
699 1361 -4530 -4475 0
-4711 4148 -2480 1056 0
-3001 149 -980 -2580 0
-1987 2829 3651 -3645 -2128 0
35 -610 3468 2263 -4404 -2442 0
2269 4630 -4965 82 0
4908 2478 -4015 -326 -1408 -4298 0
-1128 -3088 2559 -3090 -2055 0
-1123 -1516 -3490 -3755 -3713 0
-3778 -1950 1856 1226 353 0
-4676 -4245 3923 667 4081 0
-4557 4663 1560 -829 581 0
-1693 -2536 1855 -2490 -1433 -2158 0
-4940 -122 1344 -3334 -1613 1793 0
2000 3881 -3116 1279 -117 0
4890 -2673 3948 -1299 -4746 2732 0
1657 -2733 -2172 -892 0
3382 1243 584 1820 -4658 0
987 -3099 3183 -4251 0
1964 -649 -2399 887 3667 4267 0
4100 4502 -3298 2719 0
-2592 -633 -4753 -1139 -1432 0
-2962 -58 -2552 3873 1338 0
-1508 1448 -773 -2300 -4389 -760 0
-558 -1048 3172 -4802 714 0
1574 -1203 2808 -3294 -3241 -630 0
2059 4969 -3826 4092 -4965 0
-1965 -3870 -3045 1697 765 -518 0
1589 2895 120 -1966 -224 2618 0
1599 -50 4711 -3330 0
2862 135 -936 1677 -2300 0
4494 -2163 -4121 -718 -3954 822 0
-4369 2090 -1334 -540 1011 4857 0
1463 1482 -4262 -3951 3578 0
-4755 -3263 -2417 -2453 -4895 -3258 0
3753 -1907 2667 3564 439 1549 0
3785 2066 3551 3379 -1181 -2671 0
-1067 -2268 199 -259 -1930 0
574 2241 -890 1077 -3085 0
4728 -2726 4106 2069 4825 0
1643 -3049 -2833 -2142 -4405 1662 0
1484 -2644 -2114 2401 150 -2246 0
-3481 -3923 4771 -3568 -1538 0
3662 448 -820 1260 0
1157 3967 3179 -2963 0
3225 -3966 3887 4206 -958 4633 0
-1806 -3815 954 -684 1159 3428 0
-1442 4583 2124 -778 0
666 -2845 -580 1791 -2265 0
1100 -1609 4869 372 -3121 -3752 0
3599 -2174 -3682 1348 4316 -2164 0
-676 -2679 4715 -4031 2239 0
-4984 -4266 3425 -3993 -284 3137 0
-1670 -3907 -3433 -1182 3387 0
1911 2530 -203 -33 3507 -4198 0
1848 -197 -1919 -381 0
4301 -2928 -3007 -3690 0
2508 1802 3630 -592 0
-4766 2627 -1994 -2460 0
859 1738 -2465 -1276 4363 -1947 0
2208 1400 -1528 213 3299 3112 0
-881 4900 3242 1508 0
2118 1834 -2871 3674 4126 0
-4085 -3587 -3593 -1182 0
-2302 1924 -2660 3947 -3665 0
686 1950 -1809 -3742 0
808 -4621 2198 4027 2085 1678 0
677 4940 -1083 -4904 1213 0
-3283 4476 -3573 -3026 -301 -139 0
-4116 -1977 2188 -4426 -3867 0
1940 2242 -4018 1715 4026 0
-4605 -2508 -1388 -4499 2178 0
-4461 1078 -715 3117 0
261 4353 751 857 -1705 -993 0
-1259 849 -1585 3775 4319 0
2731 -3393 3504 2969 0
4911 4196 -3787 1466 -4531 152 0
-1295 4323 -1948 2468 0
3548 2532 2385 2003 0
1364 3760 -2423 -917 2928 4464 0
-2382 665 -1855 -1266 0
-1163 2645 -939 2144 -1189 0
-4815 277 528 -3211 4038 1627 0
4003 -4516 -2319 -4855 0
-2363 -4286 -3576 -2021 0
-4326 -4540 -1691 -3788 3105 -4733 0
-2286 3087 3145 3869 1648 -1248 0
-1616 2523 -1257 -2662 2996 0
-3197 -4859 -2610 1131 2958 0
-1864 -1484 3762 3220 1994 -3853 0
-3005 -3644 791 -1825 0
3142 3594 2448 2999 0
-1550 4137 2449 -3697 0
652 -4378 4401 834 -2800 0
2266 2775 1005 38 -2230 -1377 0
2152 4774 -3982 1463 -4195 0
-2874 -2234 -212 2201 0
-2339 -3448 201 -3943 -4456 4493 0
-2865 3757 4251 2357 4184 4766 0
-4067 -1506 -646 -776 0
4602 -31 2685 59 0
1641 4474 -2170 4157 0
4399 -2705 -4752 114 774 -1780 0
4 -464 -1923 -4040 -1076 0
-4654 -2589 -955 -3781 0
-678 3516 4329 -1472 0
-4519 2282 -2315 -3262 -3620 0
-1090 -4519 2793 -1917 0
-2569 3117 4569 2749 0
1536 3031 -3358 -2556 0
-973 -4624 -616 1844 0
2263 -2186 -1234 -1150 0
-2924 858 4550 -3780 3637 0
-2491 1276 3180 1756 2493 939 0
2249 3215 4468 -2855 0
-2211 -3177 -4311 2554 -490 -1690 0
-3860 2833 -3491 -616 4876 -4620 0
282 -2956 -1594 -170 1251 0
-547 2390 -1422 4880 2884 0
4497 3200 617 -3714 3660 0
-1640 -1030 91 -1072 0
338 -2228 -3190 -2032 0
418 -149 1981 483 0
-4599 -1320 3300 333 4572 0
373 -2259 -1031 -3415 -4307 0
-283 1171 -4922 -4396 1349 -3261 0
1719 -2147 -3090 4291 367 0
-2134 -1521 -2868 -3433 -843 66 0
4356 -1551 4635 1226 1825 0
2295 781 196 -3914 -722 -61 0
4718 4818 -2262 2299 0
-530 -1602 942 -1012 0
1992 3641 2760 -2447 -1161 491 0
-754 1670 4630 3562 -3200 4551 0
-1158 648 -2864 -945 0
2631 4560 -2748 -1380 -4381 4816 0
-3577 -3485 -3728 -258 0
3059 -2080 2796 -2890 327 0
2020 2275 -3147 -3172 -608 0
-1003 1098 -2714 778 0
4560 2844 -690 1439 1355 -4699 0
3906 -3540 4685 -1678 0
-86 1460 3476 -4654 -4376 -3694 0
1612 4105 287 -2695 0
-3843 3764 -1331 2504 2072 -4676 0
-4514 109 248 -338 1495 -3722 0
-917 4551 1532 274 3225 0
-32 -3205 4294 -2443 0
-718 3084 2267 665 0
659 -3056 -1335 -707 -4738 0
-839 11 3556 -4735 0
-670 -1974 330 567 3887 -1890 0
1282 -3145 937 1989 0
1133 2526 -2407 -943 2719 1098 0
2240 1653 -1793 -4749 0
-527 2266 893 -586 0
282 -4069 -4949 769 382 1093 0
334 -612 -1215 -68 0
3310 -3762 -2507 -4137 0
4315 -3333 761 2838 0
4438 2710 -3838 -1956 -4834 4934 0
-1890 -328 3071 -4114 -4886 0
-564 4000 -1693 1423 3359 0
2446 -4181 674 3617 0
4603 -653 1063 -4945 0
1175 -1980 -4436 -4294 633 0
4761 -1394 3109 -3971 2231 2641 0
-4140 4319 2569 -3525 -1488 196 0
-2518 -4516 970 -4583 0
3255 -4999 2913 4695 0
-4939 -3873 1938 3473 3033 2541 0
-542 -228 -4609 2708 -2611 0
59 -2908 244 4123 1840 1078 0
-781 -1638 2388 -2399 0
367 -3187 2522 2265 0
-2578 -3941 -3930 1361 -2065 -4673 0
2535 597 1755 1526 -1469 0
598 2850 -1124 1173 -914 -3557 0
396 2978 3812 -1408 0
2009 4305 -4689 -1369 -4005 0
1630 689 3423 -1021 0
3180 732 -17 -2715 3977 0
1211 -2876 -1063 1021 -3308 -1072 0
-1916 -1556 -4677 -2043 0
-1299 3598 2503 2563 -1921 3699 0
-1624 -1112 1809 3570 0
2467 4748 -2265 2098 0
-1119 -157 -1794 -3574 0
-4130 -3767 -661 -687 3027 0
1023 -510 -2008 4868 -3983 1338 0
29 1964 -2528 -1635 -475 0
-1511 -753 4879 1185 -536 -1273 0
-1772 3197 2326 2048 1597 0
-4583 -1886 -498 864 -999 -1707 0
3594 -2502 2563 -3839 4766 0
359 1220 -4938 -3479 -2857 -2117 0
1022 -143 1697 1752 647 2479 0
1885 361 -4313 -3382 -308 -4068 0
4371 -3864 -2597 -1707 -1349 0
4850 2328 3563 -2376 1759 4711 0
2428 3213 -4402 -3906 0
4524 -384 769 -1848 -339 -3551 0
1166 -632 2216 -2191 4595 0
1178 762 2099 -4009 0
2125 4811 -731 -2090 -3564 -3274 0
4676 1849 -94 -404 1758 -1470 0
-3652 1914 1799 -3043 -4097 3136 0
3292 -3478 469 -3834 1240 0
697 1612 1731 2860 -4196 0
1124 -4273 -168 481 -3298 0
-4507 -3146 -2292 4181 2364 1324 0
2253 1101 -4720 -254 -221 0
593 -2302 4060 -3110 0
923 1062 -1932 -4648 0
-4116 2954 -1433 -1734 0
-3093 2900 14 4991 0
828 2882 1585 599 -3391 1117 0
-3907 3774 3200 1625 0
-1913 1133 576 -2017 -3911 0
-780 -4842 -1381 -305 3396 0
-267 -856 4821 18 0
-2737 2292 -1538 -3215 812 1501 0
-466 -3075 -2428 2379 0
3895 961 -3538 -3536 660 -3379 0
-4993 4685 4915 625 2085 0
-3914 -4546 -497 -3618 0
4246 -2082 2210 2405 0
-3448 4159 -649 1481 4594 4386 0
4325 -505 -1054 4151 1375 0
3002 -3997 -4091 -2328 -4702 0
3426 -499 3226 -574 -4475 -2930 0
-1698 3813 -4873 -1123 0
3826 4769 -3646 1455 -4671 4535 0
4065 -1164 -3109 -3549 0
-2544 2208 4891 -4126 -1792 418 0
-799 2418 3152 4981 -798 0
1120 4108 -994 4690 2456 4493 0
1464 1611 2027 3929 0
-106 1997 -3669 4129 2917 0
-4448 -4946 820 -1936 -3753 0
785 -2132 1291 4471 0
-2863 2935 4633 -4854 -3410 0
-4593 284 721 -3060 0
980 2704 1256 4801 0
-3340 1055 1015 4478 3330 884 0
1044 -1711 -2842 4051 0
4259 4900 -2006 -1359 3372 1193 0
-2121 -3973 178 -2524 2015 -4416 0
-2756 -629 4095 -4648 0
-1663 3172 -4625 4528 -2707 -722 0
-65 1505 -396 -3938 -4280 -1102 0
706 -1845 1459 -542 4676 0
-4757 -3459 4126 3732 0
-1668 2426 2928 149 4551 0
4425 4406 1120 -3493 -4680 -2007 0
-141 4418 -2190 215 -2945 -1188 0
-2957 4111 -138 -1573 0
759 -3537 1487 2059 1303 0
1854 2824 -2138 3771 0
4891 3802 2671 1479 0
-4565 -3272 3030 -3360 0
1313 -3578 4308 -4075 0
4578 -430 2943 -761 0
-1312 853 -3354 -4097 -2997 -3252 0
3127 2441 4684 740 -2120 1769 0
-4634 -4857 1446 2211 1505 0
3261 3286 -4935 -1605 1113 2213 0
3852 -2618 -802 3589 636 0
-1921 1693 -2190 765 969 0
4630 -854 -3764 1511 1200 0
-2212 -3994 2210 4035 0
207 -3626 265 1935 0
1221 -3118 -4075 -3377 0
1794 2659 3003 -237 1837 4866 0
-3682 -151 -4397 -3458 3240 -2761 0
4970 -2359 2873 -3403 -1275 0
3697 -3515 -4619 833 0
1910 -3546 1049 -1381 3697 0
-1238 -1897 -67 1189 4994 212 0
3528 -3689 4466 317 3039 0
-3241 353 -1801 -1269 930 2847 0
2149 380 1117 1328 4180 -1331 0
-654 -1024 -1053 -436 0
-2519 2278 -3760 -3824 0
-1625 -1163 2006 -4864 3819 0
2453 -1982 -2279 -4119 2138 0
2944 3195 -331 3225 -621 -3371 0
4990 4707 -4726 -4247 0
1509 -3882 946 3854 -1694 0
-1977 -4684 -2717 2480 0
4822 -2949 1085 -3342 4503 -4333 0
-1524 -2743 3164 4550 0
1114 4949 3389 156 0
-1798 3182 331 -3946 0
844 233 2900 677 -280 -4582 0
4762 4249 -3316 -1522 -438 0
774 1844 -652 2019 0
-1009 2884 -1782 4795 4218 0
-4567 249 -2340 -3658 1115 0
2005 -463 -4284 4577 4912 -1530 0
4526 -4106 3623 -3336 -1651 -951 0
-796 -3745 -2626 -2942 0
3342 -4040 1122 -2720 0
4953 1505 -4144 4622 3709 1355 0
-1407 -3408 1874 4712 -1466 -2477 0
4332 -2011 -1989 4564 0
-3265 988 238 -1082 0
-4820 -2722 -832 3468 0
1820 -788 -2104 1284 -2313 0
4843 2758 -1446 4382 2214 -694 0
4993 4365 1388 932 -1401 0
-2929 -1531 764 -3256 -725 0
3072 -4790 -2748 2578 -27 0
-358 3342 -4226 4582 4462 0
195 1889 554 4833 0
-54 -694 392 4067 1569 -4461 0
-978 -3075 3832 -4830 0
-2164 4841 -4177 1025 3565 -1657 0
-1755 2669 -4718 -1494 285 0
886 1193 365 4296 1954 0
-4065 59 -4872 3589 0
3895 -2564 4138 -2281 2040 0
-2047 -4861 4427 -4920 1358 0
3841 1900 -3427 1061 4779 0
231 -2568 -506 1673 4066 0
-57 2465 1736 -3135 0
-2406 3043 3173 -814 0
3932 -2374 -4759 -1108 4818 0
1460 -3665 2993 1379 -2476 -4591 0
1992 -101 3236 -91 0
-884 1424 4377 2367 0
-1127 1907 -3378 1642 0
-1765 1617 2661 -2069 1622 0
-941 -3106 4893 -779 0
4920 2167 -4685 2260 0
-4550 -2422 -2777 3575 1770 -4258 0
1461 4692 -2688 307 0
476 1524 -1782 3531 -292 917 0
3778 751 -2362 3448 0
-1932 -2068 -3962 3093 0
4763 -4035 3687 -4956 0
3012 -1157 -623 -3375 -4787 0
3877 -1498 -4386 3704 -2043 -1045 0
2954 -1105 -1647 -2341 -4903 0
-346 -206 58 2519 -2212 2465 0
1221 1345 -3514 4645 0
3787 1934 3540 -7 3175 0
-3896 -1223 2186 -3226 0
3526 2196 -545 4566 0
-195 -148 -1556 -841 0
-3421 343 388 3224 3036 0
-414 3284 1783 3103 -3045 1752 0
-2797 682 3117 2984 -1472 0
-607 2427 -2379 -1708 0
610 -2157 -489 -4643 0
2988 -2889 -3728 -586 0
2829 -3357 1271 -2611 -2926 0
-3198 3799 -2755 -4817 -4533 0
-3410 -3570 528 -3281 -4493 0
3944 2126 4211 4088 -3658 0
2702 -540 -1178 -2317 0
1864 1157 2865 2601 0
4585 182 -4473 3988 702 0
3437 1305 983 2167 4297 2196 0
-1255 -797 -3932 3817 -1055 -4721 0
-1897 491 -4099 -3206 -2331 0
-1934 -3582 -3974 3428 0
-2086 -3033 -38 505 0
-38 -3644 2121 -3090 0
-2041 -1416 1322 -3783 -486 -3809 0
-3009 427 3525 -1080 -3826 0
2186 4122 1855 -4910 -4361 0
-715 -506 4444 4171 -4862 4838 0
-2523 -4931 4998 -4717 2439 -1846 0
525 -952 -2342 -1213 -1385 3867 0
-203 -1579 2914 2738 -3805 0
-1039 -4652 -4221 -3548 0
-4555 -2129 163 -608 4468 -3926 0
937 -96 -844 1857 3321 0
3565 -365 -1721 -4293 0
-2358 -3620 -4346 3424 -804 1422 0
2220 231 -2151 -2746 0
1267 2359 -3972 3091 -688 0
-1345 3643 991 -1573 4063 0
3795 3988 -1881 515 0
-3201 2983 -4867 4576 0
-1291 -4784 -4371 -2407 2403 3656 0
-3925 1297 3799 -4947 0
-13 2803 -3705 -11 0
-1155 -1361 -3037 -855 0
1027 -487 4355 -34 1610 0
2599 3382 -1555 -3293 4086 0
4767 -2876 2689 -1616 846 -1496 0
-678 -4505 -2524 -735 0
2683 -1437 4721 -4399 0
4380 2910 2567 3924 0
3068 157 -228 -584 815 0
2265 -824 4834 -3005 4649 2305 0
3723 -4297 -1345 4645 -736 0
3219 -121 4897 2650 -1533 0
-4063 3229 -4313 -1460 2069 0
2543 -4500 -641 4211 4737 -4695 0
-2896 1541 -1237 -1542 0
-4211 2780 3675 -2540 1327 0
411 1507 -4414 -4746 -2998 -4350 0
163 2301 701 -3241 -2789 284 0
-4701 3893 -1934 -4234 863 2250 0
-2117 -2622 -1275 -4917 0
2737 786 -458 1805 0
-7 -4922 -2468 4753 0
1302 1052 1242 4661 4340 0
1158 371 1869 -2976 -3818 -1878 0
-86 2978 -141 -1641 -1159 471 0
1308 -4010 3255 1994 433 -481 0
4363 -780 -36 1874 -1847 0
1834 1996 -3047 -4280 -3457 654 0
1923 -1096 2484 2181 -2477 0
-3921 15 4592 -2069 -4565 3902 0
3149 -3203 2931 676 0
2724 -1734 2536 823 0
-2437 -4959 551 4001 0
2612 3727 -2445 3246 3821 0
-520 -1403 4384 -1996 -4273 0
4983 917 -3757 2280 0
-3378 -1683 -3261 1471 -2529 -3083 0
3859 2522 -1376 614 3646 0
-603 1168 1994 -879 -2063 0
149 2060 -2441 -248 -3070 0
-2804 816 -3040 -4565 -1147 0
-4196 -222 -2022 1612 0
1813 -1404 369 2148 1236 0
-4653 -2983 1996 4131 3873 0
1219 3406 -3060 4506 0
-2280 1159 -4886 396 0
-2756 4921 2081 3937 0
-2150 -3662 -4373 1182 0
674 2811 -1792 -1683 -4103 -3166 0
3147 -4100 352 88 291 -4668 0
701 4382 -2636 2844 3015 -663 0
2048 1404 -3552 -453 -173 0
-53 -3516 1386 1397 0
3260 2377 -1709 -2213 329 0
1976 2003 -1228 -1220 -1302 -735 0
-2073 3744 1348 3069 4784 -1074 0
2980 1223 -2068 -1662 4435 -2075 0
3077 -2925 -1409 -426 -3214 -2633 0
-299 -4064 2660 -1356 0
-4718 -2748 -527 -1717 3105 0
930 290 -2668 2885 1419 0
1814 2401 1614 -2212 0
-4777 -3726 2452 -3123 -1949 0
446 -4313 -1197 580 0
2023 -3089 -4580 1459 -3204 0
-1593 -3809 3687 -3845 3873 -3120 0
-2917 -124 -1695 -1902 1577 0
4762 -2749 4846 3053 -2026 -3001 0
-3821 1520 -2776 4078 1254 -1101 0
-3197 -2216 4292 -1259 0
3207 169 -3572 1687 2109 0
-2385 2850 2061 -485 4504 1567 0
-2063 -3268 969 4033 -4378 0
4478 2314 786 1709 177 -4840 0
3971 1272 3752 1740 0
1039 1481 3753 1254 2678 0
-733 -568 2545 -4177 -4633 0
-2090 384 -2651 279 -4233 0
-3840 -1394 -774 109 3540 -551 0
2199 2330 1372 123 0
-4615 -2939 3881 2895 0
-3761 -953 -2520 1223 -2898 0
-493 -1361 1006 -4039 4741 0
-2145 2695 3072 1689 1062 -2097 0
-1712 -2750 -4109 -1605 4517 4604 0
-4351 -4184 -4659 190 3437 -1266 0
2122 3154 4888 -4528 -1103 4048 0
-1831 -4867 -422 -2451 3571 3364 0
-4602 -2914 -1417 3843 0
-2352 -591 3371 2090 -2313 0
2629 -4080 -1827 3404 -826 382 0
-3890 -4527 4412 2378 3849 0
-1223 -1965 -939 -1269 0
-4573 2188 -4876 236 -2802 -3283 0
830 1407 4517 -631 0
2940 1624 -758 -2398 0
395 -1482 1839 -3716 0
-1899 -4244 -3740 -2703 0
1636 -2115 4079 2121 124 0
3884 -299 2480 4181 -4217 0
-511 -1556 -3259 2434 -3094 0
1845 4649 -1502 -3854 4314 1776 0
-3289 -3743 3300 1424 2033 -242 0
-3088 3086 3577 -1550 0
4433 -923 -2018 -2169 1239 0
4876 -1415 -200 883 1429 1798 0
3350 4479 2361 2605 -3651 0
3320 2139 4623 559 -1528 0
3406 2998 -2537 3326 3151 119 0
1911 4373 -4037 16 -3572 0
-1445 -764 1133 2345 0
-1113 1504 724 730 2644 0
-2595 2540 -1639 1121 -435 -1633 0
-4417 -1169 4571 1718 0
-74 -3665 -451 -3553 -1619 -4867 0
-733 827 -2165 -126 2693 -3007 0
-4427 4029 4191 3271 -2444 4570 0
2208 1538 -1644 2960 0
-253 4472 -4040 4142 -4074 0
3763 359 -4359 1239 0
-1553 -556 787 906 137 0
4800 2319 918 3586 0
2689 2971 -3732 2779 0
2383 195 -2521 182 -1971 3163 0
-1591 2747 3418 1849 2864 0
-3970 -130 22 2629 -4138 0
403 1660 4552 -1819 4578 0
-2396 -299 -1056 3113 -802 0
4221 -3148 575 1076 0
-4529 -17 160 3579 -364 2230 0
-2006 -4954 1223 4807 -2133 4176 0
-4184 -2285 3229 -2179 -1950 0
4937 -1625 -3431 -4141 -4994 0
3240 1893 3016 878 0
-234 -3687 -4225 4826 2389 0
-1933 -1896 3640 -388 0
3895 -3558 -4360 813 -2051 3901 0
-722 -1198 3681 3536 0
-675 -3084 3260 1441 2648 0
3209 -4419 -2582 -2495 3399 0
-908 3882 3819 -4660 -902 -2146 0
633 -4795 -4153 -2907 -3467 0
3707 -2354 -2510 -1966 4024 0
-3725 -2125 392 -4853 0
-2092 -1096 -2753 3993 -2096 -244 0
-1865 -117 -3270 1973 -2947 3893 0
1832 -533 4470 -1542 1909 3055 0
175 -1381 -2866 -4312 4030 0
3650 -4648 695 -2868 0
-1171 -1647 -1115 2874 3305 0
2244 3814 -772 2305 -2943 0
987 -4181 4611 -2873 0
1552 694 -3529 4508 3007 -3684 0
1790 -2645 4162 -831 0
1430 -2847 3175 206 0
1670 -2393 3810 -3112 4943 2515 0
2721 -2334 -1387 -1253 -1216 0
-3527 -3095 2440 -3573 3770 0
4935 1054 -662 4484 -4039 -2174 0
-3930 1494 1747 -325 0
3231 -3169 746 1446 -1081 0
-4263 4479 1238 -3428 0
-569 4509 718 4639 0
4617 2299 4276 -2082 1016 -1162 0
1619 3302 -64 1301 -4382 0
-2740 -3739 -2901 3942 1440 4797 0
-1113 793 -1514 -3393 -1330 0
2494 -3892 -1639 -2695 1938 1078 0
1773 4635 3907 3201 -3596 0
-3186 2935 2029 2473 0
-892 2995 -3191 -4266 0
163 -4688 -2996 3606 -4146 0
-3096 4283 1786 -4461 2462 -4487 0
3370 4969 -3021 4211 2145 -45 0
4207 -2353 1961 -2850 -3056 -2837 0
-2541 -4435 -4575 -4452 -4602 0
-2473 -4503 -2505 -2192 0
-1239 -1066 1835 -4337 0
-225 -2820 -175 -91 794 0
4024 -3728 -1290 -2295 0
2119 -4542 -3664 2413 0
-545 -2492 3051 3004 -3866 0
2825 -2666 4611 2817 3205 -1669 0
-1909 -1483 -4649 -4870 0
-3631 -573 -4480 -1443 -2856 0
270 4109 -3291 -1866 4893 4778 0
-3560 4906 -2847 2932 0
-2786 -4636 378 4846 4902 4109 0
-2888 -3198 3268 -3657 0
-4568 -969 -1318 3994 2467 0
-3164 -2495 3049 2871 -3030 0
1382 2408 -784 -4331 0
-2177 -1352 -277 4778 -1682 2411 0
-4845 280 741 1083 1706 0
4204 -2177 -3853 -968 0
1671 4045 3938 259 -2737 4075 0
510 4503 3319 -4132 -1491 -4387 0
2071 -4973 -1418 4868 2078 0
-1572 -490 -333 -3920 -3381 499 0
2718 -43 1359 -3711 76 0
424 -3204 548 1824 0
1842 4374 1848 4135 -2740 -4416 0
-367 4641 1655 422 3433 0
-1098 -289 612 3275 2323 0
1516 3758 -3864 699 0
-1310 151 -1610 -3363 3768 0
-1753 -3986 1344 2504 2355 0
-2927 689 -1977 -4562 4738 3577 0
-3287 -4260 2440 4518 3729 -935 0
1463 912 -420 -1412 -742 0
-1527 900 215 2725 3750 0
-3687 3939 -3517 -4897 0
-115 707 3754 -4140 -4040 -4059 0
-2377 3216 -4226 2136 2060 -4009 0
4724 -4198 -4782 -4555 0
2332 4575 -588 252 0
4476 4680 773 2296 2838 0
1539 3505 4621 -1085 -1634 3223 0
-1883 1849 -2770 -3163 -4605 0
-2581 17 -4539 -3393 0
-1684 929 4942 3838 2049 0
2818 -2920 1248 -2716 2215 0
3600 3037 -22 -1990 0
-91 1365 -4702 -3618 -4762 0
-4002 -3898 3115 -67 2452 -3480 0
3871 1071 -1497 345 0
-87 3951 2273 1121 -1192 0
2263 1866 -991 -3328 0
-3413 438 1674 184 0
32 3508 2763 -2466 0
3257 4770 -4803 1842 0
-2316 -4124 -2714 3338 0
1541 -3534 4952 4843 4260 4163 0
991 -3591 137 -1751 3116 291 0
866 -1928 -3364 -1575 -787 0
3322 4674 -3280 1030 -15 -1689 0
-3012 -1235 259 -4905 -285 4598 0
-4865 2523 2963 2361 -4575 0
363 -3580 -1775 -1073 -1810 -62 0
-1781 388 -4443 -4299 0
1138 3862 2425 -2378 0
-4538 1180 -1458 -1749 -4680 0
-2829 1806 63 270 0
343 -1593 -2454 3591 0
-2511 4801 698 2843 0
-3233 -4247 1061 771 -1243 -3485 0
-4221 68 -2828 2353 -2840 0
757 -448 1712 2081 0
181 3412 -4134 1189 0
660 3724 2891 -1002 0
-4978 3143 2939 -3386 3745 4229 0
305 -4425 -314 802 -1592 1889 0
556 682 1183 -1440 0
1951 4061 2086 2542 0
-680 597 -4591 603 1804 0
4750 3849 -372 -558 0
2103 -4093 -3950 2516 0
4764 -4861 -4016 -4058 0
-3590 -591 -4250 3215 -4153 -1202 0
-3519 2316 3638 -2579 -3179 0
593 1636 -2581 -559 0
-3292 -2703 3816 1695 0
3153 377 3131 -2690 -4206 0
700 -4388 4372 4330 0
-3233 -244 -17 -2940 -1107 3716 0
-2958 -1857 369 -4753 570 -763 0
-3645 -4283 4067 285 0
573 -43 1681 -3151 -359 2763 0
4955 3508 -3692 -3905 1616 4322 0
-245 -1168 2684 2842 -4320 4502 0
-1302 -3066 -3461 -3965 -2772 0
83 -436 -1902 -3008 -994 2744 0
-3949 -4155 -2799 3105 4419 -1041 0
-2350 -3471 1767 2276 4999 0
-3955 2975 1581 2009 0
1131 4756 2821 3072 0
-1035 2828 2472 -3366 457 0
-1634 2525 1010 -424 -1282 208 0
-4324 -2818 1179 -1365 -967 0
-4680 -1763 4626 1905 -2169 0
-3874 4169 2351 3732 3190 -4336 0
-179 -4397 1443 2347 1855 0
-155 -2986 2744 -435 0
-1609 3244 -1875 -2757 -3194 1135 0
341 4158 4351 2122 446 -2914 0
-1054 3118 -2566 -1219 -441 0
4750 -3341 266 -3230 3001 0
3949 707 -2433 2206 0
-2346 2291 -2377 -4314 3591 0
-3232 -4616 497 1990 -3266 0
-741 3559 3767 -1134 2673 4913 0
4061 253 3217 1032 -828 4808 0
1713 -4593 3822 2728 4602 -1767 0
-2933 3737 -3915 2872 -3891 0
-52 2277 -1900 2136 0
-639 3160 2851 -3731 0
-2654 -2092 4544 2191 0
-3094 3638 -1815 -3224 1916 0
-3192 -3877 4889 579 0
3465 -3647 809 -1482 -4353 0
4812 1710 -1681 -2526 0
-4863 3275 4234 3490 1865 818 0
-2365 2960 1256 2078 4714 0
1877 1356 1900 3619 -3718 0
-2464 2535 1473 -2944 0
2351 210 -3613 1585 -4780 3646 0
-3430 -3275 2773 4038 0
2707 -2999 -3598 1435 -3504 0
-192 -4955 -1900 2302 -3450 0
1845 1632 -4733 -4776 -1905 2982 0
-333 3826 2904 1126 0
-943 4101 306 -752 0
-4960 -3256 -3288 -233 -828 -1982 0
4834 -1238 -380 1174 2045 0
-2473 -1166 -2677 -2164 -1474 0
-2370 -731 2492 -2204 -722 1893 0
1778 -4038 2496 1407 963 2883 0
-853 -1981 -2 -907 -2679 0
-2681 -4158 44 2866 341 1299 0
-295 1584 738 -384 1814 -3884 0
3761 2539 4287 1836 -3951 4744 0
3659 1943 3534 4842 4550 -2742 0
-3727 3801 3099 -1822 0
2639 -197 4991 -2147 485 0
1471 -246 1833 615 -763 1958 0
2564 -1319 -1737 4716 -2402 0
-1924 -49 -4542 -4645 1662 0
-1370 -722 -4813 -1881 -4660 3026 0
-1224 2072 678 -1075 3382 4997 0
-2383 -2645 -907 -3793 219 0
-2389 2453 -3091 2550 1669 0
4132 -2984 1154 213 707 0
-2488 -2523 -2867 -2752 4617 700 0
1570 -2223 574 -4486 74 48 0
-250 -1836 3513 3135 225 0
-3651 -1868 1194 -697 0
-851 -1665 -1876 1517 -4794 0
-3355 -2458 1839 99 -444 4815 0
-1338 1565 416 -1377 0
1965 1725 -3316 -816 0
2206 -3288 314 2689 1420 -3513 0
-4276 -2451 928 -2437 0
4491 539 3913 887 0
3812 -754 3226 1481 0
-4336 2955 3098 -3274 3099 -3271 0
-4190 -348 2584 -565 -3251 3252 0
4048 2640 -1276 2112 -181 3994 0
1134 -3647 -1306 -4894 -239 -1127 0
-36 3961 -2257 -3956 -1206 -934 0
2387 2264 4019 -1595 0
-3915 -1595 4170 -4398 0
-504 -1837 -3201 -3762 0
-1328 -2290 -1534 4997 -1893 0
-3624 -2400 -4234 747 0
-1602 -1941 -3322 -4688 4348 -603 0
1118 2537 4562 -2608 943 3386 0
1479 -1990 -3464 -1594 1382 0
1000 2586 -1840 -2176 0
1444 -2151 1927 426 -147 -2394 0
1944 -3451 -1382 -1828 -2841 3549 0
1190 2693 -708 491 -677 0
-1179 2325 -106 2835 1147 -3632 0
-4357 -3371 2015 2496 2752 1758 0
-3391 344 -362 -4433 0
-3453 -3215 -308 159 0
-4172 1597 1352 2466 3427 3794 0
-1277 604 -743 -3941 0
2623 4295 1395 4631 0
2094 4065 -4712 -3092 0
-1969 -4516 797 3187 -833 2666 0
-436 -1097 -1959 -3984 -2210 3010 0
-1372 -2798 -918 -3081 124 -1537 0
2233 -2092 -2495 -945 0
-2357 3692 -4676 -531 0
1936 -2978 934 1932 0
-3559 -566 1418 -3224 0
378 738 -4334 3628 -4804 33 0
-3943 -2127 1565 -692 2680 -1262 0
653 559 3874 -4404 151 0
-1207 -1240 -2186 885 4110 0
3447 -400 -4721 -1139 4508 0
-4320 -3053 1863 752 2862 0
1859 -3587 2958 -1602 -145 0
326 -4976 551 3915 92 0
-17 -1197 -334 4069 0
3460 -2191 2071 -2716 4444 -398 0
-4145 4472 3249 -3575 903 -3908 0
2037 3773 -3108 476 0
-1332 -1525 -986 2526 0
-2592 2334 2996 1335 1957 0
-3634 -1796 -3481 -1718 3383 0
-1517 -4553 -2211 3272 0
2482 4605 4454 -1191 0
2217 -2016 724 -515 0
4594 1910 -3065 -3331 -1739 -2202 0
3533 -2141 3193 -2184 -1469 -4210 0
-4767 2576 -4132 -123 -891 -3011 0
2859 -2033 -295 -994 0
1596 -1659 2042 -4574 -3660 4363 0
4006 2184 -685 2392 0
1690 4785 4329 -4908 -4293 -1202 0
4581 3906 -2705 -2030 2602 -2123 0
-4967 -4917 1827 2625 918 4853 0
-2344 4950 -2185 4373 1966 -2201 0
3236 2404 -4160 -2695 0
2506 2663 -2541 -4101 -2381 1783 0
1947 2323 -1098 3462 0
-3069 -2818 -3059 -3763 930 845 0
-1154 3050 -2770 -409 -514 -2347 0
-1252 -1409 -3531 95 4792 -3445 0
1928 -2730 -4368 4373 -3196 0
3491 -3486 4990 -4343 -878 0
-252 -2253 2834 -3417 -4696 -2558 0
-1612 -1920 -2761 1209 -1097 -3287 0
4907 -986 4568 -1676 -3905 2958 0
-1312 2408 83 -3452 0
4318 4477 -3115 2535 0
430 -2762 -248 2044 -34 0
4493 -952 733 -1690 1181 955 0
-4400 1060 1978 -4842 0
-3195 -3878 1036 2095 -4003 0
833 -4891 -80 -4064 -2753 4642 0
1779 1055 -3768 -4082 0
2253 2532 -1425 -2306 -948 2462 0
-1700 -4389 1888 3182 -4715 -961 0
4712 2948 -2614 -1699 -4341 0
-2498 -1669 -1336 1870 0
1016 -1346 -1068 1591 0
-4031 -993 2980 3345 -292 -244 0
4277 978 -3978 -4643 -1276 4772 0
509 2605 4041 154 1390 0
-1733 -2628 -693 1267 0
-2893 4702 -3806 1926 0
2228 2456 2486 -933 169 0
-2084 1564 -2285 1764 0
1290 -4913 -4503 4829 -1405 0
-2900 830 -3361 3603 2752 0
-1121 4746 4627 2401 4857 4957 0
-4399 -1795 -2509 -585 2873 506 0
1547 2431 -4063 1410 3177 -3778 0
-2896 -3691 73 -3130 -2762 1787 0
-1904 788 -1021 4222 4314 0
4516 3175 -2365 3777 -1191 0
4718 -175 -750 -1407 4906 0
2665 -1753 -3552 -178 0
-3283 740 -2769 1276 3041 -397 0
1999 4741 -4691 -456 893 1095 0
3866 -527 1927 -453 -3893 0
4509 -1466 2318 3756 1061 0
-4769 2970 -3049 -3093 2743 -4554 0
-4743 552 -1584 -3129 0
-4407 -411 -3131 1179 -3528 0
-4264 528 -1994 -1635 4411 4937 0
3745 -4715 -3437 -894 4992 2551 0
290 -1967 -1450 -4090 -3427 0
452 4811 2145 1149 0
402 2351 -4509 427 0
-994 -4714 2147 -314 0
2191 -1337 278 -4221 689 0
-163 86 1197 3773 422 2357 0
-1205 -2686 972 4117 -938 0
-726 -3418 484 2236 -3171 0
2898 4212 -4968 2335 4100 1586 0
3864 1961 -3959 -664 1456 1011 0
4827 578 259 2331 -3325 0
-2417 3516 -4611 2632 0
2494 4432 3670 -147 435 0
4148 -4691 -2274 1088 2560 0
-4037 -1428 1368 -1138 0
4530 -3071 -4944 -137 2989 0
-1967 -3624 -857 4529 0
3780 1860 1854 1059 3042 0
2085 -1708 -2289 -2065 0
4522 3098 2439 -714 4383 0
817 -2231 3906 -2153 1846 0
-2245 987 -2877 4298 2115 0
-864 -535 -1893 -1003 257 0
-1906 -623 -1135 -95 0
4929 -4960 -4670 -4910 3514 0
-4050 -2351 -1136 2720 -1341 -3108 0
2513 -2149 1857 -3322 -4290 0
-3957 -167 -3640 -788 0
-1184 -1581 2560 1512 4427 -255 0
4938 -348 1391 -3394 -4664 2107 0
4213 4898 -4470 4501 -2814 105 0
520 -568 -765 -956 0
-4941 -4471 -1164 814 0
2180 -474 3667 834 0
4877 2847 -1412 -323 -4011 1597 0
-1483 -2627 1044 4178 0
-4742 -2233 513 4812 -491 -3029 0
2477 2522 878 -4208 -3126 -3838 0
-3584 -248 302 4950 3704 0
-2402 2204 4840 4199 1203 2954 0
4780 -4844 -1767 -761 0
-3508 376 1620 2716 0
-4212 332 2352 -1407 0
-2047 4846 2936 -4465 0
3132 754 -3879 2399 -2492 2273 0
-4084 -1577 3846 -4183 0
2468 1419 -2832 4800 0
741 -2396 -4620 1802 3310 843 0
843 1258 3662 2802 -4106 0
3704 -3654 -4835 4215 330 -2369 0
189 2545 -499 -3378 0
-559 -1379 -1495 3306 0
-658 1828 -844 218 0
-4509 -578 3303 4854 904 0
4781 1135 851 -1829 -814 3475 0
-2436 -670 4280 261 -2342 1755 0
4910 -3072 -2840 -4782 -1332 0
1780 3726 -2175 616 -4833 0
1030 669 -4451 -2349 4823 3229 0
1878 -1631 -4310 -3961 -4671 -2903 0
-2080 52 2807 -4451 0
-115 3950 -2579 -4080 4765 0
1428 -3640 -3339 856 0
3980 1200 -2442 3534 0
873 -2011 4787 -3381 -4775 0
-388 3924 -1718 -4589 -1359 3894 0
-3894 3853 -195 -1623 -4799 0
3822 3854 -2714 -3915 -2848 0
4237 4605 2572 -3165 -4649 0
705 4246 -248 1379 -1578 0
-4938 3775 1919 3539 0
1340 2885 -3962 -2773 -366 -3685 0
-3161 -1692 444 -4589 -2906 1077 0
-1044 -4547 -2018 -4271 -3552 -4160 0
2704 -3568 3037 -4762 132 -4912 0
-1562 1156 275 -879 -1085 0
833 -3784 -2951 -2195 0
-4299 1121 1982 4135 1181 0
2199 1685 -4255 3671 3062 -1607 0
-3057 -2863 -4473 -1196 0
-617 -1232 2082 -3919 0
4925 -3251 3410 -1611 0
-376 3904 3522 1418 2468 0
-3296 786 -4196 4474 0
2858 4803 -4209 1846 0
-2885 -4865 -4894 -4179 0
-1232 1498 -1998 4230 -848 0
3081 1168 -3894 4310 401 -4909 0
2227 547 -397 -193 2582 -1519 0
-1276 2859 1373 3379 1195 0
-1225 -4571 -169 -1660 -159 0
3781 -595 1092 1267 162 -2473 0
3113 -1916 3056 -4544 2508 0
1062 508 -2258 -202 -4291 0
-816 -74 1853 1197 2608 0
4711 1877 3236 -3348 -2878 0
2680 -232 -606 4567 435 4797 0
-1904 389 3457 -95 -2981 3274 0
-1879 780 3678 -1024 0
240 3176 -1369 -1998 -1871 1993 0
3346 -3619 -3270 655 -3732 -1492 0
-2788 -4063 2462 3197 -761 0
2148 -1701 -3029 2637 0
1025 4211 4450 -741 4672 0
-12 -4648 3580 4258 3450 -4479 0
-1630 2821 -1227 41 1297 -2998 0
-3425 -2349 -4938 2494 0
-2366 -848 4275 1693 0
-492 1542 3435 1853 -3496 4080 0
3991 -4483 -4365 1316 0
-904 -1454 3074 -3022 -2082 0
4878 -4258 2922 3120 0
1598 1158 2376 -4009 0
-4999 -208 -4670 955 -4737 0
-2462 573 -3180 -2509 -1918 0
2530 -3735 -2938 -838 3483 -3508 0
4191 1695 -410 -3120 -1759 0
1535 164 -730 2326 0
-2456 1770 -3799 438 3408 -1068 0
-1935 -4468 2775 -3405 495 0
53 -3726 3975 -2216 0
1676 3749 734 394 3441 -143 0
3382 4766 4285 -2438 -4408 0
552 -1409 238 655 -720 0
-544 207 -2361 -1218 -2635 -3469 0
-2389 -3877 -1277 2675 0
-4757 -3030 112 -4068 948 0
-4749 4530 3808 -4902 0
-3791 2619 823 2201 4396 -1857 0
-3208 -4313 2983 4915 288 0
-709 1549 717 30 0
4600 -1898 4165 -1014 -565 0
3677 -4301 3306 -858 0
711 -2102 -3000 -4045 0
1068 -667 3235 -3334 0
-1158 -2506 1450 1561 1293 0
-4907 3303 -3586 635 -141 0
-2102 4739 635 -1509 -1469 0
4150 840 -2816 -511 1591 0
-3007 -1568 -2308 3438 155 3124 0
-2703 -489 1467 2073 -79 0
-916 763 -2751 1913 0
1385 -666 3292 -4646 -1919 0
2332 -4024 2487 -4675 -2165 0
-4516 1887 -4301 1 0
-2545 -1635 -3284 1054 1269 -615 0
-3966 914 -4139 22 0
-3044 -1329 -4155 4617 0
4261 -2002 890 4834 416 -3763 0
-2272 3965 -1684 4753 4103 635 0
3405 4830 -4011 -2885 1239 0
-4215 -2826 2529 1708 2416 3586 0
-2394 691 -354 3433 1004 0
494 -2488 1288 -1193 -402 0
-4249 -3138 -538 2170 2263 1264 0
481 -4099 -2421 -2262 870 0
3386 3448 -1369 3276 -2031 -2409 0
3455 3887 3356 3687 4111 3802 0
2256 1929 -4016 -3449 0
-1669 -855 599 2460 -2899 0
-2136 -3354 3264 3427 0
-3680 2755 -3428 -255 -264 -184 0
652 -3654 -2378 3867 -1140 4711 0
-1976 -1550 2938 -1960 -1947 0
-3080 -2096 -65 -2877 -4997 0
4158 -2304 4134 -4043 0
2666 1640 3520 4737 -3989 0
-1580 -3522 4191 -4521 0
4413 3466 -4402 1496 0
3011 3625 7 -1239 -3968 0
3144 1232 4491 -1272 683 0
654 3822 3496 3807 -4886 -4906 0
-2247 -3936 3277 -845 0
-607 -4270 -384 2419 -2863 0
2160 -1542 64 -1385 0
3866 3271 -735 3550 2847 3992 0
3573 2335 -3355 4974 2469 0
2759 -3066 3914 3366 1618 0
-1873 -3485 4305 2240 0
3041 1619 1793 3357 0
-2400 -3588 2085 -1738 3277 0
3644 -3528 1445 3902 639 1543 0
3308 2056 236 -3349 0
-1650 -1826 308 -1066 -2771 2464 0
4545 -2571 -2664 -762 -1986 -2037 0
382 23 3528 3808 -4618 0
-2345 1128 797 -3815 1050 0
-20 -839 2832 -2438 0
-2260 59 4840 -2975 770 -4714 0
-1650 -2736 1205 1220 2135 0
806 -4189 -3296 2185 0
-1566 4836 -940 -95 0
-3586 1087 3754 -4552 0
690 -4891 -3104 230 1259 0
3874 -397 -2663 -4948 -1123 0
-3267 -2276 394 4411 2347 -80 0
-1041 2149 2954 3067 2544 4613 0
-653 -2797 -4603 4196 -1711 0
1528 -4028 -188 -2569 -790 -560 0
-840 -1847 2843 1684 0
-426 -4953 -412 -4259 0
-3044 -4285 4480 -4474 -3041 -4811 0
2759 70 2571 -3501 1907 0
-1290 4210 -1767 -3170 -3395 -4442 0
622 2000 -945 2431 0
802 -1761 -3929 -777 -252 0
1745 -495 3698 3943 3921 -4969 0
-2352 -3104 -3448 4509 2018 1657 0
2474 -678 -2224 2116 -3345 -1103 0
1877 1943 -3738 -202 -2106 -3958 0
4213 -3189 864 3683 3803 0
-4371 186 -4059 37 3078 1698 0
-4266 -615 -1052 2463 1104 0
-545 4597 -1452 2324 -687 1908 0
2546 2347 -1821 -3232 0
2792 892 -2045 -1606 0
-3744 4007 1004 3660 -977 4219 0
2647 2608 5000 4575 4685 0
-313 3563 -2308 -777 0
3783 -500 1608 -414 0
-4827 -1816 1848 3778 0
3390 4853 4319 4933 0
2415 350 3502 -913 0
-2436 1621 4279 1829 1038 0
-862 -4844 167 2921 0
-880 1359 -1757 -3178 2779 0
2042 492 1472 4242 0
-2086 -4876 438 2350 0
3698 478 2538 2953 -3178 0
-1490 1292 -3855 -3357 0
3180 858 1811 3514 3703 0
1639 -3734 815 4864 -3877 0
1275 -625 -1617 -3956 -4656 0
1597 -3427 1595 -1806 1226 0
-4091 167 3440 1896 -1751 0
943 -392 2177 4713 0
2309 1807 -3466 3379 0
1170 -3067 4635 2951 -4621 0
337 3894 1738 3292 -2855 0
-847 -548 4250 -2184 0
1035 -10 3184 -1844 -4507 -1751 0
4731 2851 -1239 -2505 -927 2810 0
4572 955 -2187 -666 -334 0
-4016 -4685 1165 -3586 3007 0
379 -4007 -600 -2049 -1284 4451 0
-410 -3337 2689 -3983 0
2965 -4645 2092 500 962 0
-3119 3421 4941 2396 0
87 535 4477 4417 0
1519 1697 2908 -2160 0
1560 223 2955 879 -4644 0
-1344 -4924 -4308 -1805 182 0
4450 -1292 -4002 1157 1440 0
-1462 4535 1019 3565 0
-3273 -4961 2055 -663 301 -1072 0
2039 2276 -4903 -4895 0
960 -255 3354 85 3369 0
2872 4662 1775 1109 0
3124 -2616 426 2526 0
-2459 2571 -2629 91 396 -3278 0
-3485 -4548 1601 -1781 515 373 0
-687 2992 837 440 222 4782 0
1040 -1767 -4479 4390 -4028 169 0
4818 4022 1283 -416 0
-1325 -3314 4603 -3567 4068 -1042 0
3982 3981 4393 2445 4019 2035 0
-4686 -2365 -4753 4786 0
3786 -3228 1619 -1925 -1254 -3823 0
3320 2968 1629 3950 0
-2207 -2073 3640 -2173 -359 -2159 0
4642 306 3086 -3103 3362 0
2921 4160 3543 -1831 -868 0
-1827 -586 750 -4037 0
-3751 -4193 2388 -186 0
503 249 -3209 124 1595 0
-386 -3315 519 -2235 -2004 -727 0
2956 -4932 -2486 -1009 0
-712 1712 -92 -1522 1954 506 0
-3226 -4532 -3411 3225 0
-3890 2355 -3347 -1513 -2150 0
3912 -1547 -2118 1186 1791 0
-1509 4941 3454 -3262 3216 1909 0
58 -1332 -2990 4743 3821 -1199 0
3205 -4692 81 4605 2788 0
1225 -1831 -4828 850 -149 0
3044 -2285 607 -4801 0
-4581 3503 4777 -2533 0
1767 462 -3959 -287 1957 2130 0
-2964 5 -60 2362 -2643 -3368 0
-988 2458 -1794 3170 1621 -4093 0
-1140 -1554 874 -1108 1187 0
4464 3767 2946 -1374 3380 -431 0
-978 927 1613 -4152 2864 1068 0
749 -3985 -4590 -3776 3708 4618 0
-114 -1021 1204 -966 0
-1509 2887 1710 3216 0
2826 -3447 -2557 726 834 0
-3018 2243 4916 -2474 -3400 3164 0
-856 -4168 1445 525 52 0
1200 3522 -102 -1534 0
447 2080 3702 -2726 4399 505 0
-2062 -1787 3967 -1564 0
-3726 1780 -3378 -701 0
2018 1344 -4902 4087 -3240 0
3332 -2815 2745 4582 -4453 1928 0
4768 -783 1263 -102 -4243 1717 0
172 -2050 471 388 -420 -2624 0
3498 -4264 -12 -314 -4797 0
4249 4880 3122 -4777 -1736 0
-1703 3831 2786 584 -4533 0
717 -4030 -4508 1103 3077 4234 0
2193 -4058 -2346 647 0
695 -2930 4295 1848 3660 0
-2357 -3985 -4657 3129 2487 0
-2455 2929 1976 -2220 -1797 0
-2832 688 -2686 -1124 1032 -4434 0
2255 -2604 2583 -1813 -2784 0
-2356 -1919 4092 -1576 -2316 -2327 0
-1522 -93 -612 -1089 -1832 0
910 3372 2474 2953 210 -4740 0
2185 845 4724 -704 -3194 0
4587 3494 1050 -3196 -4236 3654 0
-3576 4388 2152 4173 0
4710 -737 -4810 -1711 2191 -1372 0
4590 -2834 -4997 1309 41 0
1308 482 -589 3181 -4432 0
1985 4276 -4139 2571 0
-2818 1240 932 3067 2881 0
1731 3555 -3385 -719 0
-2546 -1860 1926 -4546 0
-2078 -118 -832 935 -3579 -2158 0
-297 4576 -236 2618 -3363 -3151 0
3452 -477 4395 4218 0
-1915 3105 2771 -4551 0
-1213 -2934 -869 3859 4684 0
2100 -880 -4947 4906 3836 0
-3529 1194 -4741 -3108 584 0
-1665 4378 1067 -2983 3341 -3533 0
484 -4914 787 1164 0
-2251 -917 4085 -150 -2436 -828 0
3686 1089 -788 3935 1017 -3679 0
-2484 2207 4527 4698 -3260 0
4048 3089 -259 -4515 0
-2422 -1746 7 -1298 0
-957 260 3151 -3636 -1491 0
3177 -639 3778 -4944 0
-474 3988 -287 -3888 0
-2413 2410 -1080 2980 1332 110 0
-2433 -2301 1773 3506 -83 0
33 105 -4334 -3327 -4816 -726 0
1597 -42 -1048 2780 -4910 0
2359 -2508 -3081 3759 0
-3915 -3665 4467 -3534 -4856 0
3765 -1897 393 -4557 -1149 0
-372 -1562 3480 -695 -3957 0
-3642 4949 2287 2518 0
-3945 -3354 -2288 4651 1303 -4654 0
4063 2540 4268 536 940 4722 0
3867 -4139 -986 -4787 546 3367 0
-4259 2214 -4616 -4997 0
-1846 -4123 -914 -1318 -4703 1393 0
99 2306 4823 -2385 -3036 4166 0
-729 -3765 -4088 2480 -2058 -2609 0
2923 2451 -3337 -2227 0
-1018 -320 13 3815 4870 -4692 0
-2617 -3595 -3193 -4215 2310 2504 0
-3290 2028 1029 -1519 0
1680 -3135 3010 3759 4027 -1035 0
-4300 4010 2290 63 0
3834 4498 4008 292 3584 0
3795 -1369 -717 -4107 378 0
-4875 3039 3523 4481 -4158 664 0
520 -3122 -4315 686 -1159 4675 0
-804 -3939 4663 -3700 -74 3430 0
-2690 -4675 4497 -1404 1914 -3700 0
3087 -2354 4067 3641 -3048 0
-2402 2908 -1206 -4934 -4704 0
1914 -394 -1873 1590 -585 0
2672 2846 235 589 0
3911 3866 -1197 1175 -937 0
-2186 2133 -302 -4848 -333 0
-4830 746 -637 2060 -3444 0
2867 -2118 2139 -3195 -2074 0
-2566 -3826 2733 1116 27 777 0
-490 1358 -3558 -134 -1559 0
-3985 1987 3156 -4746 4638 991 0
3958 3341 4345 1959 0
-1941 764 2587 1034 0
-3940 -1426 4823 -3905 -1324 0
-2889 3749 -897 -4239 0
-2040 2020 -2523 4936 3922 -3523 0
-3190 2888 3204 -1114 1668 0
-1819 -2543 66 -2414 3075 -4360 0
-3986 -4804 4592 -2212 -2700 0
3974 1565 -1528 2788 0
-1220 2973 -1310 -1166 -1767 0
-3418 2111 4177 2893 426 -1607 0
-1469 -536 4484 -4321 0
-774 884 -2095 4555 3829 0
-3089 239 -2049 -699 0
-1737 1544 -777 2660 -3598 0
-2572 2535 3705 4146 365 0
3664 -824 -4120 1415 2430 0
3247 -1555 4803 -3393 4177 1428 0
1872 -770 -4104 4761 0
1989 -4226 -3651 1519 0
844 -1793 150 4060 -1542 1408 0
4363 4501 -1085 1197 4742 -4567 0
-3997 -2775 4731 -1146 0
802 -3974 4256 -244 20 966 0
487 -3865 3639 4095 2130 1576 0
-2736 -182 -3118 -3203 0
-3772 -4733 2410 -173 41 -4099 0
-1197 -661 1966 2262 0
-2475 -2222 440 -3325 1401 0
3789 2864 403 2873 0
2088 346 3061 1181 2593 -2948 0
-348 -3262 -1758 1375 -4726 0
-4809 2365 -1288 -608 -4168 0
-3057 -3712 -634 -4406 -3298 -899 0
3105 1605 -1023 2628 0
2241 -2054 3479 -932 0
29 2626 -560 -2645 -1312 3205 0
-1238 -1930 502 1988 3009 0
4059 2498 -4859 981 0
-958 -543 -1626 4598 -2549 0
-1407 -3846 -4245 3581 -4043 0
3926 766 -4649 287 0
915 645 4899 -2736 -2535 0
-1873 -559 -1529 -3589 4586 239 0
-925 -242 -4288 1252 -525 0
2081 4172 -3737 905 19 2254 0
4103 2613 -830 3729 -4204 0
3153 -2242 -2287 4817 -523 0
2317 -4981 -7 -3395 -242 0
2996 -1789 4299 4907 0
-2835 -330 2767 -123 1961 0
540 -156 1398 -2398 3658 0
-1986 -3702 444 2271 -3212 896 0
-633 -2488 -1289 1796 0
-2461 -2992 -2479 -2197 -4673 583 0
4296 -1152 -4918 3305 -1945 0
4845 -2891 48 -996 0
4081 697 -3133 1254 -250 0
-1828 -4315 -4322 -4954 0
2248 1210 -1203 2942 -3617 0
892 -1074 4839 2146 2293 1721 0
1568 2817 -52 4685 1498 2002 0
-2693 -1309 2583 -1035 2685 1060 0
4180 2174 3090 963 0
-3702 -168 -1677 668 0
-1022 -4390 670 3980 837 0
-3029 -1433 3258 2240 0
725 -4701 733 972 0
2274 -947 927 4661 -282 0
-2549 1091 397 631 0
-215 -2303 2153 -3624 2283 0
-88 -393 1774 -3797 1858 0
-2879 -4102 -4280 -1729 -672 -996 0
565 -2897 3281 926 4177 -984 0
340 -229 -740 -155 0
-1635 -2068 2501 3556 4717 0
4436 -4251 -4479 -4129 0
-4299 1032 4183 3366 -2379 0
-2377 -1408 4559 -1157 -651 0
-1160 -2942 -4364 1499 0
1603 2544 4728 85 0
-1363 -3490 2057 4223 1737 -2187 0
4127 4402 2321 -1100 0
327 -1480 717 3036 2723 -3063 0
3793 -128 -1893 3050 0
-526 4774 221 2030 0
-3362 4723 -2939 -4450 -2790 0
1681 -3085 -2031 4534 3089 4361 0
933 3309 -172 -2559 -1722 876 0
1842 3784 -3226 663 -229 0
443 3928 1231 -1481 -3470 3654 0
-3804 -2637 -609 319 1248 0
2578 -426 3772 -840 0
1200 3709 -4394 567 -2932 1113 0
-1155 663 1252 -1711 -2347 -1423 0
-2213 -4606 -2648 -2902 -2410 -2932 0
4400 -2444 2733 2407 0
-1180 3932 2714 900 19 4454 0
4374 3649 3562 -2319 720 -2046 0
942 -1439 -3013 -4400 -611 499 0
-4592 -1388 2509 3516 3035 4540 0
1936 4541 -626 1306 0
-1062 -2617 3014 -2149 4987 0
-457 4211 2959 -4840 0
-1693 -439 -3876 -4295 -2582 -447 0
1255 -3259 -2964 1573 -2749 0
1383 3033 -394 4722 0
-4692 -1888 1856 -4319 2231 0
-4884 2462 -3926 671 -1924 0
2801 1753 -1499 -2903 -2358 0
-3790 -503 -832 -2276 0
-1092 532 4377 -3451 0
4212 2967 -649 -2676 0
-1528 3540 -840 -327 -4526 0
-4249 1858 2671 3531 0
-1135 -4211 -2193 -2076 -1730 -4079 0
-1867 -3704 4649 2060 -499 4976 0
91 4499 -2880 4692 4650 0
1270 -2866 -1314 -4692 0
2457 839 -4387 1098 228 -4467 0
4430 3261 -2287 4220 -3795 0
3847 -2704 1974 2769 0
4066 -749 -4356 -295 2331 0
1120 3282 -1831 -4874 0
-698 2534 -3256 -4246 0
758 396 3066 28 -4844 0
4171 4509 408 -1249 -217 0
3456 2859 3016 4563 0
-85 1487 -1468 -1076 0
-4982 4627 3303 -1318 2155 0
1681 -3115 3424 -4882 -4000 1608 0
-4230 3052 2633 3800 -3968 -884 0
-2816 -2493 -1559 1457 487 0
-2296 1818 -607 3575 895 0
738 -2213 2927 -3992 0
-1981 3194 -3685 -1611 0
4638 1752 4858 -1700 0
-2420 -3496 3863 -4321 -797 0
-568 -2720 -4005 -3374 0
4635 -4023 -1021 2563 -2003 -4650 0
2346 -280 -4839 3061 0
2593 -2632 -1363 -2832 -1306 0
4576 -59 2108 4453 -2241 -1477 0
923 -2655 1046 -188 -2960 918 0
-4299 -835 501 -2206 4220 0
-2009 125 -3132 3490 2062 -1143 0
153 -1728 -3855 -3002 0
-3943 3586 1417 878 -1731 0
-4236 -4297 -1186 -3797 -4485 4313 0
-737 -782 -2593 -2134 -1876 -4250 0
3452 1179 2695 -2320 0
1371 -4924 3245 -775 0
-4768 -1292 -4384 3605 -2137 0
-4932 2405 -1951 3700 -875 0
446 3501 669 -407 0
2682 3754 963 -4203 0
4038 4360 -4222 3597 0
2142 3729 -2833 -1598 -1542 466 0
4387 -2215 -1671 -4296 0
1990 34 -3720 -1484 338 -65 0
-4130 -2833 -3885 2576 -2448 2247 0
2711 -4226 3324 3883 -1422 2295 0
1297 4645 2094 -3917 -3246 0
4525 1482 3088 3779 4836 0
-2202 4052 -1008 3838 2666 -3889 0
-1908 4693 3152 -1577 2642 -4863 0
825 2442 -3973 977 2163 0
1660 -2089 695 -1726 0
3214 -3828 -564 -3308 1258 -4053 0
697 855 1209 -3718 2288 0
-3909 -4490 993 -3067 0
-275 2994 -2912 1710 0
1524 -2501 4323 3861 0
-383 -3441 -2273 -1239 1767 2337 0
-223 3370 3267 4952 -4645 -4700 0
1064 430 -2154 -711 4113 -2226 0
-4845 4810 3020 1262 0
-2974 2747 -446 1160 0
3431 -1666 -2599 -1203 -1607 0
2622 -1289 -372 -4922 1655 -4760 0
2024 2507 -743 4192 3166 0
-2082 -1099 -1529 -3703 3599 4038 0
3822 -2954 1135 -2872 3191 0
586 -1406 573 -3452 0
-891 -779 -2977 -3213 0
4705 4112 3170 90 -3483 -4516 0
4009 -1635 785 1125 -1217 0
756 3207 408 4571 2427 4934 0
3028 2379 -2808 158 -3730 0
-4914 -4992 3633 -1560 4942 -4849 0
-2567 2147 -2209 -918 387 0
-1202 -1399 -4075 -2212 -2706 -2845 0
2496 1172 3841 -23 -1247 -2875 0
1504 3499 3753 -224 0
-2164 811 -4958 2862 -4951 0
-145 718 1838 -974 -1633 0
-1123 1882 462 450 -147 0
1114 -1244 2757 -2362 -2457 2653 0
3215 4410 -1657 15 0
3827 4808 998 138 848 -2499 0
-4389 488 3954 1691 -2960 0
-1407 -4917 -4834 -1156 0
4384 -2923 -2424 3059 0
-3451 3592 4667 3692 4789 0
32 3385 2065 -2710 -4902 822 0
-2705 2614 4346 -4868 0
3915 -4819 -1253 -4121 -3775 2308 0
-4468 -1001 851 1427 4122 0
3950 -4243 -906 -4921 0
1666 2654 -1503 4894 -2525 231 0
-756 781 -2116 -482 3921 2996 0
-3454 -3548 -4562 1772 -823 1857 0
-3179 -4844 3965 -1688 307 -2463 0
2774 3541 -4476 4541 2669 0
-2416 -678 2590 -4297 0
2515 1246 3464 -4654 0
424 -1168 2447 1983 0
-2801 943 3500 381 -2282 1568 0
-4242 -3202 4326 -4974 -1394 0
-1771 -1970 -3523 2905 -1628 -2901 0
-4484 -3796 -1699 -2250 -3973 -1154 0
3857 -1689 -741 731 -1371 0
2878 -2187 -919 1652 -4901 -2918 0
-381 -458 -2934 1373 -4647 -4191 0
-2810 858 4516 -2496 -2890 0
3056 2059 -2177 -125 0
-2679 -2323 -3711 3975 4195 2618 0
4981 30 3024 2441 -2300 582 0
480 -1720 2813 -601 -2443 509 0
1385 -1353 4640 -4220 0
4261 2278 832 -3101 -412 106 0
-2803 2637 3627 498 -2830 2410 0
334 390 -341 346 0
157 -3095 3137 -3080 -3007 0
4984 -3500 3291 -3753 -3940 0
-1557 -3306 4209 4540 -3655 0
808 3849 1806 -502 -2397 0
713 -110 2036 -4040 -648 2171 0
-1995 3697 -404 -1100 811 0
4330 4302 3196 -3946 4966 -1305 0
3638 -2091 -3490 2712 0
4086 -3801 -1759 -2071 1222 -15 0
2352 3082 1198 4551 1854 0
-4645 792 -1102 -2299 0
-3753 3014 -4204 1081 0
4296 -54 1566 -4893 0
-88 4115 -2842 -3717 0
3728 -886 640 -3548 -3114 1271 0
3926 -3519 -780 3172 0
-2227 -401 1040 110 -1584 0
-42 39 500 3060 3033 2001 0
2577 425 212 -627 -3594 0
2946 -2263 -4797 -2719 -1056 0
-2723 -978 -1293 -1860 0
-1609 4252 -4825 -451 0
4353 -3414 2942 1772 1521 -625 0
327 -2512 -2700 937 2347 -4329 0
4019 946 -2238 -836 0
3719 -103 4984 -4467 3431 -1879 0
-1548 -4435 -2785 549 -371 3162 0
-3584 -1262 287 -454 3922 4621 0
-392 969 -4612 -4647 4090 778 0
2369 -4432 -2447 -4549 3705 0
755 -3625 -4004 588 0
2500 -4718 -2403 -1895 0
-3704 1008 -4509 -4074 4050 223 0
-484 -2529 4190 3861 3477 1295 0
4479 -1770 -874 3517 4351 0
-711 -4341 2433 2965 -2951 2685 0
4497 3359 -4872 -4308 -3644 0
-3087 2443 4447 -3146 -230 -1982 0
3278 -102 -809 1649 0
-2740 4018 -2784 3921 1253 3742 0
-676 -847 -4711 -3311 0
3808 -4839 -3681 3501 0
1329 457 -4514 -3430 0
2838 235 1450 1953 0
-2513 2808 -768 -4906 -2377 0
4388 -529 2680 188 0
-3271 1688 885 1454 38 0
-851 -2207 70 -1735 0
1364 -1773 -4850 3048 3699 0
-1396 1417 -1706 -3310 -1436 -1207 0
2152 3333 -1689 839 -414 2748 0
-199 1520 3273 -712 -1616 -4774 0
430 4747 -1108 751 -2795 0
-856 -4910 -2956 4112 2446 -4997 0
4238 4206 4903 4962 0
-3615 -3679 -4618 -2018 0
2608 4784 3281 -2352 -2717 0
2793 3071 -3238 -2279 -2875 0
3077 -1329 1809 -3818 -4181 0
3603 2329 -157 4105 0
-3804 -393 -1480 3212 0
-4686 3081 -2158 -882 -4899 3188 0
-12 1669 -2383 916 3848 0
-3040 2155 3308 -2258 -266 0
248 3781 879 -4066 3736 -2150 0
2236 -1496 -3992 -1569 1316 0
-2733 3453 1959 -1246 0
1529 2673 424 4495 3890 235 0
-1137 2365 2216 -3603 -1708 0
-157 1145 659 922 0
1685 -3663 -1261 -2477 -2511 4834 0
-2751 2489 -4350 -4298 2894 0
-3809 520 -1684 2624 -519 0
3442 3672 -1272 -2326 1785 0
-495 -791 -753 -1315 4299 0
-3444 4395 -4071 2437 -2227 0
-172 -3387 -3746 -145 2077 0
-4772 -2798 -4484 1425 0
-1912 4023 961 1751 0
4185 -1588 370 4856 -4252 4338 0
3761 1120 -26 3047 429 1643 0
-1236 -2237 -1489 -1557 411 -4108 0
-4792 3383 1823 2836 -2025 0
-3848 -453 3526 -4501 1732 0
4089 3266 -955 -4227 0
227 -479 1585 -2396 0
1177 -2505 -3216 -3647 0
4752 1226 589 -1703 0
684 -394 3853 3458 1616 -1696 0
1117 758 1189 1578 -602 1781 0
1745 -1937 2570 -3549 -3996 4223 0
-2415 -3120 3448 -3600 -2064 4527 0
-3785 3850 -281 -4897 0
1115 1803 -1116 -3521 0
293 2947 -509 2830 0
1155 3245 -3141 -2141 -1443 0
4979 -2335 109 -3211 1310 1333 0
4655 4492 2165 -3226 0
-1337 2997 -4178 -1071 0
-4639 2895 1938 -1635 0
3180 3437 -665 -2682 0
-2105 1354 -1002 1728 -867 -142 0
-3335 -4217 1631 -2485 0
3180 817 4185 -3780 0
233 -317 4476 -3134 -1773 0
-4400 1190 4022 -4775 -2947 -3578 0
4875 2462 3216 180 -1041 2004 0
-4928 -417 2307 4143 -3604 0
3976 902 -4913 -2143 -4261 -4445 0
-1120 -2892 2209 2973 -472 0
3002 -4753 2985 3360 0
2309 1534 4218 1518 -3665 0
434 115 -1638 1536 -4868 0
4297 -3742 2201 3092 -2111 3090 0
-749 -233 -4631 -3922 -2324 -1900 0
3882 -1540 -2599 3358 -550 0
476 3012 -505 -4439 205 0
-4460 -857 1910 -1581 0
4466 394 -4725 -3558 4931 0
-4869 -4406 4458 3022 -134 3539 0
-429 1006 -750 787 -1329 0
-3488 -3059 -4415 4954 0
4019 -2304 900 1547 0
-4459 3895 -3328 -2080 716 4461 0
-3845 2404 -1527 2178 0
1897 -3523 -3139 -3808 0
-2088 4197 -2728 509 -4817 0
-3398 2636 -3118 457 646 -2545 0
4737 4514 -2551 -2845 -3674 0
3708 4854 4616 4010 2727 0
1586 3965 2443 -4948 -2440 -4075 0
-2468 937 310 342 -1463 0
-1255 -2713 2378 -1373 -2390 -1484 0
-1795 1867 -2980 1508 -4124 0
-2858 -2376 3943 -2059 1665 2090 0
1647 -195 -746 -447 4476 0
-1087 -1957 1751 1803 -3682 -3643 0
3169 1384 -3510 1856 1030 956 0
-3813 -3012 -3654 387 0
2733 688 4865 4119 -1898 -2199 0
-4056 -3048 1663 2662 2253 0
-1326 -3617 4074 1637 3828 4724 0
870 -1629 -1232 -119 -4973 -3477 0
-1334 -1864 4755 -3642 2027 3204 0
1471 1969 -1620 -2813 -410 -4722 0
2268 -1801 -4374 4033 0
4190 -2742 4272 358 4378 -1677 0
-320 -280 -4059 2013 -4341 49 0
4046 -2915 4082 2814 2444 0
2843 4982 2439 784 3455 0
4813 -1948 -2574 3866 -4593 -3855 0
3173 -2330 574 -3969 -940 0
-2498 -301 3345 -1546 0
4731 -3840 -2986 176 -1861 0
-2432 -1219 4609 -3795 3508 -3931 0
4735 4856 -136 221 99 0
2101 -1034 4976 4158 0
3786 4120 -142 -2960 0
628 1521 -4154 -3834 1716 2502 0
-2709 3978 -1328 -3610 0
2250 -1549 2333 2517 0
1305 4902 2434 -2498 0
1621 246 -4045 3905 -4773 4814 0
-3654 -1601 4091 419 1362 -641 0
4531 2113 -1194 3670 3530 -3479 0
3489 2020 -4857 -4597 0
-213 -4840 -1707 3036 4015 0
732 3436 -3723 3093 0
-85 1393 -554 -2482 0
-3109 -4399 -4441 4734 -4837 0
-1365 2618 -2351 772 4923 3572 0
-3387 -2544 4064 -4581 0
4108 3442 3155 694 -3227 -4602 0
2985 3448 -2241 -2902 -4655 0
2800 -3528 -4079 2129 -4523 2873 0
-4914 2222 -4160 3224 3612 -873 0
1498 -1785 2676 -4838 1786 0
2365 1851 639 2145 -3760 4583 0
-3873 3602 -4884 4011 0
57 -1996 3513 -3832 -2015 -2617 0
4348 -1025 -4853 4972 0
-3424 -3454 1631 -3160 0
2654 3884 4379 1665 379 -3805 0
273 -3533 287 2736 0
4667 201 697 -3701 0
1409 -1546 3208 4754 -4724 1505 0
-1345 -1200 1993 -3000 3372 0
-3449 1903 1904 4231 -3591 -3822 0
3560 -2831 -2348 4459 -4376 -573 0
-3246 2300 -2991 2765 3019 0
-624 -1802 1812 1791 -193 0
-606 2509 -2120 -2056 2511 -3542 0
-391 4019 31 4155 -1497 0
-2461 -2595 2958 2252 4484 0
-4045 4931 3337 -3260 -2419 -4415 0
-4841 -3462 291 1113 -1873 -3642 0
-2451 3045 -3853 -2902 -1467 3471 0
3015 -2427 3174 4431 0
-1030 -147 -658 1078 0
1841 1235 -122 -2914 -346 3466 0
-4847 1664 -1637 3718 -2533 0
-4767 -3351 -243 4559 0
-739 4473 3719 -4212 0
-3461 -3598 -4737 2430 2403 4403 0
-2501 -1819 -33 2127 -3584 628 0
-3568 868 3315 -709 0
2053 2973 -4454 -781 -294 0
-2534 -1846 1698 -2623 0
-1238 722 -4468 3912 4856 0
-1532 -3748 4195 -295 -1412 0
1284 -2035 4423 4517 -3390 0
1151 -1319 3342 -314 0
1951 -745 -153 4495 -1972 0
4079 -1208 -3289 851 0
-3422 4564 -1056 4765 0
715 507 -1501 -3722 -4913 3589 0
-3656 -1107 2188 4315 3684 2651 0
-962 -1784 -431 -956 1843 -2243 0
-4941 -1278 -2405 -3652 -3264 0
90 -564 1407 -669 0
602 3044 901 -460 -2218 0
-1434 3677 2750 4457 0
-1668 1415 -244 193 -117 -4640 0
1110 -2768 1842 -1879 801 0
1217 -4395 -2278 -3401 0
681 -204 -3087 -3210 -1210 0
2268 2309 530 -1173 0
-3573 -2834 -4932 1948 -1572 0
-2688 4753 -3876 -2476 -2535 2415 0
1533 -4464 3421 -3068 4422 0
4287 2168 -1446 -4541 -403 0
-3925 -765 -2450 3930 0
2994 1251 1605 -863 -4989 0
1662 1882 -1462 2699 -4601 4997 0
-4276 -82 2665 4195 -3039 0
141 -1700 2439 1340 0
675 4432 -2426 3736 -1388 0
3983 4712 3906 3184 0
4963 -315 -276 2511 2451 0
-4758 -2038 -3478 -1594 -3878 1364 0
-1471 -3816 4849 -877 -3552 0
-597 -508 -2657 -143 0
27 -3526 -1235 -1244 687 0
4795 -2020 -3003 2878 2491 3659 0
2186 4301 -3528 3817 0
-2273 -3682 850 -4059 0
1813 -2592 1175 529 -1732 0
467 4802 3460 364 -705 1183 0
2501 789 539 2115 -464 0
-4246 2527 -3550 -1262 3399 -4035 0
3150 1280 -870 3824 0
4936 3439 4248 -3911 2316 0
-655 -250 2844 284 0
3301 522 3263 -2558 -3708 -3394 0
-2642 -3532 -843 4634 256 -2018 0
-1624 873 3211 4531 0
2038 1218 -2900 3576 1916 -3284 0
1990 -2381 2003 3756 3061 4648 0
4791 3371 -4937 -2153 4376 -4942 0
-4396 2668 4180 3936 -202 412 0
3653 4001 3035 -2888 -2669 0
-238 -3170 1964 461 -479 1591 0
688 4414 -2667 -4622 1831 0
3902 -576 -2820 4867 2780 1388 0
-1451 -2349 2269 -3766 3645 -1593 0
3062 4369 4490 -1095 1699 0
2157 -2626 -1960 3990 -1027 0
-4629 4052 -1943 4343 2345 1216 0
909 -2149 411 1630 0
2229 891 -1885 1078 3891 616 0
-3050 -4353 -1274 3986 -2745 -2272 0
-1235 -1861 -407 -2642 -1939 -2658 0
2640 1377 -4659 2840 1425 0
-1287 1850 -3066 -3395 3465 0
-1332 -15 2697 3679 892 0
4335 -410 -4631 2986 0
-2610 -3878 -3697 1222 2864 1444 0
4924 3094 3005 -3534 0
-1782 -4621 -3637 1540 238 0
1802 4254 1908 -2741 3141 -4201 0
2239 361 -4656 -3206 -3287 3121 0
-4531 -3938 3225 466 0
-3415 172 4315 -4730 -1838 0
4368 4434 2791 3635 0
4905 3612 1932 -2761 -2560 0
4445 170 1181 -1275 1454 2548 0
-1162 778 -2487 557 0
824 4167 2395 1141 0
790 -1738 -2274 1041 -3710 0
3253 3626 4857 -1623 3977 1657 0
2191 -2805 905 2570 0
4638 -3321 3861 -1984 0
-1079 -1782 3181 -1564 -806 3444 0
-794 4346 -885 2365 -3167 0
3276 -2706 1764 -4292 1441 3137 0
4809 4592 1014 4390 620 377 0
-2696 1618 4870 1596 0
3606 3693 -654 -709 -4567 0
785 3467 -3806 -4060 0
1028 -95 2268 -3887 -1639 0
-2651 -569 4135 -1457 0
4248 81 -4774 3261 -3491 1495 0
4657 3838 -1948 -402 3932 2332 0
-4941 801 4302 -4633 0
3041 -4151 -2821 -3262 -4026 0
1146 598 -726 -4693 1448 0
3275 -1482 -1376 3503 -718 0
-3951 -2654 4782 527 434 0
3817 2295 3048 4783 -552 0
-4257 -3664 -4408 3713 0
-2516 2320 -2724 -4828 0
-4820 1344 4771 1018 0
2890 -3240 4603 114 0
-4109 2877 -1677 918 0
1946 -1087 1861 -2197 1968 0
-1259 -1120 3546 -1463 0
2867 3878 -1558 4473 0
454 -3798 -3970 -2985 -1983 0
2120 -1681 -1399 -604 0
3800 -1353 -2222 -139 0
-1348 1276 -1139 2706 -3340 -641 0
-4022 -4453 3495 -2375 -3260 -3017 0
-2487 -405 -693 -2098 0
-1397 -4667 -3325 -2588 4920 -1350 0
-4709 610 4114 4230 -3701 351 0
-1429 -549 4222 -2708 -4054 0
-734 3434 1775 -4438 -3374 0
-2858 -1522 -29 1081 4332 0
-1390 -46 -1090 -1073 -132 0
2160 3626 -1082 -4402 0
4541 -3686 4511 -1217 0
1059 -3212 -4597 3194 3329 -469 0
4134 -2749 3407 -985 0
168 -660 -1948 -1573 1215 0
-2632 -1498 -1484 -2538 0
-4647 -4712 4017 -4593 -2170 3078 0
1466 3752 2317 -694 0
-4051 -4954 3177 -2904 0
-2581 3799 2767 4379 -4769 -2043 0
668 1545 -2759 1086 -1945 0
788 2569 -1964 229 -3362 2348 0
-1858 4030 -1815 3971 -2757 0
4041 510 1861 1731 0
3963 -2348 -4912 4192 -4928 0
1095 -4679 -3559 1267 -581 -3503 0
3653 769 4194 3874 -2882 -762 0
-3630 362 3178 -831 0
-4719 -3594 -3411 439 -86 0
-177 1890 -3832 -2465 4002 3161 0
2688 -3446 4850 -695 0
-1828 -3337 -1452 660 -577 -2517 0
-4994 3893 -3297 4535 -4605 0
-2689 2933 1432 -2382 3570 0
-1871 -2417 2382 -2599 1000 3124 0
43 2965 -1434 3543 0
3821 3757 3734 -4415 -4192 -834 0
-1003 1094 2979 1617 0
4587 -1269 2519 29 0
-1645 -2539 449 -2690 -559 2030 0
4465 -332 -1387 4408 1019 3244 0
-767 -4423 -22 -4103 0
-3607 -1377 -1323 -1318 0
2535 2490 176 -4841 0
-4890 3371 4027 3481 0
1649 3234 -2349 1473 -3427 0
-3016 2735 -1200 1356 3557 -2036 0
1723 -76 -4277 -4316 0
4798 1755 1304 -363 -575 0
-185 -2736 -1266 -2209 3346 0
-3501 546 -1626 -1899 -1313 0
-1811 -623 2048 4522 -300 -2646 0
230 1006 3582 2046 0
-4013 380 -2047 4448 3829 0
1369 -1151 2058 3332 0
3990 2147 -3311 -3509 4413 1322 0
1399 693 -351 -3454 0
-2078 -2445 -4773 2910 1104 0
-3062 -1091 2230 2644 0
1242 2351 -2915 -135 -2805 4295 0
970 1590 -1387 3157 0
660 2138 2734 921 -3108 3944 0
1868 -4872 771 306 2627 0
-2265 3275 -3778 4737 1667 0
4278 825 -402 4795 3548 3610 0
775 4617 4711 532 0
-3832 3688 3108 -4204 -3916 0
722 3876 29 -3231 -4366 -472 0
1711 -4835 -1215 3657 2878 -713 0
2892 -1258 -4031 1680 3505 2585 0
-597 -2526 3255 -3863 -651 0
-4372 2793 1620 -2779 -3500 0
-42 2255 -4026 -105 3310 4190 0
-4232 4313 4444 -4867 4147 0
4043 323 1137 3935 -4963 -2586 0
1663 1658 -2335 -2826 0
658 1184 1294 2656 0
569 3735 710 -119 -1899 2544 0
617 4522 3939 2052 -4254 0
-3158 912 -391 1761 4769 0
4649 2828 2676 1591 0
4712 -2319 3606 49 3631 -424 0
4817 1381 -4220 2720 -3396 0
-2024 -2501 -2180 -2934 -4996 0
-4535 3601 2733 1706 368 0
-4031 611 4181 3859 3907 2972 0
609 -721 -3820 4836 -2758 0
-4484 -3436 -111 4703 -4760 0
-4001 -4028 -2315 2347 0
3513 -3420 3658 -2055 -2370 0
1391 4458 110 -2465 -2729 3084 0
4563 -2274 4661 -4200 -4 -3072 0
3100 -4081 -2953 3828 0
2140 -1493 2987 -476 0
2550 -3707 -1907 -1327 0
-4848 -1280 -1324 2970 1238 0
-2770 -1368 -4204 -3227 0
4058 -2434 -840 2534 0
3284 997 523 176 -240 0
-2193 1909 -627 981 538 15 0
-4380 1244 -661 2194 -4207 -2508 0
691 1464 80 -4824 -4818 0
-1361 4939 3892 520 0
-3476 3951 -4478 1549 0
2704 2300 -3848 219 52 -2052 0
3140 2519 2919 701 0
-1698 3149 4252 1712 1111 -4207 0
-1105 -4790 -1969 -4478 0
-940 -79 2499 2602 3009 -4291 0
3651 -3681 2779 2724 4189 -1277 0
-4583 704 -4404 -4078 2588 -1303 0
155 -3704 -1645 2522 0
-3853 -4938 3843 -3498 -3160 0
3124 4285 4005 2597 4798 4101 0
-1831 -1090 1379 -943 2409 0
1485 -2997 -376 -3404 2701 0
-2788 -4056 4283 3955 -4912 -4805 0
-1415 -2368 -994 -3429 2675 81 0
-1389 1044 743 353 0
-4343 4038 4555 -3111 0
-3496 4904 3189 -864 0
-116 4088 -3004 -3201 0
-4763 1887 -3902 -230 0
-4742 2336 -1579 3621 1694 -3696 0
-6 -3391 1166 -1855 256 0
-4780 3567 -851 -379 1709 -388 0
-830 -2709 -4001 -3656 -3305 0
-2120 35 1877 -3080 0
1657 -1808 -1300 -2614 -331 0
-3997 1964 3551 3479 -907 2105 0
-3835 3282 4601 -375 -632 0
2466 2250 3788 -4064 0
-2141 -1971 -1847 1054 0
2668 4996 2542 93 -4897 0
-2951 979 -4212 1291 1053 -3231 0
-3140 3830 -314 -2904 1936 0
3840 -2543 422 2650 0
-4047 4786 -2138 -1770 0
-2785 -4717 4294 -4424 2536 4496 0
-4914 -1715 2219 -2727 0
3746 1529 4274 1017 0
-4158 3191 2900 2559 4565 -4013 0
-3517 -2449 3763 -3580 2527 0
-3317 88 -292 4594 0
-1958 2070 -593 -2151 3670 1490 0
3531 3303 -4372 1910 153 0
2282 2324 -3376 -524 128 587 0
2162 -1396 3180 4114 2837 2958 0
4768 -1867 99 -3621 1624 -1239 0
-2166 -3245 -4346 3051 0
-2200 -1547 2760 -155 0
4712 3546 1397 -2467 1711 0
3045 3892 -1224 3517 0
-2895 -10 -1832 4084 -2215 0
-962 647 811 -2720 -4526 0
357 -87 -1140 -1355 -744 0
-4864 4321 4570 -1638 1326 0
-286 -2380 1277 -2010 -1072 -1637 0
4865 1457 1055 -4797 -340 -3183 0
-4231 -4127 -4757 -632 0
-4227 2880 27 325 -4733 0
4600 3810 -3742 -4029 0
1084 -837 1763 2987 0
3487 -2273 -640 1590 0
-2997 524 -559 -2994 -3077 -1693 0
947 181 -4941 -4825 0
-3693 178 -3947 -4477 1054 0
-1001 1885 2128 4879 -2404 2234 0
3958 4232 1557 1172 0
-239 4602 -617 417 4138 0
793 2380 -163 4640 0
-3182 -2661 -3772 -4902 0
-567 -116 4625 -2796 0
3927 -1320 3463 857 0
911 -2986 -572 -2243 -2720 0
2611 888 -504 -1414 -1372 0
-2259 -1696 758 -1979 0
4556 34 -783 1824 3721 0
-1028 1328 -829 -1805 -2728 4245 0
-4951 1470 3736 4078 -1091 3419 0
-1835 1513 1480 -1757 0
4179 -1336 -553 -2089 -3657 -4306 0
-3931 -1382 4752 2635 0
-4504 -605 -1712 4795 1799 1365 0
2353 2890 -3140 -3361 0
1820 4673 -974 453 4389 0
-396 -1661 4834 173 0
-2556 580 306 2247 0
-4248 3021 3907 -2322 2331 -4336 0
852 -153 -2571 2254 0
2505 -309 2400 4509 4155 0
-4376 2490 1885 -3424 0
-339 -3848 4032 -2720 2081 834 0
-738 -2197 -4307 -3962 0
3938 -302 1523 4186 4653 0
-2505 -465 -4079 4590 -1809 1652 0
1954 -3082 -245 -731 2714 4621 0
3617 -108 3950 -3232 -1725 -1210 0
2699 -4359 1819 -4349 -4206 -956 0
4483 1506 -1081 -2228 -706 0
233 -2020 1978 4671 -3362 4883 0
3728 -1797 3939 -4186 2412 0
3180 2659 2222 4284 0
3233 -801 -1182 920 1218 0
503 -436 2280 2965 -472 -4830 0
326 -3138 -3218 3465 0
3291 -1766 -2652 4752 -1139 497 0
2630 2491 2063 -2560 2988 0
4844 -995 2414 3324 -4701 -3736 0
-4579 -1959 381 4379 0
-1935 3865 4873 4604 431 1963 0
-2428 3850 2591 4230 0
-2395 -2501 -2756 -672 -2713 569 0
523 3343 -2052 2867 0
-1737 -1969 327 1340 2120 0
-3654 -2913 2087 -3490 2275 -2121 0
-2686 1844 3583 2529 1876 1984 0
-2267 -2000 -565 -3697 0
-893 -2924 -2892 4402 -3337 0
3099 -249 4111 -2955 1666 -3998 0
1558 -1689 -789 2716 0
182 2544 -733 -3733 0
385 -3179 -873 -2430 0
802 1575 -1888 607 2576 3602 0
-58 4532 -832 -2005 0
2156 -579 3131 2907 -2331 3591 0
-4469 -1619 -3362 -1730 2546 2029 0
-3263 -3802 -3057 -917 -3193 2946 0
-1821 -900 -1617 -2855 0
-1603 -4949 1552 -2417 -2863 0
-1879 -2521 1682 -1131 103 -499 0
-546 3285 -1032 -885 -1432 0
-2350 -3927 -3526 -691 4535 2659 0
232 -1397 1805 3827 1648 0
-1526 2295 -4066 195 -399 3478 0
1606 -4017 -3468 -3181 0
-1543 -3647 3946 -2376 0
4601 973 -1338 -1458 4744 -3293 0
4593 1271 2472 -1432 0
2652 4498 1193 403 -4883 0
-4588 -1853 -4068 946 -467 0
-2373 277 2665 4939 -2377 -2691 0
4795 -2612 49 1797 0
1853 82 356 2499 4071 0
-2564 994 -468 906 0
-2172 -1060 1751 4590 0
1475 -1392 -4589 -4713 0
4876 -474 -3932 4042 1125 0
-1631 493 910 -4803 0
1290 -857 -2100 2916 0
-2358 3766 -3496 -4538 -2128 0
-396 -2356 -414 827 0
-2895 1091 911 1819 0
-4308 3962 -3242 1497 3590 0
3693 1710 3953 -4596 -588 0
836 -3618 1700 890 -3381 0
-4620 -90 -3614 3573 1073 0
-353 3749 580 -3075 4099 -2882 0
-4311 -1851 -1776 -2215 698 0
-2549 1014 1114 1892 -2467 -535 0
-4089 191 -970 -2672 0
-619 4091 -1988 3230 1350 0
-205 -4076 4298 3091 -4795 2948 0
1637 -2035 2041 -2355 0
-333 -4989 -2646 -1399 1007 -4229 0
4455 2044 243 486 3766 -3332 0
1881 -3244 -4846 1057 4946 3628 0
631 4458 3825 -4502 4060 -4542 0
-3577 -2002 766 -2202 4560 0
1867 31 -2596 3970 -825 -1291 0
3395 -4346 262 3053 0
-380 3111 3071 -542 3092 -1357 0
-4116 2186 1691 -3813 1807 0
4157 -312 -1059 -2298 0
-3981 2584 1696 50 0
-386 -2760 -2162 3767 -3174 0
-4678 -2399 -3539 837 0
814 -2987 935 -2403 -2297 0
3647 -3270 7 -3071 -2171 4284 0
-3982 3944 -4585 -2947 2212 3788 0
1820 2706 -1143 4273 4749 -2907 0
1538 1423 2739 947 -3605 0
-114 -4495 2585 -1489 -2660 858 0
174 1238 4907 960 0
-4644 -3293 -889 -1234 0
972 -1737 -2744 -2612 4071 -3833 0
-4474 1476 4557 -1070 3941 4073 0
4270 -131 -4962 -773 0
-2357 -3924 -4522 2640 -513 0
2688 -2198 1525 1358 4540 0
2997 3929 -2329 2827 -179 0
-1967 3127 -592 3309 0
4032 3000 -3678 -1720 2056 0
1657 -717 3696 -1283 -503 0
4582 -3254 -3908 1750 2541 0
4241 249 3695 481 0
3543 -2790 -3195 -4608 0
3671 3636 -2367 -4879 -2316 0
-1493 -3576 -3465 3775 0
-1426 -4971 -932 -4756 1472 0
2826 2562 1312 3034 -2572 0
3405 92 -2490 526 1112 -1637 0
1004 4173 2651 1441 0
-237 2346 -2280 -2013 -815 0
-3769 -2504 -1118 -4758 0
4189 1228 -2952 -915 2110 0
269 -1314 878 627 -1970 0
2294 -388 1168 2103 0
-3591 -4209 -2218 -1022 0
248 3023 1384 4260 -544 -2808 0
-3400 -4508 -4053 -1221 1906 0
711 2128 -4875 1079 0
1524 3806 -3037 804 -4791 0
-3010 -4612 3575 3648 0
-191 -739 -1731 1643 -3633 0
-2329 3659 3712 -3844 4709 -3414 0
3305 -174 -4778 -59 -3216 0
3637 3242 2797 -1649 1336 1093 0
-3732 1133 -4698 612 -713 4510 0
18 -4566 3717 -3905 1398 0
1283 -2585 -244 1222 3581 0
-2653 -2470 1259 3465 0
4812 1533 321 2359 -1541 -51 0
-2929 283 169 -4582 600 3740 0
-952 -1260 -1841 3829 0
4202 1028 -2885 -1944 2124 0
-3139 -2524 -1957 614 0
4515 -4017 -1057 2354 0
-2582 4905 -4042 4852 0
4835 -1607 168 901 -3570 0
-4284 -824 2053 566 0
-2593 4071 -560 -4656 -3959 -3558 0
2795 -1598 2904 4470 -1273 313 0
-1537 929 755 -2029 892 1134 0
4399 -3521 503 3209 1239 0
547 -287 -2956 -1253 2342 0
3650 -1206 -2452 -2273 0
-3692 2201 -4219 3670 -2063 0
-2732 -4490 -2101 4511 -3389 -506 0
555 -2085 -1639 -2925 0
1414 -1448 3389 4338 -4437 -4792 0
-1715 2388 195 4872 116 0
4954 -3358 -742 2541 2680 2315 0
4271 -1403 -3224 -2298 664 0
4028 4411 -1295 4726 522 -4861 0
2307 606 1789 -2197 0
931 4517 -4236 3392 4408 0
4666 -1189 -1283 1722 0
-2250 3309 4803 4200 2098 4652 0
-1466 -4342 3399 -2506 0
3102 -3690 -4974 4716 0
4308 -3547 -4622 -1194 0
-1798 1101 -4690 -4538 -2399 0
320 -3949 -3019 800 0
4559 -909 -3380 -744 0
3523 1266 4889 -3729 0
2884 326 792 2458 -3360 0
3809 -4085 2049 -322 3104 2146 0
277 -2714 1886 764 2929 -4228 0
-356 4112 -2879 -3808 -2947 0
738 -942 3482 -2427 0
-1079 545 378 2149 2012 0
1803 -3203 -4039 442 -4980 0
756 960 -153 -2613 -3603 3590 0
-3422 2102 4060 4098 1185 0
-3898 -1337 351 3148 -728 2335 0
-178 -3663 3781 2415 -1639 4191 0
-2896 -4068 2194 -3233 -1903 -265 0
-4137 -1035 3617 -4025 0
-3607 2411 -4347 1843 -3831 0
-91 -2635 -949 -3813 0
-2471 -2697 3486 -3877 -2736 0
1376 -3084 -1724 1250 4898 3485 0
3821 2802 -3223 2508 0
2199 1828 90 -1903 4018 0
-272 -3468 -2062 -648 -477 0
-180 -1837 -1344 -681 0
3152 2108 -4089 -974 1610 -2510 0
808 -4576 -4809 -750 4131 147 0
-928 -1468 1476 -2747 0
-3411 -4124 -1104 -3537 -4119 0
-653 -845 -1846 -3484 3155 -488 0
-355 3243 -3311 -670 0
3463 2426 2877 -2714 0
-1666 -4374 567 -1148 -4586 4255 0
776 4666 4544 -760 1761 -2655 0
-2696 -481 4522 -2880 0
-562 621 964 1918 -315 0
2228 -3588 -1806 4854 -4052 -731 0
-4537 1044 -3930 -1743 -3253 0
-2380 2610 1335 -3721 -1889 0
517 -3126 3184 3481 -766 0
2825 1476 -4141 -3757 0
970 -1339 1246 -3226 4091 -3736 0
4864 3598 -412 4890 -3144 0
-3587 -265 65 2726 -989 0
975 -1019 47 -34 0
-1047 -646 1346 -4005 0
-2840 142 -3062 740 0
-3811 85 2936 -2940 4836 3024 0
3580 2052 -691 -2534 3839 0
4283 -3744 4133 1912 598 710 0
2959 2161 -2236 -600 0
734 4473 -3231 -45 -506 -2068 0
517 -4992 4890 4091 0
4586 -2941 -3346 3706 2124 611 0
123 -1858 4832 -2509 1324 -1509 0
-566 -93 -1506 4009 0
-4014 -4897 -4065 -51 -188 2371 0
-1504 644 3196 2878 0
-2433 4923 1746 -307 0
1801 895 -1969 541 0
-2805 -2558 -2153 3713 0
-3539 3805 -2087 3993 -2168 0
3749 -582 -2765 -3364 4682 4524 0
-1350 -3281 4411 -3140 0
88 4402 536 1327 2484 2275 0
4191 -2712 -2505 1900 -1971 -2049 0
4394 -1957 1317 -3035 4914 2544 0
4761 3016 148 1009 0
-1052 -856 3639 3057 -1361 0
-1039 718 2158 -3881 -3131 3134 0
2037 -2801 -2955 -2664 -3592 0
4205 2106 -3719 2089 -4756 0
1223 2796 -3413 -1200 0
-4121 -1798 -757 -981 2885 0
543 -1215 -1813 4947 -2480 -2574 0
-3705 2239 3295 329 4136 -2378 0
-2359 -3288 -4197 -847 -4442 0
-2621 -4006 -1173 -2723 1412 0
-883 766 -2224 54 3924 0
-2724 1517 4441 3102 2200 0
2754 -2221 -1246 -1743 -3936 0
-282 -4335 4759 4357 0
-3472 -4763 -1228 -1324 0
-2545 522 -3144 51 0
-1679 -4327 1665 1769 1519 0
1872 -4823 -4617 651 -4666 0
2087 2215 -3948 -1479 -4269 -3816 0
-4835 2110 -1373 4965 0
2986 -1187 4439 -444 -340 -2161 0
3004 -2132 -2947 -2351 0
108 2656 -3124 -3769 -4774 -2510 0
2576 -2442 -4456 -1895 -61 3737 0
-3282 3799 984 3944 -2170 0
3911 3426 1311 -3481 -1085 0
-3050 3914 -344 3185 0
3846 274 -893 -505 0
-960 -775 -2040 1740 4824 4326 0
3210 -3463 -797 316 -244 3005 0
-674 -4975 4754 2665 -2641 2438 0
-4168 -1930 4941 -3331 -2205 -4630 0
583 1001 1967 4149 0
-624 2656 856 -208 -66 1786 0
-4236 -3889 1714 2952 2785 0
2260 2251 4677 -2679 -4491 -1643 0
4936 -2338 1729 2696 4060 0
3312 4956 218 -1142 0
2979 2562 4311 3812 -4129 0
4473 -858 3835 -2146 872 0
1871 2817 4039 -3384 -2190 -508 0
-406 -2953 -1065 2590 1727 -645 0
2913 1643 -1381 4073 0
3316 -1194 -2721 -1736 3313 -2482 0
763 2961 3600 3729 0
3913 -1163 -69 1214 -4719 0
1509 -4404 -3758 3751 3897 -1331 0
4590 4323 3655 -656 0
1052 -4686 -1820 2513 -85 -939 0
-3508 -2171 2055 840 -2068 0
4560 906 905 -3357 -503 3517 0
-1625 202 -4745 -3410 -1848 -4681 0
-4755 -3710 3532 3745 2851 0
-3396 -2162 1573 4577 -4558 0
-2656 -981 2427 -4799 0
2479 2455 -2553 1918 0
-1572 1020 -3141 -549 -4737 0
2232 3662 -1948 3638 0
-1187 -1437 1493 -3949 0
-2675 4705 2873 174 -1055 0
2930 3067 -3200 -2797 0
3270 4130 3708 -4705 68 -4796 0
-228 2251 74 3504 -4789 0
-4642 213 508 1090 0
1174 9 -2701 2865 0
4468 1636 -3303 1904 4574 -1886 0
3211 -2724 -2545 -2524 1794 0
-1700 441 3343 1395 -4084 0
4485 4958 4032 -4621 -1686 4045 0
-1400 38 -1813 2510 0
-3490 -1611 -4767 -521 -2745 0
-4277 -3420 -3197 -1590 -3180 4055 0
-22 -4220 4068 3822 0
-3125 2456 -2314 4394 -1447 727 0
1031 -249 456 1329 817 0
-3426 4509 1344 -710 3362 3507 0
3914 4659 3070 -1846 0
148 -4039 119 -1966 0
-1252 -4968 1644 -322 0
-774 -3658 -4454 -1728 -807 -3262 0
2239 836 3029 -4155 0
-3148 -1364 -3043 -593 2930 -2837 0
2383 3507 3213 -4614 0
3495 2414 59 677 -4686 -1779 0
3387 953 2154 3456 0
-2921 2736 2786 -2737 0
-1269 -2789 3840 -787 0
3002 -1741 -209 546 -1007 3501 0
-2134 2537 -3427 -3107 0
841 4295 -2807 823 512 0
4903 538 -599 -1351 0
-1734 -3723 -4539 2337 0
2644 -1069 -717 4349 0
-666 -3215 -2293 3775 0
1691 4852 3247 -124 0
-4222 4753 -669 3808 -2833 0
-3899 1052 4315 2833 0
127 1114 590 -3404 0
1157 -4243 580 -1982 387 0
3626 -4166 709 -4848 -2856 0
2820 -1360 -2471 4857 -4391 -1417 0
1321 -1227 1137 2096 0
-2808 3191 4343 2423 -4157 0
2637 4718 3128 -4042 0
2162 -4671 445 -588 189 0
-2277 -4294 1388 -3315 -3481 4450 0
3841 -2782 3651 2605 1837 0
-2052 2473 3808 -2466 0
-168 -3769 -480 -3322 -1794 -787 0
-3819 4438 -3685 3107 589 0
-2069 3789 -3692 256 -3782 199 0
3733 -368 -4481 546 2868 1080 0
-1534 3277 3290 -3311 3560 3194 0
-3133 4098 -580 4092 1359 3342 0
402 -1814 4102 -1659 -949 751 0
-1059 2781 4635 -2759 4713 0
640 1735 3003 231 1897 3843 0
-1780 -3158 -703 2582 1000 0
-4906 -995 4306 -1824 0
-2603 255 -1074 -4218 -1460 0
-150 -2530 4400 2461 -1264 0
-112 -4614 1137 -2407 -643 3816 0
4375 -3334 -3898 -3946 -1300 -1158 0
3603 -3318 -3260 -2503 -2204 -1774 0
347 4690 -2221 884 0
-527 -4465 -1112 1851 0
-4153 1601 1668 -3024 -3192 -1362 0
-4677 868 -4215 -1606 -3446 -1347 0
-2370 -4468 -2274 -698 -3516 0
4439 -3373 -1640 -997 2366 1867 0
2699 -3296 2449 -750 3433 0
-4265 -1162 -4046 -3 0
2130 535 -4165 2605 -999 0
-3102 -3881 3169 401 -1776 0
-2572 -3435 -3639 3399 2855 0
3976 -4936 -3886 2293 1756 0
74 -3617 -4153 4551 3114 -1857 0
-3701 159 4921 -4760 3160 1252 0
-366 -44 4993 2515 0
1487 -395 1890 -2528 -297 0
-3179 -2543 4962 -3897 -3751 2656 0
-450 3359 2484 4879 0
63 4479 4129 3106 0
3886 -4329 3027 -4631 -617 0
543 -1456 425 -4620 0
-332 -4096 -1496 2784 0
-1979 1782 2955 3269 -3226 0
-3586 -2883 -3986 1121 0
-3022 -1220 1397 4271 -3796 -592 0
-41 2992 1576 -4492 -1113 0
3091 -4918 -1406 -4135 0
-545 -1015 4547 -3473 2667 0
4257 -621 3051 3511 -4051 -4351 0
1000 -2730 663 -1287 0
-928 -3116 4049 3156 4760 0
1833 2319 -4161 -1812 -1679 0
-4242 3798 -1896 -2468 3832 -1730 0
-503 -2966 1643 1847 3349 0
4819 -1358 4622 1472 4845 3243 0
-3772 1744 2962 -1392 0
-303 -4400 -44 -2036 -1449 0
-3271 585 783 1444 0
2281 -85 241 -1599 0
2082 2150 -2299 -1054 0
2596 4772 4391 -3040 513 0
4368 -1233 2882 465 -2559 0
4083 -4560 994 1241 73 1829 0
-476 458 4022 2565 -4150 2893 0
2374 -385 -4774 -3259 -1458 0
4972 942 -283 -908 0
-741 -4210 -1946 2746 0
3332 1259 1273 -2498 0
-1077 4270 614 1346 0
3866 3122 1268 3397 0
-4645 -3819 -3570 -4236 0
2048 3034 -2280 2686 -3776 -953 0
-195 2976 -661 1172 0
-2002 -167 3861 2775 0
1459 4279 -4542 793 0
3383 -2092 -3736 785 2636 0
4944 -1818 -1652 -3699 4392 1434 0
-3933 -4316 3245 1466 0
4548 -2014 -4861 -2043 3878 3318 0
495 -2410 1576 1793 -874 3761 0
-259 247 -3310 -4153 0
3500 -413 4905 -3465 0
3984 3284 -2430 -941 -2091 0
3699 -657 4110 -1960 4188 0
3844 -2535 -2721 -2487 698 0
-4604 -3180 -2948 576 -3898 1906 0
-3067 3661 -4503 -3635 1462 0
4139 2973 -2532 4510 0
381 1420 -3644 2944 2831 1447 0
-809 -1835 4 1882 570 0
2478 -2034 2676 -1594 -3161 0
244 -228 740 4652 -4494 0
1102 -586 -4584 -4768 -4747 0
1311 4892 -4553 -1135 0
2518 2701 -2917 -1890 0
-4584 4874 -4274 3962 -444 -2491 0
1572 -3279 4265 -695 0
2568 2973 763 -1182 -1809 -220 0
-4935 -3771 -3866 2500 4363 -2457 0
-292 4960 3144 429 -1727 0
-624 3544 598 4474 3835 406 0
403 -546 406 4148 692 -4818 0
4256 3943 -2505 -130 0
-284 2341 2995 -1160 -513 0
3530 2212 1388 1204 3221 0
2843 14 88 157 -40 2289 0
-713 2539 -4395 -2949 0
-1531 2535 2443 1964 0
1426 409 3354 -1192 0
3178 3216 -178 3397 -399 0
-3907 -277 -1245 4588 0
-237 -3012 124 430 0
341 -3761 -4927 -1391 -2582 0
-1280 -167 899 -1952 -3563 3234 0
825 796 -1401 -2942 -2142 -1238 0
2467 -2817 3333 4322 -1323 2405 0
3764 2674 1121 1434 3223 0
-4352 -2999 -283 -711 0
-4883 2918 -2261 147 2860 0
-537 3751 85 908 0
-3540 2330 3065 825 0
295 -395 -1804 2550 0
1987 3667 -2678 -4976 -4768 -2690 0
3028 3220 359 -2018 -2586 4679 0
-3547 3112 -1819 -3361 2258 0
-3186 3106 -3469 -2769 -4254 75 0
2609 3078 4699 4950 -813 -1930 0
-3144 4450 -3776 -1710 -3819 2945 0
-3140 -2699 -1272 625 4957 4512 0
-3505 4610 2911 2906 2829 -1965 0
4726 3993 -4330 -385 3040 -4800 0
-1218 -1708 -4986 -1703 -4818 3602 0
-4037 3120 -3656 3387 -171 -1463 0
-3892 -3293 2957 574 -1320 4679 0
1770 -4822 -4739 -2935 0
3123 3596 -2072 194 528 -3027 0
2084 -1805 -359 -2283 3467 2237 0
-4893 9 3333 967 -2129 0
2097 -2150 4499 -2404 439 -1168 0
-220 -669 3145 1794 -3079 -3763 0
77 4055 3895 2922 4977 -991 0
-4146 1207 -1607 855 -1408 0
4077 -4876 -2411 2772 -1708 2785 0
4552 842 -4082 1087 0
-4187 3605 -4449 -1151 -2056 -4265 0
2702 -3458 -2974 -3857 -2060 2187 0
3101 -4356 4545 -2042 0
467 530 -3447 -2824 -3091 0
4425 -3787 1704 4211 2824 0
4932 -4242 979 -1999 0
2517 -4296 2824 -1023 -3799 0
-4508 -4643 -3938 1611 -3124 0
-1437 3302 -3151 -3231 0
-2991 -3127 3117 4728 2541 4902 0
1091 -2083 -65 -673 0
2190 4604 289 -373 -1646 206 0
3556 3664 -918 -3393 -2832 0
-2052 690 1231 -3751 0
4869 -176 1302 4937 4902 0
-800 -3010 1961 4780 381 -3029 0
326 -2912 1103 498 0
-2944 1494 4203 -3393 856 -2351 0
-4702 -1404 3086 3621 -1388 0
-885 3297 -4335 1862 1348 0
976 -178 -3310 2646 -1835 0
1215 1428 -4615 24 -4037 -765 0
1801 -861 -2947 -2066 -46 1628 0
-3310 781 -2964 502 0
1228 -4379 -1783 2290 -1229 1136 0
352 -3357 -1904 -1026 -4888 -4542 0
4869 3122 -1251 -3939 0
4240 786 -1790 2525 3589 0
4355 369 3631 -264 -2713 0
4759 4118 -2480 4697 0
-1994 -629 1686 1220 0
-1260 -4049 -2177 -2661 -4270 0
-1541 2059 -3742 2343 4610 3004 0
-4024 -2236 -854 4085 2401 0
4830 -368 -1781 4891 0
-989 4595 -3070 4222 -1995 -3430 0
4484 3851 -4184 -781 -4629 -784 0
-1398 -2002 -4834 611 0
4770 25 -4700 2054 3661 0
-3488 385 1785 761 -151 0
-488 4502 -3215 -4235 -2861 0
-796 3223 3792 716 0
-1132 -876 2054 3200 1889 3841 0
325 -1987 1659 -4503 -3207 0
-4211 -1670 4015 772 1853 0
-3526 -3933 403 2454 -4022 0
-950 -1006 829 -854 -2407 3035 0
-928 -2908 -4927 -3851 0
2003 4994 4027 -3823 0
2911 4020 -95 103 -2460 0
2320 1429 -1342 382 -4879 3562 0
-2838 1385 -3734 -2662 2047 0
1153 -1637 1003 -415 1386 -2816 0
-369 2291 175 108 2121 0
-1803 426 -1889 -3639 0
-4496 -1650 -2512 750 0
1418 2531 -1896 -2481 2532 -474 0
4585 3495 2207 2108 -1285 -2399 0
740 -3430 -4366 474 -1296 0
4979 778 -3650 -4005 0
1551 -90 4402 820 0
252 959 1317 2173 -4592 2965 0
-3060 -3620 2022 -3659 2935 -3709 0
-677 2422 3880 3307 0
-4002 2865 1949 2153 0
3534 4626 3958 -1795 0
-4084 -3888 -1069 2451 -1386 0
-4776 -3585 -1303 3708 0
-4587 -4370 3540 3825 0
3646 1061 4087 -3331 1626 0
1103 -1748 -587 2674 -1013 0
902 -842 1781 -3896 0
-2661 -4574 4858 4287 1752 0
579 3069 4586 2443 -3005 -3736 0
1868 -3959 1872 -2716 -1033 0
-98 3865 4725 2833 -4828 -1139 0
-4518 2753 -4297 -120 2561 4750 0
-1377 -2615 4065 2820 -1205 -100 0
-449 1782 4467 -222 -3166 1450 0
-3090 4603 2620 2405 3337 0
-1452 1693 3948 -148 -4400 0
-2577 -1040 -3608 -3165 4074 4626 0
-778 2677 4418 280 3338 -2211 0
-4574 -962 -2831 -3757 0
-3132 4738 -4887 -3936 0
2458 -4424 -1926 913 0
3003 3282 -1314 3603 -2149 3697 0
1456 4964 2716 -2644 -4674 0
-395 460 -1300 3883 671 -2824 0
-1265 -1608 -972 4095 0
-4623 1308 1167 -2207 -770 0
-221 771 -1909 4840 -1583 -523 0
-847 -4270 -4495 -4366 2067 0
2038 3774 -2001 -1636 -4306 -973 0
-4387 2418 3771 -3066 0
898 1423 509 1589 170 0
2556 -3948 3448 -3 -1669 0
955 3327 2763 -3035 0
-4456 2370 4858 2714 3583 0
3565 3152 -4273 2783 -4329 -527 0
3234 -4094 4121 348 2844 0
3737 -236 -359 -522 -4752 0
1688 -1068 1071 1371 -1524 0
-859 -780 2362 3074 0
4963 26 -4062 379 0
1794 1902 2301 472 0
3292 1406 1885 -3390 -3945 -3126 0
-1509 -3713 -4376 1626 -355 3558 0
-3207 1784 -4629 -3225 -1178 0
-2101 -3235 4101 1097 2077 0
680 1762 -961 4299 4458 -1938 0
4954 2376 2238 873 -2102 3050 0
544 -4690 1052 4531 4957 4283 0
249 536 3046 3875 -3210 0
793 3460 -4415 -1589 4508 3935 0
3563 -3033 -2285 -4075 3479 0
-2642 -4142 4507 -569 -2739 0
-3361 -860 -282 -1357 1119 0
-809 2615 -3463 -621 -1093 0
299 -2207 -1945 -4455 785 -2284 0
-2244 4538 -2590 -1338 -4119 -57 0
388 -1035 -2055 3806 169 0
4976 2146 3167 3433 -1277 0
-2503 -2208 4164 2014 4326 0
-3001 -2906 -4629 4448 0
-4852 1560 2575 2993 -1362 0
1266 2001 -1465 1098 4450 0
3242 1056 -4719 -78 3150 0
1805 3223 296 2857 -4425 -2461 0
2672 -4745 -2579 -430 0
2333 -2375 4638 4172 -4956 517 0
-2998 2967 3761 670 -667 -4313 0
4238 -3167 -1921 -393 0
-3232 3052 -4140 517 -3911 0
2108 3527 2214 707 -3401 0
4004 917 3056 -1280 0
1983 -2849 65 -1347 0
2364 1756 3308 -46 0
1350 -1630 3418 1607 0
-366 29 114 1207 4269 -2798 0
1574 -4319 4253 -2694 -344 3869 0
2940 -981 3489 -1459 -4894 -3900 0
2417 3945 392 -1296 -2678 2962 0
-2604 -1327 4351 -4356 0
-4738 -2108 -1459 -1525 0
3309 3553 1342 1256 -394 -3005 0
-1988 2031 34 4304 0
-1038 -4275 -857 -4604 0
-3421 3261 -261 333 0
3850 -1907 4661 -2042 -1236 0
-2071 3944 369 1256 2299 0
-3123 29 -2316 -1637 -598 4627 0
2292 3082 -153 -1415 0
-4881 1191 -1901 -2907 -3597 0
1920 1424 4455 2263 -4578 -1584 0
-754 -1476 -4346 -4787 0
404 -1520 -347 -49 0
3923 1087 -853 223 1158 0
3174 -78 -2571 4296 3621 0
-4934 4372 -85 -226 240 -1391 0
858 -663 -4924 4715 176 -3749 0
-2838 392 850 3636 2379 2839 0
3690 -2563 2624 -1371 0
-1844 622 -273 2198 3239 2566 0
475 1860 -4151 -824 -1403 0
2231 -526 -2239 -2252 -3088 -3371 0
-3388 195 2227 -1432 2569 0
263 -644 -2926 960 0
3752 -4001 1106 194 -3851 0
-3395 -1260 -4104 4729 2505 0
-3311 4555 1467 -1206 0
-2480 585 834 -2952 0
3902 3566 -4653 1712 0
-2102 37 1085 -889 0
-2902 2353 4909 -1979 0
2363 -1660 4721 -2076 0
-1682 4110 -2233 998 -2405 0
4306 -3863 754 3266 0
-39 2811 4024 4051 0
4383 -4605 -4494 516 1164 -3808 0
-3394 -3870 -620 2609 0
3523 -3766 -628 -353 4341 -1638 0
2551 81 -2422 1782 -4862 0
672 3126 -4394 782 -4823 0
1874 -1420 -1764 4047 0
-1386 3575 1784 -2630 473 -3909 0
-1229 -3391 -1058 4168 0
379 -471 -1594 1882 0
2695 -718 -1597 -606 2870 0
-2619 -3503 -4669 -883 -4686 0
4546 3659 -324 -642 2275 0
-3333 4650 -1090 1799 0
-4061 4332 1442 1399 -4997 0
3406 898 4095 -1799 -611 0
-918 -158 1984 2349 2521 -3390 0
848 -2398 -4760 -2717 0
-3796 2569 -439 -3340 -623 0
-212 2134 -2502 1110 -4323 -706 0
3264 2335 -2923 3736 0
-1375 1795 -1290 -1929 -1040 0
-2964 -2291 -725 4366 1224 -435 0
-1110 4697 -1959 -1593 4466 0
-3353 -294 -2221 -4876 -1206 0
-3702 1050 -4915 4400 27 -4250 0
3372 2185 -1503 2308 -3678 0
2244 2497 -4244 -4038 0
-727 -3997 3868 -3157 3824 0
-4972 -3763 4583 1297 2621 2058 0
-3259 4924 -4878 -3787 -2932 -3576 0
-362 1488 -4818 2760 -1312 -1678 0
-4231 2538 -1923 -2921 -4053 1214 0
-3303 -2160 -2375 520 0
4389 3641 902 -644 -281 578 0
3038 2081 -957 2324 1916 0
77 3524 -4705 -2346 1496 764 0
700 -121 -4647 -1638 4195 -36 0
4071 -2202 706 -946 -4784 0
-2302 -538 -2721 -2600 2813 0
-4471 -2910 3046 -449 -2875 -1420 0
2119 3579 1869 -194 3285 0
3789 2270 -240 2383 0
3137 4952 2492 1026 0
-282 -1732 744 488 0
-4846 3530 -1268 -2033 -3677 0
-1230 -320 2924 -2076 0
-465 186 1637 -2299 3232 -2628 0
2563 -4562 -3375 -1427 0
-2001 3002 -4741 4707 -2119 2256 0
3289 -381 -4288 1864 0
-2624 4851 -1659 478 0
1343 615 -2363 4741 0
2420 353 2376 4032 -1889 -4987 0
2834 2878 1701 -1447 0
-3857 3232 2092 -3962 0
-696 3221 -1180 -3385 -4276 -565 0
4708 1459 -4194 3599 0
3227 2466 4773 -1324 -841 -294 0
732 4999 1510 -4030 0
3784 891 3293 -1251 1502 0
-3152 -3942 -2146 -4814 -1552 0
123 3093 1782 -4857 4813 0
-2711 3305 -3717 2214 3119 1615 0
2369 -3912 717 4164 3782 0
-3146 -2781 774 2840 -1621 -4729 0
2304 2858 1372 1510 -4966 0
4576 184 -4426 1264 -2381 -65 0
-2491 2915 -3365 -3502 2525 0
2144 -376 3639 -2582 2156 -3497 0
783 -1117 1710 4158 0
1821 -2815 -2045 -3745 0
-319 -1070 4446 -4236 2229 0
2459 -3256 3492 4491 -2318 0
3428 2621 -1575 -1699 -2229 0
-4179 -4096 -4776 3753 0
-2823 3169 -2790 -2358 0
4362 4003 3083 1115 -4862 0
-953 -1491 116 1697 -2131 0
-2675 633 4570 1039 0
-2513 989 4928 2511 1501 0
3431 2321 -3689 -3219 0
-3157 -4843 1630 -3838 0
1142 2862 -4044 -342 0
1257 -3869 -4247 301 0
-3245 -3002 6 2117 0
-2003 3761 -2123 1937 0
-4319 -660 348 2694 0
924 1269 -1199 2828 4632 4529 0
-110 154 4811 -3810 3001 -3004 0
-740 4536 1224 -4599 0
2384 2256 -1230 4188 0
-2111 2190 -4585 -489 -1720 -309 0
1190 2145 -1668 -2932 0
818 -4447 3819 -2063 -3001 3969 0
-1733 -1458 -1553 -893 1420 -4106 0
-4190 978 1049 838 -1867 3420 0
3429 -2320 2836 2353 0
-767 -4518 3085 -1547 3141 0
2898 2222 4175 -1415 -334 0
-688 -3343 4048 -4562 3314 0
4553 788 -4290 3106 -211 0
-2584 -819 1313 4835 0
-3779 -594 407 385 3505 0
-1131 -4671 3379 -4733 -1921 3919 0
4042 1345 -3813 -2181 0
3395 -2828 -124 -51 -2214 0
-2187 -4358 -4623 -329 153 -2512 0
3063 700 -3104 1218 2375 -3102 0
-1271 781 2542 -1674 284 -2070 0
87 1261 4614 2544 -3097 0
-675 4992 4266 -4898 -1812 0
-2286 994 4593 2384 -302 0
-1180 -4939 -4835 511 3135 -707 0
4646 -3599 2484 -4001 1078 0
-3892 4195 -2967 -1675 -1943 0
3196 -36 1347 -2942 0
704 4905 1009 -3412 -4367 3255 0
-1845 2321 -792 -1954 1369 0
-175 -3820 3198 -1589 -1973 -3312 0
-4382 -1131 3649 2723 -109 3752 0
-1032 1374 -388 2268 1122 0
-376 -4366 2614 3944 0
3727 3213 -1538 -1973 59 0
4591 -4016 859 1589 0
2957 2356 3267 1505 0
-4302 1473 3305 -3641 0
2 4760 3263 737 0
-2924 4054 1075 -3785 -1873 3591 0
2682 2179 4672 -1965 3050 114 0
3738 415 -2049 -193 -416 0
-4927 -90 2526 -1833 1697 481 0
2409 -1264 -4011 -573 -1305 0
265 -1781 2788 3937 -4982 0
-3865 -642 2858 -3895 0
873 2508 -3908 2751 4084 3192 0
4478 -2308 -1069 2196 907 0
295 2494 1221 2943 2498 0
-2253 -3892 3165 4444 -4743 0
2253 -2678 665 -2318 3967 -2615 0
3167 4826 -4104 -2109 0
-2942 -1633 2653 -1072 1702 149 0
4797 -2495 124 4948 -1527 0
1027 1350 3629 4757 0
-3640 -3442 1148 1989 0
-3019 -3298 1419 1047 2517 441 0
-427 -3541 -2698 -180 -631 0
-4029 -4736 4125 -3203 2018 -2223 0
3096 3765 -2188 -3383 -2916 4795 0
-246 -4657 1551 2530 0
-1403 2257 -3652 302 -2248 0
-2096 761 -4226 -966 -1001 0
-3073 -1179 1059 -4633 0
4967 -4457 3403 581 0
-1910 -346 643 -2477 130 -2236 0
-1669 3182 4478 -1316 0
-2968 3752 2987 -3341 2641 0
-2684 2267 4500 4429 -4767 0
4903 1757 117 -2985 -3306 -129 0
2188 -2864 -290 4166 0
4872 4520 -4457 -4744 0
-337 -2397 2574 -1632 -1436 0
-1563 -4562 -3796 -2610 -4776 -1734 0
-277 2241 3427 -4949 -3224 -3203 0
605 -4311 2757 -2536 -4705 0
-812 -1057 2239 3017 0
-4595 -1886 4517 -952 0
-2274 524 -2413 3200 0
-2293 889 -2449 4843 0
-4390 -1630 -2097 1498 826 -1697 0
4688 1619 2210 3023 283 0
-3863 1972 -4103 3651 -4490 -3040 0
-4195 -534 -1498 1418 0
-4729 2387 4210 881 -3200 -862 0
-3231 703 -4057 -2108 0
-1266 3676 4506 -3437 0
265 2917 608 -4116 285 4965 0
2129 2583 -2777 3383 -492 0
-3051 -3099 2107 -4353 0
2533 -3898 -1039 -3958 -1684 0
2156 -3095 -908 4352 1881 -3446 0
-4912 689 655 3726 0
4677 -2262 -3316 705 3219 0
-3349 -1708 -3711 -2238 -2898 0
-1144 -70 1943 2711 0
-2229 -4976 1118 2500 0
4800 104 -602 724 -4539 0
2036 834 4389 1439 0
157 -2535 1074 3500 1674 2314 0
1866 -3961 -2032 649 -1885 363 0
889 -616 2316 2411 1554 0
-4817 419 4744 3362 -4191 1935 0
3220 3492 1266 -3275 0
4414 -1613 -2753 -3090 1097 0
-528 -4680 1605 1968 0
-4973 3770 -3458 -773 1664 4296 0
-3492 -1042 2911 1033 2081 0
-4172 -3106 104 -2486 -1116 1793 0
578 -1022 2359 -1707 207 0
2267 4492 -306 2252 3451 0
-4448 1463 -4725 -572 -4677 1658 0
3781 -1266 601 -873 4737 0
3758 -3339 -808 3155 -151 0
-2306 3761 -3566 4124 3650 0
964 -1043 1543 671 -635 2223 0
4349 1406 -1845 -3662 3359 -686 0
4191 1442 -2066 2086 -3274 -1117 0
-588 3960 1117 933 1158 1329 0
-256 -3002 -806 2891 -1166 0
943 -2033 -2013 -308 0
-2608 -1727 4526 -2819 3139 1426 0
2862 2743 1678 1194 -3972 0
-2026 -1589 -4844 281 -2213 -1626 0
1358 -1394 1928 3232 -4271 -3468 0
-4331 -1605 -912 -3200 0
3815 662 297 -3769 -2385 0
-1277 1194 2892 4190 0
4781 2855 3040 90 3650 476 0
2720 -3398 677 -4848 4976 0
1906 616 2708 -4521 -3193 2815 0
3770 -4362 3537 2794 -3823 0
-2736 2196 4484 -324 987 0
1112 2357 2181 47 -1489 3245 0
776 284 4122 4645 0
-683 -3660 -4226 201 0
2787 -4604 -3727 -1469 0
-1795 3607 4255 1460 2691 0
-2234 -1255 -4010 3361 -3706 -1812 0
2079 217 3586 4485 1920 69 0
-997 -3255 -1978 4411 -2069 731 0
-3199 -2997 -3598 -1681 -800 0
1452 -2924 1606 -1526 549 -587 0
2253 773 -2171 4904 0
-4204 4693 1490 -4096 0
4003 -1794 -3051 4056 -281 0
3760 -4170 -3775 1589 3393 799 0
1901 3946 948 -4715 -20 -1944 0
4538 -4073 -2249 -3228 2809 0
-4222 -1255 3657 1249 0
1598 3856 -1720 -1999 -2668 0
963 2110 3370 -1913 0
1575 4709 -3197 2954 1836 0
-4107 3328 3273 -3528 3228 0
4696 -1793 3318 3035 0
-4094 -3127 -1264 1033 0
-2430 -4997 -2485 -4503 2267 -3012 0
-4531 306 964 4137 4653 0
4749 -2942 -1492 4472 978 0
3784 -3559 2763 -2084 4731 -855 0
1724 -4780 4485 4258 -586 -1801 0
-3105 909 3317 -1222 -4923 0
-668 -3661 -641 -4587 0
-46 -386 -4864 -497 0
3132 -1901 -1668 -3553 0
-768 4369 2229 3665 -3811 -636 0
-648 -2957 2134 2029 0
-2335 1816 2250 -1129 3187 0
-349 -3282 6 3375 -1258 3441 0
-2591 -2137 1301 4025 -857 -3598 0
-3197 -127 -3890 -2202 2714 0
-4199 3497 587 4782 0
-3468 -4634 96 2951 0
1676 -2968 -3897 1978 -2527 0
1131 -4601 3447 1561 -3649 -1227 0
-30 -2010 1453 4636 0
3941 -1508 -3239 -951 1291 2314 0
-4793 1283 -1173 -4480 2873 0
767 -4871 3600 -1130 0
-4255 -799 999 2537 4713 0
-35 1575 -709 -2252 1191 -1805 0
4382 182 -2566 -3346 1683 498 0
-714 -599 4520 -546 -4358 -1966 0
-3282 -795 2080 -4081 0
584 2203 -402 -947 487 0
-4103 -2887 3568 3788 3312 0
4506 901 -1312 3506 3557 0
1789 3454 4039 -3058 -463 2122 0
1100 4280 632 1510 0
2684 -3128 -4422 -877 -1702 0
3078 -4948 -3712 3009 0
-2236 2767 2658 -4127 0
-746 -3312 -3449 -2439 -781 -779 0
933 -4079 -1157 -2899 1706 2609 0
1228 -3343 4333 926 0
-1691 2641 3171 1981 3531 4161 0
-1580 -235 -976 4025 0
56 2361 -1217 547 2897 1391 0
-1402 907 -156 2452 -2166 0
-1298 986 -2959 4442 -1840 0
-4088 3341 1245 -2328 0
-2022 1326 2730 -2110 1222 3183 0
-59 4770 2239 1491 0
2953 -4942 1556 2504 951 0
186 -3407 -2622 -1757 0
4370 -1652 -983 -3982 0
2743 -1098 3751 3064 -2468 3428 0
4055 -2534 2747 -1543 0
436 4714 4832 -4106 2585 0
3332 3327 -3168 1271 0
-2278 -1097 1299 -1111 -1670 -4238 0
3056 -3668 1243 -4378 0
-1725 -952 -3036 -1106 -2215 0
-2996 -51 2345 -4165 0
249 -2580 -1885 -4374 0
565 -920 3559 4079 0
-583 -3789 -2952 -1879 -3975 -3723 0
4582 -3414 -4564 -845 0
-1676 4405 -2358 -656 0
-4829 -717 -1278 1744 -2376 0
-3890 271 2928 -3409 -4147 -4778 0
4313 -3395 -3240 1503 -3854 -974 0
3759 482 76 -1992 -3752 0
-2391 -3804 -3729 -505 3342 0
-3198 -4412 -2460 3035 0
-1564 1553 -1841 -3570 4171 4301 0
1108 4382 -229 1158 0
967 -2848 -3106 -1538 0
2175 59 2678 3824 0
1775 2831 4427 -857 -279 0
3457 -1782 620 1088 0
2689 -3695 -4015 4957 -4128 0
1226 3570 3979 380 -2458 -3327 0
-3259 3511 2978 -2207 2888 -4718 0
3528 -238 -2844 644 762 3476 0
-3128 -444 -4559 564 0
1949 -1871 -1807 -1227 -1292 0
4494 -1572 -94 -1725 -2397 0
-4932 -3117 -1808 -3856 -3800 0
-132 1626 2284 4717 1284 0
4047 -4664 -4374 4708 2703 0
-4366 -4163 4507 -17 0
1252 3651 3843 -1353 -1467 0
3684 -2092 801 1685 -529 -3390 0
-4495 -1712 3670 3538 -2398 -1952 0
2848 -1322 -4120 -4399 0
-4772 -3528 -4226 -4866 4074 1215 0
-4241 1811 492 2331 0
1199 3816 1002 -768 4792 -959 0
4623 480 -3339 631 0
2889 3351 -1677 -320 4972 -4519 0
-3217 517 -92 -704 -1717 0
3484 1363 -624 -3684 3341 -4016 0
-2134 4584 -2984 -2367 0
-1457 289 -1195 -3554 1400 0
-4412 4189 -691 3545 -4555 618 0
3174 3440 2729 2134 0
-2254 -1093 2222 -1212 2216 0
1380 -1039 1129 -3809 0
-4802 1559 -3068 -4777 260 0
2553 2176 -1235 -4062 1247 0
1688 -3359 4287 3634 -1476 0
589 -4728 -4186 -1791 -851 4259 0
-229 78 4269 -2941 1241 0
3478 1032 3513 1095 0
2077 2727 -4522 609 0
4976 1830 -796 883 599 -389 0
-1583 2864 1950 701 1104 -2476 0
596 -4572 4607 733 0
-2814 -3083 -2282 1200 2920 -3095 0
-702 4705 -4500 4926 0
4943 303 -469 -4445 2902 4795 0
2435 -4604 3307 -3777 -942 0
1033 -516 248 2424 -4457 0
-430 -2101 1773 3569 0
-2866 -2105 4007 -4933 844 0
1708 -1960 -3109 623 -101 -2884 0
3652 1372 1866 481 0
-2977 -3875 2609 -4439 -4238 -4513 0
-3294 -3993 217 2635 -3321 3250 0
-3284 -2571 4423 -4588 -2378 0
-4460 445 4867 -2307 0
-599 2722 4544 1122 -463 2052 0
1128 -4060 4022 -2121 0
-2987 1935 1858 1189 -3026 3904 0
2809 714 2221 3330 -3760 3058 0
3866 -3792 -3846 -4057 0
-4563 -2816 -1175 -3819 -2308 -3287 0
1855 4632 4529 -2580 1868 314 0
-1649 -3935 952 1465 -439 0
-1132 4184 -4313 -1401 0
-4098 4027 -2600 4755 0
1867 -4530 1083 3280 -660 0
-165 831 -1218 -612 -484 -4252 0
-1237 1826 3060 2839 651 -4717 0
-594 -3020 556 -160 1804 -3740 0
-4798 3402 1261 2184 0
877 2230 2387 -1914 1375 0
573 -4970 -119 -752 -4981 0
-3272 -1480 -1761 -4133 -139 0
-705 1479 3783 924 0
-4861 1619 -4571 2257 3320 3165 0
-3648 -2129 636 -788 -1358 0
-1982 4366 495 -4408 -679 0
-3965 -1044 -395 827 3993 4637 0
3878 764 3026 -2980 -206 0
4814 -3733 4859 -3464 -846 0
2564 1070 -3590 3832 -88 0
4434 1102 2577 1502 0
-357 -4292 2416 369 0
-1476 -2580 -2821 -4869 775 -4791 0
1193 2241 -1111 -4985 0
-10 -1432 1571 1606 4678 1550 0
4258 1297 1918 4832 655 0
4661 -3052 736 -4101 2697 0
4191 -1280 -3432 4447 1689 0
4225 1421 -3626 3419 3445 0
3308 1321 1136 2398 -2620 3668 0
-3724 4133 -2496 2505 -2956 0
-4555 -3940 -3952 -2180 0
478 2813 -4195 -2703 3917 4595 0
-1224 4146 2657 4811 -850 1446 0
-997 1525 -2753 2903 4685 0
224 -534 848 -1808 0
1790 3156 3793 825 0
-167 -470 -994 -1144 0
-1992 -2214 -1229 3681 -460 1277 0
1294 -2375 1169 1824 -1831 3154 0
-4407 1778 -4797 1676 -3343 4965 0
871 1911 -2402 4659 942 2996 0
951 -2318 2560 4853 -1112 0
3656 85 -2814 -3714 3198 0
-3272 1177 -4994 -3251 -4515 0
-418 2526 -4232 4462 -1683 0
3880 2573 4541 -1808 4466 0
-672 -2392 -1545 1557 3084 2847 0
-3365 351 -2826 2040 0
2393 -122 -2486 -2737 0
4008 433 2104 1960 0
865 550 2018 2964 -2026 0
-2756 -871 -4464 632 2794 0
4117 3221 4763 -1244 4105 448 0
-4869 -188 1533 -4233 1023 -3149 0
1935 -1161 2923 3677 2949 0
-294 -4503 2341 -1933 0
-801 -2822 4337 1431 0
2297 243 1508 -1091 4819 0
-481 2362 -4373 -681 1019 0
4032 2706 1123 -4381 0
-269 -608 3609 -2186 0
4196 -3857 -3573 697 0
1953 -1929 -2593 2638 -1687 0
-482 636 3920 -1169 -3000 0
-2556 -681 -746 2349 -3501 0
3233 1353 2320 -1356 1317 0
4226 1855 915 2460 2542 0
-919 356 2872 4765 -803 0
-2888 1237 -3780 -3225 -2173 0
1081 1482 403 -1793 -2811 902 0
-4723 -4753 -514 -1427 0
-3029 4408 -3305 -3640 0
1538 -3576 4990 4336 -3573 4911 0
-1742 -273 3276 560 1652 -2720 0
-922 42 -2062 4501 737 -3643 0
920 -78 -2280 3311 3543 2517 0
-3770 3783 -2622 1930 -4755 633 0
-3950 2985 4123 518 4261 0
4828 -1464 579 -3158 2338 0
-3043 2141 1897 4747 516 1768 0
-55 4422 -1552 617 1609 0
541 -2698 126 -3773 0
2056 1249 -2122 620 -4646 0
-2358 -2509 2638 -3083 -3571 1587 0
-2748 -145 -1124 429 0
-4813 3235 -3321 2934 -3540 0
4531 4628 4770 1190 -4697 -3868 0
-2837 -2666 -1194 -477 -2967 0
1554 -3089 3691 4559 -1161 -1463 0
445 1869 3183 -416 1350 1173 0
998 2759 -287 -3002 884 4235 0
-4822 -3177 -1039 -4949 -2677 -1024 0
-2815 -731 -122 3234 -2738 0
3997 -333 -1446 -4802 0
1519 -2751 4715 182 -992 -259 0
-3431 -822 2979 -609 -2891 -33 0
303 1178 2951 4694 -1695 0
4775 -1043 2763 1633 3275 -2050 0
3071 3094 77 -1225 0
3923 2230 2143 -2770 -4430 0
4629 2248 662 -1971 3954 -727 0
1301 -4520 2654 -1291 0
-1958 901 -574 1589 -877 3004 0
-4341 2701 951 -1784 3529 -275 0
4976 2821 407 128 0
-4556 -2708 242 -3967 -1157 -180 0
-1100 -3458 128 -2215 4149 0
2181 3608 1215 4606 -3873 -2098 0
-3751 -994 2729 1683 3889 -1302 0
4003 4702 4706 1087 -669 0
346 3911 -706 -885 -452 -4440 0
3406 197 2520 1227 -1355 -3292 0
3806 -4740 505 4416 -1537 0
-3146 -1486 -3230 -1016 4616 -518 0
-36 2989 -3012 -2243 1507 2358 0
-1516 -523 3985 -3640 0
-195 920 3806 -840 0
-3313 2833 4995 3344 0
4958 206 4417 2904 -3538 -957 0
-552 971 4002 2313 -1521 0
2035 481 4524 2613 0
1824 1854 2262 2172 0
3409 4692 -302 3491 -3754 0
3520 -2747 -1445 4426 0
-2710 -532 648 2388 0
359 2699 -4613 2653 462 0
2301 880 -4268 2462 1659 -2626 0
-2003 -913 405 3298 0
-3720 -3311 3932 4013 2274 0
88 1808 -594 -3179 1083 3596 0
-4713 3598 -4959 -2359 0
2810 -3505 -116 4000 -447 0
1684 3590 685 -3013 -974 2998 0
-1019 4218 4208 4016 -281 0
-575 -2910 4627 125 4282 0
967 4784 228 -2338 0
-3625 423 -2663 845 2715 -639 0
394 -3692 -3824 -3626 0
-1540 1071 3826 1323 -3955 0
-1037 2945 -3072 -167 3121 3932 0
26 1024 -3213 -4076 0
32 -159 -1935 -3811 4188 0
-4550 3314 -1991 3824 1544 -3467 0
-89 1471 -4609 3631 0
1428 760 2756 -1929 0
-2497 4825 2111 -1732 0
-3283 4621 -3492 -1150 -3107 2163 0
1769 2339 -4780 2080 2787 -110 0
2968 -2470 3375 770 0
1417 2486 4424 -1767 0
998 4809 1664 3133 -4763 3799 0
-4496 1059 4178 -385 -2325 0
2355 992 -2756 3808 -3382 0
-2393 -2706 -3720 557 478 -2774 0
-890 3531 -3824 3153 -446 4393 0
2605 1833 959 -2563 1838 -1108 0
2737 -1007 3264 3104 0
-4722 3134 -890 3562 0
439 924 2288 2516 0
1126 -170 -4856 4592 -4703 2226 0
-3714 -4308 4244 2918 0
1208 -1351 -3632 3867 3028 1221 0
-1761 -4666 -348 -4229 0
-199 1831 -4180 -2952 3096 0
3838 -3376 4579 3899 0
-1388 -1315 -420 -4736 -2273 -2089 0
-896 -406 -886 3034 -1796 -4651 0
-1426 1805 1606 -2631 -2822 103 0
3594 2637 -3145 2307 3019 4589 0
1362 -2641 1290 1018 0
2101 -2850 1625 -2745 -1301 1448 0
-2015 2519 -1043 -3701 0
-4467 4560 117 910 -602 0
2364 -1736 -4340 4661 -4087 3701 0
-1893 2439 -3415 1845 4027 0
520 -4705 1543 3427 0
-4666 22 1399 61 3109 2608 0
4542 -750 -3853 -3272 166 0
2158 1931 -3258 4848 4420 -2865 0
-68 -1116 1190 1412 1584 0
876 -3464 2728 -3773 0
2225 608 -4737 -66 -385 0
3641 -4473 -877 -3028 2086 0
-3364 4068 1227 34 -3065 0
4474 2789 -1586 3236 -3491 0
1275 -4499 -2566 -4538 0
-1854 3178 2730 2211 2641 -2214 0
-2815 -1896 590 -2846 3126 -2428 0
-3884 545 3426 657 -1003 -158 0
3460 165 -599 -2380 0
-4077 -758 3408 2699 3000 1418 0
-3055 -1249 1825 2823 0
1467 -1611 -1830 1511 0
-2366 2591 2450 -2408 4473 0
315 3711 4005 4408 -4242 0
-4460 3080 1155 1603 -3559 -693 0
-600 -2142 -3481 679 0
4939 -4175 1872 -2662 2097 -2299 0
-2031 2851 3954 17 -1671 805 0
3943 1450 2201 3924 0
3293 1410 1978 4466 4918 0
4464 -2421 -4253 -3551 -2695 0
-4092 3643 496 -4918 1198 -385 0
538 1617 -3853 3897 -2779 0
974 2510 -4544 -4182 0
-4318 936 4586 -1631 3436 0
894 2203 -566 -264 -1704 0
-4529 4691 -4975 -3681 1349 0
-3800 1529 233 -3561 0
3904 -3527 2990 14 -415 238 0
3477 2244 2910 -4839 0
-171 -2704 -829 1705 0
-629 -2255 4523 638 0
1114 -2922 4659 -3592 0
3736 -1446 840 3227 -1827 0
24 -4125 2372 -832 -1079 -4050 0
-327 -4140 784 -607 -2586 -271 0
-1594 -2545 2607 1615 -2012 0
-1989 1642 -3217 4863 -2381 0
-3274 -3237 -4056 -3228 0
4371 -2908 4261 -3880 0
-2191 -616 4392 985 -577 0
3998 3829 -395 460 -2426 1466 0
1775 446 2645 3197 4414 0
-2187 -1016 -2466 -253 4165 0
2597 2525 -2343 -4053 2630 0
-1922 3680 -756 -814 -3532 0
-4033 2899 2490 918 -671 0
-3409 1318 4478 -63 2504 4461 0
-54 1029 -1725 3439 -1795 0
-3496 3159 -263 4210 -603 0
-99 2919 1669 3379 -453 0
1486 990 -2416 -467 0
-1692 -3641 -3146 2130 1463 0
-4708 410 1183 -3533 0
-1348 2453 3404 36 -4163 1829 0
188 -498 -4048 820 -2274 2660 0
1767 3062 -1034 -4052 1794 0
-4510 2411 972 -2168 4801 2878 0
-1854 1880 4080 -2459 -677 0
1197 -3159 2288 -4657 -3752 -4002 0
-3220 -3048 174 3064 0
131 2289 2801 1650 0
-4506 -4065 -4333 -2550 -2106 4368 0
-4182 4699 1703 -138 4814 0
4590 765 -4974 -625 -1966 0
1428 10 -4761 4468 0
-2889 2322 4484 2262 -493 0
-3120 -1022 2984 -1060 -4496 627 0
-206 3829 -1671 221 0
2457 -4004 -4156 2290 3038 0
4580 4841 -514 1929 0
-4644 -1028 4180 -148 0
1354 1211 -4602 -4662 4325 -568 0
1414 -3602 -3464 4606 -678 0
-2525 -2478 -228 -1483 1578 0
4887 -3063 2329 2229 4159 0
-1332 2587 -2548 174 1182 545 0
1736 -4514 517 672 0
-3048 -1193 4816 -48 2922 4045 0
999 2236 -3067 1345 2778 -1899 0
-264 612 -3052 1173 -2403 1540 0
951 -2708 3332 -633 2066 0
-1183 3647 4516 -1 0
1740 -181 -3697 -1071 -1398 -2518 0
-462 1220 3524 -3954 -2462 0
-3217 3610 -4750 -4304 0
-964 4955 -997 -1421 51 0
-2568 -4390 912 -2862 0
1281 2956 3278 4693 0
-3788 3523 -3724 -1089 340 0
3787 -164 935 3200 -4636 -2743 0
493 -4439 -1773 -3774 2771 0
1070 -4919 -155 -1192 -4981 0
974 421 -1252 2289 0
4947 4341 2960 2792 -688 -2207 0
-916 -1489 3175 1573 0
3227 2287 -3455 2135 0
2048 732 -3810 -3356 0
4039 1163 2970 3907 -3970 -1105 0
529 1946 -948 -2851 2077 555 0
4827 3195 3590 -2868 0
-2153 -23 -383 -1999 -1946 0
-2396 31 -2523 3527 -1307 0
-1750 638 -4504 -4972 3183 0
674 2158 2960 4333 117 2176 0
583 -3626 -3907 -1981 -856 0
-3161 2505 -1315 1903 0
2355 527 2963 2360 991 0
-4187 -1556 -1852 3458 195 37 0
4375 -4776 4739 -3297 4248 -2901 0
-1063 -2572 1747 -4718 2850 0
236 296 1764 2904 -2556 0
-4197 -4065 1464 1282 3359 -4656 0
-2862 2438 -3956 2407 0
-2893 -2087 909 603 1830 -4160 0
2421 -4586 -457 3987 1220 0
3154 492 3455 2913 3190 -2474 0
2260 4603 -4444 2507 3436 -3770 0
3932 -252 -4839 -3408 -2686 0
2305 263 464 -3142 0
4946 289 -500 -2135 -3606 -1316 0
-2985 1732 1476 4689 0
-4722 -4483 2167 1983 -4911 -1273 0
4015 4070 -3743 -387 0
441 2013 -3155 -482 0
2546 -4342 -244 2657 -637 0
-4169 -4773 -3107 -536 -1586 -1752 0
1893 4008 -3363 -397 -2283 0
-1669 -864 1574 1202 2900 -4794 0
4542 -2544 -2098 -1298 -3767 -819 0
1511 2842 -4826 -4572 4262 0
-1640 -2247 4141 -2985 2831 -4507 0
-789 3635 2906 -3731 -2272 0
-4129 -2955 4379 -3317 0
928 545 -1519 -329 0
-4064 -2157 2072 -1898 0
-1051 -2665 -1827 -4638 0
-3118 -3137 -2955 -2281 -731 3715 0
1222 -2170 1408 -1029 0
-3767 -4877 1947 -4013 1473 -4871 0
1402 -1888 836 565 0
-2719 1274 -4896 746 0
-336 -4509 -4773 -4491 143 2000 0
404 1042 4808 2720 -2182 4583 0
-628 2363 127 -855 2739 1823 0
106 -3190 -999 -4336 0
4493 2069 -3483 2140 0
-3747 -3360 -886 -3432 4561 0
-4086 -2519 4437 4076 0
3412 2652 -2121 -3562 -2544 -4633 0
-2060 -1860 -123 -360 3652 2110 0
-3704 2769 -4154 -9 2501 0
-1513 -4121 -1494 -4769 213 0
-368 -3016 -2918 -1523 2765 1520 0
-18 -2631 -1247 1507 0
-139 -3959 -4913 -4187 -4905 1747 0
4651 -985 -335 214 -2548 3846 0
-2270 -192 -1610 4051 -1908 0
4525 -2063 -1817 4039 -4413 -4383 0
-4875 2235 334 1515 0
2011 -568 2062 1970 -4843 0
1918 2914 3726 2161 0
-4427 4147 4815 -721 -129 2344 0
3201 2886 4151 3909 -4354 -1216 0
-1422 -2391 -3190 -113 -3281 4178 0
-4319 -2281 -2476 3759 -1019 0
3315 1302 -815 -1802 -4171 0
-2039 2030 4309 -3136 455 0
-2844 -32 -2306 4463 1831 1989 0
-738 -4496 -2652 1587 2284 -2951 0
2280 -642 -2750 -4848 0
-2536 -2524 -1749 1152 1211 0
-4996 -4611 1383 4116 -139 883 0
1131 -4135 2949 -4848 4257 0
2693 -1368 4358 1827 0
-3609 -4919 4655 -4997 3271 0
-1552 -4304 -4155 -4582 0
-3489 -442 1372 -4219 4000 0
-1498 3556 473 4530 0
-2164 -2439 2705 -821 645 0
2117 -4494 -2973 977 -3698 0
2553 4728 441 658 -4473 3236 0
2942 476 677 2121 0
3162 4568 3733 -3969 1890 0
-2779 -1611 1173 -112 -1612 -3901 0
2638 1497 3544 -2464 1807 0
2358 1617 -2566 3019 2107 -2309 0
2317 857 284 -3791 521 0
-489 1328 -3469 2627 2445 0
3659 2771 3513 -2605 -644 2696 0
1406 2130 -1653 4371 4720 -4862 0
-3683 -3539 1744 4558 -3517 0
4421 2183 2420 -4047 -3745 3550 0
-4901 -2807 912 -4943 -2255 -1280 0
-1964 -2193 4959 -1831 -333 0
-1108 3815 -2416 -1572 0
-623 -649 -1711 2742 65 0
2081 -4454 1138 691 4246 3506 0
848 4394 3125 658 -3856 -4858 0
-3934 259 1000 -2039 3004 0
-897 1030 -2912 -3290 0
-3403 -217 1376 1269 -2744 326 0
-1447 3791 -4328 4232 1450 0
4733 4223 -4672 1525 -2733 0
3562 -2945 2170 4716 -351 0
1542 3655 -2040 -1308 -4721 0
2729 2742 -1413 -2031 -4911 2024 0
2844 -875 -4047 61 0
4689 1091 2908 -2766 -2438 3224 0
87 1037 3617 -2969 0
-4700 1792 4926 842 0
2157 4000 4573 1821 2586 0
-1467 -3250 1198 4843 0
4453 602 3623 -3423 0
-596 -90 -803 -707 -3104 0
-2660 1318 193 2976 -4317 0
1377 2302 38 -2422 -4439 0
-2339 -1596 -678 3312 0
-976 -2571 1201 -3592 0
1051 -3931 -4267 -2352 2911 -1143 0
-2775 34 -313 -1850 1060 0
-4567 381 -3684 -2979 2132 0
-4284 -1647 -1996 2812 0
-1373 -503 2841 -2220 0
2444 1958 -2426 -2874 1048 0
-1378 4226 -2132 -4173 3682 0
2853 812 2586 -1613 263 674 0
-1065 1294 3182 -3946 -756 858 0
-1922 -401 -1473 4242 -2842 0
2342 -221 982 2914 4079 0
-1670 -3626 4611 635 -931 -1691 0
2093 -92 -2447 3254 3735 1792 0
972 -137 -1409 2546 3770 -4105 0
3750 2222 297 -114 0
-3447 -1625 4089 4191 -219 0
-4383 241 2108 4731 2248 2352 0
-1834 -4959 715 4775 0
2901 -930 -3213 4762 802 853 0
1564 -2559 11 -1691 749 4498 0
2172 2545 3154 3923 -2882 1705 0
1327 -2919 -1340 2843 -3660 0
945 -681 4717 145 2780 -2910 0
1570 -3530 3904 4088 -1192 1251 0
1411 2917 1523 2784 -4374 4450 0
-2748 2357 -2463 -1628 2364 2580 0
2506 3842 -3845 -4837 1167 4842 0
1726 -281 3837 -2085 0
-772 3913 -720 2156 3985 4673 0
2213 -2701 -4005 3937 -3489 3703 0
3159 -1621 -1012 -334 269 0
-3069 -687 351 3328 0
4502 1266 1791 3854 3964 -1215 0
588 -213 656 -2388 2804 -3381 0
1831 -4342 4224 -3992 2563 -2516 0
3549 2745 -2430 3803 2766 -4129 0
1829 605 -4746 2209 -2334 4183 0
1877 -2967 -2134 3077 3025 0
-1189 -3776 4429 2462 0
760 -295 4621 4209 235 -3635 0
3830 -24 -1342 4318 2794 0
3316 4553 -4234 2996 0
929 -3970 744 389 -775 -1674 0
2171 1229 1341 -1534 3839 -4223 0
-1551 1048 3017 239 -2052 0
-1088 -1762 -1038 -4867 0
-1 -4767 -4943 2566 0
-577 -3994 -4458 197 391 0
-14 -1004 2661 -3169 4824 0
-4292 2589 3366 -1403 -1627 -1520 0
-1208 1706 4038 1596 0
3793 3349 -2950 2013 0
4619 2752 -746 4071 0
-3832 2562 4160 777 -2379 0
2654 -1361 -2444 -906 0
-4934 1642 -4606 3638 -2090 1708 0
-2169 -1964 -560 3844 0
1222 -2321 4133 -1961 -1133 -513 0
-3004 3335 1369 -3375 -4556 0
3692 -4823 -3948 -3659 -1360 -1492 0
-2658 2587 2039 -2259 4549 0
509 440 -4395 -4916 -4717 -2559 0
-276 -887 4195 930 3930 4902 0
4032 -2274 -609 -638 0
-2378 197 -3780 3111 -2801 4397 0
3740 -3579 1516 1361 -717 4414 0
3288 -3064 4291 1107 0
660 2808 3113 199 4209 3297 0
1756 -1939 3890 1327 0
-1758 4416 -552 3966 170 0
4217 -2248 2375 829 0
-1446 -2703 -96 -3326 -4787 0
-1972 3368 3180 783 3294 0
-1820 -1122 1331 -426 1065 0
675 -3126 2467 -1411 0
-1100 4225 -731 -4612 0
4048 2199 1126 1485 -4046 0
1126 3248 -1669 -2039 796 4030 0
2077 1621 -4532 -356 3416 -3264 0
-3747 883 -3512 817 4554 0
-4352 2425 -4186 -1718 3839 0
-2044 4552 -441 -3580 4253 0
3522 308 4206 -629 4868 -3613 0
3085 3484 -3383 -4938 2563 0
988 1209 206 2239 0
-2908 204 -4768 -615 -248 0
3959 3223 2773 878 0
-3341 970 372 -4520 0
3190 3072 -3151 264 -4558 -448 0
1965 -763 -707 4512 382 -4810 0
1487 -2185 -4278 4367 1021 -2470 0
214 4925 3308 -3777 4714 1391 0
1358 -2333 188 4233 -2391 0
2177 4318 3101 895 0
1415 4912 -3516 2934 0
548 -3883 4029 -3586 -2842 -1634 0
-1666 4077 4378 3829 2499 0
-1108 -3421 2350 -1752 0
-3520 -2832 2220 2133 -3438 -822 0
-1162 3927 3237 1488 1859 1078 0
2957 2241 1367 -1653 737 1284 0
-1470 -2610 -3965 857 -408 0
2453 2997 -2205 3504 0
887 -1976 3759 -318 -4611 0
-2688 3637 -1555 -3257 -4623 -2415 0
2950 -3068 1701 1327 -1320 -4362 0
51 -4736 -4469 -3085 2494 0
242 -1196 700 4215 -4474 0
786 2097 1196 -4691 1530 653 0
3520 -2301 -4679 2936 1252 -3597 0
-54 -3285 -3087 3060 -4251 0
-2559 -2509 4265 1945 2435 0
-50 4616 -3232 377 -3146 0
-3517 -4509 1562 -3564 0
696 -2962 -4462 509 0
4271 -849 2063 2353 3426 199 0
-1848 -1216 1286 4896 0
3291 3752 4243 -4966 1568 0
-2229 4547 -3433 -4829 -2074 -3343 0
-4180 3466 4828 413 670 0
953 -4781 478 -3781 -1112 0
-3540 -4786 3691 3197 1844 -559 0
-2188 -3274 2748 900 1779 0
2323 4505 4033 940 -3761 1808 0
2332 666 -4497 4357 3033 2568 0
2270 -4930 4266 -995 0
-509 891 1052 4688 1709 0
2215 2025 -4078 3838 3400 0
-3637 4311 -2015 1142 -314 0
2777 -4538 -774 308 0
-3737 -3283 -2604 -1299 0
-3672 -1882 -1690 -1373 2212 -4451 0
-614 -3124 1919 -1660 -3465 3080 0
4056 -456 3674 4376 -1635 0
-539 4864 -2491 41 2899 -383 0
2410 876 4322 2297 271 0
4153 -917 1743 -4025 -3568 -3630 0
-4717 -2017 2943 -3992 -3944 0
-4267 -104 1977 -1561 0
-3176 272 758 3025 912 -3377 0
-3672 -4214 -4109 3239 0
1041 3178 729 4804 3864 3609 0
1911 -29 -2198 -2473 0
1417 -3714 -4807 -2980 -1843 0
3021 3376 -2953 4728 0
-1963 2919 3071 2961 -2046 -512 0
-1546 -3939 4285 64 383 4687 0
2770 -1110 4721 3879 3747 4989 0
-188 -190 3652 210 -3888 4282 0
-1247 3684 2955 -3867 0
-1561 -718 2103 3154 -1871 -1458 0
4783 591 2054 4405 0
3352 -3611 -2881 -1618 2742 0
-4742 4319 -1563 2946 4691 0
3377 -4768 -3587 -62 0
3346 728 717 -1540 -85 -534 0
4824 -3419 1255 2997 4333 0
2985 -4164 3688 795 0
-2683 1735 3301 -2429 0
-255 1988 2981 -4956 2861 0
2875 2447 1981 3949 -2380 -3254 0
1706 2381 1833 -1970 4382 0
-4991 -4123 1938 -571 3431 0
-2926 -272 -931 4066 -2995 0
-1487 -2911 350 3091 0
-2648 -4246 -4763 4745 1227 0
3091 2519 758 -2867 2908 0
2789 -1556 -1469 4481 0
-2620 -2950 1453 -1153 0
3983 4208 -4261 848 -2345 0
-4 -2653 4273 -4020 -4734 2612 0
-3292 3126 -4538 2043 -3455 1739 0
2823 -1176 -1983 -3147 -1508 -3555 0
4920 -1442 1214 -2254 0
1839 -2020 -757 -4425 -3768 0
-3317 168 -1584 1226 0
-3374 509 3559 1200 -2787 -4279 0
754 -510 -1246 1669 -1835 -735 0
3737 3155 -1113 3746 0
2818 3167 -3513 1258 -829 4523 0
475 4587 1880 -240 3890 -51 0
4976 4017 4450 -1883 1105 0
-212 -2772 -1953 -913 0
2943 -2153 2937 -3681 -690 0
-1213 4529 -1956 3614 -3880 -3805 0
-1691 1769 1642 -4507 202 0
-1321 -4861 -1169 -3053 1121 0
-3227 -3609 1778 4838 0
1043 -2446 2605 -1996 4732 0
1548 4869 367 -1849 785 2369 0
403 -1661 4816 4135 2595 0
3479 -1443 -3280 336 -3502 -427 0
-1419 4924 -1524 -3090 -1146 -1231 0
4632 -1585 3232 -1016 0
-272 -416 3458 -4983 0
1739 3183 2723 -994 0
-2107 2210 -3876 -1881 -769 0
326 -1019 -4778 1290 -2766 -4884 0
-4789 -549 2625 -164 -1702 0
1415 -4233 2289 2883 -1146 -3013 0
863 4043 519 -1727 3188 -2239 0
594 -2942 -2265 -3077 -4518 0
-3666 -894 -4942 1895 -3625 0
-4173 2615 2663 3914 3393 0
4991 3804 3927 4430 1443 -2986 0
-1234 -668 354 -1365 -1691 0
3444 4357 -4985 2729 -4083 -3701 0
-1943 1973 -4438 2985 0
3516 1420 2683 4199 -3636 0
4953 -3712 4593 1648 -4844 0
-4463 4884 -4456 3325 -4578 0
-1188 4654 -1570 -1666 -4621 0
-4826 1047 -83 -890 -796 0
-3733 3676 -2114 2733 0
-519 -3833 1599 3675 3103 1764 0
1644 4636 -1754 -255 2260 0
-2251 2445 3090 66 1334 0
31 -4194 2375 -4031 0
-3323 -1072 2800 -3239 0
-826 1397 2673 2168 0
1346 2359 2268 256 0
55 2289 -4258 -4400 3304 0
-1425 -1632 2915 -583 0
713 -4813 1344 -385 -4300 -1703 0
4826 -1270 4639 486 -2361 3811 0
-3059 188 -707 -1903 3560 1908 0
-1823 -195 -4951 1745 1569 0
3336 3651 -4981 -521 0
-409 -4088 -1329 1760 -635 0
2758 3559 3150 2909 0
3536 -358 3130 -1541 138 -968 0
-3047 4336 1807 -3811 0
-3928 -102 3565 1524 -3768 -783 0
3941 2625 -3948 1929 0
2907 -539 -4935 4471 0
1057 -86 -2273 1495 3414 -1794 0
2525 -4222 1875 -354 355 -860 0
876 -1700 3464 4543 0
4634 3603 4169 3232 2201 -1987 0
4584 -315 1351 -874 0
4356 1206 -1911 2299 0
1922 227 -4954 -3656 19 0
4811 2659 3344 3439 1730 3136 0
-2246 737 4981 -1798 861 0
-113 4841 -4271 -3597 0
1625 -4021 1456 4260 0
-4420 423 -692 4526 4931 0
-374 -2683 -3375 -1421 0
547 4434 -2355 -610 0
3948 -4105 -4547 -547 3332 0
2846 -4037 -649 1054 3894 0
566 4213 3534 3705 -2921 1228 0
-386 -3463 -23 263 0
-2422 -4156 -3434 -4991 2382 0
3227 3122 974 -2106 4653 -2809 0
-3081 -1816 -1333 2227 -4990 0
2371 1027 -4532 2379 -3716 0
3129 -3286 -1078 -3432 -1924 -2955 0
-2490 2385 -2652 -2592 -2277 2418 0
721 1633 -433 -3405 -3824 0
1847 1110 -3613 -2250 2473 -2480 0
3440 -3455 -1918 -3818 0
664 2678 1816 -2693 918 3275 0
4432 3630 -1603 -148 -2078 -1950 0
4032 -1134 -1023 1689 4011 0
-4169 -318 -2860 435 0
161 -110 -4877 -4155 2412 4180 0
-1046 4178 -4027 -521 -89 4494 0
2037 3493 1274 -2286 0
-2135 -1674 -834 -1045 0
-3613 -830 -3525 -2099 2745 -4835 0
-4335 -4919 4890 2618 0
2926 -381 -1662 -867 -1013 0
2489 3864 -730 4921 -4983 3578 0
2542 3273 732 2780 1260 0
3109 -171 1724 -3357 0
4382 4236 -3332 -1923 0
3698 2607 1414 -534 0
-1591 912 4774 -3971 -1731 3682 0
4012 -3037 436 -2794 -3927 1446 0
-4154 -533 -1492 2821 3165 0
3178 4679 3092 3543 -2359 0
-4481 184 1524 1854 4928 0
-4745 -4324 -2769 910 -2322 -2950 0
326 -1300 -4746 2064 -876 0
1821 3955 -4854 2271 -713 0
2283 2812 -1999 -4626 37 2666 0
2536 1418 2516 1033 4760 0
-3612 2958 -2509 -2999 1214 0
-1521 1820 -46 4196 1459 0
2201 -4070 3294 1972 0
-2749 1824 1682 2358 -2741 -2079 0
-3566 4651 -3202 -543 -4198 0
423 -165 3000 -2635 4429 0
-1622 -879 3315 -4183 -4893 -4803 0
4456 1232 -4526 -3420 0
-1655 -822 -356 1893 609 4748 0
-4439 -776 -4577 -1836 0
-2392 2741 -4553 -152 0
-166 -2683 -3129 -3408 2105 -4913 0
1195 4534 -4118 -4172 -1993 0
-2225 -2438 1504 4444 -477 0
-3849 4465 751 1248 -2571 0
54 1932 3758 -1516 0
-2561 4930 -4447 -4348 3629 0
-1727 -1645 -2090 -2391 0
-3572 4261 273 4020 -1322 2368 0
2366 -3745 -3617 2997 4240 3791 0
-2208 1665 3653 876 0
-1053 3373 -2558 -2142 0
-1238 -131 4035 4084 1587 0
-976 -4330 4575 -4150 4543 879 0
4623 -1555 3969 -4779 2531 0
-4080 4292 -211 -3183 -3074 3639 0
-4314 -1988 -3126 4834 2064 4048 0
-700 3761 -4175 2117 -4171 0
691 2273 -3923 -757 1580 -219 0
3199 4360 2889 -578 -2974 0
2829 -4471 4677 1668 -2716 0
-2354 3189 -4717 1482 -1885 -4146 0
2222 -4572 4917 4350 1778 2402 0
-3532 -1065 -1779 -1491 2014 0
-2978 -2069 4919 2440 1617 -2291 0
4932 -4973 -1921 -1221 1960 0
-284 -2285 1501 2306 -2742 2710 0
-823 2930 430 -4786 0
-3869 758 -445 -801 4026 -80 0
-1919 -305 -1518 229 4026 0
-4309 -4072 -3506 3449 0
4968 -4934 -4124 -4887 0
-1242 905 3629 4002 -4055 0
4518 1203 -3409 -4073 -4578 1201 0
1442 2334 3772 895 0
4452 1328 -4949 -4866 -4356 0
2585 -3014 -1026 557 -4300 -4792 0
1775 -1947 391 -1572 -4526 0
3640 1659 4866 -66 4329 0
-4723 -3609 3003 4187 0
-3090 -1834 328 3975 0
4104 -1524 1399 3434 1873 -1061 0
302 -4579 -4845 -672 -1942 1364 0
-2323 -2296 -299 -1887 0
2809 -4794 3180 -2998 3807 4741 0
2010 2139 -227 -3023 401 0
-828 835 -4937 483 3864 0
-1002 597 358 -1610 2505 0
4894 577 587 -1566 4734 -773 0
-2844 1984 -2031 4051 -3259 2217 0
-3120 4812 -4303 603 2286 0
3399 1181 -3468 -1286 0
4581 -3192 2489 4955 164 0
-4025 -4519 1282 958 0
3752 1611 -4789 -1495 3432 4501 0
3305 1923 -2969 1324 -4876 0
-2791 -3218 3004 -3652 0
2179 697 1732 -2957 0
1066 -670 3389 -4558 0
-2940 3383 3883 4429 0
4819 2088 4276 -2703 -2075 0
-3342 -3128 2094 -1946 1625 0
-1444 -823 4887 2487 0
-258 -2114 -2069 -1037 -3212 0
-366 3213 2475 -331 4792 0
749 -4655 1551 2517 -551 -2851 0
4958 3455 -4274 -2032 0
1066 3115 -2988 593 0
-2192 -1290 -3857 693 -182 4622 0
151 2576 1471 -3247 0
-4210 4892 4876 -4780 0
-1315 4625 1169 2242 -2677 -3166 0
2147 1273 -2294 4138 -3999 4611 0
1017 3785 -3947 -1817 -2934 1169 0
-4377 3406 688 -962 0
1856 4869 -2575 1702 0
-2312 3789 -1624 -3534 -4775 0
3840 3036 3337 -1119 4918 0
-4373 1386 4778 -3555 0
3 -21 774 -4064 0
-1574 1055 -3554 2405 0
2793 -4330 3895 -4620 3265 683 0
2535 -1958 3566 -3429 2657 0
2305 2903 -1464 -3076 -416 -3230 0
-4488 2500 4310 803 1797 0
-3136 293 3826 4232 2851 0
-507 -1474 -1144 3052 4949 0
-3341 -4052 2188 3296 -943 0
-958 565 2856 -3337 1885 -1096 0
-2231 20 3547 3211 52 2983 0
-3650 1018 3334 -2180 82 2705 0
3668 -1421 2876 1229 -4739 0
4272 -456 2327 -1145 0
-2978 -3915 -3161 -2851 3933 0
-2569 3660 -4525 1464 -1445 -1814 0
3546 3222 4485 -4808 -693 -3632 0
-3448 -2240 -1356 -3323 4723 0
4782 3162 2846 602 4181 -873 0
4066 293 -1207 988 0
-2213 3703 9 -3153 0
-4699 4409 -4553 1772 -1514 -2915 0
1492 2885 -1158 -2784 0
-991 3203 871 4629 -3154 -137 0
3013 2382 -3090 1196 1322 0
3919 483 -4798 -4071 0
2607 2594 4324 -1572 -4233 -2879 0
-2295 2899 -1300 -4255 0
2976 -1093 1826 -4197 0
4950 -2852 -3547 3657 -2695 2509 0
-201 -4444 -4654 -2659 0
3161 -1258 4908 -2560 -3758 0
-1721 138 2386 2231 4160 0
-4761 -1175 275 3987 0
-1415 -1465 -3383 68 1704 1322 0
1673 -1533 -1377 -4267 3057 3199 0
1879 -2433 4781 -4554 -1189 4714 0
-265 -221 -4055 -547 -492 3550 0
2832 -4341 -4951 -1979 1660 -791 0
-3094 -4062 3991 -1562 0
2833 -1584 2285 1863 0
677 4481 -983 1239 -792 371 0
-1917 206 2189 711 2177 0
-2875 -3469 -4899 315 0
-2295 1787 521 764 -19 0
-3492 -3293 -4752 4984 0
3317 -971 -1950 328 -477 2592 0
-3341 -3239 1399 250 -4244 0
1329 -3927 2685 4186 -4527 0
-1231 289 -4578 3574 0
-3031 -3965 -2160 4644 3066 -212 0
3660 1170 -2026 1967 4257 0
-4062 -337 -1517 1003 2629 0
-627 -3644 3103 1227 -4262 3366 0
1140 830 2860 -1139 4619 0
848 -3790 3958 -2504 -2863 0
2487 -1274 -909 -44 1610 0
-3441 3483 1577 -2353 1586 0
-1666 -2765 -2749 -1123 0
1364 -2626 349 1504 0
2843 -1626 1163 -2583 -1422 3236 0
2420 -4166 2786 -1920 -648 0
2135 290 1269 1346 0
913 -4715 -2258 -158 0
2906 -2030 -1941 -4218 -3304 0
-3452 -3998 2780 -1631 0
-4078 -3486 4090 2598 0
-556 -3176 682 116 0
3383 -520 4886 2778 -1535 0
-737 -947 1067 2120 -4963 0
-3620 2835 -2739 2671 0
-4313 -1751 699 -4503 4112 0
-1943 3360 -703 3325 3097 0
-53 1246 4334 -2670 -3644 4183 0
1695 1845 4043 -1774 -911 4461 0
1739 881 1545 231 -1018 0
2484 4787 -3306 4845 0
3367 2285 -3151 1538 -4383 0
1143 3408 -69 3458 -3735 -1152 0
-1878 -4847 -3906 -4103 0
2955 -1398 -2437 2806 0
-1667 -3934 1114 3279 0
-401 -762 2680 -749 -3526 0
-4397 -134 -4445 116 4384 0
-1890 -2347 -1309 520 0
-2130 1545 -940 -1570 0
618 -1518 1118 -4806 37 0
-3353 -1850 3561 2189 0
-4752 -99 -3022 -439 2582 0
3584 404 2676 -2055 0
-3640 -2850 -55 3223 1985 1717 0
1311 1915 -4829 -4491 0
-107 -352 9 -2368 2103 0
-3351 -1164 -3053 -4970 3971 -1876 0
2504 3115 2424 928 1482 0
-1186 -4279 3271 4736 0
-2268 358 2231 995 2886 0
-4592 701 2617 2374 545 4690 0
-1447 2377 3304 -3742 892 0
-4702 4262 -4345 1568 0
4643 -747 -400 -356 -4122 -3432 0
4822 -3765 -2576 2858 -3884 -541 0
292 -2856 683 -4709 461 -4460 0
434 304 949 523 -1988 0
3740 3934 -4076 754 0
-3120 -229 86 -148 0
1035 2696 3691 3627 2214 0
549 641 1527 3737 0
3366 4071 -890 1294 0
1478 2525 -111 -922 1583 0
-2324 2951 -3350 4015 4981 3115 0
-3562 743 854 -4594 -3303 0
-2646 -4904 4806 3978 270 0
855 2385 -1796 -3127 0
4532 -1653 1229 4414 0
-1282 2938 1758 844 3129 4676 0
4800 -647 460 -2352 3967 -281 0
2546 -1456 1945 -2174 0
-1897 -1987 3116 -4880 -3189 0
-1399 -2554 -4422 -3892 -2440 4966 0
4475 3435 -1479 986 -2732 0
2994 -3615 -2755 3367 -3531 -4242 0
-728 -1507 2005 -2899 0
-3192 1859 4835 -3369 1344 -3208 0
4423 4863 -6 3555 -1958 1807 0
-2157 2561 -3837 -2053 0
-29 -2728 1686 -239 -3656 2999 0
4890 1615 -1490 3292 0
-3255 -2343 -3510 -4457 0
3763 -3523 -2768 1354 -149 0
-3647 -3159 -2278 -3503 -4864 143 0
2329 -1434 4579 451 -3478 0
4182 775 -3004 -4804 -4788 -874 0
167 26 -1444 2356 1908 2575 0
4204 -4594 -1486 -363 -4359 3118 0
-320 -4970 3247 1806 3296 0
3565 2862 -914 1969 -864 0
-3958 2717 1532 -4177 0
-1787 -3000 -192 -3249 0
1393 2892 1151 -627 3640 0
2494 3565 -2033 1970 -901 0
542 -3519 -4503 977 0
-4057 1358 4486 3114 0
-3797 3945 3914 -2926 4338 0
4635 3322 -4034 -2686 -2766 0
-3615 4734 -4780 1499 3296 0
-2910 3218 561 -106 0
-3578 4074 -4788 1835 -318 0
-1982 3212 -3255 -4256 1947 0
-3421 773 1949 4114 0
201 -4974 -231 3888 -4195 -113 0
2324 785 -3702 1859 0
-58 -2511 1881 2323 4808 0
273 4996 2038 3058 -183 -3301 0
2766 2109 2424 4836 4115 0
-1478 -2980 -1744 3287 -1517 4063 0
3256 -2184 -2578 -2565 -3738 0
-2790 -2365 1084 -3826 2552 1956 0
2735 8 999 -4708 -1735 1773 0
-1984 3896 3499 -3333 0
-906 -2466 1287 2123 4715 0
431 -1444 -4896 3774 0
-1143 -4473 -645 4055 0
456 3591 297 1432 0
-3541 1301 3382 4680 4204 0
-4450 -4943 1539 596 2699 0
-992 3314 2882 -4056 0
-4782 -2711 -154 2814 995 -4245 0
-2367 -2175 -3457 367 0
1115 455 4776 -1790 0
-1450 109 -4937 -550 -4013 0
-1443 -3933 3652 -2450 1463 0
-3718 916 -1059 -1625 0
-878 -4572 2928 -2140 -4869 2575 0
4355 -1251 2352 -1483 0
-3030 495 -1737 3019 0
3059 4782 2767 -2217 -1063 0
1405 4361 -1915 3781 3169 -1099 0
-2946 569 2331 -3685 -2970 4246 0
-1033 2086 -4084 3993 -4829 0
4126 -3393 -2474 562 0
-1449 2921 -2212 -2149 4294 0
-1745 -4957 -1479 -4256 0
1914 1290 3761 709 224 -2016 0
1192 2397 -3927 321 3789 1285 0
-1105 4957 -4414 -2718 3577 -519 0
3143 4108 1853 542 4762 0
4039 896 1185 -2611 -3614 -1354 0
-840 3854 1279 4811 -2586 1637 0
-3515 4361 2746 -1992 934 0
-1986 -4634 1204 -3237 1080 -1602 0
-948 975 4443 -441 0
-36 -432 -2700 -4463 560 -2609 0
-4165 1161 -2906 1483 4019 0
429 1228 -2481 -3775 -2607 3745 0
828 1180 -3509 3192 0
1396 3705 1226 -4806 -1781 648 0
-4313 -4445 83 -1122 -3069 0
3145 2360 -2124 4766 -3192 4863 0
-4126 -2390 -1689 2687 -1305 2613 0
1002 5000 -2615 2644 3102 0
-26 4320 2928 -2837 4105 -1397 0
-4166 -1574 -2208 -4550 0
1138 -2164 944 -3189 0
1573 -4698 4637 1637 3567 0
2947 337 4201 3533 3735 -2962 0
-3156 -1699 1034 -89 4538 0
-3408 -3363 2701 2447 -3204 0
-3927 -3599 2235 2040 0
2369 -707 2141 -2016 2593 0
749 -3798 -1618 -299 1508 0
-355 3945 2639 -1775 0
-1914 -4551 -1056 -2716 0
1435 3843 4021 1022 0
-410 1936 379 -4190 3974 0
-1662 -3390 3099 -3388 2254 1166 0
2886 -3073 4250 -1815 0
-543 -4990 3368 -3004 0
1750 -1428 4867 3830 0
1924 -3794 -4993 1872 0
-2172 -1025 -330 -1725 -1239 0
1493 -4390 -2070 -1973 -3785 0
-1610 3598 3324 -2144 -3318 462 0
-627 1602 3574 -1923 -3468 2845 0
3524 3309 2895 4082 1226 0
-4054 -3780 -619 -2606 0
-2623 1336 -4756 -4255 3557 0
-3812 -2988 -1130 2481 -1729 -2401 0
609 787 -4765 -2004 3463 0
-2641 4520 -3447 -4501 536 -2202 0
715 1672 -792 -345 0
4248 -3896 2194 1875 3983 0
1824 -2717 -4792 -729 173 0
-2046 -4561 3535 -349 3307 -1273 0
-2868 416 -1394 -1335 -4193 -338 0
2406 -2375 -637 -2853 3080 -1431 0
-3966 -615 -4839 952 4098 0
2451 1888 -1053 -73 -4783 0
-4435 -2473 -4486 -1907 -2053 0
3609 163 2308 -4708 3005 0
-896 -1419 -1270 242 -3750 0
1972 2657 1431 4858 0
-3345 3356 91 -78 0
-2942 -1875 -4281 1995 -1060 2077 0
-43 -1746 -1638 -1592 2446 0
-4384 -4570 3931 933 -4522 -1247 0
4323 -4438 2524 3871 -365 0
1489 -1358 -2531 3501 -3199 -230 0
-1981 -2664 -4129 406 -4576 0
-2128 -3731 1872 -3179 -258 0
-796 1649 -469 4041 0
3710 -2156 -11 -858 -4902 1018 0
4581 773 1832 3524 0
-2927 4408 -4226 -1829 -4328 0
-4053 1803 -1767 -2357 -2375 -3121 0
-1969 -24 -407 -999 1787 0
3297 -3637 -2401 2480 0
-1569 -2504 -805 -144 0
-1380 2078 4234 2213 -4217 3250 0
3110 -913 -3844 1603 4397 1399 0
3878 235 -2574 -3921 3189 0
-420 2437 -4537 -54 0
-2511 1258 -2624 2069 3678 0
2338 3933 -2463 2277 -2821 0
441 2277 1669 2515 -2423 3762 0
-3524 131 2240 3830 3687 0
4472 3618 -2433 4345 0
-3906 -81 -1956 537 -2687 0
468 308 -3980 140 797 1622 0
3707 1990 4461 923 1873 2809 0
1270 -4575 -1735 1771 4789 0
-1274 -1960 2984 2890 0
-2208 3117 -3425 4207 2930 0
4971 -2165 -3094 1025 0
3577 2757 1813 -4458 985 0
-935 4014 945 -1651 3249 0
-2013 -3481 1703 -4356 0
-3467 -2949 -81 -3908 -1841 335 0
-469 3019 -1 -2037 781 0
3269 2519 -1379 2382 0
-796 4925 1994 1480 3760 2064 0
1316 -2156 -3236 384 -2336 1505 0
-4865 4758 3801 173 4421 0
2591 3312 -80 2102 -1644 -3860 0
59 3117 1280 -3185 -2354 -3432 0
-1879 -4030 -432 -2855 0
-4502 -4749 1358 437 876 1496 0
2481 -4195 688 -934 0
-3343 -1419 657 -1449 0
4400 -2661 1557 -1824 -4507 160 0
-4930 -1495 -1446 -43 3413 0
-4206 -4903 -3511 1656 4148 -3873 0
-3419 2548 -2183 3399 -4646 0
-2957 1216 -444 -910 -1519 -573 0
2396 4206 2007 3530 4086 3724 0
-4453 1177 3660 609 -3177 0
1833 -3916 3701 1574 -1456 0
-4088 -1054 1331 -1501 -4970 0
4577 1965 -3781 -3247 2128 -4236 0
-4297 1428 331 -4314 269 -193 0
-4252 2113 -1009 4634 0
2028 2946 1081 -2761 0
2272 -1069 2793 -1434 0
-705 -3876 -1690 -851 0
-3249 -580 -975 -2142 0
-831 3959 3626 2747 -508 0
-858 2817 3756 4368 -3120 0
-219 -1595 -1529 -4337 -3789 0
-177 1352 -4248 -4556 -1347 0
3882 2790 4690 1248 0
-3148 -4180 4213 -931 0
-230 714 3467 1394 -3012 0
1025 -152 -2550 -1123 3349 0
-1903 2154 -1743 -3322 4256 0
3684 3678 -540 -3737 1041 1647 0
2807 -2968 -3275 3185 0
3391 2128 -2427 1522 2397 3308 0
-3895 -2080 -1894 279 -4806 4467 0
2111 -877 -2624 2037 1743 3742 0
1883 4483 -1448 -4789 1144 0
2209 -771 -3850 4621 -2838 0
4000 4868 -125 3939 -2097 0
1224 -3057 4043 2174 0
-4303 -420 3887 -3216 -3256 -1486 0
-374 3707 -4052 4903 0
-2126 1585 864 2887 0
4924 -3342 4238 3285 0
-60 1750 -1418 -4233 -4997 0
-3094 -4177 -1118 -2298 3321 0
2204 3292 -1864 886 3636 521 0
-4615 1300 -4780 -1389 3355 0
2847 4098 2655 1699 0
4358 369 3261 -1453 -3200 0
4996 4867 -427 -1056 0
4352 4822 2811 -3249 -2510 2825 0
-2199 -566 2061 -3667 -4587 0
-2474 -3890 -1492 4422 1511 1436 0
2695 -1932 393 -1926 4086 -2722 0
-4268 947 -1496 -3091 -3144 -1056 0
-695 1144 -1053 -2617 0
1823 -4651 -2439 259 0
-4767 -838 -4220 3 -486 3093 0
1836 1555 592 -4971 -2523 -2853 0
912 -4206 1309 4670 0
-2630 -2807 2135 -245 -4030 0
2269 -3021 -4830 -3389 -239 0
-3834 2715 3585 3187 -2609 -4154 0
3578 3525 77 -391 -469 912 0
2697 -1532 -3423 -1275 0
-480 3946 888 3572 4665 3313 0
2873 -2030 -17 -1696 -1664 3320 0
-4010 2848 -3532 140 0
-3565 -1158 638 -1498 0
-2092 4238 -1489 2141 0
-600 -447 587 4492 738 3585 0
2261 -3533 -1478 3380 4507 23 0
1161 -4529 -654 4010 0
-2555 2878 -1159 4689 1787 3397 0
-62 -3813 -2661 -790 3790 0
1256 623 -638 1099 -2477 0
-2256 -3644 1407 -1733 4679 0
-2344 2493 4252 -717 0
3424 -2642 3332 2748 -2721 -598 0
-3458 -2262 -1301 3381 3503 0
-3436 -4922 802 -1911 286 776 0
3069 -4266 -2984 -4308 1993 0
3915 -2417 -1260 3078 -1727 0
-3182 4937 2783 -828 0
3309 2608 -3875 2463 -2643 0
1379 3616 -177 -3606 2139 1761 0
-4858 -3945 -2503 594 -1467 0
-4871 1851 748 -527 0
2357 4191 -4577 1289 4617 0
4459 4321 -225 1452 1633 -1280 0
2703 4660 4507 2571 -4187 0
4164 3545 4709 162 -69 -2925 0
3147 -1269 -1484 -33 -3183 0
-1194 1486 -3447 2867 -110 0
-3436 -4103 1573 -361 -2760 -1510 0
4413 2086 2705 -1886 -4651 -1115 0
-3302 -4628 -2398 -2149 -731 0
-1998 -239 2090 4848 0
115 3045 -509 3740 387 -4107 0
3721 -806 -3492 3127 0
-4677 -4559 -1703 -2681 -3662 2570 0
-2287 -4650 59 -3090 2400 0
-3898 -4187 -3814 -3647 0
1954 -4276 -359 -2459 -2316 0
3211 -3054 1330 3797 -3218 1307 0
4113 -4085 -3243 2494 1451 -2907 0
-1842 -1108 -570 4119 2977 -1718 0
-945 756 2013 2541 0
901 3248 1802 -2985 -4338 0
-4361 1107 -1075 -4539 2226 0
4268 -785 4066 3737 1291 3364 0
-3666 -855 -4900 -1247 0
162 3710 -1098 -172 0
-4615 -2482 500 -114 -4862 1636 0
-3641 2435 769 3175 4658 2073 0
1619 979 1475 -2011 841 4227 0
-1415 1307 1220 1123 -2993 -702 0
-1506 -4934 -1289 -2110 0
3312 -3501 1774 -2180 0
-4603 311 2006 -4042 4339 -457 0
-4907 -1631 -3845 4405 2114 0
-3823 -3551 -4722 -1183 3214 0
3483 529 -3984 2218 3361 0
2400 -3954 -2194 1965 0
4063 2040 -4891 -3474 -984 -1494 0
3870 4587 1135 4299 225 -255 0
2876 -3254 1881 3187 -1363 2877 0
-1765 -2207 -3802 -679 4341 0
-4515 4226 4882 -2404 0
2735 -3751 2664 2485 4060 0
-2736 -1115 618 -3450 -3173 0
-4789 3334 -2974 -4590 0
2819 743 791 3879 -1611 0
-2684 1577 -4644 556 -3608 0
-4273 -571 -2267 -3938 1983 1322 0
-1058 1211 -4812 -3313 2124 0
4380 -3651 -3198 -3536 -3173 0
1626 3761 2482 -2693 2137 -1073 0
-4270 -2958 -3501 3264 5 0
-3865 123 1444 -4312 3061 2328 0
1231 2271 3083 3830 -1321 0
-4224 718 746 -2032 -1242 2471 0
3582 -2064 1545 -390 -1270 0
2606 -2009 -1253 -3545 2499 -2949 0
-666 -3448 -1767 3031 953 2709 0
-1019 1526 2428 -2041 0
-3258 -895 603 -711 -3493 0
-3369 3229 -2740 4391 -780 0
37 -874 4689 -246 -2933 0
2290 -1866 -119 3873 0
4071 -1311 135 -3573 4973 -4935 0
1025 -146 59 -3814 4294 -3935 0
-4009 -1050 2183 -3645 -3534 0
2422 3855 -3229 1754 0
1589 1927 -1626 -3175 1546 -962 0
4389 416 -628 1910 -4677 0
1393 716 -2264 -3365 225 0
-2318 692 -968 1630 1976 2782 0
1959 -3654 3091 4758 -2406 2926 0
-3274 -1418 4784 999 0
-17 4501 4221 4825 -2677 157 0
-3491 -3144 1315 4607 0
2963 -1425 -1544 205 -3089 4747 0
1827 -4257 2031 2880 0
-2782 571 2360 -4503 1202 -4869 0
3915 1241 -1534 254 -2176 -3111 0
-1795 650 -3649 -2152 0
-1264 1037 1233 824 2022 0
-425 -909 4787 3286 2870 0
-2977 350 -392 -2525 -1307 0
-4516 1238 -4364 -1021 -4096 4138 0
-1959 2863 -853 4761 0
-104 3604 -1732 1321 -1940 -3105 0
-687 154 -282 792 -2690 0
4675 -4327 3213 136 -1100 0
