c Horn formula (polynomial-time solvable)
c 5000 variables, 12500 clauses
p cnf 5000 12500
148 -1892 -3932 0
356 -1793 0
1851 -3309 -4108 -4475 0
-4918 -230 -2198 0
1201 -3587 0
-2198 -4340 0
3246 -1560 -4702 0
1873 -2287 -1591 -2490 0
-1675 -2299 0
-3710 -3815 0
-4833 -4272 -1948 0
-3309 -379 -3145 0
3344 -1449 0
3784 -1407 0
-2340 -4595 -620 0
815 -3554 -2375 0
3728 -3829 0
-4591 -4008 0
1772 -2355 -3301 0
1831 -27 -3131 0
3762 -3548 -1646 -3906 0
1087 -4774 -248 -3756 0
3595 -1683 0
4689 -56 -829 -2485 0
3490 -2132 0
2666 -4742 0
3773 -343 0
4457 -4355 -3788 -2798 0
2986 -2002 -4136 0
200 -1996 0
-2397 -1712 -3858 -1248 0
-1590 -1967 -2512 -482 0
3148 -3875 0
-943 -1892 0
1959 -3967 -1631 0
-1747 -662 0
-538 -4097 0
1932 -2674 -3739 -1327 0
4071 -370 -3061 -2531 0
688 -2315 0
863 -4949 0
845 -579 -2572 0
4749 -533 0
3931 -3925 -956 -4771 0
-2575 -1086 -972 -1903 0
-2038 -4565 -3052 -1978 0
112 -2679 -4308 0
-124 -3623 -1466 0
-417 -2565 -17 -874 0
4376 -3519 0
865 -4081 -285 0
-1514 -115 0
1315 -4008 0
3589 -1698 -2068 0
404 -961 -3368 0
897 -2611 -2172 -500 0
-931 -2653 -4251 0
1307 -168 0
-1931 -4250 -3409 -2742 0
2693 -4225 -4005 -238 0
3441 -102 -1139 0
4165 -178 -3588 -4690 0
-2574 -4208 -401 0
963 -140 -498 -13 0
-117 -2691 -2792 0
2256 -323 0
1825 -213 -1579 0
-3536 -3265 0
-1844 -750 -361 0
-2204 -4906 -1443 0
2693 -362 0
2715 -299 0
1007 -2341 0
331 -3916 0
842 -4243 0
2220 -2984 -4986 -390 0
4361 -4662 -2271 -1149 0
2907 -3553 0
-625 -3231 -1977 -2307 0
3739 -2324 -2290 0
4382 -700 0
4062 -2429 -4628 0
1378 -1529 0
-1445 -922 -3433 0
3041 -658 0
4993 -537 -1205 0
619 -2888 -653 0
2842 -3227 -2163 0
720 -2134 -2467 0
2862 -241 0
-661 -2097 -3745 -2191 0
3947 -2039 0
-2862 -2683 -1532 0
1026 -4136 0
4769 -1572 0
4524 -3781 -2338 -1599 0
4364 -3132 -1319 0
4708 -503 -225 0
4284 -979 -3123 0
-2363 -470 0
4160 -3345 -1212 0
786 -504 -3112 -4322 0
3083 -4869 -863 0
4286 -2053 -3397 -2854 0
2885 -415 -1526 0
4511 -4137 -4829 0
-4847 -3698 -1460 0
1049 -909 0
4107 -2280 0
-419 -2271 -4523 0
-4014 -4154 0
-503 -3610 -693 -1487 0
918 -3398 -1965 -1215 0
3415 -3803 -2496 0
3510 -419 0
-1806 -2115 -1099 -3678 0
722 -3144 -1298 0
-1039 -1727 -3590 0
3613 -363 -3654 0
-1912 -3682 0
-3183 -4238 -4350 -3610 0
151 -3542 -3909 0
-2997 -2479 -1846 -3981 0
1599 -2876 -4416 -3141 0
-3195 -1540 -3571 0
4425 -383 0
252 -965 -1026 0
-3429 -2387 -2834 -2565 0
3775 -1401 -1496 -615 0
-2545 -4097 -1087 -2923 0
2456 -3696 -206 0
-3355 -4364 -1506 -3946 0
-3178 -4333 -386 0
562 -546 0
1483 -2763 -4605 -286 0
-2906 -3966 -1495 0
89 -2882 0
504 -3468 -326 -4073 0
883 -4467 -4742 -922 0
-570 -4157 0
-36 -4068 -1591 0
1408 -2033 -240 -156 0
1267 -571 -1958 -478 0
-517 -3222 -1415 0
-2704 -1571 -2482 -2272 0
-970 -1625 -533 -2707 0
-2874 -4097 -156 -4590 0
-4516 -4219 0
-352 -2105 -1396 -1261 0
1690 -111 -4983 -3706 0
1987 -304 -868 0
2491 -2548 -3349 -3155 0
2165 -4980 0
1291 -1080 0
1676 -437 0
-3086 -940 -3812 -2969 0
-1437 -4088 0
1913 -544 0
-3800 -4355 0
-4180 -4985 0
1094 -3357 -4751 0
4818 -685 -1171 -2987 0
-2800 -2297 -1937 0
994 -4906 -4309 -1214 0
1386 -2625 0
4755 -1858 -1673 -3015 0
-3305 -612 -3953 0
2026 -2849 -3681 0
2320 -2793 -1354 0
-2599 -2303 -4415 -352 0
281 -230 0
-4587 -2281 -1367 0
229 -3151 0
-3171 -819 0
-401 -1458 -2327 -3918 0
3221 -2722 0
1507 -1052 -1298 0
-3650 -3796 -3527 0
2187 -306 -364 -3637 0
3887 -2735 0
867 -1814 0
-4148 -577 -3279 0
483 -6 0
-2107 -102 -2480 0
3864 -1410 -318 -3188 0
3393 -2426 -739 0
3666 -1537 0
3840 -4332 -1365 0
4809 -4982 -103 0
128 -406 -3870 0
1518 -4643 0
4902 -2166 -3059 -959 0
2772 -2476 0
-3946 -2081 -2533 -3179 0
3825 -1596 -57 -4943 0
3797 -4954 -4478 0
2103 -511 0
-2854 -663 -994 -2963 0
3268 -83 -4821 -173 0
1327 -2799 0
1292 -2570 -4089 0
-4809 -1247 -47 0
1931 -2736 -2560 -4402 0
4646 -2074 -1824 0
467 -1746 0
-1799 -1113 -3773 -151 0
3148 -4050 0
-354 -3022 -1504 -1762 0
3288 -1677 -1709 0
4573 -4477 0
2369 -757 -1159 -1106 0
3065 -4808 0
-625 -1323 -1574 0
-1591 -3230 -2433 0
681 -2643 -4632 0
4007 -413 0
-2485 -4467 0
3902 -3829 0
2735 -2605 -1771 -461 0
-630 -1609 0
4548 -2131 0
1672 -3234 0
3769 -578 -2040 -255 0
833 -151 -3640 -1787 0
2379 -4738 -3106 -3559 0
3240 -2392 -3725 -238 0
1876 -3111 0
2437 -2596 0
1829 -2827 -3623 0
-3860 -2144 -41 0
1117 -416 -298 0
2292 -853 -4807 -4620 0
38 -119 -1163 0
332 -1661 0
3580 -286 -784 -3666 0
1666 -4429 -327 0
2170 -2317 -4069 -232 0
2339 -4901 -1765 0
2343 -1443 -3875 0
-399 -1485 -4954 -159 0
4907 -3138 -184 0
715 -1451 -3991 -3092 0
84 -1721 -2446 0
3089 -4211 0
529 -2253 -4480 -2045 0
-410 -2333 0
-2004 -2572 -2216 -3210 0
-3130 -3419 -2736 0
706 -1522 -4313 0
4576 -3678 0
4292 -184 -4320 -1152 0
1496 -2153 -2755 -3616 0
1786 -572 -1087 0
-3874 -2227 -1584 0
4282 -2318 -3680 -510 0
208 -2491 -3052 0
-1682 -731 -202 0
1753 -3462 0
1213 -2496 0
4911 -424 -2831 0
1029 -3850 -3636 0
-3118 -4838 0
-2088 -3514 -4432 -178 0
3636 -901 -988 0
1252 -3239 -4397 -805 0
643 -4482 0
3465 -4502 -2794 0
-4296 -6 -389 -144 0
1944 -3821 0
-2825 -4946 -2876 0
-2707 -1567 0
-4335 -586 0
936 -883 -3783 0
3859 -3843 0
1879 -1080 0
2136 -1695 -3666 -977 0
-1626 -3133 -2798 0
3675 -1037 -2578 -3327 0
4002 -3382 -595 -642 0
1763 -3507 -82 -783 0
759 -1805 -2334 0
1483 -3142 0
-4947 -1146 0
-986 -3539 -4442 0
3587 -1227 0
-3879 -3397 0
-3160 -3116 -4949 -1773 0
1316 -2932 -3895 0
-2050 -1033 0
2090 -1703 -133 -4968 0
1030 -1302 0
1663 -3530 0
-3533 -3085 -3253 -557 0
-2963 -350 0
4156 -2735 -4272 0
1306 -2417 -1810 -4143 0
4878 -1785 -2663 0
-1484 -2652 0
2696 -943 -4655 0
3807 -2095 -2683 0
-3916 -1918 -3967 -117 0
628 -4670 -4097 -3451 0
4093 -1766 -1001 0
-1612 -4868 -1484 0
-3464 -642 -3204 -1480 0
3927 -4322 0
776 -298 -4353 0
1657 -4649 -4092 -2365 0
2387 -1356 0
48 -4576 -968 -2488 0
-525 -1157 -3936 0
2155 -2199 -672 -4756 0
1473 -1280 -2304 -1620 0
2438 -1617 0
813 -105 -2087 -3015 0
1979 -4982 0
-246 -3252 0
2017 -2989 0
-3449 -2420 -694 -2107 0
984 -3169 -520 0
-914 -2291 -1399 -3131 0
470 -872 -2306 0
1929 -3154 -4910 -2385 0
2133 -1362 -1360 -140 0
2219 -3280 -280 -2683 0
-1247 -4271 0
3094 -2905 -2389 -3775 0
-2956 -832 0
4728 -3740 -1494 0
4755 -3579 0
1177 -4158 -2688 0
-4494 -1163 0
-4861 -337 -1755 -889 0
-2405 -4550 0
3215 -1756 -1791 0
4985 -1600 -588 0
6 -4643 -1788 -783 0
43 -289 -1009 -3930 0
1031 -4077 -2798 -2654 0
4264 -374 0
-4427 -2811 -2947 0
-4298 -3659 -4276 -1932 0
4117 -22 0
167 -4206 0
134 -3338 0
3330 -4393 -3828 0
3415 -3152 -1553 -2180 0
233 -3840 0
-3486 -4845 0
-2220 -2932 0
2065 -2388 -4588 0
3098 -2976 -2176 0
770 -1509 -151 0
-2914 -3269 0
2889 -1575 -2718 0
-143 -2495 -4171 0
1296 -3071 -2350 -2482 0
3196 -3028 0
4744 -4821 0
3921 -552 0
-1850 -1386 -4604 0
293 -1058 0
-2896 -742 -3635 0
4055 -4835 -1345 -3820 0
4445 -1309 0
1186 -923 -3509 -1565 0
-4430 -3038 -4216 -2792 0
412 -2745 -1390 -2409 0
-3801 -3937 -95 0
1182 -3488 -15 -2091 0
1478 -2347 0
4874 -2012 -2441 0
2014 -3816 0
1667 -449 0
-4487 -611 -1744 -2503 0
3306 -4576 -2256 -3269 0
1012 -4614 0
2028 -516 -3975 -42 0
-2903 -2164 -4214 0
2957 -4841 0
-3035 -3358 -4020 0
3662 -3454 -2434 0
-2611 -4160 -4451 -4601 0
3513 -3360 -2123 -2813 0
1185 -1108 -4294 -4425 0
1579 -3029 -1292 0
3268 -1429 -2627 0
-2974 -4660 0
2405 -2792 -1905 0
1553 -3153 0
1549 -69 -3975 -882 0
4163 -4466 0
-2072 -370 -2703 0
-3554 -1922 0
1205 -3990 -4360 -2618 0
2567 -4870 -2840 0
2166 -333 -1741 0
1171 -4818 -1366 0
-1180 -1875 0
55 -3348 0
2883 -1233 -1482 0
4257 -1682 -4142 -2469 0
1078 -3469 0
-2156 -1080 0
1549 -2839 -4896 0
2796 -439 -556 0
340 -2992 -2842 0
3600 -668 -1010 -2420 0
-1095 -901 -3321 -1900 0
3690 -4247 -3796 0
919 -268 -1986 0
381 -4938 0
-1755 -262 -192 -4136 0
2110 -2595 -2128 -2513 0
-1036 -2478 0
-4370 -4379 0
4148 -1032 -2310 0
1742 -3086 0
4049 -4255 -4914 -1642 0
3642 -1619 0
4350 -2888 -4077 0
2549 -1140 -3678 0
-1101 -2300 -4246 -3409 0
3848 -18 -1289 0
-2460 -2260 -3403 -2081 0
2996 -553 -3065 -3509 0
-1901 -539 -3428 -2439 0
-500 -1740 -3128 -757 0
1339 -4481 -3436 -4747 0
-4705 -4507 -91 -2867 0
-2618 -3514 -1885 0
-1246 -4529 -3761 0
3214 -2337 -1941 -919 0
-2149 -218 0
-2324 -504 -358 0
3447 -1083 -2073 -2297 0
-3356 -4910 -1557 -3195 0
4169 -2745 -4445 0
-557 -547 -638 0
-1797 -772 -2121 0
4425 -365 -3439 0
1531 -2368 -354 0
4680 -4026 0
4820 -916 0
896 -3377 -1662 0
-2979 -2646 0
797 -272 0
-1240 -4762 -1058 -3791 0
1412 -1265 -1836 0
4344 -3958 -2214 -452 0
1428 -4668 -933 0
-4964 -1343 0
-205 -4028 0
1535 -2415 -3645 0
-3368 -1979 0
-2757 -4414 -1500 0
-4499 -2706 0
-2359 -634 -1845 -540 0
1500 -750 -3628 0
1635 -4558 -4195 0
4349 -1278 -2961 -3797 0
4178 -426 -2658 0
2529 -828 0
3065 -805 -1638 0
4019 -2527 -986 -2455 0
428 -1567 -4094 -2301 0
1160 -2009 -1935 0
1202 -3800 0
3334 -1527 0
-4005 -4466 -1877 0
3122 -2114 -1163 -4654 0
3159 -3096 -900 0
60 -2973 0
1180 -1631 -4668 0
3198 -635 -2943 -1876 0
-1975 -4480 0
4466 -4839 -2819 -721 0
4045 -4485 -4967 0
2686 -4698 0
3547 -2008 -3518 0
4910 -3920 -1811 0
1571 -1391 -2469 -583 0
-2565 -2955 0
847 -1093 -911 0
3603 -4272 0
-1808 -2322 -285 -205 0
4275 -2156 0
2148 -528 -4101 0
-4409 -2349 -574 -832 0
3258 -2156 -2883 -211 0
1646 -1855 -723 -4959 0
3687 -1498 -223 -2063 0
1789 -3088 0
4893 -45 -4559 -1647 0
90 -2016 0
4210 -3657 0
-646 -3952 -4316 -4665 0
1868 -608 -4263 0
889 -4611 -515 0
4921 -3920 -4607 0
599 -4900 -2681 -2684 0
2860 -2978 -4495 -2867 0
3671 -911 -2051 -539 0
-3053 -4516 -267 -1015 0
1908 -2505 -1690 -2125 0
1667 -4360 0
4432 -2167 -2435 0
3339 -4837 -15 -3340 0
-3681 -858 0
1929 -4133 0
1063 -3704 -2427 -770 0
967 -4300 -2218 -906 0
4057 -847 -3428 -324 0
-1052 -4711 -185 -3969 0
1415 -4318 -3057 0
4133 -4441 0
2843 -171 -3905 -3661 0
2916 -3151 -1803 -1659 0
292 -2875 -4487 -2771 0
437 -1460 -2551 -1269 0
-2940 -1616 -4568 -4140 0
1117 -1645 0
-2798 -2719 0
2473 -2737 -4506 0
4890 -3835 -1466 -2254 0
4565 -4334 -2453 0
2715 -4377 -4684 0
2397 -4394 -419 -1978 0
839 -1920 0
-1409 -451 -1623 0
1116 -1143 -2436 -2392 0
-2378 -2352 -603 -4493 0
-63 -2866 -1160 0
249 -2314 -3390 0
325 -543 0
-352 -860 -4904 0
4531 -4352 0
3043 -3483 -2409 -4566 0
-2654 -1425 0
3493 -4971 -3895 0
2169 -4586 0
871 -3393 -4606 0
1792 -3011 -1860 -1594 0
4818 -2659 -2904 -3160 0
1149 -3801 -658 -3446 0
-1298 -284 -3475 -4181 0
-3102 -3898 -464 -2823 0
-1796 -4335 -2662 -3316 0
-1651 -2093 0
-646 -3901 0
-73 -4387 0
-533 -873 -4919 -3959 0
1036 -976 0
3133 -1067 -4548 -4460 0
-2451 -1794 0
3409 -1295 0
1129 -3381 -2868 0
1471 -4935 -794 -2516 0
-2286 -3794 0
-2812 -3137 -3799 -443 0
4354 -353 -3722 -1156 0
-4395 -417 -3479 0
943 -1273 -1614 -1659 0
-3255 -746 0
4798 -3931 -3109 -497 0
692 -302 -4868 0
4184 -3995 -4523 -4806 0
-3890 -3751 0
4641 -3901 -2718 -1852 0
-3210 -369 -4406 0
-3876 -3315 0
-4680 -4430 -1230 -3222 0
4585 -576 -1886 -3575 0
2444 -1956 0
4304 -4796 -233 0
2941 -4710 -594 -2055 0
4260 -2087 -2722 0
-1812 -1342 -4790 0
-4138 -1559 -4107 -14 0
3720 -4609 -2686 -3663 0
4558 -2667 0
1219 -3108 -3041 -3737 0
2179 -1344 -4408 -604 0
-4500 -2670 -2402 -3052 0
-25 -521 0
3038 -2760 0
-4066 -2985 -2915 0
-4871 -4365 -448 -4802 0
1514 -1140 -3107 0
-1071 -1343 -4268 -2550 0
-3044 -2751 -2665 0
748 -1355 0
4909 -1154 -3231 0
2285 -2297 0
3405 -2648 0
-4062 -3619 0
3499 -1641 -1619 0
2404 -1268 -1644 0
2187 -4791 -1933 -1008 0
296 -4334 -1550 -13 0
1963 -894 0
1013 -2048 -3413 0
148 -1207 -811 0
-4575 -2959 -3808 -3252 0
1858 -3083 0
2422 -2981 -4057 -884 0
2603 -2464 -244 -3197 0
3616 -3344 -1930 0
4493 -1308 -3917 0
636 -950 0
-4917 -3900 -1621 -4812 0
3662 -4800 0
536 -3132 -927 -3544 0
1706 -1926 0
-2985 -4815 -1453 -260 0
-593 -1200 -2114 -2764 0
1673 -4621 -3583 0
3460 -2421 -4616 0
-4098 -3283 -2256 0
4269 -468 -429 -4839 0
4923 -2495 -278 0
-2282 -1933 -3657 0
-1883 -2523 -3604 0
-1019 -614 -4355 0
2001 -209 0
-3397 -1110 0
-4303 -1987 -3119 0
-4454 -1401 -4228 0
1935 -4307 0
-1592 -4589 -4302 -3621 0
1599 -1447 -2341 0
3442 -116 -2804 -3648 0
4994 -2508 0
59 -2926 0
-1848 -3108 -2374 -2988 0
3494 -2335 0
1741 -1636 -3489 -1719 0
2366 -1301 -4944 0
3743 -1183 -1758 0
196 -4925 -3982 0
-2207 -3698 -1958 -408 0
3495 -2647 -3323 -1012 0
4144 -1292 0
49 -1505 0
545 -1682 0
-609 -1351 -3412 -303 0
-2678 -3061 -4503 0
1782 -3622 -3376 -1795 0
-3581 -4248 -4571 0
851 -2373 -2140 -4320 0
-2259 -4922 0
-555 -2225 0
1485 -983 -3452 0
1623 -1087 -2546 -3030 0
4812 -2061 -1108 -1937 0
2991 -2279 -1743 0
-4961 -4290 -4935 -4972 0
4146 -4627 0
4805 -2385 -558 0
3704 -2358 0
-4083 -102 0
4318 -2327 -4509 -4348 0
-3076 -2938 0
2917 -3748 -3752 -160 0
-1688 -4721 -2640 0
-1254 -2812 -4350 -819 0
8 -3863 -1298 -2776 0
3247 -2992 -3535 -4524 0
4781 -4250 0
2242 -2280 -1452 -2868 0
306 -1205 -2168 0
109 -3592 0
1151 -2263 0
1586 -4251 -852 0
4769 -2655 -836 -3461 0
3196 -4087 -2587 -4940 0
2227 -1511 -2602 -3010 0
3844 -2841 -2539 0
3152 -479 0
2058 -2608 -2535 0
4716 -4885 0
1428 -3639 0
-4755 -1776 -875 0
4199 -3479 -1007 -2943 0
-418 -3308 0
4205 -1279 0
-3361 -1504 -1584 -4034 0
2313 -3416 0
3636 -416 0
-2358 -1503 0
-4171 -3021 0
4877 -2513 -4862 -4311 0
-3782 -2003 0
-3510 -3693 -887 -3992 0
-1609 -4540 -1192 0
-2298 -1039 -4053 -1012 0
-1442 -4270 -2150 0
-3323 -2739 -2169 0
4458 -1627 -2712 0
2519 -4596 0
-2664 -1502 -1323 -1438 0
2952 -2028 -4667 0
-1324 -2280 0
2379 -4943 -1862 0
-240 -4313 -2972 0
3930 -4169 0
4185 -3176 -2057 -4950 0
2061 -2731 -417 -3760 0
-250 -4982 -2509 0
4637 -3205 -1408 -383 0
4990 -3284 -477 0
1809 -2682 -30 0
4807 -2647 0
5 -2974 -4299 -3647 0
421 -2109 -3394 -2659 0
643 -2215 -978 -3818 0
2773 -518 -4754 0
4686 -647 0
622 -3739 -337 -4800 0
1000 -4089 0
-3600 -1548 -4806 0
-4871 -4664 -360 -4677 0
-1616 -475 0
-4514 -3962 -2674 0
386 -4002 -1485 0
104 -1188 -3232 0
-4873 -931 -1090 -336 0
-355 -27 -758 -1894 0
1004 -4447 -4438 -1855 0
202 -3193 -207 0
4672 -2334 -3215 0
4490 -4199 0
-3915 -1475 -3314 0
2731 -2356 0
4684 -2644 -1684 0
2088 -804 -2440 -3846 0
2828 -1914 -3995 -1229 0
-3071 -1892 0
4208 -3947 -3299 0
3196 -2463 -4185 0
4038 -4652 0
2810 -2297 -1166 -2442 0
1534 -4513 -3443 -1186 0
-2734 -214 0
-1281 -1869 -3491 0
-3160 -1812 -636 0
4924 -4429 -47 0
2148 -819 0
-254 -783 0
3240 -3722 0
4456 -3359 -2209 -2885 0
3985 -1458 -422 0
3959 -3666 0
-585 -4495 -4149 -4068 0
-1805 -4953 -4506 -4013 0
133 -136 -4891 -4619 0
782 -1052 -4758 -18 0
1008 -1718 -765 0
-779 -867 -699 -3898 0
1491 -3379 -4077 -2307 0
-2804 -3891 -4030 -727 0
-3136 -1442 0
2509 -1818 -1546 0
1642 -87 0
-4576 -3166 0
1338 -568 0
2036 -3838 -282 -4223 0
95 -2000 0
354 -465 0
3030 -3935 -963 0
-2811 -749 0
1687 -1756 -4543 0
-4723 -454 -4854 0
1996 -4302 -1227 0
1547 -3429 -837 0
-277 -3426 0
-935 -4614 -380 -2618 0
3037 -1898 -3931 0
223 -4629 0
2877 -255 0
2293 -4930 0
582 -3560 0
2446 -4717 -1764 0
-3583 -3730 0
3638 -4563 0
4652 -2115 -4041 -75 0
2054 -2727 0
-4341 -1053 0
2267 -1962 0
1593 -2899 -2106 0
2358 -368 -1353 -2890 0
877 -206 -2637 0
4719 -3877 0
2908 -1979 -2397 -998 0
3905 -3476 0
-4357 -4734 0
-2984 -1449 0
-3043 -3910 -2335 0
4008 -2907 -1006 0
3375 -3583 -1115 0
1195 -1977 -3947 0
495 -2809 -1049 -2619 0
803 -1350 0
2495 -3733 0
2050 -3596 -1138 0
1415 -888 -622 0
2463 -3350 -4456 0
360 -913 -2785 -4781 0
3328 -1292 -3705 -4133 0
4410 -2170 -3997 -3992 0
3002 -4344 -3210 -3317 0
-3692 -802 0
3933 -2079 -3749 -70 0
989 -4529 0
1415 -2456 0
-1382 -339 -3049 0
4382 -124 0
-2086 -3657 -4899 0
74 -1559 -4114 0
4746 -3048 0
-1458 -2425 -1554 0
852 -2188 0
1138 -1181 -2595 0
1488 -1662 -2413 -1112 0
3244 -1918 -702 -4151 0
4081 -4738 0
2659 -4383 0
607 -4944 -2585 0
-1997 -1620 -1970 0
-4099 -210 -1573 -605 0
3207 -1357 -4105 -3623 0
2238 -1636 -3185 -4225 0
3720 -4137 0
4661 -2290 0
-2785 -793 -3382 0
-2401 -3157 -871 0
3027 -4318 -4458 -116 0
3695 -3910 -1227 -2154 0
4926 -1759 -4967 -2921 0
1805 -4221 0
4779 -3487 -1925 0
1288 -3431 -3721 -1475 0
624 -2983 -3627 -4189 0
4599 -3549 -4159 -3256 0
1543 -3428 -1916 -2491 0
-3713 -1658 -807 -2127 0
1828 -3208 -3684 0
1626 -3694 0
4133 -4152 0
3045 -1674 -1341 -3453 0
1498 -4982 -3857 -1406 0
2821 -974 -3090 0
-1574 -2618 -3019 -524 0
1037 -427 -4211 -1642 0
-4276 -2097 -788 0
646 -1569 -1152 0
2625 -1571 -3835 -2606 0
1452 -1371 0
130 -2152 -2118 0
-551 -3258 -4067 0
3576 -1722 -4349 0
2745 -917 0
217 -2537 0
4380 -3260 -2022 -3773 0
3419 -3990 -2141 0
-964 -163 0
3458 -4624 0
1139 -2908 -1851 0
4296 -139 -1163 0
734 -3636 -2289 -124 0
691 -933 -2274 0
2155 -2928 -356 0
1614 -2744 -265 0
113 -3908 -4133 -4534 0
3951 -341 -4087 -395 0
-146 -333 -1629 0
793 -2337 -4854 0
1892 -4316 -282 -4934 0
-1618 -2451 -2051 0
1131 -3738 -3592 -1077 0
-2023 -427 -802 0
2027 -2503 0
2017 -233 0
3660 -1170 0
3117 -4429 0
-457 -124 0
4464 -4147 -1468 -3044 0
-252 -4050 -3251 0
3758 -438 -482 0
1552 -2613 0
4103 -264 -2744 0
2106 -4862 -4051 0
3871 -3023 -4448 0
4717 -4852 0
748 -4054 -4433 0
1773 -2109 -741 0
-2738 -1275 -1448 -1856 0
4066 -3 0
2961 -2666 -4410 0
813 -223 -357 -379 0
2369 -1680 -1168 -351 0
-1215 -4120 -4326 0
1347 -1561 -2284 0
544 -683 -1231 -2072 0
2568 -3414 0
500 -2362 -501 0
-1737 -1075 -4378 0
-2265 -1766 0
-2779 -3290 -3940 0
-4528 -1712 -3979 0
3957 -2523 -1283 -3225 0
1676 -538 -4984 0
-4912 -3739 -841 -3175 0
854 -4906 0
1216 -2178 -4026 0
2248 -3874 -3374 -4380 0
405 -831 -3022 0
-2456 -1047 0
4755 -4504 -605 -2423 0
-3223 -4021 -169 0
-578 -1464 0
2766 -931 0
-4442 -596 -3486 -523 0
-3368 -3294 -4637 0
951 -999 0
-2911 -2820 0
4188 -3650 0
1630 -4233 0
849 -341 -1728 -3943 0
-2710 -957 -583 0
4605 -522 0
-1920 -2411 -866 0
3244 -624 0
-3530 -1999 0
3879 -607 0
3917 -4785 0
-1662 -4901 -3708 -4931 0
1114 -1504 -4783 0
4672 -3642 -823 0
-525 -4611 -530 0
3078 -2204 -2462 0
-638 -2263 -3320 -1579 0
3630 -3631 -230 -4923 0
2790 -1742 -77 0
2781 -1423 0
3109 -1276 0
3480 -2554 -2935 0
2717 -2041 -582 -2501 0
1645 -3700 0
2888 -787 0
470 -1735 -3294 -2791 0
1168 -3222 0
526 -4873 0
16 -1587 -4744 -391 0
4623 -3118 0
-4319 -223 -4178 -4047 0
-3280 -2634 -1604 -1090 0
4891 -3361 -4363 0
-1296 -4124 0
3155 -1875 -2870 0
2895 -3637 0
-4804 -4180 -2008 0
1487 -96 0
-1692 -1075 -91 0
3773 -4889 -838 0
4887 -1676 -2733 0
-3545 -4102 0
3366 -618 -2310 -4362 0
40 -4368 -3341 0
521 -42 0
646 -4601 0
196 -4958 -941 0
448 -3789 -1381 0
593 -854 -1534 -886 0
1935 -3863 0
1347 -326 -740 -1891 0
3312 -1489 0
2024 -1968 -2700 -194 0
-756 -4778 0
815 -2629 -2733 0
1815 -924 -1270 0
1235 -3830 0
312 -1752 0
-1267 -4533 -2893 0
-2408 -4106 0
1089 -3981 -3112 0
1920 -2802 0
1133 -2117 -637 0
2539 -20 0
2347 -2926 -4025 0
1119 -2028 -1479 -125 0
1310 -3228 0
-310 -93 -3302 -3791 0
2923 -1258 -1084 0
2340 -712 -409 0
4209 -4078 0
1913 -2320 -2144 0
4948 -1803 -3295 0
1477 -3086 -1702 -1318 0
857 -209 -3166 -178 0
1666 -2817 -3414 0
891 -2973 -3682 -3562 0
2128 -1514 -4619 -1073 0
3395 -4155 -3132 -3358 0
2951 -1802 0
4533 -2763 -2459 -3225 0
915 -3388 -2875 0
3880 -2603 -1911 -3193 0
734 -4780 -2582 -4290 0
-852 -427 0
4581 -4351 -4560 -4726 0
4929 -3405 0
2728 -4655 0
4436 -4984 0
865 -2922 -4612 0
3601 -2918 -2481 0
3052 -1063 -4093 -1765 0
55 -3836 -1029 -2370 0
-1712 -873 -2957 0
3178 -2690 0
441 -4287 0
-4323 -487 -1290 0
-4684 -4335 0
-4807 -4090 -4107 -3778 0
-1016 -2600 -4595 -955 0
620 -1465 -3139 -1110 0
-2909 -81 0
4901 -2966 -2374 0
-4243 -1478 -1259 -3774 0
3289 -1737 0
3401 -1640 -1092 0
4952 -4679 -2951 0
858 -4541 -3741 0
3653 -1996 -2188 0
-4001 -94 -4391 -3716 0
2236 -1500 -4913 0
2411 -2181 -3157 0
2913 -312 -3522 0
2191 -2880 0
3071 -4771 0
-2162 -2805 -3199 -503 0
-455 -30 -3815 -2436 0
3399 -2031 -3331 -2818 0
679 -252 0
2015 -3207 0
4532 -3178 0
-4649 -3746 0
-2939 -4663 -1753 0
2528 -2260 0
2916 -1598 -957 -4136 0
-4877 -1236 -84 0
2776 -2445 0
2321 -4811 0
-2888 -4831 0
-352 -2256 0
3091 -485 0
3133 -1889 -1621 0
4560 -1223 -4874 0
-3377 -1346 -4394 0
909 -4825 -3904 0
1108 -2145 -1684 0
635 -2580 -3920 0
-3121 -2745 -4790 0
-2465 -3080 -3537 0
177 -486 0
2619 -643 0
1854 -2373 0
823 -2217 -66 -2821 0
-4078 -3805 -3745 0
-1940 -4469 -832 0
3196 -3579 -1293 -2007 0
2979 -3127 -666 -4743 0
4679 -778 -1695 -4545 0
1178 -4859 -3076 0
947 -2564 0
-3827 -2697 0
1304 -1694 0
1600 -4361 -4490 -3310 0
-4194 -1500 0
3355 -1620 -2990 0
4661 -4703 -1735 0
2864 -1737 -1142 -3066 0
-1020 -700 0
4277 -30 -4635 -4947 0
2324 -1331 0
1976 -2524 0
-4292 -4068 -533 -824 0
3228 -2177 -433 -4178 0
3762 -1562 0
3019 -3223 -2432 -1040 0
673 -4293 -765 -1102 0
2103 -4331 0
-3572 -3810 0
4138 -355 -1542 -3799 0
1409 -4537 0
1088 -2940 -2297 0
-644 -1478 -4448 0
-1827 -4316 -2100 0
-942 -30 -216 0
2076 -1318 0
3156 -181 -3543 -2142 0
4683 -18 0
-407 -235 0
1172 -606 -2216 0
2513 -3391 -870 -2434 0
1580 -172 -4714 0
2019 -2853 0
4072 -1983 0
3819 -4076 0
1427 -310 0
1336 -3924 -4276 0
4159 -3032 0
1422 -4878 -3259 0
3185 -3845 -4204 -4711 0
-1506 -96 -4618 0
4047 -322 -4746 -320 0
2785 -1875 -2512 -1252 0
4115 -424 -141 -3173 0
1874 -3338 -1830 -3258 0
301 -271 0
-976 -4847 -3534 0
3338 -4309 -2542 -2827 0
441 -1901 0
1257 -3408 -4595 -110 0
4095 -561 0
1131 -3392 -4246 0
4026 -1779 0
4513 -4788 0
175 -3178 -417 0
-3138 -1357 -2802 0
4878 -4928 -4883 -903 0
1219 -3593 0
2134 -1950 0
4844 -2665 -968 -1932 0
3403 -4716 -3388 0
2503 -4867 0
754 -3941 -833 -2796 0
2062 -104 -2664 -2472 0
-1336 -4017 -490 0
4369 -4079 -1953 -4433 0
2292 -2146 0
-698 -2706 -2234 0
786 -4817 0
267 -4231 0
-4357 -3663 0
652 -2007 0
-3513 -3955 -2431 0
554 -3893 -4575 0
2015 -2359 0
2176 -2303 -3403 -1020 0
2777 -2668 -868 0
2345 -4497 -3508 0
2304 -2080 -4756 0
2071 -118 0
-514 -2553 0
-2696 -3731 0
-4291 -3280 0
2530 -511 0
-3568 -4494 0
628 -2151 -4132 0
2748 -174 0
4567 -3081 -2843 -1341 0
4478 -3929 0
1305 -2469 -2448 -2783 0
4790 -2273 -2999 -1708 0
585 -3795 -169 0
4435 -1389 -1557 0
4489 -2033 0
3802 -4200 0
-3010 -2331 -3356 0
973 -3296 0
-1968 -786 -1411 -1747 0
1974 -1123 0
2912 -2753 0
3615 -1 -2134 -2681 0
4599 -4982 0
-3354 -522 -4995 -3257 0
107 -4019 -998 -3954 0
1328 -826 -657 -1983 0
719 -4225 -1038 0
1618 -3033 0
-4733 -4626 -3659 -28 0
1974 -1944 0
-1926 -65 -3566 0
3386 -4195 -4876 -4364 0
-2641 -2725 -2891 -4275 0
2141 -2339 -3038 0
3468 -602 -795 0
3033 -296 -1458 -1979 0
1164 -3855 0
3703 -1674 -2308 -3141 0
-2802 -3098 0
-4895 -1970 -4285 0
2806 -3620 -104 -4065 0
56 -4346 -2527 0
3242 -586 -4294 0
1206 -3662 0
4963 -1559 0
-1232 -2548 -3051 -384 0
-4384 -4707 -468 -4832 0
-4282 -1704 -77 -1509 0
-338 -4786 -4429 0
-4224 -1836 -615 -4435 0
-86 -3387 -3795 -4230 0
650 -905 0
4210 -1625 0
-2864 -768 -3991 0
2577 -3174 -599 -120 0
-163 -393 -2753 -2594 0
191 -3525 -4150 0
4762 -450 -4093 0
4435 -3959 -892 -1941 0
4457 -1117 -2748 -849 0
3532 -2308 -4023 0
2292 -4871 0
3544 -1269 0
3344 -3819 -3739 -3976 0
-2734 -4240 -297 -2894 0
565 -3500 -552 0
1659 -933 -3685 0
1251 -4697 -4837 -840 0
4961 -563 -3637 -3261 0
1421 -980 0
2524 -2595 -3858 0
3430 -3309 -1509 -4110 0
154 -1342 -2620 -1327 0
3928 -930 -176 -3694 0
-3725 -4228 -159 -4795 0
-54 -2788 0
1812 -1273 -4526 0
-3998 -2790 -1546 -1948 0
2827 -2751 -2921 0
-3547 -3197 -4429 0
3394 -1345 -1923 0
-3762 -2440 0
900 -1594 0
3682 -619 -1448 -3931 0
1754 -3761 -592 -3407 0
4499 -1106 -2034 0
-2875 -757 -247 -801 0
531 -961 0
4240 -902 -3442 -3842 0
3382 -1199 -4791 -3925 0
4439 -3720 -1328 0
904 -441 -3053 0
4247 -870 -4028 0
-3442 -2974 -4235 0
3548 -4614 0
2653 -270 -1596 -1838 0
3399 -3774 -140 -942 0
3948 -4523 -1984 -4680 0
114 -418 0
4737 -1970 0
4477 -376 -75 0
-1243 -2469 0
2847 -2369 0
4738 -285 -3450 -3879 0
-2991 -2472 0
2495 -2870 -3866 0
891 -4743 -941 -1696 0
-3408 -1612 -1090 -479 0
2616 -468 0
-2024 -1482 -3352 -1236 0
1642 -2624 -3799 -1655 0
3 -2106 -4698 -182 0
-4524 -297 -1123 0
1397 -3707 -389 0
4074 -2743 -1444 0
2284 -4131 0
-4491 -4227 -4573 -4244 0
4537 -512 -3812 0
4585 -303 -2256 -3359 0
3353 -3352 0
4210 -2743 -22 -2421 0
2807 -4584 0
3932 -1844 -1484 -2285 0
1667 -425 0
-1414 -4513 -3573 -2208 0
297 -3934 -4052 -942 0
2408 -169 -4980 -3542 0
3392 -1062 -1503 -1360 0
299 -2009 0
-4398 -1681 0
3263 -1856 0
1310 -4528 -3011 -2563 0
4851 -3957 0
-188 -1834 0
-4295 -822 -4866 0
1596 -767 -2254 0
-192 -3678 0
2522 -4950 0
-1201 -3060 -1384 -2288 0
2701 -3733 -3807 0
1554 -2841 -4539 0
3971 -3308 -4180 0
1746 -4258 -4664 -148 0
11 -3801 0
1641 -1292 -4041 -1633 0
-4030 -4745 -4365 0
4680 -3718 0
1783 -1488 -3773 -4742 0
1807 -4182 0
306 -369 -4942 -396 0
569 -2103 -1149 -2195 0
-655 -4518 -3311 0
3602 -452 -2035 0
-4727 -3606 -2879 0
2298 -1635 -2613 -3922 0
1215 -824 0
2285 -4664 -4419 -114 0
1448 -2387 -3919 -3854 0
2896 -469 -4812 0
-2689 -1282 -4952 -2716 0
2299 -3168 0
2866 -3436 -534 0
-2529 -4632 -1636 -1823 0
3571 -4003 -3657 -2457 0
2486 -447 0
-3638 -2175 0
4707 -596 0
3533 -4121 0
3697 -3379 -109 -2932 0
1769 -98 0
3459 -4155 -693 -3471 0
3252 -4876 -825 0
4942 -4838 -104 0
1916 -4004 0
-676 -4399 0
-3187 -1971 -1466 -2188 0
576 -4711 -2268 -2468 0
3328 -361 0
1985 -1778 0
-591 -248 -370 0
4927 -2800 0
-1036 -1002 -2366 -3696 0
-3381 -3573 0
3476 -3361 -1862 -3995 0
2479 -1508 -413 0
-1319 -265 0
-1579 -4592 -1235 0
3497 -3024 -3556 0
-3527 -2465 0
3178 -1507 -4998 -3466 0
2613 -3981 -3203 -1645 0
-2698 -3683 0
4246 -4309 -588 -2371 0
2934 -1348 -1470 0
2996 -2460 -4502 -1682 0
3797 -550 -4823 -1793 0
3063 -2894 0
1144 -2496 -2329 0
-962 -2320 -1694 -2535 0
4736 -1268 -1943 -2068 0
2581 -3475 -1618 0
-2037 -4192 0
933 -1594 -299 -363 0
-2112 -4784 0
-2761 -739 0
3948 -1111 -4405 0
654 -1579 -585 -586 0
-4219 -3200 -3592 -666 0
-3977 -345 -2037 0
-1737 -4158 -2519 0
-2315 -4231 -4570 -2394 0
2244 -3180 -3671 0
-4597 -2584 -1891 0
3911 -3310 -3854 0
-3053 -734 0
-268 -1212 0
1949 -848 -2525 -4137 0
4455 -775 -455 -2673 0
747 -4325 -4025 0
4427 -2451 -3646 0
-3726 -1439 -4505 -3451 0
858 -382 -817 -3010 0
2786 -2816 0
3036 -3932 -2626 0
2488 -2335 0
532 -4078 -1959 -4535 0
4949 -4975 -4201 -4879 0
4265 -355 -2025 0
-1482 -3341 -2918 0
-1300 -2630 -4242 -3773 0
-3555 -30 -423 -1554 0
664 -3728 0
1167 -425 -861 0
3126 -1968 0
2545 -3103 0
2858 -4993 -4130 0
2789 -1414 -3380 0
-758 -1020 0
629 -3099 -1505 -929 0
-2142 -723 -3613 0
4066 -2838 0
-1042 -3079 0
4818 -1051 -4810 0
-1646 -2065 -4277 -2694 0
-2815 -1379 -4539 -432 0
-3890 -3044 -2296 0
779 -4273 -3392 -3999 0
197 -2513 -2499 0
4340 -2282 -4570 0
1724 -1378 0
1709 -592 0
3411 -1003 -3080 -4859 0
-2117 -2923 -2778 -1091 0
3186 -1087 -325 -4529 0
-347 -1913 0
506 -2542 -4006 0
-1127 -975 0
-2631 -286 -4843 -1024 0
-4251 -496 0
3914 -2662 -1611 -3176 0
-4220 -2366 -4774 0
-2393 -1190 -2836 0
4614 -1098 -1008 -1293 0
2273 -1918 -10 0
-4683 -3742 -3830 0
3171 -4151 0
1469 -3796 -2652 -2707 0
3493 -2164 -2943 0
1084 -3086 -3051 0
3189 -2855 -2778 0
2963 -3335 0
1424 -1269 -3750 0
3988 -1932 0
4401 -2450 -281 0
199 -4771 -3473 -2035 0
3915 -4643 -3265 -1695 0
3039 -1645 -3459 0
3270 -1670 -2604 -2334 0
4383 -1279 -4154 -3780 0
1271 -452 -4788 0
-3800 -1990 0
-1303 -4349 -1485 0
-3639 -885 -4672 -2900 0
1384 -1058 -2393 -934 0
3200 -600 0
3025 -1578 0
2806 -4128 -1579 0
2342 -2737 0
4968 -205 0
4429 -1570 0
3836 -2140 0
4706 -1639 -3353 -362 0
-2687 -264 -3006 0
1537 -1478 -4931 -571 0
3501 -4458 0
2153 -3894 -4298 -4712 0
4901 -1083 -2811 0
2847 -1056 -1083 0
2850 -730 -2202 0
-3785 -2510 -4721 0
-1302 -4329 -2648 0
2821 -3264 0
372 -4735 -1602 0
4248 -4933 0
176 -2024 -736 -4506 0
1150 -1171 0
4385 -3077 -1809 -502 0
-2826 -3427 -2591 0
173 -1624 -4556 0
642 -2617 -653 0
4834 -380 -2176 -15 0
1381 -1406 0
3480 -4352 -1763 -3992 0
1958 -4383 -2829 -2437 0
-3989 -926 0
3852 -1968 -2118 -1740 0
4387 -3940 0
1471 -1252 -556 0
-986 -1 0
4855 -3897 -3680 0
4221 -385 -2481 0
-4932 -4959 0
4624 -1152 -3985 0
2242 -3823 -748 0
1443 -1985 -3374 -2685 0
2466 -1511 -2632 -1027 0
-3698 -785 -609 0
2245 -1531 0
-1671 -1410 0
-3719 -893 -3141 0
-350 -1063 -4036 -3421 0
-2254 -1076 -1241 0
4783 -2166 0
1259 -3958 0
301 -428 0
2223 -2583 -2793 -3752 0
-744 -2875 -3779 0
-963 -1714 0
-5 -1176 0
304 -51 -1868 -197 0
682 -3390 -2561 -686 0
-2080 -3915 0
3340 -4695 -3631 -4424 0
-2159 -539 0
-2007 -277 0
2361 -4057 -1450 -2311 0
3860 -1454 -4327 0
3893 -4990 0
4910 -4735 -1514 -2327 0
-4166 -1386 0
-3353 -4838 -3958 -3720 0
300 -3945 0
4432 -4823 -1769 -4072 0
2029 -427 0
578 -4776 -4249 0
-297 -314 0
267 -3623 0
4980 -1010 -4123 0
1225 -3482 -4278 0
436 -1242 -1227 0
2696 -1695 -2567 -1440 0
929 -4098 -37 -3074 0
-517 -4218 -2359 0
-782 -2946 -4660 0
2000 -2569 0
4989 -576 -3956 -4761 0
-2537 -3318 0
4082 -392 -1386 0
-2083 -4425 0
3720 -4403 -4611 -4676 0
4523 -2717 -1075 -2374 0
2781 -3358 -1694 -930 0
2114 -1293 0
-1907 -1852 0
-1414 -3625 -4378 -3200 0
89 -333 -417 -56 0
827 -3759 -984 -3643 0
3148 -2585 -2068 -1801 0
-2449 -2017 0
-1615 -4171 -2869 -1410 0
-3723 -1158 0
3494 -2774 -2006 0
-1934 -738 -2608 0
4783 -4686 -1567 0
3510 -902 0
3681 -904 -661 -3122 0
1339 -1875 0
2858 -1057 -3517 -1603 0
254 -3605 -4972 -707 0
3868 -54 0
4397 -2394 -3869 0
3100 -3347 -3123 -1376 0
-3650 -554 -4459 -1041 0
-2881 -2074 -4326 -3223 0
4961 -4334 -2375 -2855 0
3385 -2645 -3886 -3325 0
865 -1401 -3088 -4032 0
4644 -4557 0
1982 -1375 -1663 -4004 0
1581 -4772 -2328 0
-1302 -2929 0
1258 -2885 -1271 -528 0
2977 -3891 -2079 -2969 0
-806 -4406 0
2537 -2706 0
3927 -10 0
-1325 -845 -3199 0
-3087 -173 0
-3302 -3123 -4675 -2698 0
-1539 -1778 0
2902 -566 0
2782 -2518 -345 0
3999 -1579 -2061 -1312 0
4990 -4170 0
3644 -4536 -26 -3840 0
4543 -3944 -1006 0
-3097 -1731 0
-2649 -3775 -3710 -4058 0
4267 -4837 -2771 -2677 0
-1285 -4663 0
-895 -183 -4320 -3193 0
961 -446 -3130 -413 0
3857 -4424 -2766 -1701 0
-4525 -4845 -1075 -1959 0
1919 -3122 -1083 -4299 0
-4134 -3969 0
4242 -3708 -2463 0
1118 -4627 0
-4314 -624 -4247 -1798 0
3462 -670 -2800 -1673 0
4246 -3606 0
-4770 -993 0
-395 -1694 -4180 -1098 0
1180 -4062 -1099 0
1026 -2605 -4992 0
-3358 -4503 -3257 -182 0
2026 -3164 -636 -2187 0
-1098 -1708 0
1939 -3964 0
1641 -4971 -1775 -3935 0
1190 -4352 -3410 0
-1758 -4511 0
-2297 -1624 -2227 0
4498 -1204 0
766 -4163 0
2981 -2035 -3829 0
-3897 -2798 0
-107 -3898 -911 -1686 0
2777 -2599 -3603 -3532 0
2696 -2018 0
-50 -3948 -3093 -3758 0
2752 -2125 -1886 -364 0
3910 -4799 0
3747 -1928 -2510 0
4666 -4994 0
-526 -2605 -3550 -1316 0
556 -116 -4485 -2840 0
4859 -4605 0
6 -2868 0
-4147 -3387 -1944 -2744 0
-2141 -1440 -195 -2572 0
2200 -2436 0
-919 -3312 -3472 -914 0
4236 -3434 0
2882 -3277 -2006 -3099 0
4956 -1054 0
2173 -762 -1695 -2031 0
-3864 -2400 -1439 0
1438 -338 -2600 0
2773 -4175 0
-3070 -2487 0
2497 -3331 0
133 -3751 -2478 0
468 -704 -3949 -2537 0
2390 -4940 -498 0
3088 -777 -4275 0
1143 -2754 -3285 -3081 0
1236 -3083 -2373 0
2416 -2817 0
-3243 -2835 -1934 0
2860 -4008 -3918 0
4306 -596 -3337 -1297 0
1982 -4813 -1589 -4397 0
973 -110 -4550 -3573 0
3407 -4352 0
-3626 -810 0
3782 -3667 -1207 -1459 0
4857 -246 -1503 -989 0
4678 -2490 -990 0
965 -34 -197 0
2851 -4035 -646 -4455 0
3917 -2020 0
1959 -1415 -362 -782 0
2001 -4471 0
2784 -3404 -4517 -997 0
3880 -1925 -2436 0
4699 -3802 0
16 -3263 0
-2605 -1083 -4961 0
3676 -4278 0
897 -4085 -2547 -1921 0
1777 -4840 -2479 -2395 0
312 -290 -4079 0
1173 -4094 0
4182 -1409 -3059 0
-3872 -2219 -4093 0
-1665 -3574 -3887 0
4819 -4691 -1503 0
2102 -3350 -4980 -2441 0
-2010 -4824 -2377 0
1178 -1533 -811 -4009 0
919 -3783 0
654 -3522 0
3913 -139 -2288 0
2519 -3871 -4402 -324 0
2675 -4950 0
-2086 -837 -1146 -3637 0
250 -1609 0
4681 -3727 -4108 -1109 0
2512 -2719 -1839 0
1316 -4839 -2478 -4014 0
-4688 -2700 -4683 0
-2973 -1407 -2094 -2698 0
1450 -2588 0
1047 -462 -3825 -2039 0
-2867 -1905 0
-35 -4790 0
4364 -658 -3004 0
4270 -1948 -842 -2530 0
92 -4304 0
881 -1957 0
3629 -2111 0
3711 -2463 0
-3275 -2009 -2378 0
838 -932 -4463 -3081 0
60 -3222 0
1996 -2741 0
-355 -2984 0
2395 -4550 0
4403 -3639 -4225 -3141 0
1807 -3997 0
1195 -1231 -1844 -296 0
-2313 -1870 -3883 -4174 0
4191 -4452 0
-258 -295 -28 0
2385 -3148 0
1361 -1048 -2243 -2521 0
4662 -397 0
3063 -3069 0
-3248 -43 -3605 -1426 0
3407 -163 0
1068 -2871 -4019 -1918 0
1360 -4824 -4883 -607 0
2980 -1631 -3729 0
-3428 -3491 -4207 -3822 0
-692 -356 -1704 -2775 0
3474 -2425 0
-3977 -1019 0
-255 -989 -2037 -629 0
-2667 -3847 -4412 -2104 0
270 -3536 -3692 0
-4996 -29 0
4296 -4518 -4012 0
4644 -2845 -2216 -4069 0
1689 -3355 -4474 0
-3301 -1755 0
4814 -4657 -2097 0
-4399 -2355 -553 0
4218 -4278 -2585 -3274 0
3230 -2575 -48 0
-485 -4587 0
-429 -68 -3139 0
-2756 -2309 0
3361 -1209 -620 -2621 0
-2098 -1078 0
-517 -3433 -2943 0
2624 -4766 -3693 -1541 0
-3392 -4720 -4238 0
1234 -1059 0
274 -468 0
4315 -3091 -3448 0
-2851 -3355 -130 0
3085 -1136 -1655 0
3691 -32 -3926 -4863 0
-4886 -4567 -4057 -632 0
-2228 -1725 -4298 -4310 0
2580 -2525 0
-1081 -1123 -1163 0
323 -3450 -2161 0
183 -454 -2077 0
4968 -2378 -4677 -2792 0
422 -1386 -4478 -1357 0
-4525 -2501 0
-2956 -4251 -1729 0
655 -3401 0
1932 -3770 0
-2473 -4201 0
3205 -2857 0
3810 -3635 0
1215 -2833 -4153 0
811 -4837 -298 -2615 0
4912 -4060 -4094 -3375 0
990 -2496 -4123 -2710 0
3376 -942 0
3661 -4071 0
3592 -3777 0
-2046 -3364 0
-484 -1915 -2484 -2821 0
3002 -794 0
4135 -4128 0
-3276 -4193 -4582 0
720 -4675 -4216 0
4964 -2475 -2501 -4139 0
3128 -1204 0
592 -3705 0
-3874 -75 -3597 0
995 -3289 0
-3029 -341 0
-308 -1598 -935 -1724 0
2176 -3516 -2029 -2603 0
1934 -3321 0
1585 -972 0
2311 -153 -272 -2115 0
3019 -2175 -1657 0
1902 -3592 0
3203 -3933 -4588 -434 0
2218 -4697 0
2682 -760 -3364 -478 0
1338 -638 0
1156 -4438 -1221 0
-128 -4311 0
646 -642 0
4057 -1845 -173 -1133 0
1683 -1719 -4122 0
4154 -3996 0
562 -1819 -4726 0
-1306 -1803 -2535 0
547 -3677 -770 -3432 0
2762 -3748 0
-92 -2687 -3250 0
-565 -3781 -1207 -605 0
-122 -2651 -460 0
620 -3948 0
-610 -2452 -4243 0
4120 -4108 -1848 0
4056 -963 -1110 -629 0
-3356 -3735 -475 0
-3364 -369 -1257 0
-1563 -3128 -2600 -4315 0
3428 -2608 -4523 0
2932 -4723 -4187 -1205 0
695 -1869 -3600 -4381 0
3124 -3597 -426 -1208 0
4029 -894 -5 0
1589 -4441 0
87 -2700 0
1473 -3604 0
-2067 -400 -76 -2943 0
2751 -2658 -4373 0
520 -3760 -2576 0
-576 -665 0
-682 -3563 0
3901 -4920 -192 -1268 0
-4398 -4543 -3034 -2772 0
4845 -4449 -4395 0
2431 -830 0
2471 -1120 -4898 -3120 0
-2847 -924 0
-1731 -3893 -4307 0
-184 -230 -4224 0
-3224 -3302 -3735 -3427 0
-1698 -4636 -2693 -338 0
-3840 -565 -3407 -2513 0
777 -4507 0
3676 -3928 -3059 -2035 0
3952 -3946 -2484 0
3221 -4327 0
4753 -4961 0
2149 -2315 -2970 -3862 0
4374 -4699 -245 -1350 0
-1919 -3428 -1411 -2511 0
2060 -3130 0
3327 -4767 0
-2512 -3925 -3613 0
1318 -1989 -4210 0
390 -1949 -1341 0
3687 -4546 -4094 0
2016 -1350 -2492 -183 0
2872 -1072 -2176 -3045 0
2300 -1077 0
2298 -4914 -3672 0
4218 -1223 -758 -2407 0
4426 -39 0
345 -2432 0
1717 -2599 -1578 0
3274 -1698 0
-2340 -2645 -2961 -2528 0
489 -1536 -358 0
2313 -245 0
3726 -195 -4936 -4464 0
2876 -645 -282 -904 0
-3588 -2501 -4543 0
3891 -255 0
-4901 -4968 -2782 -3087 0
-3756 -352 -1892 -3203 0
511 -4048 -2279 -2799 0
-4464 -1611 -4010 -258 0
3887 -3863 0
1945 -1405 0
2383 -2537 -1108 0
3580 -1935 -297 0
4455 -3691 0
1441 -3708 -418 -3718 0
4817 -2006 -2607 -1774 0
3775 -4183 -3981 0
-374 -2217 -1669 0
4992 -2375 -2709 0
-404 -1847 -4543 0
-3311 -384 0
59 -2639 0
-704 -195 -3996 -1145 0
-4000 -1572 -309 0
1929 -4044 -185 -1825 0
4073 -3836 0
3409 -4751 0
3270 -3057 0
4554 -47 0
2717 -812 0
4802 -824 -4260 -4544 0
3343 -298 0
-1780 -549 -3966 0
4142 -341 -2396 -1432 0
4849 -658 -949 -982 0
302 -2554 -3925 0
4493 -3707 -4870 0
64 -2425 -2824 0
-2458 -4242 -2972 0
2084 -4514 0
-3455 -29 0
684 -2721 0
-116 -1052 0
147 -2079 -2351 0
3068 -753 0
3656 -3032 -2194 0
2622 -3600 -3608 0
3773 -3790 0
272 -732 -2108 0
480 -4125 -4858 0
2242 -931 -2485 0
2482 -4674 -4577 -3188 0
-3737 -201 -3398 0
284 -1766 -2068 0
2717 -2145 0
136 -2462 -2114 0
162 -1 -247 0
3992 -1214 -249 -691 0
1105 -3115 -2304 0
-4918 -613 -4736 0
676 -1767 0
882 -554 -2978 0
-1168 -3687 0
2562 -3411 0
4245 -776 -3033 0
3427 -2881 0
178 -4544 0
3989 -1644 -3890 -1442 0
827 -4778 0
-3116 -3259 -168 -27 0
-2534 -2306 -2969 0
-3437 -2100 -3046 0
2013 -3503 -1467 0
3219 -1936 -352 -4542 0
2036 -1578 0
2645 -17 -4585 -1331 0
3401 -845 -1149 -1934 0
-141 -1759 -4385 -1996 0
-3603 -3236 0
642 -288 -1060 -136 0
1775 -4953 -2202 0
-3051 -209 -2013 0
-2198 -4015 -1354 0
2409 -3556 -882 -4032 0
3629 -3692 -4738 0
319 -1484 0
3791 -1115 -262 0
2686 -1855 -1053 -4665 0
1389 -3149 -4825 -1215 0
-1606 -2608 -2736 0
497 -968 -3929 -4877 0
742 -4851 -3312 -1379 0
427 -1271 0
2729 -3456 -799 -3141 0
-2741 -2516 0
-3885 -3145 0
-587 -3918 0
1253 -3629 -4245 -2483 0
4324 -333 0
4305 -4551 0
-3185 -385 0
-4020 -1421 0
-2545 -4159 0
-3435 -1443 0
3756 -1370 -654 -2257 0
144 -340 0
1860 -3146 -3754 0
4295 -4214 0
-1834 -3543 0
1538 -4560 0
2651 -4584 -1099 0
2679 -4401 -2828 0
4675 -2976 -4811 -4580 0
1715 -4631 -4056 0
2195 -4246 -4083 0
-3989 -84 -4103 0
1016 -2062 0
3455 -1620 0
-2837 -271 -164 0
-830 -3569 -921 0
4339 -1429 -4898 -3560 0
4090 -1968 -642 0
1342 -4751 -4671 0
1219 -4909 0
-2023 -4320 0
-2429 -2982 -33 0
2821 -2934 -3303 0
1310 -1589 -3723 0
3800 -1491 -4312 0
-3404 -1140 -2686 -3767 0
-82 -724 0
975 -652 -3206 -3924 0
311 -333 0
1363 -4867 -4894 -89 0
481 -2253 0
2383 -3554 -2147 -1756 0
887 -4109 -4377 -3500 0
1601 -2162 -1464 -3034 0
903 -1850 -3770 0
1972 -4067 0
2358 -4043 -1592 0
1532 -1488 -4868 0
4905 -4866 0
2696 -334 -4784 -1598 0
-3275 -702 -1560 -1715 0
2236 -231 0
-1157 -605 -4215 -3289 0
3889 -3163 -3311 -1659 0
-1795 -4227 -2293 -1904 0
4465 -1886 0
3986 -4367 -3667 0
2632 -1820 -3497 0
-869 -1766 -3003 0
4135 -4902 0
-2608 -4752 -2623 0
2496 -4288 -1641 -4359 0
-745 -2833 0
3287 -3483 -1980 0
4921 -3231 0
1272 -2476 -3817 0
53 -3762 0
4794 -1820 -3592 0
500 -417 -954 0
-853 -4739 -1412 0
1339 -2895 -2168 0
1436 -4988 0
4111 -4591 -3561 0
-1294 -895 0
1600 -1263 0
2854 -1059 -3272 -4839 0
-2292 -579 0
401 -3309 -4920 0
1692 -1434 -4442 0
-2577 -3765 -1323 0
384 -4324 -3238 -3794 0
1163 -4361 0
2114 -2998 -1536 -779 0
1676 -2492 -1744 0
2888 -805 -3668 -4550 0
1758 -997 -2888 -1750 0
1354 -947 -3821 -4365 0
794 -2527 -3105 -4709 0
435 -2359 -4964 -4580 0
403 -4460 0
-2785 -290 -3728 -2899 0
-4928 -3637 0
-460 -1549 0
-2292 -3689 -3410 -849 0
2985 -768 -1027 0
-4941 -1059 -1545 0
-2994 -327 -4035 -2833 0
-980 -1410 -3413 0
1945 -1127 -2874 0
-754 -603 0
3381 -2535 0
-2705 -4316 -3689 -4831 0
1549 -4518 -3482 -3158 0
3623 -4033 -3890 0
-2731 -1193 0
-688 -4882 -4419 -3707 0
-3364 -1237 -2264 0
-3382 -2794 -4471 0
988 -3681 0
-52 -2873 -4599 -4066 0
2389 -125 -2210 0
4292 -4656 -2920 -2466 0
2768 -3232 0
-615 -3879 0
-2165 -285 0
4772 -1336 0
4620 -4691 0
-4010 -447 -3871 -1249 0
4168 -1746 0
3490 -3530 -933 -1079 0
-3402 -1232 0
408 -203 -3680 0
3606 -4749 -3228 -2578 0
-3592 -2592 -3547 -3025 0
1513 -2732 -2334 0
-3512 -4680 -3790 0
4092 -4644 -2816 0
-428 -1207 -4484 -1302 0
2693 -2534 -2725 -4701 0
4462 -300 -410 -3870 0
4582 -2243 -4328 -2076 0
400 -4836 -511 0
4025 -1193 -1099 0
1327 -3876 -4661 -4872 0
-1211 -915 -2724 0
-2072 -1188 -2146 -53 0
45 -1879 -3689 -916 0
-656 -2731 -4049 0
4647 -4517 -637 0
4716 -1274 0
4121 -916 -2500 0
4206 -3536 -1344 0
2702 -2840 -2183 -313 0
4369 -3961 -4290 -1295 0
-2932 -4088 0
4175 -3296 -1164 -2545 0
1020 -1569 -2821 0
4591 -2340 -3241 -2618 0
-4511 -2162 -1559 0
-4044 -4074 -4587 0
4788 -4347 -1589 0
1063 -1161 -3389 0
4946 -45 -3233 -2532 0
853 -543 0
1522 -4310 -1308 0
-2171 -4233 -631 -616 0
4038 -2505 -933 -548 0
4275 -4760 0
1651 -1743 -78 -602 0
-3591 -3972 0
1708 -1327 -2222 0
992 -1636 -4336 0
520 -169 -3911 0
1192 -637 0
1177 -360 -2508 -406 0
-1331 -146 0
319 -1521 0
2154 -4535 -289 -3667 0
-3411 -3045 -1981 0
-1072 -2381 -851 0
4731 -1679 0
-2727 -4106 -4918 0
3697 -2613 0
4337 -1144 -1286 0
-544 -3099 -3791 0
-1279 -444 0
2460 -3720 -1850 -2443 0
2525 -4538 -2201 0
-2831 -2024 -3378 -4873 0
-2251 -2423 -3544 0
2467 -2507 0
961 -4376 -2596 -4935 0
-2817 -2288 -762 -2922 0
-1050 -4958 -3517 0
1805 -4200 0
4394 -1525 -1452 -1147 0
-118 -3725 -3433 0
3391 -143 0
1873 -4990 -716 -3126 0
-1977 -1810 -4010 0
3917 -2768 -3706 0
2568 -3842 -620 -4686 0
4020 -1534 0
1053 -774 0
195 -3992 -3623 0
1296 -1366 0
2628 -240 -623 0
326 -3266 -2917 0
23 -3088 0
3063 -1441 -160 0
-1026 -906 -4739 0
1038 -3996 -4035 -1391 0
1017 -4655 -4550 0
-4627 -1628 -4905 -4088 0
4578 -3411 -1869 0
-1194 -2574 0
-2483 -3150 0
2655 -4559 0
-592 -995 -1483 0
1666 -231 -4848 -3671 0
1178 -2515 -4549 0
3178 -4560 0
-1164 -762 0
-1393 -4321 -3675 0
-3646 -3176 -3685 0
616 -4078 -189 -17 0
1835 -3689 -1882 0
3840 -1482 -2581 0
777 -4628 0
446 -1718 -948 -3256 0
1482 -3246 0
-2983 -4833 -4198 -613 0
2830 -3720 -2877 0
2976 -651 0
-807 -3113 0
-2977 -2387 -2053 -203 0
-1726 -1962 -2715 -2613 0
4880 -619 -2780 -3016 0
2165 -3511 0
3761 -2129 0
-3874 -1307 0
-3309 -1298 0
1909 -4736 -4992 -3097 0
3452 -3896 -2463 -1017 0
2906 -3338 -4876 0
2229 -2505 0
776 -972 -376 -470 0
2479 -2679 -2503 0
-1822 -665 -1645 0
390 -3637 -4119 -463 0
2956 -3726 0
1319 -855 -3674 0
4516 -57 -409 -2958 0
4682 -1836 -1740 -3931 0
-2195 -1748 -4793 -4758 0
-1714 -2637 -2940 -2760 0
4198 -1158 0
1910 -413 0
3545 -4092 -3796 -4949 0
2424 -4851 -2751 -58 0
-1478 -2729 -3015 -4132 0
3876 -1065 -477 0
236 -3196 -627 0
4466 -2236 0
471 -2204 -4877 0
-1398 -308 -2974 -4660 0
-118 -3743 -2574 -3811 0
-3338 -497 -3118 -2795 0
84 -125 -4874 0
-4438 -863 0
2676 -4822 -2600 0
105 -3862 -3894 -2729 0
-534 -192 -2611 -4620 0
4454 -3682 0
2296 -3156 0
1331 -781 0
1187 -3840 -2772 0
1675 -1623 0
-791 -1764 0
-304 -3852 -3411 -1993 0
1414 -372 -3823 -1209 0
-3045 -2913 -3083 -1785 0
-4518 -4397 0
-45 -2490 0
-3616 -3040 -865 0
1200 -4066 -2606 0
4236 -1083 0
-1929 -3869 0
2649 -2542 -2106 -2681 0
-276 -3709 0
1370 -423 -558 0
-1680 -3579 -3877 -4994 0
1977 -68 -1447 -2495 0
3823 -2310 0
-1645 -2999 -2544 -3029 0
4223 -2387 -3220 0
2118 -444 -4790 0
1118 -4158 -4070 -2094 0
-4684 -3399 -2679 -4904 0
-1496 -1545 0
728 -2601 -533 0
1670 -4182 0
2299 -4437 -3801 0
1416 -3800 0
4671 -3603 -3532 0
3800 -2391 -4924 0
4643 -3357 -334 -1903 0
2728 -1673 -2124 0
2961 -1506 -3443 0
829 -1609 -1584 -4977 0
2609 -2156 -2207 -2359 0
-3876 -230 -2028 -4705 0
-1000 -4471 0
3707 -4863 -1124 0
1918 -1179 -4197 -354 0
894 -312 -3131 -1081 0
-2899 -3893 -2216 0
3172 -1261 -1047 -456 0
-3502 -246 -3001 0
4990 -3524 0
-1223 -2296 -994 -597 0
-761 -3849 -4198 -1646 0
-1941 -3313 -4257 0
670 -1250 -417 0
-3874 -1237 0
-841 -4704 -233 -3400 0
3553 -949 -322 -4496 0
-4900 -1212 0
14 -3374 -4108 -1911 0
2866 -744 -4250 -4978 0
1851 -3456 -2017 -2467 0
-1236 -480 -1 0
539 -2498 0
2911 -1662 0
-4828 -2194 -3622 0
1092 -4164 -4180 0
2475 -271 -606 0
1042 -3928 0
207 -3466 -3801 -738 0
2310 -859 0
2726 -2006 -1455 0
3020 -2180 -3899 -4990 0
2377 -1761 0
-743 -4262 -1165 0
3847 -1969 -4100 0
4620 -406 -4499 -3017 0
1080 -3179 0
4859 -3397 -339 0
-33 -2624 -3853 0
1171 -378 0
4676 -4442 0
3983 -652 0
1184 -601 -1525 -1356 0
1348 -918 -624 -2217 0
-1846 -4134 0
-4474 -4412 -3848 -879 0
-132 -2836 0
1979 -4621 -4990 -4109 0
3481 -3934 -3928 -2890 0
-915 -1741 -3933 0
2606 -4232 -3386 -1557 0
1820 -2449 -2247 -3179 0
1514 -4011 -3492 -2582 0
4085 -4054 -1579 0
4610 -4807 0
-4139 -1250 0
4122 -2045 -2482 0
520 -1292 0
2924 -445 0
915 -2226 -3771 -2584 0
-2679 -1495 0
4523 -1039 -4251 -3752 0
-3227 -3439 0
2972 -2533 -123 -4678 0
-62 -1273 -2753 -3144 0
-4776 -3521 -1918 -426 0
-1924 -1678 0
2186 -703 -2254 -4237 0
-4765 -3664 0
-2329 -3342 0
4282 -1321 -1945 0
386 -4924 -4062 -1387 0
4042 -2623 0
-2029 -881 0
3531 -3252 -1426 -1622 0
3934 -4576 -4513 -2510 0
4700 -20 0
4214 -784 -1235 -171 0
797 -917 0
2815 -220 -2993 -1484 0
-92 -1520 -307 -206 0
3700 -4448 -4771 -3533 0
1336 -3543 -1501 0
293 -2987 0
2938 -891 0
-3765 -2523 -3321 -101 0
4495 -3007 -4575 -4537 0
3989 -1404 0
-1720 -1431 -782 -674 0
3886 -1920 0
-3322 -4814 -1360 0
1850 -4779 -585 -429 0
4553 -1011 0
3270 -3900 -505 0
313 -322 -1326 0
2377 -271 -1911 -1850 0
-4021 -2182 -1597 0
1662 -194 -127 -1243 0
2045 -2618 -4931 -710 0
2649 -2074 -1010 0
3237 -2794 0
-1658 -1699 -2697 -2589 0
67 -290 0
188 -4838 -4430 0
-3674 -1513 0
1125 -2655 0
4146 -449 -1888 0
-211 -3591 -603 -3791 0
1924 -1568 -36 0
2898 -1672 -3255 -1613 0
-4335 -4711 0
2607 -3704 -3419 0
2477 -1468 -1195 0
3700 -571 -3423 0
1367 -655 0
4477 -21 -2602 -4015 0
-1718 -1452 -2616 -3926 0
1213 -4753 -1054 0
324 -4016 -4352 0
3329 -4409 -3301 0
-2255 -2988 -3545 0
4696 -482 -757 0
243 -3313 0
-3175 -1325 -394 -4506 0
-1123 -1835 0
-4021 -1488 0
1628 -3181 0
1232 -4749 -1293 -2210 0
4654 -2678 -1436 -3805 0
1222 -4919 -2899 -3003 0
4639 -4415 -4516 0
948 -3986 -3637 0
-1880 -1434 -959 -4454 0
-4780 -2664 -4589 -4871 0
1795 -1130 -4903 -2745 0
4258 -3351 -3615 0
2255 -3254 -338 -1349 0
-338 -1126 -4975 0
889 -4106 -1746 -1085 0
190 -1797 -4063 0
1232 -3530 -2355 0
1050 -5 -3112 -4639 0
-4110 -104 0
1759 -4122 0
4421 -4280 -4142 0
1117 -453 0
1835 -832 -956 -2571 0
-4327 -124 0
97 -1904 -1044 0
253 -3433 -677 -642 0
897 -1632 -2360 0
2819 -1380 -3100 -925 0
4086 -650 -2839 -1208 0
647 -4445 0
-3593 -1910 -3330 -3049 0
1630 -3419 0
-1207 -3060 0
2070 -1246 0
2873 -1215 0
2818 -4749 -2139 0
492 -4971 -2857 0
1453 -1807 -1354 -917 0
3791 -922 -3611 0
3245 -4173 -4713 -623 0
3517 -2598 -2753 0
-712 -21 -2689 -1817 0
-2198 -4975 -1691 -4474 0
803 -4366 -1409 -3362 0
-4858 -4156 -2394 -2016 0
-4122 -4870 -247 0
1019 -1457 -2652 0
2739 -4258 -1823 0
3079 -2821 -4139 0
148 -1485 -3722 0
2299 -1506 0
425 -2180 0
-1512 -4867 -197 0
-3747 -3802 0
1472 -1755 -1371 -4213 0
3095 -4064 -1096 -4680 0
682 -4791 0
-252 -1177 -384 -199 0
-873 -547 -854 0
271 -3837 -4055 0
-4238 -3554 -116 -4611 0
2573 -2253 0
335 -273 -4145 0
4408 -1588 -785 -632 0
640 -1231 0
3944 -1434 0
4655 -1367 0
4969 -932 -2361 -3309 0
4613 -190 0
1719 -12 -4667 -3897 0
2938 -2769 -1728 0
-3616 -4613 0
412 -899 0
2812 -974 -877 0
4809 -267 -2487 -3257 0
-473 -2301 -4190 -1420 0
147 -2081 -4183 0
866 -3742 0
3220 -4542 -48 -1917 0
-4540 -3805 -1169 -1539 0
-1722 -2430 -4661 -730 0
2860 -1077 -972 -3680 0
3277 -4690 -3554 0
-1271 -2139 0
-3872 -623 -4990 0
1124 -3531 0
-4235 -1724 0
-4606 -351 0
-4258 -2026 0
3468 -4085 -1111 0
1331 -2472 -2832 -1955 0
4847 -2569 -4112 0
-4714 -2182 -2802 -3565 0
1679 -2293 0
1879 -3832 -740 0
-4918 -4454 -3693 0
-3667 -4175 -4472 -3125 0
4967 -1497 -1602 0
-3822 -853 0
2458 -4524 0
-3146 -2988 -4484 0
-2257 -2206 -3863 -1843 0
1445 -4755 0
-4069 -4263 0
76 -1482 -1311 -3915 0
1357 -3951 -3654 0
563 -1215 -2439 -4972 0
1496 -351 -3845 0
-2894 -4808 -2362 -488 0
-319 -1615 0
-2757 -3710 -3426 0
4614 -3701 -1278 0
1341 -1044 -4476 -3739 0
-4189 -1764 0
1756 -281 -3496 0
-4466 -3179 0
-226 -380 0
-765 -199 0
3873 -3630 -2960 -855 0
4850 -4138 -210 -2844 0
1077 -3002 0
488 -2032 -2676 0
4131 -4068 -1803 -1586 0
-2973 -1639 -3855 0
2483 -1178 0
512 -556 -4791 0
851 -3412 -1310 -2621 0
771 -1496 -3811 0
4931 -708 -4305 0
4153 -3121 -1911 -3445 0
-3064 -293 -365 -3659 0
376 -2334 -3610 -2677 0
-931 -982 -1491 0
1924 -703 -315 -266 0
-2038 -1908 -2074 -783 0
3915 -4350 -3861 0
3286 -1436 0
-3155 -3906 -2662 -1362 0
3829 -2141 -4337 0
1568 -3193 0
-4660 -46 -4902 0
3893 -4939 -4999 0
-3252 -3498 -3414 -2196 0
2013 -1146 0
2664 -1529 0
1770 -788 -4103 0
4636 -4647 -626 -421 0
-3112 -3651 -3670 -1708 0
4532 -2476 0
3164 -3595 -4207 -4987 0
-4313 -3714 -3079 -1084 0
4308 -1626 -3723 -2347 0
-1083 -4228 -2080 -1845 0
2183 -1477 -3014 -2288 0
-382 -822 -1573 -4117 0
4380 -3814 0
2366 -1530 -1449 -205 0
459 -4386 0
449 -2084 -816 0
1065 -1676 0
1040 -1630 -1117 0
4676 -3520 -2945 0
-2035 -2309 -4206 -1679 0
3331 -4561 -334 -15 0
3612 -318 0
381 -158 -2161 -1896 0
2002 -4861 -4304 -1527 0
1085 -3169 -3981 0
4670 -66 -3078 0
-4449 -737 0
3340 -1415 -2718 -2251 0
4169 -4564 0
2692 -654 -3909 -2959 0
1937 -4320 0
4937 -2182 0
3949 -795 -1220 0
2127 -158 0
4155 -3258 -3005 -3485 0
1800 -2870 0
435 -2790 -2760 0
-3270 -423 -3128 -647 0
3874 -1168 -3818 -1070 0
3480 -4254 -156 0
2785 -4860 0
-4650 -585 -1123 -3129 0
-4394 -2565 -389 -1498 0
-3612 -2735 -1252 0
-1558 -1410 -3431 0
4042 -2034 -6 0
1052 -3020 0
1130 -2349 0
1593 -770 -74 0
1345 -3261 0
951 -1351 -4726 0
2786 -2000 -3378 -2517 0
3403 -4204 -4731 -2519 0
4029 -4489 -2460 -2655 0
4843 -2630 -2795 0
3160 -390 0
3433 -2608 -3871 0
3260 -2481 -2016 0
582 -4621 -2741 0
4163 -3119 -3368 -2313 0
4684 -1354 0
-4794 -4290 -4026 0
4013 -766 -150 0
3188 -354 0
2341 -3198 -773 0
-3303 -1632 -2388 -506 0
525 -37 0
1947 -614 -1115 -1408 0
-3489 -4497 0
2472 -1870 0
2426 -2006 -1215 0
2931 -1896 0
681 -943 0
4470 -3106 -4589 -3489 0
1245 -3212 -2447 0
3982 -525 0
2291 -1164 0
554 -2844 -2867 -4836 0
4688 -2349 -2217 0
-3014 -4274 -3231 0
1708 -5000 -4576 -1097 0
2545 -3576 -4325 0
724 -3075 -2974 0
3140 -602 -1641 0
-4833 -4832 0
-3436 -3867 -1747 0
2648 -1297 -4411 0
1460 -345 -2148 -1248 0
-4834 -817 -4419 -574 0
4038 -3748 -1936 -277 0
4883 -2195 0
1957 -1573 -1839 -1452 0
-4538 -4401 -2452 -4571 0
-2898 -2038 -1398 0
3771 -1076 -754 0
-927 -2840 -3398 0
2201 -561 -161 -2782 0
-3478 -402 -3336 -4232 0
-1788 -2973 0
2780 -1735 -2868 0
4881 -3840 -4624 0
1538 -1515 -1853 0
629 -4944 0
-4883 -1745 -4398 -2217 0
2868 -118 -893 0
3792 -3357 -219 0
-3542 -3319 -4735 0
4282 -1658 -4345 0
1422 -2088 -300 -1560 0
1609 -4225 -1563 -3791 0
-3001 -936 -1739 0
4604 -4533 -349 -2906 0
2112 -3410 -4114 0
-4523 -2633 0
4479 -1822 -4766 0
4197 -1344 -635 0
1988 -2568 -3211 -571 0
-273 -601 -3677 -3216 0
3338 -1385 -4549 -3992 0
2669 -4732 0
-1297 -1292 -3154 -928 0
-4080 -2145 0
4779 -4662 -4528 -2269 0
-4146 -587 0
-1439 -1591 -2570 -3344 0
-2069 -4232 0
-4259 -4492 -349 0
4344 -4738 -4819 0
2339 -1046 -134 -4552 0
3886 -3177 -145 -2277 0
551 -3756 -3859 -3424 0
-2824 -1401 -1062 0
-2229 -3340 0
-4179 -4970 -4579 -1714 0
-2960 -188 -1398 -834 0
4106 -781 -3952 -3428 0
-1774 -4953 -4120 0
569 -9 0
4885 -4544 0
1262 -2679 -1726 0
-530 -1718 -295 -1089 0
3444 -3569 -850 0
-4625 -364 -2995 -4101 0
4963 -1701 -124 0
2004 -2140 0
-1729 -3821 -4826 0
4700 -3433 0
2179 -3599 -2896 -3153 0
4820 -3389 -3630 0
2562 -2342 -26 -2486 0
-3833 -3980 -2352 0
2290 -2837 0
-4771 -2827 0
2048 -4841 0
536 -2175 -1074 0
2983 -431 -2536 0
-1599 -3470 -1337 -343 0
2571 -2350 -2901 -1399 0
3773 -1188 -1891 0
-584 -1848 0
810 -3620 -2293 0
4652 -3660 -1913 -2390 0
3915 -3186 0
-267 -3620 0
1673 -1771 -4976 -2826 0
1688 -1227 -2375 0
3164 -780 -3007 -3496 0
2913 -1020 0
341 -1581 0
4488 -2991 -1226 -3772 0
3303 -2806 -4685 0
27 -60 -1642 -715 0
4939 -4075 -2248 0
4456 -4757 -1083 0
1949 -313 -141 0
682 -933 -4045 0
448 -4168 0
-1800 -481 -1456 0
4486 -1344 -4287 -926 0
1481 -4402 -3682 0
35 -4421 -798 0
-638 -1146 -2628 0
-2922 -1964 -3248 -283 0
-357 -1868 -2701 0
3913 -442 -608 -750 0
2307 -3892 -1478 -853 0
2778 -2332 0
-4677 -2103 0
3718 -3187 -2943 -447 0
-2189 -1406 0
224 -2297 -2353 0
-4138 -2057 -4789 0
1708 -4342 0
-568 -2697 -2828 0
-2147 -1128 0
-789 -1370 0
-4494 -2079 -517 0
-825 -3148 -4044 0
2838 -1704 -3732 -675 0
535 -1010 -3704 0
-3254 -2302 0
1978 -4153 -2874 0
2187 -540 -302 -2504 0
4531 -2077 -3271 0
848 -2978 -840 0
895 -4992 -4859 0
1637 -2768 -2473 -435 0
2370 -10 -724 0
-1072 -732 0
4232 -895 -2747 0
199 -3405 -4188 -2930 0
-61 -1515 0
467 -868 -4897 0
-1450 -1931 -2217 -2397 0
1113 -1667 -2685 -3639 0
-1763 -3995 -1529 -4387 0
-2402 -4108 0
-1320 -697 -2287 -2034 0
-2394 -1355 -1741 -1721 0
4892 -4100 -3003 0
1666 -3373 -2289 0
-1838 -2710 0
3907 -713 0
-2009 -2741 0
895 -2625 -316 0
632 -1101 0
3457 -3986 0
-1523 -2196 0
-4244 -129 -3338 0
-106 -2486 0
-713 -4439 -875 0
-1368 -2005 -789 0
4784 -1214 -4988 -3859 0
3536 -3845 -2447 -823 0
563 -3705 -1012 0
-39 -4278 -3650 0
1278 -2158 -3124 0
1492 -1476 -1862 0
488 -4054 -730 0
2507 -4879 0
1318 -497 -3748 0
1485 -1828 -1658 0
-15 -3186 -1345 0
-369 -3308 -2027 0
-2796 -3747 -3295 0
1545 -3351 -1289 0
-2330 -4724 -2933 0
2402 -2841 0
1165 -3769 0
4485 -444 0
-3900 -4485 -714 0
2600 -4712 -2068 -3042 0
4741 -3817 -2577 -2909 0
-1252 -3856 -1717 0
4036 -1004 -4399 0
3586 -2280 0
2012 -580 -16 -4720 0
-2030 -3748 0
3746 -1945 -2934 -2091 0
103 -1898 -1657 -3567 0
532 -1767 0
-4968 -4993 0
1394 -2606 -554 -3558 0
3874 -1981 -4061 -1838 0
152 -4384 -3588 0
1092 -2095 -4930 0
145 -4765 -135 0
3353 -972 -2050 0
1449 -1236 -1819 0
2340 -4062 -1384 -1352 0
1839 -1740 0
2574 -1182 0
4180 -3154 -1061 -1766 0
4654 -4390 -1581 0
1927 -2759 -2129 -3359 0
318 -10 0
4341 -764 -4265 -525 0
715 -590 0
-3066 -2049 0
2978 -3804 -4100 -206 0
113 -3029 0
-3015 -799 -2219 -2815 0
-326 -2989 0
-3331 -392 -3665 -2966 0
-988 -4812 -797 -2570 0
2085 -2444 -2595 -1291 0
-1428 -1020 -1069 0
290 -1836 -2130 -217 0
2169 -3288 0
3445 -1853 0
4456 -3200 0
4817 -2473 0
1988 -4634 -3809 -1943 0
-3030 -4320 -2531 0
2184 -3292 -830 0
4025 -1342 0
3098 -810 -3846 -1738 0
286 -3950 -268 0
-426 -276 -1547 0
3125 -3464 -4635 -129 0
2576 -3540 -3778 -4937 0
2957 -3074 -3519 0
3655 -3574 -3167 0
3620 -3564 -1648 0
4324 -417 0
949 -218 -4601 -4413 0
-939 -3767 -937 -451 0
843 -3160 -107 -2818 0
4389 -4644 -982 -3141 0
4230 -1066 0
-1679 -9 -4733 -1463 0
4313 -1340 -771 -1045 0
-4352 -678 -3064 0
428 -2618 -1933 -1349 0
111 -3299 -207 -4045 0
-1038 -1427 -2949 0
-2397 -3354 0
-3916 -1904 -85 0
1383 -875 -4905 -1423 0
3851 -2612 -299 0
3402 -3304 -3258 0
-1016 -286 -3723 -1415 0
1059 -3843 0
3926 -1038 -4476 -615 0
-1470 -4101 0
4375 -517 0
3236 -2727 -2111 -1136 0
-3359 -2149 -4224 0
4916 -2841 -53 -1730 0
1464 -4557 -3484 -2727 0
86 -318 -4748 0
625 -3349 -3612 -4401 0
-1054 -2084 -4829 -2908 0
2671 -1357 0
-1207 -1948 0
1327 -2679 -3307 -676 0
3241 -1828 0
-1799 -3670 -4999 0
416 -4380 0
-4171 -2552 0
-4623 -417 -4661 0
531 -2158 -2188 -4480 0
-4913 -466 -3741 0
4076 -2844 -82 -881 0
2684 -2873 -2900 -850 0
3400 -1048 0
1196 -141 0
1572 -2926 -3727 0
-210 -1510 0
150 -156 -4766 0
-2235 -3721 -3937 -3231 0
3585 -4592 -3842 -821 0
-2338 -1822 0
-505 -4480 -4742 -3489 0
2151 -515 -4405 0
293 -1943 -3479 0
-56 -606 -4209 -3735 0
3119 -2945 -2806 -3791 0
883 -340 -2268 -881 0
-2905 -3311 -2680 0
4895 -4819 -129 0
3217 -2252 -2065 -4652 0
4833 -4901 -3337 0
-1120 -3222 0
2209 -4330 -949 0
1180 -1282 0
4777 -4799 -1283 -649 0
1354 -4865 -4400 0
828 -1941 -1204 0
-765 -1393 -1691 -1334 0
189 -4072 -4614 -2578 0
3079 -1189 -3758 -4682 0
1582 -1319 -1558 -2274 0
2295 -3058 0
834 -4707 -3039 -2755 0
-1038 -957 -678 -4068 0
740 -1801 0
3753 -1292 0
845 -769 0
2108 -2633 -2295 0
-2270 -3048 0
2976 -3042 0
3807 -4112 0
4575 -4062 -1215 -1354 0
988 -1393 -1962 0
3203 -2430 -2540 0
321 -2868 0
1946 -2125 -242 -2398 0
3581 -2712 0
-13 -4404 0
-3999 -2026 -2327 -1369 0
-2463 -2317 0
-4099 -4898 0
-889 -3930 0
4788 -1814 -910 0
-667 -678 -3218 0
-193 -3447 -112 -4453 0
-4100 -352 -4548 0
-1109 -4933 -3578 -1241 0
-3406 -3830 0
3953 -2185 -4651 0
-3515 -3648 -1303 0
4700 -747 -4898 -1554 0
4565 -634 0
-3911 -1587 -4902 -3205 0
3206 -7 0
-390 -1727 0
4584 -2449 -4342 -708 0
3207 -1594 0
1764 -3553 -1055 0
3317 -3751 0
757 -4011 -755 -4798 0
1200 -3759 0
2071 -4545 0
3037 -2827 -663 -1232 0
1051 -5000 -514 -3928 0
2351 -482 -1905 0
3119 -2362 -4785 -3796 0
-2826 -2337 -2149 0
3035 -2606 -2691 0
-2991 -287 0
494 -2742 0
-4831 -3130 -1887 -2071 0
2153 -918 -1189 -1938 0
4457 -3864 0
11 -1889 -4740 -2371 0
-4781 -2235 -4882 0
3530 -2184 -3892 0
2281 -1554 -1434 0
-924 -4474 -1148 -1194 0
1301 -3070 -2123 0
891 -837 0
3916 -1128 0
3068 -112 0
-2418 -1754 -4270 0
3509 -4354 0
4255 -4359 -1658 -2095 0
98 -596 -4303 -2946 0
-3225 -2589 -2747 -4279 0
-3879 -3787 -15 0
-552 -2153 -1603 0
2349 -4270 -3537 -968 0
3568 -95 0
-4649 -2937 -330 -2917 0
290 -1335 -3165 0
-3581 -3369 0
-3054 -875 -4869 0
2855 -2530 0
511 -2054 -1085 0
1478 -883 -828 -608 0
1248 -137 0
4864 -850 0
148 -1913 -2544 -579 0
1729 -3751 -3164 -2420 0
-4024 -2983 0
4795 -1865 -1171 -965 0
-709 -4821 0
437 -4522 -1249 -4566 0
4309 -2165 -458 -4454 0
4351 -3044 0
2173 -3314 0
-4194 -1275 0
734 -1110 0
1538 -3737 -3493 0
3363 -4410 -2594 -1755 0
4949 -2310 -514 -3621 0
-219 -4363 0
4165 -4834 -4373 0
1949 -3151 0
4827 -4969 0
613 -779 -2864 0
-4440 -1635 -3489 -1202 0
2638 -4604 -4411 0
-3415 -2361 0
-4712 -3996 -1925 0
-4897 -4042 0
4278 -576 0
21 -4340 -2525 -93 0
662 -2910 -4599 -1022 0
-4426 -2348 -6 -3633 0
-232 -1649 0
1279 -4659 0
661 -3665 -1280 0
2913 -3503 0
766 -119 -4163 0
-1340 -4061 -1131 0
2918 -2612 0
3976 -3837 0
3903 -4115 0
2521 -4376 -3633 0
1554 -1762 -2371 0
21 -4254 -2065 0
2868 -1433 0
2703 -2289 -764 0
356 -2294 -3532 -1723 0
4950 -3729 0
-1174 -1256 -1524 0
127 -4067 -2627 0
-4430 -3339 0
1857 -3738 -674 0
-2667 -2393 0
410 -1198 0
1169 -4806 -1973 -3887 0
3606 -2399 0
2439 -2307 -2167 0
1556 -2377 0
-4269 -912 -1142 -4113 0
1128 -3643 0
-1335 -2917 -1353 -3621 0
689 -997 -1531 -2703 0
-1893 -4277 0
-3053 -2512 0
1638 -2033 -55 -1110 0
2765 -2324 -2138 -2310 0
1001 -1491 -1415 -579 0
744 -692 -181 -1864 0
847 -3221 0
3242 -3548 -3387 0
2122 -1247 -2567 -2458 0
-622 -4739 -2949 0
777 -904 -2084 0
1395 -3317 0
2387 -4797 0
3634 -3270 0
2824 -2282 0
-4131 -4873 -1862 0
-1276 -2123 0
4602 -3083 -2463 0
1697 -4834 -3695 -809 0
-1311 -599 0
-2535 -4934 -3199 -3211 0
4317 -1960 -3948 0
-2242 -2918 -3340 0
3347 -1972 0
-4605 -1699 -3512 -3257 0
1285 -213 0
4329 -3847 0
4535 -1208 -2054 -983 0
3471 -2055 -1147 0
-2586 -2545 -4299 0
1105 -4523 -4782 -677 0
-3952 -3688 -4896 0
-893 -4350 -3532 -1975 0
1934 -4011 0
1270 -2506 -873 0
626 -4075 0
4831 -3284 -3213 0
3944 -4260 -1540 0
-3017 -1890 0
607 -3336 -683 0
4840 -2855 0
3296 -4877 -2393 -71 0
-3043 -3104 0
2034 -1450 -700 0
-2767 -3158 -947 -1342 0
4689 -1749 -371 0
3906 -1220 0
4283 -4417 -4716 -4852 0
-3623 -2259 0
763 -2854 -3308 -286 0
1898 -4630 -4758 0
-2206 -1094 -226 0
2472 -4841 0
-4044 -4502 0
-2019 -940 0
4430 -1041 0
-4201 -4645 0
2045 -3747 0
-165 -1542 -2535 -3545 0
4245 -3629 -2713 -1160 0
1268 -4618 -3398 -4293 0
-1738 -1484 0
4132 -321 -2823 -4481 0
3872 -3723 -3510 0
-169 -4867 -2349 -101 0
1605 -2044 -4244 -4440 0
-4501 -1711 -3851 0
1300 -4789 -4708 0
-1233 -1533 -4145 -4226 0
-1928 -550 0
2363 -4648 -1174 0
4768 -3423 0
-4794 -841 -2231 -2995 0
-4850 -2195 -3584 -1368 0
3240 -2241 0
-3482 -4404 0
2144 -3762 -3512 -353 0
-2722 -3422 -1617 0
847 -3255 -4010 0
4037 -4755 -3390 0
-977 -3677 0
4679 -1930 -273 0
1843 -1660 0
4943 -4673 -3741 0
-1383 -1684 -3179 0
-4954 -2748 -1992 -4381 0
-3838 -4388 0
-2664 -3430 -4128 0
4571 -1391 0
3603 -2584 -679 0
3899 -1053 -3809 -3726 0
922 -3597 -3844 -2772 0
312 -3950 -1893 -58 0
3315 -4710 0
2132 -1857 -3827 -3620 0
3038 -2943 0
4781 -2209 -3363 0
-4461 -2343 0
1213 -2509 -4752 -3093 0
2909 -3627 -3459 -2273 0
3021 -1393 0
-1831 -1000 -674 -3199 0
-1543 -1849 -941 0
-2703 -1604 -65 0
741 -3327 -2934 0
3787 -1841 -3124 0
-143 -1807 -1066 -367 0
-376 -667 -3497 0
2526 -50 -3237 -3778 0
3682 -3071 0
-3815 -2711 -2113 0
-276 -87 -3112 -1551 0
1266 -2176 -3173 0
-636 -3908 -1045 0
400 -2507 -3624 -4585 0
-2468 -1690 -4681 -2262 0
-3590 -4993 -583 -135 0
-2600 -3622 -1163 -4677 0
-1196 -4915 -1935 -3428 0
4606 -268 -3633 -282 0
1960 -1919 0
270 -4039 -440 -1493 0
-1885 -4086 -3466 -1600 0
4954 -1178 -2735 0
1431 -3448 -3744 -475 0
-3459 -737 -378 0
-2709 -4589 0
139 -2164 0
733 -3288 -4011 0
-3813 -2091 -3795 -4233 0
429 -3294 0
2406 -602 0
-4342 -4405 -3224 -4366 0
4764 -4686 0
1955 -1528 -369 -4547 0
2182 -2760 -4819 0
1546 -3842 -3973 -3578 0
-1499 -828 -1002 0
2049 -2461 -495 0
1993 -766 0
1986 -882 -393 0
-154 -438 0
2224 -3218 -1773 0
2310 -1837 0
461 -422 0
1061 -2446 0
4538 -4339 -4390 -1998 0
4922 -1737 0
1041 -98 0
1260 -4916 0
1829 -1920 -2071 -3734 0
2682 -2983 0
2697 -4438 -178 -3930 0
-4938 -3814 -3581 -2445 0
4441 -561 -4032 0
198 -269 0
-4924 -1505 0
4892 -20 0
-3182 -3057 0
-4338 -758 -3977 -514 0
936 -2701 0
4248 -2329 -239 -2536 0
-4232 -3237 0
-3025 -3928 -1968 0
2166 -3363 0
-962 -257 -1148 -2098 0
100 -1929 -1812 -3818 0
3354 -1981 -2835 -4688 0
-309 -4986 0
-4472 -2720 0
-1796 -1124 -555 0
982 -2352 -162 -472 0
4078 -589 0
4499 -899 -1262 -389 0
-1868 -1099 -1372 -4556 0
-1516 -2998 0
1404 -2757 -4600 -1145 0
-4174 -4672 -2073 0
2991 -739 -1876 0
4567 -2920 -2539 -2810 0
3273 -1532 -2730 0
469 -4474 -972 0
255 -985 0
-3248 -870 -836 -1651 0
4249 -4962 0
2115 -209 -3477 0
-3082 -4916 -3476 0
4425 -232 -4398 -1960 0
-1964 -2173 0
4919 -84 0
4145 -4963 0
-4352 -2591 0
708 -4191 0
210 -4879 -4064 -326 0
169 -2163 -380 0
2670 -2778 0
1386 -1468 -745 -487 0
4302 -2914 -3644 -244 0
3409 -1601 0
4 -4373 0
3462 -3901 0
-4499 -318 0
3816 -1133 0
1859 -3627 -3165 0
-3742 -2628 -3964 -2557 0
1157 -1090 0
3845 -1990 0
3054 -2237 0
3524 -4502 0
82 -4475 -474 -3997 0
4917 -2361 -4350 0
-18 -2696 0
1766 -3689 0
-4737 -2661 0
-1554 -1313 0
4627 -4430 -3137 -1999 0
2319 -4188 0
3687 -155 0
2412 -3776 0
3252 -4088 -3456 -4922 0
3353 -2874 -3674 0
3074 -67 -4222 -4177 0
3701 -3985 -341 0
-3666 -233 0
2381 -4369 0
-3713 -878 0
-3015 -3667 -3821 -1593 0
2670 -132 0
2498 -3721 0
-1229 -1353 -3812 -3910 0
132 -1474 -75 -1433 0
3565 -849 -1474 -3674 0
419 -1860 0
-2901 -934 0
1937 -1075 -197 0
1004 -2255 -4126 -2727 0
3159 -1186 -3762 -3834 0
-239 -1354 -3196 -610 0
-788 -4331 0
-2140 -3773 -469 -3931 0
3993 -1831 -3219 0
-342 -2726 0
4654 -239 -4738 -2374 0
2893 -3328 -1747 0
3850 -1884 0
-768 -3098 -1899 0
-3838 -1364 -2381 0
4734 -871 -738 -3119 0
-4805 -3093 -2868 0
-2853 -4735 0
-2975 -1540 -72 0
-2827 -4035 -742 -3763 0
2082 -2556 -2157 0
-2087 -4995 -4050 0
-659 -4052 -3751 -1850 0
1730 -4214 -3285 -3278 0
-3377 -3706 0
4455 -2850 -2663 0
1933 -3897 -2164 -2698 0
4249 -911 0
1235 -158 -4854 0
4696 -919 -4518 0
1159 -3923 0
773 -2585 -2380 -914 0
-3781 -2190 -967 0
-2379 -3668 -2323 0
-4070 -3793 -4641 0
2868 -1523 -3905 0
2775 -3526 -828 0
3981 -2375 -3303 0
-10 -2478 -3423 -1459 0
-4352 -2388 0
-100 -1343 -3156 0
3112 -2795 0
3122 -4597 -3065 0
3578 -434 0
-3939 -1111 -2975 0
175 -3983 -2687 -1893 0
4763 -613 -509 0
1292 -4245 -2186 0
-174 -2355 -2917 0
1811 -2225 -1013 -4915 0
304 -4769 -4464 0
484 -4502 -3497 0
4812 -699 -4307 -880 0
2592 -3992 -3893 -2878 0
1004 -4447 -3418 -649 0
-2552 -3887 0
-4438 -1690 0
1112 -417 -2986 0
2126 -3678 0
1169 -4988 -1551 0
-3980 -3122 0
4908 -3637 -2458 -3433 0
-4332 -4921 0
3342 -3015 -756 -3225 0
3189 -2867 -4360 0
844 -2827 -1472 -4827 0
3492 -1106 0
-1734 -756 0
-4084 -3092 -896 -2111 0
-4599 -4645 0
-1637 -3379 0
-3416 -987 -963 0
-4908 -1455 -1801 0
4519 -240 -212 0
2864 -2883 -259 0
-796 -1835 0
4632 -4107 -1214 -612 0
-738 -2856 -3500 0
869 -3938 -3137 -1445 0
3713 -4102 -3137 -2248 0
-3251 -1705 -3047 -1749 0
-4070 -3117 -3058 -4220 0
1389 -1004 -4152 -4640 0
-4802 -2393 -2513 -3109 0
3331 -3567 -4394 0
4749 -3137 -390 -2840 0
-2309 -526 0
-4454 -2003 -4242 0
4685 -1871 0
4352 -2035 -1919 -2882 0
3670 -1743 -940 -4375 0
-206 -4454 0
2726 -4987 0
-1854 -159 -4327 -3320 0
57 -4272 -4592 0
4614 -2727 0
-3771 -4849 -1034 0
4320 -1514 0
4773 -3766 0
-1901 -1815 0
3554 -4212 0
-463 -3171 -1551 -2657 0
281 -3338 -615 0
4137 -4475 -95 -3007 0
-1687 -1558 0
2893 -2739 -4059 -1287 0
4769 -893 0
4718 -2402 -4147 -3606 0
1387 -3506 0
-2581 -1550 -1593 0
-4220 -190 -3293 0
4291 -1321 0
144 -3531 -815 -2141 0
874 -4283 -4265 0
4693 -2334 -2711 0
-3262 -2567 -1557 -868 0
623 -3557 -1835 -4257 0
1647 -1562 0
3402 -1725 0
3267 -1314 -1476 0
1620 -422 -1966 -1259 0
4414 -4262 0
2024 -1052 -4425 0
4001 -3280 -3370 -4856 0
2906 -4408 0
3934 -4608 -1255 -4435 0
234 -4275 -712 -1648 0
4964 -2157 -4377 0
4156 -1588 0
1405 -412 -4237 0
4031 -3582 -3934 0
2060 -607 0
2092 -100 -2548 -4972 0
4873 -3057 0
3878 -3539 0
693 -2530 -1019 0
2884 -2921 -590 0
4606 -274 -1250 0
3013 -269 0
-2786 -2103 0
3462 -4591 0
4609 -1736 -4850 -1328 0
3957 -4861 -90 -1650 0
1037 -3496 -4259 0
1125 -1608 -2070 0
1054 -557 -914 0
4488 -1780 -2264 -691 0
4795 -4350 -4579 -4235 0
3438 -1361 -2976 0
2840 -4672 0
3583 -868 -4198 -1756 0
4677 -974 -1623 0
1331 -1737 -525 0
4330 -2275 -3076 -119 0
-3792 -4813 -3595 0
1290 -3907 0
-635 -3287 -4283 -3769 0
82 -1352 0
2281 -4277 -2670 -4785 0
4902 -2623 -1058 -2289 0
-4226 -3356 -3618 -4965 0
3441 -3915 -1490 -1 0
1909 -3085 -4002 0
562 -4376 0
3051 -2564 -808 -4783 0
1604 -4332 -2012 -4176 0
2228 -1056 -51 0
4567 -4406 -4960 0
4308 -841 -1482 0
684 -2072 0
4946 -1913 -447 0
-2550 -112 -315 0
4200 -2167 0
-560 -3208 -210 -2599 0
2584 -2183 -745 0
-964 -2429 0
-350 -3446 0
1544 -1312 -2499 0
671 -1128 0
1992 -245 -2894 -755 0
1852 -1009 -405 0
-1606 -3953 0
2614 -2142 -4011 -4658 0
3850 -4347 -1040 0
492 -2250 0
3047 -3620 -1923 -337 0
2528 -2221 -2359 -2811 0
462 -181 -3845 -3255 0
-1562 -2613 -1448 0
4264 -4967 -3272 -4595 0
-4343 -1306 -3216 -3089 0
2689 -21 -224 0
-650 -3312 0
-590 -913 0
-1669 -3094 0
-3799 -1611 -4650 -3998 0
-4293 -3925 -1535 -1901 0
-4811 -3974 -2441 -2825 0
2112 -2177 -1610 -585 0
-3189 -2421 0
4256 -1357 -591 0
896 -2883 0
3228 -2078 0
-4945 -2136 -3984 -4897 0
-2371 -1617 -4316 -3418 0
2368 -3349 -3615 -3520 0
1235 -2048 -2510 -2943 0
-3642 -3431 -324 0
-1088 -1790 -631 0
432 -2812 -2271 -4912 0
-726 -341 -1738 -4094 0
520 -596 0
1468 -2474 -729 0
1588 -764 -3475 0
3232 -2824 0
-1005 -1480 0
-714 -3098 -2668 -266 0
4611 -4644 -3028 -2572 0
1161 -878 0
2103 -2155 -1086 -684 0
-3900 -1489 0
-1123 -3052 0
-512 -1356 0
2706 -2401 -2525 -1554 0
4762 -883 -4118 0
-219 -2281 -1636 -3976 0
-2500 -4762 -1540 0
565 -3523 -2602 -1369 0
4482 -1459 -3006 0
-4098 -1281 -386 0
1182 -2853 -4799 0
-236 -3052 -1817 0
716 -2538 -3435 -1006 0
3973 -2157 -3697 0
1536 -3843 -2406 -4969 0
-2898 -221 0
4656 -4137 -2877 0
1250 -3087 0
1654 -653 0
286 -4151 0
892 -105 -4403 -4826 0
3987 -4084 -4055 -3247 0
-1896 -4019 -3451 -1680 0
2816 -460 -3041 0
3807 -3312 0
555 -1107 0
2858 -675 0
1360 -492 0
-3212 -3809 0
-3596 -3470 -3648 -2218 0
-3923 -754 -1727 -650 0
3579 -967 -3118 0
2471 -4908 0
85 -1610 -3360 0
1859 -1882 -2528 -3238 0
2730 -2892 0
1509 -2767 -3680 -2650 0
3576 -3565 0
-1122 -1579 -2581 -2849 0
-2885 -3237 -1508 -4355 0
1002 -3137 -1027 -3405 0
4450 -316 -3788 -4409 0
718 -4878 -3289 -1037 0
-840 -2460 0
-1137 -2029 -2480 0
4701 -818 -2772 0
376 -4759 -487 -4091 0
-2249 -3734 -2969 0
3909 -4634 -250 -2547 0
4003 -4390 -1415 0
4720 -2053 -4403 0
-3985 -2727 -3053 -604 0
1840 -3208 -490 -2973 0
-2659 -1034 -1669 -4742 0
3988 -993 0
-2328 -1416 -2902 0
1778 -1441 0
2901 -179 0
3563 -3108 0
1380 -4549 -1031 0
-3321 -2190 -844 -1786 0
802 -1118 -834 0
-4709 -3538 0
4383 -3594 -4604 0
785 -1015 -3206 -162 0
2000 -3695 -2565 0
3211 -4547 0
1262 -3298 -3356 0
2116 -149 -4231 0
895 -904 -3160 -789 0
1576 -1018 -4803 -2212 0
1103 -1276 -1321 -4373 0
-3053 -1271 -3188 0
1978 -536 -4793 -4676 0
1439 -2556 -3680 0
4583 -727 -2418 -2320 0
2425 -2080 -3176 0
-1022 -1173 -4552 0
-1679 -90 0
-3013 -4423 0
2478 -4265 0
1293 -4350 -1142 -4547 0
746 -1206 -3011 0
4647 -1729 -1466 -3992 0
3214 -4829 0
-2331 -3876 0
-3544 -808 -209 0
2742 -3618 -3409 0
-1159 -51 -3457 0
3500 -1798 0
500 -262 -3636 -222 0
3591 -482 0
4251 -1363 0
4247 -993 0
1459 -1546 -3495 -637 0
-3982 -2640 -779 0
2420 -616 -389 -46 0
1145 -1717 -2131 0
305 -1205 0
1523 -4415 -1019 -1646 0
-1191 -4400 -2178 -3155 0
2520 -2487 -702 -3320 0
-3258 -4917 -3162 -3616 0
-3755 -4189 -741 0
4337 -64 -2896 -3036 0
324 -2304 0
924 -2546 -3935 0
1699 -3893 0
1726 -1720 -3851 -2027 0
-1144 -2149 -4930 -4564 0
3794 -2865 0
851 -2771 0
2649 -2938 0
1422 -2644 -848 -2900 0
-838 -3780 0
2679 -4565 -2270 -468 0
4200 -481 -346 -3480 0
-2190 -1610 -1831 0
2114 -4767 0
3105 -290 -65 -1799 0
1569 -2585 -3521 0
-4435 -3688 -2841 0
-2195 -2274 -14 -3691 0
1657 -2132 -4852 0
4630 -795 0
-4038 -1747 -3130 0
-1811 -3173 -2821 0
150 -4140 -3641 0
3278 -3759 -120 0
2330 -2642 0
3240 -2872 -539 -1415 0
-4797 -1672 0
3723 -4433 -3885 0
-1429 -4203 0
-2872 -3770 -2120 -4103 0
1128 -369 -4683 0
2561 -3716 -3573 0
2887 -3970 0
1727 -3353 -1686 0
-4693 -471 -2840 -4596 0
4968 -4292 -2495 -179 0
-863 -2319 -4337 -1267 0
-3413 -3621 -3644 -2765 0
464 -4690 -4218 -3911 0
-4428 -1679 0
2663 -4223 0
3351 -2437 0
-848 -3946 0
1118 -4500 0
3055 -2636 -2126 -3313 0
-4832 -4128 0
1517 -2616 -4929 0
145 -4089 -1255 0
2237 -3837 -146 0
-623 -1578 0
1578 -3620 0
34 -2975 0
1600 -3470 -3503 -4750 0
1739 -1396 -3349 -4457 0
2169 -1940 0
273 -1922 0
1376 -3133 -1593 0
-665 -585 -3877 -1387 0
-2221 -2997 0
1839 -410 0
-4387 -2511 -611 -2261 0
-4675 -4246 -1915 -3390 0
-278 -4026 0
1680 -500 0
-1879 -3631 0
888 -3055 -3736 -2472 0
2089 -3583 -2069 -1968 0
1133 -3878 -1064 -4316 0
4859 -4811 -238 0
4532 -1215 0
4539 -3213 -4714 0
4405 -2043 -2910 -2129 0
-1642 -3805 -168 0
524 -1072 -202 -3350 0
-856 -1946 -820 -4439 0
4831 -2583 -3593 0
1779 -4585 -2940 -1097 0
2478 -3244 -3606 -605 0
-4442 -3177 -2192 0
1840 -1788 -3817 0
660 -3463 -2496 -72 0
4029 -4062 0
4313 -955 0
3517 -4038 -2056 -486 0
1629 -1167 -2350 0
-2053 -4659 -3462 0
3702 -792 -359 -2274 0
-4742 -3072 -1334 -2013 0
3482 -1165 -2470 -4748 0
1134 -4829 0
-4613 -2764 0
-817 -878 0
3637 -3549 -277 0
842 -944 0
1931 -1075 -556 0
886 -3061 -5 -1096 0
-3490 -2225 -2762 -799 0
1093 -171 -3033 -2946 0
2017 -3599 -2925 -1362 0
2629 -1485 -1038 0
2226 -1043 -1164 -4897 0
3669 -1564 -4749 -1730 0
1389 -1264 -164 -4849 0
4844 -3550 -2867 0
1222 -1667 -3045 -718 0
3516 -620 -2809 -4429 0
1791 -889 -4943 -1889 0
4582 -2881 -2915 0
3386 -112 -2313 0
2057 -3584 -1800 0
10 -787 -3505 0
-1340 -352 0
205 -4303 0
2122 -538 0
4675 -3539 -3023 0
4657 -3313 -3398 -4901 0
3893 -4805 -4421 -1463 0
1338 -1263 -3621 -3134 0
4007 -1534 -1683 0
4062 -4224 0
-1718 -4286 -3605 -1203 0
-4612 -1023 0
2713 -4037 -4175 -3999 0
2381 -2297 -425 0
-3303 -3768 -3566 0
-2411 -4697 -3598 -4519 0
-4957 -1330 -3639 -506 0
-1251 -3427 0
-531 -3242 -3857 -901 0
3838 -3136 -1235 0
2627 -2180 0
2531 -3425 0
103 -1484 -1048 0
3337 -2688 -130 0
4037 -447 -1781 0
3892 -302 0
3616 -2126 -1280 0
4469 -2448 -4632 0
2065 -4248 -4921 -996 0
-3391 -3730 0
3622 -4615 0
1519 -511 -3777 -3844 0
2177 -3447 0
434 -1702 -2069 -4073 0
1205 -2127 -4285 0
-3491 -3295 0
-4367 -4088 -1192 0
4910 -4059 -2115 -157 0
1811 -185 -1066 0
27 -4066 0
-3911 -4468 -4668 0
1050 -3698 -4322 -2664 0
199 -444 -29 0
-1754 -4425 0
-3386 -1524 -4278 0
2342 -1685 -2114 0
4149 -200 -2572 0
-2156 -2208 -404 -3818 0
-4321 -4550 0
1567 -871 -4895 0
-3555 -4954 -1154 0
-2772 -395 0
1990 -4117 -2990 -3786 0
376 -2629 -1372 -1862 0
4247 -469 0
-2155 -4010 0
-4951 -3623 -559 0
-3755 -4412 -3143 0
-2097 -1969 -3372 0
157 -4433 -4400 -4035 0
1524 -3026 0
-3533 -4335 0
3109 -3646 -744 0
3869 -506 0
2032 -1783 0
79 -521 0
-2641 -751 -4984 -513 0
-478 -1452 -730 0
4547 -1598 0
1631 -698 -400 -2733 0
3222 -4808 -291 0
2582 -287 0
1292 -2649 0
70 -4341 -1108 -4090 0
168 -3623 -1168 0
-3530 -2776 -4310 0
2705 -2266 0
2011 -2724 0
656 -3305 -30 0
2313 -783 -2491 0
3615 -4004 -1633 -4238 0
2159 -419 -3152 -4166 0
4155 -424 0
4613 -3228 -1526 -1373 0
4682 -1773 -4333 0
1673 -2536 0
-2483 -4581 -1695 0
2678 -3011 -4454 0
930 -4480 -1144 0
-2914 -4411 -2710 0
4317 -2746 0
2217 -1171 -1525 -2751 0
4093 -2198 0
-2052 -4396 -1058 0
4986 -3357 -3106 0
-3380 -2692 -1805 0
-4814 -4086 -3263 -3562 0
-3580 -3542 -714 -4433 0
3984 -3341 -4821 0
804 -2183 -2468 -4184 0
2829 -230 0
-1599 -1434 0
-1420 -3348 -4123 0
1229 -3531 -866 0
2422 -313 -128 -3529 0
1166 -537 0
124 -1273 -681 0
1540 -4638 0
1115 -4476 -2441 -4392 0
3389 -4609 0
4146 -4537 -4511 -787 0
4160 -2243 -2531 0
-1974 -4445 0
2031 -257 -4606 0
3766 -413 -4253 0
4421 -4473 -4169 -2052 0
2575 -4422 -3717 -1673 0
2890 -2689 0
2675 -4287 -4172 0
561 -4997 0
-2158 -2491 -2897 0
4307 -3006 0
1635 -4878 -4633 -3075 0
2436 -39 -1546 -533 0
-1675 -3132 -950 0
3312 -4234 0
2537 -1477 0
358 -1954 0
1965 -3046 -1320 -4096 0
1719 -599 -3749 0
400 -4817 0
1416 -3365 0
2817 -4005 -2322 -1056 0
-2329 -1853 -3257 -3185 0
2038 -2700 -1534 -984 0
363 -1508 0
1446 -3192 -4227 0
4244 -4903 0
-3704 -3580 -2706 0
2277 -3287 0
1506 -1981 -3582 0
1638 -1040 -3884 -406 0
-1697 -4572 -102 0
4305 -3214 -1 -3368 0
1272 -191 -4973 -2256 0
-1468 -4221 -4334 -4997 0
277 -4982 -3356 0
2272 -3135 -4569 0
1280 -565 -1682 0
2703 -2225 0
-2225 -403 -4807 -2373 0
-2136 -324 -2829 -4715 0
522 -1644 -1669 0
1699 -1673 -867 0
727 -1958 -2087 -2292 0
1740 -2817 -4973 -3937 0
936 -1997 0
4307 -1315 -4509 -182 0
-4124 -550 -4595 0
-4235 -3654 -4254 -595 0
-950 -3670 -935 0
-3211 -2546 0
-2042 -3347 0
2548 -3860 -4537 -298 0
4990 -95 0
4030 -2469 -3050 0
-3420 -4755 -2092 0
902 -4982 -1172 -3665 0
2445 -2710 -3191 0
-4929 -1446 -2001 0
-3951 -907 0
4397 -1597 0
-4543 -1846 -3648 -2094 0
566 -1879 -1775 0
3045 -2615 -50 0
-1981 -1774 -1878 -2069 0
-2883 -1196 -4170 -4431 0
-438 -1680 -4790 -3025 0
-4718 -2297 0
2906 -1925 -2949 -4691 0
3275 -726 0
330 -3786 -3009 0
-4856 -4304 0
-1176 -2025 -1528 -4066 0
-3318 -1452 -484 0
417 -738 -544 -3387 0
2348 -3628 0
2848 -2264 -4454 0
4309 -4658 -4857 -1005 0
-4280 -4846 -3411 -3991 0
-2192 -4338 -2857 0
2190 -601 -4428 -4440 0
-1821 -3352 -4669 0
4929 -4809 -1810 0
1565 -1429 -2025 -4359 0
-256 -3615 -3839 0
452 -2059 0
3425 -851 -1348 -2596 0
-3339 -4108 -2058 -4096 0
3501 -1280 -4682 0
3697 -1092 -1380 0
2941 -1296 -1521 -2396 0
4521 -2586 -4608 0
2023 -3151 0
2843 -4850 -1919 0
4540 -728 -77 -346 0
-2009 -1000 -2373 0
4358 -324 -3811 0
-2294 -3647 -3187 -2183 0
1633 -4106 -4197 0
613 -1560 -2514 -2691 0
-2894 -4750 -4198 0
2754 -3978 -3615 0
617 -2873 0
4162 -1427 -3155 0
4350 -3553 0
631 -2553 -518 0
483 -1850 0
-3503 -2967 0
-1369 -2756 -3010 0
1104 -2670 0
1063 -2652 -841 0
3236 -4452 -929 -3332 0
1979 -1124 -2296 -1294 0
-1517 -512 -4418 -4607 0
2735 -4336 0
3282 -3680 -4468 -1991 0
4406 -3591 -3294 0
3761 -473 -3266 -1653 0
1542 -4123 -4259 0
-4887 -4566 0
4300 -2303 0
-1199 -2218 -2152 0
1393 -496 0
1144 -2414 0
-658 -1450 -3577 0
3136 -777 -880 -1720 0
2487 -2496 -3593 -522 0
-1335 -1595 0
-3783 -4365 -606 0
2646 -2089 -1508 -885 0
3422 -2012 -2720 -3066 0
4938 -4613 -3954 -1320 0
534 -4148 -1651 -4345 0
-3913 -2298 -1262 -2630 0
2882 -1077 -4714 -2713 0
4427 -177 -244 -4965 0
-3447 -4540 0
1654 -4077 -1640 0
3564 -1656 -386 0
4519 -3813 -4693 -3293 0
4287 -1012 -693 -1432 0
224 -1066 -3714 0
-4113 -4766 0
-3465 -4069 0
-4815 -4901 -4615 0
2821 -2946 -3771 0
516 -1302 -4785 0
2023 -4009 0
1745 -2315 -4788 -4797 0
2306 -2607 -2854 -1980 0
1898 -4342 0
4141 -895 0
3248 -3374 -2755 0
2649 -3907 0
-1664 -2363 0
-197 -2866 0
1734 -556 -4414 -1267 0
1914 -3255 -461 -3312 0
4154 -1245 -833 -2726 0
-906 -3719 -1090 0
4101 -2995 -3851 -4459 0
-3820 -1081 -1882 0
2605 -4289 -2325 0
774 -1756 0
4682 -2452 -4940 -1661 0
1982 -224 -2910 -4613 0
-3390 -3835 -320 -4713 0
2904 -2882 -1779 -2524 0
2182 -2982 -1844 -4783 0
-1139 -4587 0
-165 -1954 -4830 0
1654 -3344 -2575 0
1806 -833 -4423 -1868 0
-1908 -3004 -753 -2862 0
-4276 -3618 -1434 0
303 -3512 -4916 -2349 0
3630 -3247 -3959 0
-3820 -1184 0
1681 -3068 0
691 -243 0
4292 -2557 -4452 0
-1751 -3115 0
29 -464 -2503 -3803 0
620 -3364 0
4227 -2558 -4341 -2269 0
1351 -1943 -1098 -3653 0
975 -4734 -2721 -2340 0
91 -3227 0
-4577 -3826 -1765 0
-1883 -740 -2929 0
3026 -3669 -2999 0
3295 -3028 -12 -3269 0
416 -1055 0
1246 -2500 0
2365 -1977 -3592 -4525 0
4421 -2058 -2135 -4590 0
1996 -4380 0
-4349 -4979 0
-168 -2367 0
3805 -3497 -3430 0
-3085 -3864 -4853 0
3536 -3067 -2077 -3709 0
-3545 -3961 -2672 0
4961 -4236 -4063 0
-4350 -243 -1800 0
-3544 -2604 0
2574 -4433 -3735 0
3916 -2490 -2686 0
3161 -1105 -3642 0
932 -13 0
-3153 -567 0
92 -1446 0
3374 -2272 -1576 0
284 -2725 -3646 -1083 0
1775 -120 -2119 0
4474 -3926 0
3113 -232 -3911 -3126 0
-460 -3637 -548 -1729 0
3293 -639 -4856 -1553 0
1138 -3097 0
-4541 -4235 -268 0
1640 -2987 0
4202 -4721 -313 -1739 0
-1512 -2126 -3871 -1226 0
1050 -2587 -569 -1407 0
2471 -1060 0
4302 -2675 -2326 0
-2691 -1077 -1879 0
2399 -1903 -1019 -1726 0
2466 -439 -4442 0
-2464 -3064 -4251 0
4495 -2159 -4406 -2868 0
-3518 -433 0
1663 -2605 -3453 0
496 -340 0
1247 -2753 0
1670 -2801 -203 -4938 0
4806 -4082 0
-1092 -689 -146 -3336 0
-3629 -2344 -602 -1594 0
3544 -3156 -3406 -528 0
4843 -4628 -2345 0
2936 -3871 -1353 0
-1215 -4631 -3435 -1091 0
3784 -2079 -691 0
2532 -2686 0
2559 -2603 -4215 0
2439 -1121 -1029 0
4379 -3005 -3737 -4732 0
-4044 -3399 0
249 -2691 -227 -1372 0
4743 -113 0
3757 -2884 -786 0
4688 -1183 -3349 0
3591 -3325 -4349 0
4665 -1101 -3734 0
2673 -1090 0
2488 -3358 -4230 0
10 -3563 0
1767 -4784 -1470 0
4741 -4775 -1273 0
1506 -3275 0
-1739 -270 0
693 -2496 -338 0
4272 -3348 0
1015 -1727 -2421 -1455 0
2185 -2604 -3876 -4072 0
-4217 -1114 0
475 -4500 -2921 -4163 0
-2880 -4903 -1472 -1005 0
4835 -4432 -170 0
-4176 -1296 -1258 0
4710 -2874 -932 0
2806 -1097 -2652 0
2820 -3317 0
-374 -1037 -4466 -1098 0
2114 -2928 -2621 0
-1134 -4353 0
3361 -3945 -1582 0
-579 -1467 0
-2199 -1418 -1010 0
4184 -1384 -2327 0
1853 -3467 -2012 0
4194 -4327 -3865 0
1575 -1733 -3765 -503 0
-4057 -4268 0
-4617 -445 -1566 -1957 0
1119 -300 0
4142 -709 -1943 -4558 0
529 -4971 -2980 0
2541 -2429 -1584 -4238 0
-2927 -166 -1299 -1371 0
3526 -468 -4552 -2462 0
155 -1784 -4220 -1409 0
4557 -2494 0
-3821 -3026 -4386 0
985 -4689 0
-2148 -1304 -3088 -1716 0
36 -921 -4885 -3701 0
-4880 -866 -1382 0
-298 -2033 -3 -4728 0
3430 -2735 -3765 0
-1862 -1886 0
1813 -4313 0
604 -2046 -3802 0
1178 -1386 -1877 0
544 -1419 -1725 -3711 0
3063 -1118 -1453 -2169 0
-2217 -3299 0
3285 -3756 0
1312 -2143 -477 -3517 0
2240 -187 -1332 0
974 -4416 -3988 -31 0
1670 -3217 0
4126 -158 -511 -1445 0
3997 -3756 -4115 -954 0
2518 -15 -954 -3438 0
1650 -1494 -1044 0
4294 -4781 0
-4825 -2116 0
2386 -2463 -315 0
-2357 -407 -3482 0
888 -419 -503 0
-3780 -4417 0
-1611 -521 -4035 0
3862 -1105 -880 -4311 0
4780 -1250 -4036 0
4811 -865 0
2406 -4951 -240 0
-4856 -2574 -1398 -4306 0
603 -3661 0
1025 -3774 -4382 0
1106 -814 -2530 -2163 0
999 -384 0
685 -1513 -1271 0
4469 -1742 -2258 0
19 -2861 -2753 -1632 0
4111 -1642 -3195 -130 0
1237 -4919 -1712 0
2918 -197 -1835 -2115 0
1909 -2008 0
2432 -4226 -1379 -4118 0
-776 -2638 0
-474 -3961 -2342 -4463 0
2044 -4561 -2973 0
4464 -1482 0
2278 -3891 0
658 -2581 0
3560 -2442 0
-1414 -1526 -1102 0
-3651 -2463 -1053 -2176 0
143 -782 0
3066 -1309 0
2269 -2358 -402 -3344 0
2880 -2566 -3562 -3199 0
567 -3136 0
-3455 -4438 -4778 0
-3857 -369 -1042 -4621 0
-2479 -900 -4406 0
4127 -1306 0
1684 -3343 -1267 0
-901 -4825 0
73 -2125 -1154 -3166 0
2896 -1911 0
-2438 -107 -3806 0
-2948 -336 0
-4511 -836 0
3127 -3944 0
4411 -4310 -2282 0
1044 -2335 -2984 0
-3305 -3215 -1399 0
-192 -872 -3191 0
3384 -3426 -1595 -3518 0
1055 -1677 -4227 0
3753 -3951 -3218 0
3935 -2955 -3870 -735 0
470 -327 0
1315 -2585 0
4583 -277 -4954 0
3576 -3228 -473 -2069 0
3898 -2798 -2278 -1655 0
-3859 -772 -3484 -3745 0
4333 -4576 -3201 -1520 0
2442 -4684 -1901 -1897 0
-2097 -2420 -4858 0
-4192 -582 -3863 -3158 0
-417 -3600 -2915 0
-488 -4476 -3735 0
3875 -4459 0
4992 -1851 -672 0
344 -1300 0
130 -3751 -1932 -3397 0
599 -952 0
4553 -4407 -3404 0
644 -2709 -4708 -3307 0
-2644 -2907 0
2692 -3464 -2402 -3358 0
1771 -2000 -4788 -40 0
2648 -4279 0
-1441 -856 0
-2608 -646 -3924 -2447 0
1388 -1401 -2705 0
4582 -635 -2541 0
1475 -4734 -1081 -3107 0
-2368 -1965 -155 0
2301 -439 -4780 0
-2460 -248 -1670 -4457 0
4128 -2781 -594 -879 0
-1083 -3300 -4179 0
4352 -1749 -3730 0
1830 -3641 -3780 -1864 0
2432 -2038 -1341 -4261 0
-2138 -2463 -4361 -2886 0
4824 -304 -939 -1678 0
1203 -897 -3963 0
-734 -522 0
2661 -3930 0
1499 -4587 -2473 -2603 0
3944 -4228 0
-3283 -4031 0
-3861 -3076 -1735 0
-373 -2567 -2860 -4281 0
-423 -4534 -2288 -3246 0
812 -2348 0
3758 -3296 -2657 0
-2647 -4739 -2652 0
141 -424 -3769 0
-4935 -227 0
2646 -2693 -2104 -2782 0
672 -520 -3566 0
2224 -800 -1530 0
2433 -192 -3079 -2709 0
-1774 -3853 -3044 0
2364 -598 0
486 -1107 -2570 0
3354 -1025 0
3402 -1076 -1613 -4072 0
-2726 -4510 -2185 0
2837 -3715 -2136 -4696 0
-3129 -3996 0
3924 -1993 -3436 0
3153 -2697 0
1168 -4210 -1828 -658 0
4388 -1390 -1680 0
-594 -30 -945 0
-904 -144 -3988 0
-337 -621 -1953 -1402 0
3794 -653 0
-925 -3774 -3562 0
-1553 -3703 0
-998 -510 0
69 -1563 -4183 0
3728 -508 0
4493 -502 0
-274 -260 0
1758 -1947 -4074 0
2860 -4607 0
113 -1947 -840 0
-3338 -4410 -986 -2103 0
3457 -3921 0
4142 -4553 0
1599 -1123 -4912 -4817 0
441 -2595 0
4130 -790 0
-3280 -2137 -2793 0
1536 -1149 -2858 0
1156 -3642 0
444 -202 -3421 0
588 -4512 0
-3958 -4266 -3745 -2064 0
4524 -640 0
-1982 -416 -3149 -3787 0
1487 -2633 0
4833 -4879 -1432 0
-2484 -369 0
3240 -302 -2914 0
1026 -1479 0
2660 -3241 0
2030 -3031 -1250 -3643 0
1021 -1678 0
-2330 -4182 -3849 -3859 0
591 -4113 0
-4070 -2301 -3921 0
-3171 -3904 -4162 0
-2785 -4927 -1745 0
-1678 -160 0
-3159 -612 -2956 0
3845 -1973 0
-1170 -3669 -2917 0
-30 -926 -3339 0
37 -243 -1280 0
-1247 -4020 0
893 -4694 0
-3459 -3274 -2754 -2119 0
1938 -4952 -2703 0
514 -4851 -430 -3581 0
2790 -783 -1246 0
1173 -4214 -2420 -2542 0
4311 -3706 -4206 0
3308 -2412 -1279 -811 0
1240 -731 -2367 -1028 0
1088 -3717 -2263 -507 0
1410 -2882 -374 0
-1739 -1870 -1113 0
3598 -914 0
605 -4703 -2400 -1751 0
566 -4144 -3847 -389 0
1063 -4100 -878 0
3384 -3959 -3048 -3710 0
2622 -2153 -278 -4309 0
1156 -1296 -4810 -1123 0
-1573 -141 -3065 0
-4364 -4484 -509 -3593 0
1803 -34 0
2940 -3329 -2102 0
26 -1179 -3123 -3350 0
4373 -1746 -2197 0
4567 -3955 0
-4651 -1096 0
885 -3888 -2762 0
4257 -2184 -3993 0
-526 -1444 -1270 -1022 0
209 -590 -3810 0
3149 -4573 -1886 0
-2505 -4856 0
4915 -3253 -2326 -325 0
276 -3869 -2408 -1148 0
3031 -538 -2521 0
-4644 -339 -2896 0
-2732 -2255 -2348 0
1796 -1901 -352 -4570 0
-1357 -4277 -4454 0
-2287 -154 -4302 -3635 0
233 -1702 -2053 0
-2608 -4474 -4379 0
-859 -4846 -223 0
4564 -2928 -461 0
1838 -51 -444 -4965 0
1849 -1975 0
-2642 -4337 -1432 -1342 0
787 -2236 -5 0
3688 -1454 -1956 0
3050 -3989 -2737 -1063 0
91 -2416 -1997 -3884 0
778 -2965 -2923 0
188 -1955 -4123 0
3720 -3305 0
2785 -251 -1756 0
1440 -135 -4566 0
2391 -371 -3954 0
3486 -4450 -3676 -485 0
4189 -2478 0
2298 -535 0
2262 -2743 -4153 -239 0
478 -221 -2260 -4819 0
3275 -1592 0
-4177 -2699 -936 0
558 -4636 0
1078 -3847 0
-3167 -85 -790 -4621 0
4696 -2439 -546 -3266 0
1169 -947 -1990 -1207 0
3498 -1194 -1818 -1199 0
85 -4367 -2354 0
-907 -1556 -109 0
4094 -1113 0
-1659 -3352 0
-4230 -3922 0
-4349 -2123 -1221 0
-1408 -3489 -832 -2015 0
1046 -2911 -244 0
1998 -172 -434 0
-2552 -2688 -1814 -554 0
4325 -2665 -1556 -3725 0
-4103 -4774 -1497 -3780 0
2301 -4643 -3267 -3070 0
1113 -4250 -2944 0
1052 -1366 -1266 0
1453 -3207 0
2122 -2097 -4768 -1192 0
531 -2346 -1090 -1741 0
-2135 -4688 -3946 -4363 0
4936 -3519 -3066 0
3605 -1035 -4651 0
1235 -567 0
3756 -2956 -1979 -1181 0
495 -4174 -3568 -2254 0
4790 -2940 -3342 -774 0
1433 -503 -4330 -30 0
3291 -3069 -3873 0
-4541 -994 -2333 0
1199 -3326 -3224 0
3498 -4421 -1348 0
-1680 -1784 0
1733 -642 0
1987 -1651 -3641 -2938 0
2508 -3378 -4032 -4286 0
3083 -336 0
4349 -4546 -1974 0
2806 -4074 0
-3615 -2255 -723 -1783 0
1490 -564 -3817 -1087 0
1642 -3012 -3396 -2929 0
-1880 -872 -3128 0
3631 -290 0
1621 -1938 0
4911 -275 -1090 0
2553 -559 -4028 0
3590 -1187 0
1937 -2689 -2633 0
2942 -1339 -463 0
-3375 -2164 -4698 0
-249 -2029 -843 0
4967 -1161 -668 0
-1598 -3142 -1345 -4388 0
1134 -4141 -1920 -2714 0
4873 -3243 -749 -4306 0
-2092 -3247 -1590 -4304 0
-3312 -994 0
-3542 -4486 0
1956 -3711 -2383 -2717 0
-3129 -2307 -2381 0
3582 -3272 -2534 0
1675 -851 0
2863 -3177 0
-126 -230 -2360 -1546 0
-1296 -1813 0
-2319 -4875 0
-4514 -4133 -2492 0
875 -3989 0
-836 -2062 0
1999 -2524 -1805 0
-3086 -714 -1278 -4072 0
1295 -2024 0
3977 -1953 0
671 -2506 0
-3494 -1433 -4894 0
-2366 -791 -1649 -3185 0
-3322 -2756 0
1764 -3866 -4643 -2120 0
-2674 -2145 0
-3405 -3341 -3539 0
1571 -403 -500 0
-3776 -1935 0
4308 -3347 -926 0
4599 -1496 -160 0
-4557 -2933 0
4507 -3641 -1140 0
-2072 -3975 0
3212 -1117 0
744 -3248 0
516 -798 -1385 -2275 0
2917 -2494 -2219 -4836 0
3262 -1646 0
2493 -4915 -3152 -4079 0
2482 -2226 -2819 0
2398 -3814 -4771 -1568 0
4347 -1211 0
-2219 -1539 -2872 0
-2781 -3312 0
-2412 -2789 -426 0
4432 -3217 -2916 -2119 0
-639 -2410 -2095 -2974 0
4569 -4041 -1172 -2450 0
3818 -3124 0
-1762 -1760 -2952 0
4274 -1004 -4065 0
3116 -104 0
778 -2540 0
4386 -3504 0
623 -340 0
-1907 -910 -3120 -4931 0
2463 -4890 -4824 0
-2967 -4145 -3261 -4557 0
421 -3746 0
4695 -3939 -2545 -3191 0
3452 -1261 0
1660 -2131 -4915 -4555 0
-1764 -1237 -2846 0
2676 -3653 0
118 -3965 -3953 0
4796 -290 0
-1326 -4368 -752 0
1409 -4244 -3989 0
-3653 -684 -1611 0
2758 -4542 -575 0
148 -4177 -4513 0
4230 -4515 -4109 -1301 0
326 -759 0
4243 -569 0
4091 -3981 -3896 -160 0
1594 -4960 -3190 -30 0
3922 -3638 0
-4816 -4720 -137 0
-1602 -1063 0
3246 -1097 -3721 -1846 0
-3397 -542 -4619 -4468 0
2189 -1123 0
1080 -3165 -4238 -3346 0
-1680 -1775 -4733 0
-2542 -2801 -3791 -811 0
4751 -4639 0
-4079 -2315 -3961 0
2140 -2872 -4540 -133 0
2771 -3906 -2505 -4186 0
2991 -2938 0
1195 -4822 -445 -680 0
-1098 -249 -1219 -2726 0
-4130 -3903 -4386 -847 0
4578 -1801 -2299 0
640 -557 -3922 -2128 0
2166 -2441 -861 -4579 0
890 -197 -2251 -2068 0
-3449 -4709 -4239 -1100 0
4779 -1979 -1948 -4569 0
2649 -1849 0
-225 -3675 0
4924 -3452 0
2920 -1014 -1273 0
-4201 -1137 -2283 0
1363 -3495 0
-1331 -3416 0
2256 -3261 0
4575 -3548 -1705 -2614 0
-3616 -762 0
62 -4650 0
1090 -453 0
3756 -1428 0
499 -3208 -3156 0
4400 -4045 -584 -4110 0
-1540 -2486 -4470 -177 0
3772 -1376 -2966 -2081 0
3547 -264 -2720 0
3020 -48 -1498 -236 0
4071 -2914 0
1650 -4606 0
257 -4191 -3278 -2493 0
-2919 -4600 -4847 0
721 -3428 -3954 0
-4580 -1390 -496 0
1908 -2386 -1592 0
-304 -4193 0
1875 -3787 0
3203 -4356 -3095 -1284 0
-171 -1248 0
755 -1004 -2944 -1315 0
2074 -3151 -1167 0
4033 -3621 -3913 -388 0
278 -4568 0
2116 -4650 -1318 -3889 0
2411 -3265 -1612 0
2893 -362 0
3688 -1571 -686 -3783 0
-3419 -2489 -4327 0
636 -4928 -3571 -3251 0
4345 -1563 -2422 -2740 0
-3839 -455 -1247 -145 0
-1619 -4257 -4013 0
900 -4473 -1951 0
4886 -327 -517 0
567 -4391 0
2356 -1092 0
4963 -125 -2526 0
128 -2845 -1149 -904 0
4310 -954 -885 -3688 0
4814 -2862 -481 -162 0
2665 -1521 0
827 -141 -2894 -3403 0
3014 -1789 -3843 -3495 0
1902 -229 -1438 -2934 0
2396 -1239 -4704 0
1236 -1382 -1751 0
372 -4808 -3792 0
315 -4473 0
382 -3376 -163 0
-1166 -2242 0
4149 -3956 0
2856 -341 -1377 -2807 0
-2842 -4124 0
2331 -4993 0
4283 -414 0
2945 -3304 0
-3997 -3129 -2639 0
3343 -1538 -1928 -2908 0
2590 -1769 -4465 0
1405 -4040 -3178 0
-4375 -442 -109 0
3496 -3784 0
-904 -3357 -762 -286 0
2860 -1271 -1773 0
-4381 -510 -2969 0
231 -2713 -860 0
2969 -2818 -158 -846 0
35 -3556 0
1047 -4261 -4919 -2380 0
-2060 -1744 -3577 -4982 0
2680 -2581 -4877 -4537 0
-4932 -3720 0
3490 -3332 -904 -4952 0
4992 -1068 -295 -1954 0
3160 -783 -3744 -2016 0
1503 -1066 -1883 0
-4080 -4442 -1811 -1523 0
1252 -1375 -1513 -4626 0
-4587 -666 -1240 0
524 -4177 -117 -3268 0
3383 -3396 -2978 -2734 0
1009 -4255 -4944 0
-2415 -3683 0
-1120 -2761 -4290 -2369 0
4266 -1175 -2810 0
4531 -4406 -4117 -3842 0
1911 -4332 -4525 -172 0
-836 -766 0
-4805 -500 -2632 -2430 0
4674 -3902 -4402 0
-2102 -2876 0
2821 -4345 -2300 0
1745 -3163 0
4817 -2448 0
974 -389 0
23 -3712 -4193 -95 0
2062 -3312 -4058 -3194 0
2190 -3371 -4617 0
1513 -4789 -1101 -4899 0
1365 -1637 -4352 -2401 0
1113 -4083 0
3274 -1099 -2465 -1016 0
3199 -3251 -4462 -1463 0
963 -71 -486 0
4815 -4765 0
3986 -4544 0
4111 -4205 0
153 -1904 0
4899 -4477 -1051 -2665 0
-808 -3655 0
3127 -951 -4590 0
4074 -511 -796 0
686 -4655 0
551 -241 -2897 0
-1103 -1508 -2670 0
-1453 -3984 0
1921 -1227 -3087 0
172 -4581 -26 0
4729 -348 -4860 0
-55 -2831 -50 -1537 0
2453 -3662 0
-1552 -4217 -3186 -1695 0
3379 -4177 0
2296 -1758 0
-1019 -3272 -4719 -2918 0
2727 -3432 0
4720 -149 -1379 0
1340 -3738 -139 0
2709 -2279 -3479 0
-4198 -4633 -2148 0
2362 -3011 -3554 0
3114 -3127 -1371 0
848 -304 -1474 0
-1274 -3588 -926 -1604 0
-4363 -4837 0
3543 -1890 -1504 0
4087 -601 -55 0
-300 -4231 -3846 -1406 0
3347 -4067 -2251 0
-3163 -4131 0
2373 -1454 -3934 0
664 -796 -3958 0
3612 -3193 0
3416 -4381 0
3572 -3313 0
4482 -3711 -2732 -4010 0
-4523 -3099 0
336 -2101 -2392 -3546 0
3097 -296 -4657 -2054 0
-2101 -1192 0
3222 -3407 -3688 -1176 0
3568 -1902 -4957 -638 0
2761 -4552 -541 -4994 0
3300 -4276 0
3420 -827 -1119 -3221 0
-4964 -2581 0
1212 -1755 0
4877 -1318 -1373 0
-4579 -3410 -2353 -3238 0
3188 -877 0
3036 -269 -1493 0
-2858 -3339 -3791 0
-3371 -2120 0
904 -3517 -2934 -3272 0
743 -4506 -734 -1144 0
1260 -1146 0
197 -1771 -2328 0
3153 -4284 0
4524 -2477 -1716 -3453 0
3518 -808 -939 0
-4498 -826 -3107 -719 0
43 -1285 0
-3055 -1134 -2400 -2663 0
2777 -1531 0
896 -658 -1361 -2473 0
4401 -1782 -3679 -2076 0
-4762 -2657 -2949 -4119 0
4267 -3754 -782 -3263 0
-3585 -4568 -4567 0
4126 -2474 -4366 0
4335 -3807 0
-3335 -1521 -794 -78 0
3721 -845 0
-801 -3598 -3946 -1386 0
647 -2357 -4326 -3614 0
3844 -789 -404 -2041 0
1988 -2458 -1494 0
54 -4240 -2694 0
2183 -4737 -323 -3650 0
-1041 -4817 0
2354 -1192 -2143 0
1806 -2256 -1392 -435 0
4054 -3427 0
291 -1761 -48 -3918 0
-2239 -2749 0
4756 -1721 -4607 0
-1652 -246 -1266 0
4307 -282 -3544 0
-2621 -3128 0
1734 -2577 0
3951 -1744 -4369 -2331 0
2970 -2243 0
859 -1847 0
3912 -1126 -66 -3534 0
4269 -2460 0
3795 -1952 0
2705 -4392 0
313 -2075 -832 0
-1588 -889 -939 -3504 0
-2496 -1836 -4210 -3910 0
4424 -3126 -2348 0
90 -668 0
-2886 -535 0
1430 -4844 -4701 0
-4180 -4441 -3519 0
-4916 -3927 -2545 0
2506 -4076 -955 0
2558 -901 0
2267 -889 -4359 0
4966 -391 -2531 0
2323 -3577 -1707 -986 0
-2148 -586 0
1253 -1889 0
4687 -2870 -1254 -4857 0
-2662 -4121 -4998 0
2891 -4968 -1071 -2576 0
1340 -2880 -2797 0
2007 -3575 0
2823 -2781 -44 -2822 0
138 -379 0
20 -3082 0
4817 -4246 0
1281 -4857 0
3773 -3074 -4820 0
-522 -2446 -1411 -2296 0
3100 -308 0
1751 -255 0
1854 -3998 0
1747 -4788 0
3462 -2502 0
3475 -4273 -2756 0
2093 -2282 0
2633 -3485 0
2868 -3157 -4497 0
3850 -2049 0
-4941 -2920 -4641 0
2857 -4649 -3505 -3874 0
-3777 -4604 -2511 0
1195 -2431 0
706 -635 0
251 -1237 -2341 -2980 0
3825 -1510 -574 0
2207 -1690 0
-2775 -225 -2452 -2704 0
3064 -1986 -4196 0
-246 -2530 -2872 -1875 0
-2770 -2706 -965 -29 0
-983 -3343 -2861 -395 0
1085 -1112 0
1705 -1831 -4513 -2141 0
3004 -3058 -4552 -2756 0
1601 -303 -4827 0
-4573 -4288 -2588 -2338 0
2032 -3523 -4628 0
34 -2648 -4674 0
-2348 -1687 -2022 -130 0
-4679 -1110 -1131 0
1336 -1436 -442 -3568 0
1791 -2085 -1717 0
2043 -2428 -2418 -4586 0
718 -3889 -81 -224 0
507 -1455 0
704 -1126 -4860 0
483 -4866 -4033 -583 0
3497 -2434 -1946 0
1653 -349 -4596 -2110 0
3142 -121 -4535 -2968 0
-1810 -2686 -123 -317 0
1234 -2405 -4726 -36 0
11 -1662 -3032 0
4874 -1587 -3599 -1687 0
-4257 -3226 0
4098 -3406 -3765 0
4525 -3032 -1390 -767 0
646 -1387 -476 -347 0
3340 -3613 -2072 -4018 0
3470 -1892 -488 -4476 0
394 -4223 -4599 -4357 0
1470 -1262 -3514 0
4609 -4263 0
4932 -613 0
4535 -923 -189 0
2626 -1617 -2983 -3897 0
-1873 -4876 0
440 -3644 0
2152 -696 -4791 0
2335 -4639 -1289 -2716 0
1501 -3432 -1618 -4328 0
-1888 -4724 0
3087 -2679 0
4022 -1533 0
2114 -1332 0
4449 -883 -3829 0
2981 -2343 -4972 0
815 -1855 -4306 -1983 0
3927 -769 -1541 -3477 0
359 -564 -1509 -1620 0
814 -4586 0
-2436 -3426 -2126 -4752 0
-3557 -1828 -578 0
-2556 -2184 -4525 -2659 0
1502 -4256 0
-3500 -924 0
3523 -2661 -3180 -1881 0
2826 -918 0
2595 -4759 0
873 -38 0
3703 -4273 -3228 0
3736 -1484 -395 -3973 0
1781 -1484 -3687 -3142 0
1395 -2190 -2005 -4926 0
-1714 -2118 0
-1730 -4894 0
-4914 -2417 -1068 0
2748 -1884 -2821 -635 0
1225 -947 -4778 0
3563 -388 -2758 -4797 0
3057 -2295 -4585 0
3537 -4757 -820 0
-52 -197 0
94 -4085 -4989 0
3705 -284 -1578 -2159 0
4603 -1152 -3622 -4391 0
1112 -786 0
2975 -1806 0
-2950 -1031 0
2777 -3271 -2683 0
1740 -3840 -950 -3188 0
4069 -1817 -675 -866 0
349 -4562 0
3159 -4767 -100 -2703 0
1096 -4811 -3086 0
4042 -863 0
97 -3758 -910 0
4979 -2858 0
2096 -1924 -4629 0
3833 -676 -4790 -341 0
-2357 -1494 -429 -4817 0
2356 -4979 -4942 0
4992 -4197 0
297 -696 0
3338 -3696 -4200 -1815 0
1525 -596 -4901 -3671 0
-426 -1816 -3872 0
2718 -1748 -3631 0
1294 -1519 -3689 0
4690 -1188 -4513 -4950 0
-2748 -3436 -1971 -690 0
-1751 -4823 -2626 0
1771 -298 -3293 -1502 0
2601 -1010 -4556 -3270 0
-426 -2615 0
2962 -4565 -2767 -3401 0
-2847 -2357 0
-2485 -373 -82 0
3174 -2376 0
4444 -412 -1447 -4407 0
-1893 -2597 -2092 -3761 0
-710 -2140 -4959 0
250 -4323 -1851 -801 0
2124 -1786 -3465 0
2979 -4723 -889 0
2055 -3402 -908 0
1180 -1278 -4181 0
-1178 -3616 -2545 0
4787 -3089 0
2719 -223 -3679 -1611 0
-4696 -4437 -855 -500 0
4641 -4747 -1600 -3436 0
-1037 -1576 0
3534 -1696 -1896 0
4311 -2826 0
578 -4466 -2312 0
1971 -4236 -4323 -1944 0
3490 -2955 -796 0
4614 -4277 -957 -473 0
3680 -195 0
2091 -2585 -303 -586 0
-3706 -3273 -4235 -3269 0
-938 -3617 -814 -4063 0
3901 -3358 -3141 0
2941 -676 0
2518 -517 0
-2275 -3634 -2538 0
3916 -2970 -1588 -781 0
4504 -213 0
-901 -155 -4085 -4521 0
3977 -1592 0
754 -4656 -905 0
1542 -1963 -923 -3290 0
10 -88 -3566 0
3421 -226 0
-474 -535 -1021 -4227 0
4418 -4746 0
-2595 -2352 -1985 0
1466 -3214 -3576 -2523 0
1888 -471 -191 -4414 0
1298 -2545 0
2464 -1672 -3195 -1046 0
-975 -1601 -1714 0
-1604 -567 -3501 -3514 0
4465 -674 -1596 0
-952 -1893 -996 0
1768 -578 0
3059 -2238 -1613 -4750 0
4236 -3109 -2634 -1686 0
1061 -3655 0
-3297 -1950 -3352 -582 0
2171 -4152 -4684 -253 0
3488 -1298 -554 -4939 0
-4766 -1773 0
203 -4888 -1373 -2821 0
-4222 -3823 -2374 -4044 0
4774 -3504 -2387 -2469 0
-3137 -787 -1000 0
-4204 -2539 -2007 -738 0
2430 -3831 -1181 0
80 -3368 0
-545 -4996 -271 0
931 -4139 -1745 0
774 -768 -4614 0
1806 -4497 -3911 -3443 0
4049 -1146 0
4516 -2988 -1854 -3647 0
-1540 -3317 -494 -752 0
-1416 -1413 -1831 -1993 0
783 -4093 -2985 -3483 0
4435 -374 -1805 0
-3065 -421 -222 0
-1781 -1527 -2416 0
2597 -4543 -1193 0
3252 -313 -3423 0
4462 -417 -4082 0
-69 -1532 0
1573 -2916 -460 0
899 -4788 -642 -3754 0
42 -2668 -355 0
3032 -4933 -242 0
4796 -407 -4191 -2584 0
3121 -4683 0
-24 -2692 -3445 -1734 0
4843 -2404 -4983 -386 0
954 -729 -369 -3245 0
1491 -1144 -4522 0
902 -50 0
1536 -1394 -2827 -3698 0
3343 -621 -2288 -4758 0
-1819 -3592 0
1455 -1772 -2604 0
-3881 -1670 -2323 -3409 0
2333 -4330 -414 -1594 0
3211 -3814 -2704 0
-4352 -4010 -3918 -4128 0
-2656 -4619 -189 0
4868 -3413 -608 0
2260 -537 -353 0
-1441 -2542 -3636 -93 0
938 -231 -3627 -1783 0
1882 -4084 0
1941 -713 -1499 0
4548 -1376 -1619 -2835 0
2485 -1359 0
4058 -3474 0
2834 -2055 0
7 -878 0
4217 -655 0
4144 -4624 -281 -1694 0
-1045 -2121 -626 0
304 -2878 0
-2200 -2564 0
-1430 -4112 -1939 0
-585 -2677 -651 0
610 -4600 0
2304 -1894 -1331 0
3409 -4656 0
1573 -4472 -1561 -31 0
3510 -4023 0
2480 -4097 -2502 -2697 0
3931 -808 0
3164 -4753 -419 -2982 0
1235 -2936 0
-3522 -1029 0
4036 -1521 0
2457 -2290 -3807 0
-434 -4952 -948 0
1900 -855 0
3799 -174 -4522 0
3073 -4960 0
1851 -2332 -2994 0
3903 -4704 0
-4311 -1526 -3972 -1745 0
-335 -2584 0
851 -4581 0
232 -3698 0
1753 -1902 -4595 0
4470 -3252 0
641 -547 -1727 0
4988 -3200 -1381 0
845 -3102 0
-1078 -3151 -1291 0
1752 -4199 0
1033 -474 0
-2380 -1729 -1901 -3231 0
-1761 -1193 -401 -547 0
2590 -875 -2034 0
-4007 -1461 -4902 0
-4726 -3090 -3021 0
3733 -3707 -3087 -3310 0
1127 -890 0
3650 -1980 -690 -1197 0
-4038 -2946 -4572 0
503 -1986 0
1428 -1704 -1193 0
2226 -3307 -417 0
-3752 -673 0
3315 -4724 0
-1698 -3888 -117 0
235 -603 0
-4389 -1991 0
-3042 -4873 0
-679 -3970 -684 -668 0
3447 -3529 -4053 0
428 -80 -3660 0
3923 -4622 -4331 -3381 0
4890 -4808 0
-495 -2938 -1027 -3873 0
302 -4654 -3561 -3233 0
4804 -1358 0
-3495 -504 -3826 -4704 0
1174 -4274 -3042 0
2437 -1517 0
3572 -3295 -2952 0
862 -2686 -67 -4983 0
3393 -3823 0
-3414 -3070 -4632 -4678 0
3384 -4859 0
2679 -737 -1648 -3959 0
4166 -4738 -3620 0
790 -4344 -3297 -90 0
4523 -68 -2855 -1443 0
1305 -463 -3409 -1649 0
3128 -276 -4047 0
2482 -1317 -698 0
-3979 -2500 -957 -137 0
4860 -4320 0
4037 -4371 -3005 0
-1567 -637 -1419 0
3295 -1393 -596 0
-1517 -3251 -1623 0
-1920 -4746 0
-2925 -113 0
-1453 -4387 -4254 0
-4811 -4966 -1500 0
4936 -2754 -2927 -2420 0
1110 -4000 -4432 0
4004 -3642 -2946 0
4386 -1933 -4824 -396 0
4547 -4234 -2233 0
3561 -3211 -4031 -4022 0
3543 -4169 -806 0
-2617 -3614 0
1213 -1236 -4571 0
1697 -2570 -1615 -4668 0
4761 -4166 -20 0
2522 -3145 -3325 -3431 0
2626 -3397 0
3283 -4720 -4420 0
4434 -1825 -4175 -499 0
2805 -906 -3765 -2827 0
-952 -4255 -815 -2382 0
4870 -1636 -920 -2642 0
2951 -4326 0
3074 -4608 0
2993 -4170 0
785 -3548 -2169 -2227 0
2875 -626 0
-2973 -4740 0
1106 -2431 -100 0
298 -4169 0
2922 -3384 -3908 0
1689 -2608 -1588 -4204 0
867 -4844 -2009 0
-4739 -2512 0
4929 -1905 -4722 0
-1387 -2321 -4697 0
-4511 -4603 -3295 0
3442 -2225 -1806 0
4985 -2820 -620 0
3476 -1733 -319 -1642 0
1116 -2731 0
2314 -469 -4791 -3344 0
3690 -4939 -872 -810 0
3928 -2294 0
-1309 -1263 -3270 -4300 0
1834 -4770 -3897 0
3119 -1207 0
762 -2502 -2835 0
2173 -4716 -1964 -1799 0
530 -4756 -3821 0
199 -2985 -4195 -3075 0
1894 -262 -2148 -2433 0
1250 -2897 -1453 0
1537 -4255 0
-1452 -1621 -3016 0
2322 -3558 -3880 -249 0
2647 -4229 0
2125 -3862 -2501 -4537 0
2835 -4139 -3393 -2287 0
4797 -451 -2756 0
1819 -4679 -4340 0
3324 -953 -4874 0
2616 -4449 -3276 -1507 0
1535 -925 -2285 -4509 0
3351 -1964 0
-198 -3355 -3708 -4682 0
2450 -4663 -2094 0
4610 -3494 -4608 0
615 -4435 -1661 0
2812 -551 -3952 -2162 0
848 -2548 0
880 -2098 0
2343 -2516 -398 0
3610 -2186 0
-2213 -2049 -3373 0
-1198 -650 -3469 0
19 -4471 -2588 -1478 0
3751 -2166 -523 -2142 0
3120 -2376 0
2634 -3233 -3381 0
-2956 -994 -2558 0
-4530 -4007 -2893 0
1366 -2124 -1294 0
3348 -2875 0
4644 -1931 -1653 0
1294 -4853 -3031 0
-4087 -113 -2015 -2244 0
223 -4825 0
3689 -2637 -1063 -1166 0
3076 -4051 0
-1780 -4131 0
346 -2949 -478 0
4731 -3329 -4380 0
1189 -2530 0
-4047 -4334 -1633 0
1802 -227 0
1686 -3626 -4927 -3143 0
-3510 -4107 0
-48 -4675 -251 0
2040 -4542 -1447 0
-3660 -1117 -3772 -4041 0
-4849 -4634 -3938 -728 0
3730 -3560 -4741 0
2622 -3447 0
-3756 -3487 -1699 0
-208 -1549 -263 0
281 -3338 0
1906 -2969 0
430 -4414 -2100 0
3463 -2591 0
2276 -3585 -3984 0
1046 -2397 -2430 0
-618 -4698 -1476 0
2753 -1641 0
1879 -2355 -4382 0
719 -3710 -635 -928 0
3267 -2962 -1603 -4085 0
-32 -1169 -248 0
3003 -40 -4018 0
-3080 -561 -4590 -3168 0
-1766 -725 -1434 -3887 0
2350 -4827 -4424 0
3619 -465 0
930 -1224 -3368 0
-228 -1684 -3336 0
1120 -1034 -1195 -3857 0
-809 -3148 -890 0
1951 -4463 -4446 0
2171 -4972 -4032 0
1267 -1796 -50 -1799 0
981 -2626 -3499 0
2117 -4332 -2135 0
35 -3953 -4545 -1597 0
-920 -1565 0
3147 -874 -2633 0
214 -2477 0
1629 -2836 -1123 -1653 0
3788 -3967 -1637 -3299 0
-3642 -4192 0
3562 -1041 -3551 0
2052 -4146 -2716 0
-776 -131 -1209 0
-14 -201 0
4588 -1200 -661 -3811 0
3812 -4133 -1966 -4369 0
2789 -553 -2940 -175 0
1580 -4317 0
1008 -2870 -268 0
-1456 -3610 0
4829 -2024 -3745 0
-1233 -3049 -3150 0
-4045 -886 0
1445 -1681 -908 0
2961 -3679 0
1466 -337 -3158 0
-4401 -2104 -2815 -3365 0
-2802 -2036 0
2748 -4804 -2939 -2333 0
1770 -224 0
1323 -2694 0
1330 -4611 -4090 -2370 0
766 -4801 -1618 0
-3716 -2996 0
-674 -3613 -715 0
-4779 -897 -4658 -3022 0
-4237 -4342 -2079 0
256 -2370 -4803 0
3163 -4992 -4785 0
4029 -4765 -4427 -3263 0
4242 -756 -2124 -1671 0
-549 -2105 -1375 0
3679 -740 0
-4153 -3621 -167 0
1204 -2800 0
2577 -1529 -1468 -3330 0
-2094 -965 0
552 -4205 -4903 0
-1172 -524 -3509 -4564 0
2810 -44 -3783 -4879 0
166 -1 -1844 -4317 0
2302 -852 -1023 -4600 0
3478 -296 -3559 0
-588 -3242 -2372 0
2501 -2818 0
867 -3080 -968 -3874 0
-3177 -3895 0
-2080 -3293 -3443 0
4048 -1622 -795 -1073 0
2318 -971 0
3097 -1350 -3172 0
981 -3319 0
-3870 -1439 -2408 -2731 0
4380 -41 -3852 -4358 0
-1805 -3605 -3513 -4412 0
1079 -3401 -4755 0
-4316 -432 -4187 -4518 0
1281 -4941 -2927 -4253 0
3386 -2356 -1317 0
-1399 -1660 -3102 -4409 0
1204 -2645 -4487 0
1026 -2699 -4949 0
-4318 -996 -4011 0
334 -2425 -580 0
-840 -2933 -3224 -2313 0
-1290 -1777 -4240 0
3100 -1898 -3360 -3168 0
4650 -2480 0
3316 -4957 -514 0
2790 -3354 0
91 -3057 -1793 0
-2200 -2950 -565 0
959 -4269 0
2930 -1229 0
-2077 -3806 0
546 -2075 -1979 -4333 0
3412 -3351 -1621 -4974 0
4980 -2527 -2213 -3876 0
2207 -3816 0
-1215 -3807 0
-2353 -2022 0
1709 -1945 0
-2837 -1206 -2057 -2333 0
4537 -2572 -1816 0
881 -4674 -2891 -1010 0
-4981 -4917 -570 0
2709 -3735 -2219 -4341 0
4891 -340 -301 -1261 0
4547 -3517 -1778 -3811 0
144 -4241 -1088 -4893 0
2911 -3924 0
4942 -2659 -524 -521 0
4626 -4911 -1969 0
4771 -1017 -4314 0
4714 -4722 0
2891 -676 -1474 0
-2524 -541 -2411 -2905 0
4933 -419 0
-2201 -4897 -3933 0
-4111 -1517 -3244 0
3455 -4108 -2415 -992 0
-2700 -3286 -4956 0
3309 -132 0
3571 -1870 -244 0
-2375 -1808 -2355 -1323 0
-3737 -4394 0
-2271 -509 -2576 0
-2015 -3739 -1333 0
5 -2512 0
522 -273 0
-4980 -4342 0
-4135 -4582 -3971 -1581 0
-1910 -3883 -960 0
3203 -2534 0
2888 -3317 -3190 0
4956 -3718 -1755 -4125 0
4928 -849 -2975 -759 0
-4214 -3617 -3979 -4779 0
-2503 -3025 0
1515 -274 -1595 0
3252 -1857 0
4657 -4288 -672 -610 0
-1442 -3064 -1281 0
2454 -4534 0
4870 -3884 -319 -3125 0
3157 -3343 0
4099 -4553 -3036 -430 0
1730 -4529 0
3393 -2712 -4684 0
2237 -4254 -1161 -1909 0
4108 -4799 -415 -2624 0
-2542 -1608 0
-3386 -2541 -1072 -3356 0
-3502 -2235 -1659 -4302 0
2985 -3034 -3177 -4971 0
-865 -2762 -3968 0
1455 -4991 0
-2175 -3213 -1942 -1210 0
-2540 -1837 0
941 -333 -4023 -2440 0
4902 -3054 0
-209 -1322 -1057 0
2232 -3359 -3461 0
4480 -4198 -1517 0
836 -4324 0
-1525 -669 -1268 -592 0
3753 -3614 0
2688 -3084 -950 0
-4331 -2903 0
-1970 -2773 -4245 0
4616 -1114 -4634 -1051 0
777 -1215 0
4662 -2173 -921 0
4795 -2041 -3943 -3281 0
4917 -666 -4668 0
4313 -3709 -4763 0
-3789 -155 -2745 0
3528 -918 -254 0
847 -3309 -3816 0
-4777 -639 0
2126 -4106 0
1357 -3524 0
601 -3470 -3176 -2990 0
284 -1643 -1741 0
2724 -3739 -1445 0
768 -4205 0
3215 -4560 0
1722 -1215 -1145 -3535 0
-4004 -4383 -2644 0
134 -1632 -55 0
4987 -1965 -4362 0
3751 -951 0
351 -398 -3658 -2328 0
1135 -1887 -415 -581 0
-279 -164 0
760 -3866 -1163 -3835 0
1615 -1950 -4364 0
4200 -2010 0
-4332 -2928 0
-2210 -1027 -2707 -2642 0
3352 -3828 0
-3519 -1725 -197 0
3449 -2822 -113 -2436 0
-2358 -491 -977 -3477 0
-1572 -2322 -426 0
1002 -1572 -4107 -3829 0
2025 -3419 0
-3831 -4639 0
-2134 -1520 0
3937 -93 0
4895 -4455 -627 -4160 0
2168 -4853 0
2046 -1886 -4117 -1733 0
3455 -2481 -4251 -4280 0
-58 -1644 0
2619 -1228 -4354 0
221 -2236 -3592 -2543 0
-1931 -1316 -1562 0
4302 -4862 -4559 -3670 0
-4520 -4266 0
1437 -4543 0
1736 -2297 -1779 -4944 0
-4398 -2645 -4338 -3571 0
23 -2685 -3192 0
3450 -3248 -3083 0
2059 -2980 -4124 0
4774 -3600 0
4610 -295 -3738 0
1797 -972 0
-65 -3761 0
-3114 -2103 0
1615 -2410 -4402 -1453 0
1423 -3746 -2448 -3795 0
812 -1440 -4557 -1998 0
4583 -115 0
-736 -4604 -1850 -2842 0
4804 -2345 -1266 0
4592 -1993 -3104 0
-3646 -2875 -1333 -1182 0
1015 -4694 -4671 -4672 0
545 -4528 -2649 0
327 -2714 0
279 -4852 -3460 -2338 0
-915 -1378 -3004 -944 0
3994 -1070 0
-1346 -4701 -702 0
1527 -2752 -441 -3284 0
4628 -2722 -1692 0
2386 -4201 0
3931 -1096 -2852 -3158 0
425 -4180 0
813 -4342 -1032 -4744 0
3307 -2954 0
1137 -4447 -3535 0
1535 -2073 0
-2478 -4509 -3131 -3448 0
3149 -2881 -110 0
4203 -2955 -2788 0
4400 -2083 -851 0
3815 -1229 0
891 -279 0
2146 -1736 -3134 -3034 0
926 -497 0
-2381 -4713 -2669 0
1382 -2350 0
2634 -3477 0
4532 -1777 -4621 0
3559 -689 -4358 -3894 0
-3566 -1982 -551 -3792 0
-4259 -4325 -1901 -1346 0
-4757 -3782 0
726 -4208 -3434 0
1811 -2463 0
1122 -3307 0
-3739 -3941 -4075 0
-1901 -4354 -138 0
4643 -3291 -4305 0
-2534 -4497 0
-3029 -3627 -1788 -4000 0
-4091 -3500 -4891 0
721 -843 0
-1225 -684 -2003 -3306 0
3559 -1036 -1488 0
18 -1155 -644 -16 0
346 -4375 -1326 0
136 -4485 -1054 0
4385 -2962 -2869 -2838 0
3859 -1670 -566 -2286 0
53 -3728 -2180 0
4588 -985 -4061 0
4427 -3500 -2215 -1623 0
452 -4166 0
4175 -2054 -3896 0
1837 -2488 -3503 0
602 -4487 -3866 0
-3052 -2516 -3574 0
475 -940 -2666 0
1919 -4022 0
86 -1763 -3729 0
2824 -2552 0
-3173 -4138 0
3069 -1869 -596 -3762 0
1354 -4232 -1455 0
-3086 -3608 -2273 -730 0
3605 -2622 -4988 -2051 0
2008 -272 -559 -3775 0
-3190 -278 -3795 -942 0
-1972 -2005 -2275 -2266 0
3612 -3600 0
3654 -2469 0
-609 -2434 -4967 0
2091 -3831 -1263 0
2363 -2132 0
770 -1559 -793 0
4828 -3179 -2726 0
487 -1098 0
1154 -2524 -2452 0
-3177 -3746 -1167 0
1160 -4789 -3132 0
-621 -114 -2561 -3119 0
-3747 -2407 -3658 0
-3811 -2671 -4902 0
-3213 -4612 -2704 0
2491 -4949 -385 0
-4351 -1625 -314 0
400 -580 0
273 -2718 -3927 0
859 -57 -2453 -217 0
2120 -2254 -637 -3193 0
2705 -362 -4947 0
3972 -1430 0
2596 -2908 0
4708 -4716 -2525 -4781 0
-4832 -4419 -5000 -1782 0
4601 -1764 0
-1102 -3403 -2893 -1509 0
932 -3662 -2015 -510 0
-4418 -2782 0
-2394 -4131 -1728 -102 0
1325 -4496 -1960 0
2618 -4048 -846 -2790 0
-2484 -4826 -1581 -3092 0
2458 -3463 -1616 -2004 0
3168 -4349 -1614 0
-34 -4450 -242 0
1651 -3362 0
2543 -4674 -696 -2176 0
2986 -3898 0
4678 -3871 -4474 0
2421 -4020 0
2936 -988 -394 -4420 0
1102 -878 -2882 -3339 0
862 -2449 0
4504 -3580 -4327 -1905 0
223 -640 -3154 -135 0
2348 -405 0
3135 -4085 0
1965 -2227 0
3261 -4357 0
-2774 -4048 0
1629 -1918 -3238 -358 0
-2315 -4519 0
-1987 -991 0
4388 -1024 -4087 0
2920 -11 0
4929 -1790 -3524 -4286 0
4376 -884 -4705 -1229 0
-2618 -4859 0
-4314 -1960 0
3071 -1737 0
-3962 -2712 0
-3831 -2615 -306 0
2694 -633 -352 -3464 0
1936 -1375 0
2935 -910 0
1096 -1199 0
-3296 -4146 -188 0
-3509 -3485 0
-4185 -2244 0
4253 -1006 0
3693 -3015 -3482 -2355 0
3385 -4698 -4051 -250 0
-4372 -4253 -750 -3310 0
-2378 -266 -1022 -565 0
-1656 -3123 -409 -4856 0
3911 -2930 -4293 -4291 0
-4122 -3370 -1593 -1581 0
1504 -4169 -2747 0
3017 -4590 0
1955 -4828 -3263 -647 0
545 -659 -4458 -4344 0
-3715 -2566 -1005 -3896 0
-1437 -3760 -4723 0
-1399 -1900 0
4866 -693 0
13 -2906 0
3695 -211 -906 0
287 -624 -2158 -3795 0
1063 -118 -4180 -2757 0
3416 -4470 0
2323 -4278 0
4822 -860 0
-4747 -4639 -2740 0
-1076 -4004 0
830 -304 -595 -3900 0
1827 -1431 0
565 -3667 -1877 0
295 -2148 -4751 -279 0
-4539 -3394 0
2009 -2322 0
-1097 -2677 0
3519 -2503 -3100 -4038 0
-4517 -1758 0
-2060 -1993 0
-4497 -4747 0
3939 -1944 -3040 0
1251 -644 0
4237 -76 -1017 -2956 0
4853 -3738 -2866 0
1220 -4405 -2172 0
2579 -2683 -2345 0
-3979 -4407 0
469 -2628 -1696 -1777 0
-4566 -4477 -2344 -4829 0
1414 -4355 -634 -848 0
-4432 -174 -1103 -169 0
-1086 -607 0
2940 -3112 0
1606 -4282 -1900 0
1095 -797 -3260 0
-1542 -990 -2124 0
-2123 -1470 -2411 -1756 0
-3867 -1285 0
2881 -1269 -777 -3354 0
-2177 -351 0
235 -2841 -1823 0
-4712 -951 -4998 -3927 0
-2673 -2403 -4390 0
-4671 -1259 -4301 0
-2722 -3151 -722 -1141 0
3038 -2581 -3866 0
686 -2561 -4942 -2032 0
1454 -4423 -3201 0
1484 -11 -1596 0
2023 -2572 -4418 0
3672 -3807 -4350 -4880 0
2699 -3254 0
-1631 -540 -3651 0
3477 -4029 -2167 -1867 0
4850 -3756 -4214 -1800 0
-3300 -142 0
1667 -4348 0
1664 -4461 -33 -4992 0
143 -4023 -618 -3696 0
688 -4778 -2464 -3074 0
741 -28 -3259 0
-485 -1840 -385 0
2028 -2107 0
4197 -1901 0
3463 -188 -2349 -109 0
45 -104 0
-4186 -689 -3248 0
-2990 -883 0
4242 -2570 -1418 0
2909 -4281 0
4107 -2590 -2525 0
2627 -4398 -4709 -1899 0
3644 -2830 -4882 -808 0
847 -1815 -2117 0
2739 -4935 -2373 -1608 0
1022 -4651 0
1722 -735 0
-2139 -4822 0
4072 -2079 0
4725 -2507 0
2628 -505 -629 0
4889 -4053 0
1686 -4196 0
3213 -1838 0
4008 -2952 -976 -4984 0
2085 -26 -1461 0
2798 -3351 -1006 0
202 -4850 0
4954 -2149 -1796 0
-2741 -1596 0
2743 -4234 0
-2779 -916 0
3634 -521 -430 -122 0
3489 -4424 0
1964 -3172 -2933 0
3117 -3378 -4716 0
1646 -4313 0
1891 -383 -2953 0
219 -3025 0
-2232 -4536 -1917 -4627 0
2230 -1454 0
2558 -1913 -2888 0
4380 -811 -741 0
4700 -512 0
-1243 -211 0
936 -2772 0
-178 -4314 -3522 -3946 0
1027 -4615 -1493 0
403 -1381 -824 0
3264 -1062 -2027 -1178 0
1939 -79 0
605 -3183 -820 -4079 0
-3396 -1862 -3040 0
2401 -4621 -4381 0
3095 -4425 0
348 -1603 0
2248 -793 -3879 -4552 0
-1862 -1285 -4771 0
2594 -2635 -3347 -2858 0
2887 -572 0
4157 -4159 -4005 0
4998 -1471 -2362 0
-1971 -1807 0
979 -4569 -4980 0
-3392 -880 -2002 -2125 0
4395 -751 0
-1895 -4531 -2218 0
4770 -1747 -3899 -3467 0
-409 -373 -2132 0
2225 -1970 -2094 -3224 0
2541 -3251 0
-4445 -142 0
4998 -3458 -1422 -285 0
1627 -1472 -3982 -3991 0
-1933 -1478 -637 0
-1808 -2610 0
-1570 -2577 0
-1488 -4209 0
-536 -3040 0
3679 -4352 0
1297 -3651 -3916 0
3091 -2991 -529 -2702 0
-2708 -4057 0
1613 -827 0
326 -1613 -1183 0
-1520 -2791 -4621 0
1549 -1781 -979 0
2317 -4199 -2673 0
-4442 -776 0
3648 -2711 -52 -2972 0
4380 -1193 -1426 -4909 0
4507 -3199 -4599 -1616 0
4349 -3490 0
2187 -3738 -2278 0
1093 -1558 0
-1803 -2404 -3688 -2411 0
948 -1930 -3944 -1857 0
-2681 -4019 -2159 -3780 0
1841 -2063 -4185 -3340 0
-1527 -1579 0
-2223 -3829 0
-1224 -1989 -1519 -37 0
1832 -3517 0
1752 -4436 0
1074 -168 0
2890 -4084 -3963 0
-4792 -1304 -3201 -1734 0
1361 -4678 -4548 -4502 0
1508 -3443 -3251 -1651 0
4061 -1557 0
-3615 -1937 -2321 -2197 0
-3934 -2965 0
2328 -2946 -1563 0
-964 -2048 0
-4472 -3046 -1271 -3747 0
3768 -4212 -4695 -2789 0
3701 -2212 0
-2046 -4010 -4969 -584 0
2543 -4841 0
-3931 -3035 -4012 -4735 0
-4000 -345 0
4234 -2491 -2341 0
-4495 -2764 -4172 0
1911 -168 -1470 0
1063 -1690 0
-4609 -2425 0
701 -4004 0
4676 -833 -4517 -2869 0
834 -4528 0
-946 -3174 0
-1636 -3560 -3587 -2914 0
3464 -1296 -2194 -2502 0
457 -3658 -2670 0
-494 -2039 0
2985 -3961 -3465 -2371 0
3627 -2012 -3554 0
2673 -9 -1106 0
4894 -121 -3947 -3170 0
3554 -2844 -263 0
55 -3918 -1270 -3929 0
-2033 -3925 -3990 -2572 0
2062 -884 -613 -1593 0
2960 -1818 0
131 -3709 0
2679 -1427 0
4002 -4073 0
-2588 -648 -1960 -3802 0
2602 -2666 0
1428 -2953 -2258 -1672 0
2967 -3564 0
582 -369 -3704 0
2207 -3130 -851 0
2045 -127 0
2930 -2265 -2934 -1483 0
-2645 -2985 0
-999 -2729 -560 -1115 0
2796 -4696 0
3582 -2471 0
3664 -634 -1860 -2341 0
-953 -2893 -3395 0
3855 -4623 -3031 0
-1618 -2827 -621 -2216 0
1763 -3788 0
1758 -2275 -1606 0
4208 -3950 -2158 -4007 0
364 -360 -1496 0
2177 -3856 -1517 0
-3118 -4643 0
2083 -947 -2447 0
-3587 -3010 -4628 0
2515 -543 0
-3283 -2350 0
1543 -3304 -3492 -3351 0
4419 -2225 -1080 0
471 -2001 -1774 0
-758 -4896 -475 0
4548 -2061 0
4306 -3929 -3649 -436 0
4284 -4842 0
3222 -3980 0
-4805 -2266 -144 0
72 -3009 0
4724 -3900 0
230 -2881 -3674 0
2669 -2204 0
1747 -2850 0
-3488 -1622 -1062 0
-1356 -3385 0
1695 -469 -1429 -3570 0
-1646 -2148 -764 -2621 0
-1389 -2566 0
2284 -290 -782 0
1515 -2125 -1944 -3579 0
644 -3862 -2096 -2734 0
-4800 -1677 -994 0
-1023 -1209 -4195 -1517 0
-4306 -1699 -3448 0
4189 -2120 0
-3897 -2362 -4884 -1657 0
4719 -1734 -834 -4287 0
2885 -2894 -221 0
3039 -2830 0
3378 -4530 -561 0
1546 -2386 0
4672 -2629 -2016 0
1002 -4504 -1827 0
3671 -2222 -2863 -1913 0
-1006 -881 0
1005 -1761 -4264 0
2877 -189 -1061 -213 0
-402 -1062 -3054 0
3555 -4607 0
-2139 -4844 -4597 -2008 0
-1723 -799 -664 0
1445 -2827 0
1885 -3339 -268 0
4165 -3922 -2065 0
2500 -4070 -3296 -1818 0
-3292 -458 -2180 -2634 0
1731 -1732 0
2632 -49 -3996 0
4019 -2306 -270 0
2651 -4940 -2816 0
1159 -4748 -2224 0
-1134 -4204 -708 0
3671 -2912 0
-1650 -2457 0
-3 -4168 -462 0
1703 -1030 0
2554 -1978 0
-4710 -3207 -1703 -4279 0
2628 -4901 -550 -5000 0
2187 -3535 -4343 0
3186 -4932 -2983 0
1641 -4376 -2775 0
-3106 -2409 0
140 -1374 -2762 -1040 0
-1181 -3802 -4311 0
-3773 -2303 -246 -2843 0
2132 -1942 -4448 0
-2988 -1339 0
2206 -4981 0
2487 -3813 -4475 0
1365 -904 -4342 0
4733 -2780 0
68 -776 -2828 -949 0
2432 -4605 0
2238 -690 0
1286 -501 0
-3733 -3966 -3522 0
-3521 -2931 0
-1426 -4117 0
-1166 -3009 -14 0
4885 -4836 -618 0
-4850 -2246 0
4590 -3523 -3097 0
2005 -2755 -1211 -374 0
-1508 -3836 -588 -3953 0
4254 -3837 -1135 0
2641 -1895 -4786 0
1012 -228 -4532 -969 0
4862 -2839 -3082 0
671 -4936 -755 0
-1348 -416 -3895 -3655 0
-92 -308 -2469 -2084 0
3885 -3127 0
2236 -4628 0
2564 -209 -352 -3752 0
3351 -851 0
-1090 -3605 -993 0
820 -519 0
2769 -3712 -605 -3638 0
3504 -1389 -809 0
2715 -1518 0
-2811 -4971 -1595 -2322 0
-1737 -1669 0
1426 -306 -4542 0
4756 -3121 -4128 -2812 0
2767 -1204 -3204 -3404 0
1948 -3949 -4413 0
410 -2416 -4932 -2517 0
3370 -2505 0
2846 -4478 -959 0
4573 -548 -2300 -1888 0
-3364 -2177 -4159 0
3980 -4026 0
4874 -954 -3486 -3208 0
4363 -2638 0
1267 -1536 -1314 -4711 0
3180 -1170 -262 0
4090 -2001 -3813 -3575 0
-2323 -3361 -1947 0
4641 -4729 0
1322 -3277 -4913 -4287 0
4794 -3621 -2687 0
-2444 -1120 -4622 -96 0
-3911 -528 -852 -3582 0
-3429 -3826 -4113 -1246 0
2000 -1385 -3557 0
-2937 -4486 -406 -1658 0
1696 -4518 0
3486 -3957 0
3332 -2639 -4603 -1996 0
-2957 -2352 -3246 0
1945 -757 -3704 -4912 0
1555 -3142 0
3983 -3130 0
-1236 -3342 0
1246 -1798 0
4620 -1121 -1159 0
895 -2721 -3003 0
1596 -2444 -2675 0
2428 -2427 -4489 0
1905 -48 -1743 0
-1760 -4837 -1802 0
1212 -121 -4658 0
3805 -3734 -4241 0
2206 -3443 0
4480 -1914 0
4444 -3825 -4455 0
1098 -1571 0
-211 -4976 0
4259 -977 -3242 0
1063 -824 -2057 -4802 0
4570 -1020 -220 -2218 0
2532 -1635 0
-1658 -1551 0
4645 -3718 -2546 -87 0
1554 -1777 0
2776 -1126 -107 0
-3597 -653 0
2487 -760 -2219 0
880 -2738 0
3454 -1923 0
2238 -3623 -961 0
-3463 -3967 0
2204 -1504 -4796 -1008 0
2871 -2193 -3142 0
2761 -2464 -3318 -89 0
4692 -2239 -3943 0
4915 -4318 -1320 -2975 0
2448 -1444 0
-4492 -4970 -2930 0
-774 -1648 0
1742 -4880 -935 0
-4553 -2562 0
3166 -2323 -1582 -3257 0
1497 -1686 -2502 0
-4652 -4046 0
1046 -4826 0
-4214 -1017 0
3846 -571 -2477 0
4759 -3833 0
2841 -3314 -44 -926 0
-2811 -2774 0
1363 -4592 -2936 -468 0
1467 -108 -3909 -4702 0
3498 -780 0
2427 -1744 0
154 -910 -2789 -2267 0
1198 -1679 0
-4855 -1546 0
2046 -452 -379 -3678 0
2737 -2110 0
2855 -177 -1499 0
1005 -1169 -4978 -1749 0
1444 -3918 -1187 -4050 0
93 -1195 -3969 -3484 0
-4469 -1194 0
4054 -1280 -34 -4479 0
1314 -4705 -3486 -2932 0
4724 -1483 0
3364 -3242 -114 0
-4010 -1627 -722 -3229 0
-3314 -895 0
836 -1884 0
3242 -3750 0
2187 -854 -4586 -4129 0
-978 -990 -2264 0
3811 -4400 0
4539 -4585 -4194 0
3492 -4944 -4943 0
2251 -3102 0
881 -4080 -4795 -1512 0
-381 -1775 -2545 0
4978 -2068 -2562 -756 0
928 -1687 -132 -2737 0
-4229 -904 0
1276 -2752 -4443 0
-2795 -1811 -1780 0
4805 -3223 0
-1664 -2300 -2382 -1072 0
180 -525 -3624 -4626 0
-1747 -113 -1098 -455 0
754 -2692 0
3265 -950 -3711 -4838 0
-376 -3258 0
-3712 -3495 -1929 -1557 0
-2108 -560 -2057 0
2513 -2076 0
1084 -1748 -3444 -407 0
-491 -1056 -3997 -4197 0
-4107 -1247 -4453 -377 0
-2810 -43 0
1695 -1019 -1255 0
4054 -1522 -4910 -2301 0
2273 -732 -4226 -4086 0
2635 -4725 0
2410 -524 -2973 0
2716 -2945 0
1475 -194 -2518 0
-239 -75 -2949 0
-2733 -4176 -578 -1619 0
-2632 -2394 -148 -80 0
-315 -3436 -269 0
-1465 -1715 -577 -4779 0
528 -2930 0
-4998 -3462 -2113 0
-2534 -1632 -160 -1895 0
1214 -1878 -4467 0
1258 -1964 -3511 -4103 0
-4860 -2572 0
2442 -2670 0
-4433 -2179 -305 0
-3351 -1937 -2742 -4072 0
163 -4037 -3659 0
2243 -1034 -2388 0
4034 -1397 -50 -2947 0
4313 -1086 -1839 0
-2078 -4367 -4655 -4577 0
-4647 -738 -2196 -454 0
-3968 -150 -1530 0
-4407 -1016 0
431 -3199 -2835 0
-4375 -3653 0
565 -2932 0
98 -1874 -4243 -3871 0
-4138 -4094 -2603 -3324 0
3395 -2631 -3964 -2391 0
3550 -2835 0
3724 -4246 -3263 0
2371 -4294 0
-1288 -4839 0
-620 -1008 -1725 -4011 0
-2688 -428 0
3116 -2843 -886 -2038 0
-2553 -4128 0
3596 -2124 -33 0
-4679 -3918 -4669 0
-214 -720 -1064 -2971 0
2761 -2438 0
1909 -1051 0
1655 -4621 0
-4287 -2383 0
2808 -954 -2155 0
-2256 -2069 0
134 -2592 0
4170 -3975 0
-1480 -3528 -1176 -1776 0
-4015 -3982 -1077 -235 0
4669 -4989 -2253 0
566 -1904 -286 -3021 0
3074 -3757 -1513 -2662 0
3476 -3031 0
146 -253 -1941 -2812 0
-4923 -1803 0
4695 -2357 -2281 0
3620 -3662 0
2353 -2563 0
172 -262 -2602 -805 0
4148 -3913 -1926 -4264 0
3402 -2632 -3009 -4690 0
-2823 -2182 0
1442 -2800 -2592 0
636 -2600 -3877 0
1297 -4422 -1168 -721 0
4287 -1536 -2515 0
-3656 -3123 -1568 -3187 0
-4229 -3619 -900 0
-3124 -849 -1431 0
2166 -4500 0
-2716 -4770 -4867 -4562 0
4363 -3632 0
1147 -3025 -3899 -415 0
-3704 -2925 -2325 0
4725 -1742 0
-2906 -1000 -4790 0
4633 -3447 -3090 0
-2972 -245 -2698 0
4684 -2179 -4857 -4485 0
233 -1262 -2578 -2936 0
3119 -2954 -4669 0
-1880 -4300 -3633 -111 0
763 -3839 -1532 0
4830 -485 -4883 0
4344 -4390 0
-2039 -1760 -236 0
1503 -2530 -3940 0
1435 -2355 0
-102 -3396 -4091 0
-1506 -4095 0
2675 -1440 -1122 -3160 0
4216 -3215 -3276 0
305 -3188 -1634 -1769 0
-700 -923 0
400 -4118 0
-1653 -2565 -1642 -4202 0
-4326 -490 -1661 -2367 0
-2798 -1626 0
845 -2975 0
3334 -2146 0
1727 -141 -2401 -1013 0
-483 -2267 0
1357 -4742 0
4612 -2200 0
3984 -4720 -4329 0
-997 -1941 -2761 -2441 0
1596 -147 0
2720 -3615 -310 -281 0
-1403 -2930 0
-930 -3769 -2837 -1642 0
4683 -4103 -3664 -4280 0
1816 -3782 -3298 -2275 0
-4711 -4212 -5000 0
4604 -3011 -3851 0
200 -3483 -824 0
-4566 -2354 -1875 -1526 0
-357 -3664 -317 0
3317 -70 -1039 -757 0
-3676 -645 0
4323 -792 -3965 0
-1531 -435 -3633 -641 0
3936 -2629 -3657 0
1750 -2101 -1410 -1966 0
1503 -1223 -2046 -4753 0
3887 -1396 0
-4007 -4424 -3406 -860 0
4676 -2107 0
958 -3164 -3428 0
-3283 -1753 -4249 0
-2907 -3507 -451 -1829 0
-3308 -295 0
-2623 -2428 -2680 -4317 0
2110 -4513 0
1865 -2786 -4609 -171 0
-4391 -2697 0
4854 -1066 -2329 -2298 0
-1925 -292 -1980 0
1789 -727 -3240 -2465 0
20 -1962 -143 -2181 0
2712 -4465 -2411 0
-800 -2085 -3463 -448 0
915 -3699 -2914 -2802 0
3400 -135 -3961 -4785 0
-3089 -4372 0
-4235 -1125 0
-615 -4886 0
2414 -393 0
2907 -2504 -555 -4927 0
-3908 -4314 -4254 -1518 0
1517 -2350 -411 -632 0
1842 -3832 -394 -3891 0
-1232 -4836 -3194 0
3325 -2995 -4613 0
-2318 -2969 -1560 0
-1297 -3008 -1526 -1591 0
1108 -178 -3304 0
3031 -621 -1173 -4793 0
4793 -3811 0
876 -254 -913 -1055 0
1085 -1545 -4636 -1065 0
-2775 -3795 -2238 0
179 -2468 0
3597 -297 -1043 0
910 -2597 -100 -2300 0
1381 -3168 -2886 -3339 0
-188 -3795 -1026 -685 0
-893 -2199 0
-3162 -4003 0
-1082 -3238 -1498 -3663 0
457 -566 -4307 -1328 0
1132 -1541 -1449 0
304 -2763 0
-3565 -4040 -2488 -4674 0
2358 -3318 -3745 0
3681 -3863 0
-305 -1772 -4623 0
4214 -2910 -54 0
-3007 -996 0
4430 -853 -3115 0
4318 -2858 -324 -1062 0
2872 -4229 -4465 0
386 -3091 -4163 0
3572 -3120 0
-4095 -2664 -2205 0
-748 -835 -3796 -3734 0
556 -225 0
1101 -4272 0
-700 -1487 0
2594 -656 0
-3728 -621 -3462 -3649 0
4945 -114 -221 0
4780 -2002 -2065 -2731 0
1120 -25 0
-1563 -2083 0
-3308 -2453 -282 -1994 0
-1065 -1343 0
4242 -11 0
-967 -4790 -746 -688 0
404 -4317 -4508 -2844 0
-4642 -3148 -4663 -4724 0
1405 -718 -1962 -2730 0
2277 -4850 -4375 0
-1220 -3460 -4818 -270 0
4953 -1659 -26 -956 0
3312 -1007 0
3232 -1038 0
462 -1371 0
3893 -3508 -202 -281 0
659 -3123 -4480 0
2833 -66 0
365 -3437 0
-4002 -4212 -561 0
2921 -2841 -2820 0
-1559 -2059 -2889 0
-159 -2676 0
2074 -4613 0
-4538 -4989 -3205 0
4630 -1432 -224 0
832 -2863 -1930 0
3830 -791 -3472 -850 0
-2538 -2391 -1922 0
-4481 -1498 -2631 -3675 0
3917 -882 -1427 -1402 0
3035 -1537 -1118 -2006 0
1386 -3528 -3515 -2995 0
4240 -1072 -1361 -3034 0
1473 -3620 0
643 -1104 -1229 -3331 0
-3841 -2517 -4067 -340 0
1935 -126 0
2912 -3010 -3407 -2245 0
2998 -3638 0
1368 -445 -963 -1915 0
3535 -3812 -4160 0
-959 -4278 0
2515 -2399 0
-2292 -3009 0
221 -493 -1729 -1906 0
3177 -1959 -4128 0
2352 -2490 -2828 0
-3040 -3385 0
716 -4030 -2178 -4348 0
2753 -4139 -43 0
1682 -827 0
321 -575 -149 0
1253 -397 0
1962 -4795 0
-4453 -1225 -4314 -4129 0
1063 -2928 -4019 -2694 0
3451 -4024 -105 0
322 -2189 0
2589 -2517 0
4203 -1677 0
1294 -2399 0
2396 -173 0
3511 -3771 -4293 -3423 0
-719 -3334 -2732 0
1733 -611 -4050 0
3706 -3399 -4943 -72 0
-4817 -1678 -1593 -2408 0
-2398 -1018 -2830 0
335 -3848 0
-4354 -2112 0
-2130 -3895 -485 0
-2159 -1728 0
-2432 -1148 -1754 0
1295 -4793 -3531 -1159 0
-2850 -1359 -585 0
2360 -843 -317 -1479 0
278 -4702 0
589 -4275 0
4284 -2563 -2957 0
3728 -798 -720 0
2595 -843 -385 0
4748 -4628 0
1242 -4798 0
3666 -780 -3470 0
1182 -1837 0
193 -1148 -961 0
-4947 -4092 0
544 -1284 0
-1448 -2452 -4089 0
875 -3276 -4631 0
478 -1784 0
1917 -207 -153 0
-3040 -2949 -1670 -1362 0
-318 -1654 -1502 0
2114 -2895 -347 0
4126 -3514 -2803 0
3203 -1704 -952 -1161 0
1767 -3014 0
1231 -2732 -1999 -1546 0
-439 -4807 -3826 0
4788 -1382 0
-4910 -1722 0
3763 -2094 -3157 0
2863 -3418 0
3139 -3892 0
4041 -3607 -2064 -2901 0
4684 -4642 -1473 -3137 0
-63 -524 -2818 0
4990 -249 -973 -4014 0
1636 -4543 0
892 -3934 0
4381 -1095 -2071 -4076 0
2088 -4257 -695 -825 0
-3551 -3137 -3652 -77 0
-2032 -443 0
1512 -4276 -2630 0
4257 -244 -4192 -820 0
101 -1183 0
4641 -1095 -4820 0
2314 -2166 -123 -1288 0
2009 -1032 0
2446 -1621 -579 0
-4846 -487 -2740 -4367 0
1944 -4304 -66 -3814 0
2784 -3473 0
-4568 -237 -4995 -2169 0
861 -3334 -445 0
1385 -82 0
302 -2585 0
4723 -3227 0
4626 -3719 -4110 -2646 0
1809 -2043 -1348 0
-332 -2073 -784 0
4667 -3541 -3474 0
4754 -2016 -4269 -66 0
463 -3758 -4512 -206 0
825 -463 0
4168 -149 -3614 -229 0
-591 -971 0
3544 -803 -2673 0
3503 -147 0
4789 -2827 -1722 -4933 0
4715 -3374 -4037 0
-4505 -4215 -1257 0
4631 -1376 -3119 -3121 0
724 -939 -692 0
1801 -51 -1873 0
-52 -3284 -135 0
2159 -1640 -681 -1977 0
-4772 -1099 -4590 0
349 -4782 -3582 -2224 0
-4683 -519 -1277 -3533 0
-3099 -2160 0
-2805 -1887 0
3200 -241 -2455 0
-77 -1992 -4102 -1720 0
-2750 -1401 -3557 -3058 0
1437 -4639 -2576 0
4803 -1094 -2228 -1983 0
3350 -2100 0
-2712 -1954 -2795 -1482 0
3170 -3345 -3796 0
69 -3663 -1065 0
3856 -1230 -1612 0
4550 -2665 0
1718 -3073 0
-3193 -126 0
-2836 -655 -4792 -2149 0
2169 -1816 -2728 -670 0
2103 -1346 -3766 0
2081 -3378 0
-4241 -3707 -2503 -2210 0
4018 -3698 0
-1278 -3426 -767 -1074 0
3796 -3339 -3332 -3297 0
-3791 -1293 0
-2237 -4494 -88 -2597 0
3776 -3565 0
-1613 -210 -4874 0
4766 -2146 -3352 0
-2875 -1422 -3185 0
3509 -3315 -3023 0
2189 -549 -3266 0
1157 -1931 -1224 -1184 0
1374 -3476 -3231 -2150 0
2327 -1888 -4982 0
-2441 -4392 -4235 0
-1559 -60 0
2910 -3635 -1297 0
1967 -1589 0
2691 -1701 -4863 -2627 0
2126 -3592 0
1076 -3895 -43 0
3441 -153 -4404 -3628 0
3188 -1051 -556 -495 0
4768 -714 -3885 -4617 0
251 -3063 -3474 0
785 -2469 0
889 -1888 0
1689 -2281 -559 0
2884 -3228 0
3391 -2347 -3627 -2208 0
260 -1941 0
-222 -1390 -4212 0
-512 -3093 0
2416 -1435 0
-4727 -4849 0
1518 -3631 0
2324 -1116 -773 -138 0
-2863 -2917 -4435 -3978 0
-1919 -2461 -1236 0
574 -57 -1312 -3450 0
-411 -2184 0
2067 -2468 0
1135 -1419 -2315 -2966 0
-4024 -657 0
1229 -2441 -1511 -4419 0
3681 -523 -4266 0
560 -360 -2019 -2090 0
2249 -579 -3909 0
1123 -3372 0
384 -3486 0
-458 -4960 -1508 -595 0
2313 -3933 0
2836 -3971 -4602 0
2505 -1566 -728 0
-3545 -4845 -1159 0
-454 -4039 -1870 0
-4740 -4478 -1232 0
4398 -2260 0
-3628 -4748 -3077 0
-2799 -427 0
2393 -2956 -4253 0
80 -32 -3838 -542 0
-4391 -333 0
2495 -250 -2432 0
3958 -3396 -3532 -45 0
-3709 -4411 -3423 -3382 0
4837 -2973 -1784 0
2025 -1919 -4055 0
528 -4789 -2831 0
3553 -3083 -3638 -2705 0
-2000 -1150 -2504 0
-851 -327 -3093 -2836 0
4832 -903 -4246 0
2958 -1231 0
3412 -1131 -2895 -3121 0
-803 -716 -676 0
2514 -3379 -370 -4874 0
353 -2673 -4069 -1412 0
3825 -3216 -4937 0
-4680 -934 -4179 0
1260 -4545 0
-537 -2819 0
-2779 -1928 -2703 -16 0
-787 -1965 -887 0
545 -4436 0
150 -1155 -1730 0
111 -2459 -1410 -2378 0
526 -3634 0
1798 -244 -2134 0
-954 -3178 -2906 0
922 -868 -3302 0
2098 -1032 -2134 -4323 0
4197 -167 -3021 0
2731 -3040 0
1855 -3510 -3399 -1287 0
4372 -3163 -2028 0
4647 -3865 -2990 0
-4668 -664 -3729 -3823 0
945 -1985 0
-2222 -3021 -2841 -2408 0
-4268 -2078 -250 0
4788 -3232 -2975 -643 0
3406 -2059 -77 0
105 -3759 -4146 0
1363 -4811 -1815 -4531 0
4140 -2023 0
-854 -3993 -2711 0
4881 -784 0
1567 -4258 -600 -1369 0
-2485 -4287 0
4625 -3402 -1298 -4982 0
174 -1832 -4437 -2127 0
-4444 -445 -1536 -4046 0
1228 -2366 -4792 0
-1562 -3629 -900 0
3009 -168 -4168 -3831 0
4552 -1333 -523 0
2804 -1335 -3010 0
1828 -2206 0
2380 -3374 0
4715 -2814 -1796 0
3825 -3243 0
1293 -4840 0
3136 -1930 0
-438 -1880 -194 0
3430 -2904 -1803 -3861 0
-1208 -76 -2936 -3583 0
4017 -2512 -4892 0
451 -3815 -1630 0
1744 -4768 -1154 -1482 0
3283 -4802 0
4576 -4987 0
3580 -3076 0
612 -3674 -3549 -2936 0
244 -2194 -1891 0
-3393 -669 -2034 -3373 0
2684 -3569 0
2267 -9 0
-3391 -2652 -1799 0
-3493 -3206 -4391 0
-3885 -1424 -1821 -4337 0
-1728 -1871 -4992 -4330 0
-140 -2184 -2681 0
2388 -4203 -544 -1033 0
1084 -2730 0
3198 -1016 -4788 0
4354 -184 0
4280 -4187 0
2498 -3749 -3809 -3167 0
-4133 -3052 -1443 -4429 0
1447 -2620 -864 0
-94 -588 -4679 0
1694 -1600 -3711 0
-1979 -3690 -1725 -1983 0
922 -2807 0
3482 -3357 0
3309 -870 -1037 -4657 0
-2322 -3570 -576 0
-4941 -4705 0
2443 -4534 -2875 -1786 0
3819 -1153 -3068 0
3709 -4232 -405 0
3343 -286 0
11 -45 -227 0
3967 -638 0
2985 -1563 -1074 0
1122 -2013 -3054 0
3629 -4473 0
4235 -1777 -430 0
3988 -2246 -2825 0
3458 -1819 0
-4639 -2543 -829 -4642 0
572 -3598 0
-3607 -4932 -2450 -1982 0
202 -1498 -2718 -2999 0
4371 -4050 -4333 -3051 0
1010 -4728 0
2878 -27 -2058 0
3246 -2208 -3154 0
-3086 -4763 -556 0
1365 -3084 -1852 0
4945 -3172 0
-4665 -2113 0
-1556 -4811 0
-3291 -298 -456 0
4103 -3538 -438 -4422 0
4302 -1441 -3030 -1205 0
-3862 -1335 -1089 0
4150 -2426 -3149 -2357 0
-470 -1355 -1767 -2 0
2341 -192 -1486 -1617 0
3363 -2508 -1394 -2892 0
1476 -3479 -4525 0
2295 -119 0
885 -4861 0
3767 -1577 -4498 -4960 0
3153 -243 -1325 0
3402 -4675 0
2723 -3779 -550 0
816 -2715 0
-999 -4474 -2864 0
-2231 -3944 0
-2812 -610 -718 -183 0
-999 -4368 0
4133 -1316 -4702 0
2281 -3797 -3020 -2324 0
2352 -4388 -4319 -342 0
3992 -4933 0
431 -1772 0
1499 -1452 0
420 -3080 0
2885 -4877 -3787 -2483 0
2050 -827 0
-566 -1814 0
2222 -649 -1582 -2456 0
3153 -3396 -3303 0
4850 -2580 -1267 -787 0
684 -1313 -1861 -4695 0
-1173 -2494 0
-4226 -196 0
1279 -1165 -576 -2275 0
63 -1536 -1778 -2630 0
199 -4471 -3115 -4757 0
4766 -3067 -4 0
3654 -3041 -3121 -642 0
4389 -2478 -2739 0
2743 -3712 -4761 -4020 0
2868 -2792 -688 0
1823 -612 -4079 0
-3625 -732 -1388 0
508 -3421 0
268 -4170 -3003 -916 0
2370 -2746 -3653 0
2313 -3087 0
3743 -2143 -1877 0
-12 -1105 -2069 0
439 -1409 0
4099 -3548 -3252 -3402 0
2672 -239 0
-3621 -4848 0
-2269 -3616 -4321 0
742 -4131 0
1878 -3445 -2181 0
-2306 -4186 -2261 -2425 0
609 -4261 -4963 0
-523 -3808 0
463 -2638 -2663 -2844 0
949 -395 -444 -623 0
-2307 -1646 -1075 -632 0
4575 -4235 -578 0
-550 -1501 0
-3723 -313 0
-4169 -4821 -284 -259 0
4350 -2113 -2115 0
3005 -4693 0
588 -1244 -147 0
2908 -3901 -152 -447 0
-4012 -3822 0
4489 -2621 -1391 0
4480 -3316 -2231 -1126 0
4683 -4923 -488 0
-1217 -83 -3570 -1975 0
1948 -2071 -4614 0
3970 -4000 0
567 -614 -4251 -2063 0
1632 -754 -109 0
3811 -3207 -3296 0
-2884 -4437 0
-3065 -4590 -1757 -943 0
-3093 -1982 -4073 -537 0
-270 -2390 -4048 0
-3446 -165 -2770 0
396 -300 -2478 0
3277 -260 -4726 -3740 0
4015 -2428 0
-3864 -1204 -3790 0
858 -604 0
2454 -3116 -1392 -2237 0
2001 -3652 0
4391 -1190 -1596 0
3288 -3080 -949 -767 0
-2955 -356 0
2401 -487 0
98 -581 -2941 0
8 -3450 -635 -608 0
2413 -2871 -1006 0
630 -704 -4517 0
2872 -1503 -2850 0
3345 -271 -808 -1836 0
3037 -4763 -4787 0
4109 -121 -4861 0
-3581 -1099 0
-3828 -2159 0
31 -3770 -1091 -67 0
3599 -2224 -19 -3021 0
4248 -1681 0
4889 -4112 -72 -935 0
-4225 -4236 -398 -575 0
-2167 -4326 -1907 -16 0
-4135 -763 0
2586 -2612 -2133 -1312 0
1417 -223 0
-1586 -3432 0
645 -4617 0
-2136 -3876 -1623 0
3328 -2682 -4367 -3741 0
3417 -1571 -4629 0
-4337 -2302 -4510 0
2243 -3412 0
1978 -2080 0
-4817 -4031 -4499 -3963 0
407 -2223 0
3372 -31 0
3350 -4682 0
2712 -2111 -4100 -3398 0
2913 -4837 0
1323 -1768 -573 0
1791 -3471 -3145 -353 0
-3426 -2585 -2206 0
1164 -3907 -2807 0
3786 -899 0
4211 -4496 -1938 0
-130 -2366 -1296 -1310 0
-1859 -1045 0
3496 -3036 -1180 -4023 0
2650 -2700 0
2468 -147 -3639 0
-3577 -1140 0
1034 -1578 -2883 -479 0
-3246 -3047 -1109 -1685 0
-297 -1575 -3738 -3761 0
-4772 -515 -1753 -2640 0
4156 -1961 -4464 -3838 0
4445 -2821 -1758 0
-3524 -446 0
3919 -3584 -4975 0
3441 -841 0
882 -4567 -2134 0
2805 -4689 -4699 -4575 0
1118 -959 0
4397 -4549 0
2963 -317 0
-2653 -4822 -2295 0
4035 -4100 -194 -1039 0
-687 -921 0
2285 -2814 -371 0
42 -538 -3440 0
380 -2811 -441 0
1173 -961 -4634 -2414 0
1620 -1796 -584 0
4103 -1551 -3122 -18 0
-401 -584 -2794 -1648 0
1424 -3269 -94 0
4154 -4787 0
1113 -834 0
-4782 -966 -3924 0
-1069 -939 -3328 0
-1971 -4946 0
1849 -1936 0
-3318 -4272 0
-4959 -4605 -3394 -4810 0
2101 -2601 -2145 0
2919 -3599 -3821 -4712 0
4612 -1342 -616 -4728 0
-2949 -3220 0
1909 -1448 -4958 0
-3097 -2972 0
3171 -3732 -3381 -2973 0
709 -151 0
3906 -4847 -4787 0
-428 -2988 0
-476 -3984 0
1550 -4305 0
-4472 -2320 -4251 0
-3021 -666 -1016 0
1941 -1569 -2557 -4152 0
3278 -841 0
4468 -4217 -4610 -1365 0
3774 -1091 -1784 0
4938 -4282 0
-635 -4418 0
4330 -321 0
-3972 -2574 -2768 -164 0
2909 -835 -1572 -2757 0
3467 -2538 -2711 0
136 -1776 0
-2312 -3853 0
683 -2685 -2751 0
-4683 -874 -2871 0
2932 -4221 0
4660 -2965 0
30 -917 -2960 -4139 0
3238 -2047 -478 0
2464 -2654 -925 -1557 0
4307 -554 0
1649 -2135 -4002 -2729 0
1244 -3980 -334 0
-2169 -1033 -60 0
-2961 -305 -1826 0
1971 -741 0
-826 -1591 -1854 -1114 0
3872 -409 0
3999 -3237 -1822 -2663 0
1912 -2955 0
3213 -2996 -2445 -1773 0
2848 -2594 -4942 0
-2542 -2915 -987 0
-2523 -1813 -1490 0
1769 -1993 0
3913 -887 0
3398 -3533 -134 -3182 0
-578 -471 -3103 -1658 0
2017 -799 -148 -456 0
770 -789 0
201 -1437 -2650 -1341 0
-525 -240 -2419 0
4642 -2667 -144 -3496 0
87 -2018 -768 -140 0
-4968 -2813 -771 -2756 0
1540 -1323 -4691 -3776 0
3293 -2178 -4014 0
4131 -4679 -4944 0
-1133 -4102 0
640 -2631 -2117 -1918 0
-4275 -4197 -2861 -728 0
4455 -4448 -1300 0
3931 -1280 -2047 0
4943 -1059 -2936 -3592 0
479 -3043 0
4084 -2581 0
2924 -868 -1823 0
-593 -2052 -4355 -3733 0
1385 -4570 -2632 -4955 0
389 -599 -455 -1880 0
4587 -2481 0
4942 -129 -3330 -4386 0
-3720 -635 -1704 0
347 -301 -1847 0
-1362 -530 -1732 0
3732 -1226 -4491 0
4359 -4582 0
4301 -2295 -3565 -4771 0
98 -1906 -1146 -4711 0
-2178 -2989 -2620 -1959 0
1632 -2732 -126 -2072 0
278 -2108 -2697 0
2598 -1417 -726 0
3147 -2712 0
4061 -2476 -1937 -3163 0
927 -1056 -1167 -122 0
819 -969 0
1694 -3661 0
3257 -2068 -1001 -1738 0
1052 -4117 -1968 -216 0
-6 -1553 -884 -2980 0
1312 -1497 -3538 0
3350 -1213 -2325 0
1973 -2291 -1841 0
-2200 -1431 -753 0
4011 -1353 0
-1899 -2643 -3764 0
-2772 -1002 0
3588 -4691 -2402 -1088 0
3200 -580 -3910 -1815 0
4467 -613 -4508 -2907 0
-2983 -987 0
4572 -2908 -803 0
-2048 -4620 -3482 0
-3108 -3187 -2172 -197 0
-976 -4362 0
2422 -2211 0
3212 -2331 -521 0
-2381 -557 -4160 0
3581 -4065 0
1903 -4586 -277 0
-3558 -1655 0
4719 -1893 0
-3841 -2797 0
2080 -4659 0
4674 -4034 -4221 0
-446 -3710 0
1947 -1354 -1828 0
4160 -1133 -1586 -3064 0
4799 -3322 -2754 0
3088 -418 -4997 0
2435 -3404 0
203 -2106 -4085 0
-2808 -4482 -823 -428 0
1838 -1274 -3720 -3176 0
-4003 -4289 -3973 0
20 -4014 -480 0
4292 -4843 -1098 -4931 0
4577 -4338 0
3645 -555 -1455 -2995 0
4766 -888 -1641 -3036 0
4375 -984 -3941 0
1432 -971 0
2806 -2912 0
2558 -1856 0
-2650 -2914 -2449 0
-3285 -186 0
-2826 -296 -4906 0
3974 -3799 -152 0
3905 -1181 -475 0
1372 -1547 -30 -3524 0
3525 -4305 -1803 -4458 0
3392 -2303 0
-3751 -4131 0
1440 -2100 -4494 0
1732 -3520 -4082 -1067 0
3536 -4467 0
3790 -4185 -4052 -3774 0
-4421 -3383 -2565 -2143 0
-2365 -4838 0
-3205 -3317 -3269 -4069 0
-103 -2713 0
-835 -1912 -4324 0
-1003 -3721 -3367 -2033 0
378 -1884 -3286 0
-4741 -2522 -2662 -3945 0
3746 -566 -4724 -4104 0
-1460 -380 0
-1259 -945 0
2107 -364 -1607 0
4464 -4563 -1602 -231 0
45 -3553 -1674 -802 0
11 -2651 0
-2143 -7 -4663 0
2417 -3644 -4084 -3167 0
2196 -4953 -3658 -681 0
2231 -963 -2673 0
1559 -83 -2761 -4118 0
4143 -2068 0
4000 -1067 0
3085 -1867 0
1889 -4844 0
1981 -1444 -2674 0
563 -4566 -3674 0
-3211 -180 -2363 -2105 0
-744 -2261 0
4155 -3817 -467 -4604 0
-355 -3091 -4666 0
-1349 -252 -2219 -1464 0
4540 -743 0
4289 -2832 -1440 0
1029 -890 0
2604 -2990 -2079 0
2904 -1315 -3818 -2727 0
3382 -1027 0
3464 -4159 -3839 -2662 0
3488 -1439 -3572 0
1204 -2370 0
2087 -3142 0
-353 -4480 -4364 0
-595 -875 0
1062 -1660 -4529 -2108 0
-983 -631 0
2803 -4666 -1093 -2782 0
-1075 -2567 0
2370 -2190 0
1988 -2652 -1289 0
3865 -2520 -3285 0
4043 -1511 0
-3850 -1000 -1271 0
4004 -1153 0
389 -2907 0
4512 -3093 -2108 -4210 0
-1380 -3783 0
207 -1896 -287 -4363 0
648 -3190 -247 0
-4077 -2963 -4798 0
144 -3448 -993 0
1658 -2373 -1066 0
944 -1343 -139 0
-4430 -4335 -4893 -4421 0
24 -3110 -4540 -2979 0
3692 -2122 -1720 0
4382 -1770 -4254 -4261 0
1018 -2341 0
-330 -2556 -866 -2094 0
-910 -1709 -2947 0
-657 -1033 -113 0
-2855 -4785 -1989 -2484 0
1048 -1769 0
4246 -1602 0
2434 -4928 0
347 -2445 -4879 0
1366 -4823 -3088 0
-2857 -1664 0
-3669 -2997 -3301 -1787 0
4860 -2911 -647 -4955 0
1330 -2872 -2776 -2117 0
-3131 -1972 -521 -4589 0
-2902 -1142 -3630 -1435 0
1046 -368 0
106 -439 -1966 0
-1851 -2192 0
4300 -1601 -4867 -892 0
1907 -2055 0
-1456 -4594 0
-1041 -1000 -1460 0
-4605 -3992 0
-3310 -46 -317 -470 0
3253 -2333 0
4358 -2246 -2536 -600 0
-4086 -3674 -1972 0
4917 -3845 -2183 0
716 -2379 -4473 -2731 0
854 -175 0
-865 -3818 -2914 -2248 0
3696 -3246 -3276 -4006 0
-2601 -1776 -3459 -1401 0
344 -1805 -4661 0
752 -2959 -1735 -1308 0
1744 -3151 0
-3326 -815 -1434 0
1844 -845 0
1336 -1403 -2597 -1441 0
4090 -2632 0
-2936 -2236 0
-2430 -1972 0
2462 -2640 -3343 -3650 0
3873 -1251 -1211 -1874 0
-3444 -4615 0
522 -2245 -3872 -3375 0
-940 -3857 0
-1135 -4425 0
3819 -4345 0
1592 -1872 -3971 0
1525 -3741 -4302 0
-950 -814 -246 0
-974 -1687 -3625 0
3107 -1311 -1158 0
-4066 -1087 0
2723 -1018 -335 0
-4468 -3551 0
633 -4920 0
3886 -4481 -362 0
4747 -4201 -1804 0
-536 -4292 -210 -111 0
3092 -4711 -2395 -3114 0
3929 -3252 0
2579 -1060 -517 -4070 0
2736 -4734 0
4587 -3024 0
4558 -3597 -479 0
4560 -388 0
4810 -4681 -2568 -2850 0
-3167 -2846 0
-3684 -4369 -3356 0
-1307 -4429 -860 0
2700 -3745 0
3611 -1499 0
265 -1913 -2176 0
4654 -1431 -1833 0
-1385 -1611 -697 0
-3468 -4189 -170 -1923 0
1285 -2509 0
1403 -3023 0
2066 -878 0
458 -896 -1800 0
4073 -3640 -631 -437 0
4233 -4300 0
1356 -3364 0
2727 -1664 0
2260 -230 -2610 -3567 0
3588 -3876 -1649 -3818 0
-137 -4825 0
3512 -4250 -1592 -4643 0
-1324 -2672 -1431 0
332 -4298 0
4469 -2890 -685 0
104 -1674 -2527 0
-1786 -94 0
3868 -705 -971 0
4507 -4071 -128 0
2699 -2752 -524 0
3607 -2268 -4757 -842 0
1094 -2892 -2012 0
-1619 -304 0
-2771 -688 -2880 -1055 0
-4308 -3733 0
2737 -1122 -2081 0
2380 -3135 -2961 0
-4714 -4777 -4557 -2068 0
-1805 -4787 0
1775 -2458 -1067 -3465 0
3502 -3847 0
3670 -789 0
2947 -4569 -1709 0
1362 -3750 -2473 -1468 0
3010 -2245 0
39 -4023 -1184 -2330 0
-3620 -2287 -1227 -1915 0
2865 -289 0
1590 -396 -1164 -3341 0
1268 -3435 -3849 0
-4636 -3221 0
4734 -29 0
2354 -1614 0
44 -4819 0
939 -4105 0
843 -4782 0
1935 -666 -381 0
-32 -4369 -866 0
-4247 -795 0
3530 -1481 -4884 -2652 0
3808 -2631 -3037 0
3622 -1491 -1882 -777 0
2370 -4529 -4094 -3638 0
3875 -2574 0
-1263 -4107 -96 -3786 0
406 -3097 0
4957 -292 -1423 -4126 0
2152 -3949 -3066 0
668 -779 -1053 -371 0
3055 -47 0
-2330 -3931 0
1982 -3097 -549 -187 0
-824 -3003 -3629 -4500 0
2643 -1692 -1793 0
570 -1423 -1078 -1114 0
826 -4802 -4507 0
4281 -3138 -4491 -2485 0
-3050 -4379 -1736 0
-1555 -2086 -2798 0
1726 -3780 -1096 -1000 0
4833 -4900 -1190 -2836 0
-4822 -422 -2861 0
2123 -3819 -2250 0
2286 -2989 -69 0
3434 -3601 -878 0
-1726 -1986 -31 -3354 0
-1700 -3439 -4359 -2010 0
616 -2670 -756 -4071 0
167 -1163 0
3552 -1265 -790 -4137 0
-1984 -3465 -313 -1821 0
-4662 -3708 -627 -3144 0
2044 -933 -2123 -2666 0
-3031 -838 0
940 -4814 0
-3960 -1430 -308 0
-427 -3140 0
-4609 -664 -632 0
4295 -396 -4229 -1677 0
4871 -3463 -1607 0
-1004 -394 -2726 0
-2417 -708 0
308 -1642 -1896 -610 0
1394 -686 -1059 -3259 0
661 -4033 0
1292 -4263 -2055 -2862 0
1539 -3369 -209 0
1848 -384 0
4908 -2999 0
1956 -189 0
1350 -4570 -3625 0
1290 -1645 -4117 -4114 0
386 -3393 -3869 0
2284 -3876 0
4771 -4903 -4679 0
972 -4654 -2619 -475 0
-850 -2073 -2681 0
-2013 -461 0
3838 -3265 -4126 0
2166 -762 -174 -4898 0
2291 -2469 0
1295 -3803 -3474 0
49 -3782 -1981 0
1240 -4758 -260 0
-4120 -2311 -3644 -2457 0
3794 -4052 -3457 0
3899 -1500 0
2423 -3486 -2639 -4130 0
4045 -3796 -3064 0
178 -3643 0
325 -3424 -2558 -2861 0
2634 -125 0
-1868 -3737 -3632 0
2340 -2 -1567 0
2061 -944 0
-2394 -4760 -4762 -1069 0
-1213 -1956 -1404 0
-781 -2184 -3041 -3405 0
134 -3847 0
-4002 -162 -4010 -550 0
-1520 -4856 0
566 -350 -4020 -4103 0
1507 -2187 -708 -2215 0
242 -3130 -1783 -2093 0
-1436 -4586 0
1245 -350 -1178 0
268 -1218 -18 -4782 0
2048 -596 -2554 0
3483 -4923 0
-2536 -2024 0
-2114 -1180 -1160 -1412 0
3118 -1901 0
-1747 -2059 -2079 0
2184 -2500 -1702 0
-398 -2321 0
2342 -3670 -4515 0
1223 -2865 -2690 0
-4642 -613 -1582 0
4998 -2247 0
3261 -2627 -3856 -4646 0
628 -1795 -683 -3762 0
-2923 -3217 0
776 -4164 -2636 0
-4592 -3943 -939 -441 0
2077 -3306 -1022 0
2162 -3086 0
-1303 -1856 -2202 0
127 -1397 -4227 -3572 0
583 -2785 -2300 -1904 0
1381 -4771 0
4267 -2540 -722 -4595 0
-1491 -3408 0
2606 -1641 -2763 0
-4579 -3662 -3923 -340 0
2981 -1145 0
1953 -2799 -3989 -255 0
2985 -4971 -3360 0
3994 -4132 -4659 0
1692 -3338 -1385 0
1248 -2665 0
3433 -2429 0
4604 -4020 -2118 -503 0
-4966 -3983 -3747 0
3410 -3616 -4304 0
-3569 -168 -3780 -800 0
3164 -1526 0
3988 -4522 -1273 -2705 0
4520 -1468 -3138 0
281 -1529 -4564 -492 0
2259 -440 -1773 0
3860 -3384 -3780 0
518 -2444 0
4555 -1816 0
4207 -4718 -402 -4930 0
350 -2660 0
-493 -3175 0
685 -100 -427 0
-707 -2453 -3465 0
2192 -2755 0
-1272 -2642 0
2015 -2805 -3884 0
-205 -2538 0
1761 -129 -3490 -3756 0
-569 -1020 -242 0
-1616 -3440 -942 -1575 0
529 -461 -4391 -224 0
2951 -2731 0
-3606 -2399 -3733 -1242 0
3558 -4164 -4646 0
-3693 -2637 -1744 0
2822 -2943 -2783 -2611 0
2046 -2417 -620 -1545 0
4656 -868 -1469 -1962 0
-2374 -2330 0
1584 -975 -177 -963 0
2587 -3216 0
4980 -1933 -1164 0
4363 -4256 -1617 0
-3924 -836 0
2817 -2189 0
-3811 -3661 -1033 0
3665 -92 -1206 0
4229 -2698 -665 -1290 0
2305 -1171 -604 0
2146 -3874 0
1918 -3751 0
3179 -2332 0
3436 -3322 -2764 0
4795 -3687 -4030 0
3525 -442 -425 0
-1812 -3578 -452 -2995 0
728 -1099 -1602 -1476 0
777 -771 0
3079 -3389 -1267 0
2324 -439 0
961 -900 -4865 -4436 0
507 -1951 -2913 0
1361 -4039 0
-1583 -4385 -1765 -1417 0
-648 -237 -3769 -2896 0
207 -2779 -2994 0
1764 -2044 -3751 -3384 0
2645 -2344 0
4051 -3241 -1097 0
4544 -1403 -3944 0
-4948 -883 -947 0
1176 -3598 -3121 -961 0
-1100 -3946 0
4336 -4641 -3535 0
1976 -3239 0
808 -3464 0
3157 -3943 0
422 -3075 -414 0
4190 -1642 -3975 -2045 0
-4171 -652 -2062 -2872 0
-2546 -1480 -4988 0
-4861 -3958 0
4669 -1804 -4097 -2493 0
1633 -3990 0
2337 -3083 0
3804 -2417 0
4111 -3537 -3521 0
-1605 -1937 -3000 -2419 0
2864 -2054 -2008 0
4623 -1067 -935 -4306 0
1282 -2735 0
-1196 -3938 -4351 0
4111 -2084 -1406 -1844 0
4823 -2120 -1661 0
1708 -1460 -1338 -3277 0
1053 -3479 0
-422 -3915 -677 -2088 0
2636 -1426 0
-294 -2336 -1583 0
4680 -4794 -2941 0
-4769 -1521 0
2020 -4719 -143 0
3990 -4354 -3490 -2940 0
378 -666 -1135 0
-421 -3896 -1977 -3970 0
-2605 -2138 -524 0
96 -4893 -772 -864 0
987 -3268 -4090 0
1183 -4819 -2258 0
3085 -1235 -3570 -3642 0
-1622 -2668 -1460 -486 0
62 -2969 -757 -4246 0
1720 -3095 -232 0
-3207 -2449 -4973 -3558 0
3059 -4429 -2806 0
1350 -3595 -4108 -4596 0
1702 -3809 -762 -3065 0
2526 -3371 -2904 -4036 0
-1488 -54 -2507 0
-4501 -1835 -4626 0
-4731 -4728 0
4190 -1979 -936 -721 0
2566 -3625 -274 -2280 0
4314 -2382 -1694 -4288 0
4263 -2704 -2579 0
2455 -4703 -1461 -260 0
978 -1150 -3407 -1963 0
-3978 -1195 -282 0
-85 -4557 -676 0
-36 -335 -4646 -1719 0
567 -3811 0
4585 -4587 0
-575 -2775 0
3945 -3042 -2542 0
1990 -3788 0
4780 -4666 -3435 -1774 0
4149 -3201 -914 -4513 0
1030 -2715 -759 -1720 0
1661 -2169 -1103 -3432 0
2081 -4374 0
-2569 -607 0
3088 -3915 0
-2527 -2458 -4636 -4169 0
3413 -1986 -3624 -4492 0
-1652 -2236 -4670 0
-1667 -4603 -4878 -4840 0
348 -4365 -1397 0
4284 -632 0
1611 -3562 -4189 -1935 0
-4338 -908 -3727 0
4503 -4602 -2908 0
4810 -2494 -4541 -2036 0
40 -3755 -2828 -1697 0
3128 -3374 -665 0
24 -3214 0
1270 -1708 0
2041 -1741 -1283 0
3324 -4094 0
45 -2862 0
-619 -1794 -963 -2588 0
2403 -1670 -4655 -277 0
-3766 -2567 0
2407 -2636 -213 0
2746 -2478 -4869 -3935 0
4576 -922 -1077 -1296 0
2878 -1072 -786 -4219 0
2927 -169 -1357 0
770 -854 0
4112 -1692 0
-2048 -1974 0
4103 -1577 -371 -1961 0
4252 -2732 -2143 0
-1805 -3315 0
-2133 -1018 -4032 0
4023 -3967 0
3686 -1365 -4249 0
2512 -3003 -120 0
-426 -4221 0
4758 -1469 -1185 -2845 0
-3045 -3395 0
-4257 -2744 0
2314 -4799 -1665 -2716 0
-2088 -1183 -2671 -688 0
4825 -4832 -3568 -3065 0
4182 -1197 -2125 -1363 0
-1979 -470 0
844 -3964 -384 0
1265 -2167 -4506 -1154 0
4453 -1653 -794 -440 0
1544 -1360 0
1341 -3619 -1117 0
-3125 -2990 0
2081 -4769 0
2342 -4852 -1045 0
1953 -4820 -455 0
4023 -4104 0
607 -2303 -3153 -4943 0
-3532 -4874 -1673 -2033 0
4514 -3090 -2649 -4247 0
518 -2553 0
3912 -3497 -4876 0
1923 -323 -241 0
808 -3336 -2319 0
1394 -1386 0
1786 -567 0
-4807 -3225 -4177 -2983 0
-2722 -817 0
311 -2424 -744 0
2533 -1376 0
-4181 -3729 -3661 -1608 0
408 -3582 -1505 0
1623 -4096 -3668 -3972 0
2186 -406 0
2503 -3189 0
2483 -2583 -2012 0
2186 -4678 -989 -3499 0
-2544 -2637 -3587 0
-1561 -2167 0
718 -3517 -1384 0
790 -3405 0
-1599 -4496 0
2744 -468 -4120 -4040 0
2197 -1123 0
4222 -678 0
568 -765 -3489 0
3020 -4300 -1981 0
1553 -2214 -1981 0
-18 -257 0
2467 -392 -486 0
1824 -3348 0
-3913 -2646 -3335 -3577 0
2909 -2176 -2289 0
-4824 -322 -1925 -608 0
3255 -828 -2092 -1466 0
663 -4793 0
3239 -1563 0
1846 -3184 -4477 -260 0
4630 -1824 -4671 -826 0
-4323 -3260 -2127 0
-1565 -2032 -1187 0
-3411 -594 -1287 0
2719 -3318 -4701 -264 0
-856 -3086 -4971 -2239 0
426 -2517 -4427 -2831 0
126 -813 0
609 -2890 0
3697 -2008 -2105 0
-4471 -4691 -3928 0
3823 -1486 0
2885 -4076 0
254 -3271 -1618 -1199 0
-605 -4789 -1899 -24 0
2537 -1213 -4039 0
4301 -2624 -1933 -4060 0
-3666 -1821 0
-943 -3864 -1596 0
-3209 -1393 0
-3474 -3590 -4628 0
4342 -3945 -3616 0
-1307 -632 0
2749 -2644 -3426 -1595 0
2923 -1133 -4773 -4359 0
2409 -1495 0
1786 -3216 -574 0
4095 -4581 -543 0
757 -4322 -2801 -4043 0
975 -640 -980 -1292 0
-4552 -893 -4795 -3856 0
-2328 -478 -2883 0
-61 -1679 -2555 -4621 0
-1333 -1023 -3510 -65 0
2759 -3834 0
98 -4248 -385 -757 0
286 -3204 -4933 -2781 0
1606 -2464 -1834 0
-4319 -1195 -3214 0
4264 -4861 -720 -3338 0
2968 -4139 -1704 -3210 0
1260 -743 0
-1759 -4182 -2443 -459 0
3022 -4759 -386 0
-4269 -517 -15 -699 0
-1951 -1660 0
-3846 -2782 -3102 0
-2611 -4789 -1174 0
3817 -4969 -3501 0
562 -4081 -139 -4592 0
-2128 -4242 -1941 -2576 0
-1827 -3825 0
792 -1946 0
-1415 -4025 0
-992 -1093 -3559 0
-1517 -2182 0
-1954 -2201 0
4308 -1673 -3076 -4089 0
3629 -4110 -3798 -436 0
2400 -1410 -1431 -3003 0
2053 -2664 -1124 0
4394 -21 -2406 0
2454 -957 0
4970 -3235 0
4876 -4890 -3141 0
-2178 -3937 -3789 0
1660 -3501 -2226 -4331 0
-3656 -1997 -2534 -1606 0
4412 -1763 -2949 -656 0
-4224 -4106 -2675 -1422 0
1820 -2666 -2519 0
-73 -4157 -1738 -2875 0
3817 -4219 -461 -1668 0
3131 -4367 0
-3201 -1451 -4878 0
-1432 -4001 -3031 0
1817 -3999 -2088 -2951 0
4743 -3908 -4328 -709 0
3158 -4356 0
3659 -1936 -1464 -2091 0
3530 -2489 -2801 0
115 -298 -4335 -2252 0
914 -4931 -3532 0
1889 -1346 -4899 -2392 0
2703 -357 0
2800 -1392 -2952 -1833 0
370 -4695 0
2638 -4485 -3502 0
2176 -4800 -4626 0
601 -1537 0
4367 -1124 -3007 -1669 0
-3654 -2416 -4735 0
-2096 -4364 0
1748 -2711 0
2962 -675 0
464 -1851 -35 -4887 0
-2803 -3982 -929 0
-3803 -10 0
3618 -3332 -1064 -4836 0
618 -2798 -4466 -1113 0
4810 -850 -2795 0
4293 -1310 0
1500 -3036 -3047 0
-2230 -4502 0
1665 -3652 0
4691 -4145 -4636 -1585 0
2089 -4931 -4273 0
4541 -1780 -4348 0
2070 -438 -1035 0
723 -4864 0
-4731 -3701 -2837 -2925 0
1004 -2416 0
906 -812 -266 -2229 0
1793 -2334 -3626 0
3389 -3490 -4917 0
3863 -1331 -4292 0
1036 -3495 -170 0
2473 -3172 0
-700 -794 0
-3890 -4051 -728 0
738 -971 0
4814 -4145 0
3592 -4261 -488 -4518 0
-3612 -2959 0
-3376 -4353 0
3656 -1162 0
207 -3256 -1383 -275 0
1327 -763 -2086 -3748 0
2538 -1138 -2485 0
3935 -319 -2912 0
4733 -3153 -3594 0
-4189 -4874 -381 0
3494 -1689 0
-3617 -282 -942 0
1911 -338 -4402 0
2602 -1436 -2929 0
1679 -2694 0
2876 -4334 -1324 -3474 0
-2424 -1304 -4934 0
2789 -3708 -1737 0
4127 -2491 -2678 -1116 0
2409 -2082 -4427 0
-3850 -954 -4741 -4313 0
-2441 -2281 0
-3671 -3684 -17 -1872 0
-44 -978 -133 0
3590 -2057 -1547 -2825 0
1124 -1997 0
3416 -885 -4284 -1959 0
-3158 -4342 -1175 0
1352 -2132 0
1470 -3832 0
2392 -2366 -4072 0
4889 -3486 -1849 -2163 0
2961 -1572 -4789 -473 0
-1300 -2137 -69 0
-4631 -158 -703 -2680 0
69 -3380 -3036 -4173 0
2635 -4502 -1687 -3649 0
-2043 -4726 0
-607 -1090 -3125 -2984 0
-4891 -1167 0
3082 -156 0
3829 -2666 -3056 -4985 0
2414 -383 -2926 0
4012 -4901 -3732 0
1164 -292 -4736 -1153 0
-3409 -2122 0
4888 -3554 0
1434 -4289 -4150 0
4845 -2347 -2166 -1114 0
346 -2902 -2402 -3841 0
784 -1178 0
2269 -3272 -3517 0
1120 -2087 0
-3944 -382 -2704 -3769 0
3397 -3065 0
-4885 -269 0
244 -3271 -4828 -1816 0
4539 -4490 -2531 0
-4378 -55 -1460 0
4115 -2453 -1016 -3949 0
-2930 -362 0
3663 -1189 -2973 0
1998 -1909 -2220 -1634 0
-3474 -1396 0
2666 -2965 -699 0
2787 -3528 -939 -1137 0
1425 -1384 -2186 -3366 0
725 -2839 0
1313 -2835 -1592 0
2986 -907 -778 -2366 0
3826 -506 0
2763 -4150 -4839 -2849 0
2987 -3242 0
2052 -373 0
46 -325 -2113 0
4229 -1835 -1834 -529 0
1828 -4075 -3941 0
2746 -3800 -397 0
-4658 -2752 0
883 -3514 -3187 -4363 0
-232 -3445 0
651 -4626 -86 -3635 0
16 -3668 -2932 0
4160 -1382 0
1516 -4520 -512 0
577 -2468 -375 0
3409 -3049 0
1730 -3866 -483 0
1055 -2882 -344 -1392 0
-984 -4628 -1881 0
980 -351 -4344 0
2803 -418 -3840 -2400 0
944 -2290 -1348 -2175 0
973 -3919 -4391 0
-1517 -428 0
2192 -3514 -1656 -2921 0
-1161 -4042 -685 0
-313 -2349 -1697 0
-1934 -2562 -1157 0
-153 -2836 0
4451 -635 0
325 -3695 -4842 -507 0
517 -4880 -2345 -4791 0
1846 -1794 -2554 -1853 0
3876 -3509 0
-4945 -2447 -111 -1905 0
-759 -2054 0
-430 -4500 0
-1471 -266 -2010 -2180 0
3037 -3365 -965 -4994 0
3929 -4933 -4518 -4028 0
-211 -2034 -2223 -4828 0
112 -2743 -4228 0
-220 -376 -4499 0
4412 -387 -887 -1195 0
723 -3931 -1076 0
3153 -3121 -562 -4796 0
2426 -147 0
-2299 -3356 0
1555 -3308 -2339 -480 0
144 -4258 0
-357 -576 -1131 -4919 0
4707 -470 -3177 -1104 0
-458 -4018 -2141 -4280 0
-698 -4955 0
1511 -2609 -2020 -2466 0
-4398 -2065 -389 0
-2673 -200 0
1018 -2101 -1118 0
4948 -1896 -2396 -1532 0
3913 -1379 -4203 0
491 -632 -1373 0
960 -2392 0
-1289 -4796 -2933 0
3645 -716 -410 0
-3422 -3653 0
-4965 -2477 -3055 0
3404 -4320 -677 -1338 0
3458 -806 -4842 -2376 0
1937 -660 -2380 -177 0
-524 -3705 -3320 -2218 0
991 -2406 -2716 0
2972 -2099 -2231 -734 0
4678 -1089 0
1839 -1781 -1445 -1817 0
-1777 -347 -4168 -1750 0
2547 -2871 -4480 -3966 0
2239 -2374 -4981 0
-4252 -663 0
-3111 -731 -2551 -3861 0
-4094 -3343 -3445 0
2612 -514 -2662 0
-2498 -624 0
-1455 -975 0
-256 -1945 -1094 -3127 0
450 -2722 0
-2078 -1431 -3549 0
486 -4133 -172 0
-3713 -1623 -2914 0
2315 -573 0
-2551 -3892 -4594 0
268 -1553 0
3211 -3452 -758 0
2772 -899 -2016 0
3370 -3205 -1242 -166 0
2747 -1459 -4984 -384 0
-659 -2120 -3253 -4750 0
1888 -4613 -4399 0
1603 -465 0
-183 -1617 -1685 0
-525 -1830 -4141 -4178 0
1895 -4084 -863 -3911 0
-624 -2796 -4481 -4416 0
-3349 -3228 -2399 0
125 -609 -3845 -1505 0
607 -2351 -975 0
4191 -3898 -3240 -2538 0
-3057 -399 -4799 -4549 0
3493 -1802 0
4287 -4874 0
3556 -2251 0
3123 -2570 -27 -4743 0
2384 -2934 -4891 -2225 0
-3671 -4168 0
84 -3140 -2406 0
-447 -3263 0
1269 -1234 -1365 -3913 0
3272 -4378 -676 -581 0
4308 -4161 -1336 -714 0
2866 -2035 -3682 -2307 0
4786 -4494 -3523 -1397 0
4918 -4908 -4805 -3811 0
-1920 -4517 0
3350 -2780 -4292 -1586 0
2916 -4583 -575 -1014 0
3294 -4093 0
-328 -1638 -1884 0
-1062 -430 -2084 -3600 0
-3954 -1262 -1938 0
4671 -3101 -227 -4534 0
4223 -4231 -139 -2749 0
-1293 -2196 -3714 -1082 0
4168 -2589 0
-3994 -3192 -1563 0
2766 -2233 0
3677 -2292 -2751 0
-4303 -809 -4297 0
-1401 -1195 0
-1325 -2077 0
1028 -4949 -3810 -2285 0
-1426 -616 0
240 -3609 -1786 0
2510 -36 -2246 -159 0
-3660 -2259 -1982 -703 0
1125 -4128 0
4386 -1788 -4165 0
-2644 -824 0
2699 -304 -2908 0
794 -4009 -3352 0
-388 -592 -2907 0
-960 -1945 -3483 -3530 0
-81 -2840 0
566 -3084 -1787 -3608 0
-2294 -1820 0
2096 -4132 0
1180 -4087 0
32 -4877 0
1280 -2729 0
1451 -1201 -3349 0
2577 -1950 0
456 -876 -1688 0
-51 -4635 -4040 -1197 0
4143 -1427 -206 -2657 0
-158 -2459 -1245 -841 0
3265 -3646 -2536 0
-4781 -1940 -3987 0
-4132 -3387 -2702 -3005 0
2264 -512 -456 0
-3129 -3568 -1493 0
1576 -4961 0
910 -1766 -3665 0
724 -1797 -3133 -3575 0
3473 -1134 0
2839 -1536 -1815 -2500 0
171 -2406 -1719 -194 0
1947 -3770 0
473 -4748 0
2258 -352 -596 -1445 0
3696 -1733 0
-1074 -2454 0
1633 -1224 -1775 -335 0
2349 -1034 -1272 0
1384 -1111 -2807 -561 0
3994 -3406 0
2792 -3343 -4760 -4013 0
1564 -4168 -4162 0
2717 -2313 -4239 0
4899 -3839 -302 0
1653 -3021 0
3033 -2408 -135 -897 0
67 -3547 -2316 -2945 0
1573 -42 0
2571 -1095 -1570 -2700 0
4946 -637 0
-4189 -991 -2581 -2113 0
-527 -294 -2563 0
4224 -2950 -2579 0
-1284 -2110 -4533 -1006 0
3272 -2727 0
4619 -2198 0
-4154 -3433 0
751 -4722 0
-1451 -2142 -2008 -3453 0
3231 -2130 -3511 -1954 0
1144 -4698 0
3229 -478 0
2677 -614 -3912 0
2078 -3879 -280 0
3159 -3162 -3093 -23 0
358 -2932 -1806 0
2056 -1101 -2260 0
2930 -1698 0
3478 -2653 -3614 0
2360 -1261 -1839 -4474 0
1610 -3240 -762 0
-1929 -1441 0
916 -3397 -12 -240 0
1266 -2545 -4245 0
1675 -803 -1604 0
3742 -382 0
678 -1007 -629 -4352 0
4051 -666 -3139 0
1112 -4989 0
3453 -1640 -1013 0
4085 -1158 -750 0
4556 -1487 -498 0
1472 -1937 -655 -2438 0
4839 -2692 -3817 -3702 0
3137 -2233 -1197 0
1501 -5000 -1659 -3925 0
4100 -53 -726 -3593 0
1826 -2640 0
-3007 -1829 -4745 -1761 0
4511 -3706 0
2197 -3562 0
3356 -1955 -3219 -1751 0
2617 -3565 -2795 0
4328 -4343 -3393 -2906 0
4435 -4092 0
3007 -782 -2459 -1964 0
2196 -161 0
1174 -4828 0
832 -2761 0
1566 -2057 -2058 -1990 0
4133 -3851 -1953 -2753 0
-379 -2924 0
1986 -460 -4159 0
-3370 -2472 0
3333 -1783 -4444 -2738 0
4569 -1586 -2789 -3379 0
4652 -291 -747 -2103 0
2027 -2288 -4831 0
-1898 -1201 -3377 0
4308 -4236 -669 0
-3809 -2508 0
-2062 -750 -4850 -1376 0
4980 -3941 0
-252 -3596 0
-631 -4139 0
4119 -1718 -3337 0
-3802 -4671 -2340 0
2935 -4022 0
-2828 -1736 -3701 0
3741 -565 -4486 -3187 0
-1784 -2585 -1485 0
2883 -4872 -4088 0
42 -788 -3239 -659 0
651 -4189 -3815 0
-1548 -116 -1985 -3382 0
4338 -38 0
-2931 -2258 0
2567 -4590 0
1951 -3922 -4704 -3579 0
3663 -3381 -1063 0
393 -749 0
652 -3593 -4258 0
1663 -1385 -2995 0
-1150 -313 0
3808 -315 0
1469 -980 0
2334 -2287 -4906 0
-2263 -2477 -2975 -4425 0
2707 -2717 -1333 0
4406 -2757 0
3015 -2969 0
-1864 -2647 -1035 -347 0
-1082 -687 -2057 -2119 0
1191 -4255 0
3618 -3982 0
2998 -462 -4865 -4608 0
-1854 -3277 -1075 -3983 0
3491 -2329 0
-1082 -3955 0
205 -1973 0
4065 -1618 -526 -464 0
2915 -1343 -2212 -3573 0
2021 -3815 0
-2959 -530 0
1437 -1336 -3930 -4934 0
4804 -2735 -3416 0
-3663 -3554 -2682 -2112 0
2492 -1069 -2058 0
2944 -3651 -4242 0
2895 -4826 -3117 0
2846 -3466 -8 0
3355 -2464 -3288 -4685 0
4838 -2164 -1037 -4547 0
-4785 -2105 -139 0
865 -936 -546 -3146 0
3605 -2745 -631 -1924 0
2635 -4463 -1435 0
-1130 -4369 -1855 -467 0
-3227 -1959 0
1138 -1892 -4379 -256 0
-1138 -1354 -2153 -3142 0
-666 -2761 -297 -685 0
1778 -226 -1469 -4376 0
2446 -2528 0
92 -3795 0
-2425 -1326 0
4795 -4315 -2865 0
1219 -3155 0
553 -1542 0
4838 -1654 0
900 -178 -1835 -1458 0
-4630 -4000 -233 -3131 0
4674 -4537 -1747 0
4611 -3027 -3909 0
3810 -4568 -2066 -4047 0
555 -1214 0
-2825 -1661 -2053 0
169 -1462 0
-2621 -4125 -1306 -2090 0
3810 -2162 -3321 -3752 0
4242 -4434 -2031 0
2610 -3055 -3208 -736 0
112 -3305 -2639 0
2413 -3660 -4496 -2597 0
967 -2934 -2307 -2483 0
2397 -4923 -168 -2428 0
2483 -1132 -2564 0
-229 -4036 -4749 -2147 0
3708 -3528 -2986 -8 0
-3224 -3450 -3638 0
3303 -1034 -861 -1854 0
-4778 -4987 -844 -2077 0
4902 -2174 0
4563 -4130 -1451 -2520 0
2735 -859 -3443 0
1248 -3597 0
3086 -3758 -4317 0
3047 -1876 -839 0
1606 -4487 -244 -1590 0
1488 -3694 -3701 0
-2769 -4149 -2184 -1566 0
-3787 -431 -2988 -4852 0
1117 -407 -3808 0
895 -3635 -2431 0
1757 -2990 -4147 -654 0
-3255 -4854 -3764 -382 0
-3252 -1606 -344 0
1347 -4622 0
535 -4142 -3179 0
4078 -562 0
4149 -3659 -4701 -1862 0
1887 -1686 -2026 -4272 0
-3944 -2372 -4761 0
-837 -3283 -116 0
-563 -1645 -1854 0
-3595 -532 -3804 0
2477 -1186 -4788 -1751 0
3311 -1454 -787 0
2931 -1751 -2183 -2236 0
-1738 -3077 -2607 0
1441 -4551 0
2571 -2257 -4740 0
-681 -4902 -1074 -2292 0
2352 -4136 -2551 -2496 0
-2047 -1828 -3820 0
4927 -3203 -2588 -4933 0
-1817 -3643 0
-4035 -3179 0
3349 -100 0
3926 -772 0
-737 -2925 0
2917 -690 -3570 -2783 0
4965 -3359 0
1796 -73 0
-4223 -32 -3548 0
4986 -3845 -4087 -321 0
3645 -2425 -2575 0
-1241 -3501 0
-4676 -2194 -4288 -1776 0
1285 -722 -531 0
968 -2690 0
1501 -3454 0
1292 -2645 -3472 0
1067 -212 0
2749 -1238 -318 -3897 0
1792 -4241 -2540 0
-26 -1472 -1796 0
3723 -1886 -288 -1653 0
1337 -4783 -97 0
-502 -1824 -944 0
1845 -97 -770 -4067 0
1066 -626 0
2641 -4279 0
3533 -1388 -4079 0
82 -614 0
3397 -3558 -2208 0
2475 -3207 0
2274 -4864 -2186 0
865 -43 -4177 -1284 0
4930 -2832 -1714 0
-799 -3920 0
1961 -3052 -3874 -3402 0
2836 -3163 -4655 -3525 0
712 -4305 -1099 -1961 0
3508 -2012 0
-429 -4806 -2486 0
3057 -1416 -1778 -1970 0
-3387 -2884 -1693 -4215 0
772 -4844 -533 0
891 -1171 0
-2257 -3805 -758 0
1781 -528 0
2561 -3637 0
2088 -1731 -903 -850 0
72 -4832 0
594 -4115 -4011 -1803 0
4597 -435 -2829 -4514 0
2345 -3372 -3216 -4999 0
2127 -1602 -186 -4956 0
4857 -852 -4292 0
3358 -4220 0
3491 -3012 -2035 -2581 0
3092 -1181 -747 0
4539 -2051 -3573 -3257 0
2469 -936 0
3708 -1984 0
-4830 -1300 -4712 -4815 0
3607 -1090 -3894 -2931 0
-3847 -4341 -3525 0
-2673 -845 -3638 -577 0
-386 -553 -1175 0
2900 -1505 -2452 0
4385 -3271 -3671 0
156 -1994 0
2683 -3167 -4749 0
-556 -1634 0
-867 -196 -1126 0
1017 -1698 0
102 -1059 -1608 0
4931 -1775 0
2650 -438 -3942 0
2851 -1257 0
-1886 -77 -2750 -4887 0
1677 -4980 -1093 -2741 0
-4991 -1719 -4331 0
-287 -2134 -872 -3118 0
440 -2444 -2363 0
4519 -4351 0
247 -4038 -4582 0
579 -4925 -2179 -3481 0
-4440 -4327 -4433 0
3129 -4633 0
3844 -2116 -1360 -501 0
742 -467 -330 0
1964 -1109 0
-3969 -1569 0
2332 -4255 0
3130 -857 -827 -4835 0
-3015 -96 -4807 0
371 -3024 -3133 0
4395 -3972 0
4830 -561 -1268 0
2056 -2089 0
-1321 -1325 0
390 -2010 -1446 0
-2503 -2550 -371 0
2438 -3583 -845 -2930 0
136 -872 0
-3089 -386 -3325 0
4668 -4262 0
4164 -1028 -4465 0
-1069 -672 0
-1638 -3901 -4863 -728 0
4323 -366 -1020 0
4178 -1964 0
3367 -875 0
4779 -385 -2097 -1721 0
-2801 -3706 0
157 -4503 0
446 -2075 -2991 0
-1500 -2789 -3404 -1645 0
-2645 -1917 -4037 -2991 0
-3046 -2076 -3641 -1988 0
455 -1024 -3572 -330 0
3272 -4538 -3979 -84 0
3930 -3067 -2777 -733 0
2968 -2809 -4809 0
3416 -3259 -360 0
4568 -2469 0
822 -2203 -3878 -3677 0
4404 -1885 -603 0
-3201 -4132 -3138 0
3131 -4984 -2932 -237 0
212 -4435 -3697 -3373 0
3095 -1807 0
3209 -3232 -98 0
578 -1235 0
2457 -2688 0
4868 -583 -1408 0
3238 -2927 0
-1781 -950 -1466 0
2529 -670 0
4586 -1118 0
3136 -3301 0
-2351 -2531 -245 0
328 -1586 0
4250 -440 0
4406 -4382 -1050 -3666 0
-4218 -2244 0
1492 -1828 -1758 0
4224 -1130 -2777 0
51 -1381 0
2000 -307 -4440 -1929 0
-728 -3833 -2576 -1709 0
3569 -3350 -3705 0
1320 -3125 -1836 -2661 0
4443 -856 0
3030 -2990 -2768 -242 0
-1972 -1636 -2884 0
3224 -4217 -921 0
1108 -998 0
3765 -3817 0
4746 -682 -3753 0
2460 -2909 -2768 -3399 0
4483 -1396 -4167 0
2742 -4039 0
1346 -4514 -3558 0
-1353 -3855 -2391 -2542 0
-666 -2995 0
2728 -4290 0
1817 -38 0
4943 -2399 -839 0
125 -2549 -3080 -1504 0
3315 -3406 -998 0
2981 -2455 0
-3448 -2263 0
-2101 -235 -4172 -3881 0
955 -543 -1622 0
1222 -3749 -2198 -2030 0
3796 -790 0
2060 -4057 -3505 0
1860 -2993 -1480 0
1939 -2020 -2208 0
2741 -3736 -3612 -2688 0
-610 -1434 -1729 0
803 -420 -344 0
-4571 -4161 -3826 -455 0
-1018 -1004 0
-1213 -3818 -519 -4279 0
4976 -127 -2491 0
-2182 -3925 -2124 -2935 0
-553 -2558 0
1302 -2715 -2156 -3580 0
4955 -1884 -3532 -2483 0
4041 -2551 -562 0
993 -4680 0
3233 -919 0
4367 -378 -3139 -470 0
-2368 -1577 0
915 -2415 0
4415 -1645 -3012 0
4391 -2205 -2876 0
482 -1450 0
4883 -486 -535 -4027 0
3886 -2326 0
4052 -663 -3142 -876 0
-3228 -2804 -2467 -3003 0
-4865 -551 -2076 -1478 0
3938 -294 -857 0
4082 -4715 0
319 -4020 -4801 -3659 0
-4434 -1142 -4967 0
2372 -2933 -239 -884 0
2486 -4256 -3300 0
2536 -2092 -2524 0
2396 -1988 -3924 -4079 0
1342 -2954 -1388 -1429 0
4821 -2850 -3270 0
158 -1971 -223 -3350 0
705 -4148 -4635 -4239 0
363 -1203 -2812 0
4512 -3490 0
4655 -4639 0
2480 -1861 0
1180 -2483 -3794 0
2043 -1488 -2514 0
-3067 -1066 -2219 -3553 0
-693 -2232 -3068 0
3779 -3192 -4397 -2341 0
1158 -3445 0
497 -4886 0
-4854 -87 0
891 -4241 0
4609 -3148 0
1038 -1116 -906 -1018 0
-711 -3027 -3849 -1896 0
135 -4136 0
3791 -473 -3096 0
-2658 -585 -3077 -4437 0
-2453 -3990 0
4066 -3522 -528 0
390 -4436 0
-2019 -3043 -3367 0
1233 -2766 -4140 -1152 0
-614 -2975 -2682 -1855 0
3972 -4756 -4377 -1281 0
2112 -2566 0
-4714 -624 -1190 -3760 0
3443 -4742 -3386 0
4296 -1545 -2168 0
1736 -4937 0
3114 -1378 -4252 0
2251 -95 -4341 -3599 0
-1952 -1835 0
-1586 -1084 -2911 0
-3169 -2438 -4611 0
1054 -4412 0
3317 -3755 0
-3596 -2754 0
4166 -2607 -4120 0
4331 -4518 -3369 -1054 0
4186 -2651 -4839 0
3806 -3938 0
-3338 -2401 -2692 -1877 0
778 -1937 -1357 0
-1591 -812 -4089 0
1806 -622 -4970 0
3724 -2553 0
787 -3351 0
3095 -2918 -2848 0
547 -491 -487 0
1827 -3718 -651 0
1973 -3461 -2632 -1295 0
-4218 -1788 -2939 0
-2970 -1977 0
96 -2062 0
1020 -2685 0
380 -4074 -4224 -2112 0
-358 -1688 0
-234 -2516 0
-3478 -2432 -4974 -1926 0
-1396 -426 -2510 -3580 0
-1275 -4869 0
-1310 -4613 0
-2554 -2632 0
-211 -1261 -1179 0
2838 -4525 -4771 0
1819 -602 -3141 -92 0
2807 -2851 0
1128 -3520 -1146 0
-3239 -4095 0
1081 -1845 -161 0
1328 -86 -2586 0
2778 -2339 0
681 -728 -454 0
2995 -3715 -754 -12 0
-2936 -3828 0
1141 -1484 0
31 -2634 -2975 -3539 0
3291 -524 -4027 0
-718 -4368 -4422 -2124 0
3863 -2449 -2271 0
-2213 -711 0
3891 -3221 -4330 -3627 0
4636 -217 -1298 0
3287 -2986 0
-1521 -1864 0
2868 -3906 -464 0
384 -3663 -4405 -3560 0
1358 -4999 -2739 0
411 -4453 -2104 -2491 0
2751 -4920 0
1352 -2733 -993 -3640 0
-1514 -3125 0
-4165 -2573 0
3944 -3311 -2915 -789 0
1887 -4344 0
767 -1859 0
1400 -2963 -3384 -1243 0
-2275 -2824 0
3719 -2703 -2954 -2442 0
1870 -4213 -2109 -1985 0
-4890 -2480 -427 -1114 0
3668 -4864 0
151 -561 0
-3535 -2162 -1541 -2482 0
3040 -2691 0
3143 -140 -4652 -3315 0
-1900 -1636 -875 0
2761 -86 -285 -4597 0
255 -4683 0
3295 -2660 -2687 -4530 0
2986 -486 -1585 -4210 0
1083 -4210 -2946 0
4347 -888 0
3583 -3977 -4216 0
-1200 -3620 -720 -2942 0
-533 -4168 0
2467 -4223 -2606 0
4437 -2294 0
3453 -1540 0
-4542 -332 -1856 0
1433 -2639 -402 0
922 -487 -3843 0
4990 -1765 0
1427 -2304 -1820 -3236 0
-3228 -2193 0
3892 -1758 -4409 -2271 0
-4581 -4691 -2470 0
-3548 -600 -461 -3954 0
527 -1089 -66 -2535 0
3059 -3606 -1466 0
1478 -1334 0
4602 -3273 0
-4120 -241 -48 0
3049 -1832 -1687 0
-4522 -3072 -794 0
1184 -2275 -3001 -3784 0
2525 -407 -3000 0
510 -2925 -2483 -2692 0
4030 -4601 0
4515 -4143 -30 -3647 0
1030 -436 -753 0
3906 -3799 -3657 -4052 0
-1130 -3982 -3968 -2074 0
2814 -277 0
2373 -2806 0
1040 -2094 0
4176 -1266 -2539 0
2195 -714 -4239 -3647 0
-2846 -3674 -2670 0
1407 -3930 -1032 -633 0
-2834 -2863 -3656 0
2797 -3466 0
7 -3072 -4554 0
1185 -4115 -2743 -4240 0
1549 -1923 -4099 0
4951 -449 0
4435 -4842 0
3924 -2084 0
3304 -4899 -887 0
2076 -4168 -4997 -4558 0
-980 -4575 0
-1537 -885 0
-4602 -984 0
-4003 -4958 -2019 -2397 0
4329 -460 -604 -976 0
2635 -1401 0
1349 -897 -2973 -3836 0
-1666 -3634 -1932 -2096 0
-3568 -3152 -2045 -3150 0
4598 -1992 -3781 0
359 -2416 0
94 -3298 -685 -1510 0
-2175 -4470 -2790 0
-795 -926 0
924 -4102 -1805 0
2462 -2307 -839 0
-3120 -894 0
3518 -1729 -1814 -3662 0
2271 -3989 -3447 -2822 0
4105 -4090 0
1500 -4108 -4272 0
-1952 -4448 0
4638 -1123 -3488 -224 0
1948 -1189 0
2894 -2659 -4901 0
-1728 -3334 -4428 0
4688 -1433 -4876 0
1469 -2400 -4449 0
390 -2264 -4404 0
2046 -204 0
297 -267 -3220 -307 0
-1583 -1082 0
4879 -1172 -571 -2883 0
-3044 -2075 -2784 0
-4817 -1567 -2992 0
-3066 -3436 0
1150 -4802 -1883 0
-1311 -2028 -2915 0
4638 -2218 -801 0
10 -4171 -3001 -2235 0
2116 -3053 0
1995 -315 -4748 0
4765 -4864 0
4743 -2718 0
4718 -3769 0
-2069 -2300 -877 0
1044 -2302 -3878 0
417 -3747 0
1704 -672 -2419 0
2175 -2139 -452 0
-1070 -3943 0
4625 -3076 0
1535 -4764 -435 0
1992 -4021 0
-441 -1771 0
4602 -4783 -4623 -3345 0
1521 -707 -109 -4606 0
-3672 -3401 -1092 -2307 0
4927 -2580 0
538 -44 -2332 -2540 0
-1682 -2479 -3831 0
3936 -320 -1858 0
4472 -1518 -3939 -2530 0
-2673 -831 -365 -4939 0
2484 -2399 0
4627 -2798 -2045 -4697 0
-4964 -1870 0
2488 -3956 -4384 -1244 0
1616 -1244 -1379 -3520 0
-2954 -3600 0
163 -1651 -1257 0
-1195 -3411 -5000 0
940 -1051 0
1963 -2993 0
2212 -2253 0
-4374 -3774 0
2888 -2278 0
3200 -4156 -3529 -1803 0
3876 -1417 -1891 0
-2194 -984 -2206 -4258 0
1393 -2496 -3064 -4313 0
2558 -1891 0
1425 -3111 -269 0
-4371 -4286 -1533 -4203 0
3243 -1988 -1944 -322 0
-3159 -4255 -693 -53 0
1222 -3787 0
1543 -1086 0
2557 -1715 -2250 0
480 -2820 -631 -3921 0
3362 -1687 -2588 0
-4942 -2990 -2774 0
-4214 -244 0
-3488 -27 0
2615 -4784 -1804 -3861 0
-4881 -3591 -880 0
3153 -2971 -1844 0
-575 -406 0
4718 -2511 -4548 0
3258 -4204 -723 -974 0
3420 -3785 -474 0
4280 -1510 -2306 -162 0
2366 -2311 -1071 -4974 0
244 -4574 0
4162 -1824 -584 -88 0
-1314 -3542 -988 -3727 0
3089 -890 -4462 0
-3651 -24 -4523 -475 0
1959 -4025 -660 -857 0
2554 -2520 -2021 -4257 0
41 -3703 -822 -983 0
-4828 -2584 0
2062 -800 0
3897 -548 -3110 0
4846 -1985 -3745 -1606 0
-1837 -4750 0
1682 -723 0
4074 -1136 -1170 0
1111 -2625 -4369 -134 0
387 -1726 0
1759 -3906 0
2440 -1502 -2129 0
4889 -4260 0
1445 -2063 -1794 -843 0
3002 -4074 -1508 -2310 0
2454 -4433 -2400 0
-4892 -1129 0
-3388 -3690 0
1006 -648 -4418 -3448 0
-85 -2527 -1649 -2539 0
4390 -1476 -1167 0
2589 -1666 -4693 0
162 -1325 -4639 -760 0
-1349 -4234 -4282 -4073 0
1885 -2012 -4894 0
2415 -2614 -2890 0
-534 -3643 -1350 -505 0
130 -3727 -604 0
-1772 -2980 0
-137 -1807 -4771 -4041 0
3179 -1345 -53 0
4577 -2732 -3811 0
1712 -2173 -42 0
3927 -3555 -2652 -2314 0
-3315 -2856 -1882 -2454 0
1353 -2085 -3723 0
-3048 -2403 0
-4613 -2671 -4201 -3895 0
21 -2098 -1181 0
4430 -3082 -1290 -2461 0
-372 -558 0
3776 -2844 0
2741 -1334 -2640 -406 0
2828 -3250 -3136 -1164 0
-2961 -4914 -3903 -3331 0
-2392 -4232 -3361 -2786 0
1714 -3574 -4643 0
1459 -4425 -816 -3241 0
268 -4605 -3057 -4313 0
-3303 -1274 -3187 -1798 0
4452 -1748 -372 -653 0
-3623 -3312 -1986 0
905 -3927 -1794 -3784 0
4247 -528 -3295 0
4814 -742 -687 0
4421 -2935 -2424 0
-2751 -996 -1450 -2706 0
3636 -2006 -3428 0
-4599 -4354 -2815 -4106 0
728 -407 -918 -2795 0
-3104 -1830 -2198 0
4307 -4187 -4736 -3987 0
-2922 -1429 0
50 -1746 -695 -1309 0
-2468 -1603 -1569 -1237 0
2057 -2806 -4289 -1075 0
-3869 -444 -2829 -2365 0
-2445 -2615 0
-1101 -1989 -4583 -1831 0
775 -4380 -3596 -1214 0
-4113 -2374 -1988 -4686 0
878 -2748 0
1308 -4720 -4954 -4997 0
1212 -3567 -3144 -4936 0
692 -4256 -1371 0
-3423 -3029 0
4128 -761 0
-402 -1576 0
-1264 -338 -730 -856 0
1867 -861 0
3250 -2587 0
-4961 -7 0
132 -2766 0
1493 -1416 -1178 0
-4198 -4144 0
259 -1345 0
2579 -637 -3827 0
4686 -3277 -880 0
4968 -436 -4053 -3121 0
2792 -29 -613 -3134 0
4262 -2766 -490 -1074 0
3638 -1383 -3928 -844 0
318 -3371 0
190 -3460 0
2020 -758 -839 0
-861 -269 -1859 0
122 -4385 -264 -4513 0
4529 -4274 -4396 -4179 0
-1216 -3052 -228 0
1242 -2943 -170 -1813 0
2966 -672 0
4173 -1986 -1794 0
-3437 -930 -1840 -257 0
-1403 -678 -3994 0
4688 -4903 -4003 0
2503 -3714 0
-3989 -1053 -4753 -4549 0
2987 -2684 0
-2834 -4043 -857 -3523 0
-2614 -3735 -217 0
2249 -2052 0
-4030 -332 -3245 -2490 0
701 -2109 0
1448 -1197 0
-2446 -4288 -1341 -1068 0
1236 -3236 -19 0
2196 -3045 -1569 0
-2132 -3123 -92 0
1608 -1854 0
4731 -859 0
1449 -134 -4859 -3740 0
1410 -3936 0
4259 -4696 0
-1217 -2487 -425 -3348 0
1039 -4704 -1446 0
-628 -4578 -1695 0
331 -3989 0
-2105 -2941 -4040 -321 0
-2982 -536 -825 0
3426 -4869 0
2811 -1 -3436 -3497 0
743 -4326 0
1553 -45 -1409 -3010 0
3956 -8 -3207 0
3254 -2210 -267 -2897 0
364 -4778 0
-2409 -2038 -1674 0
-1221 -3247 -3674 0
-105 -1169 0
416 -2951 -3726 -1504 0
3784 -2475 -1471 0
4158 -480 -792 -744 0
-3734 -4849 0
3710 -2591 -1947 0
2070 -712 -1051 -3774 0
1432 -1087 -695 0
-1970 -4177 0
2246 -2872 0
2155 -1563 -4888 0
1351 -3669 -4380 -3924 0
2888 -2687 -749 0
2136 -3276 -3752 0
-690 -3125 -2484 0
-2947 -297 -2206 -1961 0
3604 -4612 -2142 -2819 0
1611 -3866 -2852 -2936 0
-1391 -4267 -1248 0
3652 -1117 -604 0
3600 -3314 -3179 0
4483 -1649 -3200 -4332 0
-441 -2307 -2380 0
3095 -302 -1179 -3198 0
300 -433 -1832 -4885 0
-291 -1807 -4446 -4828 0
753 -104 -842 0
3885 -971 -4544 -2775 0
360 -2217 -2507 0
4638 -2914 -933 0
890 -2479 -3436 0
3870 -3015 -2422 0
3162 -2934 0
1063 -2845 0
3484 -3082 0
2230 -2023 0
2788 -1336 -1962 -3608 0
3532 -2590 -3993 0
2271 -4779 0
1103 -2533 -2857 0
1102 -2724 -531 -1441 0
-4077 -1626 0
1293 -4087 0
-2878 -2683 0
3413 -2725 0
485 -4712 -3365 0
-43 -172 0
491 -4398 -3388 0
4119 -1473 -509 0
436 -1153 -597 0
4214 -648 0
3807 -2921 0
274 -1259 0
4294 -2292 0
4050 -128 -2805 0
1812 -574 -3709 -1841 0
3314 -1601 -3143 0
4089 -3721 -4636 -1200 0
1785 -3277 0
-2676 -1502 0
1630 -4687 -4094 -3564 0
1620 -400 -1231 0
4518 -645 -1271 -2331 0
1568 -3542 -1465 0
3310 -3323 -220 0
2458 -1247 0
3929 -2410 -970 -1935 0
2380 -2275 0
3467 -2644 -1246 0
3332 -3616 0
-1032 -2410 0
3633 -1633 0
-4396 -4661 -103 0
4963 -4933 0
-3338 -3582 -3762 -3368 0
4889 -1209 -3966 -2750 0
1190 -889 0
-4905 -42 -4281 0
1266 -4798 -4867 -1318 0
1900 -1588 -3374 0
3372 -2605 -2730 -1828 0
-1985 -2884 0
-1766 -3170 0
-3921 -595 -1241 0
791 -4350 -2132 0
1125 -3271 0
3862 -154 -1341 -2849 0
1433 -126 -2349 0
3902 -3615 0
997 -4004 -2059 -2161 0
2161 -4017 0
-2466 -1344 -443 0
2083 -80 -4459 0
-2443 -4436 -1838 0
-1837 -4461 -410 -4058 0
2374 -553 -3658 -676 0
-1742 -2546 0
-4850 -1738 -2213 0
4964 -2801 0
3061 -3477 -3767 0
3784 -2300 -3861 0
91 -3622 -644 -3212 0
-481 -1109 0
1060 -3006 0
1599 -4073 0
4928 -561 -834 0
2419 -1707 -2461 -2528 0
-2737 -611 -2780 0
4610 -588 -1322 -3738 0
950 -2075 -3404 0
-2012 -1158 -4558 -3715 0
1751 -1704 0
4295 -1117 -24 0
3192 -247 0
4472 -1721 -503 -3539 0
-3523 -3406 -880 -1694 0
3322 -2393 0
4045 -3124 0
-2819 -4009 -869 -912 0
2521 -2048 -2729 0
3452 -3809 0
3314 -2166 -753 0
4767 -2403 -4736 0
2005 -3953 -569 -4217 0
-1050 -721 0
2797 -4511 -352 0
-2912 -126 -668 -4541 0
-3160 -2670 0
3787 -2077 -181 -2293 0
1657 -2773 -1324 0
1491 -3782 -1693 0
4152 -444 -2688 0
-723 -3404 0
1159 -2302 -375 -4576 0
-2799 -1221 -1166 -2494 0
2344 -932 0
1985 -4175 -662 -2169 0
4979 -2323 0
2373 -762 0
4044 -1833 -1470 0
1973 -313 -4162 -4112 0
4744 -2651 0
1660 -1780 0
3703 -3185 -209 0
1703 -341 -3867 -4857 0
3666 -4610 -3210 0
1965 -1299 -3633 -106 0
-4437 -64 -100 0
-337 -502 0
2739 -4299 -513 -1460 0
-1997 -3809 -699 0
876 -3463 0
-499 -644 -4569 0
2555 -3417 -842 0
2272 -2198 -104 -2623 0
3474 -3848 -2613 0
3219 -3255 0
3762 -2146 -2723 0
3201 -2093 0
1304 -3962 0
-2793 -749 -413 0
-4731 -296 0
1256 -3640 -1083 0
-4349 -3000 -4446 -2439 0
1956 -3489 0
4879 -1277 0
4016 -1801 -1435 -1637 0
2708 -3846 0
814 -3893 0
1302 -1817 -2245 0
4424 -1077 -1744 -1903 0
1717 -4184 -3843 0
2722 -2019 -2431 0
-1822 -459 -1491 -4260 0
4553 -1064 0
-1834 -2528 -2986 -377 0
1899 -4036 -121 0
3784 -4553 -2566 0
3993 -4081 -418 -2434 0
2733 -1676 -521 -148 0
2719 -1790 -1274 -4748 0
3219 -3046 -2983 0
4473 -3150 -4134 0
3111 -214 -4059 -1067 0
-385 -1058 -4937 -2499 0
335 -1975 -2974 -4234 0
-4516 -2531 0
3543 -1310 0
424 -3380 -4033 0
-1826 -1251 0
-4908 -2148 0
-835 -1550 -2353 0
3409 -1799 -4201 0
354 -843 -2830 -841 0
3048 -2013 0
1590 -4044 0
460 -2361 0
1625 -3407 -4643 -772 0
-1149 -4707 -394 -2649 0
2472 -659 0
464 -1627 -854 -3100 0
1694 -1709 0
2650 -2484 -118 0
3995 -3079 -1976 0
1394 -1534 -4370 -230 0
4738 -1384 -2467 0
2568 -401 -2286 0
1156 -724 -3803 -2469 0
4701 -714 0
2858 -4231 -2822 -1533 0
4849 -3035 -715 -1022 0
2555 -1615 -3396 0
3803 -4373 -3934 -4870 0
3766 -4226 0
2930 -2611 0
1823 -2591 -753 0
4099 -745 -4443 -4193 0
4803 -2372 0
2672 -4514 -4738 -2165 0
-2309 -4128 0
-1943 -111 0
-3446 -1020 0
764 -2120 -3954 0
-3484 -4599 -3365 -2814 0
2095 -1611 0
4450 -1846 -3229 0
-3641 -560 -3908 0
2609 -884 0
1143 -1191 -2764 0
3552 -4227 -3352 -4555 0
-3317 -574 -4675 -4427 0
4350 -4038 -3448 -1844 0
-241 -1505 0
3197 -3159 -3394 -3750 0
-542 -574 -4569 0
3306 -918 0
-1390 -4493 -3296 -3737 0
2701 -4463 -2315 -2083 0
4252 -580 0
3453 -4201 -4037 0
-2493 -26 -3343 0
1174 -3283 -1162 0
972 -1586 -3462 0
1651 -4041 -2855 -2583 0
4187 -2647 0
-4671 -424 -688 -1185 0
166 -2722 0
3337 -3008 -3432 0
1155 -4421 -2604 0
3405 -3365 -3697 0
-1751 -1196 -613 0
3479 -3508 -2630 0
-4751 -2255 -1818 0
-1458 -1276 0
254 -942 -3885 -2344 0
832 -3670 -448 -3061 0
-3831 -3417 -3733 0
2900 -919 0
4972 -2756 -2564 -967 0
4589 -2423 0
1487 -1758 -1000 -2707 0
3116 -4549 -4038 0
-1421 -1837 -3167 0
2206 -2383 -2546 -452 0
2269 -4279 0
3631 -318 0
246 -4540 -1476 0
4966 -2759 -4329 -399 0
4226 -4096 -4260 -2874 0
2721 -3033 -3952 -1957 0
1950 -3890 0
-2798 -293 -2642 0
4840 -3956 -3849 0
-1938 -4172 0
3810 -1070 0
2542 -4976 -3017 0
4910 -4714 -3228 0
-4633 -4854 -2844 -4089 0
-1041 -1932 -1154 -3271 0
4507 -3208 0
608 -2007 0
-1834 -3416 -2875 -169 0
2208 -3214 0
-3331 -2016 -824 -4452 0
-4505 -489 -3135 -3122 0
2807 -4956 -3968 -712 0
-2773 -3810 -1648 0
4373 -2752 -809 0
-845 -1838 -4411 0
3231 -4015 0
1595 -2437 -2183 -1146 0
-2186 -2826 -1165 0
2350 -379 0
3522 -4030 -146 0
4818 -2240 -3408 -4764 0
-3855 -203 0
4438 -5 -975 -3274 0
1520 -4486 -4615 -2367 0
2229 -3415 -3409 -571 0
-1004 -3786 -3394 -488 0
4263 -3572 -3440 -1112 0
1447 -4473 -2801 -3096 0
2284 -3656 -4909 -2248 0
4997 -3766 -257 -3836 0
2894 -4387 -573 -4751 0
-592 -451 -2062 -1730 0
-4523 -430 0
-413 -2005 -1627 -4610 0
1056 -1251 -1755 -2067 0
-105 -254 -3215 0
4619 -2998 -4275 -1006 0
737 -1375 -4950 -3697 0
1501 -3614 0
3804 -641 -2736 0
-1165 -332 -960 -4144 0
-2840 -4312 -4622 0
1079 -1672 -3276 0
4176 -4344 -1411 -674 0
230 -2638 -483 0
3665 -3898 -388 0
2311 -4871 0
162 -2337 0
2705 -1322 0
4969 -4439 0
-507 -2607 -1051 0
851 -4229 0
3973 -4291 0
-3514 -2515 -2440 0
3308 -2134 -2509 -1354 0
-3974 -347 -2255 -3301 0
-672 -3976 0
-2693 -213 -1006 0
-2307 -3118 -1048 -3425 0
323 -3385 -305 0
1238 -2808 -1658 0
3414 -3199 0
-3820 -4144 0
-2986 -170 -2541 -4285 0
4644 -2871 -1519 0
-2176 -442 0
3056 -3024 -2132 -3803 0
-4873 -2169 -72 -2997 0
-3385 -96 -1159 -3910 0
-1147 -4919 0
4835 -3848 -3135 0
-3572 -278 -1378 -2595 0
-2732 -2240 0
3600 -4392 -2686 0
1350 -3687 -4036 -2848 0
2181 -2276 -4849 -3734 0
3730 -62 0
682 -3233 -4450 0
-3846 -2589 0
2448 -3557 -2108 0
-1953 -4642 0
1364 -2591 0
3650 -2623 -2889 0
3320 -225 0
1120 -1610 -428 0
1272 -1715 0
-502 -1364 -4881 -4932 0
4727 -4453 0
762 -4706 0
-4809 -428 -2498 -204 0
-3178 -3398 -4065 -1031 0
702 -2511 -76 -73 0
1535 -2465 0
-4280 -1621 -3261 -3208 0
4333 -4072 0
457 -4501 -3656 0
-1495 -3396 0
4251 -2852 0
194 -1532 0
3004 -316 -3124 -1713 0
883 -4386 -2727 -2057 0
-1327 -4698 -2781 0
126 -2823 -133 0
4115 -617 -3555 -257 0
-126 -4098 0
660 -2750 -2547 0
2170 -4453 -783 -4770 0
717 -1498 -4503 0
-3096 -3583 0
2304 -1389 -861 0
-588 -1006 -4961 0
665 -616 -4232 0
-2788 -362 -4643 0
1037 -3265 -2871 0
1235 -4510 0
2236 -4824 -114 -4053 0
4585 -982 -2049 -3396 0
4983 -2830 -656 0
2011 -2654 -2879 -3950 0
2471 -1425 -2661 0
-4234 -699 0
162 -4721 -1216 -457 0
155 -3015 0
-936 -311 0
-4265 -2297 -1395 0
1902 -389 0
4070 -1302 0
-4045 -25 -812 0
3382 -3429 -159 -1996 0
-2094 -3759 -3613 -3404 0
-2939 -1243 0
-1425 -3616 -262 0
1524 -3328 -792 0
959 -4853 -3418 -1852 0
4594 -3720 -3081 -4778 0
2800 -266 -1810 0
3359 -336 -3726 0
4270 -2923 0
2325 -3690 -4997 -408 0
1536 -1901 -3734 0
3904 -1354 -3050 -3682 0
-3465 -1061 0
4456 -2621 0
2293 -2235 0
4328 -4836 -905 -4475 0
-4613 -934 -3627 0
2928 -729 0
39 -1991 -3112 0
2946 -3990 -2227 -3149 0
1125 -4309 -744 -2878 0
2054 -220 -549 0
2862 -4006 -432 0
44 -2908 0
1125 -1406 -119 0
2282 -4448 0
868 -4803 -970 -3084 0
-1839 -403 -4346 -2950 0
2781 -4856 0
-2861 -4532 -3967 0
-3233 -4893 -4256 0
4955 -4142 -2235 0
-922 -2437 0
3873 -3552 -2256 -520 0
-567 -1416 -211 0
-3235 -3672 0
1971 -3535 -2817 -1269 0
1820 -187 -2616 0
3893 -2948 -2734 0
903 -1491 0
3674 -3684 0
-4665 -4395 -3047 -1882 0
-4734 -1530 -99 0
-2515 -4717 -2212 0
1471 -2613 -547 -2145 0
2579 -563 -167 0
545 -1961 -4559 -321 0
1786 -1240 -2297 0
-4148 -1998 -3725 -991 0
4270 -3565 0
-2067 -4462 -4615 -526 0
-831 -2959 -1373 -1312 0
-3440 -2256 0
3798 -136 -1991 -2405 0
-277 -1093 -4344 0
2782 -3084 -1264 0
-3433 -1727 -4671 -4727 0
-3954 -4414 0
-2709 -34 -3310 0
2729 -4740 0
-4000 -425 -2096 -3834 0
4824 -3818 0
2213 -1854 -7 0
2218 -1236 0
4645 -1606 -2055 -3201 0
4861 -2966 -1950 0
1861 -2233 0
160 -2302 -3523 -2902 0
4554 -3118 -3068 0
-3491 -256 -2652 -3581 0
-3014 -3081 -593 0
-3475 -2227 0
2157 -551 -615 -2731 0
3421 -1216 -2441 -573 0
410 -2247 0
4519 -4128 -4881 -2018 0
3353 -1204 -3795 -4607 0
789 -4254 0
2420 -2610 -1391 0
2000 -448 -759 0
3074 -4711 -670 0
3260 -3888 -3973 0
1276 -4632 -713 0
-38 -811 -506 0
2082 -1663 -2599 -3291 0
-2246 -4743 -229 0
2174 -3845 -3852 -4844 0
214 -3396 -1830 -4899 0
4710 -2337 -1390 -2723 0
13 -84 -2200 0
1160 -3541 -4793 -4745 0
-2804 -3760 -747 -1820 0
4268 -2443 -1166 -596 0
4076 -1514 0
4877 -3750 -179 0
4611 -3721 0
4272 -3630 -778 -665 0
-772 -2161 -3525 -226 0
-2780 -345 0
2286 -3796 -1824 -1143 0
4588 -1417 0
2927 -1663 -3520 0
731 -626 -4784 -2823 0
-4655 -4224 -2563 -4802 0
270 -4383 -3346 0
4518 -35 -1635 0
-4127 -711 0
3592 -3822 0
3830 -3038 -3416 -1098 0
-1342 -3150 0
2732 -2389 0
732 -3680 -1872 0
3594 -154 -4711 -3816 0
-4571 -2644 -1025 -218 0
3416 -4310 -193 0
1580 -3821 0
-3016 -3623 -3875 0
3771 -1479 -1892 -3773 0
4909 -3276 -3685 -4583 0
3363 -83 0
-1576 -3707 0
1588 -4703 -2176 0
2633 -654 -2439 -402 0
906 -2013 0
3084 -709 -1692 -4804 0
2575 -2578 -2024 -1751 0
605 -836 -1253 -1885 0
992 -2532 -2271 -761 0
2249 -3236 0
297 -1300 0
4910 -3204 0
-3050 -2837 -997 -2072 0
4069 -2799 0
635 -2595 -456 0
147 -4210 -1428 -4638 0
2670 -1175 -2659 0
1720 -534 0
1674 -1079 -3173 0
913 -975 -1815 0
-80 -3738 -2898 0
2599 -3444 0
4696 -778 -145 -177 0
-610 -2156 -2541 -4891 0
3608 -1027 -4992 -1009 0
4808 -3025 0
3677 -3289 -4265 -4733 0
3726 -1644 -1324 -1147 0
340 -128 -1941 0
1449 -4841 -1582 0
2778 -2901 -1515 -4288 0
4272 -4873 -3683 -3513 0
1929 -499 -4684 0
3626 -2093 0
2663 -3293 -3345 0
-911 -354 0
632 -3578 -1137 -4467 0
-2136 -1366 0
-717 -4371 -2368 0
-4732 -4182 0
4941 -3859 -4085 0
2928 -2762 0
-4130 -1207 0
2516 -4905 0
2176 -3423 -3158 -2712 0
4002 -448 0
2672 -1682 -4012 0
4871 -4356 -2805 0
961 -856 -4790 0
4523 -4229 0
4327 -4376 -1125 -732 0
4561 -3250 0
3424 -2399 -690 -1938 0
2178 -862 0
-2058 -1002 -4512 -2355 0
3225 -2768 -3541 -4562 0
-1614 -4313 -2299 -1025 0
-2983 -3322 -758 0
1917 -3812 -3625 0
-4890 -2590 0
684 -3617 -4163 -4371 0
-3917 -3830 -4008 -810 0
4091 -4497 -3148 0
4880 -3954 0
4679 -4161 -4790 0
3950 -3307 0
-892 -4159 -4885 0
2541 -2457 0
2130 -4331 -66 0
4738 -4455 0
-3843 -4955 -1716 0
3523 -3059 -3000 0
1885 -3214 -2985 0
-147 -3018 -1094 0
1637 -2046 -4582 0
-434 -2072 -863 -4363 0
1630 -893 -527 -1448 0
3228 -4673 0
2388 -3869 -680 0
177 -3750 -1336 0
2202 -666 -1474 0
3217 -2081 0
-1141 -4379 -2845 -220 0
2549 -2301 0
806 -3006 -2138 0
2550 -3922 -3687 -2582 0
2040 -1923 0
80 -3127 -1569 -945 0
4627 -4783 -2139 0
-560 -635 -1693 0
1713 -2024 0
-2533 -2239 -1591 0
2795 -897 -926 0
3926 -3175 -448 0
2150 -1239 -4249 -919 0
-4914 -709 0
1304 -1078 -378 -2194 0
-4310 -4057 -3017 0
390 -4158 -2212 -1104 0
-2725 -2531 -3321 0
-4779 -331 -120 0
328 -3171 0
798 -4598 -3746 0
-3099 -4459 -4108 0
2519 -3932 0
4227 -730 0
4813 -535 -2981 -1071 0
1162 -3682 0
4330 -3920 -1403 0
2098 -947 -1822 -953 0
4695 -3404 0
2690 -433 0
4561 -64 0
-363 -299 -2776 0
3167 -4574 -2598 -557 0
3517 -3411 -2586 0
1226 -2723 -2088 -3722 0
-4409 -4851 0
2111 -1410 -1100 -444 0
494 -4323 -3414 -1463 0
804 -231 -3009 0
4610 -336 -3554 0
1480 -3018 0
4401 -2365 -2663 -1278 0
2808 -4561 -2009 0
-2900 -1575 -2742 -1258 0
285 -4976 -597 0
-1365 -4506 0
-3492 -3140 -2635 -2958 0
269 -4519 -2737 -3163 0
154 -4447 0
4748 -2088 -3786 0
4345 -758 0
4277 -3025 -1761 0
1724 -1831 -2651 -3509 0
-2127 -3156 -2591 -4059 0
2720 -4033 -3625 0
4362 -3 0
141 -1717 -2724 -3952 0
4709 -4921 0
1746 -4382 -217 0
-2151 -145 -4922 -2619 0
-2070 -1067 -2956 0
345 -4291 -624 -2758 0
2041 -2780 0
-1515 -4982 -3001 -2509 0
1802 -80 -858 0
4861 -2857 0
4754 -2592 -2053 -590 0
3144 -2774 -2924 0
4283 -3485 -2091 -4388 0
3541 -2149 -4839 -1430 0
4547 -3384 0
1725 -3845 -2373 -2807 0
663 -3497 0
1203 -1311 -3674 -4635 0
738 -1178 -2761 0
1989 -995 -1788 0
1915 -2517 -2562 0
-2695 -285 -1212 0
1964 -1293 -777 0
-3359 -3065 0
1844 -2966 0
3503 -2253 -3982 -1665 0
3531 -3104 -1849 0
-4749 -1129 0
4404 -4108 0
646 -3702 -1617 0
-791 -3067 -3298 0
2634 -4567 -4384 -4682 0
3524 -656 -3685 -3142 0
-851 -2408 -4670 -3981 0
2324 -1607 -2289 -1297 0
-1381 -4639 0
607 -4577 0
-992 -2855 0
3832 -3908 -4126 -3792 0
3121 -893 -3144 -1581 0
-2011 -1589 0
2994 -3373 -1342 0
1790 -543 0
982 -3481 0
2925 -917 -4837 0
2270 -2903 -2268 0
3744 -1338 -1378 0
-2603 -1204 -3904 0
1602 -3719 -74 -3645 0
1296 -213 -2436 0
1975 -2991 0
1997 -2162 -2330 0
3850 -623 0
1885 -201 0
1263 -3107 0
162 -1931 -1424 0
-319 -2737 -1632 0
3908 -4014 0
242 -4762 -1176 -3216 0
-4661 -3023 0
-2904 -1254 -1093 0
1179 -4204 0
-2072 -319 -3124 0
784 -2453 -2215 0
4342 -4890 -4510 0
3772 -2280 -2446 0
-4699 -4313 -4921 0
738 -1650 -3613 0
3642 -1914 -3021 -4602 0
1343 -3702 -3505 0
-2282 -454 -4058 -3665 0
707 -3590 0
4936 -3155 -1282 0
4320 -3755 -850 0
3343 -2577 0
4238 -1420 0
-4284 -4227 -2523 0
2543 -2267 -4046 0
624 -1256 -744 0
-3737 -716 -4195 0
1298 -4605 -857 0
-409 -4607 -1018 0
2444 -4459 -1016 0
4228 -2462 -310 -1942 0
240 -4144 0
4686 -477 -3243 0
-4099 -2440 0
2825 -1774 0
3929 -4967 -2652 0
-4414 -1553 -2402 -2931 0
4525 -632 0
3050 -80 -963 -4611 0
2294 -3793 -1393 -4226 0
3373 -1533 -352 -378 0
1703 -962 -1256 0
1641 -2372 0
2386 -782 0
-1947 -616 0
4010 -400 -4153 -4948 0
-1801 -2224 0
2196 -3307 -355 0
2009 -3408 0
226 -1469 0
1674 -968 -1941 -2615 0
-4918 -1476 -861 0
-3396 -2171 -1233 -1602 0
3983 -4329 0
2367 -1953 -2311 -1415 0
-3604 -3719 -4920 -1008 0
-695 -218 -3225 -4993 0
-2993 -2990 0
1897 -4345 0
1660 -1576 0
-4240 -4501 0
2082 -4501 0
512 -2409 0
1200 -3230 -740 -312 0
3617 -3215 0
2024 -4263 -3382 -3860 0
2317 -2932 -1054 0
4844 -354 -1248 0
-2217 -4349 0
1439 -4570 0
134 -1757 -1055 0
714 -418 -2636 0
-2476 -2913 -4803 -1172 0
1197 -4891 0
-3518 -731 0
4001 -2024 -3864 -672 0
4507 -987 -4074 0
4782 -3030 -95 -885 0
-3563 -988 -4665 -3248 0
2617 -2582 0
3977 -1069 -2697 -2398 0
1051 -2313 0
1299 -4758 -2132 -4799 0
4868 -4558 -3699 0
3236 -3147 -3824 -4107 0
-3932 -2922 -3500 -4041 0
-1136 -3495 -53 -4529 0
-4966 -1691 -3706 0
4925 -1180 0
4473 -4419 0
-4055 -4307 0
-2261 -4970 -2011 0
790 -242 -570 0
-4153 -4887 -4035 -776 0
4927 -274 -3187 0
-1333 -4651 -4462 -3813 0
1360 -1173 -4799 0
173 -1014 -3688 -1009 0
301 -1954 -4380 0
4178 -95 -344 -2425 0
4594 -4432 0
-1325 -893 -1614 -867 0
1027 -2242 -4925 0
-1300 -2830 -3337 0
320 -105 -1789 0
3449 -4953 -960 -3406 0
1098 -498 -2993 -1475 0
-814 -2384 -4686 0
-2781 -2279 0
1222 -3709 -112 0
4384 -3534 -3347 -3993 0
-1631 -1847 -2037 -4244 0
1501 -2684 -3941 0
4684 -2229 -3594 -4056 0
-3488 -2851 0
671 -4988 -114 0
3833 -2350 -3620 -4397 0
4188 -3236 -1225 0
1766 -3809 0
1147 -3238 -4659 0
-2558 -812 -4480 -2220 0
-4764 -3941 0
-4350 -2854 -69 0
-2572 -3689 -1877 -3896 0
2465 -1613 0
-2995 -3904 -311 0
-1046 -1956 -3219 0
2627 -3067 0
76 -3498 -931 0
3281 -4276 -312 0
1916 -2883 -973 0
-2585 -3784 -791 0
4389 -660 -1124 -216 0
3908 -677 -367 0
600 -4304 -1139 -1917 0
1927 -3312 -421 0
4170 -760 -3277 -4297 0
-3200 -4667 -2546 -705 0
3218 -2619 -1779 -4561 0
2945 -4158 -4360 -2560 0
383 -454 -2011 -4707 0
-1871 -4378 0
268 -545 0
-1469 -736 -4054 -3546 0
4957 -1363 -1463 -3271 0
-866 -1380 -2377 -2067 0
-4498 -3630 -2597 0
4852 -489 -4047 0
3596 -3062 -2795 0
1030 -1000 -167 -969 0
3174 -613 -1547 0
3307 -2607 -4540 -3861 0
4764 -917 -4306 -314 0
1144 -1221 0
2652 -1395 0
4159 -2850 -3749 -2565 0
4964 -48 0
4684 -2473 0
4164 -2200 0
2558 -2672 -4551 0
1769 -2957 0
-4011 -1679 0
126 -3982 0
-4412 -559 0
1252 -3063 -181 -4963 0
4967 -2249 -1260 0
2408 -61 -2437 0
3309 -2931 -295 -3031 0
-1688 -4753 -3980 -4949 0
-2684 -2281 -1969 0
3397 -4826 -613 -3407 0
3973 -3146 0
1246 -1948 0
3462 -1307 0
309 -606 -2204 -3173 0
717 -3523 0
2340 -2532 0
-2102 -3371 0
-3044 -2729 -3864 0
4422 -2404 0
3812 -2974 -2662 -1471 0
-2243 -4076 -889 -4559 0
-1697 -1935 -1148 0
3774 -2632 0
-1601 -3642 -4743 0
-4277 -3455 -1927 0
-1505 -3810 -562 -2180 0
-1407 -4816 -3796 0
-2852 -1552 0
-82 -1457 0
4797 -3205 -3227 0
-631 -3732 -2226 0
-3140 -4925 -818 -3504 0
3904 -3218 -173 -2900 0
-3246 -1637 -4892 -887 0
3650 -4356 0
1321 -4266 -2773 0
2419 -4350 -4590 0
-2890 -2078 -4016 0
2997 -1060 -510 0
-4348 -509 -879 0
2518 -1946 -4736 -3430 0
4183 -4290 -4761 -4077 0
-716 -4160 -4460 -4453 0
1940 -3437 -1717 -4816 0
2406 -1452 0
-2756 -676 -4473 -1799 0
595 -2746 -1016 0
2431 -3602 0
4833 -1806 -1699 -649 0
1309 -4143 -1487 -1454 0
308 -1045 0
2409 -2026 0
-2566 -1325 0
2025 -1935 -3298 0
3201 -2601 0
-1883 -4626 0
3720 -612 0
-796 -1801 0
1855 -2064 -1061 0
1977 -1996 0
1823 -4655 0
-2111 -3837 0
924 -1781 0
1917 -1474 -1664 0
-282 -3072 -542 -513 0
4910 -2538 -3690 0
1341 -1067 -3508 -1272 0
1848 -1800 0
-4656 -1358 -2308 0
-3870 -1124 0
3398 -2974 -4378 -2677 0
2499 -4954 -3597 0
3209 -4327 -2109 0
2104 -878 0
2689 -2782 -4096 0
795 -3088 -2178 -4084 0
2290 -1512 -1369 -4042 0
4204 -1355 -4259 0
3046 -3150 -1536 -1166 0
3559 -3102 -2628 -717 0
2125 -56 -8 -196 0
-961 -3133 -4474 -1789 0
469 -806 -3107 -915 0
1230 -4109 -393 -4840 0
4235 -950 -3276 0
4838 -2109 0
-3274 -4103 0
3957 -2057 0
1398 -2890 -191 0
3545 -199 -1946 -4062 0
4027 -4313 -2745 0
447 -2414 0
717 -1128 -2686 0
-2922 -3126 0
454 -4579 -4148 -956 0
-1713 -2193 0
2304 -923 -1924 -3276 0
1875 -3871 -386 -446 0
-399 -1743 0
2065 -2862 -4900 0
3557 -1285 0
3596 -4648 -2186 -2085 0
2124 -1844 -4907 0
751 -270 0
4307 -1067 0
-829 -1970 -2457 0
3533 -4847 -4352 -451 0
-2091 -2047 -4597 0
3432 -3612 -1720 -3814 0
1640 -4228 0
-1310 -4281 -1177 0
2286 -1347 0
914 -4461 -3344 -744 0
919 -2060 -2942 0
4713 -2095 0
-4843 -4415 -4049 0
-3420 -3712 0
2609 -271 -3037 0
-1280 -755 -2172 -3422 0
907 -881 -276 -3638 0
3924 -2686 -993 0
3903 -4141 0
3364 -224 0
318 -1637 -1433 -574 0
428 -4898 0
2177 -3343 -174 0
4674 -3242 0
-692 -3850 -2041 -4949 0
1805 -671 0
298 -2360 0
3919 -4617 -1757 -2896 0
974 -4352 -3540 0
-1607 -1417 -4118 -2929 0
606 -2090 -4668 0
4847 -3419 0
2686 -862 -1068 -2562 0
4662 -3043 -1575 0
2740 -4741 0
1984 -3863 -2977 0
848 -2277 -927 0
-4325 -3899 0
4575 -1059 -1945 0
1513 -2141 -4536 -3219 0
-2900 -2622 0
-262 -1204 0
-3903 -4039 -4248 -1042 0
354 -2283 0
-2529 -3012 0
2152 -3229 0
4941 -2653 -865 0
3830 -3456 -3701 0
-4344 -3372 0
1390 -849 -3544 0
-2606 -2278 0
3620 -1533 -2441 0
-2023 -3234 0
4154 -4784 0
-2318 -2307 0
-535 -3480 0
629 -3558 -848 0
2562 -287 -3561 0
3230 -3030 -4488 -2176 0
3948 -4130 0
2 -2732 -800 0
4524 -2774 -3219 -2017 0
1263 -195 0
3488 -383 -646 -2281 0
1040 -1479 -3748 -2509 0
-1753 -4698 -3508 -2614 0
4826 -4199 0
4950 -3459 -1704 -1070 0
628 -4251 -2014 -1596 0
3096 -4746 -1582 0
1321 -4931 -1979 0
2377 -1122 0
-4410 -3405 0
983 -2342 -228 0
1730 -3507 0
-86 -2909 0
2781 -22 -3375 0
1481 -1207 0
1154 -2904 -1244 -1594 0
3979 -3470 -4270 -4226 0
826 -1425 0
2608 -1029 -2629 0
3392 -3336 0
-1456 -3489 -3703 0
2834 -4743 -4003 0
1990 -3444 -189 -1258 0
4654 -2500 -3417 0
-248 -2691 0
-4846 -909 -1296 0
1812 -2433 -1210 -1338 0
1067 -4556 -3956 -2904 0
4897 -2638 -3562 -3118 0
805 -4964 -1891 0
3009 -3289 -4194 -2841 0
5 -3509 -4924 0
1020 -4860 -1570 -3380 0
1109 -2571 -3559 0
-1456 -1600 0
4639 -1937 0
1040 -1175 -599 -201 0
1003 -1660 0
3169 -981 -2217 -3974 0
3894 -1396 0
3538 -3390 0
1671 -4852 -1779 -1468 0
1356 -4729 -1952 -4026 0
1049 -3146 -876 0
3840 -298 0
-3166 -250 -3448 -4025 0
2418 -4108 -2958 0
572 -1862 0
2907 -1087 -157 -1943 0
3656 -818 0
-962 -189 0
-1241 -1509 -4406 0
3316 -4359 0
125 -1036 -308 0
-52 -216 0
3066 -2423 -3630 0
2484 -1180 -429 0
4677 -739 -3657 -4869 0
1797 -2983 0
3743 -3072 -3082 -3629 0
2193 -3183 -3810 -1016 0
696 -3334 -2942 -4450 0
-1090 -3038 -4046 -2475 0
3711 -4212 -1023 -4420 0
2650 -450 0
-70 -3883 -65 0
-3454 -568 -380 0
4521 -4818 0
794 -1045 -4678 0
-546 -3917 -1890 0
-142 -4934 0
-3047 -1440 -1929 -3576 0
-2309 -1419 0
3609 -2728 -2422 -3632 0
2711 -4463 0
-2438 -3280 0
883 -4836 -4649 0
1094 -2598 -3345 0
902 -3737 -1966 0
4633 -4705 -4285 0
2919 -2433 -2169 -4350 0
1530 -951 0
4646 -2588 -3977 0
-3863 -1488 -504 -1787 0
-1280 -3907 -3369 -1459 0
4180 -4019 0
3719 -4331 -3855 -2790 0
-1208 -2014 -2558 -4385 0
-1842 -289 0
1674 -736 -2073 0
931 -523 0
903 -2726 -1976 -2851 0
-2061 -3199 0
2110 -1378 0
-3309 -197 -1937 0
-3469 -3106 0
-3636 -4762 -2788 -539 0
2686 -3013 0
-2915 -163 0
-4876 -4634 -4787 -1723 0
-1784 -2254 0
-3061 -4 0
3815 -1015 -3218 -1155 0
4874 -458 -1749 -3540 0
-1387 -16 -1083 -3212 0
838 -4079 0
-1630 -165 -4853 -721 0
1720 -290 0
4325 -2045 -988 0
-4837 -214 -1933 -2015 0
4023 -845 0
-4549 -4318 0
351 -4761 0
398 -4247 -3130 -2823 0
4384 -3574 -1704 -4529 0
1335 -3312 0
1582 -1035 -4665 -4547 0
314 -1815 -1656 0
-3550 -2231 -1229 -355 0
3948 -2393 -1258 -890 0
500 -302 -2215 -1872 0
-3926 -807 -2785 -1079 0
226 -961 -1365 -81 0
-2686 -374 -1021 0
4709 -2451 -2372 0
3547 -2705 -2915 -3140 0
-4765 -704 -1455 0
2491 -4453 -2297 0
-2462 -1485 0
4242 -4523 0
4446 -3144 0
2656 -3965 0
2404 -4468 0
3791 -1205 0
-4636 -3250 -1094 -3077 0
4328 -1472 -522 0
-3335 -1192 0
2008 -2910 0
1137 -4820 0
1760 -3739 -3654 0
3004 -1030 0
2918 -4621 -4790 0
548 -663 -4697 -3869 0
-390 -3331 -3371 0
563 -435 -2556 -53 0
1650 -1637 -2707 -2280 0
3938 -3993 -3963 -13 0
164 -2567 -3639 0
-294 -4218 0
4369 -3064 -957 -1744 0
3329 -2931 -2241 -3284 0
-4978 -2215 0
2373 -4306 -4705 -2943 0
943 -3008 -2450 -3860 0
1906 -1805 0
1987 -4062 -504 -174 0
-2808 -1140 0
1694 -3749 -1859 -791 0
287 -4141 -4424 -4609 0
2630 -3780 0
-2690 -4051 -2483 0
1807 -4986 -4673 -3702 0
371 -3673 -4434 0
4752 -4996 0
2044 -1069 -4575 -4836 0
2117 -3187 -865 0
-30 -5 -4127 -1918 0
-91 -1600 -346 0
-116 -3014 -1871 -739 0
-3492 -3692 0
1981 -726 0
1221 -3313 -1817 0
-3957 -4931 -1102 -2219 0
1046 -2541 -4360 0
372 -889 0
363 -4837 0
2853 -1909 -4460 0
389 -507 0
2372 -1309 -3191 -2574 0
2450 -2365 -1215 -1378 0
1951 -500 0
-2895 -1656 0
3238 -531 -2528 -2618 0
685 -4641 -2229 -3919 0
3574 -4373 0
-1835 -4323 -91 -1029 0
-3290 -884 -3950 -673 0
1340 -3962 -4798 -2841 0
4917 -118 -1990 0
238 -1672 0
4331 -4107 0
1066 -3803 -508 -3910 0
1043 -3558 -3249 0
-4880 -2526 -2717 0
-4088 -3052 -1471 0
4724 -113 -1879 -2434 0
205 -3158 0
-4080 -2609 -465 -4725 0
-2153 -2925 -4372 0
-4110 -4087 -926 0
4588 -1667 -3968 -4087 0
-2973 -2357 -2937 0
1795 -3160 0
1449 -3496 -3775 0
-2891 -3102 -4629 0
3082 -101 -1047 0
2608 -2630 -3254 0
-4176 -928 -1035 -4711 0
563 -1491 0
-4672 -914 0
4531 -2041 0
-2449 -1834 -4184 -2192 0
500 -3672 -3351 0
2568 -4570 -2620 0
-1092 -1839 -433 0
2244 -2484 0
1508 -936 -4360 -919 0
1090 -3348 0
-4386 -3428 -302 -3770 0
-4095 -2427 0
1816 -1027 0
160 -2399 -4613 -3554 0
-3653 -4908 -1652 -3470 0
1279 -4300 -3802 0
871 -1373 -2908 -3533 0
-2024 -2562 0
4850 -3406 0
1125 -2237 -2277 0
4935 -4279 -2002 -459 0
-1152 -2539 -1559 0
-4257 -4358 0
-3145 -654 0
4176 -2148 0
-4231 -1272 0
3885 -2530 0
3011 -893 -1944 -3477 0
3620 -3189 -4412 -2231 0
2003 -4511 0
111 -2806 0
4334 -1313 0
2925 -3229 -3903 0
-1334 -4705 0
-4328 -618 -4998 -231 0
220 -4595 0
477 -1680 -553 -832 0
-4160 -27 -1396 -4755 0
4997 -4185 0
3892 -1932 -756 0
4083 -1268 -864 0
1226 -3274 -4541 0
2644 -361 -3383 -2333 0
3218 -2026 -4802 -789 0
-621 -1155 -3172 0
426 -1313 -4039 0
3828 -2223 -2176 0
3133 -2566 -34 -663 0
4918 -3256 -3519 -4039 0
-3254 -3360 -2319 -1301 0
265 -4820 -1262 0
7 -2550 0
4600 -1370 0
4946 -1232 -2173 -1305 0
2236 -1023 -1206 -2607 0
782 -962 -405 0
1127 -1775 0
4152 -1957 -4643 -185 0
4581 -232 -3306 -1730 0
-106 -3006 0
4018 -1252 0
1161 -3475 -1108 -1816 0
-2111 -4880 -2466 -4191 0
490 -4255 -2382 -4466 0
4617 -2337 -842 0
2487 -4272 0
-1563 -4289 0
2901 -1865 0
1914 -3375 -2677 -1700 0
4590 -3871 -4292 0
-2429 -2592 -3624 -3187 0
-105 -3263 -2264 -4690 0
4955 -1018 -2117 -97 0
301 -157 -3921 -4484 0
2567 -2377 0
-3885 -1304 -3181 0
1973 -4031 0
826 -4903 -424 0
2033 -183 0
2178 -1838 0
3231 -4768 0
3055 -434 0
2868 -652 -3866 0
2851 -1726 -1 0
-2311 -2581 0
4580 -2362 -3222 -4649 0
2674 -1124 -704 -1294 0
4950 -3200 -4643 -2452 0
2300 -494 -1772 -218 0
1012 -1413 0
4707 -3975 -2691 0
467 -4760 0
-4473 -2887 -447 0
415 -4045 -295 0
368 -4739 0
3672 -3998 -3983 0
1 -3647 -2676 0
3556 -3936 -4371 -2185 0
2276 -4710 -4913 0
3337 -2890 -225 -2144 0
-601 -3810 -4564 0
4259 -384 0
3064 -1543 0
1277 -2698 -3835 -160 0
1884 -4217 -2198 0
-633 -2325 0
-3487 -3739 -1690 0
3594 -217 -2129 0
-692 -272 -1781 0
3192 -3920 -3010 0
995 -3817 0
1278 -4530 -3224 -1102 0
1944 -3627 -1907 0
2156 -3376 0
-151 -3969 0
-689 -2441 0
893 -4738 -3301 0
-3017 -1680 -1570 0
4068 -2193 -2041 0
-762 -170 -3439 -353 0
-2853 -4703 0
4166 -3989 0
4690 -4281 -3024 -924 0
3910 -4038 -2365 0
3584 -608 0
2265 -602 0
-3932 -2079 -56 0
-1711 -1497 -3401 0
-362 -4171 -3369 0
4638 -4683 0
4907 -649 0
444 -2583 0
245 -1861 0
3381 -4371 -2137 0
4449 -354 -3594 -3307 0
1858 -4713 -2568 0
715 -2150 -2926 0
4942 -1418 -2173 0
438 -3131 -2128 -4410 0
2986 -2503 -3005 -1661 0
2518 -1735 -1907 0
4998 -2715 -3651 -2993 0
4163 -3675 -2459 -3810 0
1973 -2790 -3715 0
2524 -198 -2039 0
2303 -300 -3902 0
4601 -2218 -4669 0
285 -496 0
-914 -966 0
4387 -820 -2102 -1101 0
-3523 -3717 0
4729 -4599 -3424 0
1165 -4290 -2384 -1726 0
-836 -3219 0
4665 -1158 -3210 -4705 0
4498 -950 0
-3618 -4529 -4545 -3742 0
-610 -1596 -3220 -3554 0
3021 -4293 0
4959 -3978 -1924 0
3207 -3725 0
-1059 -2801 0
-3324 -2689 0
1246 -1629 -4811 0
2137 -282 -707 0
1886 -3203 -2892 0
-2297 -3401 0
819 -1298 0
2463 -3781 0
4578 -3462 -1211 0
945 -659 -3155 -4107 0
4394 -4385 -2356 -4095 0
-4172 -3739 -4871 0
3701 -2132 0
4411 -2520 -550 -2137 0
-2530 -2185 -3100 -2803 0
4529 -3930 -1919 -4611 0
424 -3692 -2632 -348 0
3778 -2304 -3866 0
3474 -4291 0
555 -1685 -1276 0
1679 -347 0
1250 -1037 -1267 -1813 0
-1601 -1572 -3659 0
3757 -2981 -148 0
-3755 -4188 0
1644 -244 -904 -2906 0
206 -3488 -1693 0
-1279 -2538 -3742 -4165 0
-701 -1920 -865 -2759 0
254 -1398 -2114 0
-3862 -2519 0
2776 -4897 -239 -1830 0
4697 -4240 -2238 -4439 0
-1780 -724 0
828 -2067 0
3450 -996 -3956 0
-4413 -4759 0
-4407 -1387 -2895 -4184 0
-1764 -1423 0
-2402 -3270 -625 0
-1072 -2354 0
1355 -2536 0
4102 -4300 0
2672 -2753 0
4385 -286 0
-3045 -2163 -3130 -447 0
-3766 -234 -2128 -3207 0
522 -1014 0
3432 -4640 -3872 -1366 0
-1843 -3171 -2486 0
2323 -2085 -448 0
2316 -4500 -3354 -1252 0
-2797 -2068 -3194 -1809 0
3398 -1935 -2118 0
3690 -3510 0
4807 -4628 -3372 0
193 -3971 0
-4457 -3044 -2105 0
2403 -4243 0
4701 -4046 -3496 -860 0
1812 -424 -290 -3439 0
1105 -555 0
2720 -2107 -4351 0
4686 -1116 -2401 0
-2915 -1472 -96 -1233 0
2006 -3178 -4671 0
4689 -1082 -2633 0
-3944 -1242 0
2967 -4073 -570 0
4151 -2766 0
1668 -1232 0
496 -832 -2787 0
1417 -598 -2663 0
4620 -4225 0
3622 -4542 0
801 -1840 -4288 -1143 0
2225 -478 0
3045 -4317 0
2266 -4362 -545 -2514 0
-2617 -4510 -2912 -3380 0
2605 -523 0
2792 -2850 -4772 0
-1091 -3668 0
4207 -540 -981 -867 0
-246 -2723 -2097 -3334 0
4588 -4182 -2696 0
-4349 -1038 -1042 -3177 0
-792 -1575 -3759 -3310 0
-3499 -3551 -2417 0
1202 -2677 -2764 -3075 0
4680 -1175 -4278 -3306 0
741 -4930 0
4352 -2065 -2826 -291 0
997 -1599 -1950 0
-2838 -3453 0
4673 -1056 -1345 0
1834 -2196 0
487 -3850 -3470 -4951 0
1582 -2440 -629 0
280 -333 -1005 -587 0
3744 -165 0
3763 -3095 -3497 0
2795 -1614 -4116 -809 0
1403 -1948 0
-1581 -1183 0
4731 -1690 0
351 -3939 -1508 0
3231 -505 -4234 0
4122 -3941 -4455 0
-2431 -3096 -3119 -1416 0
4218 -2970 -4413 -3771 0
1388 -2406 -1364 0
-4470 -1793 -1086 0
-3449 -541 -2767 0
606 -1027 -629 0
-4294 -70 -2754 -4761 0
1376 -1191 -2225 0
838 -406 -3043 0
898 -2473 0
-2621 -1670 0
3729 -1321 -1205 -64 0
93 -3890 0
546 -3767 -3327 0
3248 -3530 -4653 -1653 0
1473 -1369 -2548 0
4317 -2848 -4958 0
-305 -2478 -3588 -2640 0
4408 -3244 0
3557 -1518 0
1512 -2148 0
1111 -272 -4130 -3703 0
3947 -319 -3031 -1928 0
-1842 -3767 0
931 -1437 -3892 -4012 0
3721 -1220 -3399 0
-926 -4366 0
4162 -3171 -2987 0
2990 -4897 -4734 0
1881 -2564 0
1513 -4935 -1847 0
2958 -1847 -1472 -2347 0
-724 -1166 -3772 0
1321 -4074 -676 0
1513 -1218 -2768 -4357 0
1632 -3314 -4261 0
2093 -1649 -3187 0
-325 -3770 0
2209 -1679 0
1247 -251 -2880 -3930 0
2955 -2844 0
1110 -476 -172 0
1243 -2334 0
-3539 -1008 -116 0
4862 -400 -1893 -700 0
3092 -1723 -60 0
-3952 -2794 0
-1209 -865 -2240 0
4318 -3871 0
1521 -4081 0
2993 -238 -78 -4683 0
3146 -4981 -3065 -4449 0
3730 -3089 -155 0
-2219 -255 -2946 -2857 0
1448 -1549 0
4995 -1381 -4322 -3235 0
3844 -3468 -237 0
-1441 -3375 -1798 -1858 0
110 -4157 0
-1197 -2678 -4120 -2466 0
2480 -1200 -1610 0
375 -1164 -2929 0
4301 -2303 -1914 0
1649 -867 -1541 -4418 0
-4432 -4751 0
2200 -1375 -2267 0
3416 -27 0
3791 -1953 0
-3124 -2380 0
78 -46 -170 -242 0
-2341 -4348 -790 0
2875 -924 -757 0
3455 -612 0
2251 -4357 0
2562 -4878 0
707 -2376 0
2338 -2393 -3354 -1444 0
2339 -4278 0
-2999 -1012 0
1361 -4059 -1792 -4963 0
-3481 -1243 0
-313 -3252 -368 0
4725 -271 -2197 -3037 0
1507 -638 0
2732 -3614 0
-4830 -285 0
-4301 -1467 0
4960 -3062 -1918 0
3325 -2878 0
4759 -3642 0
-2297 -1210 -115 0
-197 -1172 -3248 0
212 -3766 0
921 -3298 -4847 -2243 0
2017 -2411 0
-1978 -606 0
-3828 -1233 -2656 0
-1423 -4075 0
2884 -4667 0
3195 -249 0
3550 -369 -1517 -3808 0
395 -1673 0
2368 -155 0
-591 -2558 -2513 -3350 0
222 -4305 0
981 -2120 -703 -2147 0
831 -2335 -204 -4851 0
895 -157 -3168 0
-3695 -2261 0
-624 -1333 -3233 0
-3205 -3239 0
2679 -751 0
-4317 -2772 -1334 0
-993 -1984 -2341 0
409 -324 -323 -4923 0
2841 -1991 0
-4651 -4807 -2241 0
1665 -4628 -2847 0
255 -3355 -2727 -2895 0
4690 -3695 -1644 -4513 0
2601 -1735 0
4521 -2499 0
4716 -2057 0
-2087 -3581 0
-1819 -778 0
1097 -436 0
2012 -4736 0
1302 -941 0
-2741 -1629 0
3940 -4510 -929 -4091 0
896 -2757 -2873 0
4458 -1367 -4666 0
1635 -2017 0
-479 -1898 0
3028 -651 0
-3968 -913 -365 0
1759 -3858 0
3515 -4943 -1830 0
-1780 -1588 -3993 -2180 0
3049 -1184 -339 -657 0
-1398 -1124 -4934 0
2304 -3606 0
3019 -1701 -1319 -2361 0
3078 -1327 -3695 -4170 0
303 -4861 -2084 -1481 0
4120 -3175 -3901 0
4073 -263 0
1717 -1949 -3136 -1280 0
1566 -4018 -2232 -180 0
2085 -4303 0
3010 -1684 0
-3733 -3246 -446 -1146 0
3585 -2600 -4764 -4467 0
4905 -3604 0
4694 -1151 -4735 0
666 -1203 -340 0
-4325 -581 -3236 -2945 0
1915 -810 -2144 0
4403 -1418 -4657 -1713 0
2199 -4254 0
3227 -4918 -4147 -4378 0
3546 -1637 -1262 0
2703 -661 -758 -391 0
2013 -274 0
-322 -3798 -655 -3194 0
2609 -1856 0
-3549 -4062 -1738 0
203 -4030 -3208 -4552 0
-3569 -416 0
2173 -2117 -98 0
-2155 -3169 0
-1607 -1161 -4800 -2487 0
254 -1606 0
1215 -3480 -4206 0
4976 -39 0
710 -2444 -3191 0
-2753 -2209 0
-504 -3149 0
3942 -4510 -2173 0
-3943 -3995 0
2963 -2476 -127 -921 0
2227 -1631 -3182 0
1643 -224 0
3955 -2456 -3503 -3844 0
-4582 -4450 0
607 -3934 -620 -3524 0
-3714 -3854 -1713 0
465 -307 -1310 -1941 0
-4383 -1669 -2099 0
2855 -472 -604 -2888 0
-1998 -2530 -4829 0
4660 -2488 -2627 -485 0
610 -1415 -4894 0
1431 -3278 -2193 0
1864 -1567 0
-4576 -931 -3247 -3029 0
1591 -4046 0
4983 -1399 0
-4082 -3187 -680 0
-4214 -278 -4285 -1908 0
610 -933 -3451 -4541 0
-633 -759 -1978 0
-2038 -4041 -2612 -3623 0
2283 -2086 0
-3625 -98 -1371 0
-1291 -4906 -1272 -3322 0
4211 -631 0
2542 -3369 -4219 0
35 -3676 -4585 0
-1993 -2777 -162 0
-4983 -1654 0
-1620 -3639 0
-2642 -978 -1175 0
2042 -4949 -3805 -1089 0
4954 -248 -2333 0
1982 -4204 -3696 -2585 0
-4889 -3208 -3059 -45 0
-2207 -4649 0
4832 -2339 0
3747 -1375 -4448 0
-3305 -2123 0
1275 -107 -2685 -2550 0
3840 -3041 -3059 0
-4729 -3366 -3801 0
-4538 -2054 0
3515 -925 -1758 -426 0
892 -3542 -345 -1738 0
3067 -1424 -1239 -4941 0
2185 -881 -641 0
1832 -3051 -3687 -4157 0
-3401 -407 0
2067 -3348 -3261 0
4853 -717 0
4193 -1905 -252 -3227 0
-4399 -1607 0
4656 -2430 -3101 -371 0
2423 -4054 -311 0
1194 -1749 0
1968 -2045 -3736 -1884 0
-3133 -251 -4373 -1060 0
2989 -273 -4580 0
2721 -33 -1718 0
4082 -2660 -1487 -1321 0
-1470 -1876 -1555 0
-2521 -271 0
4606 -4949 -1238 -298 0
-3778 -1374 0
2526 -3887 -2258 0
-3809 -137 0
2909 -2877 0
1218 -4112 0
-2579 -1605 -3482 0
-2685 -1057 -3719 -3982 0
-1624 -405 -1360 0
3813 -2829 -1891 -2637 0
-3397 -854 -382 -1683 0
2902 -3840 0
2663 -4004 0
3452 -1630 -775 0
2461 -3664 -1068 -1299 0
-1019 -4047 -1146 -62 0
3583 -591 -3972 0
1287 -1650 0
-1643 -1990 -3396 0
4679 -69 0
916 -1726 0
3060 -4316 -3493 -4451 0
-4412 -3874 -2559 0
4455 -3955 0
3620 -1456 0
-457 -549 -1107 0
-2189 -2253 -3543 -196 0
-4553 -3162 0
550 -3280 0
1996 -617 -1442 -2223 0
4530 -2257 -2032 0
3983 -132 0
-4614 -4385 -1628 0
-4856 -1175 -4938 0
-4769 -1057 0
-1589 -3191 -785 0
-4915 -2457 -617 -1130 0
1620 -1596 -4802 -2129 0
-36 -277 0
2418 -219 -2640 0
1999 -4723 0
2471 -3688 0
2785 -1286 -2213 -4661 0
2173 -2841 -4352 0
1934 -4753 0
-4558 -2035 0
2064 -2578 -23 0
-887 -1739 -2130 0
2341 -1935 -1970 0
2591 -1533 0
2901 -692 -2628 -451 0
3355 -4907 -2160 0
2713 -884 -3507 0
4923 -2023 0
3142 -2821 -2649 0
2577 -1821 -1039 0
156 -43 -3279 0
4934 -3171 -1117 0
342 -1140 0
4164 -3047 0
1583 -1188 0
-4440 -2239 0
78 -4735 -3784 -4647 0
1794 -2716 -178 -4470 0
-2187 -4067 0
3512 -475 -2336 0
1994 -3395 -3733 0
1173 -2347 -3194 0
-2523 -1452 -2440 -4991 0
2061 -4307 -4722 0
-1311 -924 0
4137 -4690 -4543 0
291 -1001 0
4606 -1419 0
4802 -1344 -3073 -2689 0
671 -861 0
-2172 -1727 0
-1985 -3416 -2365 0
-1079 -383 -2536 -952 0
-2673 -1483 0
-868 -4816 -59 -1767 0
4396 -3283 -505 -3811 0
3039 -2392 -3010 0
670 -3358 -3634 -1459 0
1392 -112 -500 -2115 0
3474 -397 -1599 -3659 0
-2842 -3593 -3960 -2214 0
2596 -190 -4835 -4948 0
-3299 -4454 -2621 0
579 -649 0
4014 -3890 0
580 -4742 0
3214 -444 -4140 -537 0
1957 -789 -3371 -4607 0
2616 -3900 -3409 0
4664 -1024 0
4700 -1822 -4824 -3263 0
244 -765 -1274 0
2436 -2455 -3833 -340 0
1047 -3754 -4838 -3912 0
1692 -375 -4247 -1612 0
805 -4366 0
338 -4248 -3276 0
-1565 -2766 -3517 0
-194 -2715 0
4737 -735 -4622 0
1495 -597 -52 -1216 0
3804 -2638 0
1841 -2386 -2864 0
1743 -1213 0
2012 -1165 0
-1507 -3166 -3628 0
3404 -1877 0
1159 -1736 -2976 0
2410 -3648 -2348 -1507 0
499 -4727 -2540 0
-2826 -510 0
1691 -1727 -1652 -3775 0
2061 -2070 -745 0
2886 -1131 0
3824 -1743 -975 -3692 0
4138 -4060 -2407 -41 0
3289 -4718 -186 -3597 0
3157 -2423 0
-3088 -1096 -4133 0
-4561 -2206 -3416 -2460 0
-3830 -3036 -1681 0
3826 -3029 0
4131 -568 0
4178 -3615 -4617 -2241 0
-2946 -101 0
4826 -4281 -202 -2641 0
3015 -934 0
1530 -1822 0
2148 -1808 0
3516 -4859 0
2333 -4423 0
2120 -2343 0
-1580 -4510 -831 -476 0
2441 -534 0
425 -2185 -4808 -3732 0
3866 -632 -214 -1629 0
2549 -4389 0
-3819 -3446 -4033 0
-2960 -4521 0
156 -889 -1730 -4117 0
3327 -2540 0
3733 -2037 0
-1976 -2156 -1305 -2143 0
3585 -765 -709 -829 0
304 -3768 -2485 -2076 0
4256 -650 -4678 0
-685 -232 0
-1866 -3039 0
-2909 -1977 0
882 -388 -1615 -2226 0
-4315 -3638 0
2472 -1180 0
255 -870 0
811 -4495 0
2814 -1713 -361 0
3724 -2605 -1176 -3310 0
3372 -3997 -2866 0
4474 -1672 -3439 -521 0
-4548 -1014 -1422 -1860 0
4285 -4799 0
-4596 -2780 0
3955 -1798 -3436 -701 0
946 -773 0
1149 -1622 -4977 -2662 0
3751 -1559 -2544 -4317 0
4858 -327 -1933 -4472 0
-4069 -3797 -45 -3164 0
2848 -3180 -2421 -3272 0
402 -809 -530 -2701 0
4133 -303 -421 -2148 0
198 -4586 -1434 0
996 -596 -4637 0
-1686 -2265 0
3515 -1666 0
3619 -1296 -4778 0
4486 -4945 -1623 0
3995 -1991 -3032 -528 0
-2247 -584 -2288 -2147 0
4709 -4858 -3388 0
-1212 -4364 -4812 -1798 0
-4884 -1081 -682 0
4587 -3888 -1247 -4034 0
569 -3144 -3303 -3816 0
4032 -638 0
4647 -3243 -1721 -2005 0
1723 -3786 -4549 0
4361 -12 0
12 -3041 0
-706 -74 -667 0
1723 -1250 -4593 -2217 0
3429 -2225 0
3205 -3723 -2290 -806 0
2987 -1794 -3484 0
3542 -3529 -924 0
-2764 -259 0
4655 -2878 -2043 -2514 0
933 -3808 -2313 0
4735 -1714 -3064 0
4725 -2893 -1715 0
3601 -2590 0
-2492 -2958 -260 0
345 -4787 -1409 -672 0
3153 -849 0
4997 -2284 0
-1656 -4398 -2531 -1399 0
-4859 -4473 -1037 0
3800 -485 -379 -1505 0
4735 -4106 0
169 -1451 -2654 0
1854 -769 -4607 0
-993 -4870 -3898 0
3801 -2238 0
-453 -4156 0
4783 -2151 -453 0
488 -2571 -1267 -4134 0
-1402 -4069 -3985 0
3694 -3055 -3919 -3523 0
2614 -809 -426 0
-946 -1763 0
-4785 -1434 0
-4514 -2345 -508 0
-3746 -2340 -872 -326 0
529 -3255 0
-1760 -2551 -79 0
4197 -692 -1908 -300 0
4571 -3732 0
3567 -3024 -3132 -3127 0
4473 -3248 -4709 0
-631 -1320 -1645 0
3355 -3019 0
3798 -2636 -2354 -3717 0
4671 -1877 -149 0
217 -2717 -3041 0
3871 -1467 -4121 0
3549 -1112 -2890 0
709 -2558 -3132 -1679 0
3515 -2329 -3590 0
788 -3640 -2307 -3200 0
660 -3739 0
-1864 -4584 0
-2770 -3016 -2507 0
-3628 -1809 -1422 -1913 0
3605 -1393 -3126 -4614 0
-4579 -3233 0
-2259 -98 -1635 -2855 0
2853 -3223 -2475 -4551 0
1784 -3626 0
1694 -1407 -4300 -1733 0
-4043 -763 0
-2937 -4995 -3775 0
4993 -2940 -2751 0
-2288 -101 -2363 -756 0
3704 -3927 -3050 -4311 0
1329 -2357 -1307 0
2027 -2700 0
1123 -444 -3851 0
1828 -692 -4436 0
3337 -4126 -1455 0
261 -718 -1959 0
3048 -63 -3963 0
3466 -3679 -4898 -3849 0
4860 -4102 -2575 -2875 0
2562 -3838 -1301 0
1200 -4949 0
365 -566 0
-3870 -1473 -1335 0
3715 -1518 0
-4347 -1681 -2265 -2417 0
-260 -1272 -745 -3414 0
1697 -2347 -2572 0
94 -4216 -835 0
2745 -2344 -4706 0
4999 -2551 -4900 -2906 0
-4307 -2151 -2169 -3129 0
2699 -1561 0
-3580 -3294 0
4096 -3749 -1330 -4011 0
-4671 -2755 -2541 -1603 0
1474 -3609 -704 0
-3276 -1523 0
725 -1358 -1542 0
-4481 -2413 -2985 -4927 0
4225 -1917 0
2369 -4029 -751 0
1564 -3380 -3812 -472 0
2836 -3936 -4571 0
-1223 -1274 0
-2880 -743 -4443 0
-1559 -125 0
1414 -4695 0
-51 -2431 -1400 0
4447 -933 -2192 -1789 0
1402 -3779 0
1432 -3682 -3188 -3757 0
2333 -3043 -189 -2244 0
-4209 -3705 -3368 0
4067 -2248 -4449 -3577 0
3130 -4717 -4405 0
2853 -2129 -1942 0
-1228 -4179 -4478 0
2476 -3673 -511 -2462 0
-1570 -3563 -3326 0
4785 -512 -1611 -1032 0
4246 -2162 -3402 -4513 0
273 -2053 0
2663 -1142 -4426 -3260 0
1108 -1727 0
-10 -4154 -482 -2493 0
-2845 -3495 0
-2540 -2829 -4596 0
1885 -1889 -4811 -4287 0
3800 -3069 -460 -4647 0
-12 -4569 -1344 -4778 0
2415 -877 -642 0
3038 -1252 0
-1310 -3109 -42 -3112 0
578 -1456 -1570 0
2996 -1342 0
1653 -4628 -4935 0
-3496 -626 -1195 0
4765 -1628 -4521 -2497 0
255 -1395 0
4383 -1660 -4439 -91 0
2906 -1880 -974 -1480 0
360 -4164 -4513 0
-2361 -1437 -425 -2980 0
-2681 -508 -464 -4049 0
4237 -1501 -732 -802 0
-4475 -1696 -1813 -4777 0
4299 -2438 -1961 -1236 0
-495 -99 -3319 0
3058 -4718 -2375 -1866 0
1164 -4183 0
-245 -322 -2218 0
1873 -254 -3339 0
4445 -4692 -3757 -2127 0
1681 -4064 -393 0
4985 -2730 -1443 0
148 -2505 0
1149 -2982 -4778 0
-4663 -4525 0
-3562 -904 -1673 -1877 0
256 -4761 -1772 -2855 0
2701 -3383 -1524 0
2169 -1864 0
2060 -1622 -72 0
4284 -3511 -2888 0
1838 -4294 -4330 -680 0
1174 -25 -2312 0
-1814 -2225 0
2010 -1935 0
3886 -2499 -4846 0
-691 -3901 -4366 0
-849 -538 -1145 0
688 -1857 -2778 -1850 0
-1804 -999 0
1643 -3540 -2308 -3189 0
2729 -4177 0
620 -2604 -4610 0
4620 -3596 -460 0
2461 -4146 -2356 -4544 0
1937 -2800 -2869 -370 0
3946 -3368 -219 0
3783 -4836 0
-1755 -4522 0
-4254 -4229 0
44 -4408 0
4099 -606 0
-674 -4555 0
4723 -178 -538 -1056 0
589 -741 -1795 -2362 0
3868 -1838 -4559 0
3604 -2192 -1851 -361 0
2010 -244 -2798 -864 0
4069 -4466 -3016 -4871 0
2509 -4850 -192 -1822 0
-4549 -2516 -4195 -3400 0
-1036 -2889 -4909 0
181 -984 0
-1140 -756 -4313 -1187 0
2060 -4193 0
-2166 -4412 -2973 0
4912 -525 -1074 -1819 0
4034 -4145 -1111 -3529 0
808 -24 -1305 0
431 -3731 0
2402 -4956 -5000 -1420 0
-2148 -2812 -2195 -2199 0
741 -1010 -2208 0
3648 -1008 -2160 0
1063 -4877 -991 -4417 0
3587 -965 -1760 0
3845 -4626 -3964 0
4521 -931 0
1402 -2669 0
2755 -1617 0
-3452 -1768 -2837 -1714 0
1321 -1650 -3013 -2919 0
1732 -2343 -3238 0
2228 -4036 0
3021 -1710 -2057 -632 0
-3987 -3664 0
-3283 -566 -4148 0
4707 -4206 0
141 -273 -735 0
-774 -3115 -4052 0
-4982 -434 -1391 0
-1668 -2782 -2459 0
300 -2057 -1266 0
-2187 -3876 -2675 -4568 0
-4422 -4283 0
4663 -179 -3058 0
-3569 -2822 0
1924 -3776 0
-3712 -3662 0
1779 -1147 0
2117 -3396 -1890 -2119 0
-4564 -2668 -3704 0
3224 -629 -2707 -3662 0
-1683 -3553 -4782 -2104 0
4118 -1876 -4544 -3676 0
4813 -739 -3605 0
1935 -3366 -513 -4500 0
-1344 -65 -3844 0
-1573 -2451 0
-1705 -4733 0
2263 -1716 0
2425 -1970 -1331 0
51 -2012 -1938 -1490 0
-2497 -4106 0
4318 -4276 -2870 -2597 0
-1177 -3675 -3895 -3032 0
-1730 -1765 -1658 0
-1781 -3766 0
2768 -1863 -4474 0
2646 -4891 -4071 -4712 0
-2824 -3249 -2181 -3648 0
-979 -2857 -3220 -1273 0
116 -1013 -4904 0
-1896 -1421 -4220 -4821 0
4080 -418 0
-3550 -3688 -1782 -3909 0
-545 -557 -3758 -3860 0
-3097 -1241 -2201 -4817 0
927 -874 -3477 -1894 0
4055 -4521 -2445 0
-4791 -1172 0
430 -4562 -2503 -323 0
3786 -2420 -1494 0
1629 -989 -1245 -4036 0
-4294 -3519 -3657 -4172 0
1993 -3104 0
2683 -789 -314 -1083 0
-4494 -3944 0
917 -1318 0
1679 -167 0
2039 -1055 -2821 0
3602 -1376 0
-577 -2817 -497 -3012 0
1593 -2113 -1656 -4210 0
2859 -4825 -4790 -4945 0
3671 -4526 -3869 -54 0
4569 -2344 0
2830 -1656 -937 0
2488 -1161 0
136 -2528 0
-3876 -124 0
3359 -180 -2200 0
2634 -3715 -1553 0
-2243 -3526 0
364 -3744 0
2968 -1969 -4052 -921 0
-4752 -2998 -1002 0
4261 -1463 -2355 -2985 0
608 -446 -4161 -1139 0
3131 -153 -2679 -4109 0
2772 -4306 -2388 -1742 0
-466 -1606 0
-679 -704 -1768 0
3821 -1296 -884 0
-3347 -86 -850 0
4861 -2135 -567 0
3995 -468 -314 -1055 0
-2008 -3525 0
-1102 -4854 -1587 0
1416 -678 -584 -1938 0
4138 -1752 -3757 -1946 0
3526 -2822 -2147 0
4561 -2409 -4965 -2497 0
2372 -3001 -606 0
-1819 -2142 -1543 -1935 0
769 -4017 -594 0
-3024 -1663 0
-3035 -864 0
3213 -2721 -2294 0
4766 -727 0
370 -1975 0
-1146 -1133 -3374 0
3951 -1723 -1672 0
2679 -1418 0
1330 -3669 -150 0
2102 -571 -2523 0
2755 -1865 0
-3121 -4054 -4523 -55 0
1322 -2804 0
-3456 -1157 -4548 -134 0
2247 -961 0
3340 -799 -2006 -4204 0
3228 -4915 -2271 -3382 0
-2817 -1680 -1814 0
717 -1917 0
-653 -2457 0
4504 -4909 0
2917 -4183 -2413 -2944 0
4416 -1457 -2085 0
-143 -444 0
-3676 -4113 -3503 -776 0
3920 -1446 -1732 0
4260 -964 -4595 0
4787 -4966 -1430 0
-2099 -2336 0
-1568 -661 0
3648 -1980 0
1513 -3456 0
702 -3321 0
-661 -4734 -2421 0
1568 -3127 -4205 0
3361 -52 0
-3162 -3095 -2039 -2926 0
-3125 -4030 -4256 -1800 0
365 -2654 -4562 -1621 0
2322 -120 -3276 0
446 -3794 -1232 -1848 0
2388 -2595 0
1660 -4033 0
567 -4102 -2193 -456 0
1173 -4881 -4850 0
-598 -3097 -4040 0
2487 -1827 0
875 -2272 -3074 -1365 0
744 -1722 -3116 -4486 0
2643 -282 -3189 -3701 0
3458 -4577 0
3635 -89 -4550 0
1593 -3184 -286 -2988 0
-2004 -4263 0
2152 -4980 0
656 -2282 0
4613 -3094 -167 0
2167 -272 0
1820 -2399 -300 -175 0
3383 -4401 0
1669 -1918 -2674 -294 0
-2914 -2097 -744 -1444 0
-2077 -3726 -2468 -2743 0
-954 -830 -4338 0
1771 -2985 -3441 -4846 0
-4255 -323 -3280 0
96 -4983 -2614 -4590 0
598 -2104 -2547 -3582 0
1773 -2058 -1686 0
3421 -273 -3487 0
-3223 -1013 -3526 -4939 0
4529 -2062 -5000 -3713 0
4135 -755 -4508 0
3948 -2436 -1929 0
4422 -1394 -468 -1688 0
2752 -1400 -1625 -2490 0
1012 -1005 -772 -3082 0
-4100 -3722 -3963 -365 0
2475 -359 0
3798 -4549 0
-1807 -4724 -693 -4464 0
2707 -3595 -2425 0
517 -4523 -3668 -296 0
1534 -4357 -1464 0
3811 -2266 -1925 0
-3593 -3387 -1460 -1957 0
2288 -4137 -3929 -4163 0
2760 -580 -4334 0
4904 -3185 0
3627 -4994 0
3495 -14 -3995 0
32 -727 -4637 0
691 -2191 -2651 -3583 0
-1532 -405 -4796 -1329 0
1067 -1496 -1903 0
-3526 -627 -1301 0
442 -1337 0
438 -3989 0
-245 -4533 -666 -1164 0
-1483 -4856 -4203 0
4359 -940 0
2470 -3104 0
1553 -3606 -1394 0
1090 -1630 -4636 -1829 0
-1454 -1989 0
-1398 -3707 0
271 -1545 0
4491 -1017 -640 -2977 0
3732 -3075 -1796 -421 0
2431 -4379 -1481 -2469 0
1296 -1825 0
3150 -3748 0
2651 -559 -1234 0
591 -1693 -3172 -2389 0
4660 -2239 0
-3361 -802 -4207 -2457 0
3337 -3584 0
464 -3577 -212 0
241 -1120 -4165 0
-4400 -4199 0
3326 -2519 0
4997 -4928 -347 -4904 0
2837 -4412 -4838 0
1767 -149 -1546 -2740 0
4925 -3540 0
3827 -3582 -1096 -134 0
-195 -4658 -229 0
1920 -4919 -467 0
1169 -4205 -3429 0
3220 -224 0
3349 -3100 0
-4254 -4624 0
-1830 -3386 0
4119 -2787 0
4957 -1555 -1953 -3650 0
2267 -3243 -4768 -2990 0
792 -1582 0
-4412 -1967 -1841 -879 0
4288 -1246 0
4173 -1065 0
-4486 -4760 -2645 0
-1657 -2254 -1417 0
4960 -4073 0
2125 -3395 -3062 -2130 0
-573 -1770 -2861 0
-2880 -2922 -4580 0
3039 -3768 0
-2091 -2041 -4802 0
2117 -2266 -3286 -1209 0
3932 -2723 -1792 0
-2193 -1621 -159 -3491 0
4454 -3270 0
3178 -748 0
4131 -2572 0
3123 -2761 -3651 0
-2481 -4077 -4128 0
866 -4868 -4623 -2628 0
3901 -125 -2310 0
216 -2044 -4651 0
4335 -22 -1706 -2697 0
-4351 -2479 0
4320 -3787 -2420 -2551 0
3298 -4090 -3105 -2452 0
-1326 -4159 -1839 -987 0
2876 -4152 0
2228 -2032 0
2454 -3286 0
3275 -2150 -3591 0
1855 -1579 0
3542 -3671 -829 -3968 0
2278 -3468 -1091 0
-2884 -2186 0
2639 -2921 -3396 -896 0
3494 -4230 -207 0
-1948 -2728 -3074 0
-4419 -230 -4212 0
-2189 -2555 -539 0
-45 -3037 0
-1656 -427 -3625 -4277 0
1898 -1196 -2624 -1848 0
-2452 -350 0
3149 -1562 -3499 -3989 0
2866 -607 -3449 0
4342 -4495 0
4694 -2824 -4724 -1728 0
3961 -539 -3878 -1409 0
-1416 -3523 0
-981 -3274 -3327 -4604 0
1245 -1624 -4017 -3255 0
4435 -468 -207 0
-487 -611 0
4245 -2492 -4135 -1793 0
4706 -1269 -1706 0
2546 -4609 -93 -1620 0
511 -828 -794 0
-2669 -1728 -2193 -1909 0
3261 -4644 -3565 0
-281 -3993 0
1067 -1918 -3628 0
-4250 -4445 0
2370 -4207 -4349 -3233 0
1330 -1573 0
338 -4281 -2181 0
-4673 -4424 -3481 0
3682 -4825 -2342 0
1058 -2049 -583 0
1916 -3372 -330 0
4817 -3499 0
-3379 -3175 -2932 -4045 0
-210 -4447 -3107 0
2952 -2213 -2796 0
-4567 -1044 -636 0
-911 -1935 -2312 -4311 0
2033 -4840 0
909 -4056 -1350 0
4341 -1555 0
3519 -1539 -344 -2198 0
3431 -1646 -4766 -3296 0
3009 -2465 -2567 -534 0
-4253 -3871 -1904 -1256 0
1773 -4179 -4727 -507 0
4708 -2351 -2205 0
-3173 -3710 -1019 0
-3690 -2408 -3682 -2916 0
3816 -4081 -491 0
1274 -76 -978 0
1287 -2503 -1573 0
4787 -1019 -2271 -1922 0
4854 -324 -3743 -3164 0
1393 -2483 0
-1225 -1802 0
2555 -2539 0
-688 -1243 -3995 0
4102 -702 -2506 -2135 0
-1635 -12 -2665 -996 0
-743 -4455 -1306 0
2301 -1782 -1963 -828 0
-2662 -677 -1105 0
-2307 -1372 0
4126 -1915 0
3827 -1633 0
-2560 -11 -3911 -4859 0
422 -4985 0
100 -946 -4605 0
1673 -2247 -1807 -499 0
-1540 -1032 -957 0
1743 -4434 -471 0
4809 -2403 -3697 0
175 -2946 -2838 0
2052 -1569 -1901 0
135 -4554 -250 -4146 0
417 -1372 -3885 0
-2728 -2163 0
497 -1424 -3669 -2837 0
4234 -1750 -3814 0
3431 -4100 0
-2403 -2359 -2004 0
4029 -3463 0
-3139 -2743 -670 -1967 0
-4588 -2213 -80 -2547 0
-515 -186 -787 0
1882 -387 0
347 -4825 0
2531 -4415 -612 -3036 0
-1673 -1953 -1310 0
-1818 -4292 0
2711 -3101 0
3522 -3531 0
1467 -4457 -4033 -3051 0
2087 -1254 0
-2613 -4784 0
2412 -4863 -1878 0
2695 -4063 -4584 0
2993 -3149 0
2053 -2257 0
-2789 -1539 -410 -296 0
3047 -4409 -1690 -1634 0
855 -1428 -1707 0
3676 -3213 -2415 -2562 0
3880 -2599 -4384 0
2170 -4610 -1731 0
-3491 -1706 -1314 -4308 0
529 -2745 0
4752 -3394 -1232 -3997 0
1069 -214 -2947 0
-3294 -185 -4886 0
322 -3505 -3340 -4910 0
2028 -995 0
-963 -2959 -1083 -686 0
75 -3727 -3966 0
1782 -4652 -4365 0
4851 -4025 0
2887 -3408 -4820 0
2828 -3030 0
3190 -2985 0
764 -4759 -4975 0
1073 -2442 -2815 0
-1282 -4915 -3696 0
4899 -4600 0
1348 -1621 -4039 -4777 0
-1116 -2678 -4058 0
3296 -2409 0
-2497 -1474 -77 -4614 0
-2959 -1323 -4024 0
-1210 -4521 -2507 0
1195 -204 -1595 -2840 0
2971 -3133 0
1268 -867 -3449 -3990 0
-213 -3234 -1228 -1499 0
-2800 -10 -4609 -273 0
-4888 -717 -3992 0
2649 -3475 -1758 -4811 0
-4959 -4951 0
1073 -903 -707 0
-2415 -4227 -2713 -3782 0
-4340 -553 0
4489 -2354 -4476 -2286 0
1775 -728 -424 -924 0
-3522 -111 -2017 -3235 0
2437 -2456 -646 -2983 0
4329 -2673 0
2099 -751 0
2155 -2223 -5 0
4325 -2783 0
4925 -2267 -4226 -2471 0
-2961 -375 -2148 -1056 0
-2765 -2202 0
33 -1876 -2636 0
2130 -176 -4352 -1085 0
732 -1983 -4946 0
-3532 -4552 0
-3904 -2173 0
-2447 -1800 0
-1669 -3659 -470 -4865 0
350 -3526 0
2892 -2649 -2939 -927 0
1782 -1937 -4425 0
206 -4968 -2355 -1990 0
-1053 -1491 0
1363 -3795 -1814 -4565 0
-4175 -1018 -1301 0
-4859 -1349 0
-469 -4259 -2253 0
685 -2835 -3806 0
302 -3205 -3574 -782 0
940 -281 -4443 -261 0
-858 -3217 0
-1280 -3096 0
-4376 -1295 0
4536 -2098 0
1787 -2933 -3726 0
4969 -4181 0
4662 -2731 -4718 -2668 0
576 -3664 0
3453 -2195 -571 -1251 0
64 -4321 0
128 -4961 0
1104 -4958 -4735 -1119 0
4919 -3044 0
-2963 -447 -2486 0
3491 -3351 0
-3557 -1918 -2956 0
2103 -2120 -3242 -3603 0
4472 -1095 -4352 0
4745 -4595 -1198 0
-4356 -4097 0
-4970 -2566 0
3822 -2078 -3114 0
-4531 -1577 -1956 0
2494 -4047 0
866 -2995 -4073 0
-3528 -2574 -3822 -4569 0
-2567 -1612 -1403 -2359 0
3138 -4940 -517 0
2146 -1628 -799 0
2136 -1800 -4151 0
-2057 -3805 -3781 0
2116 -4232 -3767 0
623 -884 -390 0
3300 -4834 -1840 -1 0
4384 -2278 0
-1272 -3355 -1132 0
-1742 -4562 -3781 -4073 0
2469 -249 0
2355 -512 0
4802 -4754 0
4943 -1393 0
4466 -3123 -4316 -2950 0
-178 -1434 -3271 0
-1899 -1403 -4430 0
4738 -1085 -4147 0
-4795 -2118 -2471 0
-688 -1104 -3165 -582 0
4770 -2442 0
2248 -1173 0
-292 -1851 -723 0
-4652 -4225 -310 -4097 0
-3467 -1559 0
4994 -469 -3223 -2091 0
2272 -2835 -4851 0
1746 -2319 -4323 0
4480 -1273 0
3519 -4659 -2998 0
1981 -4135 0
2811 -2973 -338 -2182 0
3115 -3822 -4127 0
1987 -2267 -811 -4484 0
602 -89 -158 -4203 0
3233 -1778 -3725 -4238 0
796 -2917 -4732 0
3502 -970 -783 0
474 -3835 0
-2221 -4016 -4901 0
-4095 -556 -3113 -655 0
-4948 -1137 0
-1775 -3879 0
524 -4155 -1038 0
3138 -4446 0
980 -2773 0
3996 -2057 0
1412 -379 -3066 -2898 0
4934 -1290 -4645 -4628 0
1340 -1175 -4672 -4349 0
3565 -4458 -925 0
3685 -1181 0
2209 -2722 -3447 0
-3810 -446 0
3372 -1002 0
1513 -546 -4116 -3216 0
4972 -1324 0
1186 -4979 0
-3930 -4215 -4339 -3072 0
-1741 -3406 -4326 -602 0
2206 -4867 0
-4143 -3687 -4461 0
3940 -3113 -4181 0
-1380 -3859 -2947 0
-4312 -1643 -2938 0
1246 -3112 0
4187 -4842 -2058 -1135 0
933 -3879 -1178 -4398 0
3316 -1501 -2049 0
-1194 -1574 0
2197 -4378 -4838 0
1947 -1434 -4214 -2108 0
732 -4412 0
3832 -1514 -156 0
658 -2541 0
-1097 -2912 0
3462 -4333 0
-4965 -412 -3658 -4022 0
791 -2519 -1165 -931 0
871 -3544 -3565 0
1877 -4695 0
-3770 -3575 -4500 0
-3579 -4652 -352 0
3771 -235 0
-3278 -1211 0
-2179 -2992 -2569 0
4698 -522 -2408 0
2015 -651 0
-3503 -1722 -669 0
1200 -1082 -1073 0
2461 -1586 -2367 0
-979 -3665 -2286 -4524 0
3856 -2099 -4365 0
393 -3170 -2574 -93 0
-4911 -3141 -2540 -3514 0
1389 -2748 -4787 0
3039 -208 -2066 0
2978 -338 0
1330 -3045 -4279 -433 0
4610 -2827 0
4044 -3927 -3063 -698 0
3744 -2006 -3851 -115 0
143 -4580 -2465 -1435 0
129 -254 0
4061 -3942 -2389 0
-1828 -2430 -72 0
-3181 -406 0
4823 -4679 0
3677 -875 -2430 0
3477 -382 0
-1090 -2553 -4359 -1681 0
-4319 -2419 -190 0
31 -1710 -3562 -4471 0
3530 -506 -1886 -2347 0
310 -4412 -4441 -1615 0
2066 -3844 -1246 -1320 0
4934 -4638 0
-73 -894 -311 -4414 0
2592 -3990 -2774 0
1281 -4145 0
3651 -1863 -267 0
-4693 -4795 0
4260 -2119 -2513 0
-4165 -1530 -2954 -2862 0
1556 -749 -2302 0
153 -3192 -4988 -276 0
968 -3691 -578 -3508 0
-3362 -3554 -4340 -4225 0
1274 -3498 0
1710 -447 0
307 -1226 -3230 0
3554 -4774 -4601 0
4488 -1907 0
2291 -3800 0
630 -2189 -3567 -1336 0
-1474 -4117 -3550 0
2949 -3287 0
4522 -2716 -2569 0
3267 -3475 -985 0
4069 -3420 -636 -3544 0
-2381 -3719 0
3207 -1480 0
3663 -328 -1525 0
-4364 -4947 0
1004 -1453 -1872 0
999 -742 -1632 0
-1586 -813 -2982 0
2413 -4511 -716 -1986 0
2606 -1425 -4667 -2999 0
4623 -1565 -34 0
4163 -1658 -4268 -2759 0
4304 -1516 -2040 0
-1647 -2641 -2074 -3065 0
2097 -3252 -1164 0
4392 -2447 -3522 -488 0
-2215 -946 -2 0
256 -10 -1747 -4745 0
-4248 -3673 0
-2136 -2164 -1704 -4572 0
2447 -968 0
1692 -3552 -4196 0
-1494 -1481 0
4010 -4794 -3147 -4906 0
-754 -4230 -636 -4514 0
-3852 -1259 -4636 -3016 0
4574 -4193 -747 -2864 0
2020 -2105 -2128 -1705 0
1060 -573 0
-2798 -3010 -4189 -4881 0
-4557 -4748 -191 0
1210 -1137 0
-681 -2866 -4667 0
750 -551 -147 0
4412 -1315 -3867 -558 0
-1632 -4248 -4942 0
-1107 -2570 -3674 -197 0
1892 -1978 -3022 0
-4981 -4895 0
2591 -215 -4943 0
305 -1943 -1673 0
2429 -693 0
4920 -260 0
-264 -2632 -1816 -2373 0
4987 -2450 -4260 -4885 0
-2735 -669 0
2880 -746 0
4893 -1283 0
1863 -1497 -1309 -4456 0
1566 -3761 -2755 0
1027 -3925 0
-1750 -1961 -4551 -2517 0
2883 -583 0
2716 -2257 -4337 -4004 0
493 -639 -4206 0
3839 -1437 -2120 -3252 0
-4443 -1060 -127 0
-3424 -321 0
-4272 -2500 -642 -1035 0
2443 -2043 -3320 0
-4376 -4738 0
1171 -2495 -1674 0
666 -3791 -3775 0
860 -973 -2517 0
4817 -2503 -840 0
3266 -3560 -1102 -3912 0
4544 -1482 -4995 -1709 0
3067 -733 -4075 0
667 -218 -4635 0
1641 -1582 -914 0
-2246 -4750 -1238 0
2878 -4037 -1156 0
291 -1854 0
-1099 -2220 -4491 0
472 -2853 -2718 -36 0
4704 -4701 -2016 -3490 0
-526 -829 -4156 -2237 0
-4131 -2421 -67 0
3434 -1590 0
-3306 -4998 -3912 0
-1332 -3035 -3585 -4399 0
-4263 -1623 -1424 -4520 0
-3604 -4034 -2701 0
-2880 -2572 -2117 -979 0
4700 -1414 -2729 -1889 0
2382 -4001 -1309 -1782 0
2221 -3735 0
-3871 -687 -1146 0
2457 -3851 -4571 0
-3350 -3725 0
2366 -1892 -3113 0
2467 -5000 -3782 0
3219 -1046 -1314 -1186 0
24 -4131 0
-3782 -2338 -861 -4122 0
4664 -1006 0
4041 -3114 -399 0
2171 -4312 0
2397 -655 0
1765 -4006 -404 -3382 0
1739 -2969 0
1336 -3189 -999 -4519 0
3870 -2222 -735 0
4787 -2182 -2722 0
515 -131 0
2251 -2768 -466 -262 0
2002 -1904 0
1337 -2042 0
1787 -700 0
-4278 -2160 -2881 0
-4639 -1625 0
1793 -1754 -4018 -2731 0
-3492 -1939 0
-696 -2839 0
-1393 -3679 0
-2689 -197 0
2479 -3013 -854 0
2497 -3958 -3774 0
3556 -727 -4599 0
3522 -2201 -3990 0
2278 -3449 -2727 0
1091 -2849 0
2879 -4083 -1631 -2627 0
1075 -293 -2313 0
1270 -110 -4154 0
4945 -4642 0
-339 -3471 -1136 -4504 0
4798 -1971 -2003 -4473 0
1068 -1937 -2314 0
2505 -4737 -259 -2501 0
968 -613 0
617 -4829 -130 0
-174 -164 -593 -917 0
-1930 -987 -3394 -1395 0
1137 -1112 0
2930 -4038 -398 0
-2096 -2866 0
63 -2831 -3659 -581 0
255 -3480 -3080 0
4416 -2798 -264 0
4272 -2194 0
-1738 -4075 -4720 0
4014 -1920 -4415 0
-906 -4983 -3701 0
-2422 -1082 -2386 -2922 0
3479 -4472 -2113 -965 0
-295 -989 -1602 -4044 0
1088 -957 -136 -4700 0
4897 -4310 -3765 -3807 0
5000 -356 -4948 -4922 0
1133 -3891 -2870 0
2066 -2392 -2181 -2429 0
2765 -2753 -284 0
2804 -889 -2145 -2404 0
-4102 -2040 0
1295 -1936 -946 0
4151 -3213 0
1788 -4064 0
2461 -117 -2152 -1897 0
-3960 -1660 -2376 0
2696 -4262 0
2629 -3592 -1314 0
2467 -1850 -2517 -3779 0
899 -4683 -555 0
184 -1478 -525 -519 0
4786 -3758 -677 0
-1521 -1953 0
2789 -3231 0
2703 -1961 0
2173 -3262 -3568 0
-3132 -1915 0
-1482 -1293 0
3311 -2317 0
4120 -1365 0
2895 -739 -2208 -23 0
1961 -3086 0
-4369 -1143 0
1144 -770 0
-2342 -2636 -130 -4588 0
-1392 -1554 0
1096 -541 -2755 0
267 -3094 0
4210 -1055 -1367 0
2385 -1618 -606 0
4408 -3500 -3149 0
1431 -3546 -3973 0
328 -2272 -4155 0
-195 -552 -2390 -3457 0
1385 -4321 -81 -2643 0
415 -4815 -3850 0
3518 -2383 -2811 -3939 0
1362 -3214 0
1946 -2510 0
1077 -2132 -124 0
222 -4712 -1544 0
1849 -3791 -1769 -1669 0
2849 -2237 -3724 0
-3705 -4962 -2558 -1689 0
3822 -727 -4990 0
3435 -3828 0
2835 -3502 -4998 0
3313 -2866 -2610 -1695 0
-3374 -582 -2350 0
2462 -135 0
4884 -1502 -625 0
3695 -4363 -830 0
3602 -4947 -39 -2203 0
-4098 -4244 0
4093 -1708 0
4114 -1888 -2773 -1017 0
-2122 -1554 0
3652 -1255 -4072 -301 0
-3485 -2011 -4759 0
-1850 -740 -999 0
-3373 -2933 0
2060 -4057 -4173 0
1542 -574 -2470 0
604 -3578 0
384 -1085 -59 -412 0
-1802 -258 -4848 -2389 0
-1975 -780 -662 -4254 0
1569 -1824 0
258 -1787 0
2997 -1061 -4922 -3243 0
4751 -2743 -4965 -4883 0
108 -616 -2705 -1572 0
-1144 -1763 -4823 -4974 0
2533 -40 -1884 0
-986 -1604 0
4095 -2944 -613 -3029 0
-3222 -1312 -4189 0
-318 -3225 -2055 0
-3303 -4051 -2545 -2481 0
3825 -1486 -2459 0
2080 -4712 0
-3470 -3130 -330 -3012 0
1051 -3105 -3978 0
870 -3838 -1909 -612 0
4455 -2896 -948 0
-3981 -2444 -1407 0
3269 -4687 -3124 0
776 -4987 0
4776 -1108 -3094 -4096 0
4608 -3324 -4144 0
1525 -4124 -2188 0
-1813 -2463 -4334 -2851 0
2951 -953 -4530 0
-4689 -3757 -2420 -3461 0
163 -1739 -852 0
1665 -759 -1135 0
-2311 -945 -780 0
2535 -3063 -1203 -592 0
87 -1149 0
3453 -2919 -1164 0
1345 -3313 -1873 -2270 0
-4154 -3119 -135 0
851 -3500 -2198 -3673 0
540 -2621 -3420 0
4869 -3013 -1994 -2261 0
3720 -375 -1219 0
1639 -1374 -1752 0
4947 -273 -3020 -2800 0
502 -4926 -2549 0
2739 -1423 0
4181 -4925 -1090 -2797 0
-2585 -4067 -3216 0
2854 -3626 -4910 -3044 0
-4676 -4300 0
1460 -3742 -2506 -4225 0
-2880 -309 -4810 -1429 0
2994 -498 -2048 0
4485 -4638 -2628 -6 0
1562 -2245 -4476 0
-4792 -2540 0
-1545 -2170 -2034 -2687 0
1882 -3529 -2555 -285 0
2744 -3517 -363 -4408 0
27 -1389 0
2665 -608 0
3565 -3932 0
4022 -259 -2150 -4358 0
3236 -3913 0
982 -1169 -50 -2888 0
-2910 -4049 0
4695 -1488 -3056 0
1165 -2515 0
1437 -2331 0
2019 -4630 0
-4597 -3075 0
-754 -1115 0
-3883 -4702 0
2132 -2724 0
-3765 -1828 0
3649 -1694 -4814 0
3087 -1141 0
-383 -3202 -3940 0
-1853 -3525 -3426 0
-3349 -1660 0
4303 -1157 -4677 0
-2651 -3399 -4933 -2522 0
2501 -1626 -4466 0
2123 -4444 0
787 -1129 -3823 -2049 0
1167 -63 -2576 0
-3535 -4817 -607 -133 0
2218 -1590 -1692 0
-2742 -1288 -2860 -3040 0
-1318 -4731 0
4142 -3685 -952 -3810 0
-4443 -4219 0
4611 -4064 -2838 -3477 0
2100 -2326 -2735 0
2621 -3860 0
472 -4966 -2047 -4977 0
1560 -72 0
357 -1973 0
1601 -270 0
3370 -4836 0
855 -1751 0
4027 -3600 0
3837 -944 -1375 0
1257 -1937 0
3115 -4495 -4385 -2859 0
816 -2826 -985 0
-884 -3994 0
-2070 -3621 0
4656 -4481 -2687 -3557 0
3899 -3357 0
1106 -1420 0
878 -3860 0
1238 -4502 -4188 0
-4533 -4217 -669 0
1000 -1879 -3459 -1782 0
97 -4803 -1951 -430 0
4715 -1861 -4158 -2940 0
3248 -4116 -3808 -3223 0
3000 -830 -3240 -51 0
4041 -4649 -70 0
2180 -2748 0
2239 -2915 -4652 -655 0
2303 -3987 0
13 -1668 -1720 0
4039 -4966 -3501 0
804 -3653 -2781 -3086 0
2285 -4831 -472 -4348 0
-4331 -855 -3512 0
1995 -475 -4188 -501 0
-4193 -3785 0
1915 -1784 -567 0
2592 -3924 -94 -4348 0
-2085 -2842 -3728 -3643 0
496 -4061 0
3111 -2984 -1728 -1770 0
3115 -3047 -207 -3087 0
4783 -4796 -30 -1829 0
-1512 -1378 0
-28 -484 0
-42 -1912 -27 -3389 0
975 -6 -4282 -127 0
3300 -4937 -4611 -3940 0
4931 -2519 -1257 -3481 0
1183 -1972 -3197 0
-1979 -2414 -3541 0
-2644 -2371 -3775 0
1569 -3538 -2049 0
1961 -4122 -1391 0
1270 -1431 -2518 -4012 0
-4278 -4510 0
3408 -75 0
3941 -1857 -4697 0
-554 -3158 0
-304 -2489 0
-2531 -3912 -2059 -3036 0
-4186 -2492 -3576 -3114 0
2552 -3341 -799 0
3762 -2310 -1318 -1577 0
1986 -2448 0
726 -1829 -143 -958 0
1974 -1644 -528 -55 0
183 -4129 -2356 -1753 0
4921 -3619 0
1293 -4022 0
4771 -4096 -978 -1446 0
4132 -2086 0
1569 -3211 0
4312 -4050 0
3042 -4245 -1634 0
-4631 -2255 0
1847 -2687 -4206 -385 0
1565 -253 -134 -2626 0
3141 -2125 -3024 -1348 0
3601 -4085 -1394 0
2402 -3060 -334 0
-2082 -2878 -1749 0
2285 -4977 -409 0
2264 -926 0
1179 -2656 0
1082 -3475 -769 -2351 0
2090 -1149 -4960 0
1683 -2650 0
3553 -1568 -2114 0
597 -3647 0
-1306 -383 0
3663 -799 -3611 -2263 0
1993 -1472 -2950 -3114 0
-3668 -4272 -1815 -13 0
-2609 -2203 -909 -1259 0
2906 -2629 0
495 -4969 -2714 0
1660 -541 -411 -1880 0
2716 -1393 -1168 -3635 0
4308 -2470 -1512 -4878 0
707 -440 -3478 -937 0
238 -4364 -3799 -2812 0
2492 -3257 0
2783 -1460 -983 -449 0
900 -153 0
2829 -4992 0
4516 -151 0
287 -2559 -3343 -4780 0
634 -22 -3921 0
1058 -3600 -4554 -1895 0
-1989 -3905 -4564 -1835 0
-971 -3120 -2973 0
-2939 -2059 -4670 0
776 -2617 0
823 -2707 -346 0
-888 -709 -3178 -1092 0
2724 -1952 -3782 0
578 -3085 0
3195 -1997 -1349 -3438 0
-3009 -2100 0
3839 -4054 -3201 -3122 0
2184 -967 -2294 -2806 0
4148 -3467 -1553 -2470 0
-93 -511 0
2473 -647 -4124 0
4343 -2512 -1435 -451 0
4096 -2444 -668 0
4041 -3068 0
-89 -3869 -1733 0
3807 -4607 -4135 0
-2302 -4879 0
-2310 -4231 -2309 0
2202 -4467 -4744 -2908 0
16 -3949 -194 -522 0
-3278 -3156 -929 0
1875 -958 -2286 -1255 0
2625 -2554 -3346 -4212 0
4326 -4237 0
525 -3184 -3066 -4610 0
3848 -2826 -4882 0
88 -4538 -2532 0
2041 -2383 -2474 0
1936 -926 -1877 0
24 -905 -2283 0
893 -2961 -555 0
589 -3343 -3136 0
-415 -3903 0
397 -4356 -4141 0
-3972 -4699 -920 -3676 0
954 -2915 -3014 -2302 0
3875 -339 -3179 -4947 0
348 -542 0
474 -1232 0
94 -2641 0
-2042 -4372 -775 -3423 0
-4222 -1352 -3621 -3304 0
4390 -1072 -1509 0
4943 -1335 -4997 0
2950 -4838 0
2262 -3764 -4908 -2143 0
-2522 -1767 -776 -4235 0
-3898 -4623 -1268 -2155 0
-4731 -949 0
-2370 -833 0
3486 -3409 -1338 -3119 0
2587 -888 -4821 -4824 0
1775 -2570 -1825 -1654 0
1371 -1401 -228 -1781 0
2005 -840 -2608 -3008 0
502 -1860 -3415 0
-4328 -2222 -3104 0
-3222 -4977 -4119 0
1878 -3524 0
-2223 -4540 -4080 0
-4973 -249 -697 0
1953 -3193 -569 -739 0
1636 -2928 -4788 0
4192 -2456 0
4558 -3323 -4034 0
4079 -412 -4492 0
1141 -1683 -1514 -2586 0
4710 -704 -244 -234 0
-971 -667 -3733 0
-921 -1583 -2305 0
3361 -296 -4870 0
-2322 -1512 -2573 -860 0
-1996 -804 0
1552 -3369 0
1372 -2975 -2350 0
-315 -3587 -877 -4555 0
2939 -2470 -2260 -2384 0
1218 -833 0
3225 -3083 0
657 -3364 -3513 -3877 0
2259 -4165 -797 0
3166 -2826 -1803 -1045 0
-4837 -168 -951 0
307 -1665 0
3237 -834 0
3425 -139 0
-1267 -3420 -3747 0
4788 -1771 -2521 0
-3803 -1052 -1626 0
4519 -2394 -3173 -3627 0
3060 -2077 -4267 0
-4393 -1229 -4537 0
4148 -330 -2647 -2643 0
3470 -395 -3318 -3359 0
3868 -585 -194 -3062 0
3003 -4263 -659 0
2724 -3111 0
3090 -1898 -4750 -1015 0
-4693 -2578 0
4028 -2529 0
-4219 -4337 -4074 -13 0
-754 -3291 -4505 0
671 -3445 0
2658 -3604 -2646 -3119 0
2766 -2663 0
-811 -542 0
456 -1617 -3402 0
1268 -300 -968 -4657 0
1402 -1625 0
1921 -1679 0
2482 -2028 0
4174 -234 0
-3292 -2119 -300 -512 0
2323 -3564 -2791 0
-1692 -446 0
2041 -3875 -671 -4184 0
1497 -4614 0
624 -1350 -2848 -4368 0
1554 -4768 -1484 0
3960 -2553 -1429 -3815 0
2525 -3281 -118 0
2349 -2463 0
-2089 -4343 -3389 0
-1024 -2009 -986 -2542 0
-2614 -3924 -2967 0
-1848 -1273 0
-4116 -3913 -3035 0
4793 -1078 -3416 0
-1744 -3790 -683 0
4476 -3864 -2167 -4376 0
1779 -1333 -1318 -3052 0
3816 -1494 -3447 0
2087 -3918 -3932 -670 0
859 -2174 -575 -171 0
-1831 -505 0
4477 -2085 -59 0
-4301 -831 -1304 0
-4287 -2816 0
-3487 -4200 -3224 -4267 0
-3199 -3167 -3476 -3655 0
1510 -239 -162 -4952 0
-1615 -4754 -2015 0
1779 -2505 0
4498 -2414 -3701 -3827 0
-3604 -4006 -1303 0
-1882 -1058 -1915 0
2227 -1504 0
3376 -3574 0
4954 -2540 -111 -4519 0
1293 -3212 -1580 -3672 0
4866 -1957 -4082 0
-1316 -4616 -2739 0
2307 -3269 -3108 0
-610 -3099 -2761 -1864 0
992 -215 -367 -4807 0
-3661 -472 0
2932 -2575 0
3790 -2673 0
2491 -519 0
12 -1633 -2782 -2935 0
4595 -2152 0
1544 -3517 -1581 -4350 0
1546 -3793 -1915 -2365 0
-1339 -3059 -4560 -1082 0
4291 -3459 -1587 -1482 0
111 -1667 0
3684 -767 -3678 0
3440 -2528 0
-2695 -2230 -113 0
4259 -2178 -1374 0
1796 -417 -313 -422 0
-1888 -946 -4991 0
2422 -3816 -1003 -179 0
2828 -2582 0
-420 -522 0
2529 -2059 -4420 -658 0
-1358 -2367 -1773 0
-2148 -364 -514 -1531 0
2905 -2461 0
3549 -2905 -2283 0
3948 -1882 0
-2733 -1338 0
345 -4704 0
3931 -4031 -3881 -4072 0
3939 -2694 -2542 0
1417 -3824 -444 0
1409 -3938 -4236 0
-10 -226 -2712 0
864 -1154 -160 0
-4410 -2775 0
2383 -2680 -3710 -1177 0
-4205 -1464 0
1845 -4273 -1891 0
774 -3280 -2329 0
771 -583 0
333 -2911 0
456 -2727 -248 0
4207 -422 0
-4825 -3841 -1029 -1437 0
779 -1784 -1041 0
-3860 -1675 0
2349 -2662 -230 -3150 0
6 -2803 -418 -2612 0
1942 -3512 -3717 0
-3349 -911 0
-2564 -3769 -274 -1474 0
-3305 -483 0
97 -2539 0
4606 -2503 -2198 0
2765 -4365 0
2851 -4698 -4051 -1758 0
253 -1592 0
-1934 -3969 0
771 -2285 -275 0
-4829 -3849 -700 -257 0
1750 -1116 0
3255 -2550 -1985 -2328 0
2251 -1292 0
1728 -2148 -913 -1088 0
-2117 -4247 0
4164 -613 -3953 -4646 0
3455 -1389 0
3619 -4236 0
4430 -826 -96 -4651 0
-693 -1526 -1935 -907 0
-4344 -1488 -1252 0
3321 -3910 -4692 0
2573 -1648 -29 -1882 0
1798 -728 0
-2117 -3355 -647 -1927 0
4523 -2818 -2942 -286 0
245 -4222 0
999 -3937 0
4875 -1069 -3515 -2436 0
2975 -4163 -4294 -762 0
-2970 -1491 -3662 0
3708 -4059 0
-4949 -1523 -4512 0
-2944 -4677 0
318 -4155 -3659 -4643 0
-521 -1494 -2924 -3012 0
-4996 -4137 -1400 0
-3033 -190 -376 -1941 0
4933 -193 0
101 -2643 -1228 -1700 0
-1241 -3445 -2643 -790 0
2325 -2631 -2609 -3563 0
3092 -965 0
3143 -4954 -717 -264 0
1493 -3499 -1525 -362 0
1363 -2014 -3829 0
2857 -4244 -3917 0
4503 -4815 0
3550 -2910 -1729 -3853 0
2088 -4019 -1830 0
2142 -4178 0
4097 -3687 -3854 -3663 0
2370 -4371 0
2840 -1280 0
3693 -4533 -179 0
-1316 -812 -3326 -1903 0
3135 -397 0
-690 -2301 0
-2152 -4115 -2814 -421 0
3596 -3867 -3163 0
1984 -4263 -1452 0
1864 -145 0
3230 -484 0
521 -3153 -4391 0
-2085 -4473 0
1418 -3659 0
4606 -1184 -1668 -643 0
1857 -1044 -1450 0
4273 -2252 0
-2298 -4943 0
-2156 -2138 -2585 0
-3269 -812 -3870 0
4114 -2504 -349 0
4369 -4628 -2970 0
4447 -1651 -4067 -3261 0
638 -579 -4173 -316 0
4777 -1086 -1810 0
610 -193 -4816 -2912 0
-3062 -3365 -1048 0
1128 -1594 -871 0
-3452 -1847 0
2923 -1108 -1145 -1140 0
4435 -1893 0
-1156 -3927 -261 -4448 0
-1733 -2862 -3784 -129 0
-2744 -3687 0
-565 -1224 -3046 -297 0
1211 -1924 -1599 0
2495 -2183 0
2574 -4118 -1261 -1395 0
-784 -3080 0
-2729 -3619 0
3132 -4152 0
-2762 -206 -2229 0
3694 -2164 0
2496 -689 -2946 -1944 0
-3912 -1288 -2821 0
4417 -4734 -1354 0
-1215 -4212 -3300 0
3840 -1463 -3387 -3700 0
421 -3005 0
-4288 -2655 -830 0
207 -1291 0
3974 -1300 0
1520 -2344 0
-4708 -1181 -440 0
3256 -2007 -3681 -1266 0
1706 -4584 0
1488 -3896 0
4232 -3267 -86 -1715 0
812 -1706 -927 -530 0
333 -1739 -723 0
-1920 -3374 -4271 0
151 -4791 0
2201 -4074 0
4210 -3119 -3556 0
112 -3902 -3167 -2812 0
201 -2839 -2035 0
3442 -4834 -2828 0
969 -2929 0
4373 -549 -1311 0
738 -3132 0
1222 -980 -739 0
-3985 -4606 -2925 0
2173 -2979 -317 -1565 0
-4004 -1752 -4550 0
2998 -4214 0
4064 -4980 -1443 -1993 0
1488 -1495 -1806 0
-1641 -2254 -1965 0
507 -2037 -1256 0
2711 -2214 0
3259 -276 0
-2936 -1949 -4058 0
3951 -4411 -4361 0
-3865 -2397 0
-2494 -4559 0
-2767 -3874 -3161 -3535 0
1679 -4838 -2100 -2431 0
557 -1488 0
4297 -2883 0
-347 -3237 -3680 0
1237 -3693 0
2930 -1419 0
1046 -1656 0
-1851 -3210 -2005 0
4310 -2646 0
2320 -2149 -3534 0
4159 -3942 -3957 -3397 0
-4672 -1793 0
4858 -2288 0
-1541 -1389 0
3887 -3306 0
-518 -2117 0
-282 -318 0
1601 -1649 -4629 0
3167 -4960 -33 -2654 0
397 -2752 0
3903 -2477 -3658 0
1986 -3625 0
4397 -287 -2458 0
581 -1125 -1444 -4978 0
2589 -113 0
3120 -2427 0
-4649 -2250 -2518 -3042 0
3637 -2397 0
721 -4271 -4936 -1323 0
-1942 -4690 0
-3060 -3663 0
-573 -2641 -1517 0
847 -4927 0
2304 -2849 -2658 0
-2121 -2555 -1379 0
4677 -4488 0
-1847 -1284 0
-4037 -2160 -1099 0
1886 -1378 -1179 -3787 0
317 -4779 -496 0
-4326 -943 -4460 0
4660 -742 0
3802 -3452 -1569 -4529 0
1706 -4717 -370 -4458 0
4045 -3176 0
4983 -1376 0
-4026 -3675 -1843 0
2975 -2791 -737 0
3958 -167 0
439 -193 0
253 -2671 -2188 0
4490 -3911 -1912 0
-4503 -4597 -194 0
1276 -1076 0
-842 -2444 -3719 0
3432 -4030 0
1689 -4811 0
3030 -3633 -1753 -1155 0
4862 -894 -1632 -4292 0
4519 -142 -3513 -2294 0
437 -3947 0
4987 -2657 -878 -2915 0
-2999 -2468 0
3227 -1747 0
3170 -607 0
-4026 -958 -4514 0
1123 -1560 0
1777 -2621 -344 -1205 0
-3607 -1897 -3879 -4619 0
-3124 -2827 -3042 -2461 0
56 -1208 -3690 -794 0
513 -1494 -1054 0
4079 -4 0
-4756 -1002 -2517 0
2779 -623 -2052 -2431 0
1994 -1868 -2607 -3552 0
350 -3820 -3912 -3629 0
4028 -3414 0
3977 -1151 -4511 -38 0
-4496 -3848 0
4997 -2806 0
3312 -3552 -3602 0
671 -2628 0
26 -3857 -2162 -4484 0
1972 -1380 -742 -132 0
-3527 -1701 0
2193 -3176 -3849 0
4349 -3313 0
-97 -4758 -1444 -2528 0
-2066 -1931 -338 -3921 0
-4546 -3337 -1317 0
4376 -64 -1741 0
4108 -4578 -1192 -786 0
-131 -4311 0
2033 -2264 -3225 0
-930 -4239 -2146 -21 0
-4272 -555 -311 -4778 0
-923 -695 -2738 -166 0
-2810 -3087 0
-2466 -3844 -4634 0
-3864 -587 -3892 0
58 -3298 -2587 -4988 0
-590 -3762 0
-3698 -1990 -3130 -3770 0
2407 -1480 -1321 0
3176 -2879 -4657 -205 0
822 -2162 -67 -2764 0
3565 -3633 -4909 -3604 0
-926 -2674 -2437 0
3788 -3297 -3397 -3556 0
4249 -4593 0
-4938 -4873 -2058 -862 0
-66 -63 -549 0
-983 -4854 0
3145 -4294 -1289 -4802 0
688 -2454 -1753 0
-2462 -4234 -4150 -3123 0
784 -4662 -407 -2103 0
4298 -4478 -250 0
1092 -1361 0
-881 -3714 0
95 -1019 0
-458 -2556 -4386 0
3498 -2159 0
409 -885 -3783 0
4433 -1548 0
1911 -2943 -1353 0
280 -2765 0
-3906 -1707 -228 -2678 0
-1 -3575 -4183 -3241 0
-768 -2166 0
1265 -3117 -2632 -1663 0
1084 -376 -615 0
2491 -1250 -500 0
4464 -3009 -3458 0
3766 -2818 -2963 -3641 0
4051 -1807 0
4014 -1466 -2579 -4828 0
-4908 -2363 0
-2203 -1926 -3409 0
-3920 -1362 -1124 0
2521 -3526 0
2183 -2582 0
2719 -222 0
-918 -1076 -1770 0
2465 -2092 -615 0
3777 -658 -2789 0
1010 -2736 -2347 0
3619 -279 -2363 -3983 0
4106 -17 -3449 0
4834 -3479 -3162 -1121 0
1125 -4715 -2394 -2793 0
2284 -4414 -3362 0
2020 -4748 -296 0
2827 -3849 0
4013 -4523 -3859 0
-4386 -3815 -619 0
-2828 -4370 -586 0
-1769 -478 0
423 -4825 -2454 -1994 0
2505 -3069 -580 0
1033 -4477 0
3274 -4894 0
4323 -1341 0
-4389 -3412 0
-462 -3023 -2011 -4601 0
-23 -4761 -578 0
909 -3717 0
1057 -794 -4986 -4936 0
3022 -1140 0
4551 -4992 -2074 0
-4878 -4730 0
2418 -1873 -3729 0
491 -3339 -16 0
3743 -2315 -3112 0
2536 -4005 -80 0
3444 -802 -4568 0
4696 -3193 -2100 0
4755 -2499 0
-2602 -2061 -4677 0
-3450 -2167 0
-2863 -4874 -3861 0
-4692 -3788 -754 -4476 0
2344 -3598 -3975 0
1953 -250 -369 -1997 0
349 -1089 -1796 -3420 0
4281 -192 -2950 0
-1194 -26 0
4818 -1448 -4590 -3516 0
11 -1966 -3373 0
-3237 -4623 0
3529 -4925 -4415 0
4913 -1104 0
1388 -2026 -2252 0
1590 -3754 0
-3008 -249 -1939 -1135 0
-4046 -4888 -993 -4042 0
-1779 -663 -2967 0
3123 -639 -247 0
704 -2953 -897 -4063 0
-2649 -1057 0
-1748 -386 0
255 -1800 -2268 0
1750 -2825 -4241 0
-1155 -4034 -1058 0
268 -1747 -581 -4300 0
2125 -1531 0
1437 -1484 -1788 0
2521 -3112 0
-3527 -1930 0
4638 -3052 -4047 0
-2578 -287 -2347 -3463 0
679 -4729 -2822 0
798 -4326 0
-4974 -2788 -4697 0
2004 -215 0
326 -3527 0
2273 -1355 -4655 -379 0
2688 -4236 -1775 0
-2116 -4967 -15 -904 0
2715 -4069 -1188 -967 0
1751 -4768 -3720 0
1037 -301 -4280 0
2024 -548 -3500 -489 0
3833 -613 -3675 -4935 0
3016 -66 -844 -4285 0
2815 -1434 -4923 0
999 -1849 -3005 -592 0
3667 -3687 -4554 -667 0
-2837 -3186 -2593 -1223 0
3309 -3724 0
1459 -2564 0
4713 -2624 0
-1876 -253 -4518 0
-2985 -2510 -4516 0
3221 -442 -4104 -2291 0
2444 -274 0
2134 -4003 -847 -4437 0
399 -3803 -4702 0
2549 -312 -4831 0
4077 -1302 -4664 -2462 0
309 -408 -3714 0
32 -4554 0
4874 -219 -3672 -2236 0
3974 -4758 -4343 -4890 0
4659 -3717 -3066 0
-2443 -2400 -2027 -4284 0
4637 -2766 -65 0
394 -4686 -1014 -384 0
2350 -2003 -764 -2717 0
2208 -4112 0
569 -4201 0
513 -2457 -3225 0
344 -576 -2708 -3680 0
-4644 -2547 0
-2604 -756 -1958 0
1948 -2409 0
3711 -2298 -4408 -1758 0
-4953 -2313 -3525 0
3493 -413 -768 0
3421 -2338 -4231 -432 0
1932 -3385 0
3593 -2647 -2046 -925 0
4644 -4932 0
2087 -3049 -4 -4572 0
2933 -1648 -623 0
4682 -1820 -2454 -2707 0
-3802 -4837 -2784 0
