c Horn formula (polynomial-time solvable)
c 2000 variables, 5000 clauses
p cnf 2000 5000
1929 -837 -91 0
1047 -177 0
-1777 -1656 -1677 -685 0
-264 -86 -403 -1877 0
1357 -213 -1572 0
319 -16 -1798 0
569 -248 -1584 0
791 -117 -1396 -951 0
-733 -716 0
-1492 -1390 -1829 0
-1908 -922 -1114 -192 0
-1142 -471 -125 0
264 -877 -1900 0
1298 -408 -136 0
-499 -1735 0
10 -712 -571 0
1740 -476 -1104 -1964 0
1863 -26 -943 -1426 0
1680 -78 -1310 0
-1346 -494 -1449 0
-888 -178 -1546 -55 0
-856 -1302 0
1947 -152 0
517 -921 0
595 -739 0
422 -1776 0
838 -1176 -1625 0
193 -1813 0
-468 -1486 -1088 0
-1621 -195 -180 -1641 0
1296 -1351 -1457 0
1108 -1499 -930 0
-1567 -538 -838 0
253 -737 -1320 -196 0
-1145 -1335 0
604 -616 -1825 0
309 -1305 0
337 -976 -1004 -686 0
25 -1985 -423 0
8 -1639 -1865 -1090 0
374 -1680 0
1472 -137 0
1253 -1009 -435 -738 0
1378 -1178 -1129 0
-1888 -522 -1740 0
-943 -1747 -725 -1541 0
335 -1312 -1130 -850 0
880 -906 0
45 -100 -105 -1170 0
386 -1575 -1781 0
109 -836 0
1709 -507 -1176 0
-1095 -67 0
1412 -228 -490 -821 0
-1239 -966 0
1023 -143 -135 -1853 0
1532 -136 -776 0
-1954 -1195 -1622 0
539 -900 -1090 0
1903 -1642 0
177 -578 -1876 0
237 -819 -404 0
1159 -1490 -526 -1858 0
1743 -570 -1690 0
-902 -1076 -1947 0
1911 -1486 -1702 0
-616 -480 -1908 0
-1556 -1213 -1966 -1131 0
1119 -1705 -43 -1760 0
198 -1932 -1439 -1528 0
983 -1132 -1798 -1897 0
704 -1013 -431 -185 0
-1055 -1173 0
-1631 -1435 -1717 0
729 -610 -1015 -99 0
1951 -1947 0
-1883 -1690 -1870 -1867 0
623 -143 -24 0
-732 -1552 -245 0
1180 -284 -854 -1284 0
-1908 -1729 0
516 -1918 0
133 -654 0
413 -371 0
329 -196 -1722 -1732 0
1987 -647 -1709 0
-377 -1910 -747 0
180 -58 0
475 -1976 -662 -1702 0
1934 -652 -288 -95 0
1706 -1182 -1279 0
206 -1741 -584 0
-1986 -612 -384 -521 0
-933 -348 -94 0
-1664 -1774 -823 -491 0
656 -1512 0
1772 -1370 0
-382 -1270 -1892 -877 0
-1887 -699 0
1743 -1924 0
1228 -1679 -1233 0
280 -890 0
-559 -90 -1428 0
-1016 -1470 -1315 0
978 -1669 -479 0
1528 -1709 -625 -1133 0
-1735 -870 0
1512 -277 -1870 -1166 0
207 -1444 -785 -1864 0
1854 -1423 0
-3 -331 0
382 -1393 -223 -1721 0
-1436 -1686 0
1256 -734 0
1003 -307 0
1564 -1901 0
927 -1735 -1005 -617 0
1143 -382 0
-1974 -296 -310 0
749 -272 -1478 0
81 -1147 -1735 -1110 0
1237 -1476 0
-1080 -957 -168 -1781 0
1427 -401 -425 -600 0
1296 -1476 0
1639 -663 -845 0
61 -1700 0
1341 -962 0
-750 -1634 0
574 -467 0
344 -1965 -414 -1099 0
-247 -684 0
255 -981 0
386 -898 0
1400 -1592 0
94 -1962 0
1479 -766 -1292 0
-806 -1413 0
-1961 -177 -1553 0
-1798 -1539 -827 -122 0
557 -770 -741 0
314 -996 -634 -624 0
333 -1386 -830 -572 0
1795 -588 0
1344 -1250 0
-858 -369 -1825 0
1662 -1241 -1733 0
142 -392 0
1102 -624 -904 0
498 -221 -1370 -64 0
1266 -686 -599 -1509 0
1329 -915 -520 0
-436 -775 0
-112 -891 0
152 -599 0
1572 -751 -848 0
-368 -1365 0
24 -691 -1739 0
1382 -857 -715 -1105 0
411 -1796 0
1657 -1411 -1255 0
724 -182 -436 0
-1003 -177 -45 0
-238 -253 -1112 0
-336 -1569 0
1695 -1113 0
848 -1560 0
1753 -277 -506 -1396 0
-1148 -1469 -370 -776 0
-164 -1534 0
740 -1680 -1332 0
1460 -219 0
1073 -1264 -1146 -1512 0
-1134 -821 -1839 0
570 -1497 0
-990 -256 -1564 0
1790 -108 -588 0
1401 -809 -888 0
-1051 -796 -1390 -1443 0
-909 -771 0
1754 -1789 -589 -315 0
1648 -243 -1411 0
-1089 -1629 0
-665 -1757 0
1737 -1109 -667 -954 0
635 -1623 0
-961 -1182 -1040 -1287 0
-251 -168 -1489 0
1177 -738 -725 0
-1269 -1295 -1146 0
1750 -1878 -1041 -520 0
513 -773 -801 0
546 -818 0
868 -960 0
4 -989 0
-1387 -1932 -1591 0
544 -481 0
-1070 -56 -1566 0
1456 -1694 -52 -1347 0
1621 -173 -1681 -957 0
1138 -961 -140 -1882 0
1729 -1746 -605 -389 0
-1185 -148 0
-1639 -1502 -426 0
220 -1181 -1043 0
372 -545 0
1405 -320 -172 -95 0
17 -375 -1242 0
-201 -460 0
-1128 -1100 -151 -1195 0
684 -1677 -531 -338 0
-1671 -1648 -1223 -545 0
1489 -590 -1573 0
78 -1770 -799 -1801 0
-114 -52 -703 -123 0
1927 -641 -583 -1027 0
855 -1191 -414 -879 0
397 -1563 0
313 -703 -427 -121 0
1205 -1513 -1515 -1939 0
789 -1039 0
1391 -1271 -1523 0
1462 -159 -1855 -1416 0
130 -662 -143 0
1020 -282 -907 0
-1761 -601 -1501 0
1154 -335 0
1849 -171 -76 0
668 -780 0
1940 -1049 0
301 -967 -24 0
-676 -818 0
325 -1631 0
1001 -1205 0
929 -1792 -866 0
327 -503 -800 0
1469 -923 0
-265 -23 -684 0
911 -137 -1469 -384 0
991 -1857 0
384 -840 -1327 -509 0
844 -1306 -1217 -1669 0
897 -1043 0
-1229 -116 -1742 0
1759 -1289 -996 -1234 0
1 -1500 -874 0
-872 -1086 0
1737 -1739 -1482 -1049 0
-1055 -1142 0
234 -169 0
1082 -859 0
916 -252 0
-1032 -562 0
1599 -1857 0
-1048 -1062 0
1022 -1571 -1386 -343 0
1630 -377 -1677 0
1583 -117 -1013 0
-1603 -641 -145 -1960 0
1551 -1260 -1310 -619 0
39 -1435 -1460 -611 0
-1072 -481 -1500 -987 0
-768 -1988 -229 0
544 -22 -763 0
1959 -1488 0
1201 -232 -219 0
1038 -136 -1835 -761 0
-1962 -1352 -1572 -1409 0
1917 -1841 0
1169 -1199 0
-1160 -657 -875 -1714 0
1025 -1540 0
1043 -1190 -1121 0
1814 -980 -1079 0
827 -243 -700 -1632 0
-1117 -1433 -168 -1842 0
880 -1482 0
-1624 -572 -351 -679 0
1424 -1774 0
-1354 -118 -1348 -435 0
1009 -1795 0
1684 -985 -796 -88 0
-39 -782 -1695 0
-530 -1235 0
159 -1641 0
-1684 -1997 -1020 0
1163 -1625 -1825 0
1812 -1975 -768 -1939 0
1811 -649 -715 0
236 -1577 0
1135 -880 -1934 -1251 0
1802 -1774 -1531 -1076 0
-1392 -1235 -390 0
497 -1227 -1758 0
-617 -215 -859 -264 0
218 -1078 -1339 -1332 0
-286 -590 -423 0
1419 -499 -881 -1507 0
1146 -264 0
1440 -905 -1308 0
463 -1933 -918 -154 0
-389 -1678 0
1762 -382 0
-1701 -1261 -1739 -1288 0
586 -1289 -1997 0
993 -584 -963 0
1241 -1026 -145 -422 0
-720 -1633 -1032 0
1015 -716 -87 0
239 -768 -1782 -1756 0
1446 -600 -171 0
49 -1898 -1962 -882 0
1 -1852 0
-1650 -296 0
100 -1703 0
-153 -1341 -311 0
659 -534 -188 -1056 0
-1858 -1212 0
1612 -158 0
181 -550 -917 0
562 -1155 -734 0
1289 -1520 -616 -1414 0
468 -1521 -1970 -1445 0
104 -1368 -1511 -1524 0
339 -487 -270 0
-1377 -1226 -1113 0
1403 -946 0
1227 -689 0
-435 -979 -1744 0
1168 -1550 -80 -434 0
388 -1524 -1093 0
-394 -2000 -1063 0
878 -260 -771 0
-1027 -1483 0
330 -1395 -709 0
145 -592 -511 -668 0
-1104 -612 0
1947 -877 -290 -1711 0
389 -339 -1950 0
-851 -664 -1285 -335 0
1227 -544 -1154 -748 0
80 -59 -1029 -251 0
-696 -222 -963 -460 0
3 -1273 0
1007 -360 0
902 -908 0
-375 -936 0
217 -1859 -1395 -1749 0
1347 -1771 0
1601 -1355 0
-1677 -1442 -700 0
1317 -1072 0
1299 -524 -1264 0
1403 -1889 -1334 0
1669 -693 -393 0
-1828 -1532 0
670 -1206 -1394 0
-1017 -1103 -1422 0
1392 -821 -1590 -703 0
-553 -2 -1761 0
1024 -1242 -478 -852 0
1888 -1543 -483 -15 0
-1696 -901 0
1251 -328 -928 0
1205 -257 -1967 -87 0
1852 -126 -926 -69 0
-209 -1405 -749 -1171 0
901 -974 -223 0
-1171 -1461 -1473 0
-489 -1910 0
37 -974 -337 -531 0
1819 -716 -407 0
-308 -325 -1386 -588 0
877 -491 -314 0
706 -712 0
1282 -60 0
146 -304 -755 0
1726 -1151 0
75 -1557 -1097 0
-1484 -1014 -1514 0
260 -379 0
-478 -1010 -608 0
-619 -1357 -850 0
220 -434 -272 -451 0
-945 -995 -1221 0
1217 -347 -1323 0
1609 -176 -466 0
1274 -1756 -836 0
1794 -688 0
639 -766 0
1048 -558 0
131 -580 0
959 -1854 -56 -1264 0
-1471 -686 0
-564 -1916 -418 0
793 -488 0
571 -1695 0
472 -1373 -944 -1717 0
53 -807 -974 0
-1918 -1069 -1735 0
1226 -261 -1593 0
-1333 -1666 0
-1323 -1109 -1200 -13 0
-372 -1876 -1848 0
7 -542 0
857 -90 0
-679 -290 0
1965 -1317 -303 -1704 0
434 -1900 0
-1605 -1440 -665 0
-50 -397 -359 -1140 0
735 -165 -257 0
1324 -1477 -1160 -436 0
88 -726 0
399 -1777 -661 0
1138 -1405 -580 0
1636 -402 0
1676 -1018 -1515 -891 0
1987 -1423 -1727 0
-1908 -960 0
-825 -1252 -859 -1752 0
-195 -378 -1404 0
1553 -561 0
363 -1334 -523 0
-953 -1965 -302 0
834 -547 0
1977 -1173 -1486 0
664 -860 0
1093 -538 -507 -1729 0
-1620 -1964 -977 -667 0
63 -1326 -107 -521 0
-1019 -28 -389 0
-1169 -1486 -567 0
268 -82 -577 0
849 -948 -821 -977 0
608 -1432 0
1999 -1866 -1923 0
1148 -1641 -1727 0
1995 -1637 -814 0
1898 -1504 -811 0
30 -860 0
-950 -291 -1007 -626 0
-270 -1899 -1589 -390 0
1536 -609 -1217 0
-1589 -1417 0
156 -1936 0
-605 -460 0
734 -1069 -974 0
1807 -784 0
753 -887 0
1905 -588 -34 -1526 0
-527 -1222 -1171 0
-1290 -302 0
1890 -1035 0
-307 -1716 -1862 -1568 0
73 -1903 0
1889 -927 -1403 -825 0
359 -1481 -1369 0
-235 -573 -805 -1814 0
1993 -1335 -453 -1604 0
1305 -72 0
229 -670 0
956 -894 -1663 -116 0
-1057 -1495 -990 0
134 -1537 0
1495 -748 -1242 0
503 -831 -940 0
469 -1448 -507 -644 0
1570 -1920 -1430 0
-346 -20 -61 -1484 0
887 -1504 -484 0
557 -234 0
680 -784 -1524 -897 0
-202 -888 -1178 -32 0
1055 -1128 0
1076 -1808 0
1849 -764 0
-856 -1345 -1289 0
1442 -1631 0
-1353 -1014 -1455 0
1047 -1984 0
325 -574 -1528 0
1408 -1339 -1231 0
1214 -869 0
165 -881 -1685 -1463 0
676 -1852 -1528 -1573 0
1473 -1803 -696 0
655 -410 -1606 -421 0
156 -1139 -178 0
1862 -927 -1117 -546 0
629 -1148 -1007 0
275 -206 0
-1197 -1334 0
-1544 -1267 -1707 0
1462 -1644 -677 0
1574 -1256 -571 -580 0
824 -1747 -382 0
1075 -463 0
84 -572 -338 -433 0
1849 -1575 -509 0
235 -1345 -1246 0
663 -332 -202 -1907 0
-580 -574 -1657 0
1383 -1177 -182 -28 0
738 -1314 -561 -1462 0
1490 -1707 -1487 0
1255 -207 0
-501 -1935 0
1323 -217 -497 -295 0
-1521 -1735 -1632 0
317 -1164 -225 0
-1752 -1616 0
-685 -66 0
493 -1111 -1136 -1703 0
847 -1873 -44 -1232 0
1349 -1248 -627 -224 0
1318 -1226 -318 0
400 -1871 -1480 -816 0
-1081 -1964 -424 -1515 0
302 -1852 -378 0
1553 -1225 -1448 0
961 -1304 -460 -1774 0
1286 -1698 -684 0
211 -905 -224 0
-272 -1487 -1771 0
21 -502 -530 -1086 0
978 -1433 -1977 0
82 -33 -585 -1231 0
1713 -1910 0
133 -948 -143 -1774 0
-505 -44 0
1012 -825 -1765 -1896 0
-653 -1545 -39 -587 0
1577 -1983 -449 -793 0
-670 -1241 -354 -1754 0
-767 -1378 -229 0
1354 -913 -724 0
947 -1136 -1200 -508 0
1043 -130 -675 0
-112 -1675 0
256 -1769 0
1972 -1778 -856 0
129 -787 -1958 -1389 0
325 -483 -1665 -1617 0
-210 -1414 0
1751 -865 -696 0
253 -790 -522 0
77 -1698 0
-1313 -409 0
553 -1343 0
-1060 -90 -935 -211 0
838 -1159 0
1911 -1948 0
735 -1593 0
1634 -1652 0
505 -768 -1535 -449 0
1270 -347 0
1083 -487 -838 -1347 0
437 -405 -456 0
1273 -240 -1665 0
1592 -1280 -1865 -1690 0
935 -23 -182 0
348 -196 -1913 -718 0
1698 -1106 0
-42 -734 -113 -4 0
744 -1817 0
1370 -555 -1066 -1007 0
720 -1056 0
1118 -365 -730 -1019 0
1048 -1956 -1942 0
1034 -1286 -1806 -731 0
380 -1197 -525 0
1356 -507 0
1827 -1139 -1047 -87 0
1018 -1262 -281 0
568 -1939 -125 0
73 -1504 -521 0
-351 -1013 -1733 0
1407 -223 0
269 -716 -317 0
290 -377 -670 0
-362 -242 0
282 -1386 -244 0
1762 -788 -637 0
1977 -1286 -1879 0
398 -1858 0
1059 -1476 -326 -682 0
-1616 -17 0
1719 -30 -1147 0
-1146 -252 0
591 -519 0
937 -1653 0
1125 -822 -1316 0
-526 -229 0
1648 -387 0
943 -1558 -394 0
-601 -856 -1105 -1924 0
1074 -738 -1436 -734 0
428 -1669 -796 0
168 -1263 0
-1413 -1303 -1911 0
-1856 -1353 -1967 0
645 -1030 -1096 -161 0
1937 -556 -609 0
1719 -1888 -225 -1019 0
-1076 -958 -643 0
834 -389 -1957 0
1930 -1766 -1558 -93 0
1089 -1573 -1609 0
1435 -576 -268 0
-792 -1112 -399 0
1688 -1692 -150 0
589 -1348 0
-580 -397 -1269 -1479 0
121 -1510 0
608 -1451 -1827 0
139 -1095 0
547 -1090 0
106 -1979 0
618 -1711 -888 0
1021 -782 -1491 -956 0
-773 -173 -338 -767 0
1093 -618 -680 -797 0
599 -183 -1633 0
1003 -1980 -464 0
-1466 -735 -50 0
1795 -898 -1812 -1200 0
1629 -10 0
1974 -209 -1572 0
344 -926 -1662 -1091 0
1291 -1926 0
1036 -126 0
1246 -872 0
-1878 -211 -276 0
1561 -900 0
36 -1631 0
-803 -210 0
-442 -301 -1801 -1847 0
155 -359 -304 0
-262 -55 0
-541 -1819 -1103 -74 0
943 -742 0
1000 -957 0
1455 -1541 0
562 -631 0
-1850 -890 -1122 -1823 0
1243 -869 -1445 -1409 0
612 -1312 -345 -284 0
1969 -1783 0
-1507 -1075 -1482 0
-1540 -692 -1811 -1102 0
-212 -1109 -1076 -113 0
1615 -1845 -1211 -1849 0
-407 -1134 -1754 -1988 0
-276 -213 -1017 0
-1221 -751 0
1155 -1063 -1288 0
1551 -348 0
-456 -1199 -1732 0
857 -262 -68 0
-1724 -181 -1933 0
721 -1305 0
1942 -1207 -711 -1819 0
609 -100 0
-393 -1232 -368 0
1821 -674 -359 -513 0
925 -858 -773 -1508 0
1816 -483 -891 0
420 -1291 -447 -954 0
-1867 -1997 0
-853 -1552 -1938 -1965 0
1815 -1319 -313 0
1526 -1781 -1621 0
-1762 -362 -1466 0
-977 -1271 0
-1338 -1497 -264 0
1392 -1598 -1248 -1132 0
1004 -291 -560 0
1955 -218 -1594 0
1679 -1059 0
406 -1877 -556 0
335 -1643 -1357 0
-549 -1899 0
43 -909 -1314 -1127 0
-1291 -781 0
169 -1167 -1693 -346 0
807 -1675 -856 -92 0
-974 -973 -1364 0
1625 -1664 0
1866 -526 -1218 0
1390 -1514 -509 -1031 0
1246 -1517 0
383 -1719 -315 0
-1598 -148 0
-174 -902 -1743 0
1599 -381 -21 -1592 0
-1877 -632 -150 0
504 -144 0
1811 -97 0
495 -251 0
-101 -553 -1610 -396 0
805 -644 -126 0
1143 -54 0
-1708 -1048 0
1179 -639 -1104 -38 0
758 -1192 -174 0
-1363 -1118 -1547 0
1800 -682 0
762 -1122 -308 -1145 0
-836 -1329 -663 0
1033 -473 0
-229 -1806 -60 -1217 0
1410 -1419 -1828 -990 0
-80 -1191 -890 -1474 0
1290 -1692 -1822 0
349 -1672 -1322 -1072 0
-54 -527 -1116 0
-251 -327 0
748 -1460 0
31 -75 -1520 -18 0
1522 -558 0
1555 -1869 -1099 -1200 0
1930 -475 -814 -418 0
1812 -1028 -1286 0
1438 -1745 -1828 0
1216 -473 -1684 -982 0
515 -1702 0
245 -286 -1795 -710 0
1070 -1524 -1668 -1942 0
339 -1060 -1054 0
310 -274 0
803 -507 -1176 -1579 0
911 -836 0
383 -239 -1254 0
1725 -1148 0
-608 -1304 0
1168 -1216 -668 -532 0
1222 -1927 -516 -1780 0
1111 -877 0
514 -1661 -1102 0
-1011 -136 0
936 -1337 0
535 -1781 -256 0
340 -1901 -164 0
-636 -1199 0
943 -1638 0
1181 -284 -384 0
264 -1268 -278 0
-547 -1948 -656 -191 0
1420 -1595 -28 0
-410 -1523 -1300 0
-945 -732 0
-491 -1738 -1016 -1527 0
471 -735 0
200 -210 -445 0
288 -561 -1947 0
614 -304 -1619 0
1528 -96 -1292 -1693 0
670 -574 -504 0
569 -1466 -1347 -1201 0
392 -1842 -1740 0
1664 -1923 -1222 0
543 -1603 0
403 -48 -616 -1437 0
-1875 -1840 0
-1368 -1315 0
32 -1308 -1212 -465 0
1586 -780 -1633 -1185 0
-1707 -1980 -1242 0
-1158 -85 -1219 0
-1753 -1892 0
120 -323 0
-32 -664 0
298 -20 -1182 -403 0
42 -1235 -670 -1283 0
-1345 -1816 0
-710 -1268 -179 0
1008 -1783 0
589 -1080 -127 -1770 0
-614 -1169 -1417 -510 0
506 -1849 -1219 -1611 0
560 -862 -663 -1541 0
-1451 -247 0
1612 -1920 0
858 -1500 0
-1499 -1947 -698 -1282 0
-1027 -1624 -1743 -1368 0
-343 -1487 -421 -426 0
274 -1146 -123 0
1586 -708 -229 0
1514 -871 0
1737 -952 0
298 -968 0
963 -1195 0
268 -544 0
477 -129 -205 -1573 0
1277 -1712 0
-263 -1836 -381 0
1651 -1917 0
261 -336 0
1556 -922 -1921 -789 0
-875 -1082 0
1945 -821 -1971 -1103 0
1161 -991 0
1322 -204 -1527 -1433 0
511 -1737 -244 -124 0
-42 -947 -1410 -698 0
835 -1458 -882 -1380 0
1800 -1877 0
-665 -769 0
270 -382 -1332 -694 0
219 -827 -1604 0
961 -1496 -1993 0
807 -1602 0
854 -818 0
406 -852 -791 -1816 0
-965 -725 -764 0
377 -1963 -1260 -370 0
-1361 -592 0
909 -719 -1424 0
-1430 -515 -1238 -615 0
559 -1000 -751 -1995 0
931 -339 0
-1973 -1312 -948 0
-1588 -1096 -400 -1805 0
129 -652 -884 0
1049 -1968 0
566 -1564 0
1722 -1841 -1410 0
1337 -1006 -1833 -1124 0
1054 -416 -1170 -496 0
526 -966 -1552 0
796 -1306 0
-604 -1968 -1513 0
-55 -804 0
-877 -1623 -1806 0
-200 -1827 -269 -611 0
625 -1577 0
282 -204 0
-1957 -734 -724 0
1515 -718 -796 -1925 0
-560 -205 -1489 0
403 -885 -779 0
1132 -1141 0
806 -935 -518 -1216 0
1987 -271 -769 0
-1435 -1146 -1337 -533 0
-268 -1354 0
1429 -812 -782 -1476 0
1950 -1301 0
1658 -1187 -1290 -867 0
1591 -1926 -567 0
250 -710 -1736 0
648 -1575 0
1728 -916 -160 -199 0
634 -895 0
-1553 -738 -406 -89 0
-1985 -1129 -1391 -339 0
720 -838 -1385 0
387 -1215 0
1216 -132 -448 0
-651 -487 -1522 0
-1926 -652 -625 0
-1539 -40 0
214 -540 -411 -820 0
1723 -304 -123 -1364 0
1335 -1514 0
-455 -452 -1419 0
-762 -967 0
-813 -1834 -1715 0
1651 -124 0
1527 -556 0
-1087 -541 -1340 -328 0
1422 -709 0
-1301 -1368 -400 -1644 0
-872 -1774 0
1930 -105 -444 0
-26 -739 -763 0
696 -1290 -420 0
1167 -813 -1346 -1555 0
-1761 -360 -844 -1153 0
-1563 -1544 -856 -1482 0
310 -1233 0
1702 -1624 0
-186 -755 -266 -851 0
1834 -1880 0
468 -1551 0
-448 -1501 -701 -1254 0
-1675 -2 -1459 -808 0
-1036 -52 -22 -632 0
1043 -291 -1004 0
-928 -1399 0
1459 -1894 0
-400 -449 -1612 0
1491 -1034 0
511 -1760 -1772 0
716 -890 -30 0
92 -1316 0
1203 -1654 -481 0
1441 -1979 -1232 0
-97 -1626 -1448 -241 0
1339 -759 -1569 0
116 -1196 0
683 -1055 -1949 0
-383 -360 -1817 -1915 0
1544 -1084 -108 -738 0
1145 -1170 -986 -1366 0
-1508 -924 0
1626 -1743 -554 0
101 -89 -1918 -107 0
-1245 -1580 -1664 0
-1545 -1603 0
29 -1141 0
1570 -1023 0
1001 -612 -1925 0
1989 -1494 -1258 -1687 0
628 -407 -561 0
1923 -1536 -323 -466 0
274 -1306 -1440 0
363 -1055 -1588 0
1957 -189 -1571 -1380 0
827 -1628 -118 0
-394 -1897 -1082 -1848 0
268 -1007 0
-1931 -1900 -447 -1846 0
1073 -1697 -1206 0
1115 -216 -536 -1490 0
678 -1440 -1563 0
-1194 -640 -669 0
5 -694 -1923 -81 0
347 -1491 0
211 -1657 -1205 -107 0
976 -1525 -1209 0
-549 -449 -1629 -1277 0
1678 -329 0
1891 -1250 0
-1793 -1287 0
1266 -907 -396 -1916 0
195 -1260 0
-977 -1886 -329 0
987 -489 -392 -90 0
-965 -604 0
1047 -1732 -1329 0
1954 -1454 -1556 0
-155 -610 -1601 -1015 0
312 -1979 -309 -404 0
1986 -1756 -599 0
913 -223 -694 0
1128 -887 -1237 -841 0
1929 -1600 -902 -776 0
51 -1713 0
627 -1200 0
804 -670 -15 0
170 -180 0
1105 -885 -546 -1041 0
-1115 -348 -410 0
277 -579 -876 -1058 0
-1904 -354 -119 -1374 0
1367 -41 0
-1268 -137 -1004 -1244 0
466 -834 0
944 -998 0
964 -873 -1167 -137 0
62 -639 0
1830 -718 0
-1414 -876 -1723 -321 0
-1779 -881 0
1669 -432 0
1520 -1379 -1867 -944 0
1048 -820 -1288 -500 0
1285 -182 -500 0
464 -1921 0
1219 -1724 -1277 0
-1313 -19 0
-836 -1774 -1863 0
949 -534 -357 -724 0
391 -254 0
-1436 -1646 0
1902 -107 -893 -530 0
1605 -341 -1921 0
1890 -1683 -239 -1319 0
-1611 -1136 0
810 -1822 -1218 -565 0
546 -1142 -771 0
1380 -406 0
1717 -1336 -912 -1553 0
408 -152 -1480 0
1063 -159 0
1054 -271 0
1272 -716 -1230 0
1079 -1989 0
-990 -244 -1243 0
-1349 -481 -1085 0
1654 -947 -500 -965 0
821 -835 -45 -1980 0
331 -723 -1224 0
521 -1086 0
-1607 -1673 -1322 -480 0
543 -1946 -865 -1950 0
1312 -256 0
176 -138 -51 -1706 0
-415 -1821 0
781 -8 0
-1565 -250 -369 0
716 -276 -183 0
446 -631 0
-254 -669 0
1197 -1410 -1074 -6 0
1686 -1794 -1992 0
-178 -1515 0
1899 -1244 -830 -192 0
558 -628 0
1109 -1458 -553 -1442 0
172 -354 -1182 0
-515 -618 -305 0
1246 -1512 -917 -1859 0
1332 -45 0
-1838 -733 0
585 -1207 0
1274 -642 0
38 -1198 -1731 -969 0
1946 -928 -1857 -1717 0
252 -451 -618 0
878 -928 -1204 0
1793 -567 -142 -1252 0
1102 -1669 -752 -1080 0
-1003 -1083 -467 -290 0
-1238 -1859 0
383 -540 0
1083 -636 0
-1913 -44 -295 -390 0
915 -891 0
-1236 -1807 -55 0
848 -1521 -226 -1216 0
-1066 -133 -868 -1133 0
1479 -436 -1341 0
-1289 -183 0
1338 -1182 -841 -547 0
1433 -1711 -1471 -1531 0
1694 -1941 -1071 -1186 0
1440 -1132 -39 0
1938 -941 0
-428 -1337 0
558 -564 0
932 -1336 -1993 -745 0
-1516 -492 -683 -1952 0
1019 -629 -1214 0
1105 -576 -740 -1311 0
1959 -414 -37 0
17 -232 -1665 -453 0
1092 -203 0
-943 -790 -1262 0
-1240 -885 -1578 0
1954 -1958 0
1968 -1201 -1362 0
1158 -756 -490 -1841 0
1811 -1285 -928 0
288 -24 0
1364 -730 0
-1944 -1449 -143 -1122 0
-54 -200 -216 0
781 -329 0
1106 -147 -878 0
-1831 -896 -1641 0
748 -898 -1984 -1318 0
739 -567 -789 0
-106 -36 -1304 -101 0
-120 -1416 -98 0
901 -1593 -1607 0
-691 -369 -1126 0
304 -1092 -4 -1051 0
1144 -1856 -1235 -581 0
-1265 -1216 0
-149 -1342 0
1252 -1285 0
214 -411 -1661 0
388 -992 -1884 0
1585 -407 0
172 -358 -1470 -1765 0
-159 -1585 0
-1376 -1757 -744 0
1474 -1138 0
1946 -663 0
858 -1613 -1724 -612 0
854 -741 0
1968 -105 -1101 0
1400 -1609 -96 0
-1116 -1738 -262 -1654 0
1288 -325 -507 0
900 -1918 -998 -979 0
140 -2000 -1886 -1029 0
308 -824 -528 -192 0
-1145 -1525 -442 0
1486 -1993 -1695 0
266 -370 0
-1548 -114 -322 -12 0
-1920 -1303 -428 0
990 -1535 0
1216 -1318 0
62 -820 -305 -3 0
88 -820 -834 0
1252 -1703 -1305 0
690 -825 -272 -742 0
1581 -1032 -1795 0
1844 -485 0
883 -1448 -1081 0
-730 -1354 -1466 0
1314 -1876 -1476 -781 0
-1310 -916 0
687 -1006 -84 -197 0
-880 -950 -177 -1223 0
-442 -1854 0
695 -369 0
-1939 -969 -726 -1184 0
-1255 -76 0
-946 -1719 -709 0
1266 -389 -1810 0
-286 -1430 -1436 -1807 0
-96 -286 -1250 -1348 0
1984 -1325 -580 -423 0
1622 -477 0
1583 -1776 0
-1446 -1729 -1656 -725 0
796 -1102 -1184 0
-501 -526 0
539 -312 -386 -1313 0
-555 -1778 -324 -1305 0
-117 -997 0
366 -1141 -667 -551 0
1757 -505 0
-69 -1303 -337 0
729 -63 0
230 -323 -868 -833 0
-614 -791 -1984 -802 0
1361 -1236 -510 0
1670 -764 -734 -100 0
1788 -792 0
978 -1357 0
239 -1539 -1474 0
1377 -1688 -113 0
-721 -424 -76 -1322 0
723 -1527 -1288 0
957 -1200 0
-1061 -222 -1528 0
-349 -231 0
153 -621 -1917 -288 0
1602 -1305 -1900 0
441 -1973 0
787 -435 0
591 -1265 -1731 0
340 -614 -438 -1515 0
1279 -647 -803 -1304 0
-638 -315 -1419 -291 0
1322 -154 -1388 -1217 0
1252 -169 -1185 -1251 0
879 -896 0
943 -504 -1001 0
894 -446 0
1987 -623 0
-1153 -911 0
94 -795 0
654 -24 -1153 0
-553 -1993 0
1389 -423 -419 -1135 0
1265 -341 -230 0
891 -1886 0
349 -1702 -120 0
-1270 -1734 -1083 -1830 0
-316 -524 -401 0
1359 -1471 -923 0
-610 -1606 -564 0
970 -1211 -1444 0
774 -684 -1962 -469 0
1900 -647 -541 0
602 -491 -790 -1795 0
-1164 -1182 -513 0
214 -124 -69 0
1053 -145 0
1690 -1509 0
555 -219 -1537 -1946 0
1967 -457 0
1876 -1354 -1729 0
1490 -1619 0
857 -187 -595 -1017 0
779 -21 -353 0
634 -427 0
230 -1656 -202 -388 0
-114 -947 -269 0
-1040 -1071 -1804 0
451 -1191 -1414 0
180 -883 -532 0
551 -56 -1316 0
827 -358 -840 0
854 -416 -1474 -349 0
-1455 -1403 -1536 0
-383 -1639 0
-1366 -1727 0
-142 -464 0
1212 -278 -1000 -1193 0
304 -877 -1842 -1267 0
1442 -941 0
-1499 -164 -243 0
278 -790 -1977 0
1199 -1113 -1733 -971 0
1102 -882 0
-1272 -216 -759 -462 0
-1983 -129 -313 0
-533 -1962 0
383 -1918 -1212 -360 0
1080 -1779 -899 0
596 -1306 -1271 -1296 0
1981 -1827 0
48 -152 -576 0
1426 -1310 -414 0
133 -1538 -72 -1914 0
-360 -751 -537 -796 0
79 -1445 0
-329 -1024 -53 0
1173 -668 -913 -1863 0
-580 -450 -927 -205 0
929 -961 -673 0
1102 -1728 0
66 -1109 -281 0
1511 -1151 0
1787 -820 -643 0
-323 -1917 -1288 0
-1223 -1691 0
1312 -1808 -1274 0
236 -989 -150 0
1178 -912 0
-1058 -706 -876 0
-1554 -372 0
34 -1836 0
552 -1205 0
926 -819 -1142 -1183 0
1688 -1358 -509 -1980 0
-68 -564 -1506 -1593 0
480 -465 -597 0
496 -1033 -1518 0
770 -1403 -1643 0
-721 -1616 -105 -209 0
929 -102 0
888 -1113 0
118 -774 0
-1336 -539 -599 -698 0
1497 -211 -1586 0
352 -103 -648 0
1409 -1927 -822 -1802 0
1148 -1366 0
460 -797 0
973 -830 -147 0
1690 -324 -106 0
-928 -1024 -1197 0
406 -1141 -1106 0
1666 -881 -1649 -1768 0
156 -1207 0
-1081 -1247 -655 0
-661 -65 -745 -266 0
454 -274 0
188 -1725 -1692 0
433 -1936 -1678 0
550 -495 -1537 -1173 0
158 -248 -1360 0
-1984 -1359 0
1415 -592 -836 0
-1534 -934 0
1501 -214 -592 -233 0
1407 -284 -1559 0
740 -1570 0
619 -773 0
-504 -954 0
287 -1264 -498 0
1412 -1794 -1562 0
1187 -1765 -284 0
-1403 -739 -550 -1280 0
-1395 -84 -886 -1819 0
155 -1732 -326 0
-652 -476 -71 0
278 -202 -280 -378 0
19 -3 -683 0
1517 -1914 0
1722 -1958 0
-541 -1598 0
1051 -1924 0
1047 -1070 0
1925 -1075 -707 0
763 -1756 -1538 -907 0
-1467 -698 -523 -810 0
1453 -781 -441 0
1404 -1009 0
1597 -612 -695 -885 0
389 -1836 -650 -401 0
-286 -920 0
1163 -1858 -1755 0
-1840 -1895 -1992 -1144 0
47 -382 -715 -153 0
1135 -1034 -449 0
1517 -1331 -524 0
948 -190 0
1877 -1130 -868 -725 0
12 -1260 -77 -956 0
244 -238 -671 0
-53 -438 -1545 0
1880 -1607 -228 -943 0
-1526 -654 0
-979 -539 -1253 -1362 0
1287 -777 -367 -1015 0
-787 -1851 -552 -136 0
-680 -268 0
-691 -1051 0
-1441 -9 -435 0
-4 -237 -1971 -145 0
893 -1452 -1997 0
97 -1740 0
394 -1502 -581 0
1620 -1883 -106 -1934 0
-1502 -862 0
1921 -1761 -1914 0
1193 -673 -445 -1177 0
-343 -1198 -461 0
1176 -1590 -1225 -296 0
115 -1686 -1141 -547 0
1403 -868 0
425 -140 0
1224 -1393 0
1024 -1011 0
1828 -193 0
1850 -379 0
-1700 -1441 0
307 -1593 -427 0
1121 -1416 -932 0
596 -1814 0
-1971 -1225 -917 -39 0
528 -1049 -547 0
-1522 -398 -102 -1853 0
835 -710 0
1846 -214 0
695 -372 -674 -1246 0
1259 -791 -1317 -385 0
468 -782 -643 0
-1602 -1770 0
472 -375 0
268 -636 -945 0
513 -1113 -487 0
-370 -95 -1859 0
573 -1377 -291 0
-988 -72 -1661 0
84 -1530 -252 -1389 0
1253 -1169 0
1559 -1978 0
1311 -196 -70 0
-1928 -645 -174 0
322 -707 -1563 0
1226 -888 -1045 0
1740 -1017 -1485 -269 0
664 -1907 0
-1470 -1067 -1412 -1094 0
-1422 -1166 -1654 -320 0
900 -228 0
-336 -969 0
-329 -1133 0
-1291 -1964 -1657 0
1201 -613 -1627 -1168 0
699 -624 0
-459 -165 -1525 0
503 -765 -1210 -913 0
627 -1635 -1208 -1308 0
-647 -712 -800 0
-1936 -1028 -819 -1836 0
1640 -1451 0
1998 -623 -1320 -1600 0
21 -489 0
-965 -761 -312 0
1025 -179 -352 0
1892 -990 -1858 -863 0
1085 -1772 -608 -1263 0
1986 -100 -320 0
1716 -263 0
-35 -1543 -327 -1216 0
1182 -951 0
1195 -1599 0
1543 -1735 -514 0
1292 -10 0
1158 -404 -416 -666 0
31 -290 -1511 -1993 0
456 -1180 0
-673 -165 0
359 -698 0
-1480 -1153 -1866 -1279 0
966 -615 0
1258 -970 -219 -1026 0
-1807 -1680 -451 0
-1497 -523 -512 0
-1329 -787 -1748 -1310 0
1935 -1367 0
-1252 -997 0
478 -1142 0
-416 -351 -730 -330 0
1972 -947 0
85 -297 -833 0
216 -457 0
-1620 -370 0
1623 -1792 0
-1089 -1100 -3 0
1476 -507 -1928 0
1679 -875 0
-1704 -406 -1080 -231 0
725 -206 0
-212 -1830 0
-1111 -501 -45 -1449 0
232 -143 -1254 0
1547 -246 0
812 -646 0
-1631 -1888 -920 0
312 -639 -862 0
1726 -405 -1809 -1958 0
1905 -1997 0
1217 -642 -713 0
198 -44 -1595 -1476 0
431 -1667 0
248 -160 -1782 0
580 -1808 0
367 -2000 0
1021 -711 -316 0
-1800 -431 -1099 0
1575 -1357 0
-1554 -43 -1033 0
1943 -1178 0
994 -419 -1755 0
-1998 -198 -906 -1352 0
169 -971 -1543 -359 0
738 -976 0
448 -619 -1261 -1955 0
-416 -1250 0
1512 -94 -1839 -176 0
-1757 -1421 -120 -19 0
-546 -868 -381 0
228 -869 0
-1253 -598 -359 -1320 0
1712 -1489 0
959 -839 -1561 0
816 -1190 -182 0
490 -920 0
1376 -1063 0
1473 -1566 -965 -478 0
-932 -498 -1159 0
1260 -1343 -1444 0
-13 -22 -376 -1644 0
-64 -1502 0
1709 -1207 -929 0
1356 -1359 0
1065 -843 -1501 -1274 0
-1674 -548 0
363 -1315 0
180 -1009 0
116 -36 0
1296 -1149 -1809 -1805 0
1660 -406 -1428 0
1681 -959 -1618 -1340 0
1141 -4 -1540 -1403 0
-33 -385 -1970 -439 0
-280 -312 -1651 -95 0
-59 -726 -82 -1584 0
-659 -1648 -806 -1277 0
25 -1817 -1871 -1069 0
-1661 -821 0
1121 -1521 -1504 0
1659 -1844 -1131 0
-1932 -479 -230 -950 0
-1371 -1736 -1499 0
1520 -1984 0
-1279 -400 -1776 0
463 -1520 0
793 -1981 -1852 -143 0
-1105 -1929 -1174 0
1316 -1163 -726 -1913 0
1836 -1665 0
728 -1838 0
245 -49 -1658 0
-1757 -134 0
672 -1445 -578 0
-1999 -86 -1945 0
766 -1045 -161 -1568 0
1127 -1384 -68 -1955 0
1103 -1984 -1662 -1062 0
1827 -36 -439 0
252 -1313 -305 0
-603 -124 0
1690 -224 -879 -1170 0
262 -1076 -649 0
1403 -870 -260 0
1281 -1238 -618 0
172 -1330 -1550 0
1646 -136 -1780 -964 0
1356 -462 0
-1421 -1652 -792 0
362 -1063 -180 -287 0
310 -508 -1876 -737 0
1052 -1182 -441 -557 0
1269 -1581 0
546 -63 -178 -1545 0
255 -855 -327 0
-147 -408 0
1000 -819 0
-1848 -425 -1585 0
-1666 -238 0
1499 -1396 -234 -622 0
-1325 -726 -96 0
-409 -1441 -726 0
-975 -775 0
585 -1329 -1756 -1679 0
1153 -230 -81 -1241 0
251 -240 -751 0
136 -1849 0
-511 -657 -63 -1549 0
546 -875 -1212 -262 0
-303 -1897 -1790 -1446 0
-1788 -249 -624 -1656 0
185 -1114 -455 0
1492 -577 -714 -267 0
498 -484 -1092 -1861 0
371 -642 0
1158 -1282 0
1468 -1296 -370 0
1672 -645 0
788 -716 0
1054 -1063 -384 -482 0
9 -1932 0
1139 -36 -765 -483 0
-1824 -483 -1214 0
-1736 -1515 0
-1944 -835 -714 -782 0
-1050 -1454 -211 0
-825 -1740 -337 0
96 -365 -1193 0
-1759 -147 -684 -641 0
1649 -586 -1996 -1671 0
1506 -256 -1138 -771 0
-989 -1982 0
-1832 -1197 -1607 -1414 0
-382 -1699 -1653 -1400 0
1635 -1610 -1628 -1641 0
-970 -525 -1650 0
1997 -85 -58 -800 0
1319 -897 -940 0
1513 -1967 0
-1391 -636 0
-217 -728 -1298 0
629 -1834 -966 -1983 0
703 -1426 -1808 0
694 -1716 -1502 0
1034 -1704 -1327 0
1217 -623 0
-568 -654 -1117 0
202 -1396 -551 -1167 0
1398 -1984 -1422 -96 0
690 -378 -1504 0
475 -411 0
1992 -323 -1666 0
333 -267 0
-407 -683 -1858 -1047 0
1943 -233 -343 0
893 -1157 -870 0
465 -1732 -747 0
1240 -1329 -25 -1639 0
-1366 -265 -246 0
170 -64 -1385 -419 0
1288 -1089 0
229 -1392 -1396 0
732 -125 -1226 0
1600 -152 -1804 -567 0
864 -1683 -796 -246 0
638 -1170 -150 0
1646 -241 -1693 -1347 0
676 -1438 0
-1085 -1535 -849 -392 0
1633 -93 -396 0
1485 -1531 -1776 -1414 0
-440 -140 -425 -696 0
-9 -1003 0
179 -732 0
540 -108 -1817 0
355 -1442 0
1565 -829 -743 0
155 -1466 -298 -1435 0
1506 -1124 -237 0
211 -190 -479 -1722 0
651 -1710 -1193 -1562 0
437 -244 0
-752 -261 0
-1847 -1806 -222 -365 0
730 -1941 0
946 -415 -173 0
639 -283 -986 0
1542 -1357 -1013 -913 0
1346 -475 -1937 -1056 0
627 -1764 -34 -1230 0
202 -1693 -258 -1122 0
1811 -1760 -635 0
1851 -1933 0
81 -443 0
1242 -135 -1316 -257 0
1812 -399 0
1812 -743 0
1858 -245 0
91 -180 0
1699 -60 -414 -878 0
-1177 -562 0
-108 -97 0
-840 -59 -777 -1657 0
626 -181 -1191 -525 0
932 -782 -990 0
-57 -671 0
1917 -1269 0
344 -1581 -14 -593 0
774 -285 0
-1243 -1961 -137 0
1018 -276 -615 -700 0
1442 -629 -342 0
1322 -146 -1526 -975 0
-1858 -1590 -517 -1140 0
360 -561 -1367 0
828 -865 0
-1032 -1126 0
-980 -391 0
-998 -697 -271 -850 0
1030 -216 -1044 0
1674 -245 -255 -1314 0
436 -182 0
785 -413 -1844 0
349 -1506 -1949 0
1269 -1604 -588 -507 0
-1420 -571 -398 0
1155 -1069 -1039 -1237 0
715 -276 -1730 0
1505 -812 -747 -116 0
-809 -561 -1336 -1506 0
1044 -1358 -1071 -53 0
-1997 -174 -1249 -917 0
-1267 -1689 0
1913 -1566 -366 0
315 -920 -923 -1553 0
1699 -1716 0
-1546 -1680 0
1834 -1407 0
1555 -895 0
-897 -1360 -1377 0
385 -398 0
379 -185 0
1146 -39 -1407 -1778 0
1232 -1845 0
370 -1740 -405 -74 0
-295 -14 -1402 -1138 0
-1900 -675 -1281 0
1477 -1034 0
452 -1398 -1226 -1307 0
418 -455 0
773 -652 0
-1794 -896 -1842 -1774 0
683 -1998 -468 -1748 0
1675 -1419 -342 0
1038 -1122 0
-70 -1667 0
-1994 -274 0
-921 -507 -832 0
1329 -94 -1009 0
-710 -610 0
121 -1050 -679 -6 0
-765 -296 0
368 -1905 -696 -252 0
1422 -809 -395 -79 0
596 -543 -1261 0
100 -832 -1367 -221 0
-563 -390 -1206 -702 0
-211 -468 -532 0
1157 -1423 -1253 -1216 0
1690 -1225 0
-1388 -382 -446 0
409 -782 -1137 -869 0
1011 -21 -124 -883 0
565 -421 -457 -1430 0
1623 -451 -1611 -1040 0
1824 -1783 0
699 -1560 -88 0
766 -1368 -1294 0
974 -1188 -1400 0
1604 -1588 0
-1544 -1834 -1254 -1600 0
132 -1084 0
456 -1651 -1 0
-1850 -422 0
-727 -1183 0
1366 -1323 -656 0
887 -790 -344 -245 0
1979 -1489 -1609 0
194 -159 -1264 -750 0
377 -1133 -1254 -1986 0
1842 -396 0
1203 -697 -1552 -512 0
1122 -1320 -1670 -64 0
1252 -109 -1524 0
990 -818 -1877 0
521 -1698 0
-747 -1066 -784 0
1274 -1159 -359 -1628 0
1430 -935 0
616 -100 0
824 -914 0
734 -1133 -770 -246 0
312 -1913 0
-1491 -478 -236 0
578 -924 -1689 0
317 -321 -104 0
1097 -653 -619 0
785 -1196 -1643 -617 0
1200 -819 -965 -664 0
1016 -550 -657 -1936 0
-870 -1425 -961 -1825 0
1995 -1154 -1592 0
1819 -1256 -1633 0
1862 -993 -1964 0
734 -1188 -1305 0
-925 -1755 -1150 -92 0
1252 -879 -1149 -1234 0
488 -113 0
1051 -609 0
-559 -441 -1507 0
-1986 -1145 -1066 -1347 0
138 -260 -1130 -1292 0
1556 -387 -842 0
-1943 -1941 0
509 -785 -1915 0
1417 -1617 -778 0
-1367 -766 -813 -400 0
319 -1496 -1446 -1589 0
20 -1644 -995 0
1114 -1591 0
1394 -1602 -1673 -1138 0
1661 -463 0
954 -30 -1354 0
-113 -1784 0
1527 -1844 -1460 0
1081 -1582 -253 -1710 0
1923 -484 -702 0
838 -576 0
-1272 -103 -1325 -87 0
930 -1006 -1179 0
585 -873 0
1079 -1930 0
1881 -1120 -312 -1155 0
370 -690 -900 0
320 -1431 -695 -825 0
-1064 -456 -470 0
1896 -599 0
620 -1844 0
1259 -1870 -888 -594 0
1300 -163 0
313 -422 0
1380 -264 -1036 0
-1582 -1117 0
-1038 -882 0
1934 -1362 -288 -104 0
1077 -730 -326 0
-1335 -1613 0
-869 -1312 -1766 -1425 0
-1636 -573 -1725 0
1572 -840 0
1860 -1981 -1573 -999 0
1254 -1632 -382 -82 0
776 -1728 -1512 0
-902 -1903 -154 -330 0
311 -297 0
1675 -612 -1380 0
430 -1596 -1306 -1513 0
-1917 -561 0
-1299 -377 -277 -1290 0
761 -251 -1869 -1992 0
1143 -895 -1300 0
374 -1825 -1278 0
-1161 -820 -1192 0
438 -693 -97 0
1373 -143 -804 -1375 0
512 -237 -559 0
555 -436 -552 0
999 -1011 0
851 -1111 0
1343 -990 -284 -1632 0
-1401 -1460 -439 -14 0
982 -1383 -1807 -1461 0
-281 -1244 -609 0
253 -1053 -211 0
-1647 -7 -217 0
219 -1677 -573 -608 0
279 -632 0
1213 -843 -227 -1705 0
1667 -1862 -223 -1172 0
1614 -1909 0
-876 -523 -935 0
884 -1782 -49 0
192 -1188 -154 -54 0
1899 -1399 0
-389 -1097 0
938 -1250 -829 0
-1064 -1668 -1400 0
320 -1850 -1058 0
-1966 -801 0
1992 -634 -551 0
810 -88 0
-1009 -1962 0
-429 -380 -1629 -609 0
1021 -1637 -711 0
808 -297 0
484 -926 -872 0
274 -955 -511 0
-31 -901 -1718 -629 0
-1675 -1439 -1121 -1379 0
437 -1571 -1786 -1163 0
-898 -928 -1389 -717 0
-834 -1176 -1831 0
107 -1141 -35 -621 0
-12 -1674 -1190 0
1679 -1883 -1438 0
1424 -1511 -840 0
209 -1191 -658 -272 0
1571 -1240 -17 0
1994 -1839 0
577 -243 -16 -1176 0
1253 -1927 -1502 0
-137 -686 -818 -1725 0
1419 -1632 -1809 -557 0
-1088 -798 -466 0
537 -356 -201 0
1772 -316 -1881 -453 0
-496 -82 -1707 0
1863 -958 0
-1932 -159 0
1168 -805 0
324 -520 -1244 -1390 0
1517 -24 0
-470 -1607 -1325 0
1880 -1416 0
1249 -1753 -447 -1280 0
1678 -97 -31 0
743 -1321 -76 0
812 -510 0
791 -369 -132 -583 0
1554 -1214 -1126 0
65 -1908 -1497 -1107 0
1009 -1110 -1207 -771 0
1410 -1884 0
-565 -1403 -1194 0
-1474 -1579 -1289 -1699 0
1708 -815 -1850 0
698 -1418 0
1682 -1095 -1142 -688 0
1684 -1478 0
-1917 -1122 0
391 -92 -185 -1013 0
505 -729 0
-1442 -1576 -1381 0
671 -1598 0
144 -548 -711 0
1787 -482 -1329 -821 0
654 -1939 0
1196 -551 -1432 -711 0
1234 -745 0
710 -59 0
258 -660 0
1756 -761 -751 0
639 -1971 0
153 -1562 -1782 -821 0
367 -482 0
1167 -1784 0
-1080 -1166 -322 0
1791 -712 -1921 -286 0
-1836 -1926 0
616 -501 0
630 -1036 0
1736 -932 0
782 -1811 -40 0
-1872 -12 -780 -1110 0
-1083 -1628 -1317 -1044 0
1969 -1723 -1256 -1326 0
1684 -1690 -1638 -1167 0
-648 -473 -484 -741 0
-776 -1847 -352 0
-1096 -1500 0
1364 -723 0
-532 -302 0
-1194 -509 0
1841 -852 -1962 0
-1699 -882 -478 0
963 -1467 -1990 0
-983 -1812 -136 -360 0
1039 -801 0
719 -1003 -384 -1869 0
1725 -1944 -713 -1751 0
-1349 -1301 -1980 0
-1088 -1796 -1000 -1103 0
1754 -762 0
1053 -950 -1797 0
1711 -304 -500 -1688 0
514 -219 -1957 -442 0
436 -5 -427 0
383 -1044 -857 0
1140 -931 -433 -82 0
1556 -4 -424 -296 0
-460 -817 -332 -513 0
-690 -1616 -1209 0
-233 -465 -865 -1073 0
1965 -826 -436 0
-694 -1125 0
-1453 -483 -233 -97 0
594 -1877 -1566 0
472 -594 -74 0
-991 -1480 -1025 0
491 -712 -1983 -1554 0
493 -1368 -786 -1762 0
338 -1301 -639 -1797 0
-1525 -251 -156 -515 0
-1728 -9 -531 -1837 0
-764 -1294 0
1285 -1509 -1798 -80 0
1058 -1458 0
8 -804 -412 -1733 0
214 -1520 0
1618 -159 -57 0
1983 -1272 -232 -1003 0
-1900 -239 -1550 0
716 -1686 -5 -205 0
1730 -438 -1931 -231 0
-1102 -1256 -534 -1726 0
-533 -1218 -597 0
1936 -99 -589 -557 0
582 -1499 -682 0
-1613 -1726 -1854 -841 0
1110 -1404 0
-1895 -1500 -1586 -1005 0
1209 -912 -484 -35 0
676 -1459 0
146 -1317 0
-1319 -1345 -1122 -1720 0
1767 -1721 -1429 0
955 -911 0
-1427 -217 -790 -1243 0
1942 -1109 -893 0
-767 -1408 -1857 -1166 0
-1561 -1686 -488 -127 0
1420 -98 0
189 -1638 -1449 0
1548 -1340 0
1894 -1533 -1216 -870 0
1965 -552 -886 0
847 -1614 -1007 0
750 -554 -783 -1608 0
1984 -824 -565 -160 0
-1871 -1050 0
1015 -1196 -675 0
-187 -323 -1165 -1127 0
-1268 -928 -1287 0
1399 -572 -1675 -990 0
-1810 -1160 -1398 -1354 0
1495 -1933 -889 -841 0
1604 -1994 -602 0
-1021 -424 0
1036 -1766 -509 0
1433 -1519 0
802 -1607 -563 -1328 0
1448 -428 -1684 -185 0
79 -1670 -1221 0
819 -1549 -52 -968 0
1632 -847 -1787 -271 0
370 -1307 0
-1319 -429 -963 0
1667 -1368 0
1039 -452 -462 -472 0
1755 -241 -898 -1616 0
308 -541 0
432 -554 0
85 -1443 -1481 -1709 0
170 -576 -1811 0
-1975 -19 0
-1173 -339 0
1852 -1207 -847 0
1742 -111 0
1915 -1473 -1743 -1044 0
1220 -332 -1828 -624 0
840 -432 -1452 0
681 -256 -85 0
1360 -437 0
406 -476 0
1194 -1151 -1395 0
962 -1434 -431 -259 0
1890 -1198 -403 0
1347 -716 -1762 0
928 -1397 -1029 -895 0
-380 -232 -752 -177 0
752 -287 0
535 -510 0
939 -1218 -1111 -1266 0
-1874 -1280 -1242 -244 0
64 -303 -1116 0
1793 -1713 -1355 -377 0
-1613 -1258 -1278 0
1224 -1108 -1292 -20 0
1345 -186 -733 -1305 0
-167 -481 -674 0
-306 -291 -1079 0
-694 -350 -1100 0
-1689 -322 -1101 -1728 0
376 -39 -1217 0
1784 -1270 -1559 -541 0
433 -1514 -1369 -1952 0
-1331 -464 -392 -1518 0
-1292 -715 -1978 -747 0
452 -894 -989 0
1384 -1000 0
1678 -1616 -1340 0
489 -1730 -695 0
1529 -109 -1996 -960 0
1793 -395 -667 0
118 -985 -1358 0
-802 -440 -85 -344 0
922 -1572 -349 0
-1733 -841 -7 0
-1004 -1235 -608 -1104 0
1953 -1184 0
178 -587 -1795 -864 0
1067 -291 -162 -1416 0
773 -1983 -202 0
1301 -856 -273 0
685 -1605 -244 0
331 -1706 -519 -623 0
1132 -994 -1160 -1631 0
516 -98 -989 0
1603 -433 -1636 -9 0
722 -1206 -224 -1097 0
675 -360 0
1051 -159 -792 -45 0
-1146 -880 -1901 0
846 -409 -27 0
1695 -891 -728 -836 0
1272 -887 -1731 -261 0
1784 -1953 -1243 -312 0
449 -1502 -1359 0
1936 -114 -695 -1313 0
-839 -1690 0
959 -901 -947 0
1996 -2 0
1162 -207 -298 -603 0
536 -1420 0
1160 -1290 -657 -804 0
642 -1897 -50 -105 0
1403 -1952 -462 -554 0
1654 -559 -205 0
1420 -1564 -799 0
349 -78 -1597 -145 0
1027 -1633 0
448 -1499 -1119 0
16 -849 0
1894 -1156 -862 0
560 -719 0
-214 -1977 0
78 -975 -826 -1227 0
80 -828 -816 0
1797 -1117 -1940 -1656 0
801 -690 -546 -186 0
-947 -967 0
-279 -288 -203 0
510 -1699 -1586 0
1137 -543 -1878 0
715 -1058 -951 0
1325 -1197 -183 -1850 0
-262 -1370 -1807 -1363 0
-1902 -1308 -1706 0
1693 -1040 0
1014 -1400 -270 0
1508 -1174 -1411 -1210 0
1170 -752 -1287 0
-570 -692 -1007 -1424 0
1610 -850 0
1499 -1459 -1665 -91 0
882 -75 0
-1351 -1737 -1129 0
1091 -1486 -570 -70 0
1745 -372 -380 0
304 -944 -1799 0
408 -1273 0
-1494 -1590 0
1815 -1046 -537 -1627 0
1925 -1062 -1614 0
808 -853 0
226 -353 -574 0
-202 -1348 -1312 0
1641 -582 -1119 -629 0
-11 -1724 -463 0
1606 -420 -768 0
1592 -723 0
137 -744 0
1147 -529 -1487 -831 0
-1986 -1550 0
-158 -666 -370 -882 0
-16 -814 0
1501 -196 0
246 -111 -626 -107 0
1995 -354 0
1874 -86 0
1390 -225 -1659 -1552 0
-1127 -1184 -1346 0
756 -1791 -59 0
316 -649 -827 -1391 0
908 -1992 0
-1050 -953 -707 -1292 0
689 -1318 -120 -232 0
-1301 -886 -1267 -312 0
1428 -379 -1083 -711 0
-191 -346 -1319 0
-97 -102 -844 -785 0
1064 -1942 -746 -1550 0
-1258 -917 0
360 -1668 -1342 0
706 -1061 -531 -954 0
-1223 -1871 0
122 -1092 -1161 -1774 0
1909 -848 -1319 -1317 0
1966 -1820 0
1340 -110 -553 0
1687 -1114 0
623 -773 -823 0
1819 -159 -179 -556 0
1063 -1792 -325 0
717 -833 -1469 -150 0
1231 -792 -1473 0
886 -754 -311 0
1248 -190 -673 0
-266 -1453 0
1566 -234 -9 0
44 -693 -1807 0
-868 -1597 0
1264 -1462 -899 -322 0
-1502 -1549 -1320 -501 0
1815 -1633 0
391 -1413 0
890 -1552 0
482 -521 -545 0
1600 -424 -1488 0
-625 -762 -806 -1672 0
113 -1832 -1138 -739 0
1140 -1453 0
1759 -874 -861 0
-1605 -396 0
-1563 -434 -256 -1503 0
-228 -943 -949 0
847 -755 -1615 0
772 -1280 -151 0
-170 -805 -404 -1122 0
307 -1408 0
331 -1282 -22 0
1186 -869 -1704 0
-1667 -579 0
525 -1089 -568 -436 0
729 -529 -1429 0
-991 -1804 0
1619 -885 0
1193 -480 0
565 -1624 0
-797 -737 -1930 0
1098 -1264 -257 0
1510 -318 -1637 -443 0
1064 -334 0
219 -32 0
-55 -1673 -1738 0
867 -1755 0
454 -283 -1367 0
-1369 -642 -448 -99 0
-952 -798 -818 -1105 0
456 -1193 0
1308 -1762 -1709 -567 0
-661 -1189 -65 0
-388 -215 -1791 -1788 0
1544 -158 -1958 0
1785 -669 -956 0
-469 -1751 -1985 -850 0
1286 -1719 0
1886 -1591 -1258 0
-1316 -403 0
1797 -1674 -1583 -399 0
1955 -1147 -1555 -1871 0
-1805 -1228 -876 -1213 0
721 -157 -1677 0
899 -491 -1919 -334 0
1718 -643 0
1021 -785 -1243 0
-621 -720 0
731 -352 0
-194 -1573 -154 0
789 -367 -889 0
1644 -1451 -104 0
277 -736 -1200 -111 0
964 -185 -1749 0
365 -1472 -1378 -793 0
858 -336 -1623 -798 0
1473 -998 -266 0
-662 -307 -1775 -186 0
805 -1027 -1867 -795 0
1018 -1091 -303 -177 0
-1218 -1558 -773 0
1716 -713 -1081 0
993 -1978 -1373 0
-599 -269 -1914 0
1377 -553 0
-1827 -1251 0
-1454 -329 -695 -543 0
1287 -161 0
-1768 -302 -1616 -219 0
-1619 -1227 -136 0
183 -1483 0
482 -1964 -452 -1797 0
349 -455 -188 0
1817 -1149 -898 0
17 -11 -352 0
-1928 -1028 -706 0
79 -352 -573 0
284 -493 -1530 -565 0
-1850 -834 -508 0
937 -1310 0
1420 -1985 -117 -1034 0
1013 -768 0
853 -995 0
764 -1190 -1830 0
-1445 -1708 -1734 -1926 0
172 -222 -1680 0
283 -1804 -1524 -760 0
-984 -1301 0
1151 -1715 0
1602 -1147 -746 -564 0
364 -1499 -650 -1283 0
1225 -78 -90 0
1189 -1081 0
-1514 -963 0
713 -1365 0
49 -1481 -94 0
445 -1635 -241 -98 0
842 -414 -1680 -575 0
-1252 -1298 0
343 -860 -1514 -204 0
-830 -101 0
651 -1875 -1229 0
-1216 -481 0
1603 -121 0
1843 -509 -1846 -634 0
-885 -1515 -749 0
-150 -1864 -15 -442 0
691 -250 -1775 -86 0
336 -1790 -69 -733 0
1901 -156 -1288 -1867 0
1233 -1927 -1685 0
-1377 -1094 0
215 -1868 -1011 0
1143 -431 -25 0
486 -1452 -1843 0
568 -1386 0
-835 -361 -196 -673 0
788 -769 -1639 0
1762 -1749 -709 -1291 0
-1894 -165 -972 -28 0
-346 -408 -1268 -927 0
1398 -696 -1139 -707 0
505 -536 -1803 -453 0
-922 -1510 0
108 -1058 -743 0
615 -1065 -1116 0
668 -1100 -1862 0
1862 -880 0
-1894 -1258 0
1702 -449 0
921 -334 -405 0
1524 -1536 -1458 -1228 0
1286 -1934 -1738 0
158 -533 -32 -1735 0
-770 -1423 0
962 -944 -1270 -1230 0
1634 -1457 -195 0
539 -782 0
1741 -1864 -971 -184 0
-1491 -1633 -507 0
1366 -647 0
219 -952 -1858 -1421 0
-1305 -1011 0
1043 -64 -275 -394 0
1462 -178 0
-1112 -1765 -652 -1118 0
122 -545 -785 -64 0
1594 -910 -1522 0
1095 -1267 0
-1268 -1600 -1039 -1454 0
413 -384 -786 0
-442 -215 -758 -1032 0
-1274 -1686 0
1756 -268 0
923 -659 0
1143 -1431 -19 0
1194 -48 -1952 -169 0
1094 -1514 -634 0
-1173 -320 -244 -1362 0
1678 -1614 -1276 -103 0
19 -1677 0
-1818 -332 0
196 -772 -30 0
1828 -1730 -637 0
-1892 -234 -1012 -1135 0
-21 -185 -707 0
490 -1814 0
1768 -854 -1980 -47 0
95 -978 -1953 -721 0
543 -259 0
1158 -508 -1609 0
1584 -1579 -1538 0
880 -781 0
-1043 -1581 -36 0
1886 -957 -1157 0
1598 -138 -322 -1813 0
-218 -1422 0
1303 -980 0
175 -964 -108 -1118 0
707 -1214 0
231 -1583 -348 -802 0
-1555 -1878 0
-226 -854 -217 0
-590 -1600 0
165 -209 -547 0
1060 -1155 -382 -917 0
389 -598 0
1168 -1817 0
1349 -908 -827 -694 0
525 -396 -393 -1580 0
-1591 -1246 -203 -985 0
1884 -801 0
1686 -1252 -1815 -1564 0
1733 -1205 -131 -1110 0
894 -604 -254 0
1706 -762 -1663 0
1500 -724 -168 -990 0
942 -859 -1967 0
287 -1895 -533 -37 0
1359 -1188 0
918 -565 0
626 -920 -1322 -383 0
-187 -297 0
1631 -792 -1258 0
-1911 -1654 0
1964 -373 -340 0
1332 -1950 -462 -392 0
1129 -905 -164 0
-73 -1063 0
782 -1818 0
845 -1542 0
-760 -1970 -1138 0
1270 -971 0
1539 -780 0
-279 -1191 0
984 -510 0
-1959 -1066 -1992 0
352 -1681 -893 -176 0
904 -1692 0
-863 -1484 0
1033 -1030 -1280 -1227 0
1074 -623 0
1304 -247 -1861 -1832 0
-247 -474 0
-1008 -438 0
1208 -1457 -1968 0
1237 -844 0
1743 -1542 -1905 0
1281 -1241 0
1332 -305 0
-1409 -1854 -12 -1303 0
-1256 -365 -663 -1231 0
-108 -1724 -160 -250 0
971 -1667 -1006 -1454 0
-1806 -1399 -1687 0
1650 -583 0
1857 -1177 -132 0
1503 -1763 -1043 0
1245 -979 -1568 -1589 0
-1617 -1216 0
477 -277 0
611 -261 -408 -448 0
59 -1717 0
-111 -1609 -591 -1692 0
1235 -948 -1043 -779 0
-1286 -1903 0
680 -793 -1783 0
1211 -119 -1523 0
1963 -693 -1079 -264 0
1556 -284 -793 0
94 -726 0
1178 -1975 -617 -1029 0
1244 -951 0
990 -1586 -35 0
-1976 -1445 -707 0
659 -596 -1772 0
351 -1043 -1381 -831 0
474 -591 -1921 0
-656 -1187 -771 -259 0
-332 -1307 0
1004 -133 -1196 -404 0
755 -1819 -1826 0
-1750 -313 -123 -1423 0
1272 -1103 0
1907 -1704 -737 -1927 0
-1029 -408 0
1680 -545 0
-1286 -860 -1843 0
905 -1460 0
-403 -1037 -100 -888 0
1688 -413 -204 0
1119 -1425 -110 0
1281 -977 0
-432 -698 -97 0
1052 -1998 0
-493 -368 -1717 0
1937 -802 0
-796 -959 0
-64 -750 0
867 -1822 0
-1956 -816 -129 -582 0
1658 -1184 -1958 -1721 0
360 -1008 -1 0
-498 -1766 -1153 -1671 0
-1275 -1642 -784 0
911 -53 0
-412 -1801 0
372 -1085 0
-309 -1871 -1710 -1853 0
985 -249 0
217 -1884 -439 0
997 -1045 0
-82 -660 -580 0
1940 -543 0
1581 -540 0
601 -1473 0
453 -1170 -317 -1864 0
1548 -1755 -692 0
1205 -1241 0
1128 -1987 0
1129 -1097 0
293 -358 -475 -897 0
535 -1209 -79 -495 0
1409 -797 -1919 -861 0
1812 -1910 0
-749 -733 -1924 -1749 0
1763 -850 -541 0
41 -968 -59 -853 0
-998 -1774 -1011 -1044 0
-1941 -435 0
864 -1931 0
259 -1325 -356 -404 0
1066 -1568 -1197 0
1950 -611 0
1912 -1483 -814 0
793 -1908 -1542 -880 0
-202 -289 0
-455 -697 -1695 -1557 0
1798 -1894 -304 0
1503 -586 -499 0
-1913 -567 0
1419 -137 -93 -1024 0
1842 -368 0
138 -1291 -1342 0
1066 -93 0
1020 -130 0
-1290 -1664 -535 0
-1117 -244 0
821 -1549 -1430 0
1303 -1261 -411 -541 0
1092 -1818 0
808 -1213 0
580 -1078 -1914 0
636 -635 0
107 -23 0
219 -1041 -1127 0
485 -1809 -1159 -236 0
1648 -1027 0
1745 -1224 0
947 -1836 -562 0
358 -1102 0
1658 -1942 0
144 -1780 0
703 -592 -511 0
1233 -319 0
-307 -829 -17 -459 0
948 -810 0
1247 -1376 0
78 -204 0
527 -116 0
1532 -535 -141 0
1773 -1338 0
741 -1084 -992 0
1529 -765 -1555 0
-873 -1271 -1657 0
-410 -1009 -1144 -36 0
-1419 -1659 0
-1393 -1584 -1819 0
-682 -5 -653 -1856 0
298 -1997 0
814 -1928 0
-927 -1245 0
-266 -1641 0
-1284 -895 0
-829 -1184 0
1035 -128 -354 0
338 -1343 0
-1339 -338 -1098 -1072 0
548 -853 0
-1760 -560 -1392 0
1710 -126 -1315 -1176 0
-889 -1786 0
1592 -373 0
-835 -1609 -956 -621 0
1668 -648 0
1002 -1717 -793 0
1922 -1369 -819 0
254 -769 -588 -725 0
1779 -633 -1393 0
1731 -472 0
910 -1533 0
-1354 -1030 0
772 -306 -714 0
384 -860 -578 0
133 -1114 0
-980 -1367 -1257 -800 0
-45 -1219 0
1796 -1084 -1551 -493 0
209 -591 -879 0
-1575 -731 -869 -333 0
-717 -71 -1922 -1783 0
493 -1009 -1074 -689 0
-848 -17 -1397 -341 0
875 -1405 0
-1035 -252 -1249 0
1892 -276 0
1214 -49 0
-1082 -1793 -161 -1263 0
1007 -130 -1361 -616 0
469 -700 -927 0
-456 -277 -464 0
1570 -1980 0
380 -1048 -839 -306 0
1085 -1280 -707 -1299 0
1901 -361 -607 0
374 -1553 -740 -520 0
-41 -1581 -1115 0
1116 -1219 0
256 -1302 -1126 -1166 0
745 -460 -1639 -1957 0
-522 -1094 -698 0
-219 -1501 0
687 -613 -496 0
1026 -1978 -734 0
1986 -1638 -470 0
1417 -49 -346 -1362 0
1131 -892 0
-1636 -113 -1158 -1434 0
1351 -850 0
741 -1976 -989 -1299 0
-1948 -896 -1469 0
35 -1446 -888 -1390 0
580 -1151 -541 0
1857 -175 0
-756 -427 -365 -1959 0
-136 -1207 -797 0
1478 -1960 -611 -384 0
-680 -1193 -581 0
-1670 -1863 -1983 -1533 0
462 -871 -1713 -472 0
447 -1994 0
1209 -1691 -163 0
831 -1558 -1471 -1421 0
1851 -2000 0
-1261 -233 -474 -1814 0
412 -1406 0
1534 -1912 0
1380 -145 0
1143 -1470 0
1543 -1436 -12 0
-347 -266 0
-976 -1360 -228 0
1848 -1729 -707 0
-1045 -92 -1360 -424 0
-1631 -153 -571 -140 0
222 -1449 -1769 -1124 0
1993 -578 0
-1255 -1055 -1454 -434 0
1688 -1966 -260 0
81 -1489 -1202 -1914 0
1370 -1397 -248 -191 0
1339 -572 -243 -1118 0
428 -978 -572 -1600 0
405 -1409 -1216 0
-1317 -728 -1661 0
1942 -1682 -1461 -950 0
827 -1397 -757 0
1052 -1085 -1419 0
306 -230 0
1533 -680 -1539 -85 0
1576 -185 -1970 0
1123 -1113 0
491 -1645 -1826 -1644 0
-746 -306 -1574 -874 0
-252 -355 -1023 0
1332 -1147 -510 0
-382 -244 -1565 0
-1643 -1809 -1768 0
-926 -1954 -843 0
1949 -1257 0
1110 -873 0
1818 -1661 0
1705 -201 -1743 0
442 -467 -1794 -1042 0
-1723 -692 -554 0
-1835 -124 0
-985 -1982 -109 -787 0
-1620 -1172 0
1017 -825 0
1296 -1537 0
-1922 -837 -1632 0
781 -1891 0
1761 -1216 -1520 0
-145 -1710 0
1722 -1133 -500 -285 0
1020 -598 -1008 0
167 -174 -547 0
-711 -284 -575 0
-1137 -1725 -1138 0
-1920 -990 -622 -1141 0
1474 -387 0
-1916 -1411 0
-656 -262 0
5 -1685 -107 -243 0
1281 -857 -250 -837 0
-717 -1508 -1058 -569 0
1282 -1090 -67 -1462 0
258 -177 -1081 -88 0
301 -1425 -1902 -1156 0
1135 -1140 -1432 -1240 0
417 -1509 -1879 0
1340 -993 -937 0
839 -749 -1999 0
806 -926 -1977 -1059 0
1466 -1092 -402 -599 0
282 -125 0
1799 -28 0
1798 -1178 -20 -702 0
583 -802 -1464 0
865 -3 0
840 -181 -638 -1921 0
-690 -894 0
1814 -1404 0
1402 -1794 -694 -1594 0
1640 -425 -312 0
-1940 -1336 0
950 -820 0
-1294 -1387 -470 -840 0
47 -1791 -1232 0
1768 -1902 -281 -452 0
348 -1594 -595 -321 0
874 -1026 0
585 -122 -1801 -1920 0
768 -821 -182 -612 0
65 -348 -1598 0
207 -1912 -27 0
969 -1177 0
1174 -907 -216 0
-30 -1103 -145 -1856 0
166 -218 -504 0
-1013 -107 0
695 -1915 -1849 0
192 -1802 -846 -1683 0
1874 -749 -1149 -642 0
-1996 -1746 -564 -256 0
-1458 -978 -23 0
1730 -21 -981 -1508 0
763 -1583 0
1767 -135 0
222 -1354 0
1221 -933 -1439 0
-1653 -970 0
-605 -439 0
-494 -617 0
563 -118 -376 0
-1932 -246 -1172 0
-990 -1502 -463 0
-153 -1358 -1896 -449 0
1467 -1008 -1688 -1011 0
1531 -305 -1932 0
1700 -1508 0
-9 -716 0
-1983 -632 -215 0
220 -293 -741 0
930 -1360 0
-503 -1542 -569 0
-1203 -889 -71 -1556 0
293 -240 0
908 -919 0
1453 -1106 0
88 -718 -1802 -321 0
1256 -6 -507 -1579 0
579 -957 -1814 0
-1681 -779 -931 0
1926 -1042 -1798 -881 0
-1394 -1387 -1329 0
736 -1215 -807 0
229 -74 -1891 -460 0
1846 -475 0
-527 -1268 0
1676 -1327 -1467 0
51 -1901 -722 0
-1841 -1110 -1125 -1464 0
1656 -1298 0
58 -1109 -1765 -1392 0
282 -323 0
539 -736 0
1112 -783 -1054 0
-946 -724 -754 -1034 0
-1857 -1426 0
53 -642 -634 0
963 -59 -1709 0
-58 -334 0
923 -1812 0
-560 -1640 -361 -1339 0
681 -86 -918 -395 0
506 -1322 -869 0
1608 -1094 -1972 -831 0
-900 -748 -1598 -996 0
2 -729 0
-588 -121 -855 -413 0
-1150 -637 -1022 -1803 0
1769 -851 -698 0
837 -1623 -338 -1834 0
-350 -334 -1532 -227 0
450 -1807 -1146 0
1040 -1732 0
1294 -1513 -737 0
249 -1693 -1305 0
357 -1369 0
501 -836 -1134 -1739 0
1480 -876 -641 0
1077 -605 -424 -1615 0
771 -1830 -657 -867 0
478 -1021 0
211 -276 0
155 -272 -329 -1787 0
44 -1862 -1224 -511 0
-359 -24 -1019 0
-657 -257 -973 -1151 0
1332 -253 -999 -376 0
-1486 -1237 0
-1677 -434 -877 0
742 -1068 -1786 0
51 -840 -1940 0
-1776 -139 -1641 -736 0
1578 -18 -1975 -1003 0
694 -1817 0
-1857 -1176 0
-1007 -137 -688 0
1921 -1303 0
-1374 -1467 -37 0
-1308 -972 -1257 -842 0
1833 -68 -1009 0
86 -1365 -1086 0
1814 -1361 -418 -1456 0
1670 -613 -831 -557 0
-923 -1690 -43 0
1379 -1489 -659 -672 0
73 -1862 0
669 -720 0
1631 -1597 -1404 0
-1586 -120 0
1954 -349 0
462 -1304 -1658 -918 0
1232 -43 -1475 0
515 -1637 0
1189 -493 -913 -243 0
1513 -1578 0
703 -754 0
-1194 -426 0
1429 -848 0
-1226 -180 -1234 -1352 0
1732 -1350 -1892 -244 0
-1637 -1435 -1719 -1186 0
1549 -546 -186 -1369 0
1894 -1313 -1947 0
1370 -1844 0
1404 -297 -1739 -1017 0
1247 -1586 0
701 -639 -1134 0
1823 -337 -1828 -468 0
1176 -877 -1960 0
288 -923 -495 -18 0
-1245 -3 0
1247 -1975 0
-1487 -1848 -254 0
-831 -1143 -738 -1719 0
1779 -1687 -1254 0
1249 -185 -983 -1601 0
1947 -307 0
1839 -1724 -1955 -1220 0
203 -1195 0
1091 -930 -971 -1874 0
14 -476 -1261 0
35 -753 0
808 -865 -1792 -1693 0
-620 -1477 -397 -849 0
1889 -1828 -1767 0
1396 -650 -1855 0
594 -1685 0
1146 -904 -1986 -1758 0
1540 -740 -1698 -1690 0
-1228 -1607 0
1650 -682 0
1526 -306 -1775 -876 0
1622 -1283 -375 -607 0
1083 -1049 -277 -581 0
23 -1311 -582 -247 0
746 -1103 -820 0
-1693 -122 -1048 0
1180 -920 0
287 -212 0
396 -1136 0
839 -1238 -1187 -1602 0
-1554 -929 -1239 -1222 0
908 -348 0
-1870 -1887 -1179 -655 0
62 -1815 0
-895 -1908 -986 0
1135 -509 -237 0
1170 -739 -176 0
600 -741 -409 0
720 -1036 -1314 0
344 -434 -1111 0
956 -1428 -1678 0
1600 -753 -205 -341 0
1979 -239 -1948 0
1210 -1775 0
-494 -1311 0
31 -902 0
721 -1647 0
1084 -546 0
104 -1594 -1587 -1872 0
35 -433 -947 0
971 -649 -1462 0
969 -968 -757 0
-1699 -988 -380 -900 0
336 -1550 -1605 -280 0
109 -342 -37 0
1168 -1964 0
-1219 -495 0
783 -546 -481 0
932 -873 -421 -1817 0
1770 -1974 -1959 0
1836 -1972 0
-170 -168 -1229 -500 0
904 -1340 -159 -1334 0
-1761 -1606 0
71 -1389 0
822 -780 -838 0
1661 -1339 -983 -318 0
269 -190 0
1514 -1265 -611 -730 0
1679 -977 0
814 -1471 -1098 0
1726 -1301 0
1956 -1879 -1291 0
1926 -1971 -1947 -817 0
259 -956 -497 0
1157 -575 -725 -664 0
1805 -353 -1567 0
1722 -65 -927 -207 0
-1441 -1443 -712 0
833 -412 -812 0
-308 -78 -1968 0
659 -1653 0
1823 -917 -165 -550 0
547 -1013 -1234 -277 0
1720 -639 -1984 -1078 0
1668 -1830 -951 0
-777 -1237 -729 -1704 0
871 -107 -1516 0
1843 -1219 -800 0
152 -1905 -446 0
-1889 -1493 -809 0
1861 -816 0
658 -1183 0
-1663 -1936 -225 -1818 0
1171 -1239 0
1857 -52 -514 0
-1947 -1877 0
446 -618 -718 -1981 0
-1022 -91 -535 0
22 -1195 -1369 0
-676 -1917 -703 0
1817 -193 -136 0
521 -484 -1514 -269 0
862 -1964 -1114 0
533 -1042 0
1926 -289 0
450 -171 -1104 -1286 0
304 -1378 -1080 0
356 -1204 0
931 -1192 -1959 0
1818 -872 0
231 -1164 -1917 0
902 -421 0
664 -52 -535 -1110 0
-1245 -600 -1229 0
1479 -571 0
-1113 -1398 -394 0
1179 -1077 -1017 -265 0
1041 -344 -1938 0
686 -1201 -995 -1927 0
1236 -789 0
205 -1201 0
1617 -1915 -308 -386 0
-1290 -890 -1461 0
1258 -729 0
1254 -1786 -1976 0
1905 -1349 -195 -1362 0
1198 -1674 -776 0
1876 -1673 -503 -1820 0
1294 -1631 0
-813 -992 -936 -1643 0
1130 -1302 -656 0
683 -1600 0
1103 -898 -821 -254 0
1657 -869 0
1899 -46 0
1640 -609 -1758 0
955 -33 0
-1495 -386 0
1146 -211 -831 -270 0
1758 -332 -514 0
1970 -619 -645 0
-935 -57 0
1000 -911 -1479 0
1243 -957 0
-1712 -1985 -704 0
142 -1208 0
-820 -288 0
611 -33 0
586 -1666 0
17 -1851 -1900 -1439 0
296 -1847 0
1518 -71 0
975 -65 -1733 -1628 0
-1277 -484 -1568 0
1110 -432 0
447 -1986 -818 -808 0
1076 -1300 -1862 0
511 -1429 -1275 -1113 0
1033 -1534 0
1951 -447 -1819 -1481 0
267 -1016 0
-554 -1109 0
-1721 -1163 0
311 -650 -1993 0
1276 -685 0
-878 -259 0
443 -816 0
-279 -1283 0
614 -423 0
170 -770 -854 -1169 0
655 -914 -1507 0
123 -1024 0
984 -165 -1584 0
-1645 -536 -779 0
372 -698 -1003 -1617 0
1767 -35 -304 -1067 0
1752 -212 -540 -1554 0
-1590 -1369 -457 -286 0
1213 -897 0
-1984 -465 -1300 -147 0
482 -77 -696 -590 0
1350 -1848 -492 0
-10 -1095 -192 -1062 0
809 -1003 0
-479 -1428 -142 -1225 0
856 -150 0
1174 -773 0
-1040 -1910 -1353 0
213 -1824 0
-1777 -1658 -616 0
-826 -114 -504 0
1709 -1426 -14 -366 0
1537 -1772 -1601 -988 0
1515 -294 0
-1355 -1347 -1047 0
413 -1902 -1585 -609 0
957 -1141 -1796 -379 0
1721 -1564 -903 -772 0
-766 -393 -719 0
1582 -1995 0
435 -728 -707 -93 0
1766 -36 0
943 -1600 -1893 -612 0
-1410 -504 0
-201 -325 -1914 0
-568 -191 -18 0
1211 -39 -652 0
1540 -1187 -1339 -367 0
791 -1961 -319 0
-360 -1520 0
-1794 -1702 -1174 -1293 0
595 -1426 -964 0
1703 -462 -1884 -1368 0
-240 -1020 -1703 -834 0
158 -1768 -261 0
723 -1036 0
521 -898 0
-785 -385 0
186 -432 -679 0
1019 -211 -1151 0
12 -1525 -201 0
1589 -53 0
1714 -1896 0
136 -1228 -1357 0
577 -1679 0
394 -1095 -1113 0
261 -879 -396 0
1260 -337 0
-1638 -866 -1590 0
-311 -15 0
1974 -121 0
215 -1020 0
-1186 -422 0
478 -1914 -693 0
1473 -853 -488 -795 0
1735 -812 0
716 -993 -994 -1170 0
-435 -1810 -1613 0
1915 -1631 -1958 0
1717 -1094 0
1991 -1669 -1360 0
370 -1451 0
1368 -1749 -759 0
-1087 -1894 0
1311 -1941 -725 0
-616 -1828 -1140 0
-1835 -1124 0
-416 -1639 -1418 -547 0
1967 -1269 -672 -695 0
709 -1395 -163 -1585 0
1316 -811 -504 0
1341 -812 -53 -537 0
1689 -1787 -482 -694 0
1957 -1786 0
335 -1894 -1071 -1680 0
-1622 -1886 0
67 -1873 -223 -1467 0
925 -995 -1830 -1287 0
381 -777 0
-1183 -1343 -1939 -1885 0
-792 -1479 -1131 -1705 0
-349 -1715 -1311 0
-1016 -82 0
-388 -549 -488 0
2 -995 -1636 0
983 -310 -542 0
-1630 -1898 -986 0
1446 -93 -1019 -518 0
1765 -964 0
-656 -527 0
1018 -70 -1433 0
1319 -1175 0
1195 -756 -1806 -1688 0
1898 -1005 -498 0
-1337 -1367 -150 0
-1671 -1874 -418 -1562 0
841 -1917 0
787 -1406 -934 0
-165 -1343 -1800 -19 0
1726 -1732 -1910 0
976 -1680 0
1190 -424 -1042 0
1692 -1879 0
1006 -1313 0
1776 -1291 -1668 -295 0
100 -1793 -1771 0
1033 -503 -1359 0
-1584 -774 -220 0
1838 -1251 0
260 -1611 0
-1745 -1321 0
-101 -1051 -764 0
1059 -1630 -578 -965 0
-490 -1230 0
-1558 -153 -465 0
1182 -1173 -912 -1947 0
806 -1622 -19 0
1802 -826 -358 0
1220 -523 -1077 -1233 0
121 -938 -725 -1999 0
645 -1622 -1885 -197 0
1963 -626 0
1013 -1785 0
-1874 -1049 -1414 -1013 0
1781 -734 -1363 -1754 0
-1145 -1486 -1374 -1810 0
1571 -308 0
1569 -1195 -1010 -1906 0
422 -515 -713 0
1706 -1788 -79 0
-901 -1839 -1033 -81 0
1502 -1789 -1792 -1981 0
1578 -395 -351 -1429 0
1568 -841 -231 -1650 0
-1180 -1259 -103 -96 0
-852 -1687 -585 0
-172 -913 0
-433 -377 -117 -989 0
64 -1116 -1162 -264 0
1162 -1330 0
593 -1251 -530 -1935 0
-1830 -595 -1357 0
1936 -985 -972 -1158 0
-381 -1717 -109 0
165 -17 -241 -1100 0
1647 -1221 -1679 -299 0
-1220 -716 -787 0
684 -639 -318 -210 0
1927 -1507 0
821 -735 -1586 0
382 -1734 -1769 -1300 0
688 -83 0
1005 -1459 -910 -849 0
1602 -1501 -1605 0
-317 -985 0
1415 -835 0
-215 -881 -176 -707 0
1370 -795 -1060 0
-780 -902 -418 0
104 -138 -1938 0
735 -606 -1358 0
-138 -151 -1385 -1757 0
942 -1197 -1599 0
808 -11 -213 -481 0
1899 -1236 -860 0
-287 -256 -1301 0
907 -963 -612 -1322 0
1628 -456 -1863 0
-922 -1372 -825 0
1641 -980 -765 -1710 0
1990 -1536 -1431 0
888 -798 0
1337 -1596 -110 0
1508 -734 -448 -1325 0
867 -1999 0
1643 -1870 -676 0
996 -1012 -812 -243 0
230 -848 0
1295 -526 -221 0
1953 -1601 0
-1935 -1616 -1514 -974 0
1744 -8 -1362 0
998 -996 -1367 0
1483 -1165 -1032 -196 0
922 -1122 -395 0
28 -605 0
-330 -1973 0
1924 -1337 0
83 -67 -334 0
1362 -1172 0
315 -527 -623 -665 0
1443 -1433 -660 -1481 0
-683 -1321 0
-286 -947 -627 -927 0
881 -1238 0
555 -1119 0
633 -1536 -103 -1176 0
1716 -373 -1426 -974 0
-18 -156 0
507 -1114 -2000 -610 0
779 -1158 -1382 0
1297 -448 -1650 -686 0
893 -684 0
357 -1533 -1513 -1450 0
1984 -746 -839 -1238 0
1535 -758 -683 0
1104 -1643 0
1427 -1533 -377 -1318 0
1299 -983 -623 0
874 -1757 0
1033 -1466 -1915 -1074 0
-1950 -1128 0
-449 -1882 -504 0
45 -534 -52 -915 0
1425 -597 0
1119 -573 -1500 -387 0
1094 -44 -1006 0
72 -1321 0
-1466 -1701 0
-734 -1087 -213 0
-275 -1295 -1226 0
1586 -1998 0
1688 -1541 0
-398 -910 0
353 -325 0
1324 -893 -480 -1211 0
-810 -814 -50 0
-891 -672 -1552 0
436 -1581 -1950 -1331 0
365 -784 0
1144 -377 -1910 -1259 0
1837 -701 -243 -902 0
-506 -1901 0
401 -971 -69 -1732 0
994 -1245 -1188 -1651 0
61 -1450 -1037 -1477 0
-991 -1548 -104 -970 0
1957 -725 0
1156 -1969 -132 -1414 0
-1733 -1309 -1650 -1920 0
-152 -193 0
-1811 -675 -1350 0
-1034 -1234 -1663 0
1464 -1827 -809 0
288 -234 0
1061 -464 -510 -314 0
1372 -628 -281 -1252 0
1450 -1443 -458 -255 0
-107 -1225 0
962 -1565 -1447 -931 0
-1223 -1207 -118 -1994 0
-188 -121 -189 -581 0
1464 -967 -557 0
-1818 -1864 0
370 -663 -289 0
91 -415 0
1206 -1607 0
1095 -127 0
1134 -90 -1720 -744 0
-214 -1734 0
1147 -1265 -197 0
324 -1169 0
666 -1369 0
1227 -867 0
278 -23 -1449 -137 0
1438 -687 -102 -902 0
541 -996 0
138 -1924 -738 0
-455 -723 -322 -670 0
1454 -1741 -668 0
585 -645 -1418 0
1692 -1635 0
750 -1309 0
1420 -1747 -1628 -365 0
585 -1576 -697 0
97 -1506 0
-449 -1737 -665 0
-681 -1346 -537 0
58 -345 -1360 0
-1129 -1213 0
876 -1953 -1434 0
724 -282 0
-1919 -595 0
1194 -424 -618 -1909 0
-793 -1872 -342 0
1182 -360 -110 -1735 0
1007 -1920 -1987 0
1582 -130 0
133 -51 -264 -1144 0
1770 -1347 -1210 0
846 -1407 -1583 -169 0
671 -822 0
484 -349 -1482 0
1514 -660 0
1644 -505 -1945 0
-744 -1851 0
1014 -1516 -410 0
-451 -139 -726 -792 0
-1159 -282 -216 -623 0
146 -1469 -1133 0
-878 -1530 -1898 -654 0
-283 -337 0
-1544 -1738 -1838 0
-1333 -614 -1030 -1628 0
-511 -1344 -140 -1411 0
1292 -1567 0
1442 -1350 0
740 -1955 0
1187 -230 -650 0
1099 -647 -1771 -1963 0
-991 -321 -618 0
1118 -608 0
984 -630 0
-477 -396 -1931 0
-994 -514 0
-312 -837 0
497 -248 -1843 0
1965 -1316 -398 0
-962 -810 0
287 -512 -1182 -1954 0
925 -1337 0
1869 -615 -611 0
-1104 -1067 0
580 -1933 0
824 -886 -404 0
-311 -46 0
-837 -1592 0
-1798 -1399 -540 -373 0
546 -365 -449 -770 0
1441 -351 -1475 -1693 0
457 -1575 -1822 0
-938 -1919 -986 -1630 0
-102 -1581 -955 0
1830 -1778 0
-221 -391 -1818 0
1661 -1410 0
345 -1643 -1041 0
1814 -1984 -158 -1004 0
-371 -1267 -1820 -306 0
552 -1572 -1542 -1214 0
-1404 -50 -1969 0
991 -1149 0
155 -1351 0
396 -1966 -1598 -1975 0
348 -131 0
-229 -86 0
-1293 -9 -633 -1226 0
-1426 -1458 -183 -1720 0
927 -1488 -1809 -132 0
204 -807 0
1561 -289 -1220 -995 0
1041 -1355 0
-1559 -89 0
1908 -803 -811 -1612 0
-418 -1075 -85 -1943 0
1117 -1346 -192 -1133 0
827 -887 -1813 -642 0
333 -712 -735 -1966 0
-1732 -573 -1353 -1762 0
403 -224 -1305 -996 0
-190 -1320 -415 -1810 0
829 -1086 -868 -1030 0
586 -15 0
1816 -1355 -1062 0
34 -912 0
-1204 -1498 -1624 0
-302 -1145 0
1508 -1477 -672 -2 0
-978 -1040 -1234 0
367 -1548 0
-1334 -435 -1686 -1213 0
983 -1342 -1681 0
1380 -1607 -923 0
-1370 -1725 0
-1799 -147 -1191 0
1604 -1439 0
-502 -1951 -1679 -1423 0
859 -11 0
1255 -1994 0
987 -1554 -1478 -828 0
-872 -488 -1746 -438 0
-557 -799 -1728 0
-1330 -566 0
-1435 -1197 -976 -1688 0
1121 -1089 -1770 -17 0
311 -996 0
217 -1527 0
1034 -1314 0
998 -90 -1954 0
1544 -1419 -1232 0
-116 -509 -683 -1166 0
-282 -557 -681 -1264 0
770 -705 0
1468 -83 -683 0
1319 -1679 -563 -299 0
1135 -1353 -405 0
603 -1946 -171 -693 0
1668 -745 -868 0
-1982 -931 0
156 -1810 -224 -221 0
1851 -687 0
1047 -1780 -1044 -465 0
-237 -1142 -434 0
-1179 -1487 -178 -1229 0
-55 -1305 -1584 -1387 0
-424 -1500 -1714 -1095 0
739 -575 -1957 -1109 0
1277 -424 0
928 -213 -1716 -664 0
-86 -290 -1391 0
-1628 -1922 0
385 -73 0
77 -918 -914 -1630 0
1869 -865 0
1914 -952 -653 0
1071 -288 -1329 0
-1309 -619 -37 -1878 0
1677 -396 -468 -381 0
611 -416 -1824 -484 0
-1266 -635 -1763 -563 0
417 -1641 -31 0
1807 -1685 0
551 -89 -1453 0
-1035 -226 -1971 0
736 -1619 0
488 -1416 -481 0
849 -707 -1384 0
1973 -59 -1376 0
1854 -1412 -1774 -927 0
1231 -913 -1533 0
-1728 -1920 0
1702 -159 -1651 0
1125 -409 0
637 -763 -397 0
-273 -788 -1470 -980 0
1255 -1529 -100 -1675 0
901 -1451 -854 -983 0
822 -25 -608 -402 0
1039 -69 0
875 -1469 0
1213 -496 -1272 0
1653 -248 -1391 0
-1662 -1587 -573 0
-836 -341 0
588 -1053 0
1165 -717 0
814 -1707 -905 0
1883 -825 -56 0
1207 -1603 0
1816 -1560 0
177 -566 0
1713 -579 -1124 0
-1591 -141 0
1125 -1847 -1472 0
1436 -509 -1861 -810 0
1701 -1686 -1673 -1974 0
225 -607 -419 0
1155 -301 0
-309 -777 -1043 0
1551 -1505 -1439 0
-28 -496 -609 0
1182 -68 0
1485 -65 -1892 -1996 0
-1990 -1043 -814 0
1223 -354 0
-1850 -735 0
-1074 -1350 -690 0
-278 -1327 -1323 -1729 0
32 -790 0
1392 -1020 0
318 -469 -67 -1957 0
540 -656 0
1086 -1169 -1333 0
-226 -593 -2000 -499 0
644 -1759 -1760 0
1132 -464 -101 -1143 0
930 -557 -1386 -306 0
-1954 -905 -952 -323 0
1615 -1960 -1452 -923 0
1783 -1506 0
-452 -830 -739 -998 0
150 -564 0
1944 -1272 -428 -1475 0
1500 -161 -709 -913 0
663 -367 -316 -582 0
245 -743 -1925 0
199 -135 -1876 0
1743 -478 0
1210 -1798 -319 0
1016 -1456 0
-1514 -1047 -1615 0
-1962 -1093 -1709 0
1443 -361 -832 0
-1022 -531 -750 0
-1005 -644 0
-672 -647 0
35 -921 -769 0
1737 -190 -1481 -678 0
964 -1958 0
-314 -628 0
1325 -276 -716 0
411 -1903 0
1224 -1102 -1065 0
-745 -1792 -1495 0
-1257 -483 -1302 -469 0
584 -1730 -660 0
-930 -1274 -1827 -36 0
-1907 -1683 0
1259 -1815 0
1154 -41 -505 0
1589 -1095 -1850 -1132 0
-1158 -1312 -1476 0
1142 -1605 0
1914 -395 0
-499 -874 0
1849 -1180 -1842 0
-621 -1930 0
701 -1057 -1818 -953 0
-124 -1886 -1800 0
-103 -1963 -310 0
1019 -1352 -22 0
1961 -979 -49 -273 0
383 -1255 -496 0
1841 -721 -1831 -1106 0
490 -215 0
1638 -353 0
263 -1455 0
1904 -1997 0
12 -574 0
1293 -1412 -1631 0
1352 -718 0
554 -214 0
1642 -34 -1515 -1625 0
102 -1571 -1865 -962 0
251 -1042 -1623 -1925 0
-175 -227 -779 -1181 0
664 -33 0
-513 -1303 0
-1362 -1227 -655 0
286 -1965 -53 0
831 -528 0
1014 -522 -1938 0
-1512 -1705 -1405 -1069 0
-1363 -1210 -908 0
1451 -768 -303 -984 0
204 -1415 0
1441 -601 0
517 -1791 -1087 -1784 0
1117 -861 -830 0
-1276 -903 0
970 -1354 0
-337 -1612 -1797 -235 0
-1090 -23 -1175 -1298 0
-1182 -1187 0
515 -120 0
1326 -1537 0
1459 -738 -479 -1042 0
259 -392 -1363 0
-165 -671 -682 0
1923 -1872 -1622 0
-467 -1355 -175 -1907 0
-1039 -272 -1378 -1637 0
1518 -762 -1296 0
204 -1314 -784 0
-1866 -1778 -489 0
1138 -450 0
-758 -516 -510 0
345 -1115 0
1231 -120 -1771 0
1731 -239 -1055 0
619 -1822 -1641 0
-104 -632 -496 -1782 0
301 -1561 -477 0
886 -1381 0
893 -981 0
-901 -1684 -1072 -1363 0
1791 -1994 -643 -1937 0
-1002 -1921 -704 -641 0
-1170 -1834 -390 -1889 0
-939 -120 -951 0
1687 -845 -1775 -1721 0
272 -478 -1632 0
938 -274 -1936 -1696 0
1095 -1867 -895 -604 0
1999 -511 -305 -353 0
-333 -1377 -1873 0
1030 -1395 -410 0
-1394 -1076 -1459 0
1868 -1078 -1740 -297 0
-1877 -669 -99 0
1945 -194 -898 -1139 0
1265 -807 0
1439 -362 0
1021 -637 -203 -1873 0
492 -1743 -479 -1908 0
-446 -1665 -1943 0
1602 -335 0
-772 -537 -885 0
1074 -948 0
1170 -1831 0
1725 -368 0
1143 -144 -826 -944 0
-160 -1066 -1862 0
-684 -1545 0
1272 -391 -790 0
928 -5 -919 -1911 0
1573 -272 0
-1061 -910 -1775 0
1982 -1891 0
1847 -1162 -287 0
964 -436 0
501 -1582 -1695 -439 0
982 -689 0
615 -1007 -1195 0
-641 -177 -1201 0
-454 -924 0
1486 -1371 0
1387 -1077 0
1283 -1957 -1021 0
-359 -1828 -746 -1106 0
215 -1586 -1528 -1078 0
721 -1471 -649 0
1330 -758 -354 -710 0
-1004 -1398 -1232 0
737 -77 -43 -1662 0
-289 -255 -1106 -276 0
-1119 -1577 -797 -1854 0
533 -1311 -434 -1572 0
-1573 -526 -114 -1798 0
218 -799 0
-888 -1199 -30 -1424 0
1395 -1353 -1157 0
418 -936 0
728 -1622 0
-269 -1378 -1874 0
-1879 -719 -1605 -30 0
1934 -1636 -495 -1151 0
1978 -1542 0
484 -679 0
-1705 -1899 -1701 0
-1327 -528 -1984 0
645 -1251 -24 0
1850 -1364 0
608 -539 -846 0
-1666 -875 -134 -691 0
1174 -1720 -1352 0
744 -1279 0
292 -1609 -326 -1415 0
-769 -362 -1797 0
-1974 -1910 -1856 0
358 -479 0
475 -1646 0
1988 -546 -1432 0
-705 -470 0
1885 -960 -857 -1042 0
-25 -1788 -1168 -131 0
456 -1428 0
1718 -249 0
-473 -968 -724 0
1432 -346 0
-467 -91 0
-612 -148 -1170 -327 0
205 -1380 -1954 0
356 -1518 -821 0
1537 -1090 0
173 -558 -1129 0
-1597 -251 -882 -1104 0
-1990 -1831 0
726 -1143 0
2000 -1590 -1135 0
1885 -705 -1315 0
-1630 -1094 -92 -1927 0
-1070 -923 0
910 -299 -1773 0
1467 -940 0
1688 -1949 0
1467 -1991 -1082 0
77 -261 -374 0
1983 -303 0
1409 -1129 -39 -1667 0
1785 -1609 -1840 0
-395 -1613 -553 -1356 0
1046 -1455 -928 -1910 0
-1582 -1081 0
548 -1531 -953 -1238 0
-1974 -904 -513 0
833 -1156 -1357 0
1454 -1586 -831 -1854 0
467 -797 -979 -483 0
1876 -655 -194 0
1823 -1505 0
297 -861 -425 0
269 -1801 -1952 0
123 -342 0
804 -106 -1829 -843 0
917 -1903 -1110 -1802 0
-1604 -1643 0
431 -1380 -173 0
1357 -1994 0
-671 -628 -1952 -356 0
1169 -1224 -965 0
-1955 -1522 -292 0
-882 -1168 0
1376 -1630 0
1936 -1172 -1141 -617 0
920 -1971 -561 0
829 -1538 -1693 0
-1336 -1328 -1157 -1597 0
4 -1372 -1853 0
37 -1225 -657 0
888 -204 0
-16 -223 -197 0
-1770 -641 0
1479 -1841 -1930 -758 0
773 -246 -1410 -1899 0
-1425 -248 -1782 0
831 -533 0
976 -455 -263 -1039 0
-1604 -1174 0
1878 -141 -1109 0
-1965 -735 -768 0
1819 -1807 -1686 0
1859 -744 -485 0
1678 -574 -127 -621 0
229 -212 -440 -837 0
-450 -356 -1688 0
-300 -136 0
502 -566 0
-922 -1631 0
271 -600 0
736 -960 -268 0
817 -1876 -1301 0
902 -722 0
1295 -1631 -1685 -1513 0
1753 -1884 -1947 -60 0
425 -305 0
1431 -2 -1803 0
1462 -752 0
82 -536 -1855 0
-141 -153 -348 0
1497 -800 0
1430 -803 -219 0
534 -1045 -165 0
926 -832 -251 0
342 -49 -880 0
-1477 -1164 -1612 -1805 0
1932 -667 0
1577 -1913 -1352 0
-135 -239 -66 0
1807 -285 -264 -1259 0
-723 -1021 0
387 -1250 0
1071 -1614 0
-1600 -1905 0
1237 -1209 -1953 -750 0
-175 -1251 -96 0
1898 -788 -883 0
915 -1500 -1071 -1118 0
1268 -1329 -396 0
1901 -1894 -1835 -1095 0
-1711 -2000 -279 0
-962 -446 -46 -1899 0
-1228 -500 -1586 -1005 0
-1623 -1741 -362 0
959 -1540 0
-1688 -151 0
129 -1233 -810 -961 0
-1562 -750 -692 -233 0
33 -203 0
567 -885 -1233 0
-259 -442 -1448 0
1933 -561 0
1287 -1394 0
710 -819 0
-286 -1988 0
786 -269 -333 0
796 -1194 -1849 -360 0
1843 -297 0
113 -1617 -314 0
-1977 -1532 -1107 -804 0
384 -1950 -1037 0
1128 -766 -1942 0
1653 -1541 0
863 -1620 0
1058 -930 -1915 0
1916 -1024 -594 -558 0
1280 -750 0
297 -1999 0
-18 -1309 0
-491 -1948 -1648 -210 0
46 -283 -77 0
-270 -1590 0
1493 -1824 -515 0
934 -1671 0
1065 -447 -728 0
822 -403 -274 0
-740 -1396 -1075 0
1268 -705 -910 -1549 0
1408 -275 -1394 0
888 -1142 -1882 -1278 0
591 -1673 -1833 -649 0
149 -314 -1401 0
-1327 -1427 -1845 -629 0
172 -1921 -1234 0
849 -1795 -588 0
491 -599 -60 -1253 0
-1943 -752 -153 -1026 0
238 -726 -1205 0
1128 -696 -1513 0
-1998 -195 -1798 0
504 -830 -296 -1176 0
-595 -1559 0
-1310 -1282 -1394 0
875 -1370 -661 -428 0
758 -864 0
1224 -846 -617 -634 0
-717 -399 -1055 0
1271 -1952 -914 0
144 -267 0
-317 -760 -248 -716 0
-1796 -1086 -1720 0
1636 -886 0
1298 -396 -113 -954 0
678 -1831 -361 0
-1340 -1880 -953 -1886 0
707 -1450 0
709 -610 -599 0
186 -55 -1915 0
-959 -1840 -611 -1178 0
-144 -83 -673 0
786 -1825 -1396 0
1750 -250 -246 -1820 0
821 -1889 -871 -417 0
1306 -611 -1088 -1704 0
-399 -638 -553 0
582 -1042 -1384 -1196 0
-1239 -1442 0
-275 -1963 0
212 -1626 -196 0
910 -690 0
1548 -1578 0
-1166 -455 -972 0
-1757 -854 -1471 0
1595 -1256 0
191 -252 -316 -170 0
156 -1846 -1897 0
145 -1087 -1625 -1228 0
1342 -1717 0
1334 -32 -1291 -871 0
845 -680 -1789 -937 0
122 -770 0
-767 -1815 0
1813 -475 0
1968 -935 0
-669 -110 0
58 -1675 -935 -1148 0
-27 -993 -1165 -579 0
1595 -196 -759 -1457 0
-1314 -435 0
-992 -455 -830 0
-908 -274 0
-1662 -1871 0
387 -475 -1253 -198 0
1884 -1660 -967 0
1597 -886 0
-515 -440 0
-731 -924 -1356 -1631 0
-160 -1792 -1959 -269 0
1076 -1193 -1233 -99 0
1770 -650 -1684 0
-1968 -734 -238 0
508 -1110 -486 0
654 -764 0
-490 -29 -677 0
1968 -982 0
1633 -278 0
72 -1601 0
1282 -432 0
1148 -1294 -84 0
859 -1841 0
-613 -198 -751 -18 0
213 -999 -1052 0
369 -668 0
446 -9 -1842 -1478 0
-284 -663 -808 0
-1528 -307 -1084 0
-42 -1508 -1527 -362 0
596 -1904 -1549 0
1227 -775 -249 -338 0
-981 -1093 0
894 -576 -321 0
1506 -85 -1221 0
338 -1650 0
1867 -75 -1179 -1719 0
660 -46 -1777 -926 0
-1788 -860 -1877 0
523 -1856 0
1802 -197 0
1771 -1776 0
1820 -78 0
1098 -191 0
175 -1797 -289 -783 0
-1920 -716 -401 0
1146 -445 -1209 -1763 0
-966 -554 -925 0
1740 -1 -213 0
805 -460 0
1828 -1567 -50 0
1048 -528 -1686 0
-296 -776 0
1734 -1965 -1653 -1378 0
781 -1832 -1007 0
-418 -1702 -867 0
-1769 -1695 -854 0
1398 -1611 -1045 0
1629 -1782 0
1113 -1502 0
1444 -509 -1519 0
-682 -1797 -166 0
185 -577 -531 0
988 -243 -1522 0
-1430 -1768 0
-779 -1665 0
131 -1324 -325 -190 0
1478 -1866 -1482 0
1452 -54 -1865 -1587 0
1585 -429 0
1134 -1453 0
1742 -1186 -82 -683 0
1772 -592 -725 0
1514 -1905 -406 0
1073 -246 -1625 -769 0
1114 -73 0
385 -468 0
-979 -405 -619 0
-1465 -713 -217 -324 0
1042 -1291 -205 0
1056 -1253 -1669 -309 0
-1211 -532 -632 -1828 0
166 -1929 -1477 -1547 0
1150 -850 -403 -372 0
1944 -111 0
1391 -59 0
696 -611 0
1072 -727 -1542 -497 0
923 -558 -564 0
1962 -374 0
907 -1295 0
-1948 -922 0
143 -1255 -436 -1360 0
1679 -1796 0
-1730 -994 0
448 -1514 -833 0
955 -1604 -1520 0
-703 -1291 0
-1485 -1580 0
-1891 -538 0
1808 -606 0
-758 -157 -1491 0
1633 -261 -1390 -1382 0
1336 -624 0
-1600 -1177 0
908 -1780 -793 0
1250 -1682 0
1905 -2000 -1971 0
549 -834 0
5 -137 0
557 -671 0
1091 -1419 -721 -144 0
295 -600 -852 0
155 -1490 0
489 -905 0
-1041 -1767 -1360 0
-1755 -923 -1604 0
516 -809 0
446 -1865 -689 0
1625 -1696 0
-714 -34 -545 0
544 -507 0
652 -1334 -366 -852 0
556 -598 0
1786 -1926 0
892 -150 -1411 0
582 -299 -1557 -415 0
857 -699 -569 0
1595 -506 -340 -1756 0
-1407 -1587 0
1755 -1384 -687 0
1092 -1350 -1826 0
-1415 -1473 0
377 -482 -1662 -769 0
1806 -1448 -690 -740 0
-550 -1853 -1357 0
1131 -1343 -625 0
-30 -844 0
-456 -635 -239 0
482 -111 -221 0
-1302 -1260 -278 0
988 -976 -981 -837 0
915 -550 0
851 -314 -1636 0
255 -1761 -1983 0
-1454 -641 0
1301 -388 0
665 -681 -1886 -1604 0
358 -1872 0
1769 -615 0
1749 -655 -1945 0
858 -893 0
912 -216 -1073 0
1035 -119 0
-1817 -964 -18 -1796 0
-1719 -1557 -1225 -739 0
1780 -259 -1622 0
1225 -562 -1481 0
1229 -1271 -1973 -398 0
1370 -1176 -1587 -469 0
42 -190 -996 0
1248 -1890 -515 -1924 0
-396 -1235 -660 -1138 0
-951 -1788 0
769 -1314 0
158 -1011 -701 0
906 -1507 -954 0
1789 -1284 -1799 0
1376 -1979 0
1569 -456 -1603 0
87 -1657 -970 -1533 0
1580 -1254 -655 0
-1797 -663 0
1956 -1402 -206 -1958 0
906 -1258 -182 0
1682 -632 -147 0
-716 -1128 0
1301 -1152 -1210 -1291 0
1466 -1412 -128 0
-1997 -400 -1254 -1993 0
-285 -347 0
803 -1790 0
232 -78 -1675 0
-1887 -1754 -258 0
399 -1827 0
-165 -761 -687 -485 0
-940 -716 -1899 0
1702 -211 0
1732 -1971 -1576 -1080 0
-1706 -1235 0
849 -685 -290 -1535 0
87 -90 -189 0
719 -1556 -1702 0
748 -462 -278 -1810 0
-611 -1388 0
382 -1660 -452 -1003 0
-1975 -910 -940 0
64 -1562 -1782 -1982 0
190 -679 -1435 -87 0
1487 -243 0
1317 -1798 -1908 -1525 0
-1672 -988 -1718 0
797 -60 0
1909 -1048 0
-330 -1963 -965 0
-611 -883 -1772 -1009 0
1643 -76 -1869 -640 0
611 -1753 -1729 -305 0
1675 -115 -1838 -963 0
1037 -409 -1889 0
866 -640 -849 -643 0
269 -1803 0
344 -1402 -1556 0
1908 -890 -754 -1060 0
1239 -214 0
1228 -1224 -1959 0
-232 -1080 -547 -62 0
-1769 -683 -252 0
-1261 -1934 -734 0
197 -41 -674 0
1548 -533 0
1731 -211 -1443 -304 0
-42 -1176 0
1424 -681 -16 0
-7 -1032 0
1486 -631 -1434 0
-1283 -174 0
-1545 -898 -1093 0
-1310 -423 -1020 -1142 0
386 -1610 -963 -449 0
1323 -1596 0
1332 -1330 -795 -202 0
-1960 -1049 -785 0
1325 -1777 -146 -960 0
-330 -926 -376 -800 0
441 -1715 -429 -1730 0
1481 -264 0
170 -1037 0
363 -1428 0
1061 -1072 -1703 -707 0
-470 -192 -1147 -1749 0
348 -793 -1112 -1579 0
161 -1979 -786 0
51 -1993 0
740 -1405 0
1462 -1983 -1908 0
225 -1403 -944 -1306 0
1888 -619 -1892 -1672 0
-1732 -1865 0
-475 -505 -1451 0
1698 -1901 -85 0
-679 -580 0
100 -113 -1358 0
-1328 -1500 -1167 0
1283 -1705 -789 0
1937 -218 0
-1888 -416 0
1925 -1329 -1143 -1294 0
-539 -1772 -957 -767 0
5 -49 -490 -1019 0
-1120 -1403 0
959 -881 0
1990 -404 0
-527 -825 -1086 0
-1167 -1929 -1608 0
-21 -1056 -1424 -1801 0
-84 -653 -288 0
1790 -738 0
1382 -1558 0
1756 -907 -902 0
884 -1378 -668 -1555 0
-584 -912 -1710 0
1635 -1150 -1115 0
1201 -1785 -1799 0
1645 -1157 -631 -594 0
1252 -1209 -95 -1111 0
414 -1606 0
-1994 -1372 -1723 -370 0
1299 -1486 -951 0
-714 -1408 -1098 -1145 0
-1492 -1326 -641 0
425 -1360 -1529 0
-191 -154 -269 0
1416 -286 -1966 0
-374 -1654 -362 -901 0
820 -256 -1087 -830 0
539 -1954 -1208 0
766 -1675 0
762 -1702 0
1055 -1179 -1474 -848 0
-869 -191 0
200 -1476 -494 -722 0
1638 -152 -1199 0
318 -1541 0
950 -1617 0
990 -636 -460 -262 0
-668 -1268 0
-1194 -1003 0
-491 -1027 -184 -1331 0
-500 -1817 -313 0
1408 -1848 -1852 -1028 0
613 -204 0
1049 -166 -1716 -911 0
-132 -391 -213 0
-275 -126 -904 0
733 -854 -451 -684 0
1731 -1279 0
-466 -270 -471 -1560 0
1773 -1419 -1513 -114 0
-154 -857 0
1717 -1075 0
342 -485 -187 -1422 0
336 -104 -834 0
1127 -573 -1258 0
-664 -1369 -1117 -629 0
494 -1564 -1191 -1370 0
1768 -1176 -1247 0
-603 -1666 0
-1215 -5 0
791 -1066 -394 -1792 0
694 -646 -1427 -539 0
1499 -309 -396 -525 0
203 -263 -1760 0
754 -1307 -185 0
608 -103 -490 0
-1508 -204 0
-1693 -712 -152 -1744 0
-1477 -1982 0
108 -1167 0
1272 -1228 -591 -224 0
884 -816 -397 -118 0
-1428 -1037 0
1861 -1118 0
-760 -1428 -105 -153 0
272 -1132 0
-1811 -25 -1648 0
-1366 -1456 0
166 -1679 0
1754 -242 -13 -1511 0
-1732 -1075 -1630 0
-14 -90 -805 0
-937 -194 -1469 0
-1641 -958 -547 -314 0
-1823 -1870 -711 0
1630 -1896 -445 0
1620 -1384 -87 0
136 -154 -1213 0
266 -1002 0
1490 -156 0
1248 -458 -1826 -1801 0
-1222 -1512 -656 -31 0
-483 -1472 0
86 -1486 -1610 0
338 -1043 -1183 0
1963 -1628 -1706 -1844 0
-640 -341 0
476 -995 0
166 -1096 0
1030 -743 -1852 -568 0
1838 -328 -1309 -1512 0
330 -67 -340 0
268 -1396 -137 -741 0
613 -811 -1195 0
-1385 -593 -68 0
320 -1304 -550 -1755 0
288 -375 -713 0
833 -1766 -1923 -359 0
-1862 -1696 0
411 -1264 0
1884 -1218 -954 0
319 -1903 -1808 -444 0
262 -702 0
511 -761 0
374 -1561 -58 0
-527 -48 -512 -1361 0
1309 -1945 -136 0
-385 -605 -1888 0
-1107 -621 0
1922 -1019 -2000 0
415 -1893 0
917 -103 0
-1049 -1322 -1652 -1069 0
757 -1547 -1905 0
1392 -1390 0
1608 -993 -1745 0
-1712 -218 -514 -441 0
483 -123 0
1869 -482 0
656 -793 -1513 -878 0
462 -1810 0
1946 -1838 -1728 0
1345 -1140 -8 0
-1581 -1902 -140 0
378 -1582 -1933 -1477 0
1237 -692 0
478 -36 -408 -948 0
-473 -355 0
-1076 -42 0
-510 -324 -489 0
707 -1606 -622 -1738 0
629 -1763 0
78 -1665 -184 -1758 0
1329 -922 -406 -17 0
1038 -565 0
538 -1858 -1831 0
464 -740 -850 0
-1768 -712 0
-1289 -235 -574 0
1805 -1057 0
338 -1470 -1697 -871 0
184 -493 -1028 -155 0
-1266 -538 0
1925 -1178 -1475 -1809 0
246 -1106 0
485 -1182 -1009 -610 0
-1248 -278 -1961 -1523 0
660 -1579 0
-544 -851 0
1683 -1042 0
837 -1376 0
-1607 -1281 -1772 0
937 -1224 0
490 -1318 0
-384 -1289 0
1613 -1834 -49 -1081 0
494 -1308 -1078 0
511 -1261 -186 -319 0
-1287 -830 -1303 0
-1024 -626 0
799 -133 -302 -1639 0
148 -1568 -851 -1971 0
1025 -1649 -1749 -453 0
-102 -1760 0
1488 -995 -1680 0
-1750 -93 0
59 -817 -537 -195 0
-141 -488 -929 0
1637 -1681 0
352 -1540 0
-674 -1797 -726 0
-614 -448 -713 -1055 0
308 -321 0
1747 -1782 0
703 -1305 -1443 -130 0
775 -1457 -1554 -151 0
493 -1091 -1135 -763 0
1068 -911 0
477 -1987 -1063 -838 0
1412 -1639 0
623 -732 0
1289 -1766 0
-1005 -543 0
90 -1759 0
1024 -439 -1413 0
1243 -214 -34 0
-370 -193 0
620 -481 0
683 -1156 0
-788 -360 0
947 -329 0
-593 -304 -192 -1635 0
1168 -98 0
1182 -1099 0
1966 -1227 -371 0
-1854 -28 -1138 0
132 -951 -409 -1246 0
-256 -1872 -444 0
1708 -1061 0
-282 -732 -758 0
860 -1021 -1044 0
191 -1054 0
1565 -120 -1153 -237 0
1900 -680 -1856 -1955 0
1357 -373 0
1134 -203 0
626 -1750 -205 -75 0
204 -51 -1740 -1986 0
1469 -1219 -1874 -255 0
768 -308 -866 0
-1253 -218 -1064 -1184 0
577 -1677 0
1998 -380 -581 -693 0
-379 -1324 -903 -1286 0
-320 -302 -1686 -627 0
1265 -1595 -495 -732 0
491 -1542 -1163 0
-554 -1758 -354 0
-770 -118 0
-1505 -1145 -42 0
1012 -741 -524 -1092 0
1960 -369 -773 0
694 -1803 0
109 -1791 -1342 -1695 0
1098 -176 0
838 -695 -5 0
1558 -1783 -465 -1245 0
1458 -1944 -1826 -1492 0
-1837 -512 -344 -1357 0
1641 -1368 -1826 -1106 0
-1541 -1422 -264 -897 0
727 -1088 -866 0
1822 -1836 -734 0
-1900 -1522 -1248 -55 0
1112 -946 -1310 -1526 0
1323 -129 -1417 -848 0
307 -1913 -635 0
-1940 -337 0
1988 -1358 -1995 0
980 -1290 0
39 -184 -1358 -1108 0
1984 -63 -1560 -1085 0
1832 -140 0
1200 -1981 -1292 0
860 -1924 -659 -1099 0
1061 -122 -347 0
-371 -1073 -767 -938 0
1299 -1246 -1966 -1517 0
528 -1663 0
-483 -1372 -1363 -552 0
-1452 -1622 -521 -1335 0
484 -189 -1185 0
-808 -947 0
-233 -621 -174 0
-1666 -1750 -1851 -241 0
-1348 -653 -572 -989 0
-303 -1526 0
-1722 -1430 0
1894 -1424 0
1750 -396 -1999 0
508 -453 0
-1612 -669 -800 0
283 -921 -1430 0
1283 -194 -1828 -1104 0
1264 -1851 -1312 0
1061 -1432 0
1603 -1958 -1126 -1241 0
-1633 -797 0
37 -131 -302 -1857 0
-644 -1185 -595 0
430 -465 -1235 -183 0
-1764 -610 -1134 -488 0
977 -401 0
-33 -1641 -1375 -1391 0
1685 -620 -1250 0
-594 -1900 -1719 0
1858 -541 -916 0
684 -1951 -1480 -353 0
-1526 -368 -1224 0
-875 -417 -1842 0
148 -419 0
-915 -679 -451 -172 0
1831 -620 -190 0
1662 -1314 -1550 -1915 0
1124 -482 -1259 -1248 0
680 -1596 -166 -520 0
930 -1291 -1546 -407 0
626 -973 -28 0
36 -590 -1778 -199 0
-29 -931 -623 0
-1789 -1060 -1564 0
1747 -11 -1620 -777 0
-1526 -940 -266 0
1404 -529 0
190 -731 -1751 0
1945 -1240 0
638 -412 -97 0
-397 -1433 0
1430 -1693 -1063 -1634 0
733 -1855 0
807 -12 -1917 0
1314 -1173 0
1384 -1912 -573 -1315 0
1213 -922 -976 -1350 0
-821 -1308 0
527 -35 -502 -1679 0
1032 -807 -276 -643 0
-1294 -1373 0
366 -341 -625 0
1070 -190 -1806 0
-1344 -730 -673 -1156 0
850 -10 0
-165 -1034 0
810 -1410 0
-1760 -1665 0
-1648 -824 -326 -939 0
740 -1837 -1564 0
924 -1568 -501 0
-1929 -1135 0
1616 -1787 0
98 -102 -611 0
980 -1033 -192 0
807 -1737 -676 -359 0
1032 -1955 0
557 -1481 0
250 -1516 -1291 -1738 0
1509 -28 -913 0
685 -1519 -1346 -1363 0
-885 -31 -481 -1891 0
1750 -377 -223 -1273 0
1337 -1520 0
1031 -428 0
-633 -1606 0
-1872 -1543 0
208 -1805 -687 -838 0
1639 -1783 -1871 0
-1481 -1901 0
656 -400 -345 -1869 0
467 -112 -1530 0
1808 -1795 -1204 -862 0
475 -677 0
1904 -540 -813 -1221 0
1653 -619 -1093 -943 0
1479 -854 -1596 -823 0
-210 -689 -1797 0
-511 -898 -82 -822 0
-1480 -1554 -687 0
-434 -1027 0
-1007 -771 -841 -386 0
-1677 -923 -1818 0
-7 -789 -1131 -397 0
-1726 -1374 0
-458 -1565 0
163 -1402 -864 -536 0
1003 -1051 -472 0
-623 -1159 -1468 0
498 -1173 -313 0
1982 -123 0
1350 -1877 -900 0
1317 -863 -1930 -1679 0
-1645 -1380 -837 0
-415 -203 0
1764 -619 -234 -997 0
305 -738 -545 -1434 0
871 -1379 -1970 -642 0
-1792 -1532 0
-1409 -627 -1128 0
1637 -878 -149 -1006 0
218 -877 -263 -654 0
-42 -1956 -1263 -197 0
-696 -709 0
-722 -1223 -14 0
372 -1925 -948 0
798 -28 -1225 -776 0
1313 -564 -118 0
1023 -1900 -206 -345 0
1787 -1207 0
900 -120 -232 0
1062 -1738 -503 0
-1340 -529 0
1505 -1478 0
-332 -925 0
1866 -78 -1761 0
1937 -1890 0
1646 -1418 -961 -182 0
-1264 -404 -508 0
1418 -1379 -548 -219 0
-946 -797 -151 0
1335 -680 -1836 -363 0
1864 -434 -1527 0
329 -1107 0
-769 -1850 0
1004 -792 -1064 -446 0
1596 -264 -228 -1785 0
1868 -985 -1790 -1373 0
710 -968 -1504 0
507 -1747 -333 -1329 0
1808 -167 -1733 -92 0
1705 -717 0
845 -1463 0
510 -173 0
1146 -1499 0
-7 -1830 -1773 0
1855 -578 -1136 0
998 -644 -841 0
1359 -1453 0
-1679 -743 0
594 -1664 -965 0
176 -2000 0
-432 -1945 0
201 -992 0
-1085 -843 0
826 -414 0
1647 -565 -540 0
1882 -198 -1071 -386 0
1698 -1751 -60 0
1246 -1638 -1779 0
1741 -690 -1230 0
1722 -1880 -1040 0
614 -1392 -1207 0
1247 -137 0
113 -384 0
712 -662 -1380 -1783 0
39 -1492 -322 0
1212 -1157 0
1008 -821 -1551 0
727 -1123 0
-1666 -1453 0
-180 -780 -1013 -1070 0
-1195 -1007 -293 0
1328 -1119 -871 0
1494 -1791 -1382 0
560 -1922 -1828 0
1837 -528 -1890 -1118 0
-1087 -1858 -154 0
640 -1061 -1248 -229 0
-30 -1857 -1695 0
-846 -1533 -16 -1152 0
1297 -1549 -1881 0
1655 -1029 0
-94 -513 0
963 -54 -835 -1219 0
1534 -133 -1792 0
1350 -4 -1183 -1589 0
475 -134 -221 0
419 -477 -241 -1026 0
-13 -630 -313 0
173 -1599 -917 -528 0
1797 -229 -1963 -1195 0
287 -1676 -840 0
447 -1745 0
950 -1378 -1170 0
1159 -781 -464 -1363 0
535 -861 -1268 0
-944 -611 -526 -888 0
-968 -473 -1013 -884 0
-1606 -257 -822 -67 0
-1546 -1596 -851 0
603 -1495 0
941 -1556 0
1558 -940 0
1188 -644 -682 -1652 0
1826 -1249 -976 -1380 0
342 -1803 0
-727 -272 -1183 0
1941 -1999 0
1558 -836 -1628 0
-962 -1170 -1442 -1136 0
-1763 -409 -1835 0
582 -1716 -367 -502 0
-614 -1038 -795 0
143 -231 -346 -1462 0
1455 -1491 -1441 0
353 -994 -1292 -1018 0
1486 -351 0
202 -1423 -1508 -23 0
1139 -1688 -169 -160 0
1858 -219 -677 0
125 -978 -1212 -1035 0
-1733 -1747 -873 0
-186 -7 -1577 -1960 0
648 -794 -849 0
1153 -824 -1689 0
-1136 -1758 0
114 -955 -1130 -1931 0
-1241 -1774 -1082 -266 0
232 -1701 0
1890 -1503 -1686 -1678 0
1786 -418 -1215 0
-1552 -644 0
-588 -1180 -275 -117 0
-1 -222 -1722 -1413 0
-587 -137 0
-1279 -293 -484 0
1078 -159 -239 -650 0
270 -560 -1981 -510 0
975 -967 0
1110 -997 0
780 -1646 -1300 -1952 0
1649 -760 0
1632 -1637 -98 -1849 0
174 -187 0
-843 -1017 0
976 -1087 -1173 0
201 -1242 -1104 0
-924 -1147 0
1943 -8 -1026 0
-1073 -106 -159 0
760 -845 -136 -1892 0
-1223 -1017 -856 0
1656 -516 -1073 0
-456 -1211 -298 0
361 -1971 0
-1736 -33 -243 -361 0
719 -642 -350 -1298 0
446 -296 0
1107 -553 -985 -1620 0
-1784 -708 0
153 -967 0
-1547 -1532 0
-378 -1693 -233 0
719 -1465 0
-1656 -1206 -282 -1579 0
1735 -834 -568 0
-168 -1870 0
1843 -297 -1062 -502 0
983 -1998 -1674 -630 0
1936 -1289 -224 -1730 0
-1506 -1227 0
-1919 -1378 0
846 -1792 -1001 0
676 -1195 -1339 0
298 -1500 0
1952 -911 0
1014 -1333 -1690 0
-1405 -1014 -1868 0
614 -123 0
-299 -528 -96 -1146 0
-987 -933 -901 -1293 0
1301 -1693 0
-1518 -1191 0
-68 -488 -470 -18 0
-1562 -533 0
-821 -1180 -899 0
1817 -45 -1044 0
-800 -1551 0
872 -116 -1987 0
1252 -599 -1349 -688 0
-1654 -356 -1265 -1115 0
-878 -510 -700 -1357 0
-286 -882 -1980 -789 0
-914 -686 -148 0
1778 -675 -810 0
1989 -1457 -283 -469 0
511 -1471 0
511 -1411 -1735 0
1775 -1071 -1989 0
-47 -624 -1717 -262 0
1480 -1794 -1759 -687 0
1098 -16 0
562 -1188 -1098 0
-1721 -795 -1948 -386 0
1488 -114 -163 -1094 0
1534 -1217 0
-937 -1104 0
174 -1127 -1166 0
1161 -108 -1539 -35 0
-1285 -857 -205 0
1643 -1068 -1938 0
106 -1227 -1418 -805 0
-100 -1111 -1726 -1785 0
1983 -1767 0
-1198 -1163 -825 -343 0
-1884 -1743 -1642 0
50 -985 -1523 0
543 -1286 -1896 -1482 0
-1124 -1961 0
972 -84 0
1206 -534 0
1229 -486 -230 0
1513 -1764 -1323 0
-857 -1151 -1031 0
1727 -1794 0
76 -1341 0
1892 -1201 -349 0
-1129 -719 0
1627 -1767 -300 0
939 -1356 -1387 0
1176 -1441 -1293 0
1770 -1830 -1048 -708 0
803 -1511 0
1789 -525 0
250 -1909 -403 0
1795 -1183 -1515 0
283 -157 -1621 0
1976 -244 0
1200 -1865 0
1035 -803 -574 -633 0
631 -829 0
1108 -1650 -445 0
1313 -1552 0
-372 -1079 0
1637 -57 0
1710 -1484 0
-1753 -518 -1538 0
339 -582 -18 -1017 0
419 -1312 -997 -415 0
1538 -783 0
-278 -222 -1390 0
1097 -1723 -1542 0
-1026 -617 -564 0
709 -353 0
-260 -1963 -136 -1083 0
890 -1016 -531 0
779 -624 0
201 -1049 -1283 0
1037 -1956 -875 -301 0
1661 -293 -55 0
1470 -1781 -1078 0
-1546 -1882 0
2 -1044 0
-1794 -1444 -565 -1033 0
906 -557 0
449 -1934 -1980 0
461 -403 -1820 -444 0
-1821 -363 0
91 -1446 0
-316 -1711 -1585 0
1322 -747 0
127 -1636 -91 0
924 -1243 -587 0
750 -1694 -755 0
-1137 -1684 -950 0
604 -20 -964 0
171 -1163 0
-931 -531 -1604 0
1299 -1736 -1513 0
-1345 -1997 0
191 -1380 -293 -1968 0
1556 -1684 -1695 -336 0
228 -502 0
-1265 -1169 -71 -74 0
653 -748 -1681 0
1897 -970 -1046 0
498 -1501 -683 -972 0
1098 -959 -573 0
-306 -1228 0
919 -1931 0
-416 -557 0
529 -836 -1350 0
548 -1824 -244 0
1969 -600 -660 0
1684 -1861 0
203 -567 -1264 0
-1748 -742 -1986 -1532 0
-372 -1048 -140 -525 0
-1042 -1599 -1381 -1126 0
1774 -1674 -1750 -1807 0
168 -1667 -720 -1318 0
-1115 -1618 0
-730 -1008 -1947 0
1350 -1656 -590 -213 0
1244 -112 -167 -274 0
1771 -552 0
1364 -559 -73 0
760 -1191 -104 -932 0
747 -1331 0
918 -210 0
1954 -582 -1952 0
476 -1499 -453 -27 0
-1810 -902 0
86 -1661 0
910 -541 -1011 -1219 0
1003 -1129 -1221 0
-1787 -632 -1096 0
-1681 -19 -1214 0
673 -1229 -80 0
788 -636 -1589 -896 0
-1151 -1688 -1974 -429 0
984 -1747 0
1088 -1796 -1792 0
21 -517 0
-1291 -907 0
1920 -1442 0
-923 -917 -1370 0
-1211 -361 -522 0
133 -1578 -109 -1853 0
273 -1810 -1860 0
682 -1252 -1205 0
-566 -1473 -1032 -432 0
-234 -796 0
1394 -506 0
-498 -1503 -1963 0
388 -231 -1327 -1830 0
-1032 -1764 -588 -1649 0
37 -1775 -1160 -1773 0
221 -1122 0
1179 -145 0
1766 -1866 -1056 -590 0
366 -514 -1598 0
539 -288 0
1979 -398 -504 -1949 0
950 -334 -187 0
1406 -1401 -1452 -521 0
1912 -1525 -1996 -891 0
1313 -1745 -851 -565 0
-377 -1762 -575 0
-233 -118 -597 -151 0
872 -1378 -678 0
1555 -170 -961 0
1733 -513 -431 -417 0
1593 -1643 -724 0
189 -1862 0
746 -1234 0
134 -534 -1810 -1155 0
1338 -1360 0
184 -161 -1201 0
910 -1996 0
104 -1875 -140 0
951 -258 0
-1699 -172 0
390 -109 -1928 -1182 0
277 -1508 -1593 0
1315 -343 0
1123 -813 -899 -1835 0
1597 -1619 0
498 -290 -1291 0
1102 -1686 -1813 -1839 0
404 -1874 0
252 -1843 -1292 0
-15 -183 -716 -1 0
1050 -1336 0
1899 -639 -1631 0
1436 -1581 -271 0
-758 -1962 0
-1809 -885 -183 0
1132 -228 -938 -252 0
649 -1904 0
690 -1711 -556 0
-1521 -1793 -1503 0
1293 -725 -92 0
-1026 -1906 -789 -1387 0
205 -945 0
414 -1432 0
954 -1538 -1880 0
-687 -906 0
-316 -1490 -1799 0
-1378 -253 -374 0
1905 -1274 0
1190 -1530 0
1984 -1419 -390 0
-626 -688 -1157 -772 0
758 -1335 0
1296 -536 -1909 -1728 0
1736 -1209 0
-1678 -146 -1906 0
321 -1264 -1804 -956 0
-513 -811 -457 -1001 0
-606 -427 -434 -937 0
431 -261 -178 -404 0
331 -105 -609 -1049 0
608 -823 0
-743 -610 -1933 -1331 0
373 -125 -322 0
1287 -600 -487 0
915 -1798 -359 -1150 0
644 -1829 -1859 -895 0
557 -1710 -176 0
-756 -1412 -826 0
-1219 -35 -322 -1674 0
915 -411 -351 -724 0
1181 -1213 -1588 0
-805 -1750 -374 0
436 -208 0
1280 -1659 -774 0
1131 -226 -675 0
1054 -705 -422 -891 0
1598 -1404 0
1382 -528 -797 -643 0
-1266 -1694 -385 0
800 -1808 -1414 0
1658 -1507 0
1537 -1533 -1501 0
1815 -1843 -696 0
309 -1863 0
-1862 -1061 0
1375 -1183 -1291 0
312 -7 -970 0
1206 -1217 -69 -1718 0
519 -1582 -1562 0
242 -1678 -1411 0
535 -1791 -726 -817 0
1105 -1521 0
466 -1113 -632 -431 0
189 -1171 0
1402 -1384 -1685 -1928 0
918 -1721 -384 0
718 -1137 -694 -1716 0
-1399 -1437 -877 0
16 -688 -896 0
1582 -957 0
1590 -931 -1689 -1575 0
-237 -1839 -576 -1614 0
1617 -199 -233 0
1795 -659 0
-1233 -1833 0
1537 -1527 -684 0
1821 -825 -1890 0
1370 -1379 -1545 -1776 0
996 -329 -651 -907 0
1244 -836 -1568 0
1012 -1670 -1274 0
205 -103 -1265 -197 0
1146 -456 -1291 -63 0
-1200 -118 0
330 -1807 -1288 0
1873 -813 -1858 0
362 -1396 -1512 0
358 -1532 -993 0
1083 -1321 -354 -1256 0
-1440 -1265 0
666 -1647 -1096 -848 0
131 -718 0
1779 -678 0
1948 -1449 0
21 -1071 -181 0
1591 -651 -242 -1104 0
-1766 -67 -600 0
652 -482 0
-670 -641 -1000 -1792 0
1518 -264 -40 -513 0
1102 -384 -606 -172 0
-1579 -61 0
1914 -1272 -992 -795 0
-1570 -824 -1199 0
1461 -1527 0
957 -1601 -1693 0
-904 -3 0
941 -265 -1027 0
79 -568 -1034 -746 0
1848 -1148 -221 0
-466 -195 -906 0
1980 -662 -1463 0
-646 -1095 0
642 -772 -1609 -1228 0
1594 -892 -312 0
505 -587 -1685 0
1208 -76 0
1153 -1904 -1101 0
-1275 -307 -591 0
21 -1293 0
-1900 -647 -321 -1035 0
-270 -1695 -299 -321 0
943 -892 -1445 -1591 0
-757 -22 -1660 0
335 -1769 -1774 -496 0
931 -603 -1933 0
-756 -1936 0
-1099 -1053 0
247 -1104 -76 -1744 0
207 -728 -1129 0
203 -421 -1418 -482 0
1325 -1711 -132 -1024 0
-1934 -1931 -808 -248 0
666 -1902 0
-1023 -370 -1129 -1424 0
-361 -1760 -769 -186 0
842 -1540 0
-1982 -1478 -1065 0
128 -921 0
55 -1787 -630 0
-1683 -1467 -1674 -1798 0
1737 -466 -821 0
122 -1271 -535 -258 0
1300 -1589 0
164 -1433 -1704 0
1111 -972 -1272 -678 0
-1799 -1476 -939 0
582 -672 -1216 -765 0
1710 -426 0
1072 -35 0
418 -684 -410 0
582 -954 0
1171 -1265 0
296 -1773 -1573 0
1662 -112 -1375 0
1432 -1335 -1902 -859 0
1792 -884 -171 0
1547 -1130 -908 -1260 0
532 -1005 0
395 -1635 0
1809 -1819 -1641 0
