c Horn formula (polynomial-time solvable)
c 1000 variables, 2500 clauses
p cnf 1000 2500
862 -484 -748 0
764 -433 -43 -944 0
433 -542 -355 0
666 -737 -18 0
399 -181 -943 -864 0
537 -413 -667 0
184 -16 -210 0
53 -976 -323 0
740 -62 -526 -15 0
936 -394 -828 0
971 -44 -287 0
884 -777 -164 0
786 -301 -400 -128 0
194 -352 -628 -799 0
958 -869 -747 -233 0
-935 -490 0
338 -112 -59 -551 0
611 -238 -140 0
474 -33 0
515 -207 -182 0
949 -483 -206 -359 0
755 -732 -871 -818 0
394 -462 -7 -504 0
692 -874 -484 -570 0
453 -97 -448 0
184 -910 0
934 -780 -917 0
158 -835 -860 0
694 -697 0
-583 -575 -843 0
-21 -516 -33 0
433 -370 0
99 -591 -61 0
258 -886 0
716 -212 -561 0
419 -950 0
190 -161 -533 -605 0
956 -213 -932 -290 0
-322 -965 -116 0
73 -422 -643 0
-876 -980 0
655 -862 -371 0
-777 -366 0
532 -784 0
-218 -505 0
491 -231 0
-538 -562 0
78 -385 -350 -377 0
-937 -108 0
334 -449 0
986 -14 -90 -52 0
547 -928 -398 -138 0
82 -42 -961 -688 0
534 -96 0
918 -812 -499 -556 0
816 -669 -575 -684 0
520 -641 -250 0
386 -100 -713 -648 0
889 -849 -703 0
414 -489 0
521 -128 -167 0
707 -647 0
-117 -609 -638 -650 0
-574 -457 -35 -277 0
-52 -895 0
464 -563 -112 -424 0
807 -659 -466 -786 0
830 -430 -942 -397 0
-457 -391 0
726 -259 0
-822 -436 -778 -260 0
324 -199 -662 -762 0
-636 -706 -151 0
-342 -187 -409 0
690 -391 -289 0
-49 -419 -647 0
-195 -469 -725 0
46 -775 -778 -443 0
567 -275 -707 0
224 -790 -207 0
209 -442 -58 -60 0
-86 -850 0
508 -127 -658 0
458 -794 0
930 -297 -245 -404 0
-727 -83 0
296 -166 0
722 -254 -422 -167 0
174 -138 -887 0
843 -579 -546 -234 0
416 -823 -649 -776 0
811 -18 -962 -467 0
-678 -161 -23 -443 0
106 -798 -775 -979 0
362 -594 0
529 -110 -526 -334 0
746 -16 -195 -682 0
-866 -485 0
-180 -30 0
669 -690 0
347 -619 -221 0
-212 -250 0
-358 -581 -392 0
585 -500 -54 -752 0
317 -371 -528 0
793 -790 -670 -620 0
346 -376 0
277 -890 -489 -551 0
648 -535 0
691 -661 0
22 -122 -347 -171 0
-778 -649 0
189 -891 0
-34 -884 -412 0
794 -551 0
-599 -642 0
80 -914 -285 0
822 -444 0
-11 -229 -297 -175 0
842 -436 -429 -74 0
55 -4 -396 -576 0
754 -212 -401 -964 0
224 -599 0
-939 -661 -49 -232 0
261 -608 0
279 -337 0
916 -609 0
-206 -877 -3 -100 0
161 -626 0
265 -155 -221 0
-505 -314 -514 0
543 -6 0
425 -323 -934 -350 0
724 -449 -816 -641 0
-641 -489 -526 -611 0
275 -704 0
775 -561 0
111 -397 -790 0
555 -207 0
848 -108 0
869 -61 -886 -564 0
-188 -485 -880 0
896 -657 0
901 -827 -374 -136 0
631 -513 -172 -693 0
832 -436 -188 -985 0
379 -112 0
792 -175 0
583 -875 -443 0
117 -311 -506 -450 0
-944 -103 0
47 -903 0
178 -623 0
-844 -250 0
-872 -882 -486 -605 0
948 -65 -822 0
973 -612 -775 -132 0
556 -838 0
978 -614 -699 -544 0
137 -124 -14 -503 0
625 -254 -89 -186 0
606 -971 0
24 -561 -305 0
840 -63 -356 0
-43 -205 0
-576 -434 -675 0
338 -776 0
570 -74 -215 0
969 -177 0
-679 -622 -788 -638 0
30 -334 0
542 -214 -790 -90 0
-883 -198 -540 0
724 -377 -11 -681 0
405 -728 0
10 -694 -910 -436 0
-474 -280 -834 -643 0
425 -561 0
-606 -465 -601 0
-104 -339 -16 -572 0
641 -242 -789 0
718 -435 -770 -197 0
388 -684 -627 -937 0
-792 -28 0
-306 -18 0
-859 -941 -857 -65 0
-411 -79 0
909 -115 -580 0
827 -578 0
-276 -823 -40 0
438 -94 -181 -396 0
-563 -504 -143 -207 0
-150 -934 0
479 -753 -956 -550 0
-623 -7 0
989 -897 0
691 -645 0
-346 -3 0
120 -788 0
756 -102 -447 -381 0
4 -422 0
275 -996 -871 0
-561 -122 -206 0
30 -416 -499 0
934 -946 0
627 -785 -755 0
92 -212 0
283 -191 -872 0
-575 -284 -720 0
583 -790 -548 -317 0
-230 -838 0
151 -147 -508 -25 0
-899 -797 -185 0
-178 -313 -40 0
132 -332 -835 0
598 -644 -913 0
880 -580 -859 0
142 -672 0
417 -513 0
383 -652 0
815 -813 0
804 -728 -531 0
880 -159 -969 -601 0
762 -620 -106 0
-512 -249 -596 0
921 -407 -774 -135 0
371 -565 0
864 -681 0
111 -957 -727 -989 0
901 -793 -386 0
188 -107 -949 0
307 -581 -655 0
-952 -859 -759 0
435 -206 0
667 -987 -309 0
942 -607 0
330 -886 0
544 -415 0
311 -290 0
28 -871 0
323 -970 -426 -189 0
-273 -179 -155 -910 0
578 -349 -79 -622 0
434 -862 -690 0
518 -174 -592 0
776 -54 0
35 -860 0
872 -637 -679 0
231 -402 -485 -28 0
185 -34 -740 -77 0
-72 -164 -403 -870 0
911 -495 0
-786 -541 -556 -805 0
-29 -533 0
207 -9 0
-630 -35 -895 0
434 -702 0
642 -134 -865 -122 0
147 -900 0
554 -540 -66 0
-478 -827 0
-69 -701 -810 0
-902 -228 -242 -88 0
407 -426 0
618 -353 -188 0
-678 -344 -950 0
-771 -86 -808 0
870 -984 -841 0
397 -953 -186 -683 0
-786 -522 -398 -197 0
-293 -954 0
276 -299 -253 -932 0
279 -650 0
-237 -318 -673 0
449 -477 -985 -545 0
102 -576 -343 0
231 -885 0
533 -179 0
324 -754 -589 -334 0
594 -955 -302 0
-812 -89 -416 0
354 -848 -418 -25 0
124 -42 -348 -438 0
577 -748 -251 0
503 -882 -944 0
334 -940 -624 -500 0
683 -909 0
-121 -764 -347 -654 0
-798 -533 -117 -887 0
30 -628 -560 -774 0
-181 -437 -84 0
791 -819 -349 0
-219 -760 -224 -798 0
868 -46 0
-873 -756 0
-919 -880 -174 -299 0
-921 -200 -971 0
540 -527 -509 0
138 -35 0
-579 -485 0
668 -373 -788 0
632 -922 -761 0
-135 -563 0
267 -565 -916 0
168 -418 0
2 -922 -993 -299 0
810 -739 0
-10 -551 0
-472 -766 0
568 -254 -557 -233 0
343 -49 0
187 -66 -34 0
33 -527 -216 0
45 -652 0
844 -949 0
245 -526 -653 0
417 -433 0
926 -381 -826 -109 0
-518 -77 0
821 -693 -91 -218 0
650 -644 0
651 -503 0
346 -348 0
482 -798 0
321 -768 -871 0
153 -653 -429 0
813 -997 -699 -335 0
400 -848 0
-170 -107 0
-29 -285 -523 -544 0
515 -39 -602 0
359 -330 0
326 -434 -425 0
640 -598 -639 0
162 -203 -104 -982 0
14 -577 -330 0
338 -785 -606 -828 0
-394 -614 -52 0
640 -591 -626 -9 0
-444 -633 -833 -626 0
397 -310 0
196 -632 -855 -616 0
-230 -496 0
140 -814 -839 0
1 -361 0
-79 -64 -757 -263 0
142 -546 -281 0
99 -413 0
319 -489 -658 -880 0
388 -60 0
614 -263 0
681 -452 -925 0
-238 -560 -988 -658 0
611 -620 -321 -16 0
188 -751 -748 -59 0
989 -599 -951 0
123 -18 -953 -90 0
61 -975 -184 0
439 -832 0
-688 -251 0
508 -937 0
286 -954 0
-331 -733 -259 0
761 -676 -65 0
29 -436 0
239 -482 -166 0
-549 -995 -968 -556 0
188 -591 -582 0
-610 -116 0
-610 -646 0
-435 -872 -375 -722 0
985 -865 -945 0
765 -218 -950 0
-73 -117 -454 0
590 -756 0
522 -720 -492 -877 0
-923 -632 -275 -297 0
685 -498 0
112 -403 0
631 -866 -282 -936 0
437 -479 -621 0
759 -79 -707 0
-873 -563 -764 0
952 -447 0
363 -839 -101 0
879 -856 -340 0
1 -806 0
-27 -378 -684 0
-792 -157 -191 -501 0
486 -59 -44 -185 0
342 -951 -813 0
49 -199 0
951 -757 -910 -294 0
635 -369 -227 -595 0
340 -167 -208 -334 0
-577 -825 0
938 -230 -635 -264 0
-973 -313 -144 -740 0
219 -855 -622 0
815 -558 0
571 -455 -176 -855 0
427 -243 -171 -280 0
826 -483 -676 0
933 -643 -777 0
-758 -616 -339 -590 0
-927 -457 -125 -639 0
399 -948 -506 0
-267 -952 -925 0
141 -193 -572 -213 0
-766 -667 -267 -721 0
773 -823 0
122 -584 -261 0
734 -562 -338 0
303 -189 -33 -552 0
-478 -411 0
987 -908 -513 -147 0
823 -896 -922 0
179 -511 0
-764 -560 -527 0
664 -336 0
456 -155 -516 0
847 -9 0
682 -818 -121 0
558 -749 -418 0
431 -485 0
377 -3 -842 -872 0
-839 -174 -800 0
-706 -11 -764 -353 0
315 -791 -772 -797 0
252 -606 -830 0
852 -511 -862 0
624 -896 0
-587 -589 -365 0
-718 -867 0
862 -299 -354 -35 0
330 -881 -943 0
711 -81 -520 0
714 -261 -711 0
783 -690 0
-310 -595 0
179 -597 0
235 -331 -228 0
405 -216 0
857 -713 0
-287 -148 -165 0
-898 -338 0
463 -729 0
131 -96 -958 0
991 -337 0
606 -516 -577 -484 0
348 -678 -176 -682 0
679 -172 -517 -685 0
-688 -30 -612 -156 0
804 -941 0
-150 -551 -504 -921 0
505 -581 -62 -641 0
-96 -604 -362 -73 0
343 -799 -141 -60 0
1000 -825 0
370 -542 -836 -578 0
-207 -521 -681 0
79 -421 -941 0
431 -929 0
-184 -201 -154 0
950 -338 -725 0
284 -521 -544 -762 0
-551 -790 -481 0
659 -944 -521 -220 0
905 -209 0
-896 -308 -388 -207 0
272 -789 0
567 -608 0
384 -111 -310 0
492 -122 -391 0
-485 -760 -23 0
204 -207 0
124 -746 -125 -944 0
-64 -3 -267 0
-814 -573 -993 0
-941 -48 -976 -238 0
581 -875 -459 -522 0
-375 -29 -495 -831 0
620 -811 0
20 -1000 -943 -492 0
592 -465 0
369 -361 0
411 -82 -648 -40 0
-328 -444 -340 -488 0
551 -403 -445 -350 0
12 -406 -488 0
-537 -424 0
288 -154 -458 -511 0
958 -704 0
-764 -718 -880 -542 0
487 -943 -192 0
607 -934 -878 -739 0
-575 -743 -959 -444 0
953 -388 -66 0
-520 -221 0
-634 -242 -142 0
467 -302 -532 0
-27 -356 -124 0
159 -139 -124 0
-433 -269 0
799 -477 -19 -238 0
-367 -664 -308 -259 0
308 -424 0
401 -148 -602 -280 0
439 -821 -508 -226 0
724 -460 -431 0
318 -614 0
813 -309 -858 -150 0
-661 -893 -412 0
-613 -592 -857 0
438 -354 -632 0
443 -250 -802 0
256 -380 -82 -695 0
840 -902 0
900 -922 -363 -978 0
-946 -858 -484 -108 0
326 -966 -237 -821 0
983 -807 -97 -891 0
-284 -662 -821 -799 0
238 -336 0
-609 -218 -924 -605 0
720 -380 0
152 -132 -273 0
415 -194 0
869 -898 -245 -283 0
110 -223 -739 0
61 -837 -205 -34 0
498 -184 0
-45 -947 -862 -888 0
883 -604 -869 -133 0
509 -604 -101 -764 0
66 -828 -787 -585 0
93 -407 0
-364 -873 -80 0
699 -454 0
51 -342 0
384 -454 -51 -951 0
-980 -132 -324 0
388 -79 0
347 -7 -187 0
336 -229 -225 -424 0
-466 -513 -364 -103 0
229 -562 -757 -234 0
-301 -758 -407 -94 0
477 -49 0
641 -20 -116 -51 0
613 -772 -35 -103 0
462 -89 -825 -620 0
78 -111 0
-331 -370 -276 -912 0
151 -93 -588 0
109 -177 -765 0
639 -676 -576 0
99 -895 -743 -845 0
927 -217 -205 0
692 -585 -114 0
340 -778 -695 0
134 -118 0
684 -364 -792 0
-77 -329 -957 -502 0
41 -438 -501 -947 0
338 -9 -464 -113 0
175 -516 0
703 -541 -799 0
231 -561 -603 0
-455 -223 -752 0
367 -769 -887 -840 0
-682 -900 0
418 -151 -340 0
-564 -434 -156 -444 0
235 -110 -498 -950 0
78 -175 -753 -66 0
-545 -614 0
-449 -948 0
104 -120 0
254 -686 -759 -733 0
-529 -422 0
590 -580 -212 -893 0
203 -23 -280 -444 0
-404 -600 0
-110 -449 -65 0
988 -420 -165 -406 0
846 -36 -266 0
311 -662 0
-528 -918 -521 0
-521 -61 0
930 -944 0
882 -950 -548 -560 0
264 -658 -437 0
341 -522 0
-710 -147 -78 0
256 -924 0
65 -23 0
-290 -243 -899 0
592 -85 -812 0
645 -54 -831 0
-224 -761 -645 0
353 -957 -316 -436 0
-590 -993 -358 -860 0
663 -316 -392 -292 0
534 -951 -754 -240 0
235 -445 -636 0
546 -387 -970 -724 0
-552 -562 -3 0
253 -259 0
911 -137 -939 0
-748 -234 0
983 -815 -608 -10 0
90 -174 -449 0
-245 -181 -586 -715 0
828 -855 -856 0
821 -865 0
-752 -775 -239 -977 0
-129 -522 0
869 -383 -510 -626 0
733 -158 -404 0
671 -257 -270 -320 0
-120 -541 -417 0
370 -168 0
657 -35 0
-904 -340 0
664 -406 0
51 -504 0
376 -586 -380 -382 0
766 -162 0
127 -353 -722 0
854 -138 0
720 -51 -621 -475 0
563 -545 0
-816 -565 -292 -831 0
-358 -905 -329 -494 0
-269 -65 -697 0
-231 -809 0
725 -112 -31 -526 0
224 -894 0
575 -10 -449 0
-995 -952 -320 -627 0
489 -478 -341 -402 0
246 -947 -196 0
316 -300 -991 0
-423 -270 0
97 -341 -549 0
973 -514 0
636 -673 0
700 -461 -402 0
-832 -709 -762 -687 0
955 -488 -460 -50 0
880 -71 -305 0
-467 -558 -100 -140 0
83 -693 -77 0
607 -12 -240 -843 0
-607 -818 0
760 -347 -739 -716 0
-388 -546 -522 0
13 -934 -535 0
-828 -636 -307 -995 0
-54 -921 0
-310 -691 -8 -735 0
-177 -359 -60 0
74 -31 -783 -41 0
-611 -553 0
333 -83 -452 0
587 -64 0
-858 -190 0
-669 -181 -871 0
778 -298 0
531 -306 0
-26 -695 0
12 -234 -402 0
427 -245 0
193 -457 -271 0
76 -593 0
821 -137 0
653 -437 0
-482 -331 -975 -860 0
-829 -131 -712 -732 0
-120 -12 -395 0
-304 -815 0
21 -888 -717 -742 0
115 -423 -910 0
-153 -820 0
682 -729 -103 0
563 -219 0
622 -559 -156 0
-506 -407 -919 -115 0
-993 -762 0
496 -660 -112 -811 0
286 -998 -753 0
459 -916 -491 -536 0
-238 -181 -603 0
799 -523 0
878 -767 -681 0
152 -10 -42 0
563 -689 -690 -76 0
-412 -170 0
469 -598 0
-297 -166 -184 -932 0
881 -99 0
940 -424 0
541 -262 0
107 -249 -133 -398 0
497 -674 0
554 -454 -157 -654 0
394 -350 0
952 -296 0
-198 -1000 -396 0
876 -602 -608 0
-504 -815 -498 0
377 -293 -876 0
-666 -311 0
-432 -364 -385 -678 0
42 -838 -142 0
158 -383 -840 0
-300 -829 -836 -142 0
-244 -456 -475 -46 0
-791 -933 -320 -727 0
130 -623 -628 -649 0
6 -282 0
181 -238 -518 -451 0
409 -85 -57 0
892 -596 -613 -335 0
651 -648 0
5 -694 -626 -7 0
230 -763 0
237 -261 -603 -211 0
530 -592 0
853 -818 0
-941 -365 0
106 -386 0
516 -725 -95 -807 0
-48 -177 -672 0
574 -491 -50 -761 0
969 -305 0
444 -725 -466 -947 0
-829 -230 -217 0
-559 -757 -982 0
-233 -612 -178 0
-469 -555 -411 0
643 -313 -721 -222 0
862 -924 -495 -777 0
-103 -393 0
48 -973 -799 0
473 -988 -736 -810 0
615 -459 -82 0
495 -522 -98 0
458 -851 -864 -628 0
789 -156 -10 0
281 -709 0
-509 -603 0
589 -140 -33 -451 0
855 -22 0
936 -608 0
394 -821 -998 0
-986 -342 -649 0
595 -231 -691 0
-23 -603 -252 -869 0
95 -755 -914 0
115 -844 -959 0
-114 -889 -788 -383 0
332 -48 0
432 -717 -50 0
-910 -661 -774 -838 0
92 -515 -353 0
974 -170 -54 -189 0
450 -527 0
944 -592 0
-857 -59 -87 0
890 -163 -89 0
875 -873 -308 0
547 -404 -213 0
397 -680 -578 -850 0
-493 -537 -669 -803 0
703 -93 -871 -802 0
347 -244 0
-774 -240 0
860 -921 -138 0
676 -215 0
-857 -378 -298 0
471 -824 -272 0
-282 -766 0
-361 -47 -210 0
181 -477 0
631 -621 0
767 -542 0
-43 -248 0
-547 -539 0
311 -632 -204 0
148 -773 -35 -823 0
763 -85 -125 0
998 -147 -811 -513 0
685 -551 -365 -274 0
-851 -623 -118 0
325 -585 0
-504 -765 0
428 -402 0
-75 -920 -138 -840 0
767 -426 -415 -73 0
-308 -320 -265 0
-204 -551 0
-280 -916 -317 -56 0
27 -28 0
597 -247 -386 0
751 -739 0
-502 -811 -952 0
647 -414 -66 0
-462 -32 -551 0
-259 -270 -119 -436 0
360 -462 -607 -174 0
295 -165 -764 0
177 -183 -866 0
-41 -921 -71 -796 0
522 -158 -555 -125 0
109 -640 -369 -969 0
763 -99 -941 -933 0
326 -202 0
67 -296 0
574 -583 0
911 -869 -678 0
243 -342 -610 0
949 -553 -110 -957 0
235 -815 -690 -491 0
972 -365 -568 0
834 -490 0
563 -647 -517 -370 0
52 -862 -72 -822 0
-555 -739 -645 -998 0
767 -191 -204 -973 0
-674 -880 0
277 -119 -275 -100 0
727 -178 -819 0
225 -3 -437 -536 0
482 -619 -391 -636 0
417 -78 -493 -447 0
747 -933 -524 -759 0
413 -322 -609 -855 0
724 -510 0
-974 -380 -784 -219 0
62 -623 0
-506 -671 -717 -496 0
649 -286 -330 -358 0
91 -582 0
649 -976 0
128 -736 -851 0
625 -169 -848 0
-726 -67 -657 -249 0
413 -962 0
699 -44 -241 0
-869 -651 -871 0
-862 -743 -162 0
5 -504 -630 -884 0
-328 -566 -350 -192 0
923 -140 -416 -162 0
344 -200 0
-390 -497 -851 0
143 -435 0
-957 -174 -844 -678 0
366 -558 0
838 -284 0
-134 -58 -885 0
-553 -554 -592 -994 0
-539 -750 0
545 -833 -202 0
438 -231 -405 -355 0
895 -213 0
181 -699 0
680 -498 -790 -595 0
-554 -136 -485 0
653 -794 -709 0
121 -738 -325 0
119 -103 -626 -146 0
-33 -927 0
-212 -243 -492 0
868 -40 0
256 -55 0
924 -373 -163 -891 0
-960 -746 -282 -332 0
326 -761 -495 -271 0
855 -523 -992 -223 0
170 -448 -393 0
112 -62 0
188 -52 -586 -475 0
784 -841 -330 -922 0
-873 -971 0
-898 -565 -682 0
683 -93 0
642 -841 0
163 -816 -897 -356 0
557 -997 -508 -375 0
965 -556 0
298 -694 -136 0
553 -587 0
-168 -486 -422 0
-325 -477 0
-469 -629 -177 -578 0
-72 -284 -441 0
-8 -820 0
335 -745 0
70 -125 0
945 -734 -129 -943 0
727 -987 -217 0
658 -783 -910 -106 0
175 -252 -958 0
264 -95 0
81 -61 0
949 -415 -923 -716 0
421 -454 -817 -205 0
-81 -692 -357 -138 0
288 -108 -854 -356 0
515 -58 -64 -912 0
-253 -931 -59 0
-758 -184 -330 0
-993 -766 0
957 -653 -39 0
-889 -969 -698 -333 0
-928 -569 -132 0
448 -461 -777 0
597 -804 0
411 -531 -263 -120 0
61 -377 0
539 -365 0
540 -823 -437 -309 0
514 -614 0
568 -323 -744 0
983 -728 -841 0
353 -317 -881 -217 0
413 -155 -713 -233 0
174 -971 -330 -535 0
832 -311 -975 -913 0
522 -780 0
753 -629 0
156 -11 -906 0
-356 -382 0
-846 -961 -6 0
-692 -378 0
-612 -28 0
-735 -938 -836 0
340 -510 0
184 -96 0
48 -920 0
758 -172 -180 -966 0
655 -604 -407 -799 0
836 -516 0
326 -588 -587 0
468 -65 -145 -217 0
-659 -541 -404 0
848 -135 -673 0
195 -49 0
91 -357 0
835 -35 -407 0
-741 -715 -779 -596 0
895 -361 0
-40 -393 0
-88 -451 -782 0
47 -211 -1000 0
918 -455 0
624 -358 -608 -755 0
343 -663 -168 0
687 -589 -843 0
408 -539 0
52 -5 0
24 -852 -81 -937 0
259 -412 -240 -252 0
362 -4 -571 -342 0
-774 -230 -908 0
-270 -218 0
832 -109 -852 0
239 -645 0
824 -433 -846 -832 0
459 -553 -170 -571 0
587 -579 -495 0
-11 -442 -233 -175 0
22 -720 -194 0
107 -470 0
345 -158 -732 0
-975 -114 0
41 -992 0
297 -556 -102 0
141 -972 0
-707 -697 0
324 -914 -693 0
-58 -301 0
-347 -302 -841 0
998 -726 -651 -697 0
488 -581 -933 0
66 -764 -147 -648 0
-647 -320 -88 0
631 -468 -226 -996 0
678 -145 -321 0
248 -290 -557 0
134 -18 -392 0
847 -846 0
556 -818 -823 -629 0
36 -444 -246 -411 0
156 -961 0
122 -868 -344 -7 0
750 -468 -706 -48 0
59 -202 -952 -455 0
201 -210 -668 -685 0
509 -808 0
482 -494 0
550 -900 -945 -481 0
763 -844 -657 0
248 -525 0
318 -291 0
113 -491 -833 0
77 -623 0
225 -345 0
396 -939 -935 0
842 -857 -619 -924 0
637 -126 0
595 -625 -83 0
616 -880 0
582 -596 0
998 -100 -9 0
8 -471 -148 -286 0
229 -862 0
837 -944 -695 0
-892 -655 -29 0
473 -977 -942 -621 0
483 -6 -893 0
-425 -775 -973 -385 0
460 -776 -452 0
841 -43 -503 0
289 -665 -684 -934 0
-930 -912 -826 -30 0
785 -634 -915 0
-225 -548 -435 -269 0
934 -124 -682 -326 0
723 -309 -55 0
-442 -876 -550 -787 0
177 -816 0
760 -642 0
382 -734 0
822 -659 -264 -559 0
637 -44 -229 0
-968 -696 -358 0
638 -375 0
680 -708 0
165 -212 0
984 -61 -315 0
777 -827 -564 0
908 -899 -298 -957 0
-981 -115 -557 -560 0
520 -772 -18 -340 0
-593 -882 0
604 -854 -581 0
36 -682 -347 0
520 -787 0
-907 -567 -151 -819 0
239 -679 0
905 -293 0
970 -79 0
959 -48 -152 0
582 -432 -909 0
-879 -699 -484 0
117 -660 -893 0
356 -269 -780 0
709 -233 -572 -220 0
-574 -248 0
167 -699 -293 -420 0
-448 -131 -453 -236 0
452 -652 0
451 -695 0
-244 -350 -187 0
540 -734 0
559 -169 -68 0
979 -428 0
452 -403 0
710 -709 -905 0
-759 -526 0
807 -187 -441 0
-951 -100 -381 0
294 -251 -228 0
-913 -989 -357 0
-805 -377 0
404 -88 0
-175 -48 -323 -742 0
76 -17 -996 -44 0
944 -468 0
188 -687 -550 -423 0
188 -307 -408 0
873 -424 0
730 -576 0
15 -909 0
263 -61 0
632 -130 0
213 -78 -574 -757 0
-275 -167 -838 0
-760 -214 0
-841 -642 0
-265 -93 0
82 -510 -349 -111 0
472 -805 0
-309 -263 -61 0
-800 -556 -806 0
-533 -223 -894 -494 0
467 -266 0
217 -922 -663 -498 0
581 -191 -415 -435 0
727 -272 -362 0
10 -626 0
110 -816 0
371 -749 0
272 -442 0
-788 -253 0
732 -248 -573 -311 0
-369 -319 -960 0
-796 -659 -596 0
-794 -941 -129 0
455 -8 -118 0
71 -517 -123 0
448 -479 -559 0
768 -673 0
195 -267 0
-879 -982 0
-253 -971 0
864 -64 0
-711 -61 -697 -824 0
539 -845 0
683 -575 -894 0
415 -394 0
691 -660 -751 -354 0
93 -606 -424 -638 0
-195 -339 0
988 -797 -887 -387 0
947 -666 -803 -817 0
775 -155 -403 0
354 -80 -378 -938 0
409 -226 -633 -13 0
704 -849 -111 0
628 -851 -914 0
892 -437 0
269 -172 -562 0
585 -140 -111 -450 0
865 -307 -520 0
284 -983 -977 0
346 -263 -922 -43 0
-982 -421 -775 -643 0
911 -112 -144 -730 0
328 -718 -87 0
-999 -919 0
-25 -709 0
121 -824 0
-514 -646 0
-963 -719 -599 0
198 -351 0
642 -932 0
-823 -856 -56 -88 0
-143 -638 -453 -878 0
968 -406 -488 0
802 -749 0
394 -614 0
729 -983 -539 -315 0
-909 -165 -536 -4 0
479 -966 -414 0
180 -201 -658 -22 0
935 -405 -930 -555 0
728 -863 0
-494 -27 -271 0
-476 -189 -775 0
116 -639 0
-518 -496 0
-496 -866 -213 -133 0
694 -3 -250 -266 0
-428 -995 -599 0
-288 -916 -423 -685 0
-58 -601 -26 -467 0
588 -899 -434 -717 0
83 -298 -105 0
787 -910 -994 0
-52 -541 -827 -6 0
653 -703 -568 0
101 -702 -736 -670 0
-529 -462 -193 -683 0
-867 -131 0
-33 -782 -937 -522 0
126 -193 -154 -845 0
972 -690 0
703 -554 0
963 -986 0
95 -336 -824 0
-594 -940 0
752 -57 -117 0
-968 -993 -856 0
778 -559 -587 -561 0
231 -604 0
563 -230 -743 -593 0
-412 -460 -540 0
710 -693 -259 0
35 -324 -877 -130 0
-84 -281 0
-916 -315 -507 0
105 -640 -78 -996 0
-651 -198 0
634 -269 -626 0
579 -887 0
313 -777 0
-554 -659 -153 -255 0
781 -996 -561 -280 0
-421 -724 0
-15 -72 0
668 -181 -827 0
-293 -267 0
-528 -671 0
-893 -569 -204 0
496 -529 -716 -643 0
945 -14 -959 0
850 -781 0
710 -357 0
42 -97 -202 -374 0
827 -351 -602 -143 0
551 -692 -817 0
615 -540 -995 -90 0
999 -442 -517 -70 0
470 -329 0
448 -377 -587 -241 0
408 -845 -50 -300 0
927 -899 0
399 -617 -286 0
398 -141 0
-750 -6 -977 0
33 -213 0
146 -156 -373 0
-917 -31 0
291 -361 -284 -709 0
176 -220 -391 -369 0
-762 -727 -734 -604 0
-350 -770 -614 -944 0
-160 -275 0
990 -189 -970 -623 0
624 -106 0
383 -96 -697 -394 0
-183 -23 -439 -251 0
845 -709 -85 -694 0
327 -128 -413 0
-453 -247 -64 0
-247 -957 -682 -162 0
318 -768 -383 -105 0
490 -310 -206 -129 0
192 -28 -394 -712 0
73 -335 0
129 -668 0
424 -679 0
300 -398 0
-192 -592 -644 0
-179 -11 -3 -558 0
-593 -687 -824 -495 0
658 -382 -387 0
-228 -991 0
457 -915 0
-814 -698 -469 0
-893 -418 -6 0
643 -544 -853 0
-37 -318 -882 -176 0
-605 -559 -603 0
-141 -673 0
818 -91 -766 -822 0
-328 -685 0
-854 -585 0
-876 -748 -314 -592 0
640 -296 -152 -155 0
367 -553 0
-616 -585 -334 0
-454 -440 0
306 -174 -787 0
-415 -675 0
527 -720 -934 -571 0
-292 -762 -789 0
240 -646 -807 0
864 -82 -540 -812 0
191 -374 -887 0
-8 -338 -838 -728 0
72 -66 -291 0
817 -734 -111 0
999 -491 -551 -287 0
772 -497 -651 0
452 -474 0
459 -393 -88 -717 0
281 -311 -229 0
917 -540 -52 -283 0
656 -188 -59 0
951 -987 -248 0
-754 -202 0
-996 -543 -8 0
-998 -775 -247 -392 0
840 -893 0
241 -256 0
45 -987 -513 0
313 -940 -261 0
161 -835 -997 0
544 -245 -412 0
119 -331 -157 0
836 -276 -25 0
585 -238 0
787 -761 -821 0
653 -638 -107 -201 0
223 -90 -762 -797 0
-8 -346 -318 -500 0
443 -375 -914 0
291 -586 0
880 -437 -191 -508 0
-373 -156 -760 -960 0
944 -910 0
633 -781 0
155 -420 -25 -735 0
-660 -221 -227 -837 0
70 -311 -172 0
146 -924 -442 0
358 -917 0
430 -247 0
560 -613 0
-769 -629 0
606 -994 -299 -348 0
392 -589 -384 0
-60 -694 0
528 -424 -629 -136 0
613 -450 -277 0
-137 -360 0
553 -929 -691 0
231 -245 0
959 -746 -983 -755 0
800 -788 -989 -109 0
149 -629 -283 0
109 -995 -560 0
391 -793 -926 -868 0
-72 -539 -533 -322 0
967 -86 0
-116 -363 -552 -86 0
816 -273 -927 0
140 -244 -708 -852 0
-521 -185 -707 -144 0
505 -28 -824 -644 0
611 -498 -271 0
-341 -948 0
162 -974 -58 0
820 -530 -849 -203 0
587 -610 -982 0
12 -887 -46 0
363 -526 -128 -934 0
-402 -703 -849 0
392 -1000 -479 -564 0
-342 -799 -89 0
819 -349 -797 -265 0
334 -429 -311 -252 0
723 -309 -102 -382 0
987 -223 0
12 -603 -292 -156 0
831 -37 -569 0
33 -617 -508 0
548 -567 -974 -481 0
581 -286 -466 0
132 -710 -658 0
-40 -747 0
-774 -898 -687 0
190 -813 -885 0
925 -26 0
-547 -91 -988 -998 0
321 -323 0
705 -733 -651 0
598 -572 -610 0
379 -976 0
726 -748 0
-766 -147 -178 0
-169 -776 0
138 -719 -374 0
974 -220 0
428 -564 -38 0
143 -113 -969 -450 0
-232 -911 -186 -928 0
198 -942 -342 -291 0
317 -535 -293 -246 0
249 -692 0
605 -578 -121 0
433 -306 -914 -975 0
481 -805 -713 -984 0
-433 -450 -326 -950 0
930 -596 -56 -478 0
-39 -25 -243 -210 0
691 -926 -811 -19 0
759 -772 -23 0
-183 -285 -119 0
123 -220 -76 -906 0
578 -487 -698 -57 0
574 -743 -107 -741 0
-912 -108 0
-375 -860 -751 -14 0
552 -864 0
729 -765 -682 0
736 -421 -909 0
837 -824 -862 0
-835 -271 0
408 -836 -912 -256 0
45 -178 -111 0
-301 -726 -331 -527 0
430 -810 0
493 -974 0
298 -391 -384 0
-628 -543 0
-687 -935 -281 0
640 -235 -134 -787 0
817 -433 -70 0
724 -838 -367 -793 0
859 -366 -356 -232 0
793 -432 0
-197 -678 -412 -259 0
236 -834 0
-963 -373 -602 -659 0
183 -343 -955 0
239 -616 -496 0
460 -827 -514 -205 0
695 -170 -741 -259 0
991 -3 0
-297 -315 -596 -14 0
741 -410 -875 0
459 -887 -111 -269 0
854 -840 -21 -265 0
587 -360 -44 0
500 -515 -475 -298 0
198 -894 -194 0
804 -797 -4 -715 0
-638 -323 -202 0
468 -207 -616 0
662 -243 -319 0
303 -150 -933 0
-923 -564 -818 -752 0
312 -276 0
425 -934 -471 -845 0
-751 -420 0
822 -432 -584 -164 0
-458 -870 -200 0
-450 -750 -928 -768 0
-558 -28 0
458 -841 -923 -901 0
402 -834 -823 -529 0
-238 -466 -773 -279 0
-989 -511 0
985 -47 0
574 -241 -761 0
937 -320 -853 0
393 -238 -516 0
290 -33 0
534 -5 -676 -317 0
6 -561 0
309 -738 -125 -781 0
781 -331 -336 0
634 -163 -367 0
622 -750 -266 -890 0
-646 -866 0
93 -583 -501 -537 0
968 -910 -506 0
190 -551 -988 0
-317 -148 -833 -819 0
628 -967 -116 0
-107 -34 -52 -247 0
251 -189 0
648 -598 -34 0
818 -613 -873 0
-35 -787 -604 -515 0
-886 -584 -163 -673 0
461 -613 -289 -27 0
540 -50 -836 -762 0
412 -864 -552 -222 0
731 -902 -869 -332 0
937 -510 -715 -67 0
-778 -960 -364 0
-647 -743 0
648 -823 -873 -265 0
239 -292 0
228 -338 0
472 -933 0
539 -670 -653 -355 0
57 -995 0
44 -880 0
446 -968 -192 -98 0
575 -732 0
180 -81 -658 0
375 -279 0
314 -317 -621 0
238 -585 -799 -949 0
698 -83 -287 -372 0
-207 -968 -722 0
116 -128 0
-800 -925 0
341 -768 0
-680 -728 0
312 -387 0
216 -777 0
947 -350 0
-333 -10 -656 0
2 -56 -891 -57 0
173 -152 -454 -908 0
-598 -853 0
536 -282 -638 0
787 -938 -176 0
-501 -348 -61 0
-500 -269 -584 0
-176 -863 0
714 -555 -564 -119 0
54 -430 -702 0
965 -358 0
-351 -190 -244 0
111 -678 -638 0
-79 -70 0
779 -961 0
432 -535 -400 -262 0
41 -93 -964 0
-642 -20 0
746 -942 -506 0
556 -26 -324 -296 0
165 -36 -51 0
843 -79 -624 -497 0
603 -27 0
420 -538 0
-555 -465 -213 -107 0
-575 -462 -737 -517 0
937 -218 -29 0
134 -941 0
-944 -369 -127 0
56 -341 0
170 -164 -483 -911 0
202 -882 -840 -134 0
863 -523 -599 -365 0
103 -891 -908 -939 0
466 -643 -349 0
958 -411 -139 0
669 -521 -143 0
642 -126 0
265 -482 -14 0
-747 -29 -723 0
-861 -837 -732 -142 0
70 -913 -13 -292 0
361 -102 -953 -576 0
-750 -878 -958 -904 0
-22 -314 0
446 -357 -730 0
-132 -481 0
132 -606 0
158 -393 -551 -402 0
-364 -378 -987 0
-314 -409 -866 0
401 -964 -899 0
148 -472 -275 -961 0
-302 -756 -176 0
306 -651 -862 0
-248 -264 0
795 -985 0
145 -109 -98 -700 0
289 -441 -742 -309 0
350 -291 0
-642 -192 0
-819 -675 -350 -553 0
-701 -951 -748 -76 0
1000 -419 -680 0
-921 -506 0
-957 -84 0
-982 -76 -824 0
357 -518 -976 -914 0
127 -760 -293 -345 0
892 -505 0
688 -693 0
857 -511 0
993 -364 -202 -151 0
-210 -887 0
-907 -954 -385 -641 0
807 -447 0
580 -795 -416 -129 0
70 -481 -624 0
302 -70 -105 -953 0
-834 -7 -65 -658 0
733 -729 0
656 -564 0
-894 -915 -311 0
170 -746 0
68 -449 -954 -536 0
980 -719 0
820 -322 0
180 -138 -590 0
-825 -734 -738 0
985 -746 -822 0
572 -389 -51 -170 0
-345 -356 -863 0
488 -320 -425 -664 0
501 -552 0
-64 -47 -855 -816 0
-931 -333 0
695 -824 -329 0
50 -668 0
-410 -878 -777 -515 0
283 -883 -194 0
908 -485 -321 -499 0
215 -793 -157 -187 0
936 -518 -630 0
762 -88 -829 0
952 -676 -66 0
305 -174 0
287 -898 -600 -169 0
-630 -316 -810 0
121 -335 -617 -757 0
-19 -607 -602 -581 0
27 -103 -229 -92 0
-251 -320 -742 0
255 -100 -734 -891 0
-644 -873 -265 0
61 -768 -788 -964 0
379 -753 -611 0
-153 -735 -20 -40 0
579 -602 -766 0
232 -296 -744 0
157 -579 -370 -548 0
729 -359 -642 0
-124 -8 -719 0
107 -817 -173 -84 0
186 -537 -473 0
323 -332 -114 -986 0
-952 -277 -757 0
725 -906 -400 0
336 -967 -328 -384 0
207 -96 -698 -580 0
353 -567 -423 0
190 -349 0
912 -822 -554 0
99 -87 -80 -965 0
97 -531 0
388 -184 0
865 -326 0
491 -375 0
617 -210 0
516 -573 -84 0
126 -762 -615 0
174 -744 0
958 -254 -784 -558 0
46 -379 0
843 -395 -690 0
-803 -455 -254 0
-206 -210 -159 0
-782 -398 0
836 -890 -225 -88 0
-524 -303 0
67 -102 0
506 -899 -338 0
659 -48 0
865 -116 0
940 -956 0
18 -31 -860 -143 0
231 -614 0
173 -643 -555 -202 0
999 -219 -862 -486 0
554 -398 -73 -150 0
790 -835 0
-121 -956 -939 -158 0
-522 -702 0
690 -618 -737 0
738 -283 -782 0
924 -389 -362 -176 0
139 -208 -907 -190 0
-152 -156 -754 -488 0
865 -844 -829 0
-791 -333 -520 -550 0
-668 -172 0
880 -978 0
453 -418 -883 0
-646 -312 0
454 -897 0
17 -285 -508 0
626 -435 -233 0
-759 -44 -643 -82 0
246 -204 -193 -970 0
-849 -599 -50 0
-487 -523 -280 -641 0
378 -267 -99 0
390 -140 -797 0
-658 -506 -787 -702 0
371 -985 -642 -145 0
885 -54 0
428 -495 -844 -649 0
395 -17 -837 0
334 -375 -829 -31 0
664 -718 -553 -615 0
745 -798 0
414 -632 -126 0
-88 -259 -866 0
-427 -699 -873 0
489 -296 -208 0
353 -533 -153 0
-808 -354 0
234 -209 0
985 -200 -141 0
60 -855 -978 0
-114 -306 0
670 -109 -645 0
-741 -587 0
-154 -520 -889 0
327 -275 -990 0
988 -855 0
390 -906 0
-678 -212 0
522 -263 -630 0
-232 -644 0
507 -626 -745 0
212 -352 -183 -167 0
502 -896 -549 0
413 -227 -500 0
293 -268 0
-245 -918 0
979 -879 0
758 -638 0
936 -856 -65 -531 0
257 -444 -471 -465 0
-302 -818 -17 0
582 -702 -119 0
-829 -929 -155 0
-872 -138 -424 -701 0
210 -425 -966 -75 0
-820 -167 0
151 -153 0
92 -155 -356 0
730 -20 0
-626 -185 -559 -119 0
-280 -227 -791 0
948 -435 0
546 -27 -535 -174 0
7 -18 -641 -715 0
-512 -150 0
-635 -693 0
297 -502 -10 0
247 -190 -131 0
221 -145 -829 0
526 -377 -529 0
741 -779 -720 -771 0
7 -766 -79 0
-101 -162 -115 -443 0
-827 -196 -849 -355 0
498 -564 -378 0
555 -100 0
10 -296 0
976 -471 -443 -613 0
463 -358 -732 -343 0
672 -933 -272 -461 0
-860 -112 -897 -909 0
-198 -711 -212 -1 0
43 -419 -936 -172 0
114 -597 0
380 -602 -252 -121 0
-224 -720 -612 0
-868 -336 0
822 -20 0
100 -443 0
182 -716 0
104 -533 -627 0
432 -203 0
832 -722 -7 -764 0
929 -55 0
536 -688 0
768 -849 -650 -883 0
-453 -969 -948 0
947 -297 -826 -714 0
501 -382 -461 -877 0
185 -317 -253 0
-812 -620 0
374 -113 0
186 -474 -373 0
-383 -666 -640 0
913 -294 0
-516 -324 0
-978 -711 -660 0
783 -972 -394 -624 0
-785 -486 -413 -532 0
92 -433 -447 -751 0
-759 -930 0
-641 -920 0
346 -796 0
121 -70 0
-752 -600 -503 -511 0
39 -401 -493 -298 0
623 -983 -345 0
841 -434 -92 -523 0
37 -655 -677 0
709 -26 0
315 -632 0
385 -982 0
-360 -413 -558 0
489 -589 -82 0
437 -121 -958 0
16 -718 0
157 -469 -667 -618 0
272 -180 0
632 -11 -8 0
576 -207 -151 0
734 -584 -385 0
-485 -844 -525 -620 0
359 -474 -105 -966 0
581 -193 -237 0
31 -340 -352 -539 0
-92 -775 -831 -219 0
823 -259 0
-522 -889 0
-265 -222 -189 -595 0
517 -106 0
-64 -853 0
110 -303 0
713 -318 -192 0
919 -88 -917 -317 0
-89 -382 0
918 -492 -917 -135 0
558 -459 0
506 -99 0
15 -607 0
421 -31 0
639 -23 -237 -18 0
716 -674 0
-798 -961 -160 -355 0
-596 -392 -716 -534 0
900 -90 -458 -847 0
-744 -238 0
278 -844 -806 -555 0
-758 -789 -214 0
643 -20 -993 -247 0
-246 -821 -316 -88 0
790 -581 -921 -550 0
977 -58 -502 0
102 -75 -40 -351 0
-354 -204 -50 -989 0
-378 -633 -438 -494 0
800 -689 -723 0
761 -772 -59 0
-348 -853 -928 0
-259 -246 0
938 -990 0
131 -787 -184 -368 0
437 -582 0
460 -35 -542 -426 0
266 -176 0
-871 -850 0
166 -985 -554 0
299 -862 0
372 -832 -299 0
-14 -563 -466 -291 0
322 -877 -93 -997 0
-748 -505 0
673 -738 -537 -561 0
968 -419 -877 -740 0
231 -848 -519 0
399 -192 -906 -18 0
204 -583 -267 -731 0
-267 -278 -58 0
196 -810 -93 -685 0
581 -946 -150 0
606 -439 -630 0
-890 -363 0
-54 -482 -31 0
-97 -858 -830 -519 0
143 -402 0
508 -151 -983 0
-639 -323 -827 -147 0
400 -464 -694 -602 0
492 -390 -484 0
-145 -931 -862 0
807 -92 -437 -688 0
-924 -951 0
813 -839 -431 0
-621 -612 -632 -532 0
-282 -70 0
999 -190 0
-744 -847 -879 -390 0
797 -180 -644 -496 0
608 -848 -707 -858 0
116 -293 0
-386 -130 0
-898 -122 0
149 -107 0
-117 -101 -406 -290 0
244 -432 -631 -971 0
252 -389 -474 -284 0
963 -832 -844 -875 0
-134 -165 0
657 -753 -582 0
-480 -515 -345 -489 0
382 -61 -562 -75 0
53 -350 -862 0
131 -575 0
631 -498 -480 -835 0
555 -934 -704 -607 0
13 -820 0
586 -561 0
985 -913 -366 0
18 -427 0
-892 -709 -673 -387 0
-400 -731 -90 -896 0
362 -63 -835 0
884 -624 0
-410 -135 -336 -662 0
474 -800 0
700 -799 0
848 -360 0
-969 -168 -876 0
440 -666 -1 0
-88 -846 -290 0
-78 -714 -681 -332 0
215 -729 -898 -838 0
379 -616 -918 0
431 -52 -143 0
974 -516 0
667 -188 -403 0
549 -803 -499 0
509 -31 -750 -655 0
605 -744 -373 -739 0
-970 -439 -400 0
-548 -863 -984 -534 0
-589 -552 -6 0
287 -647 -679 0
642 -790 -531 -680 0
993 -796 0
328 -610 -732 0
-976 -326 -231 -736 0
-182 -2 -962 -527 0
-903 -526 0
-124 -518 -709 0
345 -238 -559 0
747 -432 -103 -820 0
667 -884 -328 0
698 -754 -523 -647 0
776 -318 -281 0
374 -798 -244 -523 0
594 -331 -382 0
-749 -770 -440 0
989 -366 0
934 -360 -391 0
820 -405 0
-893 -308 -266 0
-199 -119 0
863 -332 -15 0
678 -352 -518 0
-174 -294 0
799 -835 -961 0
471 -765 -298 0
902 -165 -206 -686 0
631 -76 -753 0
989 -909 -18 0
371 -160 0
-175 -67 -204 0
155 -458 0
290 -632 0
707 -388 -108 0
843 -18 0
-286 -190 -867 0
289 -360 -93 0
460 -838 0
814 -120 -536 -319 0
165 -949 -145 -15 0
862 -707 -773 0
607 -646 -387 0
-32 -527 -514 0
562 -868 -238 -640 0
996 -123 0
912 -34 -953 0
642 -553 -109 -19 0
852 -529 -827 -66 0
-973 -97 0
97 -501 -537 -581 0
539 -566 -763 -96 0
946 -18 -295 -996 0
495 -251 0
424 -165 -374 0
241 -437 -699 -909 0
634 -439 -859 0
-146 -690 0
386 -74 -807 -594 0
762 -899 -329 0
-146 -231 -314 0
363 -211 0
-448 -716 0
-528 -785 -645 0
-642 -239 -212 0
543 -638 0
-7 -965 0
-182 -781 -284 -698 0
340 -538 -529 0
886 -434 0
-748 -610 -122 -438 0
700 -948 -827 0
522 -762 0
40 -682 0
688 -349 -614 0
918 -241 0
-389 -855 0
-292 -356 0
4 -275 0
864 -849 0
465 -525 -390 -874 0
-52 -59 -585 -365 0
298 -612 -168 0
778 -708 -795 -801 0
-205 -713 0
656 -658 0
-568 -673 -66 0
-818 -334 0
708 -702 -61 0
-518 -636 -557 0
-624 -40 -405 0
322 -239 0
-441 -704 -934 0
64 -219 -795 -158 0
26 -175 -768 0
196 -724 0
804 -756 -951 0
-662 -830 -545 -726 0
-61 -223 -121 0
911 -622 -939 -503 0
696 -485 0
398 -617 -321 -480 0
472 -610 -1000 -717 0
447 -713 -368 0
825 -104 0
789 -554 0
845 -956 -759 0
296 -501 -383 0
270 -578 0
-817 -960 -333 0
261 -56 0
18 -939 -11 0
362 -309 -456 -836 0
137 -448 0
-144 -334 0
-289 -895 -29 -307 0
-212 -660 -794 -854 0
344 -794 -796 -512 0
521 -382 -700 -838 0
787 -920 -282 -890 0
418 -941 0
737 -791 -227 -711 0
-801 -758 -742 -371 0
-181 -117 0
-775 -636 0
-36 -953 -316 -349 0
957 -937 -724 0
160 -183 0
497 -68 -332 0
219 -447 -584 0
-975 -189 -734 0
390 -473 0
-175 -339 0
3 -531 -402 0
-648 -190 0
920 -129 -285 0
-931 -977 -309 0
738 -744 -231 0
-14 -970 -834 -486 0
-117 -63 -464 -508 0
290 -637 -630 0
499 -570 -359 -490 0
-926 -995 -82 0
102 -940 0
-414 -806 0
708 -184 -987 -892 0
304 -172 0
131 -819 0
641 -909 -80 -846 0
826 -400 -678 0
208 -788 -596 -661 0
371 -91 0
-118 -107 0
219 -178 -824 0
-423 -764 -611 0
532 -137 -520 -648 0
169 -305 -278 0
75 -795 -691 0
169 -126 -233 0
242 -609 -843 0
675 -229 -658 0
-302 -812 -34 0
168 -890 -200 -222 0
-654 -224 -537 -210 0
884 -62 0
-718 -311 0
471 -39 -799 -442 0
-850 -383 -358 0
485 -956 0
-773 -954 -901 -570 0
423 -346 0
61 -343 0
218 -502 0
-707 -61 0
759 -960 0
-660 -267 -510 -747 0
346 -737 -390 -841 0
649 -353 0
634 -429 -864 0
-675 -839 -300 0
935 -875 -68 -884 0
213 -268 -294 -85 0
382 -655 -115 0
225 -364 0
273 -585 -473 0
-173 -55 -916 0
-27 -438 0
-588 -596 -226 -205 0
848 -510 -353 0
375 -477 0
789 -642 0
149 -43 -56 0
36 -947 0
-378 -461 -557 -390 0
884 -305 -620 -284 0
974 -5 -707 -676 0
926 -946 0
945 -948 -520 -62 0
510 -450 0
-93 -802 -349 -815 0
20 -113 -849 0
597 -759 -501 -298 0
707 -607 -113 -544 0
769 -170 0
387 -373 -657 -581 0
910 -599 -952 -460 0
636 -437 -704 0
-467 -47 -909 -404 0
133 -827 -330 0
930 -412 0
-747 -982 -359 -167 0
526 -808 -857 -997 0
-649 -56 0
-479 -195 -404 0
744 -391 -249 -181 0
-453 -924 0
65 -354 -200 0
276 -985 -964 -591 0
135 -443 0
-483 -283 -512 -186 0
916 -644 0
753 -999 -912 0
-169 -929 0
778 -756 -917 -441 0
419 -751 -408 -698 0
580 -494 -997 0
-729 -277 -564 -995 0
904 -99 0
-957 -380 -995 0
492 -764 -164 0
-557 -422 -524 0
502 -800 -983 -53 0
946 -234 -887 -890 0
119 -224 0
203 -904 -25 -238 0
837 -885 -851 -499 0
67 -158 0
634 -760 -503 0
231 -115 -32 -756 0
659 -138 -88 -55 0
-351 -429 0
651 -610 -271 -706 0
771 -848 0
696 -960 -162 0
-894 -179 -944 0
-49 -303 0
284 -677 0
877 -593 -876 -230 0
104 -991 0
728 -38 0
979 -443 -385 0
635 -242 -652 -151 0
101 -411 -738 -182 0
408 -398 0
141 -4 -351 -8 0
869 -26 -141 -556 0
779 -514 0
723 -514 0
-74 -975 -584 -892 0
388 -395 0
312 -5 -319 -910 0
351 -401 -207 0
709 -240 -395 -991 0
882 -589 -645 -495 0
475 -862 -46 0
576 -607 -620 -947 0
973 -396 0
-42 -341 -899 0
599 -285 0
63 -348 0
-195 -480 0
961 -379 -340 0
-223 -523 0
974 -193 0
-678 -106 -754 -63 0
-206 -174 -601 -898 0
793 -139 -25 -161 0
-596 -962 -967 0
-227 -387 -873 -465 0
-960 -341 0
147 -241 -523 0
729 -570 0
609 -541 -974 -20 0
-43 -322 0
809 -513 0
335 -537 -436 0
694 -882 -570 -710 0
546 -338 0
-235 -201 0
858 -282 0
716 -160 0
729 -692 -302 0
448 -162 0
-752 -970 -914 0
878 -79 0
377 -178 0
227 -206 -399 0
394 -46 -569 -573 0
252 -127 -398 0
876 -496 -170 -143 0
627 -804 -377 -360 0
526 -291 -988 -480 0
872 -850 -432 -68 0
110 -926 0
-546 -731 -354 0
851 -592 0
923 -1 0
896 -626 0
696 -20 0
180 -268 0
830 -730 -106 -721 0
616 -862 -525 -867 0
643 -105 -65 -986 0
-308 -299 0
888 -275 -223 0
-574 -121 -724 0
-398 -565 0
-680 -631 -726 -992 0
694 -495 -546 -808 0
-524 -83 -495 0
397 -581 -969 0
560 -867 -859 -439 0
250 -859 -613 -286 0
-323 -5 -552 0
434 -749 0
-200 -576 0
-636 -999 -659 0
709 -859 0
426 -961 -717 -987 0
-508 -843 -232 -527 0
-375 -960 -267 0
-670 -683 -33 0
114 -701 -618 0
-541 -669 -634 -269 0
-635 -848 -27 0
831 -243 -722 0
-38 -253 -905 -79 0
808 -287 -715 -927 0
-782 -635 -588 0
-50 -531 -821 -674 0
-111 -75 -242 -647 0
57 -796 -981 -208 0
-774 -467 0
411 -319 0
232 -588 0
224 -973 -388 -544 0
104 -862 -458 0
-848 -434 -735 0
-958 -232 0
918 -680 -159 0
951 -596 -952 -899 0
723 -746 -563 -396 0
132 -542 0
-702 -271 0
851 -120 -352 -858 0
151 -786 -344 0
-235 -689 -652 0
740 -805 -100 0
374 -759 0
184 -328 0
-57 -715 -896 0
100 -40 -802 0
-726 -691 -118 -227 0
-863 -79 0
652 -17 0
775 -112 -404 -898 0
879 -977 0
344 -196 -636 -804 0
-955 -3 -524 0
167 -481 -812 0
-812 -7 -724 -37 0
-764 -902 -246 0
959 -173 0
422 -964 0
606 -348 -697 -488 0
561 -816 -476 -340 0
70 -344 0
259 -250 -884 -296 0
-121 -997 -790 -660 0
894 -293 0
-990 -314 0
229 -13 -96 0
848 -788 -1 0
1 -139 0
662 -38 -651 0
419 -941 0
-585 -756 0
366 -199 -581 -277 0
10 -167 -148 0
597 -770 0
-603 -606 -986 0
730 -944 -821 0
903 -467 -530 0
888 -241 0
812 -706 -400 -671 0
986 -980 0
872 -186 -525 -943 0
46 -238 -432 -814 0
-411 -695 -468 0
143 -161 -922 0
-128 -104 -695 0
171 -262 -860 0
862 -356 -716 0
772 -868 0
820 -140 0
762 -492 -964 0
910 -826 0
171 -65 -389 0
353 -492 -754 0
921 -242 0
801 -254 -635 0
-997 -902 0
658 -294 -69 -882 0
-364 -31 0
32 -304 -800 0
621 -874 -304 -544 0
90 -362 -23 -140 0
-57 -429 0
600 -462 0
250 -967 -633 -463 0
820 -324 -807 -806 0
-336 -695 -298 0
-490 -871 -620 -447 0
-257 -945 0
676 -567 -485 -72 0
-488 -597 -276 0
478 -155 0
195 -24 -483 0
35 -56 0
-772 -593 -716 0
775 -224 -712 -991 0
244 -288 0
148 -841 -510 0
78 -120 0
882 -103 -207 0
896 -477 -105 -486 0
717 -19 0
803 -164 -121 0
192 -449 -832 -481 0
94 -707 0
-671 -741 0
-378 -661 0
-752 -841 0
795 -152 0
432 -692 -489 0
282 -108 -737 -962 0
354 -104 0
-871 -120 -350 -377 0
-627 -119 -953 0
-19 -423 0
-407 -469 0
793 -24 -795 -912 0
42 -262 0
570 -259 -203 -880 0
-327 -589 0
-201 -504 -534 -44 0
270 -634 -990 -967 0
84 -687 0
496 -599 -750 0
876 -374 0
568 -295 -989 0
-84 -798 0
-699 -495 0
-513 -833 0
-972 -473 -422 -881 0
927 -204 -990 0
-843 -554 -692 -265 0
702 -975 0
818 -802 -658 -587 0
-420 -341 -614 0
758 -613 -989 0
65 -751 -954 0
939 -952 -485 -25 0
50 -442 0
-705 -742 -525 -414 0
298 -407 0
-795 -601 0
647 -373 -945 -272 0
753 -205 -861 -2 0
-473 -389 -739 0
-660 -182 -834 -392 0
517 -666 -992 -278 0
-274 -202 0
-671 -101 -621 0
180 -551 0
732 -444 0
105 -204 -62 0
212 -39 0
718 -597 -728 0
909 -577 -100 -471 0
354 -513 -257 0
730 -552 0
764 -846 -205 -722 0
254 -307 -361 -272 0
483 -382 -495 0
-25 -776 -904 0
221 -14 0
-396 -616 0
533 -762 -8 -772 0
-311 -471 0
-253 -664 0
-494 -588 -723 -181 0
-37 -7 -435 -914 0
797 -273 -992 -395 0
6 -832 -925 -857 0
937 -90 -298 -667 0
481 -162 0
40 -217 -799 0
484 -83 0
-544 -554 -980 0
438 -242 -908 -107 0
-718 -104 -96 0
11 -170 -780 -189 0
633 -445 -927 -853 0
71 -178 0
176 -429 -57 -87 0
-537 -925 -631 0
540 -435 -179 -356 0
-451 -980 -755 -946 0
167 -855 -954 -599 0
-254 -960 0
865 -590 -192 0
957 -658 -472 -528 0
167 -674 -749 0
442 -789 0
-219 -462 -236 0
-768 -968 -984 -475 0
-977 -364 -979 -531 0
859 -5 -194 -68 0
182 -155 -603 -446 0
982 -102 0
701 -630 -826 -25 0
-848 -60 -123 0
-410 -574 0
946 -320 -371 0
-2 -567 -826 -972 0
586 -542 -496 -512 0
893 -295 -890 -499 0
-385 -407 -518 0
429 -22 -282 -766 0
233 -13 -874 0
-28 -175 -117 -373 0
347 -1000 0
733 -101 0
813 -144 -531 0
170 -39 0
875 -740 -36 0
789 -958 -49 0
-747 -10 0
-249 -500 0
348 -437 -744 -824 0
-484 -191 -213 0
762 -218 0
545 -425 -305 -552 0
-756 -368 0
186 -441 -423 -601 0
946 -534 -965 -448 0
659 -741 -423 0
215 -793 -338 -921 0
328 -703 -155 0
621 -480 0
-22 -151 -996 -683 0
920 -968 -253 -138 0
-453 -686 -730 -350 0
871 -448 -317 0
718 -607 -231 -249 0
327 -638 -713 -26 0
-171 -162 -629 -205 0
994 -804 0
-253 -261 -166 0
598 -179 -903 -398 0
-947 -828 0
798 -805 -147 -259 0
396 -178 0
755 -728 -583 0
466 -103 0
418 -100 -142 0
-417 -138 0
643 -473 -173 -821 0
522 -807 -483 -105 0
51 -216 -815 -315 0
718 -118 -341 0
167 -824 0
636 -656 -121 -773 0
-2 -734 -87 -614 0
-750 -512 -422 0
899 -849 -559 0
659 -215 -259 0
