c Horn formula (polynomial-time solvable)
c 1000 variables, 2500 clauses
p cnf 1000 2500
317 -874 -94 0
612 -563 -370 0
-901 -507 0
-750 -801 -793 -31 0
342 -534 0
630 -706 -42 0
-492 -872 -87 0
528 -543 -320 -883 0
456 -224 -28 0
914 -235 -647 0
130 -966 0
164 -178 -993 -279 0
365 -9 -503 -742 0
-239 -379 -184 0
798 -580 -186 -126 0
997 -178 -270 0
792 -56 0
82 -440 0
-244 -799 0
-826 -613 -786 0
-964 -264 -866 -185 0
673 -194 0
962 -891 -873 -232 0
-671 -231 0
-350 -745 -31 -870 0
904 -78 -932 0
863 -357 -606 -32 0
173 -260 0
754 -374 -307 0
780 -661 0
819 -686 -788 0
488 -812 0
318 -482 -126 0
856 -983 -292 0
-364 -331 0
137 -291 0
285 -933 0
186 -275 -882 0
765 -196 -936 -90 0
994 -446 -332 -55 0
208 -6 0
-351 -696 -568 0
-147 -71 -474 0
721 -423 -315 -980 0
-329 -480 -980 0
-954 -790 -64 -254 0
124 -856 -464 0
-410 -396 -466 0
860 -945 0
-434 -734 -535 -350 0
685 -215 -287 0
230 -714 -770 0
-710 -105 0
281 -594 0
323 -867 0
758 -457 0
686 -76 -68 0
122 -482 -507 -103 0
-967 -765 -131 -1000 0
311 -156 -62 -769 0
597 -53 -461 -134 0
863 -864 -442 0
68 -448 0
542 -869 -574 0
822 -553 0
-793 -610 -860 -628 0
-851 -52 0
-266 -939 -723 0
-829 -599 -146 0
-473 -997 -819 -861 0
555 -950 -270 0
37 -268 0
280 -342 -358 0
887 -670 0
923 -26 0
-810 -651 -674 -827 0
678 -225 0
694 -263 0
-444 -494 0
-745 -30 0
919 -874 0
-493 -791 -593 -45 0
786 -278 -986 -655 0
518 -999 0
613 -759 -984 0
335 -308 0
-59 -536 -442 0
276 -360 -661 0
524 -876 -375 -957 0
411 -768 -502 -506 0
780 -644 0
802 -758 -829 -465 0
581 -149 0
820 -805 -508 0
34 -399 -425 0
461 -866 -203 0
-810 -948 0
-370 -405 0
109 -160 -993 -8 0
190 -124 0
198 -375 -176 -199 0
-256 -877 -916 -145 0
583 -832 -441 0
-79 -599 -436 -328 0
499 -962 -882 -937 0
-941 -240 -190 0
-515 -840 -610 0
810 -157 -298 -4 0
709 -394 0
300 -808 -274 -466 0
30 -354 -836 -826 0
837 -199 -631 0
901 -737 -636 0
-468 -841 -76 -641 0
-882 -749 -104 -712 0
627 -572 -7 -827 0
804 -939 0
216 -244 -144 0
434 -52 -176 0
505 -158 0
123 -439 -105 0
-64 -46 0
686 -251 -372 0
977 -763 0
243 -929 0
488 -115 -131 0
779 -614 0
148 -414 0
-613 -14 -659 0
944 -127 -109 -924 0
361 -936 -543 0
568 -378 -772 0
599 -364 -581 -2 0
213 -992 0
-731 -379 -626 -421 0
13 -662 0
-654 -507 -346 0
-551 -598 -725 -924 0
535 -988 -186 -301 0
-257 -502 0
-721 -479 -150 0
582 -436 -281 -379 0
565 -293 0
-901 -48 0
159 -453 -80 -540 0
511 -112 0
534 -882 -683 0
-176 -802 0
930 -323 0
212 -408 0
358 -653 -183 -786 0
-318 -119 -342 0
723 -465 -645 -856 0
2 -236 -510 0
916 -123 -581 -977 0
-574 -271 -797 0
76 -746 -187 -943 0
386 -629 0
201 -962 -695 0
-743 -277 0
747 -442 0
357 -956 -639 -950 0
951 -920 0
169 -926 -297 0
437 -997 0
-879 -228 -455 0
550 -127 0
-845 -829 0
716 -885 -425 0
795 -486 -56 0
516 -960 0
-273 -844 -724 0
679 -190 0
426 -647 -54 0
560 -512 0
901 -70 -925 0
127 -11 0
-835 -84 -844 -906 0
497 -836 0
846 -721 0
477 -142 -390 0
667 -292 0
-598 -631 -372 -473 0
370 -916 -90 0
-912 -276 -847 -670 0
325 -219 0
85 -818 -557 -554 0
-270 -188 -454 -232 0
874 -49 -671 0
-904 -172 0
319 -131 -332 -685 0
733 -27 -956 0
31 -971 -361 0
-146 -232 -69 0
-453 -870 0
-771 -17 -562 -974 0
517 -992 -382 -851 0
987 -486 -778 -801 0
350 -65 0
295 -893 0
-110 -971 0
622 -861 -374 0
479 -474 -920 -397 0
806 -534 0
-288 -983 -842 -13 0
99 -110 -881 -564 0
567 -583 -30 -963 0
-217 -279 -63 0
-905 -395 -392 0
40 -165 -132 -882 0
-995 -673 0
101 -575 -277 0
812 -655 0
-612 -562 -6 -205 0
-118 -455 0
-404 -673 0
-954 -910 -395 -71 0
712 -423 -885 -754 0
-422 -938 -754 -768 0
779 -480 0
983 -138 -27 0
119 -148 -913 -267 0
778 -176 -537 0
437 -987 0
-41 -297 -264 0
100 -170 -116 -730 0
-152 -208 -924 -48 0
988 -758 -850 -123 0
230 -706 -436 -22 0
394 -479 0
-265 -27 0
953 -170 0
291 -107 -599 -547 0
711 -901 -236 -6 0
797 -290 0
452 -971 -993 0
999 -870 -858 0
50 -169 0
696 -326 0
527 -347 -753 0
764 -298 -341 -877 0
32 -756 -867 0
673 -105 -338 0
618 -342 0
-795 -110 -908 -489 0
651 -555 -907 0
454 -358 -938 0
498 -177 -237 0
-963 -939 0
-96 -899 0
-68 -43 -530 -60 0
278 -699 -767 0
623 -637 -347 0
800 -10 0
783 -126 -539 0
922 -559 -355 0
-612 -571 -858 -411 0
-801 -212 0
900 -513 -748 -135 0
929 -491 0
113 -673 -41 0
-540 -926 0
702 -289 0
-602 -125 0
-664 -448 0
761 -391 0
606 -896 -128 0
781 -871 -977 0
-947 -723 0
846 -473 0
580 -129 0
-394 -357 0
566 -6 -881 -734 0
328 -517 0
364 -677 -990 -249 0
351 -286 -323 0
949 -615 -578 0
340 -103 -381 0
95 -477 -270 -214 0
-49 -825 -669 -301 0
-410 -726 -684 -800 0
422 -689 -805 -897 0
-437 -523 -82 0
-329 -606 -371 -565 0
970 -609 -852 -711 0
-572 -164 0
522 -645 -16 0
103 -50 -482 0
-372 -52 0
134 -210 -315 0
169 -634 -164 0
-382 -226 -185 0
-966 -192 -864 0
756 -526 -4 0
416 -966 -802 -926 0
396 -871 0
-628 -647 -707 0
949 -12 0
502 -206 -480 0
649 -490 -884 -52 0
849 -769 0
-51 -332 -554 0
-726 -702 -499 -451 0
227 -644 0
-586 -878 0
133 -334 -938 0
-14 -248 -758 -280 0
449 -843 0
908 -313 -380 0
772 -32 -502 0
934 -176 0
361 -329 -870 0
-433 -45 -191 -916 0
858 -532 0
82 -47 0
-519 -526 -467 -508 0
10 -918 0
184 -844 0
-881 -44 0
146 -696 -789 -431 0
-619 -521 -185 -131 0
-646 -385 -261 -324 0
-148 -647 -559 -59 0
447 -252 -655 0
-543 -905 0
-181 -389 -293 -706 0
-322 -762 -189 -619 0
-691 -310 -663 -133 0
-313 -779 0
826 -754 -984 0
685 -689 -167 -20 0
580 -538 0
-381 -309 0
622 -921 -838 0
865 -42 -326 0
-635 -636 0
387 -69 0
664 -338 0
649 -343 0
-122 -291 -260 -3 0
87 -332 -303 0
-767 -785 -502 0
881 -684 -701 -102 0
810 -62 -811 0
589 -526 -596 -699 0
716 -848 -485 -225 0
-483 -848 0
-306 -744 0
-620 -368 0
-828 -280 -690 0
824 -241 -890 -630 0
-463 -973 -841 0
-661 -833 -984 0
-384 -535 0
146 -23 -25 0
-93 -978 0
361 -420 0
550 -342 -34 0
-112 -38 -42 0
-286 -214 0
233 -424 -174 0
905 -224 0
476 -24 -892 -85 0
39 -65 -957 -859 0
849 -156 0
-275 -924 -837 0
-981 -19 0
233 -214 -593 0
208 -992 -700 0
815 -697 0
572 -27 -405 -800 0
220 -407 -945 0
321 -403 -750 0
238 -682 -528 0
581 -210 -482 -471 0
449 -788 -618 0
213 -16 0
806 -479 -963 -229 0
360 -479 0
359 -112 0
584 -623 0
354 -900 -773 -664 0
893 -612 -772 0
-865 -220 0
234 -865 -943 -763 0
459 -745 0
280 -936 -392 0
-429 -665 -134 0
788 -340 0
-414 -646 -438 -470 0
-937 -284 0
498 -10 -478 0
944 -117 -345 0
751 -493 -426 0
218 -151 -730 0
62 -982 -235 -61 0
377 -519 -641 -785 0
-503 -87 -982 0
366 -797 -297 0
825 -350 -287 -552 0
280 -111 -961 -420 0
360 -766 -9 0
369 -307 -700 0
10 -343 -989 0
-353 -514 -155 -453 0
869 -51 0
633 -912 -477 -649 0
665 -383 0
583 -105 -328 -530 0
910 -596 0
244 -116 -894 0
291 -880 -913 -186 0
500 -294 -641 -744 0
-613 -350 -660 -43 0
395 -93 -798 -805 0
-997 -231 -553 0
324 -191 -930 0
915 -657 0
599 -445 -755 0
-292 -880 -802 -1000 0
141 -238 0
329 -479 -476 0
-84 -296 -153 0
356 -180 -92 0
-913 -998 0
591 -775 0
-924 -573 -377 -520 0
685 -500 0
786 -213 -541 0
884 -611 0
781 -750 -864 0
591 -376 -669 -446 0
160 -572 0
886 -650 0
669 -601 -316 0
732 -638 -960 -118 0
-43 -253 -887 0
169 -547 -116 -951 0
-766 -208 -76 -837 0
869 -591 -586 -393 0
-606 -483 0
492 -664 -410 -205 0
699 -272 -657 -969 0
-853 -430 -130 -444 0
706 -550 -487 -578 0
582 -692 -647 0
519 -423 0
480 -355 0
442 -691 -358 -717 0
464 -377 -34 -451 0
839 -821 0
-172 -406 -98 0
449 -127 0
553 -171 0
716 -145 -995 0
-440 -749 0
29 -476 -374 0
718 -777 -900 -276 0
109 -405 -276 0
923 -458 -883 -212 0
534 -464 0
400 -438 -426 0
614 -881 -411 -116 0
278 -522 -872 -275 0
908 -772 0
495 -446 0
813 -405 0
157 -905 0
779 -436 -978 0
239 -246 -304 0
705 -658 -592 -245 0
115 -825 -620 -118 0
732 -276 0
555 -69 -826 -449 0
-652 -276 0
-524 -639 0
753 -843 -668 0
698 -967 0
380 -660 -250 -148 0
-206 -87 -189 -488 0
296 -371 0
-200 -672 -652 -168 0
164 -56 -595 -619 0
47 -318 0
494 -608 -606 -74 0
721 -535 -934 -310 0
102 -900 -971 0
932 -379 0
633 -525 0
872 -907 -959 -590 0
833 -736 -658 0
44 -917 -684 -472 0
767 -315 0
68 -308 -953 -599 0
966 -144 -662 -351 0
-692 -354 -514 0
684 -974 0
-689 -983 0
565 -657 -955 0
634 -105 -842 0
896 -617 0
520 -460 -789 -110 0
867 -124 -549 -490 0
86 -647 -374 -201 0
-265 -287 -725 -138 0
-380 -152 0
-880 -827 -633 -80 0
873 -468 -489 -157 0
58 -658 -217 0
-180 -814 0
345 -225 -378 0
162 -534 -480 -318 0
952 -383 -378 -60 0
714 -764 -125 0
980 -803 -172 0
102 -626 0
207 -163 -524 -853 0
878 -338 -246 0
233 -691 0
-996 -913 0
199 -253 -172 -364 0
-200 -563 -1 -549 0
-512 -827 -608 -762 0
924 -409 -134 -973 0
526 -399 0
476 -277 0
-615 -989 -91 -859 0
898 -558 -92 0
784 -312 -276 -709 0
173 -448 -589 0
143 -726 0
98 -72 0
81 -669 -536 -463 0
-967 -278 -561 -867 0
188 -246 -828 -363 0
-82 -551 -97 -847 0
279 -69 0
742 -782 -981 0
401 -882 -157 0
605 -507 -526 0
-190 -827 0
991 -4 -439 -561 0
525 -708 0
124 -837 0
545 -335 -778 -611 0
-972 -88 -885 -792 0
-316 -313 -396 0
531 -782 -590 0
339 -573 0
759 -187 -69 -219 0
268 -303 0
795 -24 -212 0
323 -714 -560 0
-293 -815 -763 0
113 -653 -867 0
539 -307 0
712 -447 0
377 -77 0
656 -805 -894 0
-255 -362 0
252 -106 -935 0
-532 -858 -874 0
395 -664 0
549 -489 -137 -293 0
300 -892 0
-402 -303 0
417 -624 -894 -423 0
49 -182 0
688 -899 0
-241 -905 -870 0
-851 -94 -36 -524 0
621 -824 -908 -918 0
-118 -82 -941 0
453 -193 0
628 -416 -926 0
761 -324 -743 -734 0
-572 -868 -398 -65 0
724 -765 -40 -925 0
157 -497 -870 -188 0
-70 -953 0
-836 -600 0
-465 -489 -719 -104 0
-58 -24 -157 -796 0
782 -609 -308 0
-342 -824 -368 -236 0
379 -555 0
-380 -678 0
674 -103 -442 0
75 -32 0
392 -871 -524 0
153 -984 -264 0
629 -893 -547 -457 0
530 -396 -456 0
137 -515 0
-176 -59 -567 -619 0
922 -722 -177 0
791 -185 -14 0
-175 -60 -744 0
-188 -500 -553 0
518 -930 -528 -998 0
306 -449 -772 -653 0
337 -373 -675 -330 0
-111 -631 0
857 -494 0
297 -774 -630 0
-700 -714 0
684 -206 -917 -804 0
313 -251 0
-326 -603 -131 0
-835 -932 -309 0
847 -184 -230 0
-764 -100 0
591 -103 -996 -485 0
265 -9 -436 0
22 -508 -305 -84 0
990 -93 -726 0
-162 -798 -414 -707 0
582 -744 -637 0
608 -10 0
928 -901 -438 0
-663 -823 0
233 -48 -28 0
137 -914 0
-148 -664 0
457 -648 -935 0
635 -232 -154 0
956 -734 -859 0
-533 -538 -898 0
788 -977 0
-368 -610 -29 0
10 -836 0
-495 -553 -193 0
643 -942 -591 0
184 -499 -823 -565 0
847 -403 0
326 -827 0
854 -880 -867 0
144 -536 -534 0
716 -78 0
778 -793 0
-744 -350 -816 0
129 -65 -434 -367 0
554 -31 0
258 -594 -467 0
-25 -527 -283 -515 0
-908 -357 0
733 -884 -878 0
352 -85 0
929 -361 -386 0
739 -733 -193 -786 0
601 -681 0
664 -362 0
939 -512 -616 -183 0
562 -336 0
704 -815 -989 -542 0
190 -618 -9 -44 0
463 -443 -123 0
535 -433 -189 0
391 -384 -728 0
-665 -280 -341 0
-473 -472 0
602 -265 0
12 -648 -302 0
-804 -749 -234 0
-314 -296 -717 -861 0
889 -637 -950 0
47 -369 -850 -544 0
-942 -648 -41 0
-1000 -382 0
321 -951 -695 -811 0
713 -606 -622 -907 0
464 -96 -726 -79 0
-818 -246 0
-621 -174 0
-519 -412 -744 -262 0
-277 -110 0
-838 -992 0
637 -980 -740 -732 0
307 -524 0
-996 -770 -497 0
866 -613 0
-54 -619 -738 -539 0
-963 -578 -33 -745 0
148 -576 -614 -937 0
799 -705 -235 0
735 -290 -349 0
444 -70 -436 -178 0
96 -267 -6 0
670 -566 -343 0
900 -238 0
407 -272 -420 -792 0
123 -86 0
59 -517 -311 -238 0
219 -548 0
145 -530 -167 -483 0
931 -115 -644 -65 0
-413 -439 -875 0
15 -435 0
137 -939 -103 -234 0
858 -317 0
881 -454 -489 -801 0
410 -486 -257 0
251 -566 -5 -819 0
990 -962 -923 0
706 -35 0
833 -169 -777 0
-171 -22 -526 0
816 -29 -485 -546 0
748 -26 0
551 -313 -631 0
-526 -329 -673 -861 0
185 -38 -927 0
130 -937 -891 -564 0
848 -52 0
910 -836 0
790 -70 -51 0
-744 -141 0
804 -699 -90 0
247 -623 0
-887 -1 -130 0
-831 -213 -797 0
905 -450 0
-708 -787 -730 -768 0
856 -27 -63 0
886 -820 -806 -29 0
431 -726 -141 0
43 -46 0
952 -913 -743 0
590 -705 -5 -638 0
443 -314 -303 0
-730 -685 0
-378 -277 -853 0
523 -654 0
-994 -254 -105 -107 0
-29 -453 -864 0
583 -630 -173 0
244 -119 0
966 -711 -485 0
407 -202 0
-189 -511 0
940 -584 -404 -329 0
-830 -379 -857 -697 0
234 -945 -416 -846 0
-87 -988 -134 0
403 -597 -512 0
823 -244 0
634 -48 0
736 -700 0
-400 -55 -786 0
537 -83 -403 0
674 -922 0
523 -702 -826 0
746 -19 0
301 -429 -122 0
818 -893 0
888 -812 0
581 -205 0
426 -842 -452 0
432 -951 -607 0
342 -36 -952 -22 0
-209 -757 -694 -753 0
361 -349 0
-49 -305 -936 0
910 -708 -976 0
310 -209 -356 -21 0
21 -637 0
519 -489 -636 0
931 -305 -57 0
617 -64 -313 0
691 -303 -733 -380 0
-351 -852 -122 0
678 -100 -673 0
83 -397 -282 0
-631 -373 0
724 -491 -412 -352 0
-411 -394 -634 -874 0
284 -404 -208 -225 0
-980 -99 -581 -16 0
-80 -313 -920 -323 0
-589 -705 -186 0
175 -643 -95 -227 0
-753 -201 0
-22 -119 -646 -707 0
303 -960 -938 0
821 -811 -817 -692 0
118 -407 -408 0
-585 -306 -861 0
-194 -476 -798 0
-955 -576 -417 -991 0
208 -49 -772 0
108 -83 -590 0
206 -177 0
420 -12 -580 0
607 -568 -861 0
-721 -545 0
982 -461 -636 0
849 -62 0
-967 -137 -109 -757 0
403 -909 -20 0
406 -581 0
42 -242 -278 0
543 -615 -457 -157 0
270 -546 -3 0
-549 -286 -916 -255 0
988 -417 -276 0
-82 -321 -43 0
734 -744 -484 -684 0
-458 -180 -967 -626 0
-681 -908 -785 0
-845 -332 0
-171 -851 0
-516 -26 0
691 -357 -525 0
-229 -701 -134 0
238 -660 0
486 -230 0
-499 -484 -603 0
996 -690 0
431 -475 0
405 -842 0
-913 -844 -845 -315 0
-606 -119 -251 -615 0
692 -981 0
155 -934 -621 -142 0
-892 -609 0
354 -185 0
208 -148 0
-529 -224 -793 0
959 -272 -329 0
-186 -75 0
958 -112 -933 -238 0
714 -141 0
-49 -460 -752 0
995 -372 -162 0
909 -243 -979 -143 0
879 -754 0
326 -570 0
873 -55 -253 -785 0
103 -198 0
903 -992 0
946 -148 -352 0
370 -983 -68 0
299 -272 0
-262 -245 -248 -88 0
959 -879 -677 0
508 -132 -881 0
817 -717 0
931 -787 -492 -449 0
496 -139 -364 0
-709 -505 0
202 -518 -959 0
-486 -141 0
-503 -461 0
822 -114 -629 -384 0
455 -87 0
450 -887 -589 0
857 -741 -221 0
977 -708 -824 0
709 -529 -792 -697 0
234 -580 0
-538 -353 -901 0
702 -545 -64 0
-665 -907 -642 0
126 -824 -727 -38 0
-682 -983 -32 0
-287 -278 -889 0
416 -657 -923 -871 0
406 -372 -155 -817 0
-512 -634 0
14 -452 -142 0
393 -941 -78 -997 0
35 -783 0
273 -892 -467 0
553 -801 -115 0
434 -612 -551 -174 0
-798 -319 -823 -663 0
146 -372 -629 0
404 -167 0
977 -438 -212 -61 0
348 -85 -372 -429 0
700 -593 0
109 -776 0
702 -305 -926 0
359 -313 -965 -920 0
707 -77 -734 0
240 -374 -597 0
-419 -695 -847 -337 0
-91 -961 -579 -730 0
695 -153 -866 -506 0
-602 -197 0
519 -88 -510 0
-247 -344 -680 -679 0
822 -198 0
13 -754 -947 -424 0
198 -974 -12 -736 0
533 -112 -780 0
740 -866 -311 0
245 -650 0
-696 -448 0
-934 -663 -596 -44 0
693 -653 0
589 -582 0
444 -608 0
393 -786 -319 0
-848 -712 -414 0
956 -229 -357 -840 0
-523 -623 -283 0
-170 -987 -906 -99 0
816 -436 0
133 -54 -319 -60 0
-216 -868 0
193 -92 -908 0
441 -99 -581 0
812 -208 -504 0
561 -527 -201 -425 0
630 -114 -222 -644 0
875 -191 -443 0
66 -541 -513 -278 0
-331 -781 0
869 -522 -373 0
450 -514 0
881 -177 -461 -310 0
-330 -136 -321 0
622 -93 -329 0
915 -948 -763 -995 0
913 -632 -1000 -43 0
647 -666 -338 0
-943 -621 0
-882 -885 -899 -605 0
451 -583 0
244 -568 -132 -204 0
308 -997 -219 -526 0
-159 -652 -379 -750 0
-39 -703 -232 -818 0
-886 -253 0
925 -643 -627 -760 0
126 -105 0
248 -764 -915 -207 0
856 -537 0
189 -711 -687 0
557 -391 -432 0
-697 -173 -359 0
714 -749 -358 0
261 -56 -541 -939 0
325 -628 -855 0
786 -597 0
28 -11 -900 0
381 -694 0
-98 -996 -670 -309 0
-998 -589 0
-844 -541 0
-430 -932 0
828 -896 0
70 -17 0
764 -184 -151 0
458 -335 -779 -922 0
-777 -512 0
489 -53 -244 -206 0
-147 -504 -992 -692 0
-994 -863 -295 -239 0
-660 -72 -159 -155 0
-471 -636 -681 0
231 -953 -742 0
-501 -981 0
-156 -115 0
366 -477 -474 0
-42 -767 -845 0
728 -141 -63 -250 0
609 -4 -43 -544 0
-356 -673 0
69 -352 -286 -916 0
495 -763 -78 0
-314 -140 0
39 -152 0
-541 -319 0
-858 -595 -367 0
121 -161 -102 -622 0
503 -831 -421 0
-861 -115 0
-620 -262 -735 -76 0
-165 -795 -471 -390 0
-742 -345 -738 -136 0
501 -842 -697 -568 0
728 -265 -800 -288 0
-807 -668 0
83 -166 -463 0
-910 -722 -873 0
-804 -919 -11 -371 0
766 -918 0
805 -557 0
-185 -193 -125 0
-291 -293 -790 0
-140 -817 0
-404 -110 0
-451 -216 -718 0
-686 -504 -317 -499 0
60 -639 -281 -897 0
294 -542 0
555 -223 -90 0
992 -960 0
525 -839 -744 -681 0
724 -153 -44 -299 0
-64 -108 -617 -729 0
223 -129 0
807 -260 -876 0
78 -808 0
-59 -78 0
-124 -689 -665 0
-298 -352 0
-732 -431 0
-396 -24 -538 -351 0
724 -195 -978 0
-650 -464 -266 0
-292 -776 -957 -807 0
-274 -867 -433 -659 0
-211 -894 -514 -525 0
699 -743 -597 -435 0
707 -317 -526 0
531 -756 0
556 -532 -517 0
-466 -26 0
670 -644 -12 0
968 -867 -275 -842 0
-924 -130 0
-729 -897 -46 0
656 -486 0
126 -95 -994 -170 0
389 -426 -913 -984 0
725 -420 -385 -850 0
-446 -183 0
152 -441 0
67 -782 -467 -511 0
346 -407 -752 0
220 -985 0
-431 -477 0
-124 -230 0
-123 -481 -28 -182 0
394 -400 0
603 -812 -834 -26 0
-629 -494 -902 0
209 -488 -613 -321 0
-554 -803 0
-850 -718 0
-196 -679 -151 -360 0
-106 -782 -127 -988 0
977 -186 0
-188 -111 0
795 -59 0
406 -380 0
-584 -304 0
156 -386 0
550 -812 -767 0
792 -800 -254 0
399 -79 0
870 -24 0
352 -195 -874 -573 0
116 -638 0
59 -964 0
436 -549 -157 0
630 -274 -828 -759 0
341 -178 -233 0
579 -160 0
461 -71 0
-444 -404 -98 0
-409 -407 0
-193 -338 -628 -225 0
-962 -378 -280 -180 0
481 -604 -594 -258 0
536 -561 -834 -59 0
-120 -341 -500 0
-244 -402 -131 -686 0
-674 -742 -264 -215 0
126 -561 -761 0
-240 -91 -168 -425 0
825 -383 -887 0
220 -385 0
-589 -310 0
-469 -778 -371 0
-780 -810 -833 -953 0
747 -611 -930 0
-368 -751 -35 -284 0
500 -261 0
958 -720 -702 -773 0
-803 -393 -620 -5 0
103 -562 -135 0
535 -2 -916 0
617 -806 -196 0
936 -635 0
53 -682 -963 0
885 -688 0
562 -840 0
570 -311 -949 -872 0
-996 -242 -569 -145 0
650 -228 0
-905 -587 -467 0
668 -539 -718 0
672 -1 -603 0
-381 -919 0
815 -312 -207 -865 0
-249 -300 -274 -56 0
886 -565 -132 -963 0
1000 -611 0
381 -289 -175 -680 0
-814 -514 -595 -387 0
-112 -668 0
1 -194 0
-679 -5 -126 0
533 -28 -683 -457 0
571 -836 0
165 -160 -450 -448 0
157 -420 -386 -476 0
67 -107 -669 -215 0
556 -826 -17 0
133 -774 -297 -278 0
280 -846 0
11 -32 -603 0
-745 -116 0
-713 -750 0
390 -249 -630 -167 0
438 -867 -235 0
243 -854 -882 0
208 -839 -983 -153 0
715 -692 0
896 -853 0
596 -609 0
902 -887 0
-351 -123 -691 0
-442 -629 -831 -213 0
151 -448 -384 -997 0
-519 -523 -996 -496 0
30 -770 -291 -673 0
-197 -683 -29 0
482 -385 -201 -478 0
856 -52 -197 0
-723 -434 0
-390 -649 -142 0
-775 -756 0
376 -24 -332 0
370 -256 -777 0
401 -223 -398 0
809 -216 -514 0
394 -604 -55 0
187 -887 0
300 -715 -468 -421 0
345 -971 -394 -538 0
80 -992 0
200 -46 -925 -865 0
-906 -992 -406 0
244 -31 0
266 -30 -98 -232 0
726 -3 0
510 -39 0
-798 -833 -296 0
-213 -439 0
-436 -181 -593 -898 0
885 -584 -279 0
351 -217 -947 0
517 -809 0
56 -770 0
193 -759 0
-459 -130 0
155 -899 -214 0
882 -910 -499 0
-388 -260 -893 -930 0
558 -40 -910 0
397 -660 0
446 -3 0
564 -680 -298 0
-100 -936 -766 0
128 -750 0
647 -165 0
231 -616 -373 0
-425 -743 0
-603 -4 0
685 -326 -241 0
24 -188 -884 0
868 -545 0
438 -403 -878 0
-720 -845 -25 0
599 -228 -818 -722 0
191 -454 -968 0
360 -336 -168 -92 0
226 -699 -382 0
910 -980 -777 -780 0
349 -617 -923 0
-622 -620 -563 0
771 -596 0
-389 -328 -394 -387 0
691 -349 -682 0
-718 -129 -544 0
614 -503 -523 -48 0
662 -819 -317 -611 0
33 -403 -715 0
-447 -457 -986 -770 0
691 -152 0
926 -906 -42 0
464 -536 -867 0
222 -467 0
842 -845 0
-381 -439 -754 -410 0
680 -826 -845 -788 0
-864 -242 0
-750 -588 -946 -615 0
453 -129 -371 0
907 -749 -178 0
829 -540 -630 -622 0
-922 -217 -694 -586 0
-26 -787 0
-621 -285 0
191 -593 -121 -826 0
473 -135 -125 0
-677 -696 0
-779 -791 0
778 -138 -558 0
988 -891 -667 -897 0
228 -301 -793 0
661 -552 0
690 -764 0
-100 -361 -183 -97 0
293 -3 -596 0
382 -581 0
311 -650 -482 0
125 -963 -135 0
-387 -204 -868 0
107 -855 -331 0
836 -333 0
658 -558 -628 -269 0
567 -40 -493 -134 0
903 -240 -441 0
193 -673 -423 -287 0
-608 -822 -295 -637 0
-418 -123 -53 0
-689 -986 0
630 -913 -210 -830 0
32 -149 0
-686 -385 -966 0
144 -107 0
-578 -294 -458 0
305 -921 0
788 -18 -42 -153 0
707 -682 0
45 -413 0
654 -204 -558 0
590 -37 -314 -366 0
359 -364 0
710 -565 0
-149 -698 -464 0
-100 -685 0
-473 -505 0
-973 -470 -246 -268 0
572 -62 -283 -647 0
530 -235 -341 0
-138 -671 -804 0
-436 -179 0
-856 -831 -518 -389 0
869 -566 0
-288 -771 0
636 -941 0
332 -265 -542 -97 0
-841 -347 -98 0
-369 -995 0
462 -743 -564 -136 0
-56 -43 -249 0
81 -233 -189 0
-93 -727 -979 0
-910 -676 0
-269 -88 -896 0
390 -612 -228 0
131 -539 -493 0
-498 -546 0
170 -922 0
-164 -150 -653 -628 0
826 -279 -24 0
718 -929 -269 0
618 -752 0
183 -344 -873 -372 0
389 -780 -606 0
-865 -236 -928 0
998 -114 0
-61 -8 0
-670 -93 -625 -849 0
-766 -697 -48 -5 0
674 -792 0
-801 -95 -961 -688 0
709 -173 -170 0
584 -578 -579 0
504 -7 -640 0
532 -103 0
-282 -935 0
856 -712 -750 -529 0
483 -704 -516 0
656 -207 -103 0
167 -152 -136 0
47 -253 -844 0
-886 -770 0
-981 -179 0
86 -814 0
862 -247 -201 -794 0
358 -354 -199 0
789 -392 -194 0
431 -42 -506 0
777 -448 -602 -14 0
604 -921 0
920 -707 -881 0
516 -763 0
-674 -585 -299 -514 0
785 -355 0
801 -274 -356 0
870 -183 -394 0
769 -342 -981 -241 0
-337 -980 -16 0
122 -935 -63 0
623 -666 0
874 -529 0
466 -199 -737 0
-8 -209 -383 -750 0
-999 -762 -647 -5 0
439 -697 -745 -17 0
107 -411 -754 0
-569 -50 -124 0
-571 -748 -580 0
-904 -160 -154 0
670 -806 0
-366 -757 0
899 -146 0
-68 -494 -563 -455 0
192 -625 -6 -82 0
990 -686 0
-960 -10 0
839 -806 -229 -354 0
483 -248 -300 0
-333 -824 0
46 -698 -745 -469 0
-789 -395 0
114 -161 -332 0
566 -270 -313 -122 0
474 -808 -568 -118 0
840 -941 -340 0
-369 -316 0
305 -685 0
523 -243 -800 -2 0
861 -200 0
508 -819 -355 -521 0
202 -81 -363 -178 0
141 -439 -661 -657 0
317 -290 -402 -778 0
8 -560 0
5 -553 0
134 -899 0
793 -836 0
615 -53 -530 0
87 -419 -368 -919 0
601 -510 -586 -736 0
324 -929 0
810 -481 -819 0
634 -534 -610 -821 0
947 -51 0
-727 -876 -168 0
414 -193 0
851 -206 0
-548 -468 -621 -784 0
917 -192 -802 0
758 -593 -256 0
-791 -945 0
888 -822 -775 -857 0
-211 -269 -449 -992 0
-811 -606 -960 -633 0
475 -597 0
22 -970 -65 -472 0
455 -204 0
586 -255 0
-505 -498 -378 0
852 -217 0
777 -283 -148 -779 0
424 -931 -172 0
-703 -326 -678 -694 0
352 -353 -622 -753 0
-529 -345 -640 -305 0
-561 -442 0
-998 -992 -760 0
456 -421 -482 -855 0
-574 -514 -784 0
-535 -531 -324 -55 0
726 -189 -220 0
791 -399 0
887 -32 0
349 -266 0
118 -638 0
-267 -570 0
687 -662 0
637 -190 -541 -186 0
417 -329 -543 0
323 -263 0
158 -891 0
69 -919 -143 -118 0
911 -558 0
-275 -487 -495 -727 0
-906 -162 -89 0
994 -135 -239 -709 0
585 -269 0
57 -1 -770 0
152 -470 0
-536 -349 -420 -302 0
545 -463 -828 -395 0
563 -620 -922 0
392 -382 -982 -44 0
-846 -41 -94 -981 0
284 -212 -398 -422 0
998 -191 -894 -596 0
148 -890 -959 -780 0
530 -988 0
-900 -374 0
641 -137 -32 -83 0
531 -759 -108 0
521 -914 0
116 -84 -585 0
262 -321 -133 -671 0
126 -51 -774 -864 0
324 -950 -72 0
-464 -867 0
681 -318 0
698 -589 0
369 -413 -172 0
-860 -228 0
143 -818 0
114 -530 -277 0
743 -728 -478 0
284 -164 0
117 -491 -531 0
480 -272 -683 -405 0
535 -73 -464 -990 0
494 -379 -126 -510 0
685 -894 -589 0
360 -955 -148 0
377 -292 -908 0
764 -188 0
-939 -941 -21 0
724 -556 -594 -702 0
-852 -729 0
298 -827 -657 -104 0
953 -361 -405 -273 0
702 -833 -469 0
754 -945 -834 -124 0
950 -244 0
223 -737 -171 -544 0
-558 -422 -301 -486 0
-551 -428 -213 0
-600 -570 0
-884 -417 0
893 -536 -7 0
434 -705 -387 0
102 -496 -47 -382 0
576 -512 0
322 -655 -307 -469 0
971 -779 -648 0
-888 -739 -381 0
655 -260 -83 -77 0
242 -353 -14 -952 0
449 -382 -125 0
-883 -880 -76 0
-853 -670 0
904 -725 -798 -262 0
-675 -283 0
24 -618 -137 -188 0
111 -907 -881 -144 0
315 -630 0
-274 -540 0
-362 -494 -781 -707 0
-834 -936 -386 -939 0
-96 -459 -31 0
15 -119 0
817 -648 0
503 -27 -387 0
943 -374 0
132 -391 -490 -534 0
-71 -154 -572 0
-914 -237 -121 -630 0
-360 -139 0
740 -418 -45 0
385 -448 -143 0
-573 -117 0
653 -372 0
764 -717 0
151 -853 -13 0
-492 -582 0
135 -931 -190 -543 0
-504 -136 -703 -986 0
-917 -449 0
553 -361 0
-241 -829 -355 0
-204 -262 0
308 -85 -91 -821 0
512 -841 -332 -863 0
-378 -139 -239 0
-479 -871 0
661 -675 -689 -555 0
892 -986 -953 0
-61 -370 -235 0
492 -814 -345 0
167 -572 -993 -326 0
404 -619 -638 -524 0
385 -136 -383 0
-810 -597 -685 -198 0
862 -271 -883 0
542 -978 0
863 -211 -999 -536 0
979 -971 -661 -562 0
815 -761 -843 -477 0
-670 -737 -509 -345 0
100 -181 -537 -335 0
702 -170 0
-223 -77 -292 0
-216 -866 0
-925 -749 -210 0
482 -855 0
-509 -586 -372 0
-793 -986 -511 0
84 -908 -539 -199 0
-508 -319 -7 -638 0
-83 -118 -131 -262 0
-330 -759 0
648 -291 0
-390 -40 -474 -904 0
918 -856 0
185 -98 -872 -255 0
188 -892 -407 -839 0
771 -935 -89 -593 0
-871 -452 0
-815 -642 0
710 -743 -466 -239 0
186 -107 -737 -862 0
787 -43 0
843 -705 0
755 -748 0
-5 -112 -388 0
414 -639 -36 0
-649 -672 0
973 -408 -356 -680 0
972 -3 0
995 -734 -204 0
-196 -389 0
-28 -748 -816 -979 0
-449 -16 0
424 -729 0
733 -157 0
862 -916 0
-456 -568 -200 -694 0
677 -770 0
-725 -875 -172 -294 0
839 -782 -803 0
948 -482 -806 0
277 -635 -735 -646 0
-888 -177 -859 0
-52 -813 0
442 -231 0
287 -828 -566 0
785 -576 -686 0
-100 -918 -631 0
231 -740 0
321 -368 -754 0
540 -47 0
729 -429 -245 -721 0
828 -496 -410 0
84 -993 -106 -893 0
164 -882 0
280 -129 0
73 -206 0
-393 -795 -982 0
993 -728 -916 -368 0
239 -685 -592 0
938 -945 -991 -559 0
882 -527 -675 -640 0
260 -980 -848 0
77 -195 -752 0
818 -271 -581 0
480 -854 0
-251 -267 -179 -539 0
79 -367 0
611 -936 -470 -895 0
725 -992 0
186 -891 0
-197 -480 -612 -998 0
861 -714 -304 -122 0
-629 -213 -38 0
-181 -63 0
237 -364 -716 -999 0
-625 -412 0
936 -82 -396 -860 0
-568 -529 -355 0
630 -746 -963 0
-86 -84 0
285 -27 -275 0
594 -993 -567 -552 0
-340 -888 -16 0
489 -147 -933 -149 0
139 -282 -800 -542 0
-467 -616 0
194 -347 0
982 -531 -219 -90 0
659 -766 -134 -557 0
919 -257 -600 -166 0
749 -720 -66 -271 0
-480 -418 -887 -583 0
585 -152 0
364 -237 -236 -615 0
989 -305 0
-630 -927 0
54 -464 -310 0
606 -100 0
30 -767 0
-278 -104 -286 0
125 -518 -17 0
-524 -444 0
885 -74 -839 0
124 -326 -661 0
546 -626 -10 0
185 -919 -899 0
-949 -106 -478 0
330 -892 -891 -656 0
-906 -15 -299 -291 0
587 -893 0
-949 -170 0
300 -885 0
-102 -122 -778 -846 0
-898 -56 0
899 -741 -813 0
-47 -38 0
293 -462 -205 -127 0
974 -769 -601 0
300 -22 -453 0
121 -771 -83 -721 0
-906 -955 -582 -250 0
-838 -272 0
862 -596 -65 -642 0
-392 -212 -638 -863 0
-851 -581 -794 -677 0
206 -654 0
-202 -756 -432 -220 0
298 -394 0
-685 -660 -847 0
974 -811 0
507 -71 -847 0
921 -364 -30 0
-609 -769 -360 0
-492 -477 0
403 -979 -731 -224 0
841 -203 -807 0
822 -504 0
30 -886 -71 0
-234 -280 -219 -85 0
518 -541 -533 0
324 -48 -229 0
598 -160 0
81 -878 0
-752 -782 -688 0
-127 -599 -97 0
894 -332 0
844 -660 0
656 -696 -678 -320 0
264 -185 0
438 -561 -888 -571 0
138 -766 0
-365 -115 0
447 -952 -739 -194 0
-266 -99 0
-233 -391 0
821 -354 -969 -472 0
467 -391 -989 0
279 -39 -665 0
227 -505 -906 -166 0
902 -901 -288 0
904 -204 0
-566 -574 -403 -731 0
302 -153 -737 -127 0
817 -797 -67 0
-987 -350 -247 0
109 -706 0
-927 -498 -493 0
385 -198 -754 0
503 -688 0
229 -83 -320 0
125 -437 -375 0
618 -138 -226 0
-331 -649 -754 0
-996 -490 -621 0
607 -382 -616 0
-842 -212 -971 -425 0
-393 -697 0
844 -262 -153 -114 0
805 -439 0
614 -193 0
310 -807 -451 0
359 -695 -814 0
857 -374 0
370 -303 -959 0
-831 -92 0
807 -438 -947 0
60 -125 0
418 -147 -550 0
-207 -733 -537 -476 0
652 -332 -915 -917 0
402 -843 -1 0
-472 -271 0
796 -168 -163 -833 0
256 -763 -685 0
42 -607 -275 0
269 -564 -992 0
-306 -932 -987 0
-109 -748 0
443 -800 -730 -206 0
322 -887 0
239 -40 -953 0
-926 -899 0
103 -703 0
-403 -923 0
995 -968 0
-613 -72 0
354 -367 0
863 -922 0
-666 -828 -981 -888 0
123 -680 -277 0
117 -861 -887 0
844 -71 -826 -682 0
491 -665 -619 0
781 -388 -193 -566 0
94 -482 -997 0
-667 -975 0
362 -437 -795 -525 0
-559 -650 0
-349 -296 0
15 -920 0
27 -458 0
994 -352 -826 -740 0
714 -494 -995 -834 0
-150 -259 -120 -657 0
613 -454 -74 -830 0
879 -213 -510 0
508 -702 -714 0
523 -796 -785 -221 0
260 -64 -212 0
-579 -51 -940 0
83 -74 -944 -836 0
254 -748 0
338 -874 -724 0
914 -358 -813 0
124 -712 -996 -983 0
-630 -213 0
568 -567 -330 0
640 -770 -53 0
217 -62 -693 -86 0
-503 -874 0
-857 -893 0
-172 -936 -886 -62 0
-947 -721 -270 -177 0
439 -786 -442 -984 0
849 -25 -787 0
429 -302 0
475 -634 -618 0
780 -481 0
654 -74 0
580 -572 -948 0
-670 -388 -297 0
939 -416 -859 0
-85 -90 0
637 -415 0
697 -682 -797 0
166 -644 -987 0
871 -35 0
312 -461 -364 -553 0
589 -974 0
322 -29 0
581 -31 -315 -42 0
551 -521 -174 0
735 -756 -962 0
-684 -436 -434 0
462 -682 -874 0
-28 -101 0
691 -169 -552 0
364 -730 -808 0
399 -801 0
828 -989 -123 -608 0
909 -317 -649 -400 0
711 -650 0
-3 -102 -570 0
-316 -94 0
149 -490 -496 0
-993 -441 -207 -608 0
992 -194 -442 0
-721 -265 -500 0
317 -901 0
212 -701 -470 0
312 -293 0
344 -496 -777 0
167 -257 -309 -682 0
186 -416 -773 -10 0
-600 -99 -690 -280 0
-857 -581 0
750 -122 -867 -980 0
181 -625 0
957 -655 -999 -940 0
-49 -21 -10 -497 0
631 -523 0
932 -124 -788 -56 0
638 -432 -315 0
433 -841 -159 0
141 -485 -171 0
562 -20 0
521 -391 -629 0
175 -942 0
861 -704 -110 0
358 -700 0
-118 -215 -382 0
-651 -667 -498 -336 0
301 -33 0
85 -939 -649 -126 0
-77 -557 -518 -637 0
64 -267 0
583 -219 -474 -240 0
376 -641 -634 -388 0
908 -486 0
170 -785 -507 0
977 -210 0
205 -184 -303 0
442 -713 -317 0
617 -661 -682 0
-105 -236 0
295 -259 -95 -248 0
623 -621 -92 -637 0
-629 -643 0
-693 -527 0
459 -567 0
-746 -402 -80 0
-119 -219 -718 -176 0
273 -92 -702 -869 0
335 -850 -1000 0
-189 -688 -986 0
132 -434 -576 0
938 -577 0
139 -745 0
-218 -282 0
723 -729 0
114 -852 0
415 -768 -997 -130 0
1 -119 0
-169 -568 -57 -261 0
-136 -523 0
784 -209 -243 0
148 -767 -770 0
-903 -206 0
903 -633 -508 -51 0
564 -421 -569 -381 0
-571 -185 0
-603 -269 -717 -404 0
737 -898 -711 0
730 -876 -422 0
359 -409 -384 -912 0
937 -885 -89 0
842 -758 0
912 -785 0
901 -235 -965 0
-590 -635 -6 0
-128 -385 0
554 -222 -144 -935 0
780 -319 -836 0
209 -578 0
267 -204 0
29 -338 0
738 -572 -520 -717 0
360 -158 0
554 -33 -965 0
852 -65 -836 0
151 -785 -938 0
-947 -280 0
46 -58 -45 -21 0
611 -682 0
735 -27 0
150 -840 -458 -37 0
435 -19 -290 0
599 -239 0
984 -771 -531 -876 0
-666 -450 0
676 -902 -195 -469 0
42 -341 -486 0
-15 -492 -463 -260 0
-173 -254 0
-395 -617 0
689 -231 -391 -950 0
-200 -615 -238 -513 0
466 -230 -495 -804 0
718 -774 -153 0
-728 -664 -434 0
86 -38 -234 0
449 -275 0
-692 -183 0
240 -633 -956 0
895 -934 0
-659 -438 -938 0
-812 -368 0
261 -613 -830 0
851 -923 -41 -783 0
-930 -379 -960 -521 0
-96 -500 -51 0
-437 -878 0
561 -283 -917 -957 0
114 -349 -143 -16 0
-40 -326 -953 0
-751 -998 0
791 -256 -662 -346 0
290 -595 -770 0
401 -916 -832 -86 0
379 -210 -746 -244 0
878 -152 -769 -345 0
-368 -378 -625 0
288 -983 0
263 -146 -724 0
782 -71 -993 0
484 -983 -705 0
-28 -198 0
331 -999 -25 -448 0
121 -586 -105 0
-504 -524 0
711 -83 -360 -526 0
806 -566 -449 0
914 -134 0
88 -940 0
966 -880 0
898 -13 -694 0
950 -85 0
757 -604 -245 0
125 -341 -220 0
563 -242 -496 -614 0
-463 -191 -433 -989 0
798 -100 -836 0
265 -560 0
-453 -8 -735 0
800 -986 -379 0
698 -120 -315 -261 0
606 -31 -347 0
-895 -448 0
-504 -845 -141 0
788 -528 0
921 -526 -316 0
654 -28 -777 0
-412 -73 -335 0
-329 -806 0
136 -225 0
536 -782 0
56 -361 -449 0
-57 -788 -600 0
635 -732 -407 0
794 -293 -544 0
-899 -116 -799 -266 0
991 -256 -743 0
-299 -701 -758 0
-469 -289 0
653 -920 0
151 -137 0
339 -550 -549 -614 0
512 -907 -229 0
-621 -35 -673 0
168 -260 -396 -115 0
12 -584 0
546 -658 0
72 -800 -845 0
956 -575 -689 0
933 -645 -785 0
349 -969 -504 0
-457 -281 -887 -144 0
-111 -873 -257 -676 0
-412 -233 0
111 -1 -395 0
562 -978 0
763 -630 0
407 -910 -426 0
307 -977 -324 -45 0
-209 -323 -707 0
920 -612 -348 -878 0
-799 -346 -80 -163 0
-338 -901 0
556 -28 -502 0
835 -478 0
459 -567 -18 0
20 -337 -759 0
-55 -228 0
155 -44 -752 -642 0
52 -8 -312 -994 0
-320 -803 -703 0
-200 -565 -930 0
132 -689 -494 -197 0
464 -860 0
437 -28 0
234 -375 0
389 -712 0
606 -8 -727 0
374 -716 0
-547 -373 0
762 -330 -404 0
478 -769 -503 0
150 -861 0
255 -229 -347 0
795 -404 0
-110 -637 0
455 -694 0
3 -776 -157 -173 0
966 -829 -799 0
999 -709 0
773 -522 -351 0
464 -349 0
415 -45 -1 0
452 -689 -474 0
186 -871 0
954 -817 -238 -837 0
237 -808 0
-999 -979 0
833 -491 0
50 -482 -389 0
806 -717 0
-809 -471 0
3 -488 -553 0
322 -552 0
923 -388 0
598 -200 -891 -143 0
724 -902 -568 -682 0
218 -874 0
843 -953 -509 0
19 -905 -828 -50 0
962 -86 -397 0
181 -830 -336 0
862 -692 -420 0
715 -262 0
360 -758 -369 -255 0
-398 -854 -2 -792 0
461 -831 -941 -497 0
661 -533 -218 0
660 -926 -739 0
-643 -994 0
-917 -121 -750 0
623 -349 -417 0
-909 -768 -322 -598 0
206 -677 -96 0
-786 -41 -364 -834 0
649 -731 0
1000 -668 -328 -538 0
577 -841 -574 0
359 -84 -436 0
417 -296 0
720 -175 -948 -823 0
90 -18 -306 -733 0
794 -889 0
409 -185 0
-778 -103 0
70 -181 -177 0
829 -13 -367 -623 0
326 -967 0
-840 -455 0
-919 -438 0
388 -352 -718 0
-696 -813 -173 -357 0
846 -216 -724 0
474 -912 0
976 -80 -229 -211 0
-178 -491 0
541 -405 -503 -35 0
553 -158 -754 0
-648 -788 -67 0
5 -89 -757 0
-231 -955 0
-291 -706 0
-437 -530 0
424 -13 -714 -236 0
551 -808 0
2 -707 0
-484 -822 0
945 -836 0
213 -964 -810 0
682 -636 -653 0
520 -871 0
-20 -462 0
802 -572 -761 0
339 -434 -888 -421 0
-415 -95 -282 0
780 -259 -86 -332 0
977 -670 0
-760 -94 -944 0
-563 -159 -267 -937 0
-220 -459 0
220 -769 -983 0
756 -542 -845 0
564 -317 0
196 -415 0
64 -722 -405 0
180 -77 -540 0
993 -357 -283 -676 0
552 -930 0
418 -42 0
-133 -519 -374 0
-712 -534 -300 0
710 -86 -863 -711 0
632 -947 -817 -936 0
489 -419 -718 -326 0
-636 -831 0
527 -258 -530 0
250 -454 -433 0
-502 -547 -857 -6 0
-596 -775 0
-694 -839 0
-118 -428 -58 -672 0
-841 -604 -676 0
823 -262 0
-472 -489 -281 0
27 -63 -404 -460 0
610 -873 -240 0
-940 -569 -673 -104 0
111 -366 -559 0
661 -315 0
605 -327 0
262 -203 -133 -533 0
9 -643 0
75 -800 -434 0
877 -576 0
684 -309 -807 0
-120 -746 -623 -922 0
-320 -288 -571 -127 0
163 -528 -912 0
-715 -487 0
-680 -793 0
709 -31 -373 0
971 -621 -197 0
-580 -921 -804 -717 0
-160 -877 -93 -654 0
729 -985 0
861 -883 -500 -190 0
750 -687 -150 -121 0
464 -80 -983 -596 0
-291 -104 0
326 -322 0
784 -391 -641 0
-340 -158 -239 0
-70 -201 -860 0
806 -694 0
695 -593 0
530 -316 0
-540 -810 -61 0
409 -376 -688 -503 0
158 -768 -867 -478 0
-629 -23 -700 -73 0
684 -872 0
543 -302 0
-745 -501 -403 -769 0
911 -406 -265 0
587 -795 0
812 -134 0
-454 -120 -304 0
816 -729 -228 0
-805 -737 -462 0
-342 -579 0
712 -642 -166 0
767 -126 0
205 -491 0
-832 -928 -568 -196 0
-891 -404 0
94 -809 -811 -774 0
330 -907 -15 -850 0
-672 -477 -411 -743 0
970 -901 -98 -219 0
-431 -588 -982 -718 0
36 -291 0
-565 -161 -463 0
25 -133 -778 0
-832 -314 0
420 -239 -280 -870 0
627 -130 -705 0
-768 -411 -949 -58 0
295 -359 -472 -111 0
-928 -364 0
55 -92 -832 0
-694 -828 0
418 -549 -666 -150 0
435 -702 0
285 -744 -868 0
763 -844 -356 -768 0
40 -630 -956 -783 0
97 -892 -505 -297 0
804 -341 -728 0
1000 -589 0
280 -958 0
881 -620 -210 -571 0
635 -143 -301 -419 0
194 -830 0
401 -992 -442 0
424 -755 -648 0
785 -418 0
445 -194 0
118 -964 -756 0
115 -484 -152 -333 0
663 -133 -71 0
41 -918 -86 -853 0
554 -599 0
563 -743 -830 -867 0
501 -829 -149 0
725 -887 -313 -645 0
830 -270 -295 -491 0
286 -589 -134 0
-925 -479 -809 -929 0
-852 -425 -693 0
751 -168 -365 0
-264 -327 0
170 -266 0
14 -357 0
416 -873 0
622 -170 -24 -349 0
295 -965 -139 0
38 -483 -796 0
-744 -683 0
294 -798 -576 -408 0
429 -129 0
465 -455 0
-178 -555 -922 -53 0
430 -274 -885 -521 0
-322 -230 0
-678 -580 -715 0
-613 -136 0
79 -224 -31 -768 0
-887 -925 -499 -714 0
726 -858 -966 0
711 -770 0
601 -84 -935 0
802 -17 -918 -83 0
-453 -749 -592 -925 0
299 -231 0
289 -757 -745 -285 0
-551 -426 -712 0
-365 -381 0
897 -443 -604 0
583 -636 -599 0
167 -293 -573 -736 0
59 -425 -31 0
128 -689 -801 0
661 -20 0
447 -792 -344 0
-218 -961 0
-978 -500 0
-319 -828 -48 -43 0
497 -305 0
-71 -588 -764 0
-150 -315 0
513 -941 -395 0
293 -266 -42 -817 0
-86 -987 -900 -995 0
-249 -986 -880 -437 0
117 -58 -989 -453 0
-462 -975 0
76 -707 -378 -518 0
208 -438 0
-564 -496 0
998 -220 0
291 -49 -765 0
662 -866 -899 0
625 -949 -141 0
25 -863 0
666 -794 -11 0
-419 -168 -497 0
509 -904 -619 -197 0
-124 -729 -158 -270 0
806 -8 -116 -744 0
812 -38 -238 -896 0
-381 -516 -880 0
701 -684 -807 -572 0
181 -193 0
197 -565 -674 -867 0
184 -797 -701 0
-15 -989 -301 0
550 -602 0
151 -461 -413 -731 0
111 -45 0
818 -971 0
-96 -800 -529 -276 0
740 -726 0
319 -283 0
213 -495 -946 0
-562 -384 -107 -926 0
903 -236 -458 0
571 -152 0
530 -975 -686 -774 0
673 -1000 -148 0
-41 -463 0
-188 -276 -905 0
300 -112 -248 -515 0
-843 -587 -139 0
532 -526 -725 -212 0
-178 -607 0
901 -821 0
-759 -548 -820 -329 0
270 -365 -25 -148 0
245 -721 -253 0
-314 -460 0
372 -791 -364 -607 0
200 -728 -792 0
452 -799 0
-713 -494 0
250 -213 0
-823 -517 -349 -133 0
621 -103 0
692 -492 -427 0
691 -544 -336 -897 0
116 -966 -468 0
200 -400 -851 0
583 -95 -986 -806 0
423 -912 -289 -393 0
420 -521 -654 -753 0
-357 -816 -66 0
78 -792 -759 0
685 -226 0
292 -166 -284 0
76 -787 -921 -823 0
-712 -310 0
-847 -212 -943 -963 0
-531 -132 -599 -524 0
960 -23 -979 -900 0
664 -725 -263 0
652 -747 -804 0
294 -564 -697 0
659 -802 -964 0
-769 -642 -324 -624 0
550 -223 -358 -401 0
-310 -258 -336 0
526 -175 -950 -351 0
836 -41 0
615 -132 -512 -9 0
996 -279 -856 -403 0
49 -968 0
-200 -523 -989 -504 0
690 -111 -119 -673 0
-147 -564 0
-826 -54 -759 0
-950 -902 -370 0
914 -857 0
921 -953 0
-207 -258 -57 0
976 -572 -492 0
-456 -323 -981 0
482 -949 -176 0
181 -58 0
518 -342 -279 0
832 -640 -893 0
297 -132 -34 0
369 -650 -177 -851 0
793 -783 0
511 -502 -122 -56 0
729 -148 -572 -156 0
855 -483 -985 0
-299 -44 -887 0
-882 -22 0
918 -762 -32 -235 0
410 -39 0
347 -208 -133 0
312 -401 -534 -734 0
-912 -126 0
-851 -184 -594 0
-178 -712 -269 -856 0
284 -277 0
37 -151 0
-444 -18 -815 0
252 -849 0
778 -805 -243 0
599 -600 -314 -971 0
365 -918 -324 0
601 -263 -937 -414 0
151 -220 -882 0
226 -787 0
-618 -582 -331 0
-565 -659 -801 0
-444 -8 0
840 -260 -738 0
627 -594 -974 0
567 -480 -404 -69 0
-487 -499 0
543 -260 -631 -584 0
954 -691 0
836 -38 -695 0
788 -879 -277 -889 0
-908 -577 0
-149 -980 -991 0
860 -627 -267 -400 0
861 -832 -975 0
-636 -114 0
-585 -394 -718 -245 0
-750 -61 -631 -914 0
459 -883 -594 0
681 -67 0
311 -267 -221 -668 0
756 -569 -478 0
932 -314 -923 -798 0
81 -99 -628 0
-407 -56 0
29 -271 -621 0
-481 -340 0
937 -458 0
265 -88 0
-148 -417 0
480 -478 -493 -126 0
-96 -209 -205 0
635 -81 -530 -632 0
509 -607 -336 -201 0
774 -555 -484 -974 0
633 -74 0
-76 -467 0
-107 -322 -791 0
923 -24 -520 -560 0
625 -921 0
685 -567 0
629 -14 -783 -290 0
902 -390 0
-445 -443 0
765 -328 0
842 -920 0
266 -719 0
-677 -549 -922 0
-103 -846 -471 0
719 -224 -536 0
714 -698 -365 -458 0
993 -457 0
445 -778 0
-193 -8 -504 -1000 0
628 -511 -653 0
-506 -619 -923 -931 0
247 -163 0
934 -668 -350 0
45 -182 0
153 -340 0
-77 -742 -609 0
995 -492 0
288 -950 -590 0
-665 -604 0
683 -605 -968 -461 0
593 -907 -684 0
280 -576 -357 0
-185 -281 0
-873 -758 -438 -637 0
897 -786 -137 0
325 -857 0
122 -435 -372 0
91 -592 0
-513 -337 -427 0
383 -657 -891 -826 0
-37 -29 -474 -371 0
301 -938 -216 -554 0
-949 -13 0
374 -104 0
-947 -904 -452 -247 0
201 -870 -368 0
260 -579 0
-606 -592 -124 0
594 -387 -421 -990 0
482 -993 -20 0
407 -189 -879 -899 0
844 -299 0
401 -915 -271 -194 0
375 -648 -506 -371 0
-368 -290 -227 -15 0
645 -483 -583 -175 0
861 -198 -28 -622 0
603 -868 -404 -347 0
654 -83 -986 0
127 -235 -755 -35 0
-802 -557 -427 0
11 -991 -280 -167 0
111 -321 -464 0
-295 -307 0
-41 -321 0
317 -842 -774 -606 0
588 -801 -78 0
208 -895 0
-356 -46 -614 0
519 -125 0
-265 -237 -233 0
756 -635 -282 0
126 -64 -356 -28 0
-504 -960 -551 -494 0
408 -220 -55 0
986 -249 0
888 -125 -442 0
-588 -527 -776 0
306 -909 0
365 -161 -700 0
9 -167 -243 -51 0
163 -108 -619 -891 0
389 -985 -782 0
752 -943 -301 -781 0
202 -489 -621 0
333 -191 0
292 -612 -242 0
-316 -246 -677 0
661 -664 0
877 -45 0
501 -25 -337 0
-708 -222 -855 -867 0
671 -792 -304 -709 0
161 -371 -981 -559 0
-114 -206 -134 -13 0
