c Horn formula (polynomial-time solvable)
c 2000 variables, 5000 clauses
p cnf 2000 5000
1140 -1786 0
-1257 -88 -1125 0
1654 -1130 0
1909 -892 0
368 -12 0
-1805 -31 -18 -266 0
1664 -1190 -1990 -1976 0
-1962 -793 -1101 -754 0
-1613 -1326 -1958 0
1700 -776 -1940 -165 0
-1267 -592 -1170 -108 0
323 -649 0
1209 -528 -1199 0
977 -343 -1350 0
-781 -1974 0
1140 -284 0
1823 -1255 -540 0
798 -1596 -1455 0
-771 -1565 0
-188 -1138 -358 -940 0
868 -1246 0
1915 -1158 0
1043 -473 -1353 -234 0
1633 -1200 -116 0
276 -730 -395 0
1968 -1610 -1228 -1714 0
830 -1837 0
799 -612 -873 0
518 -779 -3 0
362 -643 -1266 0
827 -1135 0
1905 -1674 0
25 -1307 0
190 -965 -1895 -1375 0
1514 -72 -771 -307 0
198 -496 -1670 0
520 -1441 0
1523 -1039 -982 0
-231 -954 0
1931 -1756 -1237 0
878 -1937 0
1093 -739 0
-1424 -269 -1555 0
-390 -339 -530 0
667 -22 -1753 -502 0
187 -1347 -1200 -266 0
1916 -1797 -1582 0
615 -847 -1420 0
1067 -764 -603 0
381 -201 -232 -134 0
1596 -1624 -1010 0
1004 -1687 0
-836 -354 -838 -1948 0
-1869 -1580 0
786 -231 -956 -1495 0
80 -1329 -271 -366 0
1336 -1865 -1891 -1662 0
320 -788 -668 0
-517 -531 -1472 -1708 0
211 -469 -169 0
-355 -1005 -1506 0
778 -280 -659 -1030 0
1723 -887 -1705 -977 0
1517 -933 -1518 0
-1773 -657 -1276 0
837 -582 -1381 0
-646 -914 -926 0
1499 -1679 0
427 -1977 0
1997 -768 -1963 0
1693 -499 0
134 -198 0
-974 -1559 -763 0
1890 -1042 -1631 -1868 0
-1768 -1255 0
1571 -19 -1131 0
-93 -1386 -1370 -1559 0
-117 -1026 0
1838 -1518 -1752 -1813 0
-1142 -483 0
1858 -1057 -930 0
-1819 -1705 0
648 -349 -724 -1619 0
724 -407 0
1880 -1949 -1099 -1441 0
576 -1769 -756 -1160 0
607 -125 -1085 -1514 0
1423 -450 -1216 -248 0
1345 -33 0
-1958 -1367 -226 0
-443 -1947 -1357 0
272 -1444 -740 -684 0
50 -1083 -1583 0
829 -623 -313 0
-1327 -650 -1472 0
-1311 -286 -1560 0
-1154 -144 0
-1716 -1732 0
1229 -274 -875 -748 0
34 -1346 -709 0
-738 -272 -1455 -1835 0
-475 -579 0
708 -599 0
723 -810 -873 -899 0
-1996 -1315 -1350 -443 0
317 -117 -662 -647 0
900 -979 -1516 0
897 -755 -363 0
1410 -1215 -97 -1554 0
1471 -484 0
81 -216 -934 -1598 0
872 -1339 0
-495 -1305 -1664 0
1921 -1192 0
1849 -686 -132 0
-245 -254 -399 -1238 0
1470 -1984 -1747 -1827 0
-942 -548 -1145 0
210 -254 -1557 -1757 0
-928 -1166 -1531 0
-781 -385 0
400 -876 -621 0
1052 -1768 -547 -1300 0
-422 -1223 -280 -35 0
977 -1268 -1885 -1887 0
1960 -1920 -1301 -45 0
349 -1161 -586 0
1536 -40 -884 -1249 0
515 -1120 -241 -529 0
490 -997 0
-484 -1795 -1962 -769 0
-1318 -1092 0
1975 -1937 0
-450 -459 0
1270 -357 0
30 -1673 -997 -1447 0
-1712 -1457 -1152 -147 0
-1182 -480 -373 0
-478 -967 -1760 -1888 0
1992 -1763 -1979 -242 0
1173 -986 -472 0
1594 -988 -847 -548 0
-1880 -869 -298 -934 0
1266 -99 -1449 0
1372 -1212 0
766 -89 -1271 -508 0
896 -1261 -393 0
128 -1764 -1855 -1931 0
88 -1888 -937 -1623 0
-1026 -8 0
-1863 -852 0
-1891 -136 -920 0
-1965 -1944 0
-916 -1051 -1618 -1693 0
-751 -1691 -120 -1264 0
1098 -56 -1749 -338 0
-1952 -1559 0
954 -1157 -1403 0
-1522 -1894 -1309 -605 0
657 -1476 -1826 0
982 -1701 -666 -1268 0
968 -743 -600 0
1 -568 -1764 -439 0
74 -538 -1873 0
701 -607 -1308 0
-1412 -911 0
1435 -1884 -1234 0
387 -534 -303 0
-277 -494 0
-1453 -305 -1603 0
322 -1281 -1122 0
1461 -578 -1678 -1138 0
-437 -1729 -1024 0
643 -137 -1675 -481 0
-849 -1871 -1973 0
928 -986 -509 0
1305 -549 -665 0
117 -1638 0
-9 -1064 -266 0
432 -1392 0
801 -827 -1587 0
-684 -1493 0
-1781 -72 0
-1665 -1576 -1779 0
-1480 -1385 0
742 -145 -670 -1941 0
-169 -980 -207 0
-973 -146 0
-534 -1148 0
-457 -1372 -1977 -1573 0
-786 -219 -1531 -1043 0
1123 -387 -1201 0
164 -1486 0
-1000 -1242 -438 -612 0
-1181 -727 -738 -297 0
459 -827 0
1510 -122 0
1568 -1473 0
1464 -137 -1705 -1427 0
438 -726 -677 -1256 0
1479 -1053 -1818 -559 0
-1291 -1475 -1637 0
1633 -387 -1973 -964 0
-1979 -1017 0
419 -998 -887 0
1374 -1737 -89 0
829 -994 -433 -59 0
-1086 -499 -473 -1551 0
-1578 -94 -840 -358 0
1804 -28 -889 0
-4 -529 -1737 0
572 -147 0
-1129 -332 -1123 -998 0
-526 -204 0
-1750 -1745 -874 -502 0
1758 -483 0
-157 -1289 0
764 -182 -571 0
-1842 -1572 -1330 0
1126 -907 -1762 -105 0
-189 -1729 -1907 0
984 -1200 -393 -1296 0
205 -405 -54 -281 0
1561 -1101 -1989 0
929 -1023 0
921 -1665 -1971 -340 0
-1965 -1529 -1312 0
1979 -1161 -1569 -1445 0
1600 -725 -922 -890 0
-1235 -5 0
1473 -1513 -1294 -420 0
-1968 -1874 -223 0
931 -1616 0
400 -1392 -178 0
-1959 -1268 -64 -521 0
1075 -801 0
-503 -469 -466 -1212 0
1274 -1519 -922 0
27 -344 -1831 -506 0
-1166 -776 -629 -219 0
212 -147 -1851 0
-1184 -1971 -896 0
1654 -1349 -1392 -924 0
1571 -1424 0
1913 -498 -1974 -923 0
1264 -62 -1295 0
459 -1813 -1400 -19 0
1071 -733 -1350 0
601 -1712 0
1143 -651 -1648 -79 0
719 -969 -1666 0
623 -1823 -1330 -505 0
1842 -1681 0
155 -1108 -510 0
-211 -1417 0
1884 -1167 -1614 -1053 0
37 -1857 -132 0
1264 -1074 -1889 -930 0
1524 -260 0
1007 -1311 0
1385 -1058 -1492 -210 0
1671 -394 0
-597 -1203 0
-253 -390 -1407 -810 0
-1210 -697 -1813 0
1480 -439 -1319 0
932 -1789 -885 -404 0
925 -770 -670 -240 0
-1859 -1426 -622 -884 0
1372 -1327 -92 -26 0
423 -651 -422 -1622 0
1328 -767 -160 -517 0
-1140 -1111 -1968 -809 0
547 -1171 -1290 0
1049 -1720 0
-1012 -355 -929 -1518 0
842 -1868 -312 0
557 -292 0
323 -1833 -988 0
1303 -8 -1698 -850 0
-669 -1083 0
760 -593 -116 -842 0
-646 -1978 0
1445 -1747 -729 0
-1819 -1791 -1382 0
1334 -956 -797 0
1020 -1104 -40 -1914 0
806 -1235 0
-1731 -1950 0
730 -668 -1700 0
-1666 -1020 -1728 -764 0
-507 -81 -1036 0
-436 -957 0
1743 -1087 0
1839 -1732 -696 -194 0
40 -1013 -1252 0
1922 -1568 -1742 0
915 -1729 -1173 -995 0
-1275 -1778 -690 -1892 0
112 -38 -560 -1382 0
1656 -1330 -1405 0
1741 -40 -731 -1251 0
888 -808 0
1078 -1283 -1940 0
-304 -1028 0
452 -1798 -121 0
1922 -1780 -890 -1331 0
782 -839 0
-1784 -137 -1734 -1288 0
786 -1247 -502 -1655 0
502 -1230 0
265 -53 -604 -288 0
1527 -1288 -1063 -1520 0
69 -173 -654 0
1995 -1772 -1417 -985 0
1472 -1565 -1133 -206 0
-1247 -930 -372 -1360 0
-1540 -513 -1127 0
11 -199 -581 0
832 -1598 -450 0
-1468 -612 0
1066 -1166 0
1580 -1757 0
1166 -211 -1671 -1370 0
1552 -517 -938 0
207 -39 0
447 -1036 0
-596 -364 -980 -381 0
-1228 -1652 -1138 0
-1595 -1108 -266 -1175 0
1336 -711 -1722 -1742 0
-204 -180 -132 -448 0
691 -215 -966 -984 0
1761 -856 -212 0
1834 -1727 -123 -1552 0
1219 -1996 -1921 -1407 0
724 -908 -148 0
954 -1795 -700 -1515 0
700 -737 0
118 -1592 0
1544 -451 -336 0
1396 -1098 0
-288 -1721 -1933 0
753 -188 -966 0
328 -986 -1975 -125 0
1978 -1160 0
1111 -1233 -1623 0
808 -826 0
565 -558 -83 0
743 -490 -131 0
-881 -400 -705 0
-724 -871 -1352 0
1755 -537 0
-1092 -121 -804 0
102 -410 0
1365 -373 0
-386 -835 -1727 0
621 -755 -871 -968 0
-1499 -1476 -1283 0
455 -1260 -1128 -1982 0
-810 -562 -867 0
-1528 -405 -401 -1536 0
1558 -475 -1471 0
-1745 -1169 -645 -1466 0
265 -1678 0
-830 -1147 0
606 -881 -505 -1515 0
895 -155 -1874 -1222 0
206 -1806 -973 0
1682 -1706 0
-1997 -1936 -1832 -805 0
1551 -55 0
1468 -1049 0
1436 -658 0
1027 -43 0
460 -1218 -1622 -687 0
1601 -267 -1361 0
-1437 -1358 -1949 -1901 0
232 -703 -1496 0
546 -461 0
1940 -1921 0
35 -969 -1632 -1506 0
136 -1709 0
-1442 -1167 -504 -977 0
1447 -1285 0
-1264 -76 -1913 0
1947 -885 -364 0
47 -1328 -328 -1416 0
-334 -1872 -1910 -897 0
1861 -1344 0
865 -1153 -1436 0
-1659 -1010 -334 -1376 0
887 -156 0
459 -1182 -119 0
175 -1890 -240 0
1883 -1677 -966 0
992 -370 -1913 -1207 0
-973 -1254 -845 0
336 -438 -961 -1035 0
1285 -1458 -1929 -840 0
1726 -851 0
-1946 -536 -1619 -1865 0
-1788 -1092 -523 0
1997 -743 -1555 0
-234 -817 -207 0
1037 -1871 -1432 -334 0
-1868 -1136 0
1049 -1691 -628 0
1911 -1981 0
34 -1728 0
63 -1757 -1063 0
-787 -531 -1142 -1955 0
181 -446 0
1714 -807 0
-1406 -1853 -771 -1092 0
765 -140 -151 0
1352 -1068 -73 0
412 -372 0
309 -1247 -1416 0
486 -510 -848 -468 0
1500 -1260 0
271 -1958 -618 -33 0
-731 -1250 0
-58 -732 0
919 -707 -394 -1108 0
1499 -1880 -838 -1179 0
781 -1749 -470 0
-1554 -438 -541 -1222 0
195 -1220 -1825 0
1650 -367 0
1615 -468 -805 0
735 -1055 -1930 -692 0
1303 -858 -830 -478 0
1602 -1499 -1162 0
-1608 -106 0
382 -380 0
251 -595 -1393 0
1000 -1327 0
1692 -845 -41 0
912 -1826 -1460 0
-1471 -1314 -878 0
-285 -1350 -917 -791 0
-1556 -1602 0
-1947 -871 -1337 0
-774 -486 -1840 0
-1532 -699 0
453 -1610 0
1986 -1316 0
1706 -1921 -510 0
-1711 -1110 -1915 0
438 -1064 -322 0
-1304 -1170 -1050 0
417 -1950 -968 -350 0
101 -916 -1562 0
1100 -1497 -21 -1281 0
1772 -310 0
4 -1788 -1174 0
-236 -1142 -669 -732 0
-953 -628 -1199 -1674 0
-1546 -1538 0
-662 -1146 -1298 -721 0
569 -590 -1350 -396 0
-1692 -589 -401 0
-99 -630 -857 -585 0
466 -580 -106 -1024 0
-696 -1166 -1062 -1566 0
574 -220 0
1211 -786 -1892 0
1057 -1331 -1849 -1424 0
-1782 -1373 0
243 -609 0
1311 -615 -1496 -1903 0
-751 -133 -1316 0
771 -1834 -1574 -1282 0
-1438 -596 -1460 -34 0
1518 -1099 -441 0
-996 -626 -576 0
669 -1829 0
-138 -1740 -1334 0
-1880 -1466 0
-1049 -1764 0
357 -431 -58 -1835 0
-633 -1255 0
451 -1932 -1816 0
974 -1446 -1868 0
315 -1053 -613 -696 0
-1816 -1296 -1332 -461 0
-1257 -1810 0
442 -1704 0
1602 -1763 0
160 -1952 -1122 0
1627 -276 -156 -1055 0
925 -1247 -548 0
184 -110 0
-1818 -692 0
63 -1926 0
1103 -1721 -1119 -1206 0
1614 -566 -1227 0
1286 -1739 -320 0
640 -937 -1516 -1319 0
1252 -836 -444 0
-1932 -875 -1330 -703 0
-340 -991 -1519 0
1210 -1368 0
517 -369 -616 0
-1072 -900 -1078 -386 0
1442 -57 -1238 -1988 0
-131 -1186 -1592 0
763 -1983 -1495 -832 0
-4 -289 -1619 -1005 0
-1242 -107 0
679 -231 -73 0
-991 -1900 -1860 0
-923 -168 -1203 0
623 -1492 0
-327 -594 0
-451 -467 -905 -1837 0
612 -1417 -1048 0
-1058 -188 0
1228 -1025 -992 0
2 -529 -1799 0
1543 -1134 -1432 -442 0
883 -100 -390 -1398 0
-1846 -665 -1227 0
1528 -485 0
908 -1584 -1912 0
-404 -878 0
-1600 -814 -142 -816 0
-1846 -945 0
1287 -1658 -956 0
1314 -1031 -755 0
163 -93 0
-1524 -1119 -22 0
1338 -1280 0
1675 -1668 -631 0
1621 -816 0
1400 -1727 -743 0
1414 -285 -638 -407 0
260 -1114 -603 0
217 -1578 -1806 -216 0
161 -1235 0
-1813 -1675 -1913 -1221 0
837 -577 -740 -1780 0
764 -1288 -1708 -990 0
-1530 -1160 0
1844 -1079 -617 0
746 -254 -535 -1152 0
1316 -1685 0
1462 -1316 -283 -1250 0
1764 -702 0
964 -301 -700 -346 0
317 -550 0
-1973 -447 -531 0
-1611 -544 -1419 -1743 0
-1969 -679 -1449 -1055 0
1919 -1607 0
1927 -1007 0
1446 -654 -808 0
110 -1610 0
43 -938 -3 -1484 0
-1640 -988 -1066 0
362 -912 -1945 -675 0
-774 -327 -806 0
561 -1071 -600 -280 0
123 -1602 -1524 0
1303 -1827 0
1280 -950 0
634 -1506 0
686 -1002 -1167 -1168 0
-1449 -159 -618 0
1528 -573 -995 -234 0
510 -1875 -1033 0
-1744 -551 -1529 0
-1219 -90 -1246 -856 0
1505 -1279 0
1998 -1277 -801 -1412 0
-390 -1614 -1161 0
-1984 -1441 -1674 0
748 -1946 -90 0
1285 -1123 -1241 0
1502 -129 -861 -762 0
178 -142 -1328 -1903 0
-711 -412 -265 -150 0
558 -900 0
582 -670 0
-764 -854 -912 -1582 0
1239 -1157 0
-900 -27 -1359 -983 0
-1117 -451 -1016 -1002 0
939 -1058 -100 -929 0
1965 -1928 -1093 -1608 0
170 -1559 0
678 -1895 -584 -1348 0
428 -1795 -406 -1296 0
1970 -1015 0
-258 -1622 -1034 0
-495 -605 0
1387 -529 0
905 -497 -861 0
1856 -1980 -1155 0
937 -137 0
-1566 -1998 -478 0
446 -1835 -1752 0
-259 -621 -468 -645 0
1359 -1422 -1592 -1689 0
1414 -1579 0
480 -149 -336 0
1244 -585 0
-1085 -1753 0
-1257 -247 -487 0
-1796 -1630 0
-1498 -1030 -975 -406 0
1230 -1319 0
-940 -1711 -220 0
1231 -155 -68 -708 0
264 -1279 -899 0
-1687 -1516 -39 -1259 0
46 -1220 0
292 -425 -1694 0
433 -483 0
1230 -938 -491 0
-1330 -1951 -320 -778 0
-1165 -473 0
-152 -1396 0
-1714 -1339 -1776 -806 0
1841 -105 -1642 0
-151 -1200 -526 -562 0
391 -452 -146 0
-379 -1513 -747 0
935 -1663 0
1430 -221 -1318 0
-50 -1564 -1893 0
-1152 -1616 0
-507 -1555 -1897 0
1553 -1851 -1783 -1365 0
456 -1424 -616 0
1256 -1143 -638 -1678 0
643 -1887 0
905 -44 -401 -343 0
1422 -556 -538 0
-110 -1494 -566 -1784 0
1734 -24 -930 -392 0
1971 -1168 0
824 -267 -457 0
-230 -493 0
1289 -1811 -1041 0
230 -1574 0
-1006 -1847 0
-1366 -1501 -1971 0
203 -1139 0
79 -427 -207 0
-326 -838 -1873 0
-1410 -525 -1420 0
1836 -1211 -140 0
-1728 -1495 -1940 -556 0
1417 -1928 0
233 -750 -334 0
156 -1236 -445 -1982 0
579 -336 0
-479 -1991 -1273 -313 0
-1227 -1526 -19 -970 0
-1434 -987 -170 0
1570 -1772 0
-1790 -2 0
1717 -1233 0
608 -130 0
-963 -205 -1169 -1951 0
-1479 -1244 0
1162 -1194 -1472 -261 0
-636 -1050 0
1973 -280 0
-982 -695 0
103 -1448 -1610 -1526 0
-506 -728 0
1390 -917 0
294 -1911 -177 0
-1684 -1060 -1343 0
315 -1413 0
1571 -1201 -1806 -1983 0
-1845 -487 -225 0
1351 -1600 0
1139 -510 0
-294 -1352 -547 0
854 -298 -1573 -400 0
1557 -472 -73 0
-146 -1118 -1548 0
706 -43 -46 -814 0
258 -765 -338 -1739 0
-609 -123 -916 0
-286 -307 0
946 -1502 0
1040 -1750 -1701 -1343 0
-1494 -393 -1811 -1944 0
1741 -569 -1468 0
795 -283 -477 -838 0
635 -408 -1518 0
-1656 -1991 -909 0
-842 -397 -1483 0
-1453 -984 -1371 0
-1337 -1202 -692 -1960 0
-1947 -750 0
-703 -801 -43 -630 0
-1950 -1015 -1280 -581 0
638 -719 0
724 -934 -1735 -491 0
591 -1966 -1617 0
146 -93 0
239 -993 -1203 -397 0
1610 -1540 -1699 0
1400 -510 0
-659 -67 0
1093 -1330 0
-1401 -1654 0
-1439 -1482 -202 0
-488 -1068 -705 -1023 0
399 -1069 0
202 -1535 0
-1431 -476 0
-955 -1417 -1475 -189 0
1560 -463 -428 0
837 -1458 0
-367 -892 -1992 0
765 -1341 -353 0
692 -479 -657 -17 0
868 -1696 -120 -1068 0
1466 -477 -692 0
1699 -1395 -161 0
1010 -1187 0
834 -1196 -790 0
1593 -554 -1322 0
533 -1208 0
-1096 -181 -1536 -936 0
-786 -327 -97 0
-79 -285 0
960 -1292 0
-811 -1008 -1987 0
-1722 -1873 -1894 -357 0
-110 -1227 -1275 -1940 0
514 -474 0
1542 -808 0
615 -1808 -619 -1934 0
-1094 -1561 -1022 0
-1562 -1112 -756 -1845 0
-703 -31 -346 0
-1965 -761 0
-1861 -946 -1109 0
-437 -1599 0
147 -1254 -560 0
1416 -651 -1167 -819 0
1462 -1736 -62 0
-349 -1656 -1909 0
1474 -272 -301 0
1705 -130 -12 0
1269 -910 -221 0
650 -169 0
784 -338 -241 0
-1105 -699 -545 0
1422 -649 -1430 0
203 -1754 0
-899 -1525 -1522 0
937 -1715 -24 -1691 0
1880 -1249 -206 -580 0
1280 -964 0
811 -1201 -912 0
1300 -952 -834 -99 0
1240 -646 -322 -1598 0
70 -736 -970 -1703 0
1741 -182 0
1527 -1462 -345 -635 0
63 -269 0
-158 -747 0
664 -1398 -1204 0
1124 -19 -1903 0
81 -1020 0
860 -89 -382 0
592 -17 -1517 -949 0
228 -914 -781 -1991 0
1395 -1510 0
1019 -238 0
1420 -1150 0
466 -54 -128 0
1333 -830 0
628 -1373 -680 -978 0
409 -814 0
1113 -17 0
570 -724 -1005 -343 0
118 -1180 -1488 0
-1542 -1078 0
473 -1300 -1577 0
325 -23 -89 -1081 0
1832 -1770 0
70 -771 -1772 -1015 0
831 -1765 0
181 -1943 0
303 -416 0
-767 -1291 0
-939 -737 -527 0
1709 -1503 -1411 -1664 0
603 -144 -4 -1315 0
-923 -1102 -731 -1954 0
830 -826 -845 0
1597 -965 0
1505 -1097 -1388 -659 0
1054 -1650 -1125 -675 0
1788 -264 -391 -121 0
-877 -470 -313 0
-675 -1646 -1982 0
756 -595 -870 -98 0
1483 -1380 -804 -341 0
898 -1941 -127 -1248 0
746 -1831 0
-1043 -492 -1826 -1145 0
-1541 -865 -1861 -1676 0
477 -943 -1288 0
1563 -1446 -183 0
-1552 -1933 0
-1172 -745 -340 -1013 0
1947 -1754 0
-1262 -881 0
-257 -673 -1228 0
489 -1827 0
1133 -1310 0
1998 -1927 0
-1503 -341 0
43 -1508 -1491 0
-690 -1225 0
-415 -267 -830 0
-1742 -1140 -274 -1058 0
207 -469 -97 -503 0
1155 -1127 -207 -797 0
81 -1106 0
-1818 -268 -973 -1421 0
1953 -1607 0
601 -377 -348 0
-1970 -1140 -1483 0
101 -612 0
1500 -1631 -501 0
-362 -1352 -1099 -1293 0
-323 -1337 0
1756 -1086 -546 -465 0
1805 -1688 -1690 0
230 -1754 -1410 0
1791 -1620 -1888 -263 0
1764 -1341 -474 -941 0
232 -1720 0
-1459 -50 -1917 -491 0
1723 -1995 -1408 -1192 0
-1760 -1068 -1437 0
745 -223 0
17 -129 -1136 0
423 -1797 0
1808 -1235 -924 -1395 0
1083 -1428 -363 -543 0
1484 -1818 -198 0
162 -1859 -1010 0
-1938 -1490 -574 0
1647 -839 0
-342 -736 -1389 0
203 -920 0
250 -1704 -1743 -1418 0
-716 -1794 0
-1173 -356 -1583 -1887 0
1405 -1889 -1354 0
1344 -1101 -1883 -1525 0
212 -823 -49 -1708 0
1661 -1958 -494 -241 0
1893 -893 -470 0
1866 -1021 0
334 -1440 -488 0
1531 -364 -1824 0
281 -1947 -500 0
1619 -1855 -61 0
-531 -1945 0
1902 -1223 -1212 -1879 0
1916 -832 -1350 0
1764 -853 -1937 -1324 0
1214 -1664 0
-711 -1211 -357 -1529 0
980 -1602 -821 -1922 0
697 -736 0
1971 -1163 -1420 0
1750 -1871 -496 -1962 0
1451 -425 -840 -12 0
490 -654 -1385 0
-1409 -1189 -1918 0
503 -290 -1753 0
420 -167 0
950 -1829 -1005 0
-456 -1756 0
911 -1046 0
161 -1284 -1328 -1359 0
-1312 -1823 0
-108 -1542 0
171 -1084 -1484 -364 0
1891 -313 0
732 -1097 -1098 -463 0
1143 -987 0
-800 -1494 -284 -1174 0
-1357 -1470 -1871 -96 0
1305 -947 -1806 -1007 0
434 -611 0
-594 -1292 -1057 0
-707 -512 -797 0
1068 -1162 0
363 -516 -392 0
606 -1603 0
1501 -1339 -470 0
90 -1147 -834 -1945 0
1455 -1496 -532 -1752 0
1135 -1465 -1395 -1307 0
-192 -1867 -778 -1653 0
1797 -896 -848 -676 0
-1097 -1697 -1676 0
403 -853 -1927 0
330 -660 -875 -1583 0
118 -1720 0
-915 -1387 0
980 -1404 0
-747 -657 -1649 0
1897 -199 -1531 0
1556 -1924 -1068 -1202 0
1039 -1576 -1966 0
1435 -1090 -490 -1460 0
-1318 -89 -1291 -960 0
-647 -309 -1470 0
1612 -1560 0
986 -1349 -1830 0
-1447 -1913 -488 -1278 0
-783 -788 -889 0
-790 -75 -1545 -921 0
-1515 -1639 -974 0
400 -239 0
1988 -786 -1676 0
1123 -624 0
-1104 -467 -1452 0
-99 -1188 0
-180 -1084 -1863 0
971 -186 -1253 0
1205 -496 -398 -404 0
1252 -1792 0
1476 -741 -1399 -747 0
396 -1857 -10 0
-994 -430 -99 0
622 -1885 -1018 -590 0
1458 -600 -735 0
387 -1314 0
226 -1038 -754 -284 0
822 -1069 0
-1915 -1213 -1020 0
1553 -1234 -1505 0
826 -1342 0
1221 -1871 -1953 0
1426 -1516 0
1447 -1306 0
-1951 -1157 -1558 0
1783 -1203 -1415 -1547 0
1910 -1391 0
-142 -1068 -96 0
-1840 -1210 0
65 -98 0
196 -1607 -656 -1012 0
-356 -1597 0
896 -1302 0
1490 -707 0
614 -1750 0
-1732 -1566 0
791 -1980 0
386 -809 0
-712 -1506 -691 0
-743 -1457 -1330 -1169 0
-557 -310 -1787 -403 0
-1014 -1609 -1574 -466 0
-636 -183 -452 -1881 0
350 -1774 -1967 0
682 -1455 -146 0
713 -902 0
1088 -792 -687 -129 0
617 -833 0
-1570 -1210 -1684 -930 0
1933 -678 0
-1073 -1553 0
1168 -1456 -467 -1320 0
-888 -526 -1309 -1037 0
1075 -1427 0
-1520 -1758 -553 0
643 -204 0
-122 -7 -381 0
1961 -539 0
963 -418 -829 0
1920 -1312 -1775 -1087 0
923 -859 -1749 0
24 -290 0
27 -1077 -676 0
1776 -1151 -190 0
1084 -1580 -1616 -1087 0
220 -853 -344 -879 0
-1805 -964 -15 -541 0
1261 -278 0
779 -365 -1289 -727 0
-999 -1794 -1953 -1368 0
489 -716 -848 -869 0
1910 -1354 -611 -997 0
42 -1559 -1909 -387 0
1776 -501 -422 0
1430 -1015 -131 0
800 -1567 -32 -1031 0
-1898 -107 0
794 -1140 0
1450 -745 0
945 -939 0
1679 -1677 -2 -175 0
313 -447 -112 -470 0
854 -1895 -1855 0
-1838 -1032 -1903 -749 0
1765 -892 0
-1799 -385 -930 0
-1076 -1973 0
-1201 -103 0
-533 -1783 -1718 -851 0
60 -742 0
-1291 -990 -298 0
1751 -931 0
1984 -1063 -68 0
1115 -1707 0
-11 -1878 -422 -1841 0
1144 -201 0
1949 -1311 -1806 -556 0
-1287 -1305 -795 -224 0
1715 -1370 0
1909 -1969 -484 0
1527 -1141 -1757 -786 0
1732 -1718 -931 0
1549 -1929 -913 0
1781 -954 -418 0
-444 -623 0
1397 -1523 0
1026 -1604 -1914 -248 0
627 -1069 -1838 -623 0
1319 -1374 0
1491 -274 -567 -1392 0
490 -1982 -1924 -918 0
532 -605 -1667 -163 0
-280 -1071 0
1754 -1373 -353 -394 0
1761 -1080 -122 0
1251 -1355 -1669 -243 0
913 -790 -170 -1644 0
1434 -797 -1996 0
1622 -1661 -414 0
-585 -1712 -1215 0
836 -1742 -362 0
-396 -23 -1371 0
1648 -251 -62 0
462 -44 0
1559 -1000 -1814 -1329 0
874 -1893 -1060 0
-479 -814 -54 0
-1528 -1126 0
-916 -665 -535 0
1398 -554 -1408 -788 0
-415 -1164 -567 -1627 0
1758 -1665 -682 0
-87 -370 -1177 0
143 -593 0
899 -1510 -1387 0
326 -1891 0
1107 -1025 -79 0
1696 -1498 -284 0
1202 -1549 0
1195 -209 0
1104 -62 0
801 -1214 0
-255 -1358 -341 -1100 0
789 -1568 0
617 -1204 0
1286 -1129 -1561 0
65 -363 -1454 0
-105 -1704 -393 -1905 0
-1323 -1155 -303 -845 0
-1747 -90 -763 0
-489 -1049 -576 0
1733 -1667 0
-1337 -6 -206 -1363 0
1418 -23 0
1761 -1787 0
662 -506 0
-1594 -1373 -963 0
1233 -1549 -1015 -1961 0
1695 -1611 0
-252 -1001 0
693 -972 -652 -777 0
-1903 -679 0
216 -1381 0
821 -1253 -447 0
-1815 -714 0
367 -282 -1679 0
1314 -1255 -819 0
1049 -741 0
-1427 -158 -797 -130 0
733 -1235 -506 -1066 0
1554 -374 0
-271 -463 -748 -1281 0
-977 -1623 -831 -571 0
284 -574 0
732 -638 -193 0
-48 -1685 -1813 -182 0
1197 -1204 -1207 0
1013 -311 -917 -1561 0
915 -1510 -1966 0
1988 -720 0
116 -1833 0
1121 -184 0
-1629 -333 0
-1804 -17 -363 0
-1176 -479 -449 -970 0
-1598 -1316 -266 -510 0
980 -1548 0
-1905 -855 -906 -674 0
-1291 -624 -310 0
626 -1384 -659 0
1856 -189 -1009 0
-1535 -58 -1305 -405 0
220 -649 -580 0
1700 -793 -899 -1744 0
499 -1327 -1677 -1035 0
1489 -1345 0
-1612 -416 -861 0
820 -1525 -201 -1572 0
811 -825 -1998 0
144 -728 -1609 -1956 0
473 -1437 -1002 -951 0
-1737 -1860 -537 0
1192 -820 -1609 -37 0
977 -877 -564 -1912 0
-950 -1142 0
-896 -947 -1351 -568 0
1329 -1156 0
-1 -1721 -1635 0
1458 -1848 -1530 -1907 0
1760 -1245 0
1548 -1493 0
-523 -935 0
1623 -1484 0
1985 -1268 -533 0
-337 -1191 -1793 -1307 0
99 -127 0
1172 -1830 -982 -1362 0
-1309 -532 -561 0
1412 -19 0
1831 -835 -106 0
-650 -1325 -1909 0
737 -541 -416 -388 0
1755 -1671 0
-1377 -894 -1229 0
437 -421 0
-1927 -376 -556 -1183 0
728 -596 -1841 -285 0
628 -1646 -1252 0
1825 -742 -136 -906 0
-1002 -1973 -1541 -80 0
-602 -1963 -1802 0
1914 -947 0
8 -865 -1080 0
1371 -1541 0
-156 -977 -660 0
897 -1956 -1667 0
669 -1171 0
1220 -355 -1668 0
62 -1622 0
230 -43 -72 -1392 0
1827 -565 -163 -951 0
1395 -230 -1847 0
1105 -1632 -30 0
-1272 -1017 -329 -636 0
1155 -237 0
532 -268 -1117 -1829 0
808 -1164 -1723 -1639 0
1988 -985 -1093 -944 0
539 -259 -1451 -1277 0
1285 -1245 -1316 -136 0
-764 -1617 -437 -1838 0
1984 -599 -1831 -1974 0
822 -1305 0
1222 -753 0
-1388 -1843 0
1121 -189 -219 0
1117 -558 0
587 -1131 -1811 -1129 0
1159 -1883 -1081 -1860 0
45 -675 -1320 -1541 0
1092 -304 0
-724 -1955 -68 -1806 0
632 -1694 0
351 -290 0
205 -404 0
-470 -879 -522 -164 0
472 -1944 -598 0
720 -1453 -86 -930 0
124 -1597 -1816 0
-1440 -934 0
1987 -557 -1719 -231 0
-1351 -158 -1451 0
-402 -1276 0
251 -266 -403 0
-1712 -972 0
-1485 -942 0
956 -1938 -693 0
-1465 -1219 -1806 0
504 -1021 0
1298 -460 -967 -1820 0
1197 -398 -1182 -471 0
73 -997 0
397 -1539 0
934 -1234 -1625 -782 0
1879 -1826 0
211 -667 -339 0
-1291 -1993 -1652 -625 0
1235 -869 -1208 0
1545 -1649 -1046 0
1464 -1867 -1909 -1351 0
1275 -1657 -6 0
965 -1962 -713 0
-1709 -1163 0
152 -1655 0
778 -1540 0
1709 -1960 0
72 -1946 -329 -807 0
-860 -78 -387 -1001 0
-281 -452 -724 0
-923 -673 0
1818 -122 -1342 0
325 -210 0
1521 -354 -1782 -301 0
127 -904 -1353 -565 0
913 -1620 0
-390 -1868 0
110 -772 -770 0
717 -104 -675 0
-1056 -464 -747 -1241 0
1954 -324 -1638 -1890 0
449 -1093 -1053 -1100 0
1502 -54 0
1551 -1821 0
-1960 -517 -1667 0
1842 -1799 0
-411 -781 -685 -1678 0
-1439 -313 -1466 -1296 0
-1818 -114 -477 0
1121 -1112 0
-1577 -956 -1025 0
507 -1808 -1813 0
1871 -1295 0
569 -1297 0
1399 -1548 0
-82 -664 0
1870 -1317 0
1641 -1304 0
1220 -1567 -693 -1126 0
1825 -154 -947 -664 0
-953 -346 -831 -273 0
-568 -1975 -821 -1780 0
1405 -1040 0
786 -495 0
1657 -1297 -88 0
1249 -684 -1301 -198 0
821 -1495 -1272 0
140 -1388 -160 0
1638 -272 -1452 -1116 0
833 -1290 0
482 -1073 -1216 -1663 0
1663 -1256 0
354 -1503 -601 -382 0
-1097 -468 -1007 -286 0
1211 -1689 -1964 0
-97 -1965 -1170 0
-849 -784 0
367 -416 0
-1509 -495 0
652 -1985 -1359 0
795 -32 0
1176 -1738 -897 -348 0
1119 -191 -433 -756 0
274 -400 -1542 0
-445 -232 0
740 -474 -1544 0
1142 -1248 -1745 -456 0
-1042 -1964 -74 -436 0
1116 -1501 -714 -707 0
964 -1634 -1288 0
-444 -535 -184 -1430 0
447 -1742 0
-993 -741 0
1449 -1222 -1720 -1747 0
1231 -777 -211 0
-1429 -1175 -1131 0
1030 -671 -152 -982 0
-625 -814 -405 0
1883 -1834 0
879 -1886 0
-1967 -1297 -865 -378 0
1129 -1007 -1865 -206 0
310 -1022 -70 -207 0
839 -1330 -86 -796 0
916 -1193 0
705 -1642 -161 -409 0
-586 -36 -320 -895 0
667 -972 -66 0
1845 -158 -1621 0
-1332 -136 0
1263 -1049 -696 0
1775 -1069 -1271 0
569 -1916 0
1993 -877 -1446 0
-775 -283 -1955 -1013 0
1449 -285 0
1968 -1927 -878 -1563 0
773 -461 -547 -351 0
-648 -657 0
1172 -1961 0
974 -1805 -643 -134 0
826 -1902 0
1332 -1806 0
-1436 -1705 0
146 -1712 0
-1293 -1435 -153 0
1409 -740 -1965 -90 0
1747 -1984 -166 0
240 -698 -355 -1625 0
1755 -219 0
32 -1399 -1988 -1431 0
1088 -495 -1334 0
312 -1430 0
670 -1877 -1216 -515 0
1806 -1403 -1332 0
-175 -301 0
1324 -1752 -641 0
677 -297 0
469 -671 -1278 -1221 0
775 -1317 0
1938 -1740 -506 0
531 -1459 -63 0
-571 -1217 -1501 -1364 0
546 -143 -601 0
1851 -506 0
260 -1570 -571 0
-997 -188 -685 -354 0
-669 -1860 -409 -577 0
1071 -1535 -788 0
546 -656 -1868 0
1583 -1099 -1917 -1618 0
109 -431 -1887 0
1817 -1455 0
1328 -1214 0
600 -1347 -589 0
1928 -1744 -838 0
711 -1185 -1712 0
762 -515 -313 0
1083 -1346 -118 0
1433 -469 -1851 0
-414 -952 -1917 -115 0
1904 -651 -1725 0
-1804 -1948 -1140 -815 0
1179 -985 -1045 0
-1033 -1767 -732 0
510 -142 0
1722 -1202 -1880 0
1455 -1388 0
-1421 -1700 0
-871 -437 -391 0
644 -1001 0
-1628 -33 -1915 0
1721 -700 -19 -1263 0
354 -1337 0
-1188 -327 -1165 -382 0
1231 -1411 0
-1162 -1632 -1745 0
-1313 -812 -697 0
-714 -134 -1233 0
-1435 -497 0
1741 -878 -1066 0
185 -921 -1517 -1638 0
-1119 -159 -1753 -498 0
1546 -1438 -309 0
1613 -1123 -849 0
-954 -1372 -1798 -44 0
1984 -556 -1029 0
953 -1294 0
1119 -1893 -1595 0
-1140 -1591 -800 -1227 0
78 -1051 -1975 -1110 0
695 -1549 -1453 0
-158 -432 -602 -1005 0
1655 -855 -857 0
-1345 -956 -1571 -1826 0
1383 -347 -134 0
698 -651 -1565 0
751 -1882 -1550 0
1640 -587 -1541 0
910 -1352 0
654 -1073 -204 -351 0
863 -8 0
-1241 -1059 -697 0
364 -1444 -1798 0
546 -1903 -1084 0
561 -1678 -1201 0
-1619 -1662 -1333 0
920 -1533 0
416 -1057 -1684 0
-1775 -1334 -1193 -734 0
-759 -1329 -1803 -408 0
-1759 -1247 -275 0
-1535 -373 -1004 -361 0
-1082 -704 -815 0
670 -1150 0
1633 -1282 0
146 -739 0
170 -351 -3 0
1124 -1289 0
-1144 -1015 -605 -1222 0
1226 -716 -1369 -1994 0
-657 -1954 -1420 -184 0
1941 -1268 -879 -637 0
-1100 -1004 -1748 -503 0
56 -1467 -1882 0
-590 -1957 0
210 -387 -1833 -1547 0
-19 -984 0
-1731 -712 -761 0
506 -1386 -1116 0
147 -1893 0
1938 -1737 0
-117 -138 -1472 0
-1680 -235 -846 0
1163 -993 0
-118 -1070 0
757 -1654 0
-1133 -1132 -696 -1697 0
189 -579 -21 0
576 -877 -1877 0
501 -170 -283 0
-649 -1311 0
1400 -222 -1808 0
478 -1384 0
-869 -597 -1259 -654 0
701 -766 -738 -757 0
578 -732 -167 0
871 -606 0
-112 -473 0
-1334 -289 -1970 -1026 0
1348 -539 -745 0
1025 -1986 -1186 -1348 0
826 -838 -574 0
329 -1420 0
-218 -1611 -1240 0
888 -1061 -128 0
1663 -495 -1301 -1168 0
995 -413 -109 -1367 0
470 -874 -1310 0
-1131 -1815 -1512 0
213 -449 0
-1697 -419 -733 0
-1981 -936 -516 0
1662 -1444 0
-169 -516 -668 0
1987 -820 -698 -1460 0
257 -661 0
-1838 -1865 -1513 -1864 0
1173 -818 0
961 -1630 -18 0
486 -1541 -1376 0
1760 -454 -1579 0
720 -350 -1420 -1345 0
-504 -668 0
362 -24 -1398 0
1323 -1086 -264 -1197 0
157 -860 -373 -931 0
395 -806 -393 -1377 0
1701 -1926 0
1790 -645 -519 -1583 0
1485 -949 -1024 -1555 0
1176 -1057 -434 -284 0
315 -45 0
987 -1604 -579 0
-1711 -1671 -1076 -760 0
1314 -937 0
1097 -1204 -1144 -954 0
-992 -628 -420 -45 0
-938 -553 -1492 0
1676 -1682 -1590 0
415 -1973 0
-125 -1224 -1609 -1477 0
-313 -1950 0
490 -1862 -1162 -1547 0
524 -502 -1988 -452 0
1049 -1779 -161 -440 0
1784 -1464 0
1305 -1018 0
1650 -1165 0
1822 -346 0
1610 -822 -496 -1353 0
1679 -245 0
1773 -604 -943 -732 0
1494 -365 -544 0
1698 -1425 -1826 0
144 -1778 0
1337 -209 0
253 -211 -971 -7 0
-578 -1970 0
-538 -145 -467 -1428 0
191 -894 0
647 -247 -678 0
-1027 -1134 -1647 0
-1221 -986 -1335 -1287 0
-770 -208 0
445 -1922 -29 -1228 0
1596 -495 -1842 0
763 -565 -541 0
-402 -1175 -634 0
1754 -1193 -175 -1105 0
1051 -718 -503 -1240 0
-1131 -1346 -1560 -912 0
-1288 -1464 0
1499 -1999 -1549 0
-1814 -1845 -612 0
1416 -1799 -1110 -968 0
1254 -676 0
-87 -1640 -245 0
1158 -1807 0
350 -1702 -480 0
1449 -104 -1919 -825 0
1583 -1065 -742 0
1099 -775 -1461 -386 0
-1132 -1243 -1758 0
346 -186 -400 -1273 0
731 -1033 -1445 -621 0
-1831 -284 0
1091 -162 -778 0
1740 -938 0
1901 -726 0
-1036 -644 -1862 -629 0
623 -397 -1225 -1791 0
-713 -638 -1419 -841 0
1628 -893 0
380 -1189 -470 -828 0
-1668 -1277 -1046 0
-665 -189 0
-764 -500 0
1531 -1462 0
-231 -1348 -1988 0
752 -897 -721 -1369 0
1895 -537 -995 0
1525 -648 0
473 -1941 -1199 -516 0
254 -32 -976 0
646 -1551 -1194 0
-619 -766 -1948 0
1017 -290 -870 -1956 0
366 -1845 -1232 -1448 0
614 -1995 -403 0
16 -1855 0
346 -1077 -675 -1828 0
915 -808 -1805 0
443 -1853 -558 0
222 -1169 -932 0
63 -1232 -1605 0
1522 -624 0
19 -1624 -398 0
555 -422 0
1864 -1084 0
1974 -1457 -770 0
526 -1758 -1554 -26 0
1173 -1304 0
467 -36 -181 0
1014 -370 -1955 0
1647 -1541 0
-1017 -615 0
1532 -567 -1868 0
1396 -1355 0
208 -941 -619 0
-553 -649 0
676 -1890 -1960 0
1577 -1946 -221 -842 0
112 -1334 -1405 0
-1217 -10 -1991 0
595 -139 -1846 -686 0
1477 -1021 -999 0
-1446 -1187 -1713 -1961 0
1111 -1075 0
263 -701 -1752 -774 0
1608 -914 -573 -1528 0
1905 -425 0
1326 -1404 0
1455 -506 -1155 -1000 0
520 -48 -1291 0
1484 -762 -719 -825 0
-970 -1755 -23 0
1863 -1603 0
-936 -1957 0
1461 -58 0
-2 -1403 -554 0
1468 -1610 0
4 -760 0
1876 -1358 -1143 -1882 0
1860 -416 -587 0
-1146 -957 -1240 0
-367 -1501 0
804 -1447 0
1626 -772 -71 -522 0
1975 -1264 -1303 0
82 -307 -1649 0
750 -124 0
1185 -212 0
1770 -1038 -1259 -1471 0
-621 -1211 0
-693 -822 -1338 -1496 0
1923 -903 -1134 -1996 0
1838 -1126 -1147 0
1920 -1974 -600 0
186 -480 -118 -781 0
156 -1560 0
-1138 -711 0
1476 -286 -656 0
-1036 -849 -1792 -370 0
-1424 -1285 -344 0
851 -585 -452 -290 0
553 -1532 -799 -385 0
826 -331 0
329 -1092 0
1704 -60 -1957 -1631 0
-1389 -1906 -1177 0
-1501 -1499 -1232 -448 0
974 -596 0
386 -1648 -1255 0
120 -1912 0
856 -1938 -426 0
1199 -1159 -1899 -268 0
-1087 -1 -1662 0
1511 -982 -975 0
770 -1771 -306 -1417 0
331 -239 -413 0
1243 -1029 -756 0
-357 -1216 -1566 0
1245 -633 0
-245 -29 -322 0
1772 -1114 0
1902 -1647 0
119 -1764 0
1482 -1112 -1284 -1008 0
210 -931 0
-1459 -188 -1761 -754 0
-20 -711 0
-345 -1240 0
-1799 -830 -1152 -760 0
206 -846 -14 -1295 0
1177 -1812 -1791 0
1190 -1457 -1732 0
1971 -631 0
1656 -362 -999 -1797 0
-56 -671 0
-1884 -487 0
160 -52 0
338 -98 -178 -1846 0
1047 -418 -1644 0
149 -486 -1793 0
990 -993 -1429 -1464 0
-1991 -1748 0
1300 -475 -1185 -404 0
-1591 -1230 -1807 0
468 -1530 -1820 -892 0
148 -834 -439 -342 0
1299 -489 0
382 -1563 0
37 -4 -830 0
-1871 -732 0
-1781 -1082 -592 -397 0
-1606 -1047 -1054 -1187 0
1298 -1079 -166 0
1762 -1046 0
1637 -1397 -1975 -183 0
1745 -1791 0
1778 -1499 0
883 -1834 -1406 -1804 0
1289 -27 0
1404 -612 0
1107 -1775 -768 0
220 -1187 -990 -1044 0
7 -1182 -991 -1594 0
1585 -827 -1564 -772 0
-1583 -355 -755 -13 0
612 -703 -832 0
814 -469 0
-973 -1474 -95 -72 0
-1232 -1621 0
1521 -1050 0
1095 -1109 0
1227 -261 -684 0
1896 -1187 -1021 0
52 -425 -296 0
138 -981 -1743 0
-1581 -1221 -1721 -47 0
1124 -440 0
2 -1346 -1048 -124 0
64 -1234 -249 0
568 -1050 -1187 -1027 0
617 -1265 0
832 -1878 -1490 -1160 0
1687 -200 -225 0
-834 -1596 0
865 -1256 -1466 -971 0
1011 -1723 -1260 0
-1933 -338 0
1582 -1114 0
-1497 -940 -1024 -1573 0
214 -1470 0
806 -1900 -1326 -374 0
-983 -644 -479 0
612 -623 -1047 -349 0
1943 -996 -1729 0
1079 -1817 -608 0
495 -306 -497 0
1543 -131 -496 0
-1059 -1416 -817 -124 0
-1954 -1201 -1145 -1238 0
378 -26 -1400 -1905 0
333 -1975 -532 -171 0
202 -813 0
-349 -1034 -293 -1947 0
730 -1655 0
638 -1657 -245 -861 0
-53 -608 -1667 -1409 0
-1800 -1805 -359 -2 0
1029 -1233 -1153 0
562 -383 0
1975 -445 -783 -1172 0
-1831 -1413 -1089 -1486 0
1212 -598 0
1762 -1249 0
1894 -343 -360 -836 0
-1470 -1889 -365 -1866 0
1583 -1184 0
418 -802 -1315 0
-1036 -28 -1633 0
-15 -1455 -755 0
224 -1168 0
486 -1386 -1813 0
-1820 -1795 0
745 -1640 -230 0
683 -1416 -1299 -1367 0
387 -993 0
1732 -1066 -36 0
-890 -947 0
-1114 -1493 -206 -512 0
-1808 -1938 -1805 0
1869 -1887 -122 0
-367 -795 -1016 0
156 -390 -818 -1699 0
958 -1703 0
1406 -1693 -19 -1733 0
-1663 -599 0
251 -1895 -431 -394 0
1508 -891 -1272 -925 0
-915 -859 -1429 0
522 -236 -1006 0
424 -1203 0
723 -1465 -1529 0
1024 -1560 -388 0
-905 -906 0
1925 -1400 0
16 -1765 0
583 -1221 -828 -1243 0
580 -1492 -1621 -792 0
171 -311 -1032 -385 0
1814 -593 0
1758 -1591 -809 0
-46 -1220 -1561 0
1002 -518 -486 -1869 0
863 -1016 0
-1026 -1769 -838 0
877 -690 -1096 -1161 0
1858 -996 -1616 0
1248 -1593 -729 0
982 -641 0
1345 -568 0
-1549 -1496 -1538 -1873 0
524 -1457 -1901 -501 0
-138 -884 0
-1230 -858 0
517 -850 -379 -1702 0
-176 -219 -673 0
102 -309 -1580 0
-1231 -1819 0
335 -175 -1785 0
1323 -1513 -1979 -198 0
212 -480 -925 -1286 0
698 -1788 -990 0
1054 -961 -838 -1221 0
475 -488 -1001 0
1923 -1881 0
263 -1776 0
85 -1806 -1793 0
704 -1220 -1075 -1952 0
1465 -304 -515 -332 0
1892 -256 -641 0
-250 -1434 -1490 0
504 -552 -1327 0
261 -1636 -1867 0
1839 -1053 0
-1449 -1903 0
79 -733 -1390 -1566 0
178 -1981 -1412 0
475 -494 -870 0
1317 -1966 -1184 -264 0
-276 -936 -563 -1971 0
-1837 -486 0
-219 -603 -954 -970 0
-1012 -1689 0
-1462 -245 -1935 0
-138 -1673 0
272 -1479 0
-1614 -1662 -1154 -1854 0
1141 -1214 0
1215 -638 0
168 -402 -1950 -1905 0
713 -829 0
161 -1369 -904 0
-390 -1499 0
490 -576 0
1114 -461 0
-789 -1166 -451 -959 0
1194 -466 0
676 -1725 0
1791 -1254 -1714 0
193 -30 0
255 -391 -447 0
345 -1387 -1745 -802 0
1126 -602 -1802 -1053 0
-187 -433 -1201 0
1718 -292 0
-207 -608 -1469 0
312 -283 -1898 -1702 0
684 -422 0
728 -749 0
-760 -1748 -539 -1911 0
747 -803 0
42 -132 -1028 0
1679 -484 -1029 -156 0
1246 -1828 0
619 -121 -1656 -766 0
-689 -1426 -1875 -496 0
1537 -1531 0
759 -1355 -1701 0
942 -1132 -66 -1085 0
-1192 -1763 -666 -5 0
665 -733 0
-666 -337 -1015 0
-475 -95 0
-1689 -477 -1543 0
336 -1851 0
530 -1259 0
1865 -1714 -66 0
-1069 -894 -1802 0
253 -1039 0
49 -1602 -889 -1745 0
1452 -634 -930 0
1913 -482 -338 -950 0
1348 -474 -1967 -1869 0
-671 -1068 0
1630 -1562 -1891 0
1972 -340 -1945 -1952 0
757 -1289 0
1943 -1754 -1831 -69 0
-811 -673 0
-1091 -1258 0
606 -382 0
609 -1807 -1954 0
1919 -554 -708 -1846 0
410 -528 0
1582 -582 -1242 0
1914 -1109 -860 0
629 -326 0
243 -983 -1501 -1247 0
-904 -1871 -1502 -1986 0
1573 -1840 -1368 0
-237 -559 0
1313 -953 -1770 0
80 -1052 0
-277 -706 0
1818 -1786 -1759 0
-1076 -497 0
-1488 -632 0
-1004 -1636 -1620 -1817 0
1445 -1483 -1469 -856 0
-1433 -1329 -52 -448 0
-1568 -310 -1864 -614 0
-1316 -1291 -1055 -1288 0
-1891 -213 -273 -219 0
1888 -1871 -239 -1914 0
1823 -190 0
-1758 -1486 -1369 0
613 -491 0
681 -1855 0
657 -1963 -438 0
264 -476 -594 0
1813 -1273 -1306 0
1413 -1358 -74 0
-1719 -1213 -809 -1878 0
312 -282 0
5 -920 0
1650 -812 -750 0
1329 -1874 -202 -139 0
1124 -1780 -1111 0
1661 -111 0
311 -927 0
1493 -625 -864 -441 0
-878 -100 -41 0
1121 -818 -1443 0
528 -1502 -1968 0
-322 -1504 -849 0
542 -215 -1757 0
59 -1197 -1910 0
230 -1821 0
-1322 -940 -1104 -1747 0
247 -418 0
104 -453 -692 0
1432 -1803 -215 0
1722 -1454 -890 -1195 0
466 -1775 0
-1656 -573 -570 0
1051 -470 0
367 -341 0
-273 -1852 -218 0
137 -29 -1442 -1678 0
1057 -222 -1239 -2 0
-1487 -1446 0
937 -1259 -1690 0
-1413 -1498 -439 0
639 -914 -1474 -82 0
1152 -1019 0
-360 -1291 0
1728 -1257 0
464 -226 -260 -873 0
1696 -1751 0
1139 -1806 -1967 0
1838 -701 0
1780 -188 -1687 -611 0
823 -1147 0
446 -56 -898 0
272 -477 -1820 0
1835 -3 0
726 -1213 -739 -619 0
1861 -550 0
1319 -1531 0
663 -1597 -198 -1038 0
523 -701 -1135 -913 0
684 -1606 0
1098 -377 -873 -1546 0
25 -908 -856 0
-895 -321 -1804 -417 0
406 -510 -1383 0
-1918 -1777 -532 0
93 -1401 0
577 -280 -1299 0
913 -1555 -412 -880 0
-1748 -1541 -1576 -11 0
932 -1939 -745 0
1730 -1477 0
1386 -799 -1679 0
1638 -1752 0
-687 -1742 -511 0
-1659 -1648 -783 -1729 0
1178 -1524 0
129 -918 -821 -1988 0
1693 -1365 -66 -1258 0
1054 -983 0
1821 -1398 -1693 0
277 -248 -28 -353 0
1003 -808 0
701 -39 -660 0
-78 -682 -1136 -1673 0
-1258 -758 -232 -1157 0
571 -1339 0
1295 -823 0
499 -1333 -40 -715 0
-1388 -681 -1691 -213 0
482 -453 -945 -1338 0
1353 -1937 -1297 -380 0
341 -6 -1512 -186 0
1382 -529 0
1501 -965 -1271 -11 0
1251 -1359 0
-44 -1804 -1579 -726 0
391 -285 -1967 0
-1427 -837 0
684 -216 -287 -1900 0
1565 -1005 -660 -1187 0
1960 -830 0
137 -174 0
-558 -102 -1428 -302 0
924 -652 -860 -1912 0
-296 -1153 -1292 0
418 -182 0
35 -1741 -607 0
443 -506 -471 0
1479 -512 -1064 -1873 0
-302 -936 -421 -401 0
1066 -1349 -577 0
1658 -938 -1251 0
1485 -1880 -387 0
1867 -626 -1002 -1640 0
-990 -1162 -730 -1582 0
-503 -55 0
-552 -1531 0
949 -369 -360 0
1847 -167 0
-1808 -828 -1480 -1522 0
864 -534 0
447 -1257 -987 0
1386 -1423 -676 0
239 -378 -1607 -719 0
-1591 -1275 -293 0
366 -718 -889 0
-241 -1659 0
-106 -609 0
855 -1182 -1834 0
1248 -1694 -352 -140 0
943 -494 0
197 -51 -1500 -1086 0
561 -567 -148 -178 0
247 -105 -1471 0
-1098 -28 0
1705 -1373 -246 -1987 0
1507 -782 -155 0
685 -629 0
1369 -1710 -1255 0
1650 -1945 -1195 -781 0
1539 -866 0
451 -1929 -68 0
1631 -1785 -1326 0
1002 -666 0
1894 -1202 -659 -240 0
-1777 -251 -205 0
789 -1025 -1925 0
790 -225 -1607 -745 0
1279 -168 0
20 -1807 -1297 0
1276 -1329 0
1676 -451 0
1209 -1661 0
1760 -1476 0
-1968 -28 0
-434 -428 0
21 -1579 -1376 0
1492 -1195 0
-987 -1389 0
-1673 -1904 0
1341 -388 -698 0
132 -1074 -342 0
533 -1975 0
1728 -1177 -1382 0
390 -63 -1018 -1142 0
-1742 -1964 -51 0
1795 -1980 -1195 0
-1274 -43 -185 0
1140 -1768 -1705 0
1357 -397 0
1692 -1357 0
-290 -1457 -193 0
-1338 -715 -470 0
153 -1652 -1571 -424 0
-1022 -1957 0
1624 -1045 0
-490 -1902 -1132 -1144 0
1875 -1229 -1076 -1350 0
-249 -925 0
1384 -1220 -283 -1829 0
608 -401 0
-1676 -501 0
1267 -13 -112 0
-1297 -121 -166 -1483 0
-1959 -1899 0
1793 -1495 -995 -1848 0
1255 -80 0
1184 -526 -867 0
1199 -1453 0
616 -615 0
960 -229 -1149 -49 0
124 -1257 0
1013 -1413 -1684 -229 0
-44 -363 0
-835 -1916 -340 -1877 0
1150 -1229 -308 0
975 -1617 -639 0
-1697 -1071 0
-954 -763 -1568 -301 0
1825 -13 -1429 0
1654 -965 -1772 -1037 0
1567 -127 0
224 -816 -408 -335 0
1732 -1006 0
1401 -1485 -1607 -722 0
363 -1086 -694 -1448 0
167 -1804 -31 0
-1664 -654 -948 -196 0
-367 -237 -176 -1087 0
-541 -1047 -363 -1719 0
-312 -1530 -785 0
-844 -1217 -1283 -245 0
-1921 -673 0
-891 -1738 0
554 -173 0
1012 -258 -74 0
1939 -1263 -903 0
-607 -788 -755 0
1354 -1306 -1451 0
337 -583 -1556 -1805 0
-1766 -1431 0
1044 -1839 0
50 -1794 -820 0
1660 -897 -1295 0
1059 -521 -369 -1797 0
1526 -1186 0
1260 -1562 0
162 -1240 0
526 -830 0
-665 -1112 -950 0
542 -846 0
313 -452 -1892 0
1045 -106 -1803 0
-1344 -1711 0
840 -620 0
-1580 -179 0
1075 -1884 0
1911 -1614 0
-758 -353 0
617 -648 -1013 0
1227 -338 0
613 -916 -20 -299 0
88 -643 -1035 -1934 0
88 -1453 -1940 0
1942 -1862 -143 0
822 -976 -829 0
-1293 -793 -1802 0
1105 -621 0
-673 -577 -564 -1788 0
600 -1706 -572 0
1648 -482 -745 0
526 -254 -674 -161 0
734 -3 -63 0
-1361 -1001 0
-1980 -578 0
245 -328 0
413 -679 0
289 -1010 0
1651 -407 0
224 -445 -1933 0
302 -1965 0
-471 -505 -110 0
-1363 -902 -1338 -1321 0
647 -180 -89 0
1219 -327 0
-444 -393 -1476 0
581 -1072 -1524 -1145 0
817 -727 0
1869 -1706 0
-1065 -574 -359 0
-801 -1175 0
1011 -613 -384 -1058 0
1757 -629 -20 -483 0
-1080 -542 0
-1980 -1060 -572 0
511 -175 0
1184 -1442 -52 -1199 0
1914 -714 0
1193 -1967 0
860 -546 0
-1342 -540 0
392 -433 0
360 -201 -1681 0
375 -529 -1815 -1865 0
1113 -418 0
-435 -1230 -62 0
863 -608 -367 -1424 0
549 -750 -968 -1681 0
-117 -905 -1903 0
1673 -1072 0
1026 -34 0
585 -806 -1353 0
1844 -1891 0
578 -1432 -1413 0
137 -181 0
-1547 -121 0
811 -1416 -830 0
923 -852 0
133 -1805 0
1160 -483 0
-1131 -1595 -760 0
263 -152 -1911 0
-1536 -792 0
1559 -489 -1953 0
992 -1582 0
687 -1691 -23 0
-563 -947 -1009 -1303 0
-1874 -259 -319 -904 0
1445 -1310 -1102 0
1157 -1048 -1540 0
1755 -362 -749 0
-917 -798 0
526 -1387 -873 -654 0
840 -549 -1603 -1839 0
542 -1363 0
1505 -1182 -651 0
15 -1718 -106 0
460 -1801 -7 -849 0
-1488 -188 0
593 -1363 -448 -1120 0
735 -707 -841 -577 0
-1414 -1147 -1850 -1683 0
491 -1641 -1095 -1870 0
871 -304 -636 0
170 -1305 0
-50 -505 0
-1163 -199 0
166 -455 0
711 -752 0
795 -77 0
1965 -428 -1178 0
967 -357 -1237 -1429 0
1761 -589 -357 0
1714 -1673 -75 0
350 -522 -1111 0
310 -257 -1824 0
1204 -400 -824 -1324 0
-52 -1720 -1923 0
1847 -664 0
1758 -1925 0
706 -475 -778 0
359 -743 -1775 -1465 0
1325 -246 0
314 -1935 0
604 -76 -1313 -1075 0
1483 -1226 0
-1789 -1756 -1880 0
1916 -1580 -893 0
1708 -682 -1210 0
1689 -1247 -703 -1429 0
266 -1013 -1211 -442 0
482 -864 -460 0
-1433 -713 -1685 0
-1360 -667 -94 -1732 0
288 -523 0
1623 -475 -1938 0
654 -1207 0
702 -1872 0
899 -418 0
1165 -672 -269 -173 0
-1662 -1756 -117 -387 0
1438 -605 -463 -1033 0
693 -506 -689 -1759 0
-560 -1644 0
1118 -1625 0
-392 -566 0
1680 -545 -1156 -689 0
-1743 -1513 -1135 -594 0
1886 -1256 -1801 -1519 0
-772 -1162 -90 -713 0
616 -882 -1143 0
192 -1655 -875 0
838 -1780 -417 -1967 0
706 -1493 0
-1435 -803 0
1170 -419 -121 -1626 0
-1609 -773 -493 0
-1836 -1241 0
-1796 -389 -356 -1958 0
956 -941 -508 0
1475 -194 -1955 -1142 0
1740 -241 -544 0
746 -19 -1853 0
1082 -939 0
610 -590 -1533 0
437 -1610 0
-1937 -1394 -1003 0
-793 -827 0
1771 -1724 -1685 0
702 -1128 -1009 -1930 0
-207 -637 0
915 -1081 0
-1854 -105 0
959 -1368 0
1347 -1641 -429 0
1992 -1774 0
965 -30 -1540 -1847 0
204 -1960 -1776 0
-534 -209 -1323 0
1915 -1225 0
-693 -523 -1872 -879 0
-947 -864 0
-1583 -529 -1625 0
-1940 -628 0
98 -183 -646 -1977 0
1031 -581 -1504 0
1070 -782 -1290 0
1970 -144 -695 -53 0
807 -761 -195 -940 0
677 -172 0
204 -395 -728 -872 0
1226 -1527 0
976 -1400 -1476 0
1417 -1236 -34 0
1980 -942 -871 -895 0
-1286 -1928 -1026 -906 0
-979 -1599 -1753 0
-1999 -1867 -248 -1460 0
-1197 -362 -791 -1194 0
1574 -483 0
-499 -381 -1779 -1895 0
1082 -1898 0
1598 -1981 -248 0
1137 -874 -1940 -1965 0
1255 -488 -1107 -980 0
-1059 -484 -173 0
683 -1152 0
407 -830 0
1638 -1078 -1263 -1488 0
742 -1336 0
1570 -1967 -589 -1558 0
65 -685 -649 0
1312 -1852 -922 -1112 0
-1009 -896 0
-1528 -15 -733 -917 0
1167 -664 -1178 0
1042 -634 -425 0
-1634 -1745 0
1636 -411 0
-224 -1046 -403 0
1896 -1164 0
1676 -496 0
-770 -90 -1086 0
280 -1636 0
-1524 -385 -190 0
111 -979 0
782 -1229 0
1906 -402 -1155 0
1301 -95 -548 0
1736 -1636 -1113 -1894 0
445 -475 0
321 -810 -1616 -1831 0
1690 -1641 -995 -1551 0
1359 -835 -1891 0
1153 -1991 0
1118 -1397 -25 -1927 0
-1121 -425 0
242 -633 -567 0
-610 -1934 -1554 0
879 -821 -1086 -1317 0
-911 -1356 -796 -210 0
-1452 -1860 -1383 0
11 -721 0
990 -938 -1794 -310 0
1304 -1173 -905 -446 0
1804 -1786 -1623 -1392 0
-993 -809 -1658 -263 0
305 -480 0
1237 -1267 0
708 -422 0
699 -1441 0
1807 -1761 0
803 -438 -711 -1495 0
-274 -830 0
1712 -1882 -595 -162 0
-427 -134 -78 0
1219 -115 -10 -349 0
1580 -391 -1496 0
18 -1617 -1864 0
1388 -105 -354 -862 0
741 -1482 0
347 -1749 -1866 -1077 0
-49 -1019 -1907 -1967 0
-710 -1946 0
911 -214 -1223 -838 0
572 -1892 -1501 0
-588 -80 -1120 0
1090 -618 -436 0
-73 -1710 -1547 0
-1034 -1935 -307 -1801 0
187 -146 0
-614 -1129 -1125 -494 0
217 -1232 -898 -1864 0
-831 -752 -851 0
1913 -946 0
1436 -1337 0
-1937 -950 -129 0
1971 -300 -270 -275 0
-1491 -980 -1548 0
1469 -1938 -683 0
843 -125 -1474 0
1032 -207 0
-1577 -1853 -928 -162 0
-423 -1292 -849 0
445 -915 -1077 -849 0
1887 -1435 0
-774 -527 -1732 0
1540 -1314 -93 0
1569 -1929 -2000 -11 0
1853 -224 -748 -858 0
1884 -1570 -322 -874 0
460 -1444 -586 -1552 0
1761 -1621 -1339 -336 0
-24 -1108 -501 -1105 0
457 -1548 -124 0
-456 -1390 -883 0
206 -295 -822 -564 0
-124 -1475 -1338 0
-1744 -1300 0
1420 -1921 -497 0
-1604 -1111 -1672 0
1156 -573 0
1826 -1882 -954 -1907 0
1319 -1862 -1451 -1757 0
-777 -358 0
909 -1792 -1997 0
682 -1217 -1893 0
-1617 -1764 -1904 -1876 0
371 -995 -1079 -676 0
843 -477 0
-1657 -1341 -1688 0
-1936 -357 -1723 -180 0
507 -433 -659 0
1493 -533 -512 0
-947 -1438 -826 0
1383 -921 -715 0
1303 -681 0
-1040 -724 0
-1743 -859 -1897 -1269 0
562 -451 -1524 -251 0
-294 -710 -653 -283 0
-920 -332 -38 0
1365 -408 -1947 0
1684 -19 0
930 -1408 -126 0
1816 -1927 -835 0
-93 -1486 -1328 -1547 0
652 -858 -1312 -523 0
681 -138 -1957 0
1854 -1327 -1569 -1434 0
846 -1040 -997 -1994 0
1884 -903 0
1966 -899 -750 -805 0
-1426 -810 -208 0
-1034 -423 -1357 0
1985 -304 0
257 -1730 -1409 -244 0
-1868 -1827 0
-1912 -1192 -492 0
337 -659 0
-1139 -1160 -1319 -442 0
-1833 -1950 -453 0
1627 -209 0
-1916 -1097 -961 -1141 0
-11 -1571 0
922 -1113 -698 0
-1228 -1965 0
1079 -1677 -100 0
559 -1571 0
977 -81 -1999 0
1535 -559 0
1207 -556 -103 0
-456 -1755 -1198 0
1533 -18 -1677 -290 0
1047 -157 -463 -651 0
1959 -483 0
252 -1361 -1306 0
-848 -1593 -290 0
-53 -85 -286 0
-621 -1540 0
1762 -1308 0
-299 -947 0
-1515 -1297 -410 -522 0
1778 -270 0
1533 -900 -116 -1925 0
1289 -475 -1600 0
-1274 -805 0
484 -18 -1173 0
-994 -1487 -429 -1512 0
1091 -1285 -350 0
-1135 -907 0
-1769 -1510 -1563 -331 0
-1011 -795 0
1316 -1445 0
-515 -1826 0
1049 -950 0
1129 -907 -31 0
-633 -1664 -766 0
46 -1994 0
-1901 -101 -1386 -1523 0
1012 -1736 -688 -21 0
1903 -1868 -1902 0
1738 -1063 0
-450 -262 -21 0
261 -619 -1700 0
1390 -382 -691 -152 0
851 -1974 -266 0
-17 -1351 -625 -1380 0
-1264 -816 0
1234 -1405 -1478 -75 0
286 -1743 0
-1254 -231 -1500 0
1917 -731 -541 -1293 0
-1574 -1443 -272 0
857 -447 -780 0
-355 -558 -835 0
390 -164 -1226 0
1824 -1220 -962 0
-910 -1618 -1991 0
-249 -1714 0
1791 -1700 0
1906 -1824 -419 -1156 0
-1829 -63 -1452 -388 0
13 -1340 -761 0
-1005 -196 -1447 -1134 0
-1359 -1828 -51 -352 0
-1001 -894 -1296 0
418 -1352 0
1495 -367 -1180 0
1361 -411 -31 -603 0
1072 -1121 -702 0
585 -1972 -607 -1116 0
-1709 -1070 -976 -227 0
1805 -1180 -1094 -1596 0
-585 -485 -1196 -1077 0
1690 -1773 0
1797 -1882 0
1075 -1152 -1991 0
1973 -1823 0
870 -749 -410 -991 0
1954 -1218 -1390 0
772 -486 0
124 -256 -200 0
1449 -60 -860 -1979 0
1036 -11 -93 0
1517 -1198 -842 0
1368 -1015 0
582 -1258 -909 0
-1390 -1487 0
1663 -104 0
1214 -583 0
-512 -1539 -1753 -1837 0
1779 -1929 0
666 -955 -261 0
1284 -1751 -673 0
502 -1676 0
-1968 -754 -1835 0
128 -781 -1816 -1040 0
1474 -940 -73 -294 0
-1621 -376 -1062 0
729 -818 0
98 -944 0
-542 -632 -939 -413 0
1962 -1834 -1500 0
70 -1680 -651 -993 0
1303 -1268 -1545 0
968 -672 -1251 -1164 0
-1744 -450 0
-644 -1500 -1091 0
653 -1483 -1859 0
994 -520 -505 -133 0
1170 -1879 0
-257 -846 -693 -336 0
-1457 -771 -1833 -1690 0
1097 -1190 -1786 -1440 0
1139 -1961 -913 -592 0
310 -301 0
-40 -36 -1816 -1967 0
233 -1202 0
-1751 -1525 -873 -1803 0
-854 -1779 0
571 -1465 0
693 -317 -1842 -886 0
-327 -962 -749 -230 0
829 -1295 0
-1761 -642 -1048 -1438 0
349 -1880 -592 -1801 0
-1805 -1218 0
1044 -704 -1499 -115 0
-1850 -1571 -1196 0
1651 -233 0
1869 -1563 -1098 0
51 -1922 0
191 -1063 -1572 0
38 -1881 0
724 -172 -1136 0
-1928 -1240 0
128 -1253 -1572 0
609 -1107 0
1877 -1852 0
1354 -1854 -768 0
93 -1977 0
1180 -803 -1059 0
-1115 -1585 0
1866 -493 -1132 -371 0
1609 -290 -67 -414 0
1651 -282 0
340 -1115 -887 -5 0
645 -663 -560 0
1441 -27 -1485 0
414 -207 0
1469 -1599 0
-129 -685 -1011 0
1146 -470 -600 0
1887 -1827 0
1620 -103 -1 0
-1730 -785 -1129 -1562 0
651 -973 -1209 0
1998 -944 -1818 -1787 0
356 -477 0
1317 -1392 0
235 -184 -753 0
-635 -1803 -1366 -253 0
197 -529 -1358 0
653 -1389 -1157 0
786 -1135 -1157 0
1375 -961 -1077 0
607 -546 -715 0
52 -1434 0
1029 -1313 -597 -607 0
1885 -1887 -654 0
1377 -1359 0
647 -1973 -848 0
1047 -563 -1294 0
378 -202 -414 -364 0
622 -604 -919 0
949 -38 0
1814 -470 0
1795 -1044 -166 0
1527 -1760 -1926 0
104 -517 -576 -1839 0
-1224 -1033 -136 0
1501 -1333 -584 -473 0
-1951 -1207 -1390 0
-1227 -450 -1397 0
-1034 -1152 -253 0
1948 -629 -307 -153 0
-127 -19 -1622 0
1340 -1432 -703 0
974 -870 -1046 0
899 -1889 0
1589 -702 0
108 -1355 0
1570 -1784 -580 -1362 0
-1099 -1718 -1455 -1901 0
-1119 -895 0
211 -810 0
1976 -856 -327 -730 0
1426 -832 -1505 0
882 -219 -134 0
-1089 -1864 0
1215 -260 -252 -263 0
-1309 -1021 -1182 -1230 0
541 -1581 -672 0
-1322 -1460 0
1356 -1315 0
355 -1935 -1561 0
965 -1166 -1220 -1050 0
-359 -1716 -1078 -84 0
1654 -25 -1913 -125 0
-1008 -452 -129 0
1273 -536 0
1365 -798 0
1886 -1396 -1759 0
623 -1029 -1964 -41 0
1444 -1190 -387 -1249 0
1700 -1257 0
223 -1105 -1952 0
1726 -861 -961 -1044 0
-603 -101 -1367 0
1410 -1737 -855 0
-305 -1838 -179 0
1911 -687 -1266 -937 0
19 -328 -1671 -723 0
-898 -443 -402 0
-522 -1615 0
426 -1345 -58 0
-820 -1951 0
1778 -930 -1629 0
474 -264 -1794 0
637 -141 -162 -1511 0
242 -1104 -1400 0
758 -421 -456 0
812 -295 0
-1669 -1798 0
1273 -1221 -1589 -786 0
703 -1953 0
540 -211 -1676 0
1789 -25 -624 -77 0
1907 -276 -295 -1046 0
830 -398 -1268 0
-834 -1310 0
-277 -538 -13 0
1667 -267 0
297 -358 -998 -1793 0
688 -1606 0
1095 -289 0
911 -1514 0
1785 -1062 -1122 0
776 -1429 0
1539 -741 0
847 -319 -1280 -1896 0
1929 -1878 0
175 -491 0
993 -1683 -819 0
1592 -915 -1661 0
-1892 -726 -318 0
1074 -1485 -1114 -205 0
-277 -1457 -746 -545 0
484 -1863 -1217 0
-131 -703 -1532 -923 0
-1442 -1230 0
-871 -1294 -321 0
1506 -1611 -638 0
296 -1685 -1601 0
573 -314 0
1177 -1976 -1449 -52 0
448 -1904 -1949 0
1281 -446 -225 -447 0
1621 -1498 -370 0
1823 -1142 0
1651 -1449 -1124 0
-571 -1186 -707 0
114 -1398 -652 -1926 0
83 -487 -842 -498 0
1573 -859 -41 -28 0
1137 -1030 0
-535 -1148 -107 0
-82 -280 0
1104 -516 -1728 0
-116 -1681 -1095 0
1020 -907 0
825 -1587 -1294 0
-605 -1401 0
907 -1706 0
-632 -1069 -1615 0
116 -196 -1883 -1763 0
607 -811 -508 0
1393 -1949 -1806 0
-36 -1330 0
437 -1098 -303 0
1513 -1682 -1664 -679 0
-1548 -607 -1767 -353 0
1905 -739 -888 0
1872 -1908 -1145 0
167 -101 -936 -1532 0
1059 -473 0
1771 -1274 0
464 -1898 0
1563 -1855 -1003 0
-412 -747 -619 0
1019 -669 0
318 -795 -1891 0
633 -1513 0
285 -379 -903 0
1612 -1949 0
-1410 -1299 -870 -1338 0
-938 -1288 0
1494 -723 0
1409 -1827 -289 0
34 -414 -1870 -1284 0
751 -1836 -1132 -1780 0
31 -26 -1323 -1784 0
-1383 -1556 0
-1522 -123 0
1971 -691 -1313 0
-958 -1085 -865 -148 0
-138 -956 0
1603 -1518 -1799 -1070 0
-168 -237 0
1754 -1753 -453 0
514 -782 -425 0
-428 -1671 -1294 -1365 0
1071 -25 -1924 -58 0
1616 -1605 -1888 -317 0
418 -1412 -1093 0
866 -1760 0
-1263 -1249 -1460 0
1510 -333 0
-1332 -1007 -1056 0
620 -132 -109 -799 0
1638 -152 -1817 -1631 0
1906 -347 -778 0
-985 -774 -106 0
647 -744 0
-181 -1002 -1570 -706 0
-1775 -700 -155 -646 0
-762 -276 -1616 0
1495 -1142 -745 0
1202 -1463 -228 0
523 -680 -1812 -145 0
1546 -1154 -1475 -560 0
280 -1085 -1644 -989 0
76 -1306 -222 0
-1840 -1631 -1567 0
-1920 -349 -376 -456 0
537 -1670 -791 0
183 -1695 -1779 -1512 0
-513 -398 -1841 -1414 0
370 -1905 -1693 -1227 0
768 -1881 0
504 -1366 -677 -1890 0
339 -625 -1253 -1059 0
46 -1643 0
1040 -963 0
-931 -823 -1955 -574 0
-302 -199 0
348 -1680 -1767 0
423 -608 -401 -242 0
-1947 -803 -727 -462 0
370 -54 -1436 -21 0
1602 -1428 -1384 -836 0
-754 -58 -301 -339 0
1200 -22 -443 0
-601 -457 -862 0
482 -369 -1573 0
1604 -1447 0
607 -1011 0
1024 -970 -894 -1696 0
239 -1525 -1063 0
1499 -1708 0
450 -1006 -146 0
222 -570 0
1738 -491 -351 0
1539 -959 -110 0
-953 -205 -563 -199 0
603 -1079 -322 -1492 0
1733 -1532 -617 0
-1347 -1781 0
-452 -580 -1149 0
83 -1407 -1866 -1276 0
537 -1053 -1374 0
1455 -393 0
892 -986 -385 -640 0
-711 -417 0
1524 -629 -704 0
1508 -258 -1718 0
1601 -385 -751 -888 0
948 -1640 0
-661 -1371 -439 -1986 0
1916 -605 0
1165 -663 -1517 0
-410 -260 0
88 -1522 0
242 -1515 0
790 -561 -428 -1759 0
440 -19 -406 0
425 -360 -556 0
-443 -602 -1181 -1941 0
1087 -1580 -124 -1138 0
936 -694 -16 0
-728 -1595 0
1023 -1768 0
1480 -1933 -884 -975 0
1526 -1731 0
-1675 -1456 -1038 -1329 0
1436 -930 -1454 -1699 0
1798 -4 -1546 -1509 0
93 -1724 0
1206 -69 0
1255 -1589 -115 -1465 0
-1816 -721 0
1205 -254 0
16 -875 -175 0
1914 -980 -1055 0
-200 -592 0
-1880 -1817 -2000 -853 0
1967 -167 0
325 -114 0
-73 -296 -809 0
221 -345 -551 -1551 0
1489 -430 -774 -254 0
1551 -494 0
726 -202 -922 0
-338 -1407 -1461 -1529 0
1268 -1197 -1141 -1345 0
269 -944 -993 -442 0
1673 -491 -1918 0
1208 -1823 0
1346 -667 0
840 -494 -1202 0
271 -1351 -818 -1105 0
942 -1412 -1870 0
570 -7 0
952 -1966 -553 0
343 -1488 0
991 -935 0
1549 -144 -1285 0
-1588 -670 0
825 -533 -1223 -479 0
775 -625 0
1120 -247 0
-1470 -1241 0
1256 -1258 0
1727 -1535 -251 0
438 -1258 0
-623 -335 -374 0
-843 -1459 -1398 0
-1489 -737 -912 0
838 -1189 0
-1853 -1975 -1611 0
1388 -1434 -768 0
490 -1164 0
1232 -97 0
423 -1827 -1658 0
17 -1781 0
189 -1432 0
595 -917 -689 -1124 0
1256 -1501 -273 0
-32 -1959 -1855 -1067 0
748 -1259 -1752 -457 0
1970 -526 0
1213 -106 -585 0
1129 -895 -521 -1732 0
777 -519 -1276 0
370 -1039 -1285 0
485 -1040 -1345 0
-41 -1772 0
1615 -757 0
1651 -1336 -135 -1709 0
412 -1072 0
1511 -1329 -1576 -893 0
1429 -1088 -373 0
386 -42 -235 0
1810 -1438 0
322 -893 -1065 0
1559 -106 -1936 -912 0
-265 -1239 -332 -1536 0
-134 -400 0
925 -80 -1326 0
612 -1656 -1660 -1121 0
-613 -87 -1850 0
692 -1854 -1658 0
203 -892 -564 -1300 0
1573 -509 -1412 -1342 0
1151 -524 -245 -1172 0
138 -1586 0
1316 -1711 -1554 0
187 -1924 0
255 -96 -547 0
329 -1762 -156 -1987 0
-81 -276 0
1055 -1300 -1743 -1330 0
-1132 -1786 -1247 0
1940 -1847 -1194 -234 0
1089 -359 -1949 0
481 -1347 0
-1181 -930 -1317 0
247 -644 0
-58 -1578 -1397 0
1146 -1876 -1565 0
385 -1396 0
1587 -316 0
-1521 -505 -98 -582 0
1428 -1698 -1117 0
-1742 -665 0
-1190 -1504 -191 -1124 0
121 -499 -447 -408 0
342 -839 -961 -1144 0
420 -173 -88 -541 0
-436 -586 0
1284 -652 -1067 -1800 0
1693 -300 -245 0
1576 -21 -972 0
-1151 -453 -870 0
-1855 -173 -1477 0
661 -346 -676 0
592 -1581 -1723 -897 0
516 -1923 -1432 -683 0
1521 -824 0
1089 -790 -1988 0
283 -979 0
-1166 -1566 0
100 -47 0
501 -1570 -1804 -881 0
1234 -1219 -941 -1406 0
85 -1588 0
211 -1858 0
388 -1506 -859 -149 0
-480 -371 -684 0
240 -369 -353 -1379 0
-973 -1358 -1282 -1654 0
1709 -67 -856 0
1624 -1250 -1735 -199 0
217 -914 0
1106 -1656 -1581 -1952 0
1730 -348 -2 0
750 -567 0
122 -631 -1102 0
-780 -1723 -589 0
742 -8 -659 -159 0
-867 -656 -438 -1894 0
155 -715 0
168 -1541 -1142 -1735 0
1063 -583 -616 -1469 0
-1195 -350 0
1492 -1655 -1187 -1349 0
-1259 -795 -1452 0
1962 -1192 0
445 -1712 -1106 0
220 -1150 -693 -518 0
-1918 -1851 -424 0
938 -524 0
-1573 -182 0
-1649 -1023 0
1991 -1758 -877 -1167 0
1023 -1781 0
1701 -1525 -770 -684 0
-707 -1047 -722 -459 0
-1077 -1092 0
1241 -1508 0
898 -1754 -1061 0
1939 -1011 0
1346 -354 -1062 -1305 0
-1256 -1395 -1655 -52 0
1553 -1422 0
1321 -917 0
-154 -917 0
-309 -1464 -148 0
1418 -1962 -1801 0
-1262 -324 -23 -684 0
992 -864 -1265 0
1459 -1969 -1165 -815 0
308 -32 0
-1935 -1111 -363 0
1198 -153 -1513 0
-743 -939 -823 -185 0
727 -1528 -879 0
1664 -28 0
-675 -1225 -1415 -923 0
1627 -41 -1186 -1487 0
-901 -1196 -870 0
725 -338 -1844 -417 0
1081 -182 0
-384 -235 0
132 -1000 -1145 0
-1908 -1630 -606 -1111 0
-255 -1211 -1655 -1681 0
974 -985 -504 0
338 -888 0
-1204 -177 -1958 -1064 0
589 -623 -1555 0
1610 -337 -1580 -1481 0
-1229 -1344 -545 0
-1628 -339 0
-1181 -627 0
1674 -1695 -1576 -605 0
474 -899 0
1789 -1628 -1262 -1450 0
1812 -143 -435 -1538 0
748 -1671 -1103 0
970 -1061 0
1945 -304 -190 -1322 0
856 -269 -522 -1441 0
684 -420 -72 -229 0
1531 -667 -1370 -1726 0
728 -62 -1719 -1469 0
669 -8 0
1929 -903 0
695 -1702 -810 -1997 0
7 -79 -1972 0
637 -1909 -1622 -671 0
1545 -1423 0
250 -1810 -54 -345 0
318 -201 -289 -733 0
1989 -88 0
1242 -1835 -514 0
-1758 -1917 -1075 0
-1567 -1909 -110 -1301 0
1574 -1037 -558 -79 0
-1943 -1460 -333 -753 0
-322 -1910 -1357 0
-605 -1565 -538 -450 0
1349 -614 -1217 0
-1965 -427 -1819 -214 0
1168 -806 -1115 -1116 0
1601 -586 -733 0
991 -997 -1427 -1404 0
347 -1535 -1015 0
1592 -1805 -1964 0
-776 -258 -788 0
1454 -709 -1485 0
239 -1572 -1372 0
1280 -202 -1063 0
1022 -1139 -931 0
1643 -1696 -1836 0
-759 -1738 -1866 -19 0
-14 -799 -1521 -274 0
1684 -293 -54 -782 0
-678 -793 0
1175 -1073 0
1939 -1288 0
567 -466 0
1502 -1234 -1141 -1055 0
1576 -1377 -1879 -1130 0
602 -1206 -115 0
-1328 -706 0
-1453 -1160 0
1733 -680 0
-1114 -1089 -332 0
1219 -476 0
132 -211 0
1902 -1588 -362 -517 0
-249 -1461 -1630 0
1136 -1106 -1278 0
-1193 -167 0
-1899 -800 0
-366 -914 -1495 -1930 0
725 -1445 -1366 0
1996 -584 -1813 -1641 0
-1896 -929 0
1350 -1538 -1986 -400 0
1944 -1130 0
652 -1581 -922 0
999 -1872 0
1656 -991 -1184 0
-1388 -1127 -1146 0
1130 -1078 0
-1664 -1387 -1220 0
1770 -460 -1743 -792 0
1687 -1512 -1955 -1518 0
-181 -1944 0
-9 -66 -1834 0
1182 -90 -68 -219 0
1758 -1716 0
645 -673 0
340 -772 -654 -270 0
-569 -23 -345 -1794 0
1048 -799 -1838 -532 0
540 -408 0
1744 -1422 0
-748 -80 -1231 0
533 -500 -1204 -907 0
-36 -668 -917 -1192 0
-656 -909 -1615 0
-1583 -898 -318 0
389 -758 -374 -190 0
-1673 -1228 -304 0
1801 -33 -1968 0
1328 -156 -83 -953 0
1071 -977 0
484 -1692 0
518 -802 -1901 0
163 -500 0
823 -1100 -23 -792 0
1007 -30 -1505 -492 0
1977 -215 -1655 -825 0
1181 -1290 -1035 0
205 -1295 -1033 0
-1727 -447 0
-889 -525 0
28 -1857 -786 0
101 -726 -1806 0
1136 -1359 0
939 -1101 0
1126 -820 -870 -954 0
524 -1132 0
170 -361 -1548 0
-1177 -121 -934 -974 0
-1362 -1211 -1819 -408 0
25 -279 -1556 -793 0
-963 -406 -471 0
1959 -110 -673 -1752 0
-1123 -452 -1551 -22 0
-651 -304 0
1317 -660 -1849 0
482 -1162 -1559 -1563 0
267 -741 0
1977 -470 0
1477 -1608 -805 -1392 0
702 -569 0
-1646 -58 -1576 -71 0
1078 -66 -190 0
482 -965 0
1025 -622 -1943 -320 0
306 -930 0
906 -186 0
-1294 -1327 -1996 0
1201 -1821 -872 -1159 0
1022 -1063 0
834 -1955 -957 -135 0
361 -818 0
1246 -834 0
-389 -693 0
1653 -1787 0
621 -341 -537 -300 0
803 -363 0
272 -35 0
-1424 -808 0
-1367 -1056 -937 0
-430 -40 -20 0
1252 -1690 -1960 -1058 0
1476 -1342 -1670 0
750 -1991 -192 0
1639 -1854 0
353 -1346 0
891 -1061 0
907 -60 -1212 0
854 -1354 0
-1917 -1118 -777 0
805 -1446 -344 0
1426 -100 0
1044 -1524 0
1459 -1978 0
1203 -1997 -960 0
395 -1645 0
35 -1835 -1972 0
1668 -1797 -303 0
981 -495 -107 -192 0
955 -735 -1485 0
1789 -447 -947 0
636 -1569 -1588 0
-1938 -1096 -839 -959 0
1302 -637 -1751 0
-329 -1471 0
1296 -1984 -188 -1568 0
1137 -1316 -220 -525 0
987 -1394 -1971 -276 0
-19 -1084 -209 0
1268 -499 0
1189 -1513 0
260 -29 0
-507 -779 -160 0
1514 -441 -1878 -1443 0
137 -491 -1646 0
1376 -599 -1055 0
1895 -1996 -1888 -1847 0
-1905 -1604 -282 0
-401 -1001 -633 0
142 -499 0
1800 -1439 -256 -1164 0
976 -852 -251 -1202 0
1789 -815 -1748 -1587 0
139 -45 -27 -24 0
612 -1321 -363 0
-793 -632 0
617 -1781 -301 -1729 0
91 -1185 0
696 -1119 -419 -272 0
-19 -817 -1307 0
-1748 -1908 -1087 -599 0
603 -1602 0
-1208 -163 -890 0
1769 -1555 -650 -1195 0
287 -1766 0
1959 -1710 -1602 0
948 -124 -1193 0
749 -1350 0
1524 -257 -1742 -180 0
984 -444 -773 -728 0
653 -841 -289 0
1027 -1657 -621 0
1622 -1197 -1026 0
1740 -1698 0
1700 -335 -478 0
1127 -1981 -238 -1977 0
-1492 -1839 0
1680 -742 0
999 -445 -916 -1765 0
-1188 -1895 -323 0
1780 -1424 0
1212 -1911 0
-111 -1039 -936 -339 0
417 -1473 -717 0
1441 -998 0
-778 -245 -746 0
-980 -314 -47 -779 0
1722 -749 0
1004 -576 -363 -1093 0
15 -80 -1761 0
1642 -1929 -1250 -1650 0
1629 -679 -882 0
1254 -165 -1976 0
-377 -634 -1635 -213 0
1120 -1848 -1423 0
276 -1505 -1934 0
-1099 -303 -420 -1983 0
1694 -905 -1854 0
1691 -1730 0
-1564 -449 -1570 -243 0
716 -1973 0
-616 -1763 0
1514 -1142 0
158 -1986 0
918 -1213 -841 -613 0
978 -1757 -718 0
1048 -941 0
-1396 -999 -1091 -1286 0
241 -1789 0
-156 -1078 -399 0
1452 -1029 -847 0
1404 -1539 -1768 0
215 -513 -478 0
1164 -512 -935 -801 0
-1180 -1979 -831 -1440 0
1672 -928 -510 0
1291 -591 0
990 -1867 -1136 0
-739 -1698 0
318 -1285 0
-242 -1714 -1934 0
1011 -1037 -984 0
1092 -1011 0
195 -732 -1607 0
498 -806 -1064 0
-937 -117 -1273 0
-177 -261 -125 -312 0
-355 -1628 -51 0
1456 -1012 -70 -1818 0
1572 -1831 -1291 -1060 0
276 -1108 -1112 0
1649 -909 0
1357 -258 -263 -507 0
231 -1999 -1919 0
1558 -1860 -136 0
1428 -836 0
406 -1295 -1643 0
1401 -426 0
-415 -1506 0
261 -608 -481 0
1447 -1954 -240 -1235 0
-1350 -275 -276 -34 0
1734 -891 -1536 -1601 0
702 -877 -398 -1578 0
-1593 -1478 -524 0
-1503 -1028 -42 0
1806 -943 -1066 0
1701 -1785 0
-1157 -1657 -956 -1647 0
-257 -228 -1630 -1834 0
1734 -1126 -1300 0
1625 -1978 0
-1450 -1584 0
-1657 -353 -918 -1085 0
271 -852 -397 0
1134 -1812 -1566 0
1112 -499 0
-422 -447 -1938 0
1109 -819 0
1710 -1759 -807 0
1026 -144 0
-426 -153 -417 0
-671 -992 0
1148 -1498 -412 0
160 -1729 0
-834 -1149 0
-419 -1041 -1687 -1124 0
-1544 -1305 0
1333 -62 -1237 0
-63 -983 0
1199 -981 0
1186 -276 -932 0
251 -410 -351 0
1156 -698 -1930 -1134 0
-66 -1710 -1331 -1104 0
748 -486 -1815 -1524 0
420 -658 -1768 -900 0
-1073 -1723 0
-282 -1651 -241 0
1640 -1696 0
1444 -885 0
531 -400 -574 0
819 -1903 -818 0
-120 -1446 -1574 0
89 -704 0
1937 -366 -1459 -644 0
1271 -987 -1915 0
-1933 -1087 -800 0
793 -1528 -678 0
-665 -1753 -755 -1287 0
25 -1195 -1800 0
1405 -729 -1535 -828 0
113 -1140 0
141 -1541 -1870 -1171 0
1343 -1944 -842 0
741 -113 -1470 -1611 0
987 -1758 -914 -734 0
1653 -884 -693 0
1185 -1647 -543 -1217 0
-698 -199 0
1869 -1357 -53 -1171 0
-587 -905 -214 -1516 0
586 -1340 -543 0
1428 -1310 0
-289 -846 -1654 -1149 0
-297 -184 -845 0
960 -1696 -986 -165 0
737 -1003 -761 -1824 0
1889 -666 -162 0
1949 -41 0
-821 -1400 -1869 0
715 -1535 -390 0
830 -862 -855 0
-643 -1739 0
-1088 -1317 -1641 0
-1341 -932 -1013 -1977 0
-539 -923 -674 -1977 0
-522 -54 0
-1087 -355 0
851 -1255 -1129 -1383 0
1757 -719 -1971 -344 0
-1374 -1331 -286 0
936 -580 -1547 -416 0
689 -1113 -860 0
1966 -505 0
629 -100 -1654 -1796 0
-1793 -1615 -534 -693 0
585 -498 -1817 -557 0
1243 -1740 -635 -313 0
1485 -1812 -1085 0
1282 -888 -1400 0
1661 -361 0
-106 -39 -785 -1196 0
1471 -219 -793 -1651 0
-1915 -1516 0
-1617 -1063 -147 0
677 -235 -1042 -1997 0
1115 -719 -908 -1824 0
435 -1942 -1859 -64 0
267 -1600 -1163 -74 0
1502 -917 -1232 -510 0
709 -893 -239 0
-343 -1563 0
1075 -828 -512 -461 0
969 -184 0
-890 -165 0
-1261 -392 0
1409 -1716 -755 -658 0
47 -103 0
-829 -1942 -463 -1581 0
333 -216 -1838 0
1922 -1984 0
360 -1920 -1603 0
-632 -685 0
437 -1050 -1762 -864 0
-1842 -434 0
645 -1269 -273 -94 0
-668 -101 0
457 -272 -1932 0
155 -1056 -774 -203 0
-1430 -1683 -647 -913 0
18 -1974 0
-311 -1517 -117 0
-1426 -1037 0
-1968 -1514 -1299 -436 0
-1800 -519 -365 0
315 -835 -644 0
1768 -135 -936 0
-1489 -1296 -280 -1045 0
-501 -201 -1975 -1707 0
1774 -1143 -1586 -195 0
1610 -142 0
323 -255 -1512 0
-254 -1472 0
-1116 -647 -735 -181 0
1674 -258 -270 0
1264 -449 -932 0
-1886 -761 -150 0
-288 -1055 0
1729 -591 0
409 -914 0
308 -1528 -894 0
-104 -647 0
-73 -1694 0
-1005 -1377 -1353 -1701 0
1677 -72 -886 0
1939 -1425 -1826 -1017 0
1503 -860 0
253 -1659 -541 -1017 0
346 -1721 -959 0
1400 -1716 -195 0
-1970 -1632 0
-1580 -1476 -1389 0
50 -340 -1583 0
1203 -513 -418 0
547 -1315 -1201 0
1875 -1510 -1759 -1025 0
1279 -1358 -591 0
395 -1123 -335 -947 0
55 -101 -1460 0
140 -954 0
1095 -1978 0
1863 -663 -1816 -1559 0
-1922 -1246 -467 -970 0
1498 -1561 0
-272 -980 -1466 0
1109 -1271 -1570 -803 0
236 -502 0
-1143 -605 -387 0
1085 -54 -112 0
569 -678 -636 -1312 0
93 -171 -1982 0
-1496 -1501 -1028 -726 0
-1096 -1223 -30 -1345 0
152 -1892 0
66 -522 -1754 0
1914 -914 0
-937 -1805 -1177 0
941 -1206 -353 -1880 0
-279 -606 -1004 0
-1293 -1097 -764 -1960 0
1284 -1720 -583 -434 0
851 -1207 -305 -24 0
1139 -1798 0
1799 -235 0
1337 -523 0
1194 -1116 -1954 -1255 0
-417 -200 -566 0
139 -424 -281 0
-403 -1696 -1854 -1264 0
474 -428 0
358 -45 -1390 0
-606 -432 0
1365 -1739 -1956 0
105 -130 0
-1438 -1239 -1050 0
1406 -790 -286 0
-1916 -910 -1433 0
12 -1950 0
1451 -1928 -1823 -299 0
691 -647 -1706 0
413 -2 -688 0
-1377 -1444 -609 -253 0
669 -1250 -1917 0
1447 -235 -1854 -1385 0
-1012 -1218 -188 -1239 0
-949 -357 0
1770 -1501 -1706 -1155 0
1417 -1795 -1589 0
1799 -1964 -1126 0
682 -117 -1474 0
-960 -1984 0
-554 -1637 0
-102 -442 0
-1654 -1352 -816 -1328 0
1067 -1923 0
1059 -203 -1503 -1682 0
-1540 -992 0
-1046 -1163 0
551 -1277 -1797 0
766 -853 0
1127 -347 -1409 -130 0
730 -105 -1980 0
1617 -487 -449 0
1677 -1229 0
1552 -598 -1381 0
-1692 -794 -1154 -39 0
-1979 -645 -1705 0
1444 -1667 -1178 0
1799 -1187 -353 -1225 0
-1907 -384 0
370 -766 -151 0
253 -551 -1236 0
546 -1237 -951 0
-170 -286 -1444 -549 0
-1411 -1426 0
1133 -519 0
1871 -1927 -1641 0
540 -353 -516 0
612 -372 -932 -253 0
1865 -747 0
115 -880 -469 -1709 0
46 -1902 -181 0
-1600 -1847 0
-1101 -1138 -65 0
-243 -1963 -395 -1765 0
-789 -1739 0
1383 -326 -1295 0
170 -229 -189 -1967 0
125 -91 -81 0
198 -593 -1243 0
-1630 -1815 -1785 -29 0
1066 -1844 0
445 -1200 0
1514 -1004 -1031 0
392 -1315 0
1483 -1706 0
1151 -1793 -602 -1102 0
-1484 -466 0
1094 -1091 0
-973 -569 -1942 -1794 0
-404 -1755 -1560 0
326 -629 -713 0
1438 -434 -1520 0
1549 -1014 -1314 0
1540 -1455 -751 -1292 0
1619 -1674 -112 -1546 0
204 -1492 -1693 0
-1957 -52 -265 -1578 0
-1854 -184 -188 0
-891 -1407 -396 -181 0
513 -969 -1309 0
-337 -1493 0
-684 -266 0
651 -1144 -1106 0
-1083 -606 -1264 0
596 -438 0
171 -787 -96 -527 0
1430 -665 -830 0
1976 -1878 -95 0
27 -1595 -274 -465 0
502 -1094 -1384 -1608 0
543 -779 -1914 -627 0
-1651 -1819 0
212 -1311 -1587 0
1980 -168 0
-1017 -762 -196 0
524 -1134 -1492 -1435 0
1635 -1726 0
1182 -717 0
-882 -47 -1289 0
51 -198 0
-1137 -1615 0
1597 -1253 0
-877 -1308 0
512 -191 -1625 -857 0
-1513 -615 0
343 -1826 -1833 -1268 0
1889 -1884 0
-616 -1182 -1684 0
559 -1356 -201 0
351 -155 0
1243 -388 -1862 -1282 0
-807 -138 0
1520 -1388 -354 0
1061 -1031 -1168 -1042 0
-553 -1724 -1733 -1133 0
1182 -1220 -1743 -572 0
571 -1237 0
-963 -190 0
1111 -1522 0
1367 -634 0
1250 -1393 -340 -1395 0
231 -631 -580 0
1847 -113 0
-531 -1716 -1453 0
80 -179 -1603 -1848 0
198 -503 0
842 -1232 -1471 0
-1352 -1737 -1523 -1303 0
499 -409 -252 -1853 0
-79 -1042 -10 0
342 -1901 0
1185 -1317 -1044 -1826 0
1955 -371 -762 -1129 0
629 -804 -42 0
1150 -145 -450 -320 0
260 -1363 -1634 -1427 0
1597 -1413 0
1047 -226 0
-1472 -87 0
-1229 -1664 0
393 -907 0
531 -143 -219 -1507 0
-1762 -1837 0
540 -855 -1991 -1495 0
258 -612 0
1387 -1889 -457 0
-1662 -978 -1792 0
-27 -1830 0
532 -1350 -239 0
1900 -75 -742 -679 0
1178 -311 -962 -1952 0
336 -1956 -356 -240 0
951 -900 -1039 0
699 -1049 0
346 -1329 -1258 -277 0
479 -693 -1665 0
-1545 -828 0
-763 -1596 -1633 -1289 0
802 -142 -260 0
-1059 -1887 0
-304 -1680 -455 0
1298 -1918 0
389 -1720 -1393 -1890 0
1917 -1338 -1700 -398 0
648 -460 0
-539 -638 -148 0
-1566 -1202 0
702 -743 0
1264 -1266 -333 -559 0
983 -760 0
285 -763 0
658 -277 -977 0
358 -1817 0
-876 -875 0
-838 -654 -1420 0
-1098 -893 -140 -1241 0
-168 -1779 -68 -1985 0
-806 -279 -1132 0
1706 -894 -1978 0
567 -1647 -199 -1680 0
-732 -1213 -1067 -666 0
288 -523 0
-32 -1498 0
1311 -569 -734 0
-1495 -1338 -946 -536 0
-909 -17 -457 0
1279 -236 -1916 -81 0
1757 -1710 -776 0
985 -1347 0
-1690 -1224 -1884 -1174 0
1120 -29 0
1158 -1692 0
469 -1055 -1671 -1259 0
-1352 -835 -906 -295 0
-55 -617 -123 -892 0
16 -1346 0
1281 -621 -335 -1585 0
807 -1467 0
565 -46 -1117 -462 0
-1380 -1419 -22 0
764 -1571 0
793 -785 -430 -1045 0
1045 -844 0
1464 -1658 0
1361 -215 0
919 -1449 0
1956 -590 -283 0
255 -1242 -980 -1567 0
1224 -889 0
1887 -290 0
-1909 -227 0
1218 -1075 -28 0
-1609 -1747 0
1566 -324 0
340 -1694 -702 0
771 -260 0
1815 -1416 -654 0
1192 -1357 -1571 -675 0
1164 -198 -1422 -1412 0
1877 -836 -644 0
1530 -366 0
1683 -890 -1073 -1296 0
593 -1985 0
1234 -216 -1134 0
-1364 -1356 -1497 -1122 0
1343 -1158 -901 -102 0
731 -1085 -1575 -679 0
410 -1 -1667 -1863 0
206 -1279 -957 0
267 -996 -939 0
-1022 -229 0
200 -1195 0
994 -360 -524 -1241 0
1814 -511 -1868 -1104 0
-1440 -1141 -1510 -1468 0
603 -1227 0
98 -598 0
-1425 -1666 -616 -439 0
-1308 -1335 -1709 0
768 -1744 0
-918 -1312 -1340 -712 0
27 -1973 0
149 -6 -1138 -696 0
633 -1100 -1310 0
1292 -92 0
1840 -494 -556 -478 0
559 -309 0
1087 -1473 -1210 0
1183 -542 -1808 0
1864 -1572 -1800 0
580 -1338 0
1009 -1065 -93 -797 0
577 -571 0
-1608 -273 0
-165 -1568 -874 0
493 -1714 -388 -1267 0
-312 -204 -1879 0
493 -1389 0
946 -627 0
843 -1691 -303 0
-1230 -1734 -547 -1515 0
-1204 -46 0
119 -1124 -1915 -1423 0
1065 -446 0
-1170 -122 -1370 0
1235 -806 -1501 -299 0
1088 -1114 0
-192 -574 -1691 0
-705 -771 -938 -569 0
318 -1531 -1224 -608 0
224 -129 -1077 0
-1110 -1752 -1860 0
1732 -1131 -1488 -488 0
430 -67 -1778 -10 0
1173 -1465 -853 0
1533 -1038 0
-4 -1656 -1284 -808 0
-1919 -1049 -669 0
1530 -1315 -1595 -1266 0
1454 -235 -55 -641 0
-346 -687 -479 0
1721 -1448 -1934 0
1790 -1798 -415 0
-1806 -1814 -1709 0
-531 -1958 -1098 -27 0
-1510 -1714 0
1755 -1739 -1897 0
1294 -1100 0
1678 -442 0
631 -1359 -360 0
188 -772 -1881 0
1727 -1499 0
391 -476 -1773 0
1329 -1692 -1258 -1524 0
1879 -1248 -838 -1495 0
38 -174 -1882 -124 0
-1852 -554 0
475 -1350 -112 0
1135 -514 0
1340 -1826 -1796 -1473 0
1804 -895 -53 -525 0
-1123 -1235 -782 -1261 0
1696 -1590 -1385 0
-154 -958 -356 0
1935 -1767 -173 0
1767 -1461 -643 0
1534 -1952 0
1738 -101 0
-1874 -519 0
-568 -554 -4 -312 0
-400 -1366 0
-430 -1986 -834 -1424 0
1981 -234 0
-906 -737 0
1355 -1757 0
1662 -1317 -441 0
-1918 -1557 0
-687 -1252 -1445 -995 0
532 -575 -1392 -1181 0
237 -1765 0
-1534 -741 0
1305 -950 -1698 -1499 0
1909 -1519 0
88 -13 -452 -587 0
1309 -667 0
338 -884 0
-1827 -196 -1223 -563 0
1204 -269 0
-470 -1191 0
-1013 -20 -166 0
-1792 -1580 -1091 -1586 0
-1999 -1726 -1535 -579 0
-973 -30 -704 -1574 0
334 -1106 -42 0
384 -862 0
748 -149 -1873 -1695 0
-1714 -323 0
783 -929 -1699 -1767 0
1216 -128 -812 -1176 0
-67 -1671 -1439 -1869 0
1176 -807 0
1839 -1962 0
1994 -858 -1625 0
962 -245 -1022 -1390 0
-1141 -1005 0
1301 -503 -1580 0
1966 -929 -1409 -985 0
479 -259 -1255 -253 0
1176 -395 -745 -1869 0
1770 -1635 0
1241 -131 0
-1174 -1569 -1668 0
1685 -1580 -1969 -1830 0
-719 -215 -1012 0
143 -1917 0
1504 -1310 -1544 -1014 0
233 -1631 -1827 -1435 0
-1031 -1226 -711 0
1679 -1657 -145 -1960 0
1830 -62 -616 -1173 0
1156 -12 0
23 -1368 -916 0
1511 -1227 -732 0
1222 -476 -782 -1507 0
1836 -72 -738 0
-1872 -1536 -1650 -1729 0
1203 -223 -500 0
982 -1083 -709 -1759 0
1470 -1549 -1327 -942 0
1700 -773 0
364 -1107 -1702 -1830 0
-1105 -1530 -688 -1465 0
-392 -1238 -820 -1512 0
-866 -1182 -891 -165 0
860 -1712 0
1530 -1706 -363 0
521 -1999 -1816 0
1606 -980 0
881 -933 -1107 -515 0
-896 -858 -1315 0
-379 -709 0
1213 -413 0
1278 -1924 -619 -1169 0
-351 -891 -1034 -1316 0
-375 -1760 0
895 -1538 -1435 0
1504 -268 -1672 0
-1043 -366 -1450 0
332 -1204 -132 -899 0
-1306 -596 -436 0
277 -514 -1160 -1533 0
-283 -64 0
670 -1603 -652 -1760 0
165 -1483 -540 -1348 0
-168 -302 0
702 -1988 0
374 -367 0
377 -1952 0
-1955 -1497 -157 0
-1697 -1638 -347 0
-32 -1501 -1709 0
390 -1960 -548 -122 0
-713 -1016 -466 0
1719 -1371 -101 -181 0
1262 -1182 -1498 -470 0
653 -602 -1425 -1703 0
-962 -665 -282 0
873 -1006 0
808 -1573 -1628 0
1407 -699 -337 -1759 0
1820 -1991 0
1266 -1631 -1566 0
-1869 -948 -1190 0
665 -629 -215 -778 0
1531 -1691 -1755 -1713 0
1463 -1684 -1996 0
1297 -1964 -1668 -1872 0
-64 -1379 -456 0
1572 -912 0
-1778 -1320 -1502 -1916 0
-394 -1017 -206 -454 0
129 -1181 -1385 -1656 0
537 -614 -1079 -1905 0
-1625 -582 0
1565 -922 -1856 0
1109 -861 0
-268 -952 -1795 0
1343 -75 0
917 -1373 0
-1980 -1943 -477 0
-23 -80 0
500 -628 -1523 0
1194 -677 0
1130 -296 -770 -797 0
1574 -162 -1816 -1509 0
1684 -56 0
-1180 -1262 -1100 0
622 -1379 -1041 0
-764 -1624 0
1141 -1032 0
-1002 -1839 -660 -996 0
1925 -1857 -338 -1236 0
1363 -1417 -1844 -223 0
-1895 -870 -13 -451 0
1274 -1877 0
615 -1674 0
113 -1075 -1623 0
756 -1070 0
1957 -384 -1475 0
1132 -1858 -868 -1191 0
-616 -1022 -1034 -501 0
1593 -1201 -1939 -1495 0
-1412 -425 0
1813 -1643 -538 -1667 0
1074 -15 -1764 0
30 -489 0
381 -1029 -43 0
1053 -1641 -188 0
971 -1957 0
1512 -1366 -1234 -842 0
1022 -1818 -538 -630 0
1435 -215 0
1729 -669 0
-1497 -1402 -138 -1004 0
1606 -1488 0
1091 -841 0
-1299 -5 -1503 -950 0
-927 -1601 -509 0
1780 -108 0
166 -605 0
-964 -1901 -7 -181 0
-1868 -1601 -767 -1936 0
540 -294 0
1270 -646 -1519 -1456 0
-285 -1017 -1515 -505 0
-970 -857 -880 0
-882 -1999 -1849 0
770 -896 -350 0
-1099 -710 0
-372 -1804 -1374 0
-1791 -1665 -689 -1951 0
172 -1263 -1643 0
1877 -393 -156 0
1363 -1644 -220 -1465 0
-918 -1030 -1490 -757 0
1724 -1493 -1104 -1768 0
162 -198 0
1581 -571 0
1574 -1871 -1249 -459 0
919 -655 -577 0
1233 -569 -1900 0
597 -1335 -1437 -1214 0
633 -126 0
656 -1742 -1808 0
1050 -1337 -1953 0
290 -1248 0
-380 -1247 0
-803 -159 0
-998 -202 -1188 -1137 0
807 -51 -1511 -623 0
486 -355 -452 0
250 -1363 -1280 -229 0
323 -1749 -265 -1668 0
-1399 -1781 -182 0
-819 -1253 0
1565 -1548 -1472 -431 0
1518 -338 -1892 0
208 -1076 -1774 -183 0
1632 -1624 -1090 0
-397 -195 -200 0
683 -217 -100 -1575 0
1684 -985 -1584 0
-1723 -551 -1823 -1125 0
-773 -1981 -947 0
-1894 -622 0
-1675 -1545 -396 -1325 0
63 -321 -1161 0
634 -1868 0
993 -206 -1714 -258 0
413 -117 0
1021 -1252 -519 0
1402 -1157 -1458 0
1976 -1271 -1521 -1831 0
907 -853 0
34 -816 0
1431 -1437 -136 -1783 0
1320 -926 0
1006 -1214 0
441 -475 0
193 -1945 0
1668 -226 -1632 -770 0
1715 -1177 0
-947 -797 -1576 0
-205 -59 -198 -1667 0
-1930 -1107 0
945 -1538 0
955 -1442 -1812 0
615 -1048 -396 0
1597 -981 -77 0
-987 -1096 -462 -1506 0
-1793 -1912 -1708 -1531 0
-655 -1328 -39 0
1119 -271 0
360 -416 -1608 0
946 -470 0
779 -1591 0
689 -18 0
94 -1820 0
1701 -398 -803 -212 0
1531 -1674 0
816 -1990 -1958 0
1023 -1776 -331 -607 0
1348 -79 -1235 0
811 -927 0
1155 -52 -1762 0
1540 -1009 -76 -1821 0
-1581 -273 -1518 0
1073 -546 -1527 0
51 -886 0
40 -475 0
-1874 -1325 -179 -1462 0
933 -107 -1627 0
954 -1425 -325 -1628 0
1604 -1906 0
1429 -313 -659 0
1661 -464 0
1547 -171 -1838 -1341 0
857 -951 0
1126 -977 -1265 0
-494 -305 0
927 -1877 -1599 -986 0
1398 -1674 0
38 -378 -248 0
1082 -312 -203 0
663 -1979 0
-1285 -1 0
971 -883 -126 -978 0
1340 -8 -1628 -1447 0
-763 -491 -985 -1014 0
-740 -1263 -1205 0
1871 -944 -1741 -1382 0
300 -1998 0
-1198 -639 0
122 -1724 -183 0
1603 -1568 -1277 0
-361 -661 0
-1676 -238 -158 -1171 0
1740 -1118 0
87 -103 -1850 0
450 -423 0
294 -1169 -286 0
822 -1286 -1595 0
1774 -1456 -1507 -1492 0
-451 -1057 0
1914 -1909 -1191 -775 0
1825 -209 0
630 -1934 0
1462 -44 0
303 -600 -994 0
1844 -686 -1372 0
-1658 -1543 -537 0
792 -57 0
365 -678 0
1267 -1097 -616 0
1572 -684 -1591 0
-728 -386 0
89 -1515 -1953 -1137 0
-1660 -528 -541 0
1024 -382 0
476 -529 -1365 -1014 0
-380 -1528 0
-10 -439 0
1939 -218 -1877 -26 0
1275 -235 -338 -543 0
-604 -175 -241 0
1707 -974 -1145 -622 0
451 -353 -537 -1297 0
1296 -1275 -64 0
1722 -1411 -1056 -688 0
422 -242 -1260 0
593 -1462 -306 -1257 0
-591 -1154 -323 0
1335 -1419 -195 0
-1413 -124 -1137 0
1678 -103 -1025 0
-623 -349 0
472 -1164 0
-1849 -158 0
229 -291 -651 0
-858 -735 -52 0
-112 -1075 -1263 0
-946 -1015 -517 -1745 0
758 -609 -1874 0
-1268 -664 -1108 0
1141 -351 -1707 0
283 -926 -1721 -1514 0
694 -604 -1598 0
-1200 -335 -1063 0
1343 -1830 -1739 0
-282 -1581 0
1919 -1918 0
-847 -1951 -1098 -1973 0
-1350 -622 -1062 0
943 -803 -1757 -616 0
188 -1814 0
-362 -1750 -566 0
87 -781 0
-1606 -334 -955 0
1629 -1416 -1162 -1481 0
-462 -229 -790 -272 0
860 -44 -1600 0
1814 -209 0
610 -1460 -100 0
481 -364 -916 -1796 0
1571 -1443 0
112 -1318 0
68 -1718 0
-1505 -155 0
-705 -751 -1291 0
1249 -1485 0
492 -166 0
1530 -1407 -1746 0
352 -1719 0
642 -270 -1985 0
-1442 -272 -207 -655 0
1440 -493 -890 -742 0
293 -825 0
1509 -1241 -189 -206 0
1906 -636 0
487 -1972 0
1559 -1335 -599 -207 0
645 -90 -1188 -1839 0
1358 -1146 -1130 -1429 0
1543 -514 -1197 -126 0
-1380 -1079 0
1937 -470 -568 -343 0
548 -1946 0
1145 -1373 0
1618 -1012 0
883 -341 -300 -557 0
-979 -316 -1778 0
1991 -620 -857 -347 0
-1640 -1133 0
1946 -1590 -1598 -1607 0
1373 -1825 0
-1476 -216 0
511 -881 0
-1775 -1150 -393 0
1726 -487 -1152 -1006 0
47 -2 -97 -256 0
433 -537 -174 0
82 -518 -385 -892 0
320 -757 -1177 0
1271 -207 -334 -191 0
973 -1841 -704 -1899 0
-329 -1153 0
1584 -1365 0
-221 -84 -1155 -785 0
-1513 -1683 0
1116 -1091 -682 0
751 -1464 -6 0
851 -1786 0
1768 -1541 -1091 0
704 -817 -1165 0
-795 -451 0
-1692 -1157 -178 -848 0
1041 -577 -1124 0
981 -486 -753 -1246 0
860 -1699 -1774 0
-1526 -1729 0
335 -1429 -40 0
-955 -1498 -627 0
933 -703 -608 -1454 0
881 -507 -754 -1247 0
-996 -481 -202 0
27 -1559 -1343 -642 0
1709 -336 -730 0
1933 -995 -1673 0
-1750 -213 -1541 0
-1049 -1090 -168 -1509 0
780 -1957 0
1096 -1527 -165 -1771 0
-606 -660 0
-1713 -1062 -1810 0
1962 -560 0
336 -1553 -850 0
-1959 -613 0
1345 -463 -1956 0
2000 -125 -1945 -688 0
1302 -169 -972 -720 0
1453 -1117 -178 -117 0
814 -100 -1992 0
1901 -739 -1091 -1379 0
-1372 -718 0
1437 -267 -95 0
-1817 -949 0
-1590 -1479 -1484 -1705 0
986 -1576 0
-1218 -454 -834 -1907 0
147 -1263 -1448 -1640 0
-1937 -181 -32 0
971 -1232 -983 -916 0
1333 -1858 -1078 0
1883 -504 -1193 -255 0
478 -1780 0
1144 -1652 -463 -1834 0
577 -93 -1751 -620 0
1617 -1254 -389 -1341 0
595 -227 0
42 -491 -701 0
845 -1335 -1283 0
-300 -342 0
418 -84 0
198 -524 -650 -294 0
986 -1055 -1551 -1578 0
1556 -819 0
463 -1965 0
739 -157 0
1629 -1773 0
-1943 -639 -1755 0
-63 -1724 -1498 0
787 -1432 0
223 -602 0
247 -1394 -238 -988 0
-167 -1860 0
889 -1622 -1693 0
207 -1086 0
65 -1155 -955 -307 0
-685 -989 0
541 -489 -1624 0
-128 -1537 -1725 0
-1628 -207 0
828 -1615 -590 -448 0
1685 -208 -416 -1067 0
-1303 -1345 0
144 -1911 0
-812 -1057 -1697 0
919 -84 -510 0
846 -1368 -1773 0
1885 -331 0
-708 -100 0
-1880 -1312 -1348 -1070 0
-685 -1009 -477 0
387 -971 -573 -1579 0
1434 -1117 -476 -1286 0
870 -553 0
-71 -1690 0
187 -1039 0
1075 -1316 0
650 -1660 0
1956 -399 -826 -672 0
575 -1588 0
-748 -136 0
1447 -1205 -1770 -1208 0
-1925 -539 0
903 -1926 -1481 -943 0
1414 -677 -41 -744 0
486 -1626 -1661 -595 0
-1144 -1136 -1965 -1095 0
1762 -1003 -1175 0
-217 -18 -35 0
-130 -1782 -228 -784 0
769 -313 0
-107 -1081 -201 0
1924 -524 -1057 -1770 0
565 -757 -1679 0
1193 -1835 0
595 -1240 0
-1906 -370 0
26 -759 -930 -220 0
-126 -543 0
1005 -1059 -1286 0
419 -656 -1975 -1589 0
-320 -551 0
713 -915 -229 0
1565 -1019 0
-919 -1403 -951 -1053 0
185 -1101 0
-710 -33 -1864 -805 0
513 -709 0
1138 -61 0
1918 -1149 -814 0
-1368 -206 0
1317 -1207 -1221 0
1947 -667 -553 0
1882 -676 -1565 -71 0
1215 -809 0
1987 -987 -1800 0
1815 -811 -385 -165 0
778 -1233 -545 0
-1817 -1746 -176 0
-567 -1954 -1088 -348 0
-78 -195 -1932 -1680 0
179 -200 -1350 0
1717 -133 -1176 -1017 0
-1658 -778 -1179 0
-1458 -915 0
-1130 -1633 -367 -229 0
-316 -1733 0
1208 -82 -708 -1597 0
35 -1809 -329 0
1256 -823 -324 -1743 0
1475 -167 -397 -1593 0
-740 -933 0
-961 -1177 -387 0
1260 -1999 0
243 -1568 0
-1558 -113 -567 0
-435 -1972 -1132 0
303 -1668 -1344 0
1181 -175 -852 -1599 0
-1363 -1737 0
1548 -1415 0
-346 -1564 -1297 0
282 -1502 -699 -799 0
546 -627 -1694 -516 0
239 -923 0
872 -1997 0
390 -1123 -407 0
-34 -754 0
865 -1604 -174 0
1899 -36 -1362 0
862 -255 -655 0
2 -1 -1850 -1083 0
-383 -336 -979 -345 0
1502 -1898 0
351 -177 -320 -1509 0
998 -1374 0
750 -130 -1716 -938 0
-1960 -654 0
1590 -391 -1321 0
-1659 -162 -704 -1379 0
1656 -1148 0
-1366 -1063 -1570 0
734 -32 -371 0
-1481 -1625 -1238 0
1772 -606 -1833 0
1992 -256 -467 -81 0
1839 -554 -980 -1312 0
-1176 -1023 0
40 -48 0
1883 -1315 0
520 -71 -468 0
-175 -607 -947 0
1001 -605 -1138 0
1069 -1515 0
-1879 -216 -1942 0
1928 -1891 0
813 -1717 0
1234 -482 -327 0
1058 -1988 -471 -259 0
-304 -1419 -1356 0
218 -612 -546 0
1010 -1348 -1287 0
12 -932 0
184 -771 -1861 0
414 -1495 -179 0
-1419 -1722 0
1815 -1676 0
1940 -357 0
-1994 -1333 -687 -1592 0
1856 -719 0
-768 -884 -190 0
889 -999 -1350 -214 0
-27 -633 -954 0
528 -1803 0
1367 -1937 0
1632 -504 -1232 -1171 0
1450 -810 -569 0
-1370 -1780 -463 0
508 -850 0
1840 -1889 -1803 0
-1752 -446 -902 -765 0
-1079 -1334 -246 -313 0
109 -1512 0
152 -1173 0
1167 -317 0
1717 -1384 -162 0
724 -148 -470 -1549 0
-193 -1904 -1557 0
-1174 -1015 -1037 -1666 0
-460 -1718 -1015 -1393 0
-1188 -515 -319 -251 0
1672 -448 0
821 -840 -1048 0
1684 -1352 0
976 -1814 -1756 -669 0
-150 -1940 -1491 0
908 -300 -1065 -1142 0
-1474 -54 -281 0
994 -179 0
-235 -1167 0
1007 -855 -1184 0
-419 -1988 -1932 -906 0
1992 -791 -985 0
865 -1968 -1246 -1063 0
80 -725 -1220 0
1190 -394 0
-583 -1002 -719 0
435 -920 0
1233 -747 0
241 -1656 0
1831 -797 -611 0
336 -1249 -1842 -1662 0
-66 -981 -1733 -1053 0
1285 -921 -363 0
1747 -779 -219 -369 0
-146 -342 -316 -603 0
728 -248 -413 -1499 0
-1441 -871 -521 0
-290 -128 -477 -790 0
944 -1366 -1042 -1729 0
-1464 -1114 -259 -974 0
1362 -1443 -1347 -1285 0
1040 -1450 -245 -884 0
157 -973 -899 0
1090 -1008 -999 -661 0
-1435 -1445 0
-1916 -802 0
1769 -739 -1031 -39 0
1124 -851 0
1659 -1905 -576 -993 0
566 -972 -1025 -1640 0
1254 -1751 0
1193 -1923 -184 -518 0
-439 -181 0
1921 -1889 -404 0
420 -1546 -1666 -1250 0
-1290 -1743 -1443 0
424 -1348 -1730 0
1431 -1375 -973 0
454 -1200 -1391 0
1632 -1255 0
467 -243 -1779 -450 0
-165 -406 0
480 -1939 -1852 -1201 0
1542 -1079 -1983 0
843 -778 0
318 -701 -1731 0
1417 -711 0
-422 -1299 -925 -997 0
1245 -809 0
-285 -1227 -1346 0
-1220 -1045 0
739 -991 -263 -1526 0
-1832 -53 0
26 -1901 -472 0
1770 -370 -634 0
692 -1317 -1141 -1096 0
1226 -522 -1805 -1007 0
377 -662 -1740 -342 0
1591 -1343 -538 -1424 0
-377 -1981 0
-356 -1347 0
1206 -500 -43 0
-1667 -15 -1606 0
-1326 -219 -840 -1302 0
68 -1559 0
1035 -159 -796 0
1756 -1440 -1284 -446 0
1642 -1628 0
622 -824 -1463 0
1079 -269 -1808 -665 0
278 -588 0
170 -953 0
1277 -547 -1742 -1532 0
223 -549 0
1886 -1035 0
317 -1105 0
582 -250 0
914 -1103 -1971 -635 0
220 -609 0
300 -976 0
-1368 -1423 -722 0
1218 -1000 -1846 0
1499 -1628 -155 0
1191 -259 -597 0
1887 -1351 0
1122 -225 0
-917 -941 -1298 0
-1887 -996 -730 0
-266 -251 -129 0
1292 -1827 0
-181 -1924 -1472 -363 0
1064 -1620 -1910 0
651 -1452 -1726 0
980 -222 -1938 -5 0
699 -1017 -1294 0
1286 -511 -791 -1261 0
1074 -1898 -1243 0
-530 -1832 -468 -1596 0
-1496 -204 -1726 -858 0
-1286 -1043 -1555 -447 0
63 -686 -1757 0
228 -1426 -1621 0
1551 -1884 0
-307 -1719 0
847 -959 -1939 0
807 -1051 -513 0
736 -685 -1373 0
615 -1745 -1618 0
808 -719 -581 0
-1842 -346 -582 0
658 -1164 -590 -1050 0
-1266 -133 -834 0
-1772 -104 -701 -682 0
1978 -4 0
305 -574 -1607 -518 0
-1242 -234 -1632 0
52 -1075 -1628 0
1394 -1258 0
-2000 -1642 0
799 -1514 -1298 -283 0
1065 -408 0
1757 -1030 0
432 -1724 -622 -1323 0
754 -124 -969 0
1604 -432 -690 -1406 0
-1743 -227 -1937 0
1183 -1380 -528 0
1388 -1718 -217 0
1524 -628 0
291 -79 0
1255 -1983 -1938 -1816 0
1676 -547 -1702 -643 0
1847 -1099 -1054 0
1323 -1558 -1489 -862 0
662 -192 0
1123 -1484 0
-1379 -586 -385 -1709 0
38 -1725 -1231 0
1999 -370 -1804 -1492 0
1455 -1922 -1025 -1698 0
1449 -262 -779 -1038 0
1449 -1828 0
1326 -1106 -147 0
1500 -1161 0
-1626 -1732 -1667 -1648 0
1430 -1029 -1266 0
895 -1324 -78 -41 0
-1386 -1615 0
1594 -1350 -299 -499 0
511 -1284 0
1255 -530 -651 -1244 0
-195 -553 -860 -1829 0
1083 -218 -1128 0
1958 -1556 -1531 0
661 -1916 -469 -658 0
520 -393 -1969 -789 0
722 -1594 -1253 0
1025 -1185 -294 -1637 0
1942 -1721 -769 0
-1245 -778 -687 0
1432 -607 -1608 -449 0
1961 -565 -251 -143 0
273 -1690 -166 -755 0
869 -667 -269 0
874 -918 -1097 0
1599 -722 0
741 -334 -1712 -1151 0
1898 -606 -398 0
1736 -600 0
1412 -1326 0
1581 -1594 -129 -100 0
-1889 -512 -1071 0
-1414 -1144 -884 0
1977 -258 -907 0
464 -685 -584 0
-670 -281 0
-1757 -1980 0
-823 -258 -173 0
-475 -575 -1330 -599 0
1199 -111 -1601 -407 0
-1743 -679 -1387 -1653 0
482 -1491 -864 -1050 0
592 -1014 -1494 -1968 0
182 -1383 -564 -1443 0
-1505 -437 -489 -373 0
-1061 -1816 0
1186 -906 -1691 0
1803 -986 -1933 0
32 -1471 0
-168 -1136 -1796 0
940 -1454 -882 -1690 0
-1644 -1530 0
-1544 -1239 -411 0
-31 -392 -640 0
-1728 -1914 0
-799 -1091 -406 0
-1388 -1145 -1508 0
377 -1851 -428 0
1756 -1648 -259 -1102 0
-1290 -1899 -1519 0
1378 -1194 -1989 0
1240 -1931 -906 -369 0
1182 -430 -14 0
1999 -1550 -59 -262 0
724 -1178 -601 -179 0
364 -1383 -1517 0
-1818 -563 0
-56 -834 -338 -197 0
-674 -1835 -1189 0
-863 -1493 -1536 0
1184 -663 0
-968 -810 -538 -1208 0
609 -604 0
-1584 -803 -93 -460 0
-779 -323 -753 0
-1069 -160 -997 0
-1340 -1891 -580 -158 0
511 -639 -1274 -911 0
1220 -445 -835 -22 0
-1681 -656 0
1791 -342 0
-1983 -17 -1852 -1677 0
-1834 -260 -1902 0
249 -1366 0
163 -1037 0
70 -1520 -1888 0
-533 -377 0
-709 -1182 0
1572 -1368 -683 0
309 -886 0
-459 -155 -789 0
1275 -1602 -721 0
120 -1797 -1339 0
1894 -754 -899 -1600 0
-1698 -1842 -513 0
1424 -532 -202 -423 0
1382 -1086 -1837 -1122 0
-360 -146 0
-1573 -1320 -544 -772 0
1060 -149 0
1947 -675 -172 -1591 0
539 -428 0
-1161 -1695 -237 -1211 0
1051 -811 -1203 0
-53 -1737 -566 0
-319 -932 0
-1691 -1906 0
684 -574 0
1797 -210 -100 0
1064 -1215 0
1529 -608 0
247 -1402 -1689 -1090 0
1189 -114 -1667 -1111 0
1629 -1855 -1393 -268 0
-1432 -1274 0
859 -1656 0
1833 -1993 0
408 -182 0
591 -818 -1229 0
838 -1918 -806 0
331 -138 -632 0
607 -995 0
103 -747 -642 -1147 0
-662 -1463 -1634 0
768 -1411 -1497 0
-170 -1655 0
-1776 -57 -1123 0
1080 -1607 -225 0
-677 -75 0
-953 -903 -43 0
617 -1522 -1596 0
1109 -1927 0
-706 -277 -313 -1736 0
1716 -1327 -1180 -1532 0
1884 -419 -1903 -961 0
151 -1749 -203 0
-1944 -1288 0
-609 -80 -1283 0
-401 -397 -1106 -1193 0
543 -1868 0
-788 -1882 0
166 -381 -1349 -424 0
-1095 -822 0
1272 -680 -604 0
-293 -616 -1396 -565 0
-341 -1458 -198 0
1076 -1238 -1464 -1714 0
-1801 -924 -807 0
-1034 -396 0
392 -1885 -570 0
670 -838 -1907 0
-1649 -900 0
1921 -1448 -617 -1520 0
471 -786 0
1062 -645 -13 -1077 0
-1236 -357 -1415 -185 0
1034 -973 -824 -1215 0
1717 -237 -859 -88 0
715 -1485 0
598 -705 0
456 -1686 -1632 -517 0
831 -466 -1972 -582 0
-1324 -915 -1515 -1433 0
1709 -1616 -1981 -924 0
14 -744 -1773 0
1052 -687 -1692 0
299 -1992 -783 0
-1881 -787 0
-297 -950 -1896 0
1155 -1645 -1163 -1451 0
-449 -341 -174 -205 0
-107 -1318 0
139 -1529 -404 -383 0
887 -84 0
1722 -683 0
989 -556 -383 -381 0
1792 -1361 0
1624 -387 -1116 -587 0
1836 -1695 -1160 0
20 -345 0
1963 -1952 -1330 0
-648 -1311 -1506 0
515 -672 -1887 -647 0
-652 -54 -1695 -1167 0
1578 -779 -891 -658 0
-1801 -488 0
1878 -1748 -1723 -1317 0
397 -1680 -1300 0
-492 -959 0
-1281 -1969 -1383 -456 0
-529 -608 -1652 0
390 -1243 -1919 0
1627 -625 -918 0
1716 -1436 0
1709 -1484 -1193 0
1461 -1051 -322 0
34 -17 0
788 -1065 0
231 -10 -1695 0
-1547 -1222 -872 0
-550 -1667 0
850 -1986 -590 -1255 0
580 -1439 -1090 -853 0
-1152 -470 -1149 0
-1153 -522 -727 0
1327 -1206 -454 -824 0
-1913 -1382 -1972 -1551 0
1412 -290 0
857 -696 -1973 0
-1275 -1075 -645 -1593 0
1633 -1620 0
983 -1440 0
201 -1538 -858 0
310 -838 -1818 0
280 -488 -177 0
1091 -898 -1692 0
1232 -381 0
156 -654 -1332 -645 0
465 -221 -722 0
1409 -1577 -1479 0
-1164 -281 -307 0
1120 -1625 -191 0
-421 -1728 -1015 -1119 0
1801 -1451 0
451 -585 -580 -411 0
723 -126 -7 -82 0
255 -763 -1315 0
-747 -578 -1745 0
1445 -1886 -1826 0
-1583 -1420 -1344 0
214 -1486 -773 0
915 -269 -750 -1972 0
-988 -1577 -1679 -165 0
1756 -1270 -1743 0
30 -1284 -1209 0
436 -1798 -442 -439 0
1096 -1438 -650 -355 0
701 -1682 0
1034 -1779 -366 -1408 0
-358 -1392 0
-1023 -335 -1075 -94 0
-1971 -659 -399 -358 0
-655 -1184 -1661 -1112 0
-34 -250 0
1655 -488 -1219 0
877 -777 -44 -972 0
-1969 -1412 -473 -291 0
-557 -1671 -353 0
-1827 -1235 -1033 0
-1774 -230 0
141 -841 -419 0
1513 -1518 -245 0
525 -1981 -148 0
170 -1401 -471 0
-763 -88 -694 -144 0
1111 -974 -112 -1412 0
-1069 -1196 -1714 -1995 0
1281 -97 0
1796 -1518 0
236 -995 0
1266 -17 0
1025 -125 0
340 -360 0
-322 -156 -218 -1230 0
560 -1237 0
1125 -422 -1010 -902 0
1407 -696 -230 -1445 0
764 -519 -353 0
-977 -1739 -1742 0
416 -1624 -823 -392 0
-1750 -588 0
319 -1478 0
1505 -681 -1686 0
1486 -1411 -859 0
1680 -1735 0
-1804 -1570 -1973 0
477 -1856 -1026 -1609 0
942 -821 -663 -1204 0
765 -388 0
1003 -190 -1276 0
257 -1195 0
215 -69 -1389 0
203 -1065 -236 0
-628 -143 0
1011 -699 0
-1703 -619 -400 0
613 -138 0
-698 -661 0
1409 -381 0
1369 -461 -1968 -368 0
-964 -1527 -301 0
42 -225 -1586 -1036 0
47 -1327 -181 -1412 0
568 -1407 -105 0
878 -1767 0
1773 -851 0
1916 -321 -1848 -318 0
741 -1984 -1947 -1341 0
1966 -1058 0
-57 -627 -1062 -814 0
-758 -1077 -338 -1351 0
383 -1992 -1772 0
1265 -768 -1778 -1977 0
145 -926 -1955 0
1224 -1734 -1504 0
1304 -1443 -1517 0
1220 -728 -626 0
-1035 -781 0
245 -1659 -669 -156 0
253 -491 -1980 -895 0
1628 -2000 0
1095 -214 -760 -1948 0
1492 -126 -538 0
1712 -1271 -1165 -920 0
-625 -784 0
241 -1730 -1360 0
44 -1326 0
-184 -180 -1796 -383 0
-1254 -811 0
403 -116 -347 -86 0
819 -108 -520 -807 0
1227 -1477 -462 -858 0
564 -1366 0
-143 -1820 -1867 -446 0
226 -1923 0
827 -1541 -1693 -1769 0
301 -605 -1595 0
1326 -251 0
1274 -1295 -603 0
1379 -1391 0
848 -836 -259 -469 0
1923 -778 -1569 -41 0
1026 -1667 0
1469 -751 -75 0
1577 -2 0
-1244 -138 -665 0
288 -153 -135 -1480 0
-962 -1138 0
1732 -755 -493 -1231 0
1266 -249 -758 -598 0
743 -414 -58 -483 0
1622 -1572 -908 0
-180 -695 0
-855 -1502 -826 0
1868 -597 -969 -113 0
1659 -1747 -430 0
309 -1095 -1641 -1989 0
1768 -1311 -443 0
-1470 -1526 -254 -1546 0
-1418 -536 -660 0
864 -950 -1978 -266 0
745 -1015 0
810 -611 -1258 -49 0
56 -1535 0
132 -1230 -1082 0
586 -859 0
-1494 -1386 -342 0
1328 -1808 -296 -152 0
772 -758 -912 0
1562 -1964 -1864 -386 0
614 -1977 -1705 -1632 0
235 -1282 -824 0
754 -22 -1609 0
-1543 -1139 -1471 0
90 -1133 -1431 -839 0
1667 -982 -1970 -1323 0
1341 -737 -1258 0
-519 -1893 -790 -584 0
1543 -691 0
-882 -983 -644 -1288 0
456 -663 0
1511 -850 -666 -383 0
176 -522 0
677 -1062 -1641 0
1836 -284 0
1082 -1586 0
181 -173 0
-3 -400 -1539 0
718 -1488 -390 -1107 0
1004 -1334 0
840 -1433 -191 -1061 0
-1206 -1211 0
-1055 -1743 -1452 0
1958 -1002 -1728 -272 0
654 -900 -680 0
-609 -665 -1824 0
570 -518 0
1360 -1715 0
1797 -956 -437 -1708 0
1863 -1462 -1822 0
-635 -1817 0
-871 -976 -1002 -216 0
-744 -1230 0
744 -1414 -873 0
1805 -1384 -655 0
-1527 -1123 -1874 -702 0
-337 -1276 -1465 -1361 0
-478 -1275 -988 -604 0
-308 -332 -1753 0
124 -1100 0
41 -47 -709 0
-1857 -703 0
-452 -1795 0
515 -732 0
-663 -116 -1211 -1482 0
377 -674 -663 -1004 0
1439 -1755 -350 0
-1994 -22 -116 0
1480 -126 -1894 0
354 -461 0
