c Horn formula (polynomial-time solvable)
c 2000 variables, 5000 clauses
p cnf 2000 5000
1802 -1554 -1013 -596 0
-996 -1070 -1996 -1372 0
447 -103 -1750 0
-1027 -578 0
-403 -1559 -1862 -752 0
1557 -1106 -1879 -79 0
1579 -96 -1122 0
923 -12 0
1063 -386 -747 0
987 -358 0
605 -691 -1473 0
959 -1853 -1257 0
908 -234 0
232 -1237 -791 0
1676 -696 -913 0
1816 -1192 -1307 0
492 -64 -182 -1237 0
940 -1075 -637 0
1143 -884 0
1091 -308 0
-1481 -1030 -1363 0
-325 -11 -147 -130 0
592 -1593 -812 0
152 -116 -800 -1658 0
-482 -472 -647 0
1485 -1377 0
1574 -1375 -20 -1363 0
-1941 -936 0
1823 -964 -873 -1001 0
1127 -1010 0
1934 -25 0
1792 -234 -834 0
-223 -947 0
-1326 -1515 -387 -1143 0
-884 -1485 -1958 0
543 -64 0
-502 -165 0
1997 -347 -659 -1457 0
1564 -380 -1823 -839 0
-1428 -1994 -466 0
-1109 -1926 0
1906 -1095 -1006 -432 0
758 -599 -1096 0
4 -264 0
787 -1246 0
1964 -103 -937 -1853 0
-990 -906 0
452 -1354 -1250 0
-905 -1181 -327 0
-1198 -179 0
1577 -222 0
259 -95 -91 0
636 -673 -1846 -147 0
1076 -984 -1628 -398 0
626 -1554 -791 0
653 -1302 -617 -1704 0
832 -461 -1783 0
84 -1402 0
786 -823 -1611 -100 0
1845 -1849 -1093 -33 0
1478 -1922 -1246 -1272 0
-1593 -47 -512 -960 0
-55 -1520 0
-1028 -2000 0
364 -453 0
786 -355 0
757 -176 -1494 -635 0
1279 -343 -1133 -1456 0
453 -1333 0
-582 -1531 -221 -1526 0
-1523 -1704 0
696 -850 0
1360 -1853 -743 0
470 -162 0
-756 -850 -584 -924 0
849 -1557 0
-1374 -1278 -566 0
1303 -287 -1499 -1986 0
1371 -1681 -1052 -1682 0
834 -992 -564 -467 0
-316 -185 -644 -986 0
-956 -368 0
-976 -182 -1338 -1261 0
1169 -1643 0
1757 -1966 -820 -654 0
1281 -364 -574 0
1842 -563 -883 -1365 0
1029 -1913 -1548 -1237 0
-905 -1488 0
-585 -1547 -584 -591 0
1680 -1358 -1193 -1235 0
-1694 -1715 0
112 -1382 0
-711 -258 0
1757 -562 -441 -828 0
1274 -129 -1151 0
1185 -1526 -1554 -1023 0
-1492 -1483 -1441 -1371 0
958 -1286 -1957 -1979 0
1823 -1494 -838 -1408 0
307 -248 -1242 0
629 -1929 0
1552 -920 0
248 -909 -71 -404 0
33 -229 -1692 -1366 0
1322 -730 -1837 0
258 -298 -1289 -1266 0
-1657 -140 0
1300 -1231 -484 0
-948 -456 0
192 -1821 -1914 0
20 -1684 -1363 -1608 0
-114 -1592 -374 -1735 0
-1693 -90 -1552 -1561 0
33 -819 -943 -1994 0
1880 -345 -1416 0
660 -429 0
1415 -1296 -1181 0
902 -384 0
1348 -1183 -1313 0
1998 -295 0
-1415 -1097 0
1343 -1743 -459 0
41 -499 -697 -1447 0
1232 -1616 -1454 0
1106 -1971 -570 0
-1055 -1565 -1364 -852 0
1742 -149 -735 -1751 0
756 -1697 -1366 -975 0
1901 -1125 -254 0
1740 -148 -196 -1549 0
-1075 -526 -1614 -1760 0
1594 -1475 -127 -1829 0
1115 -1028 -698 0
-482 -1400 0
1846 -1203 -563 0
1598 -840 -725 0
174 -1687 0
-198 -506 -267 0
1056 -968 -1807 0
-224 -343 -172 -492 0
-1154 -162 -30 0
-691 -1794 -1241 0
10 -1947 -454 -272 0
559 -57 0
-1476 -1935 -1040 -940 0
1119 -990 0
1400 -1560 -424 0
1527 -1905 -1294 0
1559 -1838 0
440 -1810 0
409 -119 -1407 0
-453 -287 -1847 0
1746 -1733 -1958 -699 0
1028 -13 -1435 0
1739 -1184 0
-839 -1638 -98 -1131 0
922 -1061 0
127 -747 -1606 0
-1615 -1374 -1716 -890 0
-1798 -1916 -1122 -1000 0
380 -568 0
656 -339 0
946 -1260 -774 -1677 0
-907 -1060 0
-675 -521 -1042 0
1896 -1546 -949 -1917 0
968 -1544 -1339 -975 0
1771 -1806 0
23 -486 0
-1081 -558 -94 -434 0
453 -279 -1125 0
541 -1443 -1987 -110 0
-701 -1316 -121 -1523 0
-1182 -456 -955 -542 0
-1698 -1471 -558 -152 0
316 -1658 -756 0
286 -945 0
189 -1229 -246 0
-1448 -169 -1140 0
-754 -1123 -103 -1809 0
-980 -1413 0
1675 -1658 0
1111 -537 -1930 0
1599 -149 -1280 -600 0
1729 -271 -185 0
1215 -1209 0
437 -99 0
625 -206 0
-862 -709 -1558 -855 0
-1303 -1024 -1879 0
-1326 -1703 0
1246 -468 0
-784 -1725 -548 -1442 0
1015 -1545 0
1823 -1540 0
-854 -802 -1723 -614 0
519 -1194 0
1388 -1754 -513 0
-1896 -1550 -839 0
128 -1723 0
618 -294 -1589 -1428 0
-1434 -576 -1044 0
-1524 -1616 -1629 0
1201 -1125 -301 0
1592 -1220 -316 -1359 0
191 -165 -618 -1755 0
24 -1630 -1694 0
-1220 -1223 0
-1777 -1517 -1962 0
770 -1157 -1631 0
127 -1774 0
371 -1445 -468 -6 0
1952 -1967 -136 0
414 -1984 -809 -1430 0
1059 -1067 -1065 0
477 -1566 -587 0
1018 -1386 -961 0
-1825 -152 0
-1611 -586 0
1729 -1801 -68 -1291 0
-611 -1747 0
-1397 -770 0
39 -1233 -1324 0
1905 -824 -815 -427 0
1936 -515 -1632 0
-1855 -432 0
1766 -1356 -1779 0
866 -1896 -812 0
604 -750 -686 0
1125 -999 -1214 -452 0
1280 -1397 -929 0
1836 -127 0
758 -1099 -1607 -1394 0
1530 -1719 0
1918 -1375 -713 0
1660 -508 -956 0
-156 -44 -578 -49 0
1924 -1750 -1124 0
-1340 -1155 0
559 -1315 -1190 -1042 0
297 -91 -723 -1945 0
-717 -1162 -1584 -1165 0
1691 -1773 -440 0
1256 -297 -522 0
1883 -1050 0
414 -1724 0
1145 -503 -700 0
1199 -591 0
-1551 -1198 0
92 -1253 0
567 -37 -839 0
343 -381 0
764 -868 -1528 -199 0
1836 -962 0
1077 -1648 -561 0
-193 -272 -790 -709 0
987 -296 -1396 -1277 0
1470 -865 -245 0
-1004 -1424 0
1360 -1617 -1872 -1273 0
1653 -227 0
-143 -109 -1917 0
387 -1827 -577 -899 0
519 -1720 -1905 -951 0
-208 -258 0
1888 -891 -335 -2 0
76 -1468 -1094 0
1224 -68 0
-109 -654 -512 -66 0
1556 -1409 -673 -834 0
-654 -1560 -439 0
-1985 -556 -1009 0
-226 -881 -1758 -91 0
-541 -1570 -1378 0
1037 -678 -1795 -1884 0
1556 -1911 -60 -1666 0
488 -1328 0
1686 -1677 -494 0
-110 -803 -1613 0
-854 -1424 -1016 -1492 0
274 -838 0
-1602 -260 -921 -1420 0
1964 -244 -1308 0
-1416 -1591 -671 0
740 -1703 -1514 -195 0
1583 -1719 -606 -695 0
805 -1685 0
211 -1515 -884 -445 0
420 -659 -1635 0
1678 -1101 0
767 -718 0
1300 -493 0
-142 -867 -252 0
-1356 -802 -455 0
-86 -639 -553 -783 0
-437 -762 -856 0
926 -1063 -1495 -989 0
630 -1372 0
-1550 -311 -471 0
425 -931 -357 -28 0
-492 -1506 -429 0
1115 -1635 0
697 -1536 0
-970 -1121 -1432 -503 0
573 -847 -953 0
732 -267 -1580 -1529 0
1136 -1319 0
-1511 -1914 -1296 -1687 0
-47 -788 -1854 -632 0
892 -411 -44 0
545 -1519 -739 0
-316 -1379 -1230 -1552 0
1293 -1885 -1072 -715 0
1891 -768 0
192 -1213 0
-1423 -523 0
320 -981 0
1211 -587 -1003 0
70 -383 0
390 -31 0
945 -537 -299 -309 0
-457 -1860 -1558 0
1615 -1232 -658 -815 0
64 -393 -217 -473 0
773 -1484 -1999 0
668 -1721 0
-1846 -820 -1083 -1845 0
1883 -1408 0
-1911 -1543 0
724 -476 -429 -682 0
1194 -1198 -894 0
1897 -951 -1187 0
-1691 -1120 -1470 0
65 -176 0
326 -359 -1347 0
1365 -1918 0
-1024 -233 -1978 0
557 -739 0
601 -1651 -879 -1636 0
425 -1222 -1484 0
371 -1219 -836 0
1303 -1359 -146 0
709 -522 -833 -1640 0
364 -1967 -451 -1572 0
731 -1792 -578 -1232 0
-1479 -1911 0
1759 -442 0
-1069 -1810 -366 0
1116 -1155 0
712 -668 -1849 -1711 0
1602 -1254 -1586 0
901 -593 -1591 -494 0
-368 -452 -167 -991 0
1465 -1371 -1542 0
732 -216 0
51 -731 -1426 0
1367 -1446 -1955 0
-1603 -531 -1663 -1540 0
-413 -417 -568 0
673 -269 -114 -1808 0
680 -1972 0
1700 -758 -1454 -967 0
-1219 -1353 -51 0
-21 -624 -1266 -1367 0
482 -109 -1020 -386 0
1316 -720 -45 0
-1697 -510 -132 0
1935 -615 -1634 0
1488 -781 -868 -608 0
1353 -1189 0
356 -1845 -1688 0
-744 -1034 0
632 -1708 -289 0
-547 -142 -100 0
1644 -1051 -1085 0
1208 -545 -1846 0
1976 -1369 -1158 0
-478 -513 -1750 -1435 0
1652 -909 0
1528 -497 0
-279 -692 -1565 0
1985 -1145 -1166 0
1354 -981 0
-1902 -1306 -361 -672 0
-1101 -1425 0
-1646 -1922 0
-1219 -153 -1921 0
-401 -1991 -1293 -739 0
-356 -336 -748 -1049 0
-538 -581 0
1185 -1195 -2000 -553 0
1890 -1801 -1884 -890 0
1193 -1225 0
820 -1979 0
-504 -155 -277 -747 0
-70 -581 -1926 0
629 -1289 -811 -826 0
809 -49 0
-1032 -1486 -1927 0
-1797 -1232 -26 0
22 -57 0
345 -1726 -1194 -844 0
819 -973 -1988 -784 0
229 -1470 -1504 -1246 0
1617 -1890 0
1900 -1003 0
761 -1933 -1969 0
-1247 -1305 -1297 -945 0
-949 -309 -44 -1159 0
751 -258 -1574 0
-1589 -292 0
-1403 -1811 -521 0
-1024 -734 -301 0
570 -1745 -1289 0
273 -1691 -1285 -1568 0
965 -263 0
427 -371 -777 -388 0
1450 -202 0
1008 -330 -960 -807 0
518 -1222 -1125 0
-810 -1529 -25 -1463 0
1861 -956 0
-861 -253 0
1741 -1858 -692 -769 0
1357 -1867 0
-1708 -1975 -225 0
671 -1561 -973 0
1399 -1493 -111 -909 0
52 -1562 0
866 -934 -1068 0
1415 -1600 -1757 0
912 -1437 -501 -466 0
-1289 -653 -1537 -1359 0
1661 -1182 -678 0
-1297 -606 -1495 0
232 -413 -1596 0
1661 -212 0
1852 -1804 0
1419 -664 -1797 -1423 0
1435 -1501 -1214 -1418 0
746 -1370 0
8 -476 -298 0
-1512 -965 0
1078 -534 -1300 -308 0
-981 -209 -1814 -316 0
1970 -61 -1522 -1269 0
322 -1516 0
1138 -390 0
1680 -469 0
598 -1374 -1251 -679 0
821 -1144 -396 -1966 0
-230 -944 -823 -1487 0
300 -449 -1040 0
-1367 -7 -1030 -1985 0
468 -1114 0
584 -1880 0
-320 -1088 -1562 -1678 0
-665 -1516 -997 -1735 0
-539 -1300 -1592 -630 0
267 -423 0
1343 -1651 -137 0
292 -1177 0
328 -1093 -902 -1931 0
927 -923 -1229 0
923 -279 -1375 -456 0
1725 -1090 0
1080 -901 0
534 -576 0
681 -1986 -1094 -1768 0
1089 -144 -181 0
1187 -684 0
1280 -805 -1910 0
1651 -1199 -1930 0
-339 -350 -1232 0
504 -1106 -1992 0
742 -401 -1284 0
1288 -242 -560 0
-1048 -1777 0
1433 -1745 -1111 -144 0
1331 -1910 -1579 0
-1953 -23 0
849 -187 -1495 -904 0
923 -374 0
379 -221 -657 -1503 0
-14 -340 0
-1000 -101 -5 0
14 -500 -605 -1204 0
-23 -787 -35 -1236 0
136 -1787 0
1921 -1808 -369 0
-1520 -711 -1670 0
731 -1655 -943 -1083 0
-1707 -1037 -453 -1434 0
1154 -451 -1307 -392 0
-889 -1381 -1856 -823 0
1646 -174 -921 -1993 0
815 -409 0
-1244 -806 0
942 -1606 -974 0
1722 -337 -472 -1615 0
101 -1779 -1275 -869 0
1 -265 0
983 -1707 -451 -1492 0
799 -857 -546 0
1819 -1173 -297 0
1459 -253 -1829 0
-731 -1225 -396 -1801 0
-357 -728 0
922 -1202 0
1241 -264 -808 0
-1373 -9 0
1544 -1408 0
978 -154 0
1973 -274 -828 -259 0
1824 -1711 -1786 -1704 0
157 -189 -271 0
408 -1615 0
926 -1248 -324 -1907 0
82 -1152 -966 -713 0
543 -227 0
1149 -988 -1293 0
825 -1665 0
1862 -282 -1943 -1560 0
488 -837 0
1538 -701 0
865 -816 0
-355 -1748 -1223 -1232 0
1246 -669 0
-463 -724 -1156 -566 0
230 -810 0
-116 -674 0
204 -77 0
-737 -1184 -1434 0
685 -1715 0
1193 -203 -1413 -611 0
-490 -1211 -1729 0
-425 -1232 -1451 -234 0
57 -568 0
-1034 -641 -1329 0
-941 -1850 0
432 -154 -1142 0
107 -1813 -19 0
1633 -410 0
1993 -284 -1315 -1200 0
-1121 -869 -230 0
71 -1281 -1169 -759 0
935 -1530 -737 0
-11 -157 -1213 -584 0
361 -487 0
1525 -1136 -728 0
758 -871 -1310 -1496 0
1195 -1375 -1438 -694 0
524 -1488 -1849 0
-343 -674 -781 -1790 0
671 -986 -556 -1865 0
1087 -724 0
1352 -1615 -328 -1837 0
-149 -183 0
1770 -1249 0
-1894 -1396 -8 -242 0
1287 -314 0
1123 -1416 -1019 -253 0
-1585 -1813 -1929 -418 0
-1229 -1528 -621 -610 0
-935 -1357 -803 0
1404 -1453 -649 0
1509 -1515 -345 -1083 0
-1670 -652 -1695 0
532 -1737 -604 -1874 0
1829 -414 0
1 -1080 -224 -234 0
-965 -636 -1058 0
487 -511 -1468 0
260 -408 -497 0
-923 -1620 -1711 -293 0
1386 -1599 -1515 -559 0
731 -581 0
-1684 -1162 0
-979 -36 -42 0
1406 -1588 0
1003 -396 -1291 -1256 0
639 -656 0
-595 -1255 -1519 0
1016 -548 0
-260 -1173 -1218 0
699 -1014 -1399 0
953 -97 -1204 -558 0
1349 -524 -969 0
646 -351 0
935 -903 0
556 -1249 -1779 -18 0
228 -1054 -620 0
1375 -497 -533 -235 0
1342 -1725 -224 0
335 -532 0
97 -1723 -1687 -88 0
1813 -1347 0
-332 -1919 -1572 -127 0
-411 -1111 -262 -773 0
-216 -1787 0
-1767 -1260 0
1094 -313 -49 -1956 0
1984 -971 0
-1463 -1287 0
623 -764 -162 0
1710 -558 0
1595 -1591 0
1685 -1191 -1481 -585 0
291 -1562 -1547 -387 0
-1900 -1795 -1633 -870 0
1513 -994 -942 -1746 0
1734 -174 -524 -841 0
1536 -37 -122 0
1242 -953 0
-1627 -78 -290 -1905 0
1668 -1524 0
-1713 -1476 0
-103 -827 0
1515 -839 -1230 0
1212 -1726 0
909 -926 -961 -1884 0
1991 -20 0
-1951 -1407 0
104 -1233 -100 -101 0
343 -1427 -377 0
-67 -79 -494 -963 0
1851 -830 -1410 0
-1786 -916 -204 0
394 -973 -1010 0
773 -659 -490 0
1744 -1317 0
668 -1057 0
-385 -1315 -718 -570 0
1597 -1508 -676 0
-210 -1872 -467 0
1345 -392 -187 0
683 -1191 0
493 -617 0
452 -77 0
1478 -39 0
-1004 -794 -1943 -128 0
1039 -1254 -341 -653 0
335 -1853 -1214 -21 0
1339 -1201 -1872 -872 0
1690 -1190 -1356 0
1981 -442 0
-632 -1958 -527 0
1278 -1603 0
1086 -659 0
780 -325 0
1841 -1637 -1006 0
-35 -1010 -1053 -1356 0
-383 -587 -1553 0
564 -1383 -1990 -20 0
-947 -1682 -1719 -711 0
-1545 -127 -1327 -1717 0
-1945 -1485 -444 0
-360 -1495 -308 -482 0
1736 -1873 -499 -1728 0
1386 -878 -1141 -1194 0
-442 -1419 0
-808 -1260 0
947 -1931 -1531 0
31 -71 -815 0
1821 -1689 -331 0
622 -1838 -509 -39 0
935 -10 -239 0
-1547 -829 -496 -664 0
725 -871 -1129 -882 0
888 -1324 -862 0
884 -31 -264 0
872 -1051 0
800 -822 -239 -1484 0
1478 -5 -1989 0
1262 -1628 -1219 -1294 0
1495 -347 0
-1726 -1431 -1706 -841 0
401 -1670 -1095 -1136 0
1509 -121 -821 -422 0
-154 -1422 0
719 -249 -1680 0
427 -541 -711 0
123 -307 0
1340 -1326 0
1930 -1666 -1371 0
938 -314 -797 -1557 0
1169 -1084 -485 -1013 0
-1245 -1342 -1949 0
-275 -513 -1217 -1670 0
1604 -1014 -1871 0
743 -1914 0
1298 -1902 0
1748 -920 -862 -134 0
-625 -1384 0
926 -1107 0
1194 -1695 -1221 0
172 -575 -1178 -514 0
110 -941 -1648 -1384 0
1334 -211 -1420 -797 0
-1381 -1199 -1755 0
466 -48 -774 -1428 0
1502 -123 -1306 0
1627 -993 -1585 0
1998 -1614 0
601 -1569 0
997 -561 0
633 -1920 -990 -687 0
890 -725 -809 -1040 0
1102 -39 -1475 -1971 0
1288 -967 -653 -920 0
1247 -1855 0
1084 -625 0
1255 -861 0
1921 -742 -1991 -1877 0
-767 -77 -1827 0
1960 -1171 -556 -1839 0
1869 -1223 0
-494 -724 -747 -978 0
1030 -981 0
660 -689 0
1299 -610 -1987 -736 0
1799 -28 0
183 -1639 0
1075 -1544 -780 -1151 0
-636 -1776 0
470 -68 -1166 -382 0
-1939 -722 0
1530 -1398 0
347 -1446 -1285 -859 0
348 -247 0
-20 -741 -1147 -12 0
261 -1145 -1658 -730 0
-971 -201 -1289 -1737 0
522 -1640 0
-1420 -1451 -1656 0
141 -547 -532 -750 0
291 -1959 -189 0
1759 -1951 -1270 0
1403 -50 -1350 0
-548 -649 -1620 0
690 -698 -1018 0
1768 -1073 -1083 0
-241 -778 -1208 0
1814 -1785 -1872 -858 0
-939 -141 -1152 -278 0
276 -1992 -1286 -1231 0
1313 -85 -374 0
546 -1102 -301 -364 0
-384 -1960 0
-487 -677 0
1791 -1645 -776 0
1135 -1314 -1384 0
1673 -1946 -258 -713 0
1874 -300 -989 0
-133 -166 0
1915 -1607 -1482 0
-244 -543 0
-1063 -320 -1678 0
1078 -169 -832 -455 0
-1925 -848 0
-85 -1877 0
630 -1965 -1083 -653 0
798 -1714 -33 0
1264 -623 -39 0
417 -1837 0
1778 -1107 0
1951 -1642 -1096 -1040 0
1167 -1236 -19 0
1764 -535 -1227 -71 0
441 -1757 -827 0
1026 -416 -1998 0
1365 -275 -763 0
84 -590 -1147 0
1640 -1799 -1722 0
967 -678 -864 0
-1697 -413 0
455 -1855 0
694 -1013 -1376 0
857 -1106 -1218 -1463 0
1166 -181 0
764 -102 -595 -1463 0
-621 -839 -262 0
64 -1276 0
1397 -1339 0
-33 -1933 0
1418 -1046 0
-1198 -968 -1577 0
-1398 -919 -1330 0
701 -263 -619 -589 0
-1202 -199 0
288 -1641 -1598 0
685 -1456 -239 -591 0
923 -858 0
646 -945 -1001 0
816 -529 -1740 0
506 -257 0
1984 -1623 0
593 -734 -1173 -68 0
371 -1673 0
1111 -488 0
1375 -376 0
34 -1218 -370 0
758 -1691 0
95 -569 0
206 -33 -363 -1795 0
-509 -1609 -1355 -1875 0
49 -107 0
211 -1898 -1251 -887 0
764 -1067 -624 0
250 -1866 -1356 0
250 -1832 -968 -289 0
564 -1579 -1570 0
958 -1497 -77 -835 0
1146 -1082 0
-1709 -1868 0
442 -793 -328 -1442 0
714 -1644 -1833 -1469 0
225 -1559 0
1127 -952 -1524 0
-1017 -1345 0
490 -1259 -53 -1038 0
344 -1494 0
1632 -1862 0
-1289 -1928 -1 0
1789 -1381 -599 0
-1209 -1172 -1271 -989 0
-1135 -778 -1152 0
144 -659 0
219 -213 0
-533 -1507 -759 0
1607 -265 0
1024 -571 -1022 -551 0
-1809 -1892 0
1560 -1808 -1756 0
1030 -1303 -563 0
-1828 -341 0
1555 -53 -1877 0
-163 -1028 0
1361 -1571 -1007 0
-555 -1828 -1668 -1123 0
567 -1700 -884 0
377 -962 0
368 -907 -437 -347 0
634 -467 0
1016 -223 -1675 -1766 0
-182 -992 -3 0
-1430 -1639 -132 0
1103 -36 0
-1739 -560 -1080 -1704 0
-79 -943 -1236 -232 0
1831 -755 -97 0
-692 -702 -1247 0
-536 -1334 0
-889 -132 -1959 -1510 0
-78 -1434 -1618 -1032 0
1216 -1240 0
468 -931 -796 0
1635 -1155 0
-962 -277 0
-1508 -887 0
-506 -760 -1827 -1677 0
449 -1274 -1913 -1410 0
82 -964 -1225 0
1580 -1904 0
1798 -434 -591 0
1824 -1391 -1568 0
-177 -677 0
692 -1942 -418 0
-1061 -847 -667 -1386 0
1941 -1517 -783 -910 0
1591 -280 -943 0
-1392 -1618 -564 -1085 0
1806 -135 -1538 -1908 0
877 -333 -1510 0
892 -383 -1684 0
726 -429 0
1674 -1513 -1205 0
211 -1975 0
-429 -1228 0
669 -1624 -432 0
-1719 -1890 0
1067 -433 0
871 -800 0
484 -1721 0
1007 -706 -198 -864 0
1831 -3 -55 -677 0
1372 -367 -665 0
1641 -1246 0
-667 -852 -587 -565 0
355 -777 0
668 -682 -1309 -1009 0
976 -381 -1729 0
1495 -409 0
1707 -1841 -1587 -422 0
311 -1420 -1749 0
348 -1366 0
1596 -1105 -1797 0
198 -1274 -745 -225 0
1600 -1157 0
189 -1974 0
1839 -1704 0
-458 -533 0
944 -859 0
33 -596 0
517 -607 0
314 -679 0
1431 -1597 0
541 -326 -1810 -1622 0
130 -55 -308 -1457 0
1616 -1957 -1686 -621 0
-1584 -1129 -241 -920 0
-337 -1319 0
252 -948 0
499 -1514 -1120 -669 0
236 -722 -182 -311 0
1486 -1924 -1940 0
1736 -1962 -651 0
522 -1999 0
380 -1081 0
936 -1521 0
857 -1774 -599 -1381 0
871 -123 0
156 -500 -254 0
352 -130 -699 -1255 0
177 -272 -20 0
1037 -1905 -1143 -1877 0
419 -282 -1561 -1978 0
1782 -1061 -493 -1101 0
1733 -709 0
-496 -314 0
1460 -532 -1666 -1225 0
702 -1081 -1102 0
1929 -592 -639 0
-1204 -419 -1404 -817 0
649 -297 0
487 -47 -1770 0
-851 -1862 -1640 0
556 -1582 -1785 0
349 -1979 -1076 0
1251 -1581 -1075 0
1691 -1598 0
377 -807 0
956 -337 -1858 -372 0
1124 -1647 -1923 -588 0
-1317 -600 0
1490 -663 -1470 0
1721 -2 0
640 -708 0
1729 -1570 -688 0
730 -1712 -157 0
1767 -1996 -834 0
568 -448 -1361 0
1788 -456 0
-1647 -422 0
732 -223 -1588 -1689 0
1294 -1431 0
-759 -212 0
-449 -648 -233 -675 0
961 -1511 0
-91 -1894 -1949 0
810 -1759 -310 -563 0
-1674 -172 -2 0
320 -1091 0
1637 -110 -1964 -1990 0
-1406 -361 0
861 -55 -1257 -1939 0
1456 -1793 -83 -765 0
1289 -1594 0
424 -109 -1343 -343 0
1668 -653 0
645 -1041 -1466 0
1270 -141 -249 0
1683 -324 0
1450 -1530 -179 -639 0
730 -220 0
-29 -994 -1486 -765 0
964 -751 0
1288 -293 -145 0
481 -1819 -1604 -1894 0
624 -672 -149 -894 0
-285 -1094 -653 0
368 -1007 0
172 -610 -1302 -430 0
477 -1764 0
-428 -1166 -1715 0
582 -26 -842 -257 0
174 -732 0
1325 -163 0
-1847 -434 0
-1361 -35 -889 0
-932 -603 -594 0
1887 -723 -652 0
1368 -309 0
1189 -1996 0
-932 -1947 -1320 -693 0
1714 -271 -787 0
485 -210 -94 -1726 0
1251 -223 -885 0
559 -1417 0
474 -622 0
513 -785 0
1285 -405 -933 -1345 0
942 -123 0
116 -1128 0
703 -802 -227 0
1689 -1306 -274 0
1899 -1765 -762 0
343 -944 0
939 -1851 -1556 0
1377 -616 0
-163 -859 -949 -1544 0
1708 -1400 -725 -1893 0
-252 -74 0
739 -1560 -794 -248 0
460 -624 -706 0
677 -1532 -1551 0
1777 -1430 0
-301 -1144 -483 0
1969 -753 0
1282 -1858 -1002 0
-680 -565 0
-1545 -1095 0
-797 -1396 -350 0
1449 -1037 -1518 -6 0
917 -1459 -44 -781 0
-1313 -1511 -1016 0
308 -1794 -1439 0
-1032 -565 0
-1846 -1828 0
480 -933 -1061 0
1744 -1005 -1828 0
-1572 -1454 0
826 -1629 0
1798 -1502 -1777 0
1201 -1775 -1070 -1890 0
255 -1867 0
-117 -1260 -322 -480 0
-1142 -545 0
492 -791 -213 0
-1880 -1749 0
-1802 -1072 0
-706 -569 -1253 0
63 -4 0
1480 -411 -457 0
210 -1826 -362 0
796 -878 0
-408 -1634 -782 0
6 -984 -185 -186 0
1883 -154 -1870 -1018 0
1068 -1728 0
1421 -1820 -1920 -1446 0
996 -673 -1226 0
335 -703 -149 0
1260 -1359 -1496 0
1976 -1698 -827 0
1002 -1708 -1580 -1161 0
81 -656 -125 0
135 -1316 -378 0
1772 -1089 -1477 -1531 0
-430 -1133 -1988 -1407 0
-450 -22 -1466 -238 0
760 -644 -812 0
-302 -111 -364 0
-72 -1953 0
-1749 -123 0
1301 -1545 0
1141 -914 -630 0
1694 -1401 0
1793 -985 0
-1979 -1125 0
1346 -715 -1206 0
-547 -1151 0
1009 -1042 -40 0
110 -1825 -922 0
642 -1737 0
1480 -1380 -587 0
787 -1609 -572 0
-954 -1798 0
1717 -494 -1358 -194 0
-939 -776 0
94 -1462 -1155 0
-1521 -1557 -383 -5 0
-4 -1682 -529 0
1825 -1386 0
1331 -145 -657 0
-813 -1628 0
-1225 -836 0
1642 -907 -1704 0
1039 -1069 -1405 -221 0
82 -7 0
63 -1880 -123 0
1903 -1482 -182 -1848 0
-114 -240 -1970 -810 0
-1490 -1515 -166 -554 0
795 -1203 -174 -82 0
-1199 -11 -1935 -844 0
-22 -358 -1561 -777 0
1721 -1242 0
284 -685 0
565 -78 0
666 -119 0
-1749 -1622 -1836 -946 0
1029 -792 -1561 0
299 -1279 -1732 0
1976 -1065 0
-808 -542 0
-547 -814 -451 -1155 0
1637 -1478 -1208 0
645 -342 0
-1856 -890 0
734 -202 -286 -874 0
467 -1550 -374 0
614 -644 0
1708 -1740 -464 -456 0
-1276 -154 -1141 0
17 -358 -1350 0
-765 -506 -623 -24 0
-258 -59 -1946 -1944 0
-396 -1438 -446 -1655 0
753 -1765 -416 -258 0
153 -638 0
-1274 -1336 -715 -907 0
1339 -1724 -1529 0
256 -1071 0
-1966 -991 -597 0
1808 -771 -1958 -1785 0
-443 -1121 -369 0
593 -222 -1972 0
-686 -1469 -524 -1510 0
-268 -701 0
707 -1315 -47 0
3 -1197 0
-1748 -832 0
1197 -728 0
-1582 -622 0
298 -1863 0
1241 -1021 -1540 -989 0
1137 -1113 -385 -1417 0
-901 -1943 0
-1568 -1197 -357 -581 0
1744 -180 0
1796 -1797 -984 0
-1207 -793 -1798 0
875 -151 -181 0
-1335 -849 -1994 -891 0
1162 -1673 -925 0
361 -1810 0
-719 -841 0
1813 -1246 -1513 -1761 0
1612 -1879 -94 0
1573 -1189 -1740 -1246 0
-159 -208 0
1301 -1258 -1815 0
-297 -902 0
232 -1778 -1207 -1246 0
1253 -1334 -895 -1240 0
-197 -1202 0
1421 -945 -1022 -1632 0
-664 -559 -1797 -495 0
999 -1164 0
1091 -272 -693 0
188 -1009 -748 0
-1210 -1488 -1717 0
-382 -279 0
605 -1130 -1238 0
1779 -238 0
-252 -1895 -1005 0
1641 -1913 0
-1127 -660 -609 0
-1126 -79 0
-788 -1252 0
1161 -1133 -283 0
385 -898 0
-68 -1520 -196 0
1817 -1014 -1729 -620 0
1389 -404 -904 0
1399 -1140 -714 0
1507 -1327 0
1883 -1852 0
1219 -939 -1371 0
1178 -1514 -1169 0
1534 -576 -177 -866 0
-1945 -1094 0
444 -863 0
265 -164 -205 -1453 0
1928 -988 -691 -679 0
-1062 -1586 0
-1018 -417 -1747 0
-1965 -143 -1641 -1023 0
-1915 -870 -1260 0
961 -883 -1619 0
1953 -909 -6 0
1037 -1691 -764 -734 0
-1510 -704 -1915 0
1767 -574 0
-1212 -1313 0
-969 -1497 -1167 0
-1136 -382 -753 -1846 0
-100 -894 -366 0
-1364 -1943 0
-111 -1831 -202 -1375 0
1234 -1206 -155 0
324 -30 -1826 -936 0
-1913 -1174 -31 -1062 0
-156 -317 -303 -527 0
-1387 -1712 0
-1048 -1980 -907 -1895 0
11 -324 -937 0
54 -932 0
222 -1932 0
1062 -160 -358 0
423 -1968 -524 0
1808 -1599 0
1742 -130 0
367 -884 0
78 -726 -1757 -157 0
113 -1615 0
1943 -1671 0
-1677 -1115 -671 -1505 0
830 -299 0
-587 -39 0
958 -172 0
-731 -1383 0
1627 -530 -267 0
-1230 -1391 0
1110 -1832 -1028 -896 0
-990 -1422 0
280 -1086 -15 -1580 0
1619 -557 -1950 -1662 0
-1776 -1108 -23 -1739 0
-870 -1669 0
1633 -1113 0
369 -991 -960 -801 0
462 -332 0
1354 -73 -323 0
861 -1357 -1255 0
-750 -263 -1739 -1655 0
1807 -1305 -1485 -110 0
687 -1894 -236 0
358 -1833 0
-1169 -1896 0
-831 -1827 -1428 0
292 -1797 -824 -924 0
1093 -103 -524 -708 0
903 -1094 0
669 -1319 -13 -476 0
783 -154 0
940 -988 -1267 -1784 0
-1332 -1840 -1957 -1812 0
27 -894 0
-1942 -1644 -435 -1399 0
903 -347 -263 0
1688 -1661 0
413 -670 -1005 0
562 -402 0
1897 -458 0
-1915 -93 -1294 0
822 -1984 -775 -1507 0
-291 -1613 -1109 -1193 0
1951 -800 0
-466 -522 -1789 0
1694 -1418 -471 0
92 -1378 0
171 -1383 0
1824 -1297 -1429 0
-1683 -1925 0
982 -1047 -1193 -1488 0
1855 -1009 -1862 0
846 -1625 0
1748 -1691 -1261 0
446 -1534 -1618 0
290 -1079 -1390 0
-1679 -1875 -285 0
1114 -614 -1826 -703 0
1644 -430 -672 -1643 0
1812 -1196 0
1431 -643 0
948 -1782 -1878 -1449 0
1649 -254 -142 0
1881 -1697 -333 -21 0
856 -910 -1882 -1133 0
61 -1819 0
228 -1489 -618 -137 0
1431 -543 0
779 -1856 -830 -1718 0
1130 -214 -136 0
-457 -459 -819 0
1858 -589 0
774 -655 -1759 -754 0
1668 -1735 -405 0
-89 -1611 -1221 -151 0
886 -845 -464 -684 0
1799 -1922 0
257 -780 -732 -1870 0
-1044 -309 -1113 -313 0
346 -1955 -1898 0
-1783 -1536 -1761 -887 0
748 -1999 0
-1121 -609 0
1656 -1881 -456 -168 0
606 -1975 -1800 0
853 -635 -515 -429 0
53 -576 -905 -1205 0
124 -60 -1751 -1162 0
1150 -1468 0
1303 -1919 -310 0
279 -1740 -1005 -735 0
311 -1580 -431 0
1172 -1793 -1783 0
843 -517 0
1825 -656 0
997 -294 -206 -1797 0
-511 -1146 0
1816 -1991 -1592 0
-1935 -735 -82 -777 0
612 -1669 -263 -840 0
696 -1576 0
1670 -458 -974 -298 0
1436 -1984 0
969 -1610 -700 0
47 -1281 0
73 -560 -1015 0
572 -16 -1952 0
480 -911 -1216 -510 0
938 -471 -1951 -1181 0
-639 -366 0
1969 -1558 -91 0
611 -1452 0
1856 -1301 -603 0
1427 -1035 -1570 -1936 0
-1449 -1317 0
-32 -586 -758 0
1800 -1415 -458 -1271 0
-1706 -317 -1746 0
119 -261 -1608 0
1587 -1821 -1316 0
-1300 -1823 -826 -1212 0
623 -1275 -1918 -1487 0
1056 -1911 0
952 -113 0
-1877 -805 -606 0
-124 -364 0
40 -181 -849 -484 0
182 -400 -13 0
1833 -1545 -1828 0
979 -973 -1110 0
390 -482 -1606 0
602 -4 0
945 -1395 -1715 -1728 0
1221 -1880 -1600 -924 0
1571 -1772 0
-784 -1835 -227 -1122 0
-219 -681 -127 -1738 0
572 -997 0
-1214 -1068 0
33 -1433 -99 0
324 -1086 0
-872 -1690 -438 -901 0
-492 -1787 -1408 -1513 0
931 -298 0
295 -1054 -525 -524 0
-1027 -608 0
162 -742 -765 0
1473 -1479 0
1140 -837 -622 0
708 -1925 0
887 -631 -516 -284 0
-53 -1338 -1976 0
1301 -553 -325 -403 0
313 -940 0
1912 -1642 -1515 0
595 -820 -51 -1620 0
700 -631 -1837 0
-1916 -1332 -1371 0
-1061 -1795 0
1123 -1237 -1296 0
56 -1419 0
907 -768 -1600 -179 0
-732 -1429 -1892 -1732 0
750 -952 0
-1593 -1273 -1343 -813 0
1833 -1720 -638 0
321 -680 0
-156 -1757 -232 -282 0
1711 -1753 -1760 -956 0
985 -886 -149 0
980 -890 -554 0
-1244 -1870 -1998 0
1222 -1007 -703 0
1060 -1534 -345 0
1991 -782 -126 -1518 0
1792 -686 -1761 0
1489 -1162 0
1200 -894 -1285 0
1638 -1668 -56 -26 0
667 -414 0
-1268 -1059 -1736 0
1291 -885 0
1907 -1144 0
481 -1996 -1701 0
121 -982 -155 -1723 0
513 -1658 0
1828 -948 -1099 0
-1377 -596 -685 0
-556 -1353 -1290 0
394 -807 0
1834 -136 -1129 0
1828 -248 0
64 -6 0
410 -1994 -1040 -683 0
192 -1228 0
-1560 -1318 -1895 0
-1631 -1625 -544 -364 0
1351 -1661 -1156 0
1102 -1490 0
1443 -767 -850 0
1081 -845 0
146 -1123 -108 0
869 -1103 -765 0
-575 -433 -1935 0
1022 -1545 -1737 -486 0
-660 -1363 -1634 0
-898 -1250 -123 0
-851 -508 0
1424 -1063 0
1962 -1722 -574 -191 0
715 -1570 0
-1245 -795 -961 -696 0
1660 -300 -611 0
-924 -1948 -645 -1056 0
1976 -1836 -743 0
1836 -847 0
47 -1336 0
-147 -284 -400 0
361 -776 0
-560 -548 0
289 -1016 0
-1985 -256 -1480 -1263 0
1184 -1072 0
1718 -1164 0
1922 -1623 -1195 -495 0
1116 -557 0
1156 -1991 0
1161 -1376 -1887 -1671 0
-1600 -1825 -1247 0
779 -221 -1704 -349 0
1815 -953 -588 0
-414 -1343 -418 -304 0
-932 -586 -1059 0
1710 -1709 -309 -1447 0
166 -1337 -1111 -1088 0
1074 -887 -405 0
231 -619 -1207 0
170 -200 -770 0
60 -421 0
-890 -617 0
-1779 -976 -1849 -72 0
1016 -1283 -1913 0
1313 -333 -78 0
1541 -34 0
349 -1269 -746 0
-1385 -1795 -1918 -1924 0
1365 -1196 -1974 -1097 0
-1827 -1731 0
936 -977 -660 0
-646 -983 -596 -1147 0
-1327 -329 -206 -1055 0
-1654 -1651 -947 -609 0
696 -521 -725 0
1410 -707 0
603 -968 0
-1899 -1731 -478 -1867 0
1729 -1581 -1934 0
81 -463 -447 0
836 -1011 0
288 -25 0
99 -210 -401 -1496 0
13 -35 -1370 -1849 0
1567 -968 -1002 -283 0
8 -609 0
-1416 -388 -1489 -269 0
-279 -1926 -1320 0
147 -906 -1867 -1635 0
712 -480 0
-1758 -1590 0
321 -468 -405 0
692 -1877 -1649 -754 0
1309 -358 -495 0
-1350 -1025 -1161 0
1888 -1503 -1604 -1958 0
1116 -540 0
1862 -1709 -1316 0
1604 -1253 0
347 -1997 -248 0
3 -629 -369 -965 0
1595 -581 0
-1814 -1589 -40 -1285 0
-1173 -1587 0
-198 -934 0
1999 -1357 0
200 -1129 -716 -1471 0
1439 -1773 -1885 -1691 0
1532 -196 0
1879 -842 -524 -1220 0
541 -1805 -92 0
1487 -669 0
1364 -1761 -1556 -646 0
260 -948 -1365 -726 0
-1052 -54 0
1611 -1144 0
1311 -977 -759 -1871 0
1303 -904 0
1171 -702 -1258 0
-353 -434 -1539 0
-1531 -690 -1719 0
-1578 -1831 -988 0
-1983 -1942 -1463 -1715 0
441 -750 -669 -536 0
782 -1460 -1093 0
1057 -1328 -1622 0
233 -321 -736 -550 0
-812 -29 -859 0
385 -1680 -85 -517 0
1457 -236 0
1416 -1561 -1099 -42 0
756 -343 -1830 -1499 0
1604 -1887 -1295 0
-1996 -632 -1368 0
-1479 -505 -151 -1291 0
-195 -779 0
925 -891 -1025 -1797 0
661 -1596 -1681 -1910 0
-314 -389 0
-494 -170 0
639 -285 -306 -1365 0
1352 -1114 -303 -993 0
1082 -1381 0
221 -144 -1397 0
-989 -1362 -1130 -1008 0
-1822 -205 -556 -1326 0
-769 -755 -1525 -808 0
-1800 -1933 -420 -451 0
1742 -985 -262 -1803 0
1016 -587 -1080 -1540 0
1706 -103 -111 0
-621 -1841 -244 -1546 0
929 -1154 -361 0
-1827 -821 0
333 -460 -68 0
1826 -1955 -1907 -1690 0
1945 -995 -196 -622 0
961 -1524 0
-524 -692 -1104 -381 0
1520 -392 -1392 -1992 0
667 -328 -1121 0
87 -105 0
-1531 -1062 -1194 -1467 0
1993 -321 -1537 -1007 0
-333 -1393 0
1925 -1232 -342 0
-201 -1845 -79 0
490 -952 0
-762 -466 0
1970 -133 -123 -758 0
118 -1902 0
1527 -768 -739 -343 0
1075 -1909 0
1748 -1543 0
615 -313 -647 -817 0
1821 -392 -492 0
-1042 -374 0
-1298 -1068 0
-68 -1686 0
941 -1884 0
66 -330 0
1871 -166 -1126 -266 0
1368 -659 -1270 -318 0
977 -1952 -1798 -762 0
1065 -1520 -1893 -1457 0
-184 -1633 -1203 -956 0
1892 -324 0
-251 -1119 -150 -1745 0
1475 -1448 0
1871 -1433 -1822 -1106 0
1644 -1283 -1839 0
397 -1098 0
568 -786 -1770 0
1821 -1855 -479 0
-1575 -1373 -233 0
-1 -1780 0
187 -1371 -4 0
1396 -1272 0
-843 -423 0
887 -288 0
632 -997 0
1426 -381 -303 -1258 0
811 -1619 -667 0
1940 -1562 0
-569 -1789 -684 0
-778 -1539 0
661 -1154 -529 0
841 -1027 0
1889 -598 0
449 -89 -1704 0
1693 -1867 -1314 -1549 0
651 -1610 -1959 -1439 0
1484 -1849 -431 -1853 0
1241 -1655 0
118 -1454 -1084 -1345 0
-1097 -1576 0
1551 -542 -302 0
1580 -991 -1505 0
-123 -424 -1210 -599 0
216 -1546 -1267 -724 0
1070 -1856 -703 -851 0
-1031 -708 -1170 0
1212 -1925 -655 0
-219 -1024 -1224 0
750 -548 -1673 0
50 -1412 -1373 0
1031 -97 0
893 -1499 0
643 -213 -1612 -230 0
1734 -1626 0
1459 -600 -1364 0
1226 -1685 -868 -1780 0
82 -916 0
-250 -1018 0
-1074 -169 -430 0
-1734 -922 0
-791 -1859 0
1966 -1453 -102 -1313 0
-671 -427 0
159 -1396 -1672 0
1025 -1998 0
1474 -566 0
-1737 -1494 -1610 -361 0
1142 -1006 -928 0
1444 -1593 -464 -792 0
-1384 -1663 0
1794 -1574 0
1133 -216 -1525 -1308 0
1257 -1341 0
-1924 -1907 -967 0
-1220 -350 -600 0
257 -714 -1041 -1871 0
1425 -844 -139 0
489 -1730 -670 0
-1263 -1565 0
654 -722 0
-780 -1666 0
1079 -1084 -861 0
1764 -1880 -1151 -914 0
352 -191 0
401 -1482 -1401 0
1971 -155 0
159 -1862 -1011 -1879 0
1462 -626 0
352 -1995 0
-774 -165 -114 -698 0
-840 -1548 -1379 -988 0
1833 -1365 0
793 -1899 -754 -1573 0
54 -692 -366 0
-152 -296 0
1629 -306 -1743 0
831 -181 -1048 -563 0
-996 -1795 -1994 -75 0
-213 -221 -1679 -311 0
1507 -161 0
-1535 -688 -1577 -33 0
-773 -1571 -1163 -385 0
79 -265 0
1434 -114 0
-616 -1860 -880 -1942 0
-692 -608 -623 -1403 0
347 -475 -1990 0
-262 -356 -835 0
-1118 -1035 -49 0
1123 -1768 0
801 -822 -960 0
-1928 -34 -1459 0
-1587 -1746 0
327 -1793 -934 -339 0
1507 -1571 -259 0
1665 -1731 0
-764 -1293 -1966 0
-71 -497 -417 -52 0
1618 -1451 -1058 -1989 0
1652 -333 0
1527 -788 -795 0
435 -17 -404 0
941 -240 -282 -893 0
-455 -394 -799 0
697 -1246 0
-195 -1217 -1295 0
1482 -982 -1789 0
1408 -1446 -255 0
340 -1202 0
437 -1106 -1930 0
1399 -1418 -668 -145 0
962 -223 -208 -1948 0
466 -1113 0
755 -1053 -905 0
489 -1900 0
-301 -1808 -1628 0
541 -1858 0
-950 -847 0
-1427 -765 -496 0
1281 -1116 0
308 -377 0
-1396 -661 -361 -141 0
73 -431 -1276 -1261 0
-918 -1039 -552 -473 0
-1950 -1153 0
58 -1 -594 0
181 -1714 -504 0
1210 -1232 -1757 0
10 -13 0
-308 -159 -1996 -1390 0
1679 -941 0
-1460 -291 0
1442 -538 0
-1544 -735 0
915 -1872 0
1379 -1297 -942 0
219 -716 -1952 -1270 0
1573 -1918 -1114 0
-1098 -1221 0
1237 -502 -1145 0
1319 -1188 -1394 -971 0
-1372 -1109 -1509 -1213 0
1375 -655 0
1088 -152 -548 0
1764 -1622 -284 0
-732 -1063 -133 -1207 0
1223 -1699 0
-1854 -1541 -1424 0
-715 -138 -1526 -1294 0
800 -327 0
-1685 -1127 0
470 -1065 -1016 0
870 -246 0
780 -131 -346 0
-728 -1416 -1722 0
-1573 -1399 0
54 -800 0
656 -1645 -29 0
1326 -677 0
224 -225 0
217 -924 0
1971 -839 -426 0
1814 -242 0
-327 -1063 0
601 -1820 -1932 -501 0
1344 -425 -988 0
1868 -1636 -896 0
-1274 -1904 -478 0
1677 -370 0
1769 -1267 -1586 0
968 -528 -161 -758 0
1172 -860 -1004 0
784 -715 0
-1297 -230 0
698 -793 -1035 -1545 0
1922 -1949 -158 0
214 -560 -1693 0
1559 -721 -1861 -343 0
898 -1264 0
557 -814 -75 -356 0
1048 -1340 0
1186 -1364 -653 -1038 0
-1401 -946 0
728 -1171 -1563 0
1016 -1970 -804 0
410 -655 -1758 -1741 0
1270 -1221 0
-1979 -1738 -1701 -137 0
1088 -1377 -604 -1699 0
437 -1769 0
-1954 -661 0
1464 -674 0
1738 -1674 -360 0
1427 -1944 -207 -813 0
-745 -1674 -1870 -633 0
-588 -949 -1428 0
1110 -1077 0
1008 -1053 0
-795 -946 -1152 0
-1985 -1511 -1655 0
132 -1536 -632 -1394 0
323 -1978 0
397 -615 -1963 0
1506 -639 0
-1628 -1128 0
1902 -1011 -1640 -1093 0
-407 -1053 0
1577 -1912 -1847 0
665 -1635 0
1920 -1360 -700 0
970 -960 -314 0
1537 -1895 0
1511 -1348 0
214 -461 0
1213 -38 -909 0
503 -940 -1888 0
1914 -1253 -150 -1580 0
974 -935 -1079 -1017 0
490 -1561 -708 -1947 0
1784 -1943 -1073 0
1573 -1593 0
-1073 -1968 0
-1092 -605 0
1865 -743 0
1412 -1552 -1851 0
-1905 -1827 -1389 -705 0
116 -1709 -1421 -312 0
1916 -1803 0
973 -1209 0
1963 -845 -992 -1131 0
1261 -735 0
961 -299 -868 -1150 0
1077 -1812 0
1654 -1991 -1105 0
1447 -260 -1048 0
1562 -949 -1172 -1098 0
629 -234 -1081 -1200 0
1734 -1928 -832 -1403 0
1138 -780 -1271 -676 0
-564 -1657 -1613 0
-30 -154 0
-669 -864 -434 0
319 -1372 -1412 -1478 0
1973 -741 0
-428 -1154 0
1168 -1263 -1038 0
1325 -1828 -257 -972 0
1890 -1323 -257 0
235 -1350 -1462 -188 0
-1625 -1838 -1530 0
498 -623 -382 -270 0
-1748 -231 -765 0
-997 -929 -265 -1589 0
-1097 -1798 -1857 0
1381 -54 -284 0
1997 -665 -1115 0
320 -735 -662 -891 0
941 -773 0
-1036 -916 -763 -1930 0
532 -1734 -547 -320 0
285 -1265 -873 0
200 -1019 -1200 0
993 -493 -607 -1284 0
1082 -211 -1367 -940 0
1283 -1222 -927 0
635 -302 -805 0
755 -1915 -1061 -468 0
317 -1779 -1925 -471 0
534 -1821 -1800 0
111 -1133 0
-1238 -94 0
-419 -1805 -1656 -573 0
1509 -1943 0
768 -1953 0
1834 -766 -1263 -179 0
1157 -388 0
1916 -1130 -347 0
600 -1928 0
803 -602 -580 -987 0
-1637 -1253 0
805 -990 0
713 -1555 -1499 0
-237 -461 0
-495 -299 0
789 -1979 0
1953 -926 -860 -1270 0
-934 -1078 -1013 -1628 0
1748 -1361 0
1286 -1154 -968 -1962 0
105 -689 -1379 -11 0
-1942 -1220 0
703 -1792 -969 0
-1233 -930 -40 0
1346 -497 0
-735 -1366 -1923 0
1036 -468 -1697 -885 0
1107 -1015 -1206 0
142 -111 -1819 -1054 0
1305 -177 -1270 -791 0
1674 -1622 -919 0
932 -1672 -1654 0
-999 -1637 0
1681 -163 0
-941 -946 -461 0
402 -251 0
1162 -102 -1113 -799 0
1402 -662 -741 0
-523 -1628 0
1697 -13 -653 -1188 0
1267 -181 0
-558 -1015 -1495 -1572 0
-1253 -1239 0
1125 -1729 -441 0
9 -210 0
-1867 -1099 -1142 -244 0
-639 -404 -1187 0
1563 -1765 0
661 -373 -1220 -117 0
-546 -773 -1681 0
1029 -853 -670 0
-1606 -1186 0
120 -692 0
70 -1892 -1271 0
310 -351 -856 -582 0
1178 -618 -288 0
139 -1651 -1813 -1412 0
1219 -184 -1229 0
998 -259 -73 0
-1232 -1352 -1332 -358 0
1340 -1984 -805 -16 0
-1191 -1388 0
-1714 -407 -1686 -545 0
41 -1706 -420 0
-340 -292 -1825 0
906 -1418 0
-1059 -1661 -1996 0
-1228 -107 -417 -1291 0
1878 -1107 -98 0
1574 -1019 0
800 -1724 -171 0
-1177 -1773 -1121 0
-322 -625 -527 0
1705 -1460 0
863 -531 -1232 -400 0
383 -402 -817 -213 0
-1986 -1446 -1917 0
1495 -711 -1142 0
1386 -1345 0
1982 -1818 0
181 -1758 0
-240 -934 -1761 -1049 0
-1991 -1156 -412 0
996 -58 0
461 -739 -634 -1272 0
195 -1000 -624 0
825 -1011 -983 0
-1382 -1484 -1742 0
957 -886 -1401 0
-1963 -13 0
599 -802 -1210 -780 0
-244 -1234 0
-363 -710 -1183 -474 0
1976 -404 -1724 0
-65 -1691 -1890 0
1282 -302 -1990 0
1400 -109 -1132 0
1100 -1192 0
894 -1197 0
-1627 -826 0
1003 -1837 -979 0
1505 -1011 -468 -1718 0
1210 -1721 -1849 0
544 -318 0
313 -1225 0
-368 -489 -1081 -250 0
-1714 -1960 0
507 -186 -958 -29 0
790 -1751 -1613 0
-466 -1965 -837 0
-1406 -369 0
-1879 -653 -806 0
129 -621 0
650 -1005 -1625 -1488 0
-1867 -780 0
1296 -1973 -1865 -1218 0
814 -966 -1756 -76 0
1137 -1864 -354 -1196 0
675 -802 0
-1092 -842 -772 0
964 -989 -154 0
1792 -996 -1423 -603 0
1618 -1338 0
394 -963 -297 -558 0
689 -474 -1852 -1902 0
1886 -998 -430 -665 0
1489 -71 -967 -1985 0
-1654 -1377 0
1312 -742 -1964 -1395 0
1283 -821 -1789 0
1605 -1281 0
1551 -244 -1904 0
827 -261 -227 0
1313 -734 -423 -1992 0
1427 -30 -1541 -1572 0
83 -1253 -257 0
1127 -974 -572 -1076 0
17 -1590 -861 0
1115 -1428 -1240 -1761 0
233 -514 -1179 0
-1608 -524 -1035 0
-1619 -319 -1376 -1023 0
375 -831 0
740 -687 0
1767 -38 -1684 -1322 0
-1462 -1632 0
-353 -1679 -239 -1850 0
1267 -864 0
-1598 -1935 0
411 -655 0
1951 -1140 -436 0
1684 -1903 -1076 -919 0
1135 -422 -1080 0
1287 -1915 -1946 -245 0
936 -1600 -1559 0
1054 -208 -1748 -788 0
680 -1723 -4 -135 0
-1681 -572 0
902 -307 -1043 0
-1182 -667 -738 -457 0
1544 -1674 0
1679 -116 -1733 -1138 0
-630 -1262 0
1614 -1724 -1167 0
82 -1479 -1310 -1965 0
1649 -167 -1801 -807 0
-1841 -1286 0
1857 -1603 0
-1172 -833 -1649 -1391 0
1207 -477 0
964 -1381 0
1551 -133 0
-1738 -1601 -1011 -754 0
1955 -1895 0
835 -585 -377 0
745 -1840 0
315 -553 -1718 -1976 0
1981 -962 0
1692 -565 0
1066 -73 0
219 -1191 0
55 -1948 -1881 0
-1047 -1129 -855 0
1748 -165 0
427 -724 0
-1081 -1752 -1769 -1590 0
211 -51 -1835 0
-1659 -1427 0
-149 -1557 -388 -1800 0
-567 -994 -1124 -423 0
368 -210 0
1 -555 -15 -158 0
1495 -1269 0
-270 -950 0
200 -312 0
-505 -706 -396 -1985 0
-1853 -1227 -436 -1577 0
1897 -1125 0
1790 -1749 -1933 0
735 -1627 0
-1234 -551 -824 0
599 -477 0
-682 -481 -770 0
1233 -783 -1762 0
-800 -1872 0
52 -263 -560 0
1134 -1230 0
1904 -1199 0
304 -1024 0
125 -858 -575 0
-926 -1310 -1455 0
214 -13 -361 -934 0
-481 -59 0
1547 -1079 -1163 -1716 0
-128 -503 -563 0
1719 -1178 -176 -731 0
-1296 -1332 -721 0
735 -115 -1087 -524 0
174 -1541 -424 -398 0
1696 -1842 0
753 -1380 -362 -835 0
-770 -1918 -1013 0
354 -1129 -638 -1306 0
1448 -1482 -134 -377 0
-677 -868 -521 0
94 -74 0
361 -1191 -768 -1345 0
-1611 -193 -461 -1760 0
330 -1327 -1510 -766 0
-74 -1756 0
1771 -208 -1037 0
212 -1426 0
1031 -816 -897 0
1052 -1933 -689 0
-1207 -1430 -482 0
-669 -425 0
697 -772 0
-1772 -1316 -509 -1425 0
1575 -89 0
1746 -1093 -140 0
-91 -880 0
1225 -1154 -1171 -948 0
99 -1790 -1797 0
1534 -1974 -1560 0
782 -928 0
-1226 -1714 -870 -636 0
1756 -499 0
-1697 -197 0
-1279 -371 -15 -220 0
-529 -1811 -245 0
201 -585 -1003 -1207 0
-211 -1634 -1480 -1415 0
965 -445 0
-744 -1555 -1613 0
1982 -145 -771 -1728 0
512 -286 -1530 -1134 0
1338 -934 -1334 0
-994 -1774 -969 -1220 0
1170 -561 0
82 -1023 -403 -29 0
1028 -1051 -1476 0
683 -47 -1205 0
1212 -1203 -1106 0
-1841 -974 -1634 0
1589 -1179 0
1522 -836 -1816 0
728 -1762 0
955 -558 -180 -985 0
1392 -1104 -123 0
810 -310 -922 -291 0
1894 -83 -1572 0
1843 -612 0
797 -730 -1388 -935 0
1216 -838 -256 0
1895 -308 -1644 -1538 0
1680 -1621 -1252 -773 0
18 -254 -1179 0
-24 -151 -892 0
1191 -461 -1393 -128 0
-1347 -1758 -1119 0
-81 -992 -1940 0
1027 -1760 -1800 -931 0
1276 -900 0
1717 -421 0
825 -1932 -1411 -1611 0
2000 -1513 -273 0
-1946 -837 -1007 0
817 -1162 -411 0
847 -444 0
29 -233 -1763 0
1248 -521 -1199 0
1362 -154 -792 0
1917 -1478 -1780 0
1107 -154 0
1077 -748 0
1688 -1941 -271 -1599 0
766 -833 -1609 -1964 0
1318 -1679 -459 -1703 0
-1095 -859 0
818 -1942 0
1925 -1900 -679 0
-660 -618 -1427 0
-1074 -425 -1359 -216 0
383 -267 0
932 -1325 -1905 -205 0
-689 -902 -460 0
1392 -938 -659 -1042 0
765 -1039 -1088 -339 0
-1941 -1734 0
-156 -1785 0
693 -782 -1878 -1500 0
1417 -1966 -169 -1525 0
-62 -1236 0
1907 -1614 0
1429 -187 0
1283 -1983 0
-922 -654 -1008 0
1640 -971 0
1649 -1638 0
-1906 -745 -869 0
-262 -957 -1428 -1088 0
1856 -1718 0
-1700 -129 -1921 -729 0
-62 -1601 -1915 0
1772 -341 -1484 0
1891 -454 0
847 -43 -379 -175 0
123 -911 -1235 0
1202 -1787 0
-5 -759 0
-1446 -1183 -1246 -1859 0
1519 -1904 0
879 -30 0
1695 -1955 -750 0
807 -971 0
-1449 -587 -199 0
-1848 -836 -54 -899 0
418 -1719 0
499 -66 -1935 -1586 0
257 -110 -1248 0
1746 -39 0
1238 -1093 0
-20 -787 -682 -187 0
161 -1790 -1432 -316 0
-1370 -125 0
207 -604 -573 0
-395 -928 0
-733 -1853 -59 -72 0
-1704 -203 -1508 0
-846 -867 0
-1873 -30 -385 0
519 -1730 -1745 -1235 0
886 -961 -1326 0
1087 -1066 0
-1094 -91 -1481 -366 0
632 -959 -1056 0
1849 -1460 -1156 0
800 -248 -1952 -1922 0
1675 -23 -1197 0
393 -1997 -1303 -92 0
358 -434 0
702 -933 0
1724 -623 -1082 -1049 0
-764 -826 -795 0
1223 -463 -617 0
-437 -453 -487 -1920 0
441 -129 -582 0
-1557 -300 0
-1389 -179 -978 -1694 0
696 -1661 0
-893 -358 -510 -1321 0
-1764 -857 -1843 -1714 0
1481 -1194 0
-1736 -885 -1024 -1969 0
547 -509 -1495 0
1688 -1337 -1135 0
1671 -1728 -1050 0
-805 -1033 0
1120 -821 -1682 -729 0
1574 -173 0
-309 -328 -1250 -162 0
1728 -211 -1918 -633 0
1074 -1603 -1462 -1475 0
-1157 -737 -1553 -1455 0
880 -1618 -1548 -1339 0
1426 -1529 0
1718 -1663 0
1218 -986 -740 0
-1603 -561 -992 0
-1944 -195 0
1282 -1757 0
1461 -1743 0
1975 -1257 0
1760 -231 -1925 0
-1788 -454 -1774 -730 0
-401 -551 -883 0
1336 -1026 0
9 -1520 -1288 -1480 0
943 -1691 0
-477 -49 -401 -679 0
15 -947 -1704 0
578 -1418 0
33 -1839 -1611 0
299 -425 -1385 -1390 0
-758 -1107 -1101 0
-85 -915 0
-981 -1325 0
871 -783 -1256 -306 0
234 -413 0
601 -81 -1458 0
1691 -938 -1993 0
-1669 -434 -1840 0
1628 -1776 0
512 -237 -763 0
-1695 -1934 0
607 -1628 -841 0
544 -296 -339 0
773 -1990 -1903 0
-726 -1015 -1702 0
1450 -1372 -1968 0
426 -1958 0
-459 -1050 -1526 -1653 0
902 -1990 0
-1885 -770 -122 -549 0
529 -12 -307 0
765 -452 0
1243 -471 -1516 0
1459 -1478 -413 -1475 0
1326 -1775 0
794 -1651 0
-1868 -1935 -1021 -1930 0
620 -1461 0
-358 -1942 -259 -1908 0
985 -101 -767 0
-374 -1652 0
669 -956 0
1421 -723 -265 -934 0
-1550 -1788 0
796 -1812 0
1875 -1639 -554 0
475 -1650 -146 -907 0
-464 -1755 -666 0
239 -293 -758 -393 0
-1803 -1874 -438 -798 0
1588 -315 0
-237 -1502 -1034 -410 0
-42 -1623 0
563 -1004 -313 0
-1183 -519 -863 -1116 0
-1498 -717 -697 0
1598 -1812 -201 0
430 -1226 0
663 -900 -1937 0
1490 -261 -1733 0
977 -1784 -398 -1289 0
-681 -1852 0
95 -1149 -339 -1164 0
821 -982 0
959 -1175 0
-548 -871 -326 0
525 -1164 -1907 -1394 0
-1118 -44 -200 0
832 -1868 0
1276 -4 -1459 0
-675 -193 -1801 -1651 0
1857 -1078 0
1282 -544 0
-884 -1045 -1717 -391 0
118 -1755 -1680 -1191 0
-981 -752 0
732 -16 -849 -273 0
-1643 -1830 -774 -713 0
-1553 -376 -818 -512 0
-1310 -1333 -165 -738 0
866 -1737 0
-511 -532 -552 -1655 0
-944 -1969 -887 0
1412 -1973 0
1901 -1190 0
1316 -1657 -318 -1829 0
-1720 -1760 -500 0
1563 -946 0
1832 -1354 -938 -1345 0
-1678 -210 -1955 0
-374 -395 -540 0
-503 -1774 0
333 -1531 -880 -1538 0
567 -1488 0
1796 -833 0
608 -305 -1246 -797 0
-119 -1182 -1669 -472 0
-1287 -1438 0
975 -107 -531 0
834 -302 -596 0
169 -1363 -1636 -1603 0
831 -588 -528 -699 0
289 -90 -1859 -601 0
-716 -176 0
932 -398 0
642 -1253 -84 -1581 0
540 -584 0
1741 -606 -1245 0
412 -397 -1239 0
1800 -1669 -203 -1337 0
719 -267 -1184 -100 0
1753 -1995 0
1281 -1115 -1078 -1111 0
993 -1582 -736 0
1495 -916 -417 0
-703 -234 -1896 0
-769 -1747 0
-1718 -975 -735 -1646 0
-1796 -464 -1108 0
229 -542 -1063 0
-1932 -1848 -460 0
120 -395 -219 -1502 0
1467 -1979 0
367 -502 -336 0
1194 -919 0
-1304 -1385 0
1822 -1886 -118 -1464 0
461 -1180 0
1369 -521 -451 -1976 0
329 -458 0
102 -1878 0
-293 -748 0
1754 -1880 -1817 -1895 0
990 -356 -1360 -1121 0
549 -1056 0
1018 -346 -666 0
-1955 -53 0
1014 -394 -1672 -1588 0
371 -1616 -1689 -1416 0
1270 -1327 0
1622 -1989 -1234 0
932 -456 -930 0
-268 -280 -1459 0
-533 -753 0
-163 -1254 -1805 0
-925 -1587 0
-1710 -715 -251 -640 0
103 -173 0
-838 -194 -343 -1881 0
1399 -1071 -1420 0
125 -1992 -357 -1130 0
292 -449 -896 0
1579 -14 -1973 -336 0
427 -1518 -1331 -554 0
228 -272 -1751 0
377 -1262 0
-1489 -1971 -1548 -1690 0
1713 -1525 -717 -554 0
1320 -343 -884 -1665 0
683 -1850 0
1317 -1697 0
1623 -1254 -1201 -1944 0
663 -165 0
1115 -1644 0
1580 -269 0
1969 -1105 -324 -801 0
-92 -120 0
1145 -293 -838 -1545 0
420 -1525 0
-1256 -471 0
-1585 -1156 -763 -275 0
1941 -1884 0
209 -1953 -1915 0
705 -621 -1017 0
1121 -1675 -1306 -1586 0
1015 -322 -188 -1654 0
1269 -1228 -120 0
1411 -500 0
-535 -1162 -1057 -3 0
-48 -191 0
1660 -1345 -243 -1652 0
1029 -1073 0
1392 -794 -1283 -2 0
641 -873 -378 0
607 -1525 -1303 -1728 0
-344 -752 0
-413 -1316 -182 0
314 -1823 -761 0
575 -1047 0
-1743 -1413 -1975 0
1482 -1109 -1473 0
286 -462 -1973 -209 0
680 -1637 -849 -1753 0
780 -934 0
-639 -1027 -426 0
-439 -919 -125 -465 0
1248 -662 0
1797 -1418 -563 -238 0
1563 -817 -553 -701 0
-1353 -1703 0
254 -1014 -861 0
1259 -1203 -1229 0
244 -969 0
-1850 -1859 -1698 0
-1536 -545 -1109 -1025 0
1091 -1362 -709 -1042 0
534 -392 -164 0
-265 -1568 -1219 0
144 -415 0
1078 -1959 0
1300 -170 -534 -1403 0
-534 -981 -494 -603 0
146 -347 -1464 0
259 -385 -1058 0
-1074 -679 -1334 -1677 0
372 -1500 -94 -1705 0
722 -860 -1500 0
1826 -1983 -376 0
-229 -583 -1731 -935 0
619 -1735 -1968 -1022 0
391 -104 0
-1514 -687 -1330 -923 0
650 -902 0
1385 -1103 0
-1250 -87 0
-1141 -635 -1567 0
707 -839 -63 0
356 -1446 -693 -1012 0
-213 -818 -1957 0
884 -427 -487 -435 0
1052 -1274 -577 -1421 0
1914 -517 -682 -516 0
580 -1147 -483 -886 0
1313 -1348 0
-135 -312 -1946 0
1475 -1021 -333 0
1545 -1834 -900 0
-1103 -230 -1651 -754 0
-1046 -210 -1332 0
-1529 -1933 -180 0
224 -1549 -1159 0
-1826 -706 -1379 -1620 0
1949 -797 -1247 -357 0
191 -153 -1248 -1032 0
1899 -1967 -643 -795 0
-1486 -1272 -1349 0
-1494 -938 -1828 -1720 0
-1573 -1854 -823 0
-606 -1508 -336 -1958 0
-655 -1188 -1045 0
1232 -1587 0
992 -681 -1363 0
1488 -436 0
-550 -220 -1481 -279 0
-573 -1561 -1353 -667 0
1194 -1011 0
1472 -1149 -487 0
1332 -1405 -1665 -1053 0
577 -934 -1917 -1181 0
505 -1591 0
1457 -231 0
-322 -1446 -1308 -404 0
776 -803 -1103 0
284 -1266 -815 -1489 0
182 -1617 -139 -1785 0
313 -569 -1321 0
1687 -35 0
769 -1047 -1577 -1507 0
-1112 -1333 -1396 0
954 -523 -842 -1786 0
-1525 -1411 -500 0
1886 -1124 -1497 0
539 -1470 0
664 -510 -526 -545 0
620 -768 0
-991 -1815 -336 0
1754 -281 -293 0
929 -813 -286 0
-1409 -1966 -1211 -409 0
603 -1558 -1573 -1280 0
1829 -1517 -1245 0
1005 -925 0
-652 -1833 -1014 -909 0
1062 -1371 0
462 -891 0
894 -1412 -1202 -772 0
726 -696 0
1090 -1933 -1337 0
65 -1305 -536 -547 0
1628 -911 0
1121 -1236 -1458 -1015 0
771 -854 0
-1946 -720 0
-639 -218 0
1376 -1321 0
1357 -1080 -1387 -398 0
1804 -1940 -1181 0
1220 -1272 0
354 -1986 -706 0
1548 -386 0
1913 -954 0
377 -1963 -788 -675 0
1332 -1169 0
1925 -265 0
1491 -61 0
62 -1195 -1730 0
815 -1527 -1970 0
-1852 -1672 0
35 -1614 -939 0
-1612 -318 -123 -1330 0
-719 -711 0
-741 -1854 0
1173 -70 0
567 -1174 0
1617 -24 0
867 -472 0
485 -815 0
984 -1491 -92 0
-1612 -590 -219 -1579 0
613 -127 -1806 -916 0
74 -581 -479 0
-1552 -724 -1463 0
-1469 -1241 0
-1813 -681 -5 0
-1607 -1034 -1640 -1288 0
-1538 -122 0
1024 -748 -1963 0
1060 -1575 -645 -1749 0
449 -965 -1387 0
-1338 -1871 -1300 0
836 -1472 -1916 0
1588 -1279 -1851 0
410 -97 0
-1142 -574 -900 -358 0
1970 -1410 0
844 -736 -1730 0
1183 -1018 -1054 0
1445 -1838 -1503 0
1702 -1251 -1531 -966 0
1049 -435 -142 -984 0
-473 -1468 0
917 -136 -1730 0
-1425 -127 0
-1096 -741 0
-1554 -1797 -1359 -674 0
-1921 -1090 -1665 -592 0
1995 -1510 -484 0
-1875 -1095 -1111 -1996 0
1425 -289 0
1985 -937 0
1684 -593 0
-642 -1670 -1485 0
1931 -54 -1519 0
1623 -539 0
1221 -608 0
986 -1907 0
1985 -825 -422 0
381 -1614 -237 -256 0
-1557 -154 -1751 0
1912 -700 -1861 0
529 -497 -1824 -1566 0
-984 -1294 -376 -425 0
65 -1480 -403 -334 0
1558 -650 0
1117 -1554 -1646 0
935 -1152 -87 0
215 -679 -1630 0
594 -1887 0
920 -350 -1667 -466 0
223 -1117 -1991 -1896 0
722 -1644 -435 0
-815 -1335 -565 0
-81 -711 -1416 0
1560 -477 0
-1344 -579 0
1290 -1723 0
-1209 -668 -1798 0
-1961 -875 -846 -1473 0
1753 -1708 -371 -1071 0
1977 -1382 0
776 -323 -1279 -1867 0
1762 -1653 0
162 -633 -237 0
-1775 -112 -359 -1791 0
1668 -80 -402 -913 0
1180 -1248 0
1779 -694 0
866 -126 -1597 -1869 0
293 -1238 0
1623 -429 0
-1496 -1519 -734 0
301 -994 0
1843 -238 -640 0
128 -1387 0
234 -1069 0
-1669 -711 -344 0
1019 -1980 0
1466 -1919 -1525 -1478 0
1700 -981 -338 0
-1378 -742 0
190 -1032 -1518 0
-610 -1091 0
-1772 -1228 -1472 0
1890 -730 -1064 -837 0
644 -393 -371 0
757 -898 -740 -1428 0
347 -62 -362 -1413 0
970 -1903 0
1505 -426 -511 0
228 -1586 0
684 -716 0
-1421 -1220 0
248 -381 -984 0
1126 -1160 -39 0
158 -749 -844 0
688 -1927 -563 -963 0
1707 -829 -686 -1856 0
382 -869 -1485 0
1556 -1374 -1915 0
1085 -255 -585 0
-183 -140 -936 -1634 0
309 -1806 -1442 -1519 0
1874 -49 -125 0
689 -1878 -1015 0
1520 -1598 0
382 -1428 -1490 -724 0
640 -1148 -534 -959 0
1869 -1962 0
-1970 -437 -1253 -261 0
295 -31 -1407 -1882 0
275 -429 0
1253 -193 0
316 -1805 -841 0
-1258 -1847 -502 0
1098 -1298 0
1029 -1743 -723 -729 0
305 -1171 -2000 0
1230 -1454 0
579 -1560 0
177 -1560 -129 -1786 0
508 -1388 -892 -1789 0
1082 -458 -1816 -821 0
78 -1045 -1006 0
-1356 -373 0
801 -311 0
212 -1926 -1280 0
-876 -80 -1228 -699 0
1177 -1886 0
1329 -667 -1869 0
882 -1263 -1180 -207 0
269 -1116 0
917 -1270 -376 -1598 0
308 -1773 -353 -285 0
1306 -1638 0
526 -756 0
537 -663 -1969 -1115 0
1987 -1971 -1827 -814 0
1950 -713 -1997 -1374 0
-539 -1762 0
1004 -465 -359 0
1555 -404 0
644 -801 0
1737 -1935 -91 0
1236 -1722 0
1258 -1158 -1083 -1730 0
-511 -1498 -1708 0
-304 -786 0
942 -307 -1727 0
-478 -1037 0
1274 -1173 -1971 -1930 0
-73 -1134 -1881 0
-1312 -285 0
-1608 -394 -1026 -574 0
1531 -1872 -1218 -447 0
1974 -1087 -1413 -1257 0
304 -1159 -334 0
905 -1749 -370 -1179 0
1468 -1895 -86 -1731 0
524 -613 0
308 -299 -17 -882 0
-790 -1728 -1655 0
988 -1264 -241 0
-1151 -1140 -933 -583 0
1882 -1222 -1524 -412 0
-811 -979 -662 0
1315 -422 0
-1685 -815 0
-806 -43 0
1655 -1438 -416 0
7 -873 -1912 0
-1461 -1055 -1708 -1958 0
-119 -338 -837 -432 0
1037 -573 0
1162 -518 -1769 -1649 0
871 -439 -1198 -1289 0
1242 -467 0
1986 -151 0
1540 -1694 -375 -1161 0
825 -556 0
-908 -1701 -5 0
1267 -1143 -1999 0
1134 -8 0
891 -1518 0
-1930 -929 -598 -566 0
784 -1512 0
1922 -471 -673 0
1062 -378 0
1790 -480 0
426 -1837 0
548 -1174 -1380 0
1516 -914 0
246 -251 -1490 0
1895 -1948 -1560 -885 0
1148 -1768 0
447 -1551 0
-758 -948 0
1343 -1829 0
1225 -767 -705 0
1266 -722 0
-407 -140 -1483 0
94 -71 -675 0
-1319 -435 -1893 0
772 -258 0
873 -1837 -989 0
-702 -121 -1794 -1197 0
181 -689 -1208 -474 0
1820 -210 -1419 -1083 0
458 -495 0
1977 -8 -1535 -726 0
1358 -1923 0
562 -800 0
343 -1669 0
455 -159 0
1867 -77 -224 0
229 -56 -311 0
301 -1820 -299 -955 0
321 -1934 0
-901 -1668 -518 -970 0
590 -585 0
-580 -1792 -1954 -1270 0
-238 -414 -1165 -1113 0
1715 -111 -162 -1586 0
1972 -1129 -1537 -1768 0
-1981 -1490 -1679 -1486 0
190 -140 0
337 -1349 -184 0
1507 -130 -331 -1693 0
1317 -241 -215 -1253 0
-1811 -1739 -34 -1610 0
1484 -940 -1867 -108 0
-811 -102 -957 0
101 -785 0
431 -917 0
1026 -740 -1448 0
968 -299 0
-1244 -1787 0
1479 -1502 -870 0
1999 -1756 -615 -717 0
259 -751 0
1457 -995 -1773 -755 0
1461 -1588 0
-1915 -1523 -1550 -23 0
-632 -1925 0
971 -373 -522 -1143 0
-832 -1225 -1591 0
-634 -1505 -1953 -623 0
-391 -1776 0
1707 -1454 -575 -353 0
-1984 -950 -683 0
1261 -572 -1989 0
567 -1208 -1146 0
-1405 -869 -1575 0
-769 -23 -766 -102 0
-1418 -104 -1963 -1479 0
1811 -481 -761 0
1155 -624 -1172 0
-275 -178 -609 -873 0
-35 -266 -1564 -207 0
-1228 -40 0
1454 -1315 0
-793 -1194 -1897 -1797 0
1173 -900 -207 -1980 0
1382 -1210 0
131 -1497 -504 0
440 -1657 -1562 -1130 0
715 -499 0
-611 -1785 -1933 0
127 -1874 0
-1725 -1532 -648 -309 0
-973 -1627 -811 -1737 0
841 -815 0
1036 -336 -1937 0
1601 -1248 -861 0
1503 -486 0
-810 -1671 0
-885 -906 -1402 0
1157 -162 -296 0
-1539 -419 -470 0
-458 -1915 0
-1748 -275 -486 0
386 -717 -1212 0
1998 -1550 -1138 0
1755 -868 0
1770 -1739 -1650 -806 0
1299 -625 -813 -1748 0
-1240 -167 0
797 -1396 -9 0
218 -91 -1711 -1761 0
1999 -153 -1817 0
-741 -522 -1435 -902 0
1763 -1368 -351 -159 0
-1771 -801 0
246 -587 0
1953 -592 -1852 0
1087 -1253 -796 0
764 -999 -804 0
1873 -871 -911 -1271 0
173 -1737 -110 0
1363 -1351 -537 0
-1725 -1596 -1518 -394 0
728 -69 -1740 -986 0
1696 -802 -1663 -1035 0
1572 -1533 -1926 -1358 0
-82 -385 -797 0
951 -607 -921 -1482 0
-704 -224 -964 -354 0
1274 -421 -146 0
-286 -1462 -229 -1114 0
1867 -305 -384 -298 0
1409 -1434 0
-434 -1972 -1778 -716 0
216 -1646 -1828 -63 0
648 -1876 -1018 -1973 0
101 -619 -682 -391 0
1754 -1006 0
1492 -1237 -1450 0
1409 -1781 0
-612 -939 0
1298 -1198 -1511 0
-1549 -679 -1022 -574 0
-1903 -352 0
496 -626 -1693 -410 0
-744 -359 0
569 -91 -827 0
1950 -1345 -543 -840 0
-1433 -1131 0
-1380 -1146 -1784 -1272 0
136 -1588 -1949 -93 0
-1613 -1784 0
-1987 -431 0
472 -1159 0
1150 -1370 -1774 0
133 -1338 -1061 0
1260 -1841 -613 -90 0
-1541 -845 -1819 -1535 0
-858 -307 0
724 -752 -1661 0
722 -1685 0
-777 -1342 -190 0
645 -89 0
630 -604 -300 -1855 0
1408 -1846 0
-384 -1533 0
481 -498 -763 0
1039 -318 -1282 0
494 -7 -980 -569 0
-1937 -5 -1927 -859 0
-1204 -760 -510 0
-647 -1309 -757 0
468 -1202 -1753 -1833 0
881 -510 -602 0
-1624 -870 -1603 0
-433 -1268 -933 0
-1436 -1210 -1755 -930 0
-1555 -1184 0
652 -1787 0
339 -1965 -438 -666 0
750 -1182 -232 0
1278 -1736 -1184 0
1842 -938 -757 -304 0
333 -1173 -1555 0
881 -1784 -1185 -546 0
-151 -29 -596 -707 0
263 -396 0
-1881 -259 -388 0
920 -1838 -1993 0
1481 -1825 -381 -1111 0
1600 -1933 -1729 0
-62 -860 -1931 0
1622 -1653 -1305 -279 0
291 -1848 -1967 0
1342 -541 -335 -497 0
1270 -1147 -1003 -1223 0
-43 -86 -1034 -1455 0
160 -1885 -755 0
-483 -681 -1089 0
1220 -1436 -173 0
748 -534 -188 -1319 0
1720 -633 0
1627 -1158 -1693 -890 0
1293 -176 -929 -1822 0
1505 -524 0
409 -904 -522 -1245 0
433 -766 -77 -120 0
816 -557 -1932 -1178 0
-1129 -1877 -588 -604 0
463 -207 -763 -1792 0
1569 -537 0
1364 -1467 -6 0
1812 -729 -227 -1550 0
1044 -351 -1405 0
397 -1098 -1178 -794 0
321 -502 -641 -664 0
1471 -881 -279 -1604 0
19 -408 -1227 -1290 0
44 -1236 0
-1979 -72 -1872 0
1729 -1197 -789 0
-1388 -746 0
-851 -389 -474 0
-1556 -299 0
321 -1917 -1283 -41 0
525 -634 0
-621 -740 -1217 -1710 0
-169 -1837 -32 -1164 0
-1287 -1629 0
228 -708 0
-1955 -822 -305 -908 0
-366 -183 -1357 -851 0
1304 -1460 -1225 0
1641 -672 -1700 -1560 0
492 -1116 -1520 -147 0
-303 -1671 0
226 -757 -151 -434 0
1319 -1585 0
640 -620 -230 -294 0
1508 -913 0
1114 -333 -35 -787 0
-1644 -410 -1996 -312 0
664 -198 -837 0
-1856 -29 -615 0
-588 -1414 0
17 -294 -1481 -1954 0
43 -593 -750 -644 0
113 -79 0
800 -1093 0
-100 -821 -1735 0
1553 -1484 -24 -845 0
1670 -946 -1627 -1208 0
941 -1554 -429 -1460 0
226 -407 0
1706 -1148 -362 -1040 0
224 -479 0
1763 -84 -466 -38 0
624 -491 -1444 0
483 -835 0
1398 -467 -1118 -1034 0
1770 -1737 -540 0
272 -897 -1887 -1261 0
346 -1346 0
861 -1306 0
447 -1533 0
815 -29 -666 0
627 -223 0
1506 -773 -38 0
-1888 -99 0
607 -549 -953 -1010 0
1663 -269 0
1720 -387 0
-1488 -730 -1212 -1705 0
-152 -1787 -280 0
-1696 -457 -1330 0
424 -278 0
1763 -1921 -1220 0
-276 -731 -1959 -1512 0
1989 -1781 0
860 -281 -789 -538 0
1538 -1973 -601 -559 0
1094 -1844 0
-42 -1133 -1287 -1238 0
258 -522 -1228 0
684 -304 -4 -115 0
1525 -812 0
161 -1504 -496 0
180 -231 0
1065 -1814 -510 0
1135 -819 0
1482 -545 -697 -1086 0
616 -141 -1437 0
-208 -559 -1873 0
255 -1031 0
-879 -1008 0
1174 -915 -814 0
657 -1155 -921 0
-1799 -389 0
1438 -1423 -568 0
1965 -504 -1899 0
504 -1891 0
-386 -1478 -1101 -798 0
421 -1478 -1500 0
67 -385 -1439 0
31 -1625 -1686 -757 0
1012 -525 -1884 -594 0
608 -1657 0
1220 -1984 -129 -481 0
896 -822 -731 0
-1525 -914 0
53 -739 0
-493 -1185 0
-909 -346 -1907 -1604 0
-874 -896 0
1779 -1114 -719 0
1678 -1794 0
592 -555 0
-628 -1957 0
1679 -1008 -846 -1510 0
141 -1732 -1023 0
-239 -712 -287 0
-202 -352 -512 -1521 0
1195 -322 -230 0
-1190 -116 -1257 -1 0
1359 -700 0
-687 -1464 -1636 -1508 0
-428 -1917 -1691 -1370 0
-1596 -1626 0
1151 -1867 -934 -1412 0
127 -1791 0
1026 -739 0
97 -1362 -212 0
1520 -175 -689 -1575 0
1509 -818 -1560 -101 0
995 -407 -1676 -353 0
1082 -583 0
-1518 -1085 -607 -1718 0
1972 -660 -1989 -1494 0
1809 -1460 -977 -270 0
-1222 -92 -877 0
-345 -852 -801 -28 0
1353 -857 -1014 -357 0
650 -510 -974 -315 0
-1953 -1955 -99 -363 0
598 -830 -152 -96 0
-794 -996 -1966 0
-932 -211 0
526 -1184 0
1417 -1720 0
-12 -1576 -708 -929 0
-1935 -1767 -1324 -965 0
16 -1833 -1434 0
-1081 -715 -1301 -33 0
1954 -648 -1143 0
1024 -147 0
-1258 -1726 -22 -1744 0
881 -355 -1786 -832 0
796 -995 -1974 -1211 0
-1439 -100 -970 -442 0
959 -757 -348 0
470 -1863 -1631 0
-362 -240 -1044 -796 0
1517 -1045 -1593 -1635 0
-1128 -1916 -630 0
-1136 -758 -513 -442 0
-1749 -151 -1117 0
1727 -226 -753 0
306 -1931 -857 0
771 -1906 -1518 0
1445 -166 0
1651 -615 0
-325 -158 -1648 0
10 -1198 -1983 0
219 -1585 -982 -473 0
-562 -1864 -812 -415 0
1358 -405 0
728 -1887 0
212 -284 -1292 0
1553 -1571 -1738 -1452 0
-1404 -1187 -1188 0
584 -145 -1621 0
-912 -829 -481 -37 0
898 -566 -1632 -1923 0
91 -860 -1107 0
749 -837 0
-1014 -86 -806 0
-1453 -410 0
1668 -519 -1314 0
-1859 -1934 0
437 -1680 -1050 0
1095 -1410 0
1559 -520 0
902 -1770 -1320 -1089 0
-1881 -1267 0
1038 -699 -356 0
1227 -584 -1934 -1939 0
1175 -18 0
-1773 -784 -1357 0
589 -1454 -1593 0
932 -415 -1635 0
-516 -1738 0
-1328 -1203 -2 0
-30 -1494 0
1512 -292 0
999 -1062 -1684 -1916 0
464 -524 -431 -36 0
1056 -1266 -401 0
-130 -1013 -1290 0
218 -607 -917 0
911 -1179 -760 -32 0
850 -1438 -1929 0
1023 -267 -120 -8 0
-342 -1630 0
1463 -40 -1069 0
-1535 -1646 -1734 0
249 -1996 -319 0
1711 -1664 -774 0
816 -1473 0
1782 -202 0
901 -1422 -1851 -1493 0
-595 -1465 -1709 0
-1415 -828 0
1047 -1328 0
1249 -1776 -1960 -1406 0
757 -679 0
832 -1252 -1862 0
-909 -1322 0
-1918 -1543 -561 0
968 -358 -460 -1229 0
738 -1268 -974 -205 0
1044 -211 0
-1787 -1446 -824 0
-1203 -569 0
797 -1410 0
1395 -1902 -132 0
1473 -1974 -1215 0
-632 -1383 -661 -1261 0
-1593 -418 -282 0
1341 -114 -1538 -480 0
-577 -52 0
1041 -536 0
1000 -123 0
743 -754 0
704 -1935 -974 0
127 -278 -1477 -937 0
1735 -1546 -348 -1727 0
493 -1611 -629 0
36 -771 0
600 -1454 -1502 0
943 -82 -1592 0
-1266 -75 -911 -178 0
-1720 -1395 -565 0
705 -656 -884 -1505 0
508 -1501 -933 -211 0
-1986 -137 0
-308 -142 0
1250 -419 -1791 0
-1310 -1080 -1930 0
1536 -849 0
184 -1860 -1005 0
-1809 -503 -1323 0
1053 -108 0
502 -1276 -1314 -576 0
1830 -1718 -83 -558 0
-1947 -1561 -508 0
-1513 -683 -666 0
-1970 -153 0
1829 -1632 0
1902 -1061 -145 0
520 -1087 0
1871 -799 -1876 -1554 0
-485 -58 -952 -1704 0
-471 -1808 0
1427 -501 -1312 0
-881 -900 -1286 -649 0
355 -364 -120 -611 0
1432 -1533 0
-439 -206 -999 0
589 -1 0
852 -276 -1676 0
-593 -414 -1648 0
1500 -485 0
1615 -1359 -1743 -1526 0
1074 -636 0
-383 -1814 0
1285 -1228 -279 0
662 -737 -1638 0
1334 -1341 0
750 -930 -14 0
-1735 -911 0
645 -470 -1776 0
648 -1068 0
743 -1220 -1577 -688 0
389 -350 -1793 -1207 0
971 -660 -1774 0
1324 -1208 0
709 -424 0
1323 -1350 -1241 -1979 0
1615 -353 -1277 0
944 -1440 0
481 -1254 -433 0
1044 -895 0
1294 -1046 0
1519 -1508 0
37 -1729 -1103 -806 0
557 -764 -1469 0
-291 -834 0
885 -1654 -898 0
1274 -1837 -424 0
1494 -350 -151 -293 0
1804 -529 0
-1647 -1597 -1906 0
796 -1893 -416 0
576 -754 -1055 -1640 0
410 -1651 -1189 -60 0
-814 -1901 0
-428 -1545 -737 0
1798 -1242 0
873 -1019 0
1968 -16 -1958 0
1199 -1907 -1177 -425 0
1213 -608 -1564 0
-310 -1481 0
332 -50 0
128 -612 -1394 0
-769 -283 0
77 -177 -1938 -1308 0
1044 -948 -1320 0
-1292 -1534 -243 0
1869 -450 0
-828 -1774 -1749 -1827 0
1459 -1718 -1236 -1098 0
1035 -1905 -1857 0
-1908 -762 0
1387 -966 -1201 0
328 -1949 -795 0
804 -889 -1973 -11 0
927 -885 -754 0
156 -1765 0
647 -559 0
1136 -454 -1724 0
-1064 -1391 -1327 -800 0
286 -1167 -156 -1551 0
-995 -1764 -291 -442 0
1727 -1075 -243 0
904 -267 -714 0
35 -1183 -1110 0
61 -316 -1492 -196 0
-1963 -1075 -1236 0
699 -1126 0
626 -142 -1820 -1172 0
1151 -1413 0
1601 -600 -495 0
-1476 -1538 -43 -1991 0
528 -1345 -116 -1755 0
488 -592 -710 -423 0
307 -1712 -786 -1647 0
668 -1701 -755 -187 0
732 -809 -1364 0
-1445 -824 -800 0
1334 -1444 0
184 -1605 -684 0
-47 -162 -1065 0
949 -13 0
1317 -1984 -1079 -1169 0
130 -1862 -975 -37 0
1458 -876 0
1948 -805 -1972 0
439 -717 0
-1653 -1400 0
1049 -309 -1262 0
1823 -22 -543 0
1172 -1509 -1352 0
1514 -1841 0
864 -1706 0
410 -1931 -459 0
1669 -1338 0
946 -599 0
-1260 -1690 -792 0
876 -531 -1393 0
1703 -1783 0
-1141 -126 -517 -367 0
1370 -1783 0
1235 -1847 -759 -1796 0
1751 -903 -1367 0
1891 -1155 -1777 -743 0
1869 -1587 -484 0
979 -532 -31 0
1409 -1185 0
-1872 -1805 -978 -302 0
1408 -1520 0
116 -1916 -772 -869 0
813 -588 -1622 -1620 0
423 -1632 0
1335 -317 -1313 -605 0
1521 -35 -530 0
-34 -1563 -882 0
297 -1660 -1732 0
155 -990 0
1269 -1045 0
765 -507 0
1380 -522 -1430 -821 0
1910 -1192 -398 0
-574 -97 -297 -33 0
214 -652 -507 -1282 0
-626 -204 -329 0
999 -973 -1370 -1229 0
-428 -1038 -937 -896 0
1003 -1820 0
356 -466 -1770 0
1159 -1619 -1521 -1402 0
41 -361 0
-1770 -1688 -616 -1018 0
1401 -931 0
1145 -1287 -1406 -1812 0
1022 -1045 0
-1140 -1320 -711 0
1044 -1140 -739 0
940 -1892 0
-1730 -1907 0
1949 -871 -1060 0
1641 -1747 0
833 -1087 -1317 0
-64 -397 -1382 -1202 0
-1104 -1099 -1316 -949 0
1357 -1403 -649 -901 0
765 -1569 -614 0
-1549 -899 -1310 -25 0
-99 -1863 0
43 -1948 -1895 -832 0
-1149 -923 -721 -1691 0
999 -1901 -1006 -460 0
750 -1150 0
1579 -1064 0
1017 -1913 -187 0
1211 -738 0
1036 -748 -369 0
-100 -602 -503 0
432 -414 -1647 -1487 0
221 -1127 -361 -1160 0
302 -1380 0
605 -1496 -1669 -286 0
332 -24 -223 0
1825 -154 -525 -1587 0
-51 -654 0
-831 -1381 -553 -491 0
377 -1260 0
669 -1950 0
-543 -1896 0
1968 -21 0
1453 -1803 -1670 0
1479 -1298 -613 -422 0
1627 -1462 -1612 0
348 -722 -1030 0
73 -1387 -1635 -1174 0
1031 -189 -398 0
-68 -414 0
-142 -1948 -1360 -663 0
1644 -282 -1833 0
1952 -236 0
505 -165 -851 -1827 0
1199 -1135 0
1097 -1864 -1566 -1088 0
1252 -1570 -292 0
850 -1096 -37 -1241 0
327 -1692 0
167 -1360 -970 0
-938 -1359 0
-126 -1973 -1220 -1584 0
-620 -1244 -1547 0
1547 -871 0
1163 -1481 -1363 0
503 -1651 -1898 -1534 0
989 -1481 -1767 0
-1785 -338 -1610 -751 0
419 -231 -1465 0
1095 -440 -1786 0
313 -1902 0
1157 -1876 -1791 -1846 0
-1985 -931 -624 0
989 -797 -506 -1835 0
-115 -1500 -1217 -1657 0
-943 -1780 -74 -645 0
1977 -1407 0
-667 -923 0
812 -1009 -342 -1022 0
1658 -1660 -136 -1104 0
944 -1967 -1450 0
1768 -1989 0
247 -1232 -1834 -1511 0
-1869 -1690 -1953 0
-1458 -1887 -1457 -867 0
391 -1685 -280 0
-255 -1114 -894 0
1327 -1436 -1706 -33 0
1682 -2 -750 0
-68 -372 0
689 -1325 -1825 -548 0
-913 -111 -238 0
866 -656 0
1235 -506 -1595 -1185 0
-747 -854 0
1393 -752 0
-529 -73 0
878 -1561 -709 -722 0
1343 -1557 -1263 0
1074 -176 0
86 -647 0
1752 -307 0
1915 -281 -267 -182 0
488 -1172 -46 -1332 0
1329 -1917 -805 -625 0
-558 -1147 -1259 -813 0
1386 -1670 -999 0
418 -1722 -131 0
334 -175 -1595 0
431 -899 -1827 -28 0
94 -1940 -86 0
1244 -1309 0
1758 -1163 -430 0
989 -898 -49 -658 0
-1582 -603 -1190 0
883 -999 -99 -1969 0
-55 -1706 -1332 -1835 0
1390 -203 0
161 -1521 0
967 -310 -1447 -1218 0
703 -871 -980 -421 0
-382 -451 0
-1713 -928 0
1380 -1857 -786 -1101 0
727 -1915 -548 0
331 -1219 -986 -845 0
402 -315 -1581 0
698 -905 0
1677 -738 -446 -854 0
699 -193 0
-1517 -1037 0
1711 -1923 -1386 -1844 0
1161 -1754 0
107 -56 -1665 -95 0
-957 -549 -436 -1604 0
-671 -819 0
458 -365 -521 -1410 0
-761 -797 -972 -453 0
-919 -654 -1661 0
1666 -572 -1402 -1244 0
-1729 -651 -804 -1407 0
1054 -1652 -1478 0
256 -900 0
-1343 -1627 -1780 0
1791 -332 -129 0
-883 -365 -378 0
1316 -1497 -979 0
-959 -1958 0
729 -1880 -1758 0
-1146 -1121 -1220 0
693 -135 0
1297 -250 0
-360 -1458 -386 -178 0
1870 -1258 -1929 -1560 0
1493 -1474 -862 0
1328 -1399 -1911 0
1053 -1542 -22 -1126 0
360 -1125 -1264 -501 0
-1881 -1445 0
64 -228 -1811 -850 0
2000 -423 -616 0
1644 -422 0
137 -805 -1347 -1829 0
1467 -502 -639 0
-998 -1896 -1840 0
601 -976 -825 -259 0
1538 -718 0
1783 -258 -1223 -1398 0
181 -1545 0
-1355 -63 -635 -1210 0
269 -893 0
1382 -720 -470 0
1580 -1909 -1102 -1834 0
161 -305 -562 0
1111 -1068 0
1951 -710 -840 -1661 0
545 -1899 -218 0
337 -1871 0
1479 -1112 -82 -1442 0
1464 -74 0
93 -1395 -1028 0
90 -1818 -65 -1610 0
776 -1483 0
-1751 -934 0
1821 -618 -49 -257 0
-69 -141 -1599 0
162 -552 -1749 0
-322 -1773 -1512 -67 0
-908 -1356 0
833 -1313 -699 -1295 0
1413 -1590 0
-772 -762 -1075 0
399 -14 -62 0
1026 -1280 -1909 0
-1616 -509 -261 0
-1097 -55 0
941 -411 -304 -558 0
1005 -813 -1020 0
-994 -1317 0
-1008 -417 -1918 0
1553 -1712 -1247 0
1499 -1136 -648 -266 0
300 -210 -1912 0
-1638 -311 -1935 -515 0
-1557 -1277 -343 0
1169 -1536 -660 0
-1804 -1916 -61 0
624 -667 -210 0
1826 -530 -1888 -1068 0
-1242 -440 -116 -1683 0
-1935 -1580 -1256 -355 0
-1352 -521 -756 -867 0
1442 -534 0
996 -1951 -1051 0
1465 -578 -1587 0
-1831 -1376 -162 -175 0
232 -1630 -830 -1275 0
-628 -1094 -1560 0
1577 -566 -859 0
614 -518 0
-1238 -874 0
-1422 -718 -1227 0
45 -240 -1795 0
619 -663 -1317 0
1290 -270 -370 0
820 -1379 0
489 -690 -621 0
-1116 -1106 -799 -907 0
1663 -427 0
1676 -1317 -911 -1588 0
1056 -1479 0
-1169 -1231 -1196 -265 0
1573 -228 0
1359 -1143 -1319 0
-1064 -1758 -1338 -1037 0
1890 -1552 -1925 -460 0
1815 -1270 -48 0
1286 -1330 -998 -1392 0
-6 -1728 0
726 -1708 -703 0
-1764 -454 0
50 -637 -1645 0
-1808 -1870 0
1239 -815 -1225 -1184 0
1638 -1900 -1118 -1644 0
1034 -1125 -1887 0
1553 -1632 0
1856 -1752 0
-1465 -71 -1739 0
-151 -323 -714 0
973 -1905 0
993 -1510 0
1526 -206 -906 0
324 -894 -1123 0
1569 -628 -1356 0
323 -182 0
1873 -672 0
1922 -1189 -618 0
1020 -101 -1811 0
24 -1743 0
-1567 -537 -1529 -13 0
50 -1862 -1536 0
501 -781 -545 -338 0
-1887 -1765 -996 0
-572 -390 -1110 -516 0
1738 -1205 -1981 0
1480 -1130 0
931 -474 -1910 -284 0
675 -1480 -1626 -1980 0
483 -209 -480 0
1051 -1814 -472 -1716 0
956 -1818 -323 0
1567 -114 -531 -1415 0
-961 -1808 0
-1388 -1520 0
-1790 -1100 0
1157 -1220 0
1176 -988 -626 -981 0
-751 -726 -473 0
-787 -1732 -783 -1759 0
384 -225 0
1613 -414 -794 0
29 -1275 0
1747 -1457 -861 -480 0
94 -646 -1184 -1315 0
273 -1644 -92 0
-791 -283 -1620 -987 0
-738 -400 -1006 -404 0
726 -196 -1844 -1394 0
1986 -776 -266 0
-43 -1819 -1935 0
1671 -1313 -344 -528 0
-717 -1925 -1074 -1618 0
-389 -1237 -1347 -490 0
1661 -1654 0
-139 -754 -1161 -1556 0
1140 -307 -779 -745 0
1856 -768 -609 0
1676 -459 0
857 -277 -1115 -103 0
527 -1140 -929 0
879 -931 -1386 -1877 0
-1195 -1330 -1463 -13 0
-1363 -1101 -1244 0
478 -1492 -412 -383 0
1100 -9 -66 -1642 0
1404 -86 -1385 -1723 0
547 -1875 -890 -1693 0
1167 -1511 -1714 0
1830 -486 -868 0
542 -1293 0
246 -1162 -1969 -1016 0
1497 -1647 -1073 0
2000 -1802 0
1153 -705 -1769 0
647 -927 0
1603 -1562 -211 -1679 0
934 -819 0
166 -1051 -1455 -475 0
266 -549 0
1176 -279 -882 0
1473 -1515 -1294 0
1130 -1065 -1186 -1974 0
169 -46 -1503 -1973 0
339 -319 -1186 0
-1618 -1064 -1206 0
430 -923 -2000 0
310 -787 -943 -268 0
1148 -619 -528 0
-605 -697 0
1598 -1137 -528 -1976 0
-1255 -1774 -246 0
1863 -1471 0
1186 -1563 -868 -1193 0
-862 -1615 0
787 -62 0
1760 -1622 0
839 -817 0
822 -1083 -202 0
50 -1687 -1254 -947 0
1205 -289 -1575 -1891 0
-927 -1891 0
1510 -346 -1267 0
1880 -415 -631 -1362 0
1017 -903 0
-559 -848 -113 -340 0
-178 -1742 0
1972 -472 -129 0
-800 -1370 -890 -303 0
-419 -639 0
1880 -1987 -1548 -904 0
180 -1016 0
-611 -20 -952 -527 0
576 -1423 0
1197 -1864 -781 -753 0
-491 -787 0
-907 -1200 -1349 0
1969 -129 -1749 0
-1641 -673 -757 -1127 0
878 -214 -390 0
1270 -1823 0
928 -1415 -1977 0
1044 -1079 -355 0
567 -540 0
-1595 -1524 0
1954 -8 0
312 -474 -867 -1040 0
-1779 -1519 0
47 -1212 0
353 -884 -1368 -1359 0
85 -702 0
-793 -261 -90 -211 0
1259 -57 0
-433 -1687 -909 -1222 0
-1672 -1191 -173 0
-427 -1865 -546 0
1598 -1865 -1712 -1350 0
1288 -763 -6 -1987 0
-1621 -1655 -1334 0
214 -25 0
-1235 -1828 -1624 0
148 -291 -289 -1578 0
-531 -815 0
-389 -478 0
1407 -1140 0
1709 -1435 0
-1941 -112 0
1230 -1957 -1540 -234 0
-902 -2000 0
1372 -526 0
-260 -380 0
-270 -1300 -1707 -1292 0
1274 -132 -288 0
-972 -1932 0
-1219 -756 -1512 -1824 0
1290 -245 0
-1239 -1879 -1307 0
958 -1534 -507 0
-1008 -988 -48 -1111 0
1760 -1564 -1843 -240 0
1749 -55 -88 -388 0
-260 -336 0
925 -1170 -47 -366 0
854 -719 -1202 -275 0
1512 -864 -255 -200 0
238 -622 -1546 0
547 -601 -222 -148 0
399 -1627 -1884 0
59 -250 0
1987 -809 0
-374 -964 0
-1578 -748 0
807 -1891 -1255 -1395 0
1327 -1135 0
683 -1591 -51 -180 0
491 -1316 0
-1563 -1979 0
1037 -724 0
1404 -1338 -1275 0
-769 -1274 -1922 0
74 -1931 0
933 -252 -31 0
1069 -948 -1248 0
65 -1610 -332 -1858 0
-1715 -888 -780 0
-1640 -944 -730 -612 0
857 -1171 0
-1380 -542 -474 -857 0
1588 -156 -1209 -776 0
123 -1873 0
1962 -91 -1302 0
1887 -1091 -176 0
1140 -1481 -1939 -281 0
-1126 -1730 -1778 -1716 0
1071 -18 -1520 0
9 -1108 -1956 0
1265 -654 -1449 0
-226 -370 -355 -276 0
724 -1478 0
1391 -100 0
1121 -178 -931 -418 0
365 -900 -760 -1728 0
-1310 -108 -74 -932 0
-166 -592 0
-1351 -308 -1015 0
-1976 -1425 -575 -290 0
250 -541 0
1918 -1840 0
1332 -685 0
-426 -340 -25 0
1541 -401 -1368 -1352 0
529 -866 -1492 0
1179 -1910 -1241 -843 0
1921 -906 -687 0
148 -918 -1215 0
613 -1026 -1280 0
-768 -1285 -1013 0
1967 -1607 -144 -1260 0
-1785 -1377 -16 -1073 0
-1085 -306 0
994 -1964 -884 0
852 -885 0
900 -321 -920 -1707 0
-618 -449 -1985 0
1810 -1974 0
1895 -1402 -1413 -872 0
1276 -1399 -75 0
-1853 -597 -1772 -755 0
50 -338 0
1761 -1865 -1375 0
761 -149 -1132 0
-1151 -1374 -1304 0
765 -167 -1039 -1598 0
573 -1462 -1287 -443 0
930 -586 -869 0
1684 -483 -1572 0
1637 -1312 -1275 0
152 -1356 0
604 -1175 -1635 -1265 0
490 -1118 0
-278 -685 -982 0
443 -1802 -266 -1969 0
918 -717 -1533 -1738 0
475 -1649 -1545 0
1418 -1245 0
353 -1828 -60 0
1505 -1652 0
558 -653 0
163 -549 0
-1097 -1100 -578 -1587 0
-1302 -1216 -730 -887 0
1937 -379 0
1938 -995 0
582 -305 -1088 -1902 0
-1235 -1570 -605 -3 0
1174 -1485 0
1008 -1828 -421 0
-1431 -1008 0
652 -1600 -952 0
-321 -582 0
1463 -1370 -1167 0
1983 -1490 0
442 -1633 -1762 0
521 -258 0
1632 -1860 -1621 -417 0
-1426 -572 -1947 -511 0
207 -1836 0
-578 -744 -1605 -1556 0
366 -1002 -977 -486 0
1241 -1001 0
1594 -706 -249 -208 0
-519 -221 0
1950 -1419 0
1670 -1287 0
-717 -1965 -209 0
-906 -1148 0
1448 -1010 -258 -1045 0
-1976 -779 0
1886 -1720 -738 -1701 0
417 -716 0
1353 -218 -1364 0
1440 -1199 -1647 0
1571 -1871 -157 0
1587 -503 -1114 -1126 0
946 -1337 -668 0
1360 -1304 -1502 -742 0
1392 -1116 -1999 0
-1717 -706 -1943 -1644 0
748 -1325 0
1234 -315 0
-1878 -408 -961 0
-824 -1159 -869 0
1469 -1743 -1959 0
788 -1398 -1665 -1458 0
1364 -862 -1553 0
1417 -620 0
-1595 -1551 -1027 -626 0
115 -1023 0
1422 -178 -992 0
1938 -1012 -1205 -1043 0
152 -874 -1377 -606 0
-1270 -67 0
-1712 -1799 -1196 -119 0
-1218 -117 -576 0
1971 -343 0
-872 -1387 -1846 0
96 -1439 -342 -699 0
-279 -1689 -1112 -1211 0
489 -1013 -1776 0
46 -263 0
510 -1694 -1876 -5 0
758 -755 -1131 -535 0
-1941 -661 -1540 0
827 -730 -1352 -1490 0
1802 -16 -558 0
1787 -704 -849 0
1966 -15 -1056 0
483 -454 -410 -879 0
1217 -666 -318 0
-541 -1691 -859 -1786 0
-33 -1871 -1057 0
784 -1885 -1591 0
-438 -1419 -948 0
-1293 -177 0
1594 -27 0
-1393 -1437 -101 -704 0
1848 -1601 0
1171 -311 -946 -1497 0
-642 -350 0
1312 -455 0
-863 -1331 -1350 -1698 0
-676 -1922 -1182 -354 0
1626 -438 -1375 -1568 0
431 -274 -783 0
326 -1227 0
360 -1741 -1563 -1703 0
143 -219 0
817 -37 -1227 0
842 -1677 -1618 -1393 0
-1254 -1179 -1274 0
1401 -210 -328 -142 0
1137 -1923 -1250 -1719 0
1625 -346 -1554 0
-1404 -807 -1187 0
610 -662 -296 -1978 0
1238 -1120 0
-214 -562 -1161 -162 0
-1933 -39 -184 0
1063 -961 -1688 0
1100 -1302 0
490 -199 -71 0
790 -1946 -928 -1129 0
806 -1781 0
1686 -496 -1346 -36 0
-382 -1080 0
506 -1741 0
-351 -1870 -558 0
1147 -545 -1370 -77 0
1015 -1515 -1467 0
-1297 -1481 0
-1439 -621 0
1066 -63 -658 0
1707 -506 -1727 -1967 0
751 -1372 -1557 -197 0
1626 -787 -205 -898 0
693 -785 -1323 0
-1463 -595 -1284 0
244 -1853 -671 0
1805 -475 0
876 -1726 0
-1713 -240 0
1560 -447 -1593 -71 0
1421 -219 -1667 -1933 0
1280 -1255 0
738 -1475 -424 0
-1229 -118 0
1705 -1786 -867 0
325 -410 -690 -1478 0
336 -268 -1862 0
-576 -525 -1268 0
-1197 -1617 0
1391 -646 0
590 -1828 -726 0
1359 -517 -921 0
-1515 -487 -605 -247 0
235 -1202 -479 0
1321 -1533 -929 -1467 0
70 -111 0
-1679 -786 -1228 -1366 0
1327 -54 -836 -1941 0
55 -651 -490 -67 0
1060 -198 0
-882 -970 0
1722 -1523 0
234 -527 0
1652 -1610 -1278 -1221 0
1971 -1144 -560 -157 0
190 -922 -309 -1040 0
-1015 -84 0
680 -662 -1825 0
-1861 -866 0
-635 -1885 -1569 -504 0
1332 -1522 -543 0
1737 -35 -186 -769 0
-1617 -564 -770 0
-1585 -954 -1021 0
-1086 -1441 0
373 -108 -1174 -1560 0
1716 -951 -1298 -1371 0
-915 -1833 -1520 -1273 0
1255 -829 -912 0
-1575 -1015 -1212 0
-778 -511 0
-1242 -580 -1135 0
176 -609 -845 -1091 0
-1104 -1380 0
-360 -22 -1154 0
1040 -249 0
-1205 -592 -524 -1726 0
1488 -1935 0
524 -987 -1018 -1150 0
-468 -556 0
1305 -471 0
468 -877 -1069 0
-1463 -680 0
1718 -159 0
1434 -1863 -1767 -1069 0
207 -1170 0
1219 -1139 -636 -969 0
1840 -607 0
1009 -102 0
-722 -44 -1001 0
1782 -1546 -714 -736 0
-1153 -864 -1617 0
605 -1500 -1990 -189 0
302 -1138 -327 0
-1958 -1358 -772 -1016 0
94 -1634 -564 -1628 0
1147 -1816 -1033 -1596 0
228 -854 -750 -1754 0
-725 -1795 -1432 -1942 0
-549 -209 0
1307 -1005 -850 0
1232 -48 0
1594 -1552 -461 -1701 0
1744 -1283 -1344 -116 0
-1682 -1111 -498 0
-684 -1433 -86 -305 0
575 -1755 -1140 0
-885 -1865 0
672 -570 -1235 -1851 0
1368 -1672 -1286 0
509 -831 0
-737 -813 -587 0
956 -1969 0
1456 -1990 -1985 0
1292 -1944 -929 -568 0
1215 -1068 -756 0
-1054 -532 -262 -1430 0
97 -821 -1962 0
165 -299 -254 0
-788 -809 -909 -1515 0
383 -1117 -813 0
1501 -937 -493 0
-126 -703 -147 0
1074 -1362 0
965 -1636 -1087 -508 0
1872 -1744 -672 -1919 0
1995 -1318 -1683 0
-586 -1136 -1775 -1025 0
1313 -1587 0
547 -722 0
999 -185 -1967 -1014 0
96 -1775 -1566 0
1183 -729 0
1172 -570 -1855 -1054 0
1151 -440 -1357 -1468 0
864 -1593 -427 0
-861 -995 -1109 -15 0
1526 -740 0
1334 -169 0
51 -804 -1261 0
563 -1382 -1471 -534 0
505 -1123 -153 -543 0
1255 -1619 -1564 0
1983 -890 -1492 0
1029 -1216 -1815 -1157 0
430 -1890 -1054 0
734 -881 -1968 -761 0
544 -251 -241 0
901 -1906 -151 0
-1516 -1968 0
-1185 -307 0
1926 -833 -1304 -1147 0
657 -591 -1884 -1889 0
-559 -1677 -313 0
-1904 -1634 -1488 -204 0
-36 -1314 -539 -569 0
537 -1195 -1039 -493 0
1514 -1947 -662 0
-711 -1932 0
609 -720 -893 0
1865 -1743 -433 0
-1555 -913 -1754 0
881 -304 0
-1926 -304 -1194 -1633 0
-713 -279 0
1782 -1760 -122 0
113 -232 -837 0
259 -989 -255 -311 0
-205 -623 -557 0
-28 -1480 0
789 -1673 -273 0
423 -1861 0
-770 -509 -791 -1912 0
1943 -546 0
230 -1438 0
1867 -395 -1527 0
-1914 -560 -1061 -1388 0
755 -733 -546 0
1111 -463 -1629 -1248 0
1525 -437 -1287 -1831 0
875 -1444 -1883 -863 0
925 -1918 -1503 -586 0
1538 -1348 0
166 -500 0
-1539 -1283 -1121 0
1078 -846 -3 -809 0
1068 -1997 0
-1655 -168 0
207 -424 0
-1270 -445 0
1507 -1292 -620 0
-872 -81 -646 0
219 -1740 -1001 0
205 -664 0
990 -910 -529 0
786 -599 0
-1647 -397 0
1739 -1996 -374 0
158 -614 -479 0
-1217 -6 0
79 -444 -375 -806 0
23 -224 -1596 -1151 0
138 -621 0
413 -772 -656 -254 0
883 -1453 -159 0
173 -1239 -1421 0
1839 -1230 -1275 -8 0
927 -787 -1533 -1438 0
-6 -264 -1539 -710 0
-1187 -420 -1105 0
-367 -1822 -348 0
1129 -910 -571 -649 0
-1276 -219 -1194 0
541 -604 0
774 -373 -1730 0
1326 -1074 -1010 -683 0
-633 -1020 -1230 -1201 0
-1699 -1242 0
-1597 -137 0
1921 -890 -53 -1966 0
1205 -1276 -780 0
-13 -1514 0
1903 -562 -305 0
1456 -561 -360 -1967 0
1699 -189 -1367 -766 0
-840 -1479 0
1764 -1814 -1830 0
-1562 -85 -20 0
-1945 -374 0
222 -1130 -1380 -64 0
-1970 -1945 -169 -940 0
108 -832 -1665 -265 0
-1623 -1399 0
1544 -81 -539 0
1158 -1444 -67 0
913 -1480 -725 -1570 0
102 -1969 -79 -422 0
993 -1346 0
1196 -373 -725 -864 0
-184 -389 0
763 -1135 -1199 0
1348 -31 0
-1342 -1965 -1239 0
406 -1263 0
-1059 -79 0
298 -1158 -439 -440 0
-310 -1637 -1134 -355 0
-1081 -253 -776 0
-1466 -1565 0
150 -510 -1986 0
693 -1700 0
957 -931 0
996 -391 -630 -692 0
667 -869 0
506 -215 0
-146 -1678 -810 0
103 -299 -1215 -452 0
1274 -252 0
892 -335 -131 -1961 0
1409 -1484 -383 0
-1134 -460 -396 -1069 0
1388 -1874 -1037 0
1368 -97 -1741 -778 0
219 -255 0
-1268 -633 -1185 0
-1690 -283 -1487 0
454 -1104 -278 -141 0
396 -1351 -1806 -1966 0
505 -163 0
493 -717 -1709 -1271 0
1375 -1500 0
317 -639 -668 0
1325 -1072 -1862 -109 0
1701 -1567 -690 -1743 0
261 -1798 -1611 0
44 -808 0
675 -1516 0
224 -240 -420 -298 0
1732 -640 -1421 0
1553 -294 0
-510 -934 -1589 0
250 -1635 -607 -1187 0
136 -1063 0
879 -1664 0
1742 -1178 -1386 -1946 0
-1269 -991 -992 -599 0
367 -645 -313 -949 0
-1079 -1601 0
1468 -922 -1239 0
1594 -268 -770 0
464 -439 -1665 0
-1368 -1682 -500 -243 0
-72 -1663 -493 -518 0
-1451 -1870 -1052 -33 0
455 -791 -735 -1840 0
-1728 -1795 0
986 -1488 -1242 0
1302 -1857 0
1021 -1323 -1961 0
1905 -354 -1043 -1530 0
-433 -392 0
1346 -278 -1651 -438 0
773 -469 0
-1913 -239 -1091 0
363 -1346 -416 0
-1814 -110 -1601 0
686 -1176 -1658 -264 0
1835 -1421 0
678 -432 0
-338 -1029 -1521 -353 0
-1330 -948 0
-1787 -479 -36 0
730 -1112 0
1266 -725 0
928 -926 -556 -1061 0
1448 -1881 0
-752 -1665 -502 0
1497 -1918 -689 0
845 -1550 -1310 0
637 -28 -40 0
-921 -1539 -591 -1947 0
-809 -2 -275 0
825 -632 -1412 0
310 -1112 0
1544 -1601 0
140 -1518 -1455 0
1654 -446 0
337 -1900 0
838 -1656 -714 -520 0
781 -1321 -1466 0
1716 -617 -1920 -787 0
-287 -1396 -781 -1989 0
1649 -1338 0
1564 -1295 -384 -169 0
1412 -1323 0
1717 -1044 0
358 -683 -459 0
-981 -1069 -1460 0
1870 -556 0
-1070 -738 0
430 -205 -546 -399 0
-596 -154 -875 0
790 -17 0
1238 -961 -1628 -356 0
-862 -672 -1830 -1827 0
555 -317 -1499 0
482 -1116 -573 0
-1141 -1361 -28 0
968 -1297 -760 0
-1278 -843 -544 0
-1003 -1646 0
-657 -998 -817 -1021 0
19 -1774 -1000 -1300 0
399 -142 -1483 -1717 0
555 -1587 -1091 -1246 0
561 -348 -134 0
1985 -900 0
910 -1461 -625 0
369 -1609 0
72 -1267 0
990 -1063 0
-1713 -360 0
1387 -138 -1722 0
-373 -1805 0
1303 -934 0
-1130 -1819 0
434 -1956 0
-383 -762 -1636 -1009 0
773 -205 0
1427 -1356 0
-776 -1211 -1746 0
651 -628 0
495 -429 0
431 -1171 0
35 -467 -1096 -1925 0
1785 -992 -1717 0
707 -1129 -991 0
1297 -641 -1784 0
-1101 -1161 0
277 -1332 -395 -822 0
291 -1257 0
988 -23 -712 -221 0
1122 -74 0
1916 -1790 -225 -629 0
1610 -1144 0
-870 -146 -967 0
312 -1325 0
-1490 -727 0
1484 -1998 -900 -636 0
52 -1040 0
1469 -709 -1077 -1713 0
-1235 -1465 0
868 -1560 0
1757 -1936 -865 -620 0
1896 -1331 -546 -916 0
612 -1320 -109 0
-1893 -1200 -1843 0
-1023 -1945 -1918 0
1654 -215 0
394 -1541 -1830 -292 0
1230 -1280 0
1826 -1865 -1979 -655 0
-642 -1404 0
1976 -229 -1296 -1418 0
-725 -741 -231 0
1966 -1630 -174 0
1915 -284 -933 -230 0
-31 -569 0
-1557 -1567 -884 0
1531 -198 0
616 -1094 -1939 -469 0
1087 -842 -1499 -1031 0
1620 -1571 -1833 -429 0
1740 -172 -272 -84 0
528 -32 -31 0
-465 -1409 -1940 -1027 0
1216 -1420 -862 0
651 -1412 -1843 0
670 -1979 -488 -1888 0
1728 -1076 0
412 -125 -920 -1346 0
-1015 -706 0
1886 -1983 0
1760 -1152 0
-1982 -908 0
-1439 -859 -1234 0
913 -160 0
-554 -1521 -1918 0
1585 -1631 0
-65 -282 -1895 0
999 -183 -921 0
1338 -1917 -79 0
-1295 -484 -1771 0
-1108 -300 0
-467 -191 -1292 0
-624 -422 0
1391 -1352 -997 -1756 0
-78 -94 -949 0
1348 -659 -1917 0
1633 -329 -1451 0
160 -603 -573 0
506 -714 0
384 -112 -1546 0
926 -1180 -62 -658 0
71 -1887 -1290 -829 0
1284 -1677 -688 -1796 0
1499 -1229 -774 0
1895 -346 -1163 0
255 -24 -1069 0
1736 -539 -511 0
1211 -1318 -1446 0
1037 -749 -1163 -1423 0
1761 -1657 -544 -485 0
1251 -1403 -1821 0
397 -1848 0
-543 -191 0
1044 -1718 0
164 -278 -932 0
605 -201 -106 0
-923 -664 -681 -723 0
1138 -336 0
1108 -1472 0
763 -1682 -1453 0
-1819 -1428 -88 -1091 0
-1248 -1521 0
998 -36 -1743 -15 0
393 -816 -242 0
1908 -328 -419 0
1290 -1154 -1776 0
353 -708 0
-1006 -1792 -1787 0
624 -827 -817 -1551 0
917 -550 0
-1108 -953 -1253 -1937 0
1644 -1660 0
-324 -1952 -1921 0
-844 -659 -164 0
1907 -1883 -657 -901 0
449 -1271 -863 -497 0
1863 -349 -865 -737 0
-1159 -492 0
1758 -1959 0
-1722 -1087 -1618 0
1010 -1426 -866 0
1123 -399 -1108 -63 0
1274 -196 0
1031 -1069 -632 -808 0
1816 -82 -1153 -1363 0
1529 -724 -479 0
1331 -1373 -343 -1885 0
1566 -1711 -467 -264 0
1402 -1698 -1765 0
982 -519 0
1269 -229 0
931 -1059 -1251 -604 0
-633 -1731 0
610 -1226 0
1402 -825 -1840 -1209 0
814 -177 -1672 -662 0
526 -722 0
1407 -491 -738 -1626 0
373 -870 -625 -1809 0
-1115 -935 -139 -1072 0
1653 -520 -429 -533 0
797 -279 0
1811 -1934 -597 -361 0
1156 -1833 -1471 -1550 0
1622 -1970 -88 -1819 0
740 -1582 0
773 -1779 -701 0
678 -1627 0
478 -1657 0
-1822 -1998 -501 0
1669 -1226 -1635 -141 0
577 -1874 -756 0
1329 -605 -1466 -1317 0
-142 -1102 -786 -713 0
264 -1788 -1539 -708 0
245 -1975 0
702 -1130 -600 0
419 -1294 -179 -1509 0
1338 -1578 0
796 -1633 -436 -611 0
272 -1862 0
-931 -1797 0
887 -1249 0
1310 -511 0
930 -227 -1354 -516 0
-1381 -1694 -131 0
916 -882 0
1940 -1261 0
1106 -1758 -111 -1306 0
275 -294 -1274 0
-134 -1177 -1819 0
1771 -1029 0
716 -322 -1630 0
-752 -1339 0
1031 -799 -183 -1843 0
-265 -836 -214 -1787 0
656 -1386 -67 -1899 0
13 -1960 -243 0
1082 -366 0
1460 -517 0
518 -517 0
-1658 -1960 -60 0
1624 -419 -1714 0
138 -1811 -1449 -711 0
1037 -1635 0
1072 -194 -228 -1200 0
1203 -642 0
-1546 -1543 -1715 -1322 0
-251 -34 -1099 0
1880 -431 0
1044 -1135 -378 0
1576 -164 -895 -1947 0
919 -328 0
1628 -1818 -328 0
1747 -1808 -1463 0
996 -746 -1250 0
-1825 -1716 0
1858 -1342 -1183 0
300 -437 -924 -705 0
577 -1624 0
1017 -935 -876 -436 0
-1360 -142 -445 0
-45 -1911 -238 0
1403 -1751 0
745 -551 0
349 -1488 -345 -366 0
1979 -1065 0
-1191 -667 0
-122 -1649 -674 -139 0
1839 -1222 -596 -1516 0
1106 -131 -352 -973 0
1479 -27 0
629 -89 -218 0
1324 -1402 0
-946 -469 -1324 0
1481 -1752 0
1433 -553 0
58 -1947 -682 0
692 -630 -1207 -311 0
-1074 -59 -1631 0
-1975 -1469 -269 -1656 0
1522 -333 0
1669 -1873 -792 -264 0
1146 -16 -291 0
555 -213 0
-1315 -1779 -188 -918 0
-1456 -1906 -513 0
-899 -1770 -484 -348 0
554 -176 0
1024 -317 -175 -90 0
746 -2000 0
796 -1064 0
1709 -685 -826 -789 0
-1700 -84 -92 -134 0
331 -1861 -198 -1139 0
1870 -732 0
1312 -1437 0
-1382 -344 -115 -561 0
123 -1514 -711 -159 0
1215 -1832 -1498 0
924 -286 0
1426 -1694 -341 -1206 0
1537 -699 -117 0
-1868 -1745 -1965 -402 0
-82 -1355 -91 -1516 0
-713 -393 -1600 -1422 0
-999 -1596 -123 -1878 0
274 -342 0
163 -447 0
175 -613 0
594 -287 -1393 -1567 0
1943 -683 -1166 -221 0
1802 -466 -1812 -1881 0
-547 -1789 -1251 0
1597 -651 -1049 0
1260 -48 -236 0
1179 -1039 -1807 -892 0
712 -338 0
1060 -1577 -509 0
528 -790 -800 0
1696 -1400 -177 0
293 -1079 -1150 -1516 0
566 -1267 -1167 -1068 0
898 -1206 0
1126 -1796 -1555 0
1772 -496 -631 0
-184 -405 -1654 0
1204 -1466 0
-597 -1421 -107 -1194 0
336 -529 0
217 -1742 -1879 0
-1864 -1788 -1968 0
918 -1015 -561 0
961 -811 0
1577 -1227 -957 -719 0
-95 -1229 -352 0
-715 -453 -371 -251 0
986 -36 -607 0
831 -600 -1486 0
1579 -1837 -755 0
1448 -182 -1148 -1205 0
1735 -1663 -518 -1954 0
-1181 -1411 0
-1860 -268 -920 0
-477 -1331 -892 -280 0
718 -1630 0
1301 -838 0
990 -699 -991 -524 0
167 -235 -228 0
595 -837 0
-121 -771 -169 -97 0
-87 -1545 0
-1011 -1729 -1558 0
1936 -349 -1573 -748 0
380 -12 -1028 -1207 0
873 -1825 -206 0
1843 -1580 0
250 -820 -81 -1024 0
755 -1573 0
-1074 -1650 -1038 0
-905 -931 -5 0
1114 -1305 -897 -1135 0
1367 -157 0
-1594 -981 -632 -143 0
1968 -644 0
571 -263 -1640 0
313 -1586 -759 -1314 0
-111 -1647 -577 0
-1040 -153 -1593 0
1381 -1269 -1585 0
-1035 -1208 0
88 -339 -637 -1708 0
1116 -1645 -691 0
1315 -669 -1296 0
1671 -551 -348 -1123 0
219 -1818 -957 0
1869 -1737 -1676 0
-839 -831 -1866 0
-55 -469 -1461 -1904 0
1543 -1345 0
1023 -362 -534 0
-1145 -76 -1450 -1017 0
914 -1374 -1462 -387 0
1444 -86 0
1327 -787 0
1588 -1840 0
1264 -67 -1487 -636 0
646 -1200 0
801 -423 0
79 -1346 -1375 0
901 -1732 0
1496 -1333 0
-858 -622 0
-1130 -636 0
1600 -1773 -1535 0
103 -1536 -1431 -388 0
278 -1551 -54 0
1777 -1373 0
1123 -670 -121 -420 0
902 -88 -1950 0
775 -1888 -1611 -1884 0
810 -272 -748 -861 0
1215 -1840 -1819 0
1641 -474 0
-1035 -975 -552 -1908 0
-27 -589 0
508 -393 0
160 -297 -1401 -1818 0
716 -1559 -1529 0
214 -1068 -1335 -1601 0
394 -292 -1984 0
1664 -1989 -1282 -1993 0
308 -1700 -1520 -1787 0
1517 -401 -1617 0
1 -380 -356 -1551 0
49 -1817 -1475 -1199 0
-334 -182 -1919 0
1990 -168 0
-565 -597 0
1384 -136 -1951 -412 0
776 -300 0
66 -1239 -1117 -1905 0
-382 -744 0
1611 -1238 -740 -702 0
1793 -536 -605 0
99 -461 -1759 -293 0
-1585 -1707 -1400 -1528 0
1707 -545 -1811 -1104 0
1178 -1941 0
170 -51 -1998 -70 0
842 -1315 0
502 -107 -1948 -959 0
-628 -230 0
201 -1591 0
-1046 -635 0
1034 -590 -1725 0
49 -1627 -652 -1055 0
-343 -58 0
1340 -516 -1873 0
-140 -506 0
541 -446 0
-1762 -511 -309 -1107 0
1044 -950 0
682 -377 -333 0
86 -1690 -273 0
-1178 -1552 -1934 0
1913 -1051 -1355 -1491 0
1337 -300 -1388 0
1532 -286 0
1431 -984 0
135 -104 -454 0
-1285 -1688 -1145 0
-319 -382 -1830 -1588 0
349 -1437 -1375 0
1626 -509 -1112 0
1898 -1968 0
1422 -877 0
1729 -44 0
138 -603 -1223 -1341 0
-1128 -431 0
574 -272 0
1121 -581 -40 -758 0
1994 -628 -988 0
1702 -1579 -685 -520 0
826 -324 -974 -1174 0
-930 -1438 0
524 -1264 0
1988 -653 -927 0
-518 -1797 -1547 0
1659 -587 0
294 -44 -572 0
312 -96 -520 0
637 -1226 -1463 -297 0
570 -1290 0
-1070 -1035 -1839 0
979 -1470 -1747 -42 0
1943 -837 0
-199 -798 -788 -1805 0
-418 -475 0
5 -451 0
1392 -1881 0
1024 -1066 -811 -1274 0
1695 -1906 -1553 -1487 0
477 -472 0
351 -741 0
1564 -1184 -1691 0
145 -1849 -265 0
94 -10 -1142 0
1701 -560 -1059 -551 0
332 -1341 -690 0
529 -430 0
1251 -762 -406 -1589 0
905 -856 -887 -1578 0
1235 -1409 -405 -127 0
1511 -1047 -1598 -1699 0
377 -1896 -926 -187 0
1915 -903 0
1247 -1869 -453 -1651 0
-671 -1932 -533 0
1869 -62 -178 -971 0
1606 -1949 0
1570 -920 -930 -800 0
1168 -1438 -1676 -1136 0
1377 -1366 -1060 -761 0
-972 -1818 -1626 0
1229 -1251 0
533 -124 -1828 -1013 0
412 -462 -1174 0
-248 -489 0
-641 -1669 0
-885 -1288 0
371 -1214 -1982 0
1591 -549 0
840 -1291 -1483 -359 0
1493 -616 -324 0
-783 -637 -1892 -1925 0
-1433 -946 0
570 -910 -719 -1880 0
324 -1480 0
1141 -421 -542 0
183 -717 -859 -491 0
959 -105 -228 -1973 0
61 -839 -291 -1994 0
-179 -859 -623 -1236 0
-474 -1405 -1723 -1718 0
383 -314 0
-1677 -757 -1682 0
-1269 -427 -638 -888 0
-1188 -854 0
-1551 -248 -1299 0
791 -911 -1707 0
-450 -1108 -551 0
1523 -1451 -827 -959 0
1857 -661 -61 -465 0
1238 -992 -981 -1321 0
-681 -1907 0
1264 -1050 -858 0
1009 -113 0
-603 -792 0
1108 -256 -1630 0
695 -776 -969 -641 0
-160 -1127 -864 0
-330 -1045 -1028 0
1517 -1031 0
791 -1349 0
1046 -1623 -1677 0
1299 -896 0
2000 -323 0
176 -424 -1293 0
612 -1061 -22 -687 0
1524 -1681 0
-1125 -941 -947 -1879 0
137 -1226 -242 -1597 0
151 -1303 -1601 -1715 0
843 -1572 -913 0
-40 -728 -1147 0
-1254 -164 0
-1878 -584 0
140 -1827 0
445 -1763 -786 -999 0
1334 -1431 -1000 0
1990 -1375 -509 -1180 0
-1477 -538 -789 0
-1000 -1607 0
1125 -1197 -795 -906 0
667 -1367 0
1490 -1475 -1412 -1933 0
-1050 -122 -1979 0
1454 -1973 -1453 -393 0
585 -1873 0
912 -779 -184 -918 0
1747 -120 -1927 0
902 -736 0
1594 -991 -106 -1903 0
-1264 -169 -338 0
1241 -158 -639 -1327 0
-571 -1890 -1321 0
1000 -1675 0
899 -681 -707 -1531 0
2 -76 0
268 -615 0
509 -191 -1997 0
401 -1649 -783 0
1473 -1054 0
-1590 -187 0
354 -1352 -181 -1460 0
1124 -599 -1440 0
-1294 -946 -916 0
181 -751 -1142 0
778 -345 -447 -1705 0
685 -698 0
1445 -573 0
170 -61 0
-1152 -685 -1004 0
1690 -707 -333 -477 0
521 -1903 0
702 -1613 0
-1731 -447 0
-1082 -1866 0
342 -1370 -531 0
-1780 -1762 0
-1662 -941 -1010 0
-1665 -1088 -718 -1277 0
834 -615 -1432 0
-694 -622 -216 -388 0
1933 -690 -1157 -576 0
1548 -663 0
-1913 -804 -666 -1568 0
298 -1194 -1914 -1433 0
483 -1516 -1928 -26 0
-1228 -479 -1691 0
-1061 -983 0
1224 -299 -1014 -1661 0
-341 -1863 0
999 -390 -1011 0
696 -1924 -211 0
1411 -72 0
-1775 -757 -1993 -15 0
-1182 -1387 0
276 -112 -603 0
1540 -1560 -1302 -1508 0
378 -1272 -1441 0
111 -262 -483 -1181 0
767 -1508 -337 0
1921 -607 0
-891 -59 -313 0
90 -1505 -382 -1198 0
-549 -159 -1895 -1369 0
1211 -1996 -389 -440 0
50 -56 -1014 0
-272 -1464 -1450 0
1906 -873 -767 -1728 0
1261 -817 -259 -1929 0
1344 -665 0
-875 -392 0
-700 -8 -619 0
1758 -381 0
-194 -1053 0
1056 -227 -793 0
1526 -1062 0
986 -777 -595 -1092 0
-1277 -1239 -484 -991 0
-530 -107 -818 -1763 0
1642 -1655 0
795 -536 -1661 0
1109 -1047 -334 0
871 -683 -1539 -840 0
-1418 -824 -712 0
751 -1869 -1573 0
-1061 -448 -1936 -1298 0
1881 -356 -1096 0
1546 -1028 0
1895 -1111 -1899 0
1535 -292 0
-1055 -1810 -661 0
1373 -1456 -452 0
938 -1189 -909 -905 0
777 -1211 0
-1355 -1407 -813 0
1312 -1782 -189 0
968 -382 -404 -902 0
1584 -1957 0
776 -163 -1836 0
439 -1723 0
1477 -1939 -1117 -1160 0
638 -1795 -982 0
-748 -1761 -1563 0
1799 -207 0
1346 -899 -30 0
-481 -762 -1883 0
868 -1314 -1058 0
1930 -480 -42 -1719 0
1716 -1973 0
526 -427 -1803 0
544 -452 0
670 -1793 -623 0
1490 -1455 -1081 -1889 0
-224 -533 -68 -805 0
56 -381 -1093 0
1757 -884 -209 0
-1137 -1873 0
921 -1216 -388 -1366 0
-318 -260 -208 -593 0
254 -1966 -1142 0
-298 -1458 -1404 0
263 -630 -1438 0
1861 -1311 -1048 0
1359 -261 -1577 0
714 -337 -1659 -771 0
-1384 -1620 -1473 0
1704 -347 0
913 -1336 -1007 0
74 -1375 -157 -1842 0
-417 -1381 0
114 -424 -363 0
1134 -477 -1562 0
1760 -750 -255 -1148 0
1780 -654 0
163 -686 0
-747 -1722 -921 0
1726 -561 -987 -844 0
1856 -334 -1582 -1130 0
-1985 -1697 -676 -850 0
-1794 -1969 0
725 -758 -1154 0
317 -1760 -1534 0
-1497 -1117 -1282 0
906 -174 0
866 -1273 -1511 0
1342 -619 -1350 -1900 0
1154 -1163 -1439 -519 0
-1535 -1265 0
1189 -1677 0
1071 -53 0
1784 -386 0
688 -839 -1198 -1696 0
1902 -533 -972 0
1782 -1439 -390 -1355 0
1129 -894 -220 0
-634 -869 -855 -1020 0
-171 -1258 0
991 -1292 -815 0
359 -881 0
1514 -1470 -991 0
1297 -1916 -633 -803 0
641 -1736 -1088 0
-738 -662 0
-951 -966 0
1681 -1859 -1381 0
1069 -1082 -300 -839 0
691 -1030 -538 0
374 -1326 -713 -638 0
912 -295 -96 -1183 0
307 -1786 -1218 0
-1027 -1681 0
-439 -768 0
1936 -1455 0
1959 -1313 -1615 -177 0
-602 -1347 0
-1399 -96 -674 -694 0
-1221 -304 -1965 0
977 -912 0
-832 -1784 -478 0
-1401 -1557 0
68 -263 -196 0
-210 -1793 0
1342 -1846 -1547 0
383 -193 -1978 -761 0
1001 -843 -1469 -36 0
263 -918 -1521 0
202 -1736 0
35 -353 -1912 -427 0
906 -143 -1782 0
440 -808 -129 -434 0
-893 -494 -1546 0
1134 -1125 -869 -1082 0
-63 -675 -1444 -1635 0
