c Horn formula (polynomial-time solvable)
c 4000 variables, 10000 clauses
p cnf 4000 10000
2858 -1458 -1794 0
3138 -43 -2950 -2889 0
1498 -1458 -2785 -3338 0
2120 -3413 -1829 0
3688 -3322 -2296 0
-765 -2201 -2049 0
-541 -737 -3154 -3609 0
3561 -1029 -636 0
354 -2796 -538 0
-167 -1163 -3589 0
703 -3840 -1640 -1814 0
3 -2362 -188 -3256 0
-2627 -3247 -3166 0
-2566 -1552 -1850 -1752 0
2301 -682 -3879 0
867 -3452 -3428 -3292 0
3419 -868 -414 -2756 0
3664 -986 -2246 -94 0
-2210 -1266 -3352 -539 0
453 -2054 -301 -2728 0
-220 -1938 -626 -704 0
952 -843 -3721 0
-1746 -572 -917 0
244 -3571 -2305 0
1890 -2205 -3150 0
1098 -88 -1394 -627 0
2397 -2067 -2218 -2757 0
-1167 -3011 -1900 0
489 -551 0
1290 -1400 -3900 0
-3735 -142 -339 -3523 0
-3827 -3993 -2836 0
1964 -2484 -2763 -314 0
543 -1162 0
3700 -3914 -585 -435 0
2624 -2837 0
3277 -910 -739 -1145 0
3771 -3718 -3124 -3005 0
1136 -1049 -3789 -3808 0
-3057 -1803 -2016 0
675 -1144 0
-26 -785 -505 0
931 -3774 -1612 -749 0
3897 -1066 0
3592 -3632 -3608 0
-258 -2096 -1924 0
2882 -3004 -2828 0
3531 -3372 0
1212 -275 -1040 -3886 0
3983 -1807 0
124 -1028 -1324 -2260 0
-1708 -3067 -3280 -1724 0
3503 -3087 0
1049 -1035 -2514 0
1689 -1105 -3319 -3376 0
3742 -2071 -3894 -496 0
3634 -2977 0
-718 -2501 -3692 0
3539 -2358 0
3362 -2219 -2311 -956 0
1539 -3853 0
-1069 -1238 -765 0
2179 -672 -3797 0
975 -2698 -3126 0
2252 -2966 0
780 -1162 0
2310 -1007 -1236 -2238 0
916 -1174 0
3929 -1083 -3032 -2978 0
766 -1460 0
1136 -524 -1191 -792 0
2550 -2573 -2992 -1397 0
1805 -859 0
-244 -1633 0
1450 -2588 -724 0
1895 -1646 -643 -2731 0
2199 -217 -1537 0
-2551 -1302 -1005 -2528 0
954 -652 -3314 0
164 -3902 -1598 0
3857 -980 -1628 -2725 0
1660 -1418 -2999 -1653 0
-2383 -2849 0
-2400 -3037 -3700 0
-1504 -3509 0
528 -1306 0
-390 -566 -927 -2613 0
2831 -2239 -2280 0
-3422 -2819 0
382 -2893 -3129 -3856 0
832 -1926 -3718 -2178 0
1577 -3686 0
-2990 -270 -3634 -823 0
238 -344 -3742 0
-1122 -2288 0
3304 -2988 -3858 -3789 0
3205 -2543 -1272 0
472 -3703 0
3034 -1156 -923 -2890 0
1886 -1897 -757 0
-2502 -3453 -3765 0
-3401 -2720 0
2747 -242 -3843 -3204 0
2200 -864 -526 -2826 0
103 -2499 -3347 0
3417 -3006 -3008 -660 0
-1593 -681 -2668 -520 0
1326 -2298 0
-1665 -2636 -2132 0
1942 -2533 -56 0
-3425 -1164 0
1772 -3209 -645 0
1316 -518 -3549 -323 0
2452 -3779 -2072 -1486 0
-3448 -3318 -2507 0
1426 -3715 0
2190 -497 -1724 -2547 0
-2125 -3004 -2895 -3811 0
2914 -3336 -3515 0
1530 -3806 -1633 -215 0
1682 -1877 0
1792 -3066 0
-3769 -3400 -3968 0
-1430 -2293 -1506 0
713 -3459 0
-52 -878 -3101 0
3522 -3125 -2082 0
-2482 -1432 0
861 -1343 -549 -3833 0
3990 -2976 -2202 -3151 0
1368 -2788 0
3254 -442 -2643 0
-417 -1539 0
3330 -1869 0
1640 -1610 -1572 -3064 0
-3405 -3692 0
1355 -3141 -175 -3344 0
3030 -432 -2625 0
3862 -3219 -1671 0
468 -3276 -763 -2953 0
920 -1385 -3131 0
3357 -3922 -1802 0
2647 -1961 -659 0
-2997 -12 -3811 0
2697 -1220 -1911 0
205 -946 -1299 -170 0
836 -2960 0
-3809 -345 -3307 -2105 0
-2635 -1696 0
-1933 -3379 0
1774 -493 -3029 -21 0
-420 -2263 -3609 0
578 -532 -3367 -3050 0
3026 -408 0
-2674 -1543 -2282 -750 0
753 -2396 0
-2422 -1348 0
-345 -1775 -118 0
-3674 -511 0
1538 -1137 -3645 0
2747 -633 -811 -1424 0
3829 -1206 -416 -116 0
3961 -3895 -3063 0
164 -3210 0
-167 -2526 -199 0
250 -2152 -2913 -3956 0
3487 -1238 -710 -3186 0
1572 -1203 0
-91 -1607 -704 0
2153 -304 -1343 0
2061 -1730 -716 -3577 0
-1857 -584 -1234 -463 0
-53 -1732 0
3301 -2788 -1280 -1058 0
-2275 -1761 -3726 -3313 0
403 -317 -3827 0
3779 -1256 0
-3233 -2966 0
-3317 -1004 -1265 -247 0
891 -1055 -590 -2318 0
2629 -1447 0
2817 -3275 0
-246 -696 -3939 -3557 0
-1473 -216 -34 0
2699 -84 -1647 0
877 -1609 0
640 -468 -1712 -3483 0
-2820 -820 -167 -1417 0
1892 -2217 -2657 -2523 0
-2509 -438 -3770 0
789 -3876 0
14 -3831 0
2025 -1081 0
-2959 -163 -2867 -2413 0
-1887 -2899 0
2496 -1474 -1365 0
-1987 -167 -2730 -1740 0
-1491 -754 -1318 0
-3570 -1590 0
3055 -591 -3060 0
-883 -2521 -1811 0
226 -2291 -2281 0
821 -1335 0
-2863 -468 -3021 0
2185 -3058 -3104 0
1835 -2534 -294 -3736 0
2964 -3983 -2324 0
3565 -1921 -2924 0
-1697 -3242 -1130 0
341 -2988 0
3939 -2734 -2646 -452 0
709 -2438 -2442 0
856 -1268 -1017 -2926 0
-2295 -2231 0
241 -3059 -3883 0
-582 -2386 0
259 -1987 -1760 -2548 0
1940 -857 0
1105 -2848 -3072 0
-3483 -2498 -1984 -1087 0
-1120 -2203 -998 0
3697 -239 0
-3048 -2669 -3290 -1530 0
856 -1990 0
161 -69 -2239 -126 0
2442 -3296 -332 0
-2767 -587 0
170 -3355 -991 -3122 0
27 -623 -1326 0
-1815 -3601 0
-2388 -1137 -1475 -3266 0
2392 -227 -2383 -928 0
2095 -1240 -3442 -479 0
559 -3764 -1286 -2500 0
-2942 -591 0
1306 -3971 -1794 -133 0
3954 -875 -97 0
2955 -808 -1261 0
1280 -2473 -2654 -3437 0
1212 -2705 -308 -3452 0
1776 -3939 -2673 0
2870 -2818 -2937 0
-3202 -464 -1254 0
1087 -3791 -2368 -275 0
-1529 -3591 -3227 0
2954 -1908 0
3518 -650 -3200 0
-1327 -3463 -2551 0
-1903 -3386 0
-2719 -372 -667 -831 0
2 -2288 -3758 -1018 0
3690 -2731 -483 -986 0
3006 -2686 -1590 -174 0
1635 -3704 0
405 -3870 -104 0
750 -3003 -3901 0
193 -1687 0
215 -1100 -3936 0
370 -2408 -2647 -2206 0
-428 -3795 -3742 0
2658 -2035 -360 -2399 0
2948 -752 0
2000 -788 -2935 -3366 0
-319 -34 -3997 -3467 0
-3586 -3884 0
1520 -1527 -1373 -1995 0
369 -3815 0
-2666 -612 -3772 0
-2767 -2431 -1546 -1906 0
-1458 -315 0
478 -3856 -2471 0
2879 -3552 -1812 -3722 0
161 -2647 -3041 -3720 0
1632 -3538 -1848 -32 0
-1809 -555 -2652 -322 0
-3270 -1427 0
-3451 -3998 -3317 0
1135 -3434 0
-3634 -3983 -798 -3092 0
-2481 -341 -115 0
-3666 -3011 -1927 -1811 0
976 -3845 -2255 0
3349 -303 -3969 -1826 0
3293 -3581 -2082 0
-2373 -2537 -477 0
2044 -227 0
-3493 -2245 -2169 -3180 0
3148 -1052 -341 0
2014 -2176 -476 -1391 0
2741 -3924 -1319 0
3391 -3478 0
-796 -1187 0
1588 -201 0
-1537 -2454 -3647 -3193 0
1843 -576 0
2476 -2685 -726 -2046 0
-270 -2698 -1754 -2369 0
1726 -2615 -937 -1070 0
-1499 -1909 -1878 -2475 0
2611 -1606 0
415 -1305 -1996 0
3255 -222 -120 -2650 0
-3476 -3966 -146 0
-2748 -2555 0
2172 -1749 -2166 -2823 0
3166 -3768 0
3929 -503 -3202 0
-1649 -3118 0
1936 -3061 -3287 -3694 0
2640 -1485 -59 -2995 0
846 -3531 0
734 -3768 -533 -2599 0
21 -142 0
-53 -3573 -375 0
3198 -2373 0
3920 -3383 -3215 -139 0
2505 -3110 -2491 0
2596 -1266 -763 -2094 0
177 -1376 -2622 -2494 0
3374 -3034 0
-1653 -1327 -706 -1046 0
-1596 -2421 0
488 -3070 -2624 -404 0
1203 -3311 -2505 -3557 0
2209 -2525 0
-63 -529 0
2801 -257 -1881 -3478 0
592 -723 -2911 0
-538 -3784 -2374 -740 0
3078 -1297 -2042 0
3983 -1048 -3258 0
3559 -377 -1998 -1539 0
-259 -453 -2211 0
3901 -3145 -3612 0
-2653 -2697 -392 -1699 0
548 -1971 -82 0
3059 -76 0
1807 -1606 -243 0
2298 -2191 0
3064 -2961 -3983 0
3820 -3918 -2275 -2725 0
2930 -1725 -127 0
2111 -3281 0
2912 -1676 0
1728 -959 -1314 0
3575 -680 0
1153 -1003 0
1220 -3392 0
339 -3369 -2027 -2108 0
1009 -803 0
-192 -3426 0
2352 -2799 -1374 -2113 0
3751 -20 -3462 -624 0
2224 -3251 -3823 0
2993 -3718 -1802 0
1977 -1383 -3568 0
2548 -3647 -166 -1809 0
2032 -2126 -3311 0
-2618 -2325 -3378 0
-871 -984 -44 -3855 0
-3517 -1027 0
-1566 -3869 -2648 0
3346 -1239 -2525 0
2697 -3988 0
-148 -1597 0
3898 -2050 -1691 0
840 -723 -1668 0
167 -2490 -1684 -2128 0
-459 -2791 0
1674 -210 0
282 -1343 -593 -3258 0
-1695 -1314 -71 -1361 0
3352 -1688 -558 0
2009 -2893 0
315 -528 -791 0
3218 -3618 -1225 -619 0
2336 -3354 -2017 -1359 0
225 -1320 -3234 0
1104 -1407 -642 0
-1965 -48 -2210 -1223 0
527 -2317 -3601 -2398 0
1216 -88 -3867 -1814 0
2313 -1536 0
3420 -3622 0
-921 -3632 0
-2948 -3447 -677 -1339 0
1587 -33 0
3510 -164 -974 0
670 -1335 -1063 -554 0
2313 -2677 -612 0
2271 -2628 0
-553 -3046 -2224 -2289 0
-16 -2795 -1817 -481 0
2837 -2450 0
-3743 -3118 -140 -190 0
468 -312 -1036 0
959 -1038 -884 -641 0
-407 -2081 -1374 0
240 -2596 -1962 0
2414 -523 -1660 -3149 0
3793 -3898 -2409 0
3378 -1992 -2652 -1519 0
2917 -3010 -840 0
1321 -2110 0
1514 -2575 0
2015 -1865 0
964 -2361 0
113 -747 -1274 -3009 0
1967 -1770 -822 0
3894 -2603 -553 -3741 0
-3598 -2422 0
2802 -3929 0
1298 -2954 -2793 0
1322 -1891 0
2754 -2552 0
3456 -2796 -173 -1486 0
-2280 -3147 -1287 0
3663 -263 -2517 -395 0
1934 -1951 -2303 -3459 0
681 -2538 -207 0
475 -2164 0
1953 -2452 -3725 0
-2010 -3927 -3126 0
-2654 -3193 -457 -3694 0
3593 -1588 -2680 0
431 -1839 -1997 -1346 0
1653 -3095 -2546 -1087 0
-2894 -3188 -1616 -81 0
-1171 -3968 -1626 0
3113 -2578 0
50 -3568 -2404 0
152 -2739 0
138 -80 -2505 0
-1281 -2666 -1410 0
3932 -2690 -1771 -593 0
1469 -3631 -2723 0
-721 -2205 0
2389 -1685 0
2724 -376 0
314 -711 -2440 0
3974 -3292 -1060 0
-3603 -2258 -466 0
1464 -1222 0
6 -3161 -1769 -1993 0
2189 -348 -2576 -594 0
-2706 -3182 -3649 -2988 0
2740 -3972 -1682 0
1478 -3829 0
-2084 -1299 -410 0
-1108 -1753 -1633 0
1433 -3161 -3560 -362 0
-3061 -1834 -2021 0
992 -3905 -1060 -2723 0
2974 -366 -1372 0
646 -3844 0
1272 -1845 -1498 -3472 0
2783 -1680 -2929 0
3895 -844 -3125 0
2911 -43 -1490 -439 0
-3433 -2899 -795 -483 0
2084 -811 0
-1732 -3065 0
701 -3032 0
-863 -926 0
2391 -447 -1294 -3180 0
-2020 -556 -367 0
-2742 -39 -3597 -1970 0
335 -1893 -382 0
-598 -2511 0
-2940 -1036 -910 -959 0
-1970 -3131 0
2637 -1649 -2467 -741 0
-2578 -21 0
1514 -1706 0
1728 -2020 0
545 -2111 -670 -1752 0
1754 -3573 -3146 0
542 -2936 0
2399 -2206 -3311 0
1026 -2855 -3188 -285 0
-2614 -2399 -2118 -792 0
3021 -350 0
712 -241 0
1434 -1409 0
1380 -2665 -543 0
-237 -2436 -2317 0
149 -158 -1565 0
2505 -855 -1605 0
921 -1649 0
1407 -1127 0
-1505 -3983 -3157 0
-1727 -3666 0
675 -1077 0
2958 -1316 0
2623 -3693 -3371 -1611 0
108 -2266 0
1806 -2777 -1559 0
-477 -3533 -420 -287 0
-289 -511 0
-1887 -3069 0
1154 -1214 0
425 -1630 0
3355 -3701 0
-3780 -2632 0
2758 -1392 -1763 0
2771 -419 -3382 -3134 0
3653 -2344 -674 -536 0
3628 -1736 -1463 -1160 0
2126 -3879 0
1314 -2209 0
2578 -1768 -2740 -2557 0
-1616 -1799 -3472 -1218 0
1113 -1809 0
214 -1800 -620 -1166 0
1425 -1845 0
2145 -2118 -2753 -853 0
-2577 -2370 -1725 -1404 0
-2858 -3886 -2090 -2407 0
2732 -844 0
14 -83 -1148 0
3673 -1147 0
1934 -1719 0
-275 -3946 0
-2771 -1484 0
-3678 -3970 -1059 0
159 -1215 -550 0
-646 -2360 0
3556 -932 -81 0
321 -1952 -1661 0
2791 -1732 0
-3335 -3810 -1260 -2222 0
3567 -3305 -3653 -2847 0
-689 -3027 -3188 -622 0
1229 -2844 -2662 0
-3661 -3241 -2854 0
1570 -1898 -619 0
-1929 -2612 -1419 0
806 -1381 -3125 -2374 0
3888 -1676 -745 -41 0
-3831 -2640 -1927 0
-487 -3096 -3715 0
1934 -1284 0
1681 -743 0
3975 -1690 -2757 -2648 0
3303 -1818 -3586 -3074 0
-2487 -1880 -3584 0
-6 -318 0
2407 -3140 0
2156 -3553 -2346 -2546 0
464 -817 -32 0
3093 -2524 -3833 0
-2259 -3862 -159 -3798 0
1719 -1382 -1899 0
3803 -1843 0
-3293 -608 -279 -253 0
1580 -1722 -1441 -2308 0
1578 -660 0
2926 -355 0
-1155 -1352 -2075 -1447 0
-2906 -3088 -2379 -1371 0
1917 -3703 -882 -3937 0
-10 -3298 -776 0
203 -238 -307 -3976 0
-3676 -1113 -811 0
2581 -2345 0
-2486 -2021 -318 -1446 0
1863 -2636 0
2968 -2533 -1899 0
1182 -2848 -2860 0
-77 -2639 0
1517 -1347 -3112 -2054 0
3019 -499 -2356 0
2536 -2582 -2151 0
-902 -2233 -3198 -2442 0
320 -3183 -1054 -2386 0
3156 -946 -2231 -3491 0
658 -158 0
-889 -1965 -3235 0
1212 -1514 -951 0
1138 -2769 -2797 -1621 0
708 -1049 0
-2969 -3575 -3474 -1410 0
-2385 -115 0
253 -1939 -3135 0
3193 -3175 0
2362 -3827 -3051 -1813 0
1638 -91 -311 -2918 0
148 -3901 -1655 0
-1286 -710 0
-2644 -1183 -3130 0
1523 -3516 -1540 -3858 0
-828 -2761 -3800 -1911 0
2456 -170 -2824 -600 0
3309 -1153 -2603 0
1518 -2550 -3369 -1447 0
3484 -1852 -1279 -1810 0
1817 -3205 0
201 -2114 -69 -1025 0
694 -3969 -2660 -2379 0
3615 -2730 -1560 -2543 0
-2537 -2075 0
2200 -477 -2162 0
2458 -2534 -247 -2215 0
-2605 -3633 -1830 -2115 0
688 -3874 -2860 -2419 0
2407 -3433 -2373 -706 0
1521 -3219 -290 -816 0
899 -1686 -369 -523 0
2583 -3384 -1898 0
761 -2769 0
3502 -70 -136 0
1561 -404 0
2731 -299 0
-1761 -1903 -2638 0
-3351 -2789 -1863 -839 0
-808 -3040 -1329 -1610 0
830 -341 0
472 -3372 0
2039 -751 -626 -2544 0
-104 -1370 -3478 0
-2180 -1934 0
-3008 -1816 0
-1609 -591 0
4 -761 -1790 0
3752 -3805 -788 -330 0
779 -2326 -2040 -142 0
1773 -904 -819 0
3584 -2365 0
1844 -972 0
3566 -3967 0
560 -1035 -1802 0
-2660 -3737 -2340 0
-35 -1938 0
2799 -418 -1347 0
-3291 -1054 0
1262 -3182 -3817 -1481 0
255 -2936 -1613 -1315 0
3381 -1603 -601 0
-2067 -2771 0
239 -378 -66 -3702 0
877 -1704 0
-2750 -1956 0
2925 -2931 0
-2615 -1120 -94 0
1548 -1168 0
3629 -2033 -1614 -2559 0
820 -3004 -1064 -2765 0
199 -275 0
2472 -2532 -1313 0
-2958 -459 -1736 0
1881 -3231 0
3225 -2635 0
-2376 -2849 0
1057 -1641 -1160 0
1434 -1546 -3237 -940 0
3937 -3931 0
589 -3980 -3439 0
-325 -254 -848 0
161 -3517 -3028 0
3127 -294 -3361 -955 0
1683 -2809 -3708 0
3434 -3697 0
3937 -1125 -939 -977 0
1558 -1983 0
399 -225 -2387 -1972 0
1690 -143 0
1443 -1577 -3646 0
-2125 -2374 -2639 -1559 0
-3078 -31 -3098 -630 0
3697 -1421 0
-3784 -1282 0
-2350 -3761 0
3090 -1916 -385 -2331 0
174 -2646 0
3134 -618 -259 -3875 0
1571 -2230 0
-1512 -1478 0
741 -3092 -193 -989 0
3994 -465 -1306 0
718 -3858 0
1056 -911 0
297 -1064 -2594 0
-1346 -3573 -1319 0
850 -102 0
-1512 -177 -3097 -21 0
-1370 -3176 -3312 0
-2263 -2119 -1440 0
3232 -2681 0
3257 -2399 -3037 -1956 0
3845 -2638 -2645 -2905 0
3685 -3432 -2212 -2528 0
1940 -3260 -409 0
-1149 -339 0
-1429 -3447 -700 0
-3641 -1135 -3175 -3787 0
-3457 -2343 -3780 0
-3948 -1743 0
-3387 -1227 -3277 0
2041 -1668 -3120 0
2206 -692 -98 -2103 0
-3151 -3158 -1694 -1200 0
1048 -3488 -284 -1935 0
-3040 -1293 -2230 -759 0
-821 -1574 -3250 -368 0
-3119 -3082 -476 -3722 0
1976 -826 -1439 -1014 0
3834 -2896 -2447 -3024 0
21 -645 0
1892 -130 -618 -2512 0
-634 -3975 -13 0
-2339 -1581 0
-680 -900 0
29 -1006 -1904 -3833 0
-2408 -1877 -1051 0
1426 -48 -865 -337 0
1684 -1972 -1815 0
-142 -1786 -2451 0
605 -3904 -2413 0
3451 -1540 -3615 -3944 0
1101 -2204 -2060 -2525 0
804 -2005 -613 -1177 0
2651 -3656 -1713 0
-1307 -2352 0
-2527 -2925 -1166 -704 0
-1457 -283 -3740 0
991 -411 -308 0
1826 -1035 0
940 -2343 -2160 -105 0
62 -3136 0
1467 -694 0
1046 -2376 -1433 0
750 -185 0
1214 -3335 -236 -2482 0
2989 -1666 -1939 0
-1972 -481 -1386 0
1459 -1252 -487 0
1371 -2905 0
-3079 -1768 0
-529 -3530 0
2858 -1890 -2511 0
-1210 -3479 -2186 -3727 0
1030 -3409 0
1219 -2457 -1358 -3359 0
113 -1081 0
-1586 -1522 -3343 -3851 0
2619 -1349 -721 -1392 0
-1918 -3195 -483 -3013 0
3269 -1954 -1694 -546 0
2139 -1040 0
2405 -657 -2842 -3103 0
-971 -663 0
-1271 -2897 -1084 -608 0
1614 -3010 -1578 -640 0
3827 -1781 -1201 -2645 0
986 -134 -657 -3812 0
2855 -1170 -1979 0
1870 -3704 -707 0
-178 -591 -3528 0
935 -3564 -3400 0
-1116 -2681 0
-1854 -1471 -1741 -1516 0
645 -2583 0
2681 -3591 -3102 0
-2792 -515 -1169 0
3198 -1775 -305 0
490 -724 0
1228 -2243 0
3351 -1255 -52 -752 0
3370 -3260 -2783 -890 0
1672 -3741 -375 -3009 0
344 -3212 0
855 -2509 -291 -2084 0
3586 -3714 -2312 -3039 0
-3201 -1577 -308 0
3573 -3325 0
-805 -47 -2042 0
3984 -992 -166 0
-573 -3812 -1063 0
-2947 -529 -1338 0
-2832 -3888 -3232 0
3520 -1980 -1724 0
3268 -927 -1096 -1072 0
1092 -3365 0
-1718 -1528 -661 -3909 0
1939 -819 0
3247 -3253 0
-2513 -30 -54 -2981 0
1410 -43 -1425 0
2602 -896 0
3167 -3762 0
-3646 -1651 -2828 -3832 0
1925 -3421 -3664 0
1009 -537 -3885 0
-1055 -2271 -1733 -478 0
2098 -418 -2681 -101 0
885 -2744 0
1519 -967 -234 0
3474 -595 0
2716 -2625 -330 -3088 0
1500 -1439 0
-2011 -3314 -2282 -1449 0
-2292 -357 -3200 -39 0
1829 -416 -598 -3290 0
3612 -1282 -1286 0
-1007 -1417 -1342 0
789 -2946 -1026 -1366 0
293 -691 0
3604 -1512 0
-889 -3583 -2469 -197 0
516 -1971 -3100 -1042 0
1653 -1287 0
-2466 -3481 0
-1894 -3601 0
475 -924 -465 -2313 0
2865 -3815 0
-3324 -421 -3043 -3082 0
2795 -2335 0
-2019 -2389 -3025 0
-1511 -2489 -3451 0
-2421 -1740 0
2356 -3588 -347 -2667 0
-161 -3413 0
-20 -3975 -333 0
2651 -2042 -2540 0
3632 -978 -3622 0
1651 -3088 -401 -991 0
287 -3789 -17 -91 0
-551 -520 -3321 -1207 0
1716 -2906 -3534 -1629 0
-3920 -1278 -3081 0
3743 -2337 -3842 -2125 0
3332 -699 -1059 0
-2731 -2101 -2662 -2169 0
-2286 -2932 -3774 0
3476 -6 0
-2334 -2840 -1994 -1034 0
-1299 -1125 0
-2434 -2846 -3285 0
3756 -2011 -3613 0
-1858 -3801 -572 -2561 0
3756 -1897 -468 0
-2464 -1127 -2793 0
-713 -267 -608 0
3536 -1142 -609 -1926 0
2767 -1325 -971 0
475 -987 -836 -1485 0
-1867 -1059 -817 -2306 0
1012 -2013 0
-3586 -1298 -409 -2831 0
-3843 -2414 -1659 0
-3094 -1458 -2532 0
1260 -3010 -661 0
3490 -1711 0
2891 -49 -3090 -2557 0
2794 -3818 -2282 -1555 0
834 -2460 -2513 0
730 -1769 -19 0
1628 -3840 0
2602 -3916 0
1057 -2406 0
999 -829 -3418 0
-3231 -419 0
825 -1198 -876 0
1573 -2357 -218 -305 0
1779 -1569 0
2677 -27 -415 0
407 -3801 -1083 -1200 0
-1195 -2376 -1199 -2138 0
1549 -372 -2855 -1336 0
-1793 -80 -1850 0
-919 -306 -2598 0
1431 -2041 0
608 -1712 -985 -645 0
-1203 -3454 -2626 -3146 0
-1670 -3488 -2683 0
2221 -2142 -3672 -3450 0
426 -2473 -3113 0
2320 -2366 0
1142 -675 -806 0
3982 -2744 -1978 -2520 0
2568 -2130 -3042 0
2993 -513 0
2924 -517 -2886 -3606 0
-3398 -2980 0
2118 -2682 -2181 -1574 0
1573 -2706 -955 0
-302 -1754 -1163 -113 0
1428 -3107 -1509 -2776 0
-2917 -345 -93 0
1932 -3834 0
-3179 -520 -1265 -2291 0
3370 -3031 0
-1935 -1673 0
-3205 -2305 -2780 -651 0
1417 -164 -2029 -208 0
-1100 -1183 0
3305 -2829 -3792 -54 0
-463 -1041 -1143 0
-3325 -1660 -257 0
-3888 -2103 0
719 -2607 -3269 0
538 -1485 -703 0
-3340 -3702 -1447 0
1253 -2432 0
-670 -706 -1270 0
-2315 -2787 0
574 -732 0
2728 -2050 0
-3170 -3696 -3493 -2917 0
3334 -2728 -3791 0
-3802 -350 0
1700 -3288 0
1585 -3582 -3944 0
3544 -1078 -684 -3970 0
2453 -125 -2907 -2191 0
-3638 -2635 -302 0
-1766 -2470 -2238 0
-1813 -2707 0
998 -3592 -688 -3546 0
1728 -1652 -1795 0
-1751 -806 -3124 0
1891 -1697 -456 -767 0
1245 -3675 -667 -2817 0
3164 -3739 0
3665 -846 -3456 0
658 -784 -752 -3724 0
1044 -3313 -1718 0
1612 -437 -1970 0
3744 -3465 -2611 0
-1588 -1688 -2268 -3838 0
2080 -711 -3953 -1211 0
1610 -2304 -3196 -2520 0
1892 -1883 -2804 -3072 0
1998 -191 -3022 -1360 0
-2131 -1846 0
188 -2231 -3828 -3783 0
210 -3820 0
1888 -3142 0
-3930 -29 0
1821 -1870 0
-3719 -305 -1244 0
2437 -1602 -1609 -2165 0
1823 -3170 -1059 -3710 0
3587 -2600 0
3204 -2350 0
1484 -2832 0
3418 -1669 0
2237 -3683 -571 0
1022 -1765 0
3296 -143 0
2012 -3152 0
3283 -2054 -2077 0
1098 -2943 0
1066 -2818 -367 -2386 0
-643 -773 -3252 0
2756 -3372 -3667 -3451 0
2434 -3824 0
431 -3366 -3179 0
2407 -2339 -487 0
-3410 -1330 -716 -2015 0
234 -3589 -369 0
63 -2787 0
1449 -1803 0
484 -2432 -2808 0
-1667 -3596 -2857 -1186 0
-324 -2341 0
693 -1171 -3017 0
1275 -1002 -1459 0
3831 -2282 -1999 0
2588 -3508 -3516 0
-1300 -1585 -2551 0
772 -854 -1774 -1250 0
-1746 -2506 -2749 -1622 0
764 -1511 0
-2835 -2350 0
-3167 -2343 -1999 0
-3379 -710 -2052 0
2643 -2790 -652 -1866 0
-2488 -3238 -2145 0
613 -1896 -797 0
2289 -1983 -2748 0
3311 -512 -3133 -1821 0
-2414 -3381 -1361 -2654 0
-3438 -2444 0
1898 -899 -753 0
-346 -2096 -141 -44 0
2168 -1423 -1550 -409 0
2603 -3404 0
3137 -3621 0
-3652 -2267 0
2189 -507 -805 0
1323 -939 -951 -425 0
1213 -269 0
-3982 -801 -1969 -3347 0
867 -590 -929 -3497 0
-1191 -602 -2130 -3799 0
-757 -1891 -287 -3498 0
3274 -2040 0
2045 -2793 0
-1108 -3050 -3132 -206 0
-3649 -5 -3977 0
2676 -42 -1061 0
725 -2715 0
2610 -3919 -2628 0
-2023 -376 -2283 -2645 0
1825 -1634 -1389 0
2124 -2548 -1277 -2354 0
-1264 -1329 0
3046 -3817 0
-3515 -2823 -3780 0
2524 -2394 -2885 0
1219 -3303 -2700 -564 0
2031 -3143 -2640 0
2279 -3357 0
2126 -572 -263 -707 0
433 -3825 -344 0
470 -430 -40 -1203 0
-3542 -857 -285 -1938 0
3454 -2873 0
-2720 -598 -3432 -3580 0
1937 -1588 -2554 -2318 0
-963 -951 -2426 -3346 0
3836 -3938 -601 -2129 0
322 -3968 -3200 -2496 0
-112 -2781 -1116 0
-378 -2236 -198 -759 0
1676 -3514 0
3906 -1728 0
3969 -3408 -2821 0
-2809 -2572 -2768 0
-3963 -2286 -27 0
-1844 -3742 -164 0
2709 -2572 0
375 -2660 0
2954 -3652 -1511 -2106 0
881 -79 -735 0
-1339 -1451 -2394 0
284 -708 -3212 0
1689 -1852 -2810 0
-1872 -144 0
2430 -3445 0
-1520 -852 -3374 -813 0
1446 -944 0
-1952 -577 0
2270 -3296 -1396 -3961 0
2738 -2038 -2530 0
1482 -3498 -1145 0
-1615 -285 -1678 -1152 0
943 -2008 -253 0
-3917 -2585 -1797 0
-3404 -1293 -217 0
3906 -1507 0
-2487 -1525 -2832 -2234 0
-1857 -982 -1028 -903 0
2540 -2832 0
3785 -3275 -2310 0
-2912 -2669 -1673 -2871 0
-1864 -254 -2903 0
1961 -1388 -2623 0
3860 -3807 -2408 0
3894 -1695 -1513 0
2183 -2813 -2922 0
2719 -1345 -805 -1303 0
3058 -3498 0
-3380 -222 -1492 -1268 0
3958 -1326 0
1896 -330 0
1143 -216 0
334 -2645 -94 -2002 0
-1679 -2023 -502 0
2700 -2566 -1110 -135 0
-2398 -673 0
684 -3100 0
206 -1465 -706 -69 0
3830 -1506 0
2929 -3062 -3563 0
3882 -3023 -330 0
-906 -2995 0
-2604 -3773 -514 0
2131 -1390 -3728 -2188 0
2586 -426 0
2454 -2061 -1390 0
1359 -1012 0
-1400 -1280 -801 -136 0
940 -1017 -1984 -796 0
2225 -2002 0
2587 -2503 -830 0
-989 -2414 0
-3455 -2631 -3620 -3585 0
-2058 -3088 -1923 -919 0
1868 -2367 -2061 0
273 -1326 0
-3556 -2136 0
-3188 -999 0
-2649 -3401 -2211 0
2616 -298 -3920 -24 0
-2934 -1819 -3105 -3407 0
2279 -819 -2031 0
-1406 -3188 0
-307 -2636 -387 -819 0
2779 -2765 0
2668 -2514 -1818 0
2715 -1829 -1510 -3870 0
1494 -3658 -2902 -190 0
-2499 -757 0
2813 -1260 -860 -3506 0
3307 -3556 -2977 0
234 -2176 -2674 0
3324 -3765 -3480 0
3510 -1917 0
3232 -1112 -1576 -1674 0
3271 -1703 -68 -25 0
-126 -2615 0
3867 -265 -3894 -138 0
2842 -3631 -893 -319 0
2571 -1099 0
-446 -3159 0
1438 -511 0
2482 -3658 -3859 -396 0
3489 -2743 -885 -3580 0
-2787 -3317 -2809 -3016 0
3123 -1399 -3800 -2852 0
65 -3909 -1177 0
3080 -2852 0
3375 -1433 0
2668 -1384 -1968 0
3291 -2346 0
3277 -1706 -3849 0
1530 -541 -2365 0
392 -959 -2870 0
-2046 -1191 0
2113 -197 0
2809 -3703 0
217 -3658 0
2522 -2316 -1730 -1290 0
2637 -2395 -3224 0
11 -2001 0
1640 -116 -2194 -1575 0
1199 -1227 -2429 -938 0
3083 -47 -26 -3924 0
3864 -3521 0
195 -2252 -2705 0
22 -215 -2678 -877 0
2901 -3451 -2098 0
3895 -220 -2611 0
3103 -3565 -2448 -3880 0
-3993 -3601 -731 -2760 0
2826 -1068 -569 0
-393 -1203 -2740 0
2037 -3784 0
-3504 -595 0
2815 -1325 0
-2135 -2144 -3721 -1914 0
1259 -1390 0
2723 -3661 -2909 0
3293 -572 -1259 -1054 0
3222 -319 -316 0
786 -3420 0
2105 -195 0
2481 -2263 -1358 0
-3893 -2059 0
2154 -95 0
-3252 -3535 -1924 -3469 0
-3680 -2361 -3538 -3937 0
40 -1313 -3538 -3349 0
574 -2423 0
2485 -3962 -2228 -2373 0
2780 -3535 0
-2417 -1612 -1188 0
2205 -3396 -3557 0
-2587 -1677 0
-582 -2912 -3827 -2558 0
-1616 -2062 -2450 -3463 0
-1545 -1811 0
-1906 -1474 -1254 -1619 0
-1887 -1006 -2254 0
-2040 -132 0
2680 -2505 0
3182 -2762 0
721 -2631 -594 -3311 0
2435 -1051 0
2667 -2899 -307 -678 0
858 -1065 -1646 -1867 0
2060 -1820 -242 0
2470 -3942 -1774 0
3881 -61 -407 0
3538 -1375 0
219 -3391 0
1345 -2863 0
-424 -2071 -1749 0
1291 -3416 0
2264 -2407 -2011 -830 0
2487 -1476 -1484 -3394 0
-3252 -638 -3284 -2380 0
1758 -1546 -1209 0
1371 -118 -825 0
-2479 -1788 -3646 -2831 0
3328 -582 -1273 0
1862 -2030 -320 0
-2726 -106 0
3171 -1116 -3202 0
3884 -1844 0
845 -322 -1013 0
2953 -1877 -2176 0
1183 -1552 -478 0
1535 -1649 -1090 0
107 -1676 -1549 -1124 0
-3903 -2492 -1546 -198 0
974 -1801 0
3115 -223 -1565 0
792 -425 -1921 0
2218 -1394 0
2624 -414 -2883 0
1220 -572 -3660 0
2640 -3285 -530 -3979 0
2269 -2638 -398 0
2716 -379 -3158 0
-1221 -1750 -2889 -870 0
-3196 -1620 -2666 0
671 -902 0
2209 -3866 0
938 -851 0
2840 -3356 -3269 0
133 -3472 -1410 -2264 0
3098 -1592 -524 0
-3199 -1834 -1744 -2097 0
3565 -3439 -2392 0
-3453 -2123 -3432 0
-893 -3815 -1728 0
-1177 -1279 -2769 -3702 0
1429 -3070 0
-3940 -1069 -2662 -204 0
-1082 -1489 0
2959 -1941 -2574 0
-1838 -691 0
1359 -3128 -2044 -633 0
3664 -1079 -929 0
58 -255 0
2184 -855 0
1931 -2270 0
2836 -777 -2707 -320 0
564 -1213 0
2023 -1577 0
-1295 -76 -68 0
-414 -1259 0
-2806 -246 0
1816 -2352 0
24 -906 -2047 0
539 -3414 0
2697 -3776 -3278 -1828 0
-623 -431 -1421 0
-3896 -2625 -439 0
2869 -2561 -1116 0
944 -2041 -925 -608 0
464 -3495 -3875 -3336 0
1584 -932 -3887 0
1776 -1441 -3799 0
1216 -862 0
556 -616 -569 0
3455 -3819 -3494 -1342 0
3064 -173 -21 -1453 0
72 -2293 -920 0
888 -210 -519 -224 0
-1063 -3588 -3767 0
-1614 -612 -1965 -2359 0
-1453 -2812 -1337 -3663 0
2361 -545 -549 0
3300 -3096 -975 0
-1639 -2469 -3982 0
1964 -1578 -1091 -1323 0
-55 -3515 0
-1839 -1190 -1936 -1466 0
3432 -512 0
571 -2864 -3670 0
903 -3503 0
3668 -3478 0
1318 -1466 -2651 0
299 -2062 0
-340 -3292 -320 -87 0
2479 -3388 -81 -1119 0
3903 -3967 0
1492 -3609 -576 0
1666 -609 0
-929 -607 -2697 0
3333 -523 -664 -1069 0
102 -2820 -3525 -220 0
-1760 -3044 -2582 0
-1211 -445 -3721 -2811 0
2383 -1707 0
-3757 -2488 0
-1756 -1719 -2647 -1537 0
-2176 -296 -2673 -2538 0
2083 -716 -255 -3746 0
3028 -1704 0
-1333 -120 -565 0
1286 -785 -345 0
-41 -1946 -1596 -756 0
1708 -135 -792 -3865 0
3027 -1165 0
1349 -3965 0
3928 -560 0
3640 -1298 -2586 -2266 0
2182 -3699 0
1420 -771 -475 0
891 -2100 0
1640 -2742 -2362 0
2572 -1375 -1318 -3407 0
-3155 -3953 -1113 0
1273 -256 -395 0
-2115 -2076 -1296 -2368 0
-229 -2949 0
2645 -3768 0
2598 -1772 0
2577 -266 0
398 -3407 0
3848 -3277 -2255 0
-2747 -3725 -1581 -3541 0
1457 -3705 -2240 0
1256 -2483 0
2146 -2524 0
3471 -3454 -1432 0
6 -337 0
1221 -1543 -1952 0
-1041 -2723 0
-3056 -1912 -3878 0
-1645 -2260 0
2169 -814 -2513 -1423 0
3687 -1646 0
1098 -1311 0
3290 -2963 -574 -2866 0
3879 -2573 -1945 0
3721 -105 -2691 0
-3183 -218 0
-3932 -17 0
-3965 -2328 0
3020 -3781 -2026 0
2496 -2129 0
3354 -861 -1419 -3398 0
2357 -2618 0
3197 -898 -624 -1971 0
654 -2095 0
1508 -78 -733 -904 0
-2571 -242 0
3227 -2499 0
-377 -2064 0
2409 -2616 0
1375 -3496 -1192 0
-812 -2391 -1743 0
3485 -1465 -3566 0
901 -3261 0
1557 -3705 -3236 0
-2242 -1374 -3300 0
1920 -2742 0
1794 -2777 -1658 -3014 0
2553 -376 -3436 -3139 0
1937 -1012 0
809 -259 -91 0
2292 -2103 -3063 -23 0
-2113 -919 0
361 -1069 -2501 0
-563 -2265 0
1014 -31 0
1604 -3131 -2502 0
134 -2060 0
-3008 -3228 -1460 -1888 0
3630 -172 -3517 0
2902 -151 -3159 0
-861 -3574 0
339 -686 0
-3499 -1716 -1499 -1852 0
-963 -1702 0
2064 -3875 -347 -1031 0
3595 -626 0
3946 -3847 -156 0
-3881 -2616 0
1548 -789 -949 -3980 0
1281 -2253 -2933 0
-1829 -868 -411 -2729 0
-2579 -875 -2909 0
-894 -1739 -1846 -225 0
1877 -3469 0
235 -2282 0
1948 -3461 0
2040 -1101 0
2407 -1292 0
-582 -1488 -2672 -2391 0
130 -534 -2971 0
-3634 -2754 -2648 0
84 -2009 -1871 0
-747 -1045 0
-555 -637 -3247 -453 0
186 -3633 -3640 0
2956 -1120 -1782 0
3621 -719 0
-1202 -2643 0
-1188 -3253 0
353 -2168 0
3430 -2855 -1179 0
3247 -745 -2333 -3297 0
-2015 -672 0
487 -1650 -746 -2169 0
258 -3087 -3564 -2441 0
3280 -3292 -358 0
1847 -3612 -1980 -1640 0
2124 -104 0
2522 -721 -3770 -2151 0
2322 -486 -2871 0
-1513 -24 0
1320 -253 -1330 0
-2513 -1625 -3498 0
-1891 -2174 -3441 -81 0
553 -2406 -1383 -1067 0
-3302 -3980 -544 0
2892 -2112 -3440 0
252 -2336 -3397 -263 0
921 -2426 -2841 -3048 0
2793 -3210 0
3753 -1980 0
-1274 -1718 0
3964 -884 -195 0
-2376 -3182 0
2096 -1597 -472 -3562 0
1910 -3548 -3687 -1976 0
2739 -712 -2748 0
3074 -1445 -2398 -1842 0
1945 -3155 0
-1401 -1681 -2242 0
884 -888 -2872 0
98 -1790 0
-1545 -3420 -2949 -848 0
3108 -205 0
-1145 -3981 -96 -154 0
-1219 -888 0
2597 -1467 0
-2495 -2765 0
215 -2003 -17 0
-2544 -508 0
2373 -578 0
579 -1610 0
1808 -3600 0
-2832 -2567 0
3059 -1160 -2085 -3205 0
86 -1226 -1229 0
371 -1193 -1783 -2516 0
938 -2551 -3457 -3550 0
2036 -2755 0
-1961 -455 -668 -3913 0
503 -1551 0
1662 -3425 0
1936 -1762 -366 0
-2062 -3838 0
2477 -1499 0
2687 -3264 -3996 0
-1766 -1727 0
1801 -862 0
3595 -640 -1224 -2559 0
-1730 -784 0
985 -1912 -3281 -1834 0
-2195 -326 -2886 0
2520 -3319 -38 0
3799 -47 -390 0
336 -478 0
499 -509 -947 -2929 0
3951 -3181 -3298 -2472 0
3447 -2734 -854 -2961 0
2090 -1616 0
1062 -3359 -634 -2475 0
1572 -3399 -1952 0
-538 -550 -495 -3957 0
2777 -2038 0
3665 -2537 -1139 0
858 -3755 -852 -1896 0
-2707 -535 0
-2304 -555 0
2617 -1678 -3639 -883 0
2341 -2547 0
3410 -3186 0
-1904 -2905 -3349 0
1181 -3773 0
801 -935 -2700 -2701 0
3369 -982 -3922 -493 0
750 -1041 -401 0
-3456 -2546 -2558 0
-919 -83 -808 -2596 0
-2366 -2092 -2311 -2510 0
1389 -2898 0
994 -83 -2062 0
3183 -3297 -3644 -1546 0
-3594 -997 -182 -2610 0
1669 -1080 -483 0
1563 -416 -1989 -1367 0
1159 -2431 -39 -2711 0
3523 -2741 -3095 0
3744 -1065 0
1972 -2970 -1238 -3020 0
2411 -2180 -1751 -3393 0
-2701 -158 -1711 0
1081 -2560 -1334 0
1048 -2878 -2550 -1738 0
-3806 -860 -1837 0
2819 -1466 -2913 -3620 0
3446 -1863 -2194 0
1704 -2086 -2805 0
106 -257 -422 0
-1787 -1661 -2049 0
-3054 -424 0
3991 -1133 -3731 -286 0
528 -870 -289 -1988 0
-1562 -2136 0
455 -2902 0
3467 -1369 -3183 0
2772 -3985 -922 -627 0
2629 -157 -3089 0
-814 -494 -851 -2007 0
-1232 -347 -837 0
2823 -404 0
-3773 -1216 0
-3245 -1350 0
-3205 -3049 -1985 0
335 -350 -1293 0
918 -2547 -3840 -1692 0
93 -814 -3303 0
1396 -2166 -1780 0
-576 -3301 -1759 0
-472 -3153 -1801 -3854 0
824 -3698 -1738 -3900 0
1782 -3786 -1364 -2003 0
-557 -844 -57 -1881 0
3001 -3536 0
-296 -3573 -3044 -3349 0
2916 -3541 -381 0
1040 -1408 -2233 0
2126 -980 -2954 -3054 0
2073 -2143 0
2574 -3574 -1897 -2358 0
-1686 -1147 -156 0
3186 -109 -321 -994 0
962 -1243 -910 -3051 0
3489 -3664 -1774 -422 0
-2718 -1817 -3100 -3424 0
-2453 -3931 -3794 -2569 0
2176 -2480 -864 0
541 -3160 -464 0
-3539 -1033 -3792 -2476 0
-2335 -421 -322 -559 0
-3944 -1145 0
3805 -2717 -1379 0
1213 -76 -3831 -146 0
2239 -2371 -3071 -3188 0
1858 -920 0
1768 -3697 -189 0
1607 -1030 -2369 -2036 0
-1458 -3284 0
204 -347 0
2742 -150 -1414 -3292 0
3406 -1707 -2744 0
3987 -1545 0
2050 -2434 -761 0
1432 -2505 -3635 -1818 0
1579 -1802 -1558 0
2229 -434 -3391 0
3650 -3444 -3034 0
1011 -3776 0
1142 -2001 -3056 0
-1974 -2619 -2523 0
1717 -1255 -2303 0
3239 -883 -3309 0
-334 -3639 -3226 -280 0
-3691 -362 -1409 -122 0
467 -3791 0
1373 -1176 -1979 -2020 0
3744 -3352 0
785 -1090 -2699 0
1959 -1446 -2547 -2801 0
-1195 -3731 -3677 0
1906 -876 -2298 -2053 0
-894 -123 0
91 -3973 -3089 -825 0
3274 -2167 0
2530 -3347 -244 -592 0
3177 -1801 -2048 0
2654 -3009 0
-971 -1808 0
-3497 -3092 -2402 0
-2266 -3900 0
3217 -3528 -2037 0
2010 -1054 -3169 0
2760 -1980 0
1788 -1195 -1390 0
-2453 -511 -1474 -3151 0
1417 -1751 -1083 -2381 0
-803 -3035 0
905 -2759 0
-1190 -547 0
3815 -1296 0
3237 -3614 -3179 0
-3285 -3498 -2398 0
609 -327 -3323 0
3328 -55 0
-2256 -731 -2591 0
948 -514 -3723 -3088 0
2380 -1097 -468 -1405 0
-1327 -414 0
295 -2445 -3285 -3443 0
2169 -2547 0
-93 -1613 0
3254 -1747 -793 -1037 0
-336 -506 -1806 -1491 0
3679 -1920 0
2239 -2347 0
-3521 -6 0
3686 -2182 -1233 -581 0
3656 -1676 0
-1070 -1585 0
-2611 -3477 -3817 0
2775 -1044 0
-2933 -3805 -2973 -3214 0
-3308 -618 -3466 0
3873 -3396 0
2711 -3504 0
1657 -3110 -3184 -871 0
1537 -2057 0
3590 -3991 0
2053 -1487 -953 -217 0
3035 -3820 -2207 0
-687 -2215 0
3092 -188 -933 0
3495 -3832 -2298 -1252 0
3878 -2358 0
2818 -2087 0
1477 -162 0
1635 -1811 -467 0
108 -839 0
1039 -2999 -35 0
459 -3328 -2842 -1718 0
1727 -3607 -713 0
1379 -406 0
1164 -2593 0
-1900 -3162 -965 -3891 0
-794 -1349 -1499 0
2030 -2717 0
214 -2408 -1616 -2226 0
1845 -2820 -717 -281 0
-351 -3210 0
1211 -2208 0
-794 -1536 -3859 0
-2839 -3856 -916 0
1724 -3740 -820 0
2441 -3960 -3973 -347 0
-2188 -2726 0
2498 -1573 -794 -2104 0
1195 -406 -2207 -1350 0
54 -764 -1467 -397 0
1185 -902 -883 0
657 -1156 -2588 -460 0
-1676 -3011 -12 0
-2393 -1828 -3275 0
1867 -1720 0
438 -1619 0
-3305 -3103 -2188 0
2402 -2684 0
-1813 -2412 -1263 0
-852 -3486 0
3998 -3656 -2327 -1866 0
1680 -1 -1175 0
2474 -133 -2866 -2206 0
2735 -3861 -3452 0
3161 -2648 -2890 0
1562 -447 -685 0
534 -2160 -2628 0
3605 -1856 -2685 0
-3582 -2457 -1121 0
1349 -956 0
2627 -900 0
3783 -565 0
2209 -267 -2708 -2612 0
3246 -1998 -315 0
82 -2265 0
-2907 -2544 0
2133 -232 -1602 -2817 0
676 -1307 -1596 -1482 0
1426 -542 0
308 -311 0
427 -3407 -636 0
-3862 -2885 -1817 -1484 0
-1202 -2012 -245 0
-3913 -3698 0
2501 -1452 -381 0
778 -3678 -1496 -2538 0
607 -136 -2240 0
1541 -1329 -2127 -282 0
434 -2599 0
644 -363 -3087 -913 0
-3023 -491 0
-280 -3832 0
-1288 -3142 -1919 0
206 -652 -642 0
2516 -1837 -3067 0
-281 -807 -3497 -982 0
3550 -745 0
2451 -1912 -964 0
1089 -466 -1943 0
956 -2107 -2997 -1049 0
-114 -964 0
-3215 -2240 -2407 -1913 0
-2140 -309 -2176 -315 0
3049 -84 -1150 0
2704 -748 0
2296 -130 -2703 -3441 0
-608 -2347 -1013 -3450 0
3569 -590 -2284 -2291 0
94 -3224 0
-2460 -88 0
-685 -1317 -1094 -2811 0
-1448 -2506 0
1653 -2664 -3320 0
-203 -133 -2990 0
2657 -19 -2172 -1519 0
1496 -3376 0
-1035 -2699 -1773 0
1396 -2800 -2640 0
-253 -1546 -1494 -3453 0
1068 -1213 0
2296 -204 -1541 0
3367 -3480 -2054 -3343 0
-3 -2216 -3310 0
-1482 -1848 -2948 0
-2236 -2413 -2218 0
-2863 -1077 -500 -981 0
834 -3453 -2657 -555 0
2139 -3403 -834 -2410 0
2396 -3073 -454 -1919 0
-2108 -1293 0
-519 -1652 -243 0
2444 -2435 -1260 -2533 0
2960 -2065 -3258 -3697 0
1816 -2068 -2571 0
3750 -2302 -2787 0
3191 -1222 -3843 0
1953 -53 0
-2110 -3167 -2892 0
-287 -923 -1987 0
-268 -3523 -1976 -3153 0
3014 -1241 -3847 0
1679 -52 -1101 0
3283 -2144 -593 -2368 0
3841 -3670 0
1074 -3307 -3133 -2159 0
1854 -422 0
3142 -3180 -1931 -3115 0
3203 -2104 -1924 0
3204 -452 0
1246 -2895 -1712 0
1071 -3247 -2518 -1654 0
544 -3626 -3795 -2999 0
2918 -959 0
3422 -3286 -2928 0
3217 -2718 -1322 0
-3365 -1381 -1826 -3063 0
3564 -498 -3650 0
3045 -2936 0
-3406 -1382 0
-1971 -309 -683 -1396 0
-1828 -1798 -86 0
477 -3707 -880 0
1532 -867 -2491 0
-50 -2777 -3795 0
764 -1476 0
-3843 -1353 0
954 -398 -3287 -2929 0
2863 -1554 -2108 -903 0
-2736 -2602 -1560 -90 0
-292 -1483 0
-3232 -2363 0
2102 -1920 0
1912 -806 -1202 -377 0
-2590 -987 0
3019 -1211 -3168 -333 0
393 -1483 -3064 0
1778 -454 -2926 -1371 0
3622 -3284 -2340 0
3718 -3175 -1132 0
-3415 -3884 0
592 -2627 -10 -2898 0
905 -2978 0
-2339 -3626 0
3687 -1636 -1075 0
1187 -2430 -1127 -2688 0
-2460 -3117 0
1498 -3645 -3872 -2040 0
-2136 -3151 0
29 -3464 -1192 -3734 0
2404 -3960 -3914 -318 0
3937 -696 -1616 0
-2680 -3192 -1089 0
3638 -577 -3963 -1386 0
3126 -2397 -2920 -2033 0
1453 -2364 0
2987 -2651 -2672 0
339 -973 -1504 0
1002 -468 -2079 0
-566 -2588 0
1626 -749 0
-3395 -3723 -1754 -2194 0
470 -3866 -3856 0
2356 -2290 -1342 0
2174 -3594 0
3852 -563 -51 0
2679 -3684 -3228 -839 0
3466 -2317 -2145 -1189 0
1648 -84 -2752 0
247 -2760 -2975 0
-976 -1189 -3896 0
1127 -834 0
3788 -497 -1915 -1270 0
2294 -1151 -3655 0
2595 -1786 -420 -1805 0
-2196 -1683 0
-3602 -1332 0
3855 -729 0
-308 -485 0
964 -3540 -559 0
3546 -2578 0
3214 -2149 0
-1625 -127 0
-1454 -1396 -3998 -1869 0
2939 -3686 -3201 -1342 0
562 -892 0
1054 -3914 -2138 0
680 -3323 -2374 0
799 -3385 -227 0
3238 -3782 0
1542 -3634 0
-3152 -1632 -1215 0
-2048 -2187 -1204 0
-1861 -3802 -558 -1842 0
3096 -2059 -2748 -1059 0
195 -3145 -3695 -30 0
2881 -1306 0
1827 -3381 -612 -2563 0
3171 -1942 -2239 -498 0
3287 -757 -2171 0
-3718 -3767 -952 0
-146 -3553 -3881 0
3747 -337 -2167 0
-3232 -1362 -3151 0
2891 -3853 -137 0
187 -1777 -3327 -3656 0
2060 -3836 -3955 -3104 0
3440 -3549 -2430 -3901 0
-2360 -3226 -1529 -1898 0
-1769 -735 -3181 -2112 0
3704 -1684 -145 0
-1785 -3423 -686 0
-131 -1749 0
-73 -1817 -929 0
3289 -964 0
3377 -1081 0
-981 -761 -2118 0
-668 -3518 0
3313 -3044 0
1840 -1304 -1963 0
1269 -1054 -3854 -3116 0
8 -180 0
1165 -1685 -1476 0
-1878 -3905 -2416 -2648 0
-2405 -301 -98 0
2882 -3988 -46 0
2369 -2198 -527 0
664 -2751 -1801 0
-1623 -1515 0
-3755 -46 -799 0
-1464 -3103 0
3694 -1295 0
1153 -2679 0
600 -2784 0
3955 -1991 0
-674 -1128 0
3715 -354 -3130 0
1956 -1342 0
-2620 -3190 0
167 -737 0
-596 -1539 -2067 -1776 0
204 -325 -1116 -3809 0
-2255 -1742 -915 0
3374 -1567 -1220 0
1886 -2578 -1291 0
2944 -902 -1262 0
3020 -1080 -199 0
1245 -974 -1153 0
1083 -2993 -2955 -3759 0
-2843 -1546 0
700 -3937 -159 -1293 0
513 -3103 -2586 -2143 0
2127 -2178 0
3881 -4 -1784 0
3464 -417 -1275 -1960 0
-2928 -1913 0
3818 -1267 -2942 -2370 0
3939 -3832 -1653 0
1658 -177 -2116 0
2253 -3452 -225 0
2622 -228 0
-2741 -2457 0
718 -2460 -2920 -3405 0
3755 -2693 0
-860 -1449 -937 0
-2347 -1373 0
207 -868 -149 0
-423 -11 -749 0
-1127 -3014 -3759 0
841 -1576 -962 -760 0
1597 -2979 0
3396 -2437 -724 0
-975 -576 -3841 -3691 0
499 -1938 -1813 0
-1057 -1100 0
1896 -2389 -2865 -1015 0
327 -2010 0
232 -2296 -3645 -3432 0
1485 -2603 -3283 -2872 0
-772 -3456 -1894 -2426 0
-43 -1463 -1795 -1170 0
2043 -3999 -3317 0
3478 -508 0
3385 -3707 -1151 0
-125 -2264 0
2146 -576 0
-81 -1127 -3995 0
-3638 -3884 -2173 0
2607 -539 -782 0
2170 -3448 -1009 -1780 0
1755 -3562 -2215 -2583 0
-2263 -3675 -2144 -2193 0
1236 -27 -3609 0
1809 -3425 0
3349 -3467 0
2066 -626 0
2834 -1891 -510 -2968 0
1820 -2833 -2423 -935 0
2953 -872 -1090 0
-2662 -755 -333 0
-3111 -2609 -2443 -1936 0
-1923 -1246 -3010 -2542 0
2847 -1989 0
3118 -3104 -1927 0
2029 -629 -3423 -2037 0
-3117 -884 -3998 -1545 0
-1604 -3353 -2905 0
340 -2128 0
97 -32 -167 -1152 0
410 -2452 0
3460 -2304 0
546 -1020 -1534 0
1525 -2837 0
2553 -2422 -368 -1322 0
1808 -895 0
3461 -3470 -3645 -761 0
2806 -3393 -379 0
-1551 -2216 0
1216 -1347 -2855 -2532 0
-3277 -2135 0
3302 -3505 -3207 0
-871 -2231 -1180 -84 0
-2395 -2183 -3766 -2145 0
223 -2817 -1993 0
1028 -315 -1558 0
1610 -3725 -2762 0
-2009 -1798 -766 0
-494 -3694 -223 0
3434 -3492 -3066 -459 0
1152 -1929 -3244 0
-130 -2751 -1614 -146 0
497 -1045 -1556 -3314 0
2826 -2893 -176 -3205 0
3608 -1830 -2479 0
958 -1929 -2500 -3020 0
719 -3111 0
2737 -904 0
1011 -1203 -3218 0
-3459 -1623 -1184 0
1777 -3203 0
-1697 -2965 -2386 -1793 0
1089 -1438 -1642 -2027 0
668 -288 -2355 -1464 0
-3716 -3163 0
3924 -2218 0
3422 -1900 0
1376 -3468 -1518 -1634 0
-164 -134 0
1066 -167 -1217 0
1172 -2783 -2089 -73 0
3834 -1269 -882 0
976 -2401 -3416 0
-1783 -2785 -2302 0
1392 -93 -3465 -1696 0
1009 -224 0
1102 -1035 0
416 -1397 -1067 -3008 0
319 -2178 0
2849 -2724 0
-3855 -1848 0
1314 -1035 -1423 0
361 -400 -1495 -3795 0
-1582 -400 0
3777 -2406 -127 0
-2615 -3001 0
2861 -190 -1912 0
2300 -2486 -154 -2204 0
2455 -2238 -3907 0
3703 -3672 0
-2031 -2488 0
164 -1574 -694 0
3383 -1721 -1963 0
1410 -1336 0
753 -3472 -2512 -1009 0
3309 -2920 -3010 0
-768 -1217 -692 0
933 -1290 -3496 -1850 0
2298 -3232 -3961 -196 0
1316 -262 -2801 -2051 0
2776 -1758 0
3731 -392 -3886 -2353 0
128 -1503 -3922 0
844 -2942 -2082 -833 0
-2107 -2283 0
1487 -605 0
3394 -356 0
3609 -461 -764 -2093 0
-1507 -3878 0
3741 -1496 0
-3823 -792 -766 0
-2749 -1606 0
-1000 -3120 -451 -1778 0
-2546 -3053 -1077 -2662 0
1674 -3813 -899 0
-195 -1531 -3309 0
2065 -746 -650 -1249 0
2414 -3978 -3001 -3706 0
3194 -2893 0
3395 -1380 0
63 -629 0
2875 -2516 -887 -1783 0
-3462 -3565 -908 -1668 0
1244 -1530 -388 -2871 0
1741 -1518 -317 -745 0
850 -3468 0
2811 -2647 0
-3601 -3376 -1810 -3967 0
2450 -1980 -2950 0
3997 -2165 -1470 -2811 0
1716 -851 -1 0
-3075 -1491 0
2895 -442 -3755 0
1278 -35 -2074 -1220 0
2451 -1543 -669 -2867 0
2339 -2279 -3021 -2483 0
870 -1047 -2360 0
3079 -3634 0
2274 -3325 -3161 -3735 0
2456 -250 -753 0
2696 -909 0
-2992 -3633 0
-1146 -136 -1626 -2564 0
1900 -1326 -3916 -3461 0
-3794 -454 0
-2022 -1438 -1710 -3992 0
715 -191 0
-3556 -3647 -1659 -3075 0
2584 -3841 0
2011 -2852 -2496 -3172 0
1230 -163 0
853 -2350 -353 -1359 0
100 -3861 0
3706 -2867 -1636 0
556 -978 -3699 0
3379 -840 -1123 0
914 -853 0
-328 -1688 -2516 -67 0
-844 -239 -1770 -1841 0
552 -175 0
-515 -44 -2511 -2295 0
155 -2847 -1936 -3521 0
950 -3114 -786 0
1052 -3843 -2202 -1207 0
-2162 -1048 -3565 0
1193 -786 -1479 -281 0
-3446 -3280 -1863 -1603 0
956 -253 -1056 -605 0
1696 -2435 -2510 0
1539 -170 -2789 -6 0
-1330 -2643 -2987 0
-2335 -401 -1090 -2549 0
197 -2271 -220 -1176 0
3309 -1049 0
-54 -830 0
3051 -1475 0
-1386 -1347 -3083 0
2031 -498 -1186 0
3145 -384 -1265 0
168 -339 -1267 0
567 -2045 0
2919 -3367 -953 0
3779 -630 -2861 -1619 0
2921 -2100 -2116 -273 0
3574 -2566 -1739 -3013 0
294 -3770 0
1473 -2984 -655 0
394 -3116 -1459 -3594 0
1362 -354 -2624 0
-1163 -3534 -1371 -2075 0
1566 -635 -1648 0
-2279 -55 -304 -893 0
-3971 -561 0
796 -193 -986 -877 0
398 -396 -1244 0
3340 -1909 0
-1061 -3816 -2473 -3076 0
-2214 -3409 -1524 -3232 0
-1000 -2422 -2796 0
3843 -2821 -3202 -3974 0
-1829 -746 0
2360 -594 0
2827 -235 -1683 0
812 -1910 0
3041 -3572 -510 0
1104 -382 -2814 0
3816 -1258 0
4000 -222 -2760 -2529 0
1296 -901 0
3097 -2058 0
-186 -381 -3331 0
2387 -2883 -3606 0
3795 -3825 0
111 -1992 0
2118 -1668 -3594 -1172 0
633 -1757 0
1587 -1909 -1115 -3644 0
3388 -1982 0
-3886 -2416 -622 -1079 0
875 -2838 -2028 -1245 0
50 -2609 0
295 -1362 0
-1675 -290 -442 0
1899 -638 -716 0
-1348 -65 -1615 0
1905 -3132 -506 -126 0
-3774 -1432 0
2029 -2574 -1614 -1985 0
655 -788 -1731 -3813 0
2594 -2165 -3099 0
2166 -2151 -1558 0
633 -92 -2686 0
2341 -669 -1528 0
-3285 -1082 -2546 0
2783 -2486 -2537 -2439 0
-1572 -3066 -366 0
-1406 -3319 -3693 0
3254 -200 -1642 -3788 0
3860 -3150 -838 0
1064 -2033 0
2679 -3257 -3298 0
2467 -784 0
-1948 -1128 -3379 0
2160 -1360 -3349 -475 0
-1312 -2966 0
2562 -199 -2702 0
-3203 -3296 -518 0
270 -1914 -3341 -2069 0
-2633 -4 -2048 0
642 -2381 -1953 0
-1688 -1658 0
-3325 -1621 -1997 -1455 0
3818 -1425 0
3771 -3479 -3882 -436 0
1466 -2321 -6 0
1066 -1711 0
1157 -2847 -605 -1843 0
2401 -1982 -2447 -1818 0
-407 -736 -646 -418 0
-536 -3355 -2437 -1319 0
-1241 -231 -426 0
1647 -1104 0
720 -3119 -2745 0
1075 -195 0
-1882 -3399 -1236 0
855 -3636 -3017 -2729 0
2001 -3392 0
2018 -2681 -647 -2936 0
1612 -1254 0
-2705 -1636 0
-949 -2170 -1760 0
469 -3716 -124 -560 0
491 -3344 -2826 -2074 0
-1292 -1079 -346 -28 0
-3581 -495 0
987 -605 0
1854 -2578 -2052 0
-1691 -2242 -3668 -1477 0
-750 -2351 0
-3262 -1389 0
3677 -40 -3780 0
3978 -3100 -711 -2934 0
1316 -2076 -2483 -693 0
2694 -3066 -142 -1138 0
-2862 -1186 -2152 -772 0
1293 -2290 -1815 -3603 0
-1897 -1606 0
2804 -2271 -1857 0
3531 -638 -2483 0
611 -562 0
-264 -3176 -1593 0
-464 -2837 0
3087 -2205 -1324 0
982 -3466 -2382 -1645 0
-1395 -2337 -502 0
3312 -174 -3697 0
-257 -3603 -18 0
821 -878 -869 0
3273 -1338 -3641 -1424 0
2635 -2507 -2662 0
3987 -3890 -1054 0
3073 -154 -3458 -3247 0
-788 -880 0
2644 -3534 -2653 0
-3595 -2814 -1921 -1220 0
3218 -2500 -1432 -1695 0
1381 -3818 -3138 0
3799 -1299 -1073 0
2900 -1232 -1817 -3210 0
2712 -1767 -3553 0
2833 -3447 0
3393 -939 -3986 -1603 0
3629 -2806 -682 -3443 0
-2025 -3593 -1625 0
-527 -529 0
-2819 -1044 0
14 -1815 -2544 0
2952 -2147 -3621 -2035 0
506 -3706 -1406 0
2638 -3224 -250 -2942 0
3889 -3846 0
-3086 -430 -4 -2160 0
2481 -901 0
-2925 -548 0
1646 -409 0
3706 -2634 -1472 -1018 0
-776 -79 -2046 0
-2948 -2018 -732 0
60 -1516 -3952 0
-3734 -3441 0
855 -1894 0
3372 -1073 -2076 -730 0
3504 -761 0
-683 -3628 -392 -455 0
2102 -1961 0
1734 -2066 -3418 -2753 0
1128 -1537 0
1891 -1456 0
986 -1491 0
3692 -3977 -2251 0
-105 -2472 -3259 -2000 0
1780 -3485 0
1435 -446 0
321 -270 0
2618 -2004 -2492 -2040 0
577 -1938 -2708 0
1114 -3405 -3788 0
3949 -206 -450 -3306 0
3155 -2032 -1047 0
966 -2810 -632 -485 0
2311 -3618 0
-970 -1122 -1890 0
-3183 -3399 -449 -343 0
2527 -2204 0
-2022 -1681 -2212 0
892 -399 -1332 -2498 0
2077 -2801 -2504 -2666 0
1472 -2333 -2792 0
-2067 -2623 0
-1030 -1636 0
2999 -2107 0
2727 -3986 -3905 0
3680 -465 -2095 -3957 0
1537 -2891 -3085 -2391 0
2809 -3505 -1392 0
85 -311 -3271 -1567 0
1603 -3833 -1851 -909 0
1367 -2360 -2142 -3923 0
123 -3328 -3459 -3370 0
-3187 -143 -2636 0
247 -3448 -2489 -1011 0
-3403 -192 -2315 0
-338 -245 -2849 -2757 0
199 -295 0
2714 -3659 -1484 -3647 0
3103 -280 -3596 0
1217 -2986 -1967 -2658 0
1975 -2591 0
3703 -3641 -3870 -3314 0
1710 -1417 -1046 0
3482 -465 -2840 0
1918 -839 -561 -3387 0
3040 -1680 0
2576 -3120 -3768 0
544 -1237 -748 0
326 -2553 -1234 -1871 0
2640 -2315 0
1870 -2113 -3344 -291 0
1631 -228 -1961 0
357 -714 -1162 0
2568 -831 0
273 -190 -1213 -1428 0
-3511 -2985 -1618 0
403 -2415 -1792 0
722 -223 -3334 0
-3984 -1487 0
1384 -1350 -1091 0
548 -3555 -1054 0
297 -653 -1844 -3167 0
1816 -2916 -2804 0
-2714 -3075 -2796 -3376 0
1424 -1543 -3546 -846 0
825 -2263 0
-83 -409 -156 0
521 -3158 -3650 -2318 0
939 -57 0
3319 -1029 0
1564 -3176 0
1857 -3219 -2798 -2679 0
3924 -2310 -895 -3061 0
1224 -2036 0
3452 -3057 -983 -2941 0
2566 -778 -3498 -3135 0
2267 -3184 -3704 0
631 -3303 0
2783 -1314 -3773 0
2918 -3083 0
144 -109 -1932 0
2830 -1564 0
-1544 -459 -1514 0
1142 -626 -3904 0
2982 -1167 0
-3248 -1571 -1276 -3364 0
2964 -2369 0
658 -2803 -1318 0
-1482 -3803 0
1313 -1477 -1485 -3249 0
679 -541 0
1918 -2668 -3334 0
3170 -2144 -3683 -3844 0
3037 -2743 -2736 -3196 0
3038 -179 -206 -2944 0
950 -129 -3601 0
2644 -3910 0
875 -3538 -1236 0
3302 -152 -3416 0
3918 -2544 -2307 0
-3747 -2566 -3726 0
1843 -3577 0
37 -1997 0
1346 -3577 -2814 0
2895 -2930 -1877 0
2411 -1266 0
-1248 -2556 -3863 -1231 0
2542 -2876 -1804 -2915 0
2075 -474 0
1096 -2498 -1528 0
3894 -990 -2043 0
1546 -1206 -3128 0
3079 -29 -756 0
-871 -2259 -2238 -3202 0
1259 -900 -505 0
-204 -3745 0
3489 -698 -2641 0
1310 -3356 0
-2202 -301 -704 0
2837 -2393 0
-3440 -2458 -2962 -210 0
1909 -2430 0
1808 -2759 -1208 0
-2690 -1649 0
2149 -1550 -1433 0
1957 -2162 0
171 -2321 -46 0
-938 -2631 -2789 -1997 0
989 -2715 0
2965 -1928 0
3013 -665 0
2376 -844 -2353 -1796 0
1349 -3305 0
3599 -2987 -501 -1612 0
-3912 -1741 -2566 0
-2506 -2871 0
-2323 -1214 0
2116 -850 -2265 0
-1195 -2050 -2643 -132 0
-3331 -644 0
1226 -2565 -584 0
3803 -201 0
-2900 -387 0
3677 -3507 -347 -3937 0
336 -3040 -345 0
2666 -3602 0
374 -2680 0
-623 -1722 0
-469 -1303 -3803 -2575 0
3771 -201 -2263 0
-3834 -2271 -483 -3984 0
-1481 -2908 0
-3460 -765 -3907 -1071 0
3576 -3979 -802 -3417 0
1749 -490 -3336 -3515 0
3549 -1183 -136 -2619 0
3494 -3813 -1521 -1322 0
2087 -1044 0
2199 -2326 0
2532 -3357 -2222 -3599 0
1644 -2444 -2069 -3072 0
-3372 -3501 -2498 0
2457 -2203 -2033 -2239 0
1424 -60 -3170 0
1411 -2013 -1580 0
-2838 -1465 -3748 0
3230 -3594 -3072 0
1267 -397 -1543 0
3303 -3573 -811 0
-3802 -845 0
1432 -2231 -3668 0
851 -2271 -732 -2244 0
-2571 -1195 -139 0
1249 -3179 -1081 0
-3653 -2196 0
3269 -2340 -2460 -3097 0
3689 -1033 0
3727 -2147 -38 0
2747 -2004 -3391 -48 0
3453 -1469 -2603 0
2423 -2820 0
-369 -3857 0
868 -3595 -540 0
-2762 -1514 0
3492 -2916 -2713 -2203 0
2174 -3780 -3645 -1039 0
-177 -1847 -1341 0
2062 -3444 -1104 0
3712 -3326 -2717 0
592 -744 -2748 0
-548 -2494 -2746 -483 0
3088 -3697 -1039 -1728 0
1985 -1531 -2814 -2767 0
740 -2719 -1531 -3294 0
2179 -1621 -1657 -1873 0
-1599 -1154 -3636 0
-1164 -618 -72 -3955 0
3657 -2362 -237 0
49 -256 -1276 -1007 0
-576 -1161 -95 -823 0
1901 -1526 -2239 0
3508 -296 0
-3740 -1601 0
2877 -504 0
1860 -3855 0
2515 -3761 -219 0
-3506 -13 -2123 0
219 -2973 -2548 -106 0
3352 -1319 -2004 -3889 0
451 -2642 -3419 0
2455 -2776 -2954 -3488 0
1230 -1639 -359 -3826 0
-2977 -174 -878 0
2971 -1471 -2669 0
1888 -1777 -3366 -3901 0
820 -2378 0
-1109 -2066 -758 -1793 0
-3661 -917 0
495 -497 0
2938 -2860 0
-360 -885 -2640 -2672 0
2954 -3219 -1216 0
541 -236 -108 0
-1804 -3089 0
933 -3613 -3242 -3759 0
1625 -2993 -100 -2167 0
1478 -3547 -899 0
727 -1468 -3271 0
-2343 -2401 0
1842 -2105 -1321 -150 0
2529 -3566 -316 -1772 0
21 -1182 -2180 -2461 0
1342 -2400 -2378 -2723 0
-2317 -2266 0
-3927 -1115 0
1421 -3382 -32 0
3393 -2989 -242 -2884 0
1278 -2702 -3866 -3617 0
237 -3315 -2707 -2324 0
-1929 -3116 -3408 -1016 0
-1877 -1485 0
2779 -1875 -2367 0
762 -11 -601 -129 0
2331 -2981 0
1776 -688 0
26 -1617 -3901 0
-3711 -2394 -2215 0
2790 -3895 -3687 -3446 0
470 -537 -2148 -1702 0
3701 -1857 -878 0
-3330 -1179 -1222 0
-1322 -2711 -1166 -2069 0
2055 -3946 -2844 0
167 -2130 0
1056 -2910 -572 -986 0
3062 -3371 -3652 -1759 0
1527 -1962 -541 0
-3009 -2347 0
1288 -3081 -2590 0
3404 -3997 -1967 -1619 0
2070 -1939 0
1331 -2921 -3104 -3096 0
-1010 -3981 -2363 0
657 -1666 0
3776 -837 0
135 -3915 -3989 -618 0
-2537 -1961 -135 -2631 0
-3021 -1301 -3704 0
3613 -2641 0
2105 -2750 -767 -2496 0
-652 -1016 -2407 0
992 -637 -649 0
2398 -481 0
2436 -3644 -1504 0
2601 -798 -2399 0
-1906 -653 0
2993 -983 0
148 -2968 0
1612 -206 0
3773 -3074 0
-366 -2250 0
2627 -620 -1324 -2813 0
1666 -374 -799 0
797 -1409 0
3275 -1981 -727 0
12 -2612 0
1110 -280 -1001 -2868 0
3066 -1577 -1564 -2696 0
-134 -1268 -3135 -1294 0
930 -828 -1673 -3962 0
1114 -3599 -1935 -394 0
905 -1293 -2661 0
-2187 -3993 -2307 0
-2710 -3976 0
-864 -696 0
-2294 -3288 0
626 -3248 0
3655 -2632 -261 -2157 0
1536 -492 0
2057 -1439 -1477 0
11 -2141 -2473 0
1341 -2206 -241 -3899 0
310 -1168 -694 -776 0
850 -2955 -3179 -3400 0
1038 -2002 -3907 -290 0
3367 -3463 -21 -102 0
1183 -1120 0
3481 -1423 0
3572 -3065 0
-2254 -3085 0
231 -1192 -1459 0
1248 -1563 -2853 -3738 0
354 -3647 -2436 0
3772 -2096 0
3492 -83 0
-2998 -3950 0
1245 -280 0
303 -2575 0
-2043 -867 0
-3732 -1342 0
2227 -3415 -1153 0
-1002 -3224 -3468 0
3581 -681 0
232 -1861 -1974 0
-3860 -3562 -2303 0
-2280 -1246 -2102 -3754 0
602 -856 -2857 -956 0
-1074 -1714 -1172 0
3489 -3962 -1790 0
2689 -2871 0
3984 -2401 0
1241 -837 -2060 0
-3747 -1358 0
-2689 -1836 -2390 -2286 0
2565 -96 -3912 0
315 -1000 -2477 0
3868 -3232 -635 -1664 0
572 -3430 -1971 -3506 0
996 -3036 -2396 0
402 -3665 0
3434 -973 -1672 -321 0
315 -2208 0
-2710 -1404 0
1139 -1709 -333 0
3967 -578 -1507 -3152 0
-132 -107 -129 -1569 0
712 -1291 0
1154 -2912 -2329 0
379 -1853 -3302 0
3159 -3882 -2011 -65 0
2368 -2615 -1481 0
389 -825 -894 -761 0
1941 -1108 -3140 -2646 0
3232 -2339 -2639 0
-1011 -1743 0
1238 -3145 -1999 0
432 -1628 0
295 -221 -3118 0
1510 -2005 -2776 -505 0
910 -3114 -877 -3780 0
-800 -105 -1475 0
-2131 -3559 -2694 0
2429 -3728 -1687 0
1208 -2983 0
-25 -2650 0
2892 -2505 -43 -757 0
1395 -1120 -3109 0
3900 -2512 -2214 0
-3165 -454 -1055 0
2545 -3472 -1447 -3353 0
-3366 -172 -3134 -3573 0
-2200 -1285 0
797 -3529 -3694 0
3499 -3495 -1189 0
-495 -755 -1990 -3758 0
340 -13 0
736 -2381 -2714 -781 0
2463 -537 -1212 0
-2807 -784 -3085 -1031 0
914 -2867 -1101 -3923 0
2650 -2546 0
89 -2757 -1797 -770 0
-3599 -1411 -2077 -2537 0
-3436 -1599 -1655 -2384 0
1109 -3560 -3747 0
-2762 -3421 -178 0
400 -3382 -3513 0
3589 -126 -3342 0
1539 -1009 -3163 0
-3990 -3587 -3615 0
-3913 -1737 0
2273 -2723 -1095 0
3287 -724 -288 -2785 0
98 -2689 -1870 -1896 0
-3674 -3574 -3733 0
-1638 -3275 0
-3545 -3964 -3451 -1689 0
-2559 -3870 -2044 0
2256 -3896 -14 -2705 0
2396 -1219 -3044 -1598 0
-867 -539 -3577 0
2772 -2869 -2115 0
-3589 -3473 -1892 -691 0
-3474 -2707 -355 0
2984 -81 0
3013 -2443 -400 0
842 -2537 -2997 -3404 0
-1924 -2418 -1110 -282 0
287 -2306 -110 0
2861 -1740 0
3738 -1736 -3569 -2616 0
2253 -2796 0
1346 -2264 -34 0
2438 -664 0
-107 -2957 0
2364 -3529 -3314 0
1085 -766 0
3207 -2437 0
1974 -2124 -2924 0
3342 -371 -523 0
2621 -2906 -2320 0
3483 -92 -2041 -315 0
1939 -3794 -834 -22 0
3638 -517 -3424 0
1418 -1145 0
124 -2086 -1673 -2679 0
1481 -1478 -3160 0
1758 -746 -2796 -1565 0
3216 -3231 -3085 -3052 0
761 -3529 0
-1381 -1641 -2685 0
-1575 -2969 0
2995 -1592 -1410 -2891 0
-1292 -3224 -2841 -1527 0
3278 -1123 -439 0
545 -1645 -1440 -614 0
2289 -326 -1498 0
2121 -52 -3558 -2026 0
3110 -1676 -1008 0
1366 -1506 -679 0
434 -2084 -3563 0
2267 -1479 -3009 0
-1618 -2605 -2115 0
2978 -3645 -1611 -3325 0
2283 -2810 0
-925 -1827 0
2125 -3234 -676 -1537 0
1024 -1148 -384 0
1980 -3371 0
196 -811 -2075 0
-788 -854 -512 0
-997 -1990 0
2224 -353 -1421 -2367 0
671 -924 -2448 0
-1267 -669 -666 0
166 -83 -548 -2894 0
-1921 -547 -3959 -662 0
1138 -1349 0
-2631 -72 -2026 0
1347 -2270 -1442 -708 0
-3248 -2799 0
1949 -645 -1033 -315 0
3437 -867 -206 0
-52 -975 -25 0
1403 -2455 0
1249 -1174 0
-1849 -441 -2604 0
643 -952 0
3698 -837 -1917 -1655 0
3640 -3006 -938 0
810 -1724 -3197 0
3455 -2588 0
163 -1614 -2925 -1101 0
1340 -118 -950 0
3185 -1793 -2038 -3802 0
2271 -3857 -2575 0
1795 -2380 -2555 0
3304 -3044 0
-3526 -3610 -1264 -2683 0
3763 -1602 -3330 0
2123 -346 0
245 -1553 -700 0
2323 -330 0
-2412 -995 -929 0
542 -296 -2327 -1009 0
-1097 -89 0
289 -3744 -3711 0
1556 -1890 -3623 -3317 0
21 -3229 0
497 -861 -3325 -1004 0
3186 -3497 -1788 0
2312 -3370 -3041 -1140 0
301 -2730 -3711 -610 0
3895 -2811 0
964 -1257 -953 0
-2343 -1151 0
633 -2786 0
3048 -1890 -3246 0
-1712 -3387 -3612 0
1399 -363 -3522 -554 0
-3541 -189 -3465 0
-2551 -2740 -1868 -758 0
-3512 -1136 -405 0
42 -3623 -550 0
-2097 -3800 -2370 -1926 0
2423 -806 0
735 -2401 -3560 -1287 0
-2560 -1041 -932 0
-3254 -988 0
728 -2918 -1188 0
1009 -351 -2838 -2759 0
-2892 -405 -983 -594 0
1151 -1957 -1188 0
3789 -3604 -3598 -1065 0
-582 -2496 -2860 0
1496 -1982 -857 -3069 0
3069 -1720 0
2669 -3348 -1032 0
-3943 -3049 -1790 -102 0
891 -932 0
3344 -1104 -2644 0
608 -2997 0
1488 -2858 -2938 -3311 0
1030 -688 -1651 -2129 0
2712 -294 -3400 -3723 0
-2432 -2166 0
1887 -1291 -705 0
114 -1554 -3123 0
-1419 -3312 0
-3091 -1837 0
-383 -3893 0
1191 -2201 -946 0
1460 -3097 -143 -1414 0
-3025 -3625 0
3058 -2750 0
36 -3441 -3829 -560 0
2436 -2479 -2546 -2227 0
2379 -2087 -3510 -2006 0
2655 -2243 -1522 0
3224 -3860 0
-734 -67 -3785 0
3034 -3790 -1474 0
-1614 -318 -2259 0
-2899 -1815 0
2087 -1647 0
2027 -3442 -128 -281 0
3948 -3571 -2171 -2828 0
383 -1262 -2204 -2372 0
3282 -2855 -155 -1586 0
-3189 -3003 -402 -2655 0
2158 -2887 -1344 -3461 0
44 -370 0
1326 -2391 -2354 -173 0
-810 -922 -105 -2203 0
-1520 -3524 -2188 0
1378 -3672 -3853 0
-1089 -708 -3484 0
1361 -2646 -562 -384 0
103 -2888 -74 0
-2535 -598 -1717 0
3608 -3160 -1684 0
2707 -1082 -2906 -759 0
3877 -883 0
-1261 -1958 -3881 0
929 -1239 -475 0
3445 -2402 -893 -1059 0
2397 -233 -287 0
-522 -1588 -1420 0
72 -2760 -916 -3326 0
-1992 -3651 0
3494 -1097 -2293 -1076 0
2140 -676 0
-1764 -925 0
2078 -3160 -1982 -1015 0
-2202 -1713 0
3408 -1762 -2661 -3319 0
3239 -2715 -735 0
2623 -3982 -225 -3252 0
2986 -2621 0
-365 -3556 -3909 0
-2858 -3540 0
2905 -112 -2402 0
1332 -2401 -217 -2998 0
3525 -3066 -566 0
797 -2278 0
-3874 -3464 0
-1213 -1028 0
-2940 -2976 -2527 -1169 0
3002 -1915 -268 -2037 0
3805 -966 -1014 0
-1492 -2596 -703 -267 0
2449 -2656 -284 0
893 -511 0
1087 -2263 -50 0
2435 -92 -225 0
-891 -1628 -1041 -2214 0
3117 -86 -2034 0
1655 -3006 -2773 0
2648 -3641 -602 -3093 0
-33 -3494 0
-1563 -3618 -637 -2407 0
1294 -1491 -2453 -1264 0
3091 -2326 0
1919 -1236 0
1795 -3546 -1830 -14 0
-815 -155 0
1164 -1349 0
-420 -142 0
329 -2337 0
-821 -2247 -3329 0
2537 -1561 -630 -2527 0
3229 -1744 -1792 0
3341 -444 0
1179 -2935 -1982 -1959 0
-1893 -3332 0
1601 -667 0
-1700 -2650 0
604 -396 0
3710 -2508 -2047 0
435 -1755 0
3486 -497 -740 -2027 0
2963 -1158 0
3462 -153 -993 -1500 0
32 -1076 -2448 -3548 0
1773 -2379 0
3300 -1630 -933 -276 0
3683 -1074 0
-2656 -3676 -2471 0
401 -726 -1350 0
3635 -3673 -1202 -185 0
2263 -2586 0
2831 -3046 -785 0
2831 -2026 0
1814 -2220 -426 -1508 0
3077 -387 -603 0
-2584 -2214 -3259 0
1816 -1316 -2525 0
383 -549 -1008 0
-1739 -3609 0
2686 -1939 0
-883 -3827 -3795 -3608 0
1289 -3580 -2520 0
-2670 -3506 -3034 0
1882 -2271 -3872 -901 0
1392 -3009 0
-3313 -1968 -3000 0
884 -2245 -3528 0
1150 -1437 -1155 0
3531 -919 0
-1990 -1242 -1354 -617 0
2943 -2294 -2917 -933 0
2079 -3599 0
1702 -2419 -445 -1915 0
-1637 -638 -1427 -2717 0
3714 -706 -747 0
2295 -1520 -2414 -3591 0
3798 -3925 0
2891 -3565 -1080 0
371 -3042 -552 0
64 -2473 -257 0
-2885 -50 -1029 0
2454 -655 -448 -3231 0
-151 -938 -166 -154 0
1756 -3516 -3363 -2790 0
1042 -2482 -986 0
1858 -3798 -1870 0
2824 -2332 0
-1372 -1052 -2622 0
3973 -1706 0
3652 -124 -3293 -1557 0
1989 -3596 -3520 0
-3305 -595 -3014 0
-3937 -346 -600 0
822 -1620 -2269 0
998 -3420 -481 -292 0
3781 -426 -218 -3020 0
417 -2654 0
738 -1059 -3799 0
-3806 -1298 -1981 -529 0
2676 -2491 -1696 -2542 0
3212 -318 -1716 -2456 0
-732 -3246 0
-685 -3665 0
-94 -3751 -3132 0
1495 -2275 -3340 0
867 -2170 -2846 -3670 0
2280 -3122 -1631 0
-2668 -648 -1815 -2004 0
-1480 -136 -124 0
-2446 -1573 0
-233 -392 0
2107 -3128 0
445 -2461 -299 0
2845 -71 0
2673 -3906 0
-2407 -149 -3581 -2333 0
3524 -2833 -2138 -1132 0
-840 -76 -1977 0
3965 -1198 -3342 -2938 0
-2881 -2288 0
272 -2706 -3365 -1916 0
2867 -1185 0
-1959 -2056 -42 -3466 0
2966 -2503 -2175 0
1465 -2598 -3745 0
3405 -1697 0
2254 -2351 -1818 0
3920 -1836 -2044 -2412 0
-1625 -895 0
2880 -2762 -3611 0
323 -3808 0
1213 -1661 0
334 -3389 0
1553 -484 -3632 -1657 0
-2786 -1146 -1950 -990 0
-2024 -1465 0
-2565 -3919 -1896 0
1393 -2440 -2290 -3443 0
3884 -2062 -79 -1518 0
1840 -330 -1399 -3990 0
1585 -1974 -2453 0
1818 -1151 -1168 0
3409 -3416 0
-3077 -2272 -738 0
-1906 -3207 -2135 0
2607 -3077 -2643 -1303 0
759 -1343 0
-2005 -1626 0
2683 -2229 -3191 0
3611 -3819 0
898 -1200 -1125 0
2273 -2117 -1766 0
-2706 -1866 -1597 0
3800 -1040 -3463 0
3288 -1098 0
-236 -2544 -2789 -1804 0
1743 -2403 -3223 -150 0
353 -3810 -1475 -2459 0
2749 -1553 0
-2872 -1548 -2238 0
19 -3780 0
2116 -2886 -3564 0
3370 -2175 -3962 0
-2890 -3142 0
-598 -2124 0
2065 -3264 0
1350 -3183 -1740 -2992 0
1592 -2598 -2142 0
-3463 -3735 -2373 0
2650 -1888 -520 0
2193 -3504 0
854 -3555 0
2778 -2989 0
3409 -1176 0
3166 -2687 0
-2615 -3098 -3069 0
2981 -3699 0
1763 -3764 -2529 -1719 0
-1046 -3447 -112 0
1436 -2151 -2514 -1874 0
-1519 -2138 -92 -2890 0
-3602 -518 -385 -508 0
3814 -1180 -3506 0
-3161 -1514 -1539 -3350 0
2958 -1273 0
-1161 -1569 -2427 0
1184 -575 -539 0
437 -1914 -3867 -2581 0
958 -3202 -720 -1828 0
2415 -1581 -409 -1580 0
2094 -897 -3809 -2797 0
1375 -3921 -1749 -3076 0
1783 -138 0
-3717 -3432 0
-93 -2909 -382 0
3501 -2880 -3014 0
3306 -1173 -1809 -1554 0
3509 -3675 0
3517 -1234 0
-3117 -3292 0
100 -627 0
650 -788 -2248 0
-593 -319 -1604 -773 0
144 -1905 0
-3571 -3358 -3419 0
3827 -1425 -3369 -3761 0
-2648 -1052 -2944 0
44 -840 -3765 -2680 0
702 -1385 -3289 0
-2917 -819 -295 0
402 -28 -2405 0
1735 -1191 -103 0
88 -3680 -2381 0
496 -1526 -2441 0
1477 -35 -2875 0
-3329 -2108 0
1460 -2881 -3839 0
2243 -2514 0
-640 -748 0
1719 -2787 0
1056 -1935 0
586 -1967 -2123 -1043 0
592 -786 -1243 -826 0
2481 -152 -3329 -3112 0
3559 -259 -2150 -1286 0
-2574 -2060 0
2449 -2308 -2864 -1946 0
3777 -3955 0
751 -2685 -1967 0
2856 -2752 -3006 0
2452 -559 0
2267 -3599 -1933 -508 0
-799 -1834 -1491 0
-3885 -1722 -821 0
1728 -3708 -2541 0
2014 -2991 -2141 -1496 0
-1293 -1085 -2642 0
3960 -2208 -1442 -2232 0
1298 -3353 -752 0
-3394 -938 0
3663 -1240 -1442 -3924 0
1822 -405 -3117 0
1994 -495 -2396 -3396 0
2550 -1444 -1711 -3419 0
2249 -3213 0
-1720 -2793 -784 0
-3355 -3333 -3516 0
2510 -1067 -2927 0
1582 -3551 0
2349 -3021 -3866 -2749 0
1848 -2946 -109 0
1376 -3015 0
-3694 -1081 -2593 -1056 0
1868 -2974 -360 0
-1028 -1084 0
3597 -1947 -1335 -3841 0
2267 -1291 0
-358 -489 0
119 -3647 -2526 0
3540 -1720 0
3341 -1388 0
2302 -2096 -987 0
2267 -1288 -3734 0
1540 -75 -2652 0
3522 -2859 0
3637 -451 -2003 -60 0
3369 -374 -2621 0
3406 -149 -1316 0
631 -263 -978 -927 0
-904 -1103 0
3744 -3658 -2613 0
119 -374 -310 0
2495 -2114 0
1930 -2375 0
-2336 -392 -2105 -3600 0
3228 -1451 -2660 0
3876 -2676 -148 0
-835 -1935 -1075 0
572 -918 -1318 -1666 0
1701 -798 0
-3449 -362 0
1814 -2616 -798 -3304 0
2106 -684 -2009 0
-968 -98 0
2665 -616 -1367 0
-75 -78 -1159 -3908 0
1174 -2120 0
3921 -1604 -1641 -1228 0
3663 -2461 -3758 -3296 0
2318 -34 -3438 0
396 -2668 -3686 -61 0
3367 -400 -3077 -850 0
-1587 -3834 -3342 0
1493 -3405 0
99 -131 0
722 -1101 -384 -1721 0
844 -1548 -982 -3708 0
3860 -757 -1036 0
2336 -221 -2847 -1939 0
-2290 -3378 -1094 -507 0
3926 -3218 0
305 -2282 -3947 -714 0
3266 -2948 0
-752 -770 -2830 0
3403 -3349 -1719 0
2045 -2381 -1711 -2385 0
429 -2631 0
3220 -1684 -3687 0
1622 -635 -2413 0
921 -2036 -818 0
3568 -3948 -3891 0
-1515 -3356 -445 0
421 -3646 -2948 0
3689 -3481 0
-955 -3216 -2881 -3866 0
507 -304 0
2925 -1772 0
-2628 -948 -2793 0
726 -2142 -890 -2901 0
-1444 -3657 -1080 -2139 0
772 -2442 0
-2322 -996 0
2360 -2141 -2924 -3827 0
-2835 -243 0
-3686 -242 0
-3900 -687 -855 0
393 -2721 -1181 0
2420 -396 -3109 0
3216 -54 0
-627 -3083 -1769 0
-738 -2813 0
-1328 -2700 -2544 -1834 0
3804 -3032 0
725 -2265 -631 0
-1415 -163 -3076 -3140 0
188 -1589 -3230 -3783 0
-2131 -1040 0
78 -3725 0
2566 -2657 0
-3343 -2628 -337 0
2133 -2297 0
3499 -1286 -2554 0
1263 -1927 0
-3918 -1247 0
2885 -3687 -344 -70 0
2743 -1295 0
2793 -781 -544 0
165 -1671 0
3004 -885 0
-3912 -1010 0
-976 -1334 -2285 0
1082 -2726 0
-1671 -3767 -3915 0
1383 -1558 -2175 -3557 0
2223 -871 0
2126 -3351 -257 -2186 0
1505 -3992 -390 0
-524 -158 0
3357 -2924 -439 0
1207 -2078 0
1535 -3756 0
92 -3753 -3 0
2532 -2956 -2874 -2061 0
1000 -2567 0
-3094 -2444 0
-1350 -2292 -2897 0
-3555 -3419 -2617 0
756 -1691 0
-3280 -358 -2640 -2118 0
-3794 -3912 0
-3929 -553 -756 -554 0
1442 -2083 0
-3579 -1272 -2934 0
-2399 -2666 0
3648 -3983 0
942 -2629 -3545 -804 0
3343 -2367 -2924 -1202 0
2244 -666 -3768 -1934 0
1019 -2214 -2458 0
107 -830 0
775 -2753 0
946 -913 -2633 0
-3622 -721 -2842 0
2573 -1740 0
3102 -3101 -3115 -3728 0
877 -908 -1540 -1559 0
3997 -1202 0
1421 -803 -585 0
773 -3047 -680 -2148 0
214 -1201 -2389 0
1135 -26 -1337 -2544 0
3573 -1351 -626 -2524 0
-838 -3260 -1048 -504 0
-3627 -1622 0
210 -3729 -1885 0
2053 -3998 -3260 0
23 -3957 -3210 0
-1069 -3620 -18 0
2681 -2677 0
1925 -3911 -2408 0
3352 -1492 -1450 -2988 0
3073 -418 -1419 0
732 -3748 -3515 0
-2688 -3238 0
3369 -1613 0
-711 -2042 -2367 -3733 0
3859 -2369 -2963 0
1471 -2532 0
-3155 -1079 0
2927 -3084 0
1385 -1684 -2512 0
969 -146 -2609 0
3663 -378 0
3105 -3150 0
492 -3769 0
-1422 -3657 -1031 0
3574 -1604 0
-199 -2883 -2888 0
-3088 -3351 -383 0
-3085 -864 -1837 -1140 0
3007 -1375 0
-1924 -3058 0
3997 -2917 -529 -3188 0
2349 -2700 0
1420 -454 -924 -1544 0
2033 -1784 0
-2315 -2306 -262 0
234 -3894 -3382 0
3208 -1458 -3 -582 0
2668 -83 0
-338 -3053 0
-25 -326 -2904 0
-1450 -360 -2324 -1066 0
3687 -2745 -1619 -2006 0
1114 -991 -2066 0
-671 -3309 0
-1810 -3409 -1056 -702 0
3220 -2786 -3133 -1024 0
1063 -1646 0
1442 -582 0
-3615 -1143 -500 0
1096 -643 0
-3284 -1874 -1240 0
-3343 -861 0
-440 -249 0
-805 -1832 0
3724 -934 -1527 0
2811 -1039 -1116 -1541 0
1464 -3782 -2576 -960 0
-714 -1362 -2610 0
123 -3027 -2929 -2144 0
3374 -206 -2206 -2988 0
-3902 -570 -906 0
-3422 -751 0
-1724 -3672 -2428 -2057 0
828 -3339 0
2186 -3339 -1872 -2429 0
-3674 -1715 -211 -1090 0
-577 -751 -706 0
733 -2958 -2734 0
3654 -577 0
2698 -1901 -1564 -1791 0
-1689 -1198 -694 -452 0
2109 -2974 -1713 0
1457 -3738 -3615 0
2308 -3680 -68 0
3181 -963 0
3665 -922 -3641 -2137 0
-3346 -861 -3360 0
-637 -3085 0
-1267 -3312 -1890 -1311 0
-390 -2940 -535 -2814 0
2288 -1159 0
2775 -2009 -3703 -189 0
3583 -295 -3987 -3725 0
749 -1011 -1457 0
2666 -3073 0
-2175 -2117 0
1617 -829 -2541 -1075 0
950 -596 0
-2960 -3830 0
-3927 -1586 0
1696 -3807 -1126 0
2234 -2848 0
3757 -2199 -2349 -1921 0
195 -1413 0
500 -3362 -725 -2527 0
3168 -124 -1104 0
-3292 -2913 0
1700 -3570 -3661 0
879 -3996 -1178 -2885 0
1640 -218 0
590 -3986 -2786 -951 0
365 -539 -3339 0
1011 -3833 -1568 0
1685 -2958 -3444 -2610 0
-2553 -2229 -1761 0
472 -787 -2808 -510 0
3244 -1176 -941 -1581 0
1478 -194 0
479 -92 0
1461 -1929 -3906 0
1062 -1279 -916 -2619 0
1481 -1925 -3420 0
3224 -944 -2157 0
3900 -2492 -3326 -255 0
-44 -1132 -3254 -1483 0
2838 -3098 -1248 -2957 0
2861 -2988 0
1639 -1268 -2240 -1713 0
936 -1155 0
-570 -2913 0
3085 -979 0
1973 -121 0
2049 -2329 -3528 -1990 0
3319 -568 0
2705 -639 0
3751 -170 0
11 -1396 -100 -2677 0
-3619 -984 0
-1195 -3252 0
1740 -233 0
-1531 -1983 -1810 0
591 -62 -1821 -2388 0
3952 -704 0
-2957 -549 0
2015 -2969 -429 -3222 0
-3597 -562 0
-935 -781 0
283 -696 -685 0
1822 -1349 0
-1020 -2400 -2157 -955 0
779 -2397 0
2724 -1236 -1549 -2740 0
1290 -1495 -909 -3933 0
-1263 -2379 -2663 -1019 0
3661 -2705 -3182 0
1881 -3930 -1906 -1688 0
2274 -3223 -3105 -2915 0
-3659 -1859 -1711 0
-3489 -1803 0
-106 -1908 -872 -1980 0
850 -852 -2621 -3803 0
3583 -2105 -3195 -2055 0
2056 -3493 -529 -2203 0
-1618 -2792 0
2279 -1504 -2367 -2530 0
994 -963 -3169 -1035 0
1773 -454 -205 0
-2678 -1942 -1238 -231 0
-3696 -1185 -3994 -344 0
1652 -3032 -1968 0
2399 -2181 -319 0
2158 -1473 -1753 -1388 0
-1026 -2312 -2885 -1968 0
1290 -68 -1014 -3066 0
882 -154 -1952 -1673 0
1032 -3208 0
3718 -2712 -2466 0
2491 -833 0
2562 -1805 -2011 0
353 -1948 0
528 -3141 -282 0
-1102 -3741 -1452 -3901 0
216 -865 -1703 0
1542 -1694 -1146 0
2400 -3970 -2722 -1225 0
3108 -601 -3213 0
2860 -590 -259 -3072 0
84 -2227 -3485 -671 0
913 -3857 0
-3196 -2753 -1819 -2640 0
-1252 -1496 -1 -932 0
2637 -236 0
3823 -1884 -1223 -1120 0
-3620 -3231 0
2865 -3276 -3803 0
3283 -1299 -3693 -3938 0
3667 -2268 -2285 0
1830 -2707 -2417 -1434 0
1813 -347 -2645 0
574 -925 -1985 -2388 0
2899 -3309 -2464 -1984 0
2349 -465 -2947 -2554 0
48 -3667 -2353 -1586 0
-438 -1253 -1901 -1669 0
3490 -1451 0
2504 -2829 0
-2232 -1388 -2702 0
-829 -1275 -2668 -3141 0
2565 -3671 -2508 -2639 0
-2945 -1674 -582 -779 0
1004 -1873 0
2998 -2680 -1002 -3457 0
3286 -3994 -1188 0
801 -1258 -1372 0
-991 -2266 -2471 0
-3895 -1324 0
513 -3196 0
2305 -730 -3925 -3383 0
1016 -1581 -2453 -3597 0
2503 -3362 -3104 -978 0
-274 -3896 -1263 0
2296 -3977 -2810 -1243 0
507 -2888 -1028 0
1671 -2676 -820 -163 0
-2344 -3904 -3523 0
320 -1454 0
3576 -687 0
1148 -218 -2612 0
1642 -1100 -3314 -1542 0
905 -2248 -2204 0
400 -3181 -2118 -3917 0
2606 -618 -1706 -497 0
-3051 -3972 0
-3134 -2791 -490 -1760 0
1456 -3815 -2277 -172 0
3570 -1092 0
73 -3896 0
-448 -2076 0
3761 -3398 -147 -3995 0
1624 -52 -2501 -2022 0
-3030 -798 -675 -1896 0
353 -2250 -2416 0
1818 -2053 -2492 0
1613 -2887 0
-2631 -870 -2627 -3903 0
2733 -1886 -1560 -187 0
-3462 -2961 0
-3418 -171 0
776 -3444 -574 0
469 -2069 -2884 0
3608 -502 0
3163 -1332 -1485 0
-3400 -3060 0
-3460 -3876 -573 0
2268 -2338 -2997 -3934 0
915 -2832 -1928 0
-1007 -3302 -2182 0
585 -2251 0
597 -208 -544 -2358 0
3236 -492 -3860 0
2460 -561 -2343 -2474 0
-1934 -1160 -3819 -1907 0
447 -3829 -1610 0
1531 -980 0
2719 -678 -303 -2098 0
-2960 -2999 -1567 -286 0
215 -1922 0
3500 -3199 -3309 -2213 0
661 -1685 -1380 0
3806 -38 -298 -3470 0
221 -2686 -500 -1051 0
3059 -2883 0
2482 -3723 -1465 0
3534 -3380 0
653 -2762 -1114 -39 0
1246 -2419 -2787 0
1282 -1676 -3647 0
-3122 -3180 -1126 0
3402 -2839 -427 0
1074 -2221 -3440 0
3913 -1154 0
1175 -2950 -967 -3948 0
724 -1794 -3957 -375 0
124 -361 -3049 -369 0
-3521 -579 -3586 -3675 0
2442 -2879 -2910 0
529 -190 -2483 -966 0
-1944 -1423 -1878 -3034 0
1801 -207 -1616 0
1788 -1766 -2767 0
865 -2797 -2379 -805 0
-3138 -2813 -1983 -3096 0
1210 -1692 0
3798 -53 -1863 -1223 0
1556 -1760 -96 0
2651 -1070 0
3409 -3198 -423 -2879 0
-914 -2416 -2252 -2087 0
316 -2468 -2899 -2103 0
-3134 -555 -3193 -1640 0
2470 -66 0
3050 -2998 0
-3377 -3634 0
-3025 -3472 -771 -3806 0
1583 -1719 -48 -1249 0
-1474 -2426 -1907 -517 0
-1593 -2568 -3181 -2692 0
-2979 -216 0
2797 -449 -1281 0
-2074 -788 -2609 0
1139 -3511 -3447 -300 0
-3929 -799 -2549 0
1879 -3468 0
-1224 -1425 -721 -420 0
786 -2781 0
3070 -2556 0
955 -3153 0
2870 -3605 -2107 -1350 0
-2488 -3960 -454 0
-31 -744 -380 0
1925 -330 -1277 0
3979 -251 0
452 -194 0
1785 -2213 -999 0
3388 -1462 -1844 -1100 0
578 -263 0
-785 -494 -3146 -543 0
2635 -3038 -2326 0
3900 -2662 0
3859 -470 -2325 -75 0
3026 -116 0
3646 -1446 -1786 0
3511 -886 0
-3991 -1210 -325 0
393 -3598 -1528 0
2188 -2798 -3690 0
-1318 -2936 0
-3618 -1185 -2593 0
754 -698 -1455 -1889 0
989 -1761 -333 -741 0
2310 -242 -1124 0
874 -764 -209 -1820 0
-1064 -2958 -2977 0
35 -3469 -1245 -1086 0
3938 -3965 -2795 -1589 0
1468 -2326 -2028 0
2747 -3570 -2488 0
1132 -3726 0
-1280 -3111 -753 -127 0
3763 -2644 -1702 0
2485 -234 -233 0
3653 -2893 -2216 -2521 0
3046 -3278 -1237 -2500 0
3338 -251 -2553 -2000 0
2013 -435 -2091 0
-682 -398 -837 -1910 0
2872 -739 -629 -2118 0
-3584 -2773 -1636 0
-3734 -1715 0
2902 -2060 0
-2923 -2055 0
-3108 -733 -3340 0
832 -2331 -1613 -2780 0
1115 -2631 0
1831 -2536 -1762 0
-2935 -2095 0
3323 -1296 -3940 0
3591 -805 -3717 0
-2409 -1483 0
-2481 -3155 -373 -1775 0
675 -868 -835 -242 0
462 -2413 0
-1965 -2389 -499 -2150 0
1176 -332 0
1502 -1611 -2220 -132 0
2644 -1399 -1534 -2720 0
-2111 -2036 -3153 0
1191 -1040 0
2073 -2803 0
1209 -3018 -361 -2074 0
1309 -2465 0
766 -3436 -1850 0
3856 -1237 0
-2546 -3657 -3587 0
1120 -1288 -2050 0
-3613 -2913 0
-1445 -2075 0
3503 -3651 0
3481 -2388 -3160 0
-2591 -2542 0
2045 -3143 -1985 -2933 0
-3528 -1918 0
3399 -613 -3659 -1632 0
94 -3415 0
930 -2586 -2770 0
-2584 -2097 -1514 0
328 -2646 -2065 0
2199 -3462 -131 0
-2739 -1086 -1730 0
-2999 -1608 -264 0
-2713 -235 -2301 0
-563 -566 0
1101 -547 -3163 -2055 0
1824 -3220 -167 0
2683 -1718 -2350 0
2267 -666 -2458 -2528 0
1895 -445 -780 0
3794 -315 -321 -3869 0
3268 -3947 -1131 0
-3398 -2064 -3187 0
1350 -1162 0
-527 -1140 -800 -131 0
480 -1628 -2970 -2257 0
74 -2301 -3297 0
3451 -2443 0
3127 -3569 0
3416 -1292 -570 0
1122 -1628 0
3502 -1919 0
2411 -385 -2057 0
3350 -3616 -33 -2921 0
1828 -2598 0
2210 -1548 0
1491 -1616 -492 -1457 0
2123 -2493 0
81 -2719 -1862 -3673 0
3091 -3704 -1841 -1543 0
909 -2446 0
2900 -3808 0
322 -1795 0
2791 -3144 0
2441 -1725 -785 0
-1990 -3649 -1252 0
410 -528 0
-2406 -2738 -899 -3477 0
762 -1521 -1543 -2654 0
2982 -848 -3558 -2716 0
1730 -3504 -3897 -422 0
3804 -1231 -3613 -2530 0
-3285 -2418 -1630 -1122 0
1192 -1005 -3715 -3382 0
-1909 -1932 0
-153 -3610 0
25 -3998 0
-810 -3021 -3215 -1378 0
1571 -2006 -757 0
-1168 -882 -669 0
416 -2595 -2605 -1556 0
781 -1557 -609 -967 0
-778 -2574 -1845 -250 0
2554 -1485 -508 -1211 0
1546 -1999 -138 0
3618 -1497 0
3072 -1763 -2600 0
-3606 -346 -3672 0
-123 -1666 -2817 -3346 0
1219 -701 0
2264 -744 -1627 -3106 0
3095 -445 0
-2720 -1255 -894 0
3036 -111 0
-3057 -1790 0
2319 -589 0
-1383 -1410 -691 -2314 0
822 -747 -660 0
3676 -3872 0
-1597 -1398 -2383 -279 0
-1010 -2386 -99 0
3549 -1214 -268 -2117 0
3864 -2113 -2939 -3608 0
1223 -2777 0
3694 -3004 -3938 -1380 0
2360 -1146 -2115 0
-2171 -301 -322 0
584 -3590 -2064 0
171 -2656 0
-585 -1812 0
304 -3448 -2931 -1054 0
-3494 -2089 -603 -1583 0
-2454 -750 0
1027 -332 0
1923 -2694 -1075 0
140 -3579 -3628 -3101 0
-3008 -2823 -1868 -306 0
588 -1074 -776 -2724 0
-3192 -2575 0
448 -3445 0
-3410 -3953 -740 0
-1519 -14 -288 0
-1128 -644 -3372 -2768 0
3666 -3547 -836 -1713 0
-1903 -3042 0
3138 -3759 0
2462 -3266 -3583 -555 0
3281 -1807 -1178 0
-3092 -3192 0
-1966 -3084 -536 -1594 0
3675 -1971 -2076 -520 0
484 -1602 0
734 -118 0
3209 -1126 -2534 0
3159 -1355 -3334 -2200 0
827 -3 -2953 -2334 0
-1513 -3463 0
1815 -3005 -2807 -765 0
-2469 -3041 -2010 -1151 0
536 -2280 0
-1727 -2267 0
2746 -1701 -2075 -3569 0
3657 -1798 0
353 -71 0
2537 -324 -531 -2321 0
1306 -2013 0
2125 -1854 -1212 -3355 0
1376 -452 -1531 0
-1471 -2339 -3418 -167 0
2867 -1185 -713 -1709 0
-413 -932 -1596 0
488 -954 -690 -535 0
1822 -2971 0
365 -1974 -3090 0
3144 -2893 -116 -2870 0
1131 -3324 -3117 -3053 0
-1648 -470 -1292 -1961 0
1689 -2472 0
-2971 -189 -688 0
875 -279 -3992 0
280 -3503 -2182 -161 0
3907 -1296 -769 0
-3607 -784 -2196 -2247 0
2681 -3443 -2997 -2492 0
3649 -919 0
-1413 -2662 -2807 0
-225 -2652 0
2428 -3206 0
317 -873 0
777 -3541 -3776 0
2466 -3527 -2577 -2361 0
3096 -3579 -848 -1258 0
-1436 -3085 -1021 0
-3947 -2323 -3384 0
2008 -3549 -1702 -1941 0
-400 -974 -2761 0
2001 -1220 0
3312 -3118 0
2832 -1616 -168 -2018 0
-978 -2590 0
-157 -3370 0
496 -2552 0
3021 -1719 -2522 0
1526 -1657 0
3408 -1039 0
1084 -175 0
2160 -2262 -912 -211 0
-1806 -1493 -353 -3512 0
2741 -3990 0
79 -2161 0
-2724 -2451 -313 0
715 -2977 -2707 0
2709 -3523 -664 0
3245 -2008 -553 0
-932 -3303 -1457 -3405 0
2650 -1749 -2390 0
1876 -1895 0
1644 -3465 -2952 0
995 -3183 -3834 0
-1519 -2087 0
-1079 -2257 -1250 -1870 0
559 -2232 -1554 0
1435 -3871 -2214 0
3529 -1601 -108 -2372 0
-102 -3895 -109 -1703 0
860 -174 -1652 0
3078 -1808 -3116 0
-2793 -3363 -562 0
1238 -40 -3322 0
2363 -3006 0
-2562 -3814 -517 0
2133 -3281 0
321 -3466 -435 -1822 0
-2186 -39 -1127 0
3589 -1458 0
3157 -2768 0
1676 -2600 -3260 -765 0
2359 -1482 -2784 -207 0
1716 -3736 -2648 -1899 0
387 -1968 -2342 0
1088 -249 -667 -2520 0
-3828 -3398 -133 0
692 -522 0
1425 -1517 -2050 -1468 0
-447 -1322 -2861 -423 0
1181 -2806 0
-2106 -3751 -209 0
3394 -3134 0
-1541 -2571 -2906 -2720 0
-1567 -2794 -3451 -553 0
135 -3540 -1635 0
2736 -2805 0
-2538 -287 -925 -170 0
-379 -2074 0
1165 -1350 -1583 -1481 0
3635 -2589 -381 0
-2753 -2387 -3864 -3709 0
3520 -2763 -2273 0
1934 -3060 0
2986 -1007 -1232 0
536 -3464 0
3158 -2487 0
-3723 -1230 -1838 0
3614 -967 -371 -3655 0
2845 -251 -64 0
-96 -2288 -2140 -714 0
-785 -524 0
1181 -1962 -2540 -877 0
-3875 -1828 -2736 -2238 0
2464 -3744 -2647 -3912 0
1498 -791 0
-1677 -2070 -1801 -320 0
-3575 -3149 0
-111 -2243 -541 0
-1967 -2176 -871 0
1885 -1900 -596 0
1077 -2558 0
-1772 -1798 0
1809 -2894 0
-3623 -2954 0
273 -1224 -2270 0
3752 -1946 -352 0
2417 -963 0
-3537 -959 -3919 -2245 0
-589 -3066 -3549 -1167 0
3322 -97 -3946 0
3497 -2373 -3400 -1492 0
-3509 -2588 -2103 0
2930 -1006 -1467 0
3326 -2577 0
3661 -3838 -296 -1845 0
3998 -1539 -144 -886 0
69 -3642 0
-18 -1513 -287 0
1348 -2006 -1432 -3432 0
826 -2503 -1991 -2226 0
1231 -1591 -3044 -658 0
1048 -3880 0
-1270 -3 0
3814 -1506 -1060 -3319 0
3233 -229 -163 0
3998 -342 -1378 -3814 0
-895 -2542 -1893 0
262 -2991 -1431 0
-2465 -3797 0
2858 -490 -706 -725 0
-3686 -2321 -1037 0
2926 -822 0
-1109 -3743 0
789 -2495 -2784 -3163 0
2389 -3090 -699 -838 0
-252 -360 -120 -1333 0
3540 -2059 0
3207 -3804 -2966 -554 0
2348 -402 -1653 -1350 0
207 -306 -3385 -705 0
3248 -1942 -2754 -2827 0
-2501 -1742 0
2898 -1665 -1927 0
-1903 -1002 0
-1261 -1658 -2301 0
3672 -227 -2240 0
-3413 -2858 -58 -2055 0
2902 -2374 -3853 -2964 0
1743 -2682 -3917 0
1197 -577 -2607 -488 0
2647 -664 0
-234 -2379 -1766 -2718 0
-491 -3468 -1512 0
2875 -2530 0
-3724 -2643 -3436 -832 0
2838 -2777 -3770 0
2817 -3357 -1247 0
2592 -505 0
1075 -3626 -1183 0
2562 -1687 -1900 -2092 0
3228 -2640 -1776 -1377 0
3973 -1744 -3483 -1631 0
-1576 -3717 -93 -386 0
433 -3646 0
216 -2328 -101 0
2635 -952 -3814 -3946 0
3192 -2232 -2116 0
176 -3427 -2373 -2706 0
1982 -3479 -1326 -1218 0
3136 -2912 -3093 -670 0
3309 -2414 -2270 -3441 0
3023 -2185 0
1821 -1488 0
3948 -3296 0
2205 -786 0
-1424 -1740 0
1143 -2432 -696 0
2598 -1440 -2116 -2406 0
3748 -1999 -3553 0
1216 -2068 -280 0
1764 -1810 -2656 -1050 0
901 -2311 -3009 -2711 0
-1694 -2716 0
3467 -3024 0
-3842 -1436 0
-465 -269 -3644 -161 0
-1959 -1792 -3451 -253 0
-1826 -2458 -3467 -1181 0
-281 -2357 0
1784 -1576 0
2360 -1806 -616 0
1947 -3542 -3060 -1764 0
-2237 -1141 0
-3485 -3688 -976 -3930 0
2171 -109 -1805 -3029 0
102 -2007 -3871 0
3696 -1467 -3438 -2020 0
3472 -1322 -1299 0
2051 -2278 -3570 -1924 0
-1691 -3113 -192 -3297 0
3993 -370 0
3929 -3491 -3383 0
3727 -2620 -3015 -108 0
-3645 -1000 -2329 0
3216 -461 0
2922 -3740 0
-2453 -2245 -169 -3578 0
-1161 -3875 -2168 -2557 0
420 -1108 -2673 -2358 0
1520 -35 -274 -3394 0
3660 -78 0
3898 -938 0
3444 -2530 -881 -1264 0
633 -3926 -1683 -3606 0
1800 -1103 0
1772 -1457 -1533 0
3138 -2395 -3965 0
2099 -3846 0
1909 -1131 -934 -2203 0
3558 -2063 -1064 0
218 -3740 -2001 -660 0
3223 -3647 -27 0
1810 -1610 -838 -310 0
-239 -3131 0
-3074 -502 0
2388 -1437 -2264 0
-2864 -3996 -2013 0
-82 -1369 -1850 0
1334 -1782 -3142 -1234 0
3191 -613 -3517 -348 0
257 -2873 -357 -1566 0
2622 -303 -2093 -643 0
3098 -881 -3945 0
-2642 -2190 -1029 0
3160 -2517 -525 0
3169 -1627 0
117 -2160 -1277 0
137 -2373 -2240 0
739 -7 -3097 0
3114 -689 0
104 -529 -360 -3273 0
84 -3239 -1610 -204 0
2227 -726 0
2618 -1895 -1802 0
14 -3979 -249 -2906 0
-3005 -89 -2428 0
2298 -2952 -3885 -2827 0
283 -2668 0
-3434 -12 0
3736 -2880 -76 -1610 0
2684 -621 0
2185 -3203 0
2650 -3534 -882 0
5 -1246 0
2444 -3700 -2503 -3601 0
3791 -2376 0
3943 -2712 -1948 0
-1651 -2712 0
2718 -287 -2331 0
1553 -2197 -2576 -3313 0
1302 -194 -1588 0
-2913 -2896 -3340 -426 0
577 -2527 0
1720 -19 0
1573 -1740 -3958 -474 0
-125 -1189 -2119 -1068 0
1922 -747 0
1142 -3768 0
-3267 -732 -2725 -304 0
2750 -1619 -3741 -2609 0
3501 -468 -2302 0
-2805 -138 0
3582 -769 -3845 0
3184 -2971 -588 0
2440 -1650 -587 -330 0
3777 -1850 -3255 0
1865 -2559 -142 -1059 0
1174 -567 -1610 -3785 0
-335 -3700 -1057 -3913 0
879 -1627 0
2058 -1345 0
-2844 -1658 -3790 -984 0
239 -2109 -2640 -338 0
-1012 -3585 -1766 -40 0
2367 -1584 0
2127 -1408 -85 0
-145 -2334 0
476 -3301 -237 0
3985 -941 -2512 0
2682 -1095 -554 0
-1177 -1962 -2674 -3366 0
2637 -1084 -1622 -2230 0
2888 -838 -2706 -1091 0
-1410 -504 0
1460 -3957 -671 -712 0
779 -2951 -2036 0
-2977 -201 -3409 -2407 0
3592 -1505 -591 -3449 0
2324 -3889 -3511 0
2804 -3260 -2746 0
1014 -3036 -3101 -616 0
-2670 -3631 -20 0
2568 -1908 -820 0
223 -1387 -306 0
1955 -291 -933 0
1522 -3876 -2626 0
403 -2847 0
671 -3980 -1281 0
2300 -3338 -2004 0
-1507 -3119 0
-1954 -611 -1786 0
3811 -3628 0
-776 -1643 0
112 -2855 0
-2276 -2322 -1559 -3145 0
161 -185 0
3863 -946 -2599 0
728 -3132 -3165 -2987 0
3731 -3342 -1860 0
1985 -2504 -2228 -1531 0
308 -3724 -3811 0
3802 -309 -2731 -3755 0
-1347 -1630 -2181 -2134 0
2871 -3741 -82 -2626 0
2637 -1573 -3556 0
1813 -2760 0
1996 -902 -3633 -3401 0
27 -2802 0
-1454 -371 0
3281 -2842 -1024 0
3982 -1290 -2980 0
3986 -423 -2174 0
1517 -3736 -1519 0
2776 -878 -1273 0
1009 -3134 -734 0
-2297 -228 0
3294 -2344 -1826 0
3341 -2571 -1056 -1359 0
1606 -1735 -50 -3980 0
623 -3921 0
-18 -24 -1827 -2510 0
2372 -3571 -3688 -1028 0
853 -3005 0
1645 -1106 0
2112 -956 -998 -2434 0
2544 -267 0
633 -761 0
1491 -2950 0
46 -3077 -3884 0
-1259 -2060 -2430 0
-3631 -755 -1661 -1440 0
2393 -446 0
3301 -491 0
2061 -1196 -9 0
1423 -690 -1800 0
-2571 -1106 0
2487 -1004 -1846 -2565 0
1077 -1368 0
-1640 -2876 -831 -2558 0
1419 -3745 -625 0
1149 -540 0
1423 -1793 -1421 0
3509 -1515 -242 -288 0
-3114 -1745 -1612 0
571 -2608 -2537 -2936 0
-500 -1377 -1061 0
-3064 -3698 -1945 0
-3282 -3775 -2127 0
3347 -3702 -1585 0
2091 -2757 -3781 -313 0
635 -2704 -2436 0
474 -2824 -3556 -1806 0
-2964 -3082 -2975 -646 0
2637 -3033 -791 -1721 0
3090 -466 0
-1628 -63 -2900 0
-3345 -2144 -1849 0
-3103 -2347 -506 0
2186 -1460 -2584 -2153 0
49 -3896 0
1823 -3112 -264 -1238 0
3066 -2003 -1532 -3186 0
2530 -2803 -3370 -2243 0
-2886 -1616 0
-354 -721 -1188 -2666 0
2013 -2237 -1505 -2083 0
3138 -2860 0
-3143 -3799 0
136 -563 -3050 0
2532 -772 -816 0
2954 -1757 0
2861 -570 -1138 -1055 0
-495 -2172 -3721 0
70 -2176 -182 0
3720 -752 -862 -3745 0
458 -346 -123 0
-1008 -2572 0
1797 -41 -2601 0
-2190 -2510 -616 0
485 -1537 -1794 -761 0
-3408 -1756 -2657 0
2573 -2799 -279 0
1869 -219 -3244 -3599 0
2438 -3898 0
3918 -917 -2403 -1258 0
1519 -740 -1841 -2261 0
3511 -3519 -2362 -1789 0
-1526 -2184 -65 -1785 0
1419 -2945 -262 0
3213 -289 0
3327 -1937 0
3712 -3734 -993 -1788 0
2768 -1423 0
-3444 -2114 0
-1275 -2586 -509 -3939 0
2864 -1908 0
-1930 -3300 -462 -2210 0
2592 -2161 0
1624 -1328 0
2098 -3173 -133 -2297 0
3807 -2557 -2980 0
2066 -3111 0
-3860 -1937 -3372 -1524 0
-3004 -171 -1808 0
-3332 -3800 -3587 -2129 0
1461 -41 0
-153 -1632 -2278 -1923 0
-345 -1276 -3328 -3253 0
2839 -1274 -2270 0
-2967 -3377 0
2358 -3902 0
2790 -1117 -129 0
-3518 -2253 0
2735 -1408 -2756 -2458 0
2364 -1759 0
931 -3694 0
3428 -2029 0
463 -2995 -820 0
1804 -1216 -1319 -2720 0
-3869 -1594 -2413 -1126 0
-1863 -3495 0
808 -2522 -1526 0
-734 -1242 -1837 -3051 0
2315 -3623 -324 -1399 0
3528 -2877 -1809 0
-1365 -902 -3196 0
2384 -1311 0
806 -1211 -3318 0
3794 -2032 -346 -3448 0
3718 -3776 -3331 0
-878 -1688 0
601 -3752 -3667 0
-3361 -207 -1408 -1443 0
37 -1218 0
319 -2115 -1890 -649 0
2746 -139 -2708 -3787 0
3012 -2911 -3921 0
1018 -618 -3788 0
1023 -1017 0
313 -3861 -3419 -3435 0
438 -642 -3422 -3708 0
-3504 -1511 -881 -400 0
-1270 -668 -3471 0
2311 -3059 -3412 0
-2622 -2065 -2046 -3087 0
-1255 -1192 0
3404 -789 0
2324 -993 -1601 -2896 0
3051 -587 -1897 0
465 -1800 -1830 -703 0
2314 -231 -1056 -340 0
1547 -2005 0
2930 -696 -2215 -1682 0
497 -1523 -3043 -1052 0
-1376 -414 -3413 -876 0
147 -779 -3292 -259 0
2921 -2710 0
3494 -3727 -117 -3803 0
-2980 -2826 -315 0
1067 -2947 -3798 0
-3094 -1822 0
1001 -2741 0
1691 -2787 0
2918 -3402 0
-3064 -3677 -104 -1088 0
-3030 -1698 -1528 0
2015 -1176 -2528 -3126 0
2298 -3324 0
381 -440 0
1932 -699 -3028 -2060 0
1894 -1776 -1705 0
3229 -423 -1658 0
90 -2494 -1537 0
-1194 -3808 -2841 -278 0
1241 -3021 -2828 -626 0
401 -1194 0
600 -3392 0
-2982 -1670 -257 -1707 0
141 -361 -3825 -3285 0
-2921 -1057 -474 0
598 -294 -3354 0
380 -3586 0
703 -2991 0
2548 -799 -1769 0
841 -2718 0
-299 -3953 -1863 0
1363 -1224 -2621 -458 0
2518 -1677 -13 0
-1483 -1685 0
2184 -303 -3250 0
-528 -3421 0
3898 -2994 0
3476 -246 -2485 -3776 0
1690 -3073 0
-3381 -3842 -2163 -2987 0
3595 -395 0
-3194 -822 -695 0
-3604 -18 -3497 0
1088 -288 -1726 -3226 0
3674 -1562 -153 -3702 0
889 -1114 -2281 0
3177 -100 -591 0
-2572 -3029 -916 0
2032 -1636 0
1501 -1965 0
1976 -1613 -3044 -927 0
1016 -1455 -2244 0
2115 -1176 0
590 -1288 -175 -2770 0
2817 -2130 -874 -2819 0
666 -2117 -75 -3725 0
-2448 -2184 0
-1729 -1930 -1471 0
927 -265 0
-1135 -3842 -831 0
2832 -3747 -2154 -1577 0
-2474 -391 -2286 0
3349 -2603 -840 0
2124 -2315 -2724 0
69 -2701 -1305 0
-2820 -931 0
2012 -1907 -3869 0
-3839 -3055 -3129 0
3886 -466 -707 -1100 0
-2702 -1589 0
1213 -3698 0
-3426 -939 -2188 0
1799 -3881 -261 0
1889 -2777 0
-890 -636 -980 0
-821 -718 -3536 -147 0
1233 -197 -3387 0
475 -2467 -231 -722 0
-3981 -262 -1599 -540 0
1682 -2060 -2505 -2384 0
3543 -3074 0
1210 -30 0
3794 -3370 -223 0
1407 -108 -3661 0
3589 -2557 -1176 -1717 0
3389 -3031 -3254 -1933 0
1362 -3672 -182 0
3805 -3720 -3363 -483 0
3027 -773 0
-2474 -1362 -2295 -739 0
110 -366 0
145 -3711 -2626 0
3936 -3986 -1737 -446 0
3498 -3516 -444 0
3635 -1040 -469 -2340 0
244 -1637 0
2162 -3346 -3068 -3089 0
953 -820 0
-2096 -3080 0
-1141 -2493 -2867 0
2706 -3827 0
3835 -1782 0
-1968 -3698 -3582 0
1215 -717 -2073 0
-2389 -476 -3212 -1874 0
1181 -1478 -3659 -3954 0
2487 -1893 -3562 -316 0
-470 -840 -1244 0
1138 -3037 -2350 0
2987 -1491 0
3792 -3448 0
1799 -2529 -2637 -819 0
2733 -2773 0
2993 -1205 -2564 0
-1369 -974 -1760 0
2711 -332 -3046 -1226 0
-33 -2897 -506 -3684 0
3370 -1941 0
2053 -2451 0
3007 -3036 -1306 -2595 0
-853 -904 -1069 0
1631 -440 0
2197 -2078 -2732 -945 0
3324 -61 -1916 -719 0
-1194 -2048 -3640 -390 0
2953 -2303 0
3245 -2966 0
352 -3268 -3036 -2467 0
-1239 -3510 0
2889 -2697 0
19 -2938 -1984 0
1048 -362 -3101 0
3524 -2218 -3243 -2741 0
2602 -2583 0
278 -3532 -986 0
2116 -137 0
3799 -439 0
-3504 -3164 -3802 0
3164 -2405 -1216 0
3076 -156 -685 0
-68 -547 -3235 0
-912 -2035 -651 0
3394 -812 -1752 -711 0
2253 -2666 0
-318 -2693 -3783 0
2570 -1752 -1209 0
-723 -2562 -3059 0
1139 -3994 0
-3594 -2029 -2576 0
543 -3973 -384 0
-39 -2318 0
1620 -2936 -3402 0
2221 -2566 -1392 0
2608 -2839 -3389 -806 0
-3772 -3981 -2201 -3841 0
340 -2276 -1964 0
-3628 -1308 0
2371 -2659 -3536 0
3328 -2722 0
3893 -2939 0
342 -976 0
3618 -714 -2336 -799 0
-3477 -417 -69 -505 0
-1689 -1935 -3763 0
3983 -404 -2477 -161 0
3668 -2111 -636 0
731 -2666 -1361 0
3904 -1351 -1833 0
781 -3056 -1473 0
3234 -3208 -1470 -1034 0
1819 -55 -2700 0
1510 -1502 -3845 -3412 0
2572 -2716 -2894 0
3971 -149 -1495 -3703 0
3958 -2404 -2453 -3703 0
267 -3437 0
2156 -54 -1171 0
1091 -3120 0
841 -2337 -2148 -2445 0
937 -893 0
1784 -299 0
-1971 -2879 -1271 -3373 0
3642 -2910 -12 -1206 0
803 -184 -303 0
-328 -2289 -672 0
1479 -2273 -2602 0
-533 -1940 0
215 -2384 -2028 0
1366 -1733 0
153 -210 -365 0
668 -2982 -670 -2754 0
3942 -1640 -1129 -1275 0
-3165 -1802 -1144 0
-684 -2442 -3117 -2094 0
45 -2853 -1794 0
3301 -2910 -1724 -3276 0
3709 -2581 -2033 0
1889 -3894 0
-1997 -1217 -1821 0
2293 -2224 -1969 0
-737 -2611 -3632 -21 0
-120 -2911 -2082 0
2334 -566 -1641 0
-2378 -2338 -664 0
2831 -2700 0
-445 -929 -1346 0
2369 -842 -3684 -1768 0
-1135 -3847 0
3009 -379 -1714 0
3716 -176 -3547 -2482 0
175 -2679 -3272 0
3237 -1998 0
-3998 -2787 -2474 0
-632 -2207 0
1149 -565 -661 -1569 0
-1298 -1711 0
997 -1508 -706 -3209 0
2787 -2217 0
-664 -119 0
1881 -1579 0
3782 -336 -550 -2575 0
179 -3531 0
1615 -1724 0
-1607 -2864 0
971 -2349 -2002 -1464 0
704 -2108 0
-3002 -2 0
-515 -1948 -2129 -498 0
-1575 -3589 0
3991 -2412 0
1025 -161 -2066 0
835 -1671 -281 -278 0
3526 -3394 0
-204 -3246 -20 0
-1701 -865 -1572 0
1649 -2797 -897 0
-2712 -1709 0
2517 -1559 0
-155 -3601 -2931 0
-3730 -2762 0
-2949 -1893 -1409 -548 0
2328 -809 -610 0
2689 -455 -719 -3370 0
-323 -1428 -2017 -839 0
2097 -2128 -308 0
384 -705 0
1407 -59 -1251 0
-2379 -491 -2824 0
2554 -3813 -568 -2070 0
203 -521 -3844 0
1136 -943 -2816 -1690 0
2614 -1369 0
3032 -3634 0
-1708 -1110 -2753 -2292 0
2981 -2711 0
-441 -2195 -3568 0
-774 -3113 -3746 -1193 0
209 -31 -3806 -202 0
155 -3923 0
1223 -1691 -2758 0
2156 -3576 -614 0
149 -160 -3140 -2969 0
3100 -3665 0
-3267 -2853 -3882 -2658 0
3830 -2671 -3819 -716 0
-529 -2634 -547 0
1516 -2387 0
357 -509 0
3690 -3448 -2719 0
1493 -1057 0
1861 -2591 -3422 0
-3863 -160 -3769 -1427 0
1912 -26 -1427 -641 0
3865 -1995 -1273 -2914 0
2490 -2167 0
906 -1062 -2734 -115 0
-2422 -1349 -2742 0
-3092 -606 0
1130 -2732 -1326 0
156 -3083 0
-3409 -22 -2753 0
1844 -2112 -421 -3313 0
109 -2527 -1994 0
501 -837 -1239 -881 0
1424 -3696 -2553 -2957 0
-795 -3883 -2242 0
-1210 -926 -1116 0
-1626 -3820 0
3105 -1837 0
-1954 -1407 -2596 0
245 -656 0
3637 -238 -364 -1006 0
1023 -587 -1611 -3008 0
1491 -11 0
3924 -2765 -1055 -1501 0
3695 -2112 0
69 -119 -670 -3493 0
1688 -1343 -752 -1182 0
2933 -3145 0
709 -2913 0
586 -1742 -3817 -1789 0
705 -20 -1781 0
1627 -422 0
2106 -1998 -3358 -2959 0
1274 -2903 0
682 -344 -3707 0
2453 -3036 0
630 -2381 -1151 0
3733 -2733 0
1881 -2510 -2681 0
1813 -45 -189 0
-2349 -3583 0
-253 -2249 -2325 0
-2461 -110 -674 0
281 -1242 -1840 0
859 -1390 0
3483 -3933 0
2758 -1981 -2795 -2769 0
2013 -100 0
2527 -2983 -1110 0
-111 -1473 -3195 -3031 0
2173 -3096 -943 0
-1008 -3359 -1132 -2323 0
2660 -1203 -522 0
-3105 -781 -554 0
-3086 -2164 -728 0
3380 -3699 -1974 0
-2985 -2005 -1760 -1990 0
2766 -3404 0
-1533 -2663 0
-245 -2057 -1941 0
1515 -521 0
-2341 -425 -2059 0
989 -3060 0
3696 -3703 -3443 -526 0
-747 -748 -1331 0
-3510 -200 0
1089 -1624 -2025 -1468 0
1773 -2121 0
1953 -364 0
2456 -392 0
2799 -408 -1270 0
652 -3580 -3650 -1537 0
-3996 -3079 0
-239 -745 -1431 0
1302 -768 -2119 0
3532 -1679 -3175 0
-1400 -3253 0
2848 -1066 -1043 -3636 0
1625 -3333 -2588 -1545 0
-3516 -2024 -2606 -1032 0
-2135 -3212 0
-596 -3639 0
-1139 -1601 -2970 0
3972 -713 -1426 0
-263 -1954 -45 -1957 0
-1228 -2751 -433 0
1796 -2661 0
3918 -3509 0
-276 -3063 0
1157 -1054 0
1412 -269 0
3531 -670 -20 -488 0
-755 -1394 -2655 -3187 0
222 -2939 -915 0
1627 -3757 0
897 -3674 0
2591 -1664 -249 -2819 0
-69 -1087 0
-2814 -3815 -611 0
2045 -718 -805 0
2290 -2911 -1516 -334 0
2378 -3018 -2528 0
-2693 -316 0
1176 -634 -1329 0
-2402 -3398 -1663 0
-618 -1691 0
3655 -395 0
-988 -2855 -2585 -3865 0
1773 -1140 -434 -402 0
973 -1790 -1854 -1432 0
311 -2914 -3991 0
3188 -3312 -321 0
2149 -2018 -375 -2500 0
3888 -1800 -2465 -631 0
-1192 -3180 -3185 -1309 0
467 -410 -1528 -864 0
1710 -194 -2107 0
1081 -1520 0
3236 -1 -2287 0
3405 -733 -3952 -3815 0
1225 -3992 -1801 -1950 0
-279 -2612 -292 -2747 0
2214 -3652 -1165 -741 0
1296 -3374 -431 -2956 0
1810 -3423 -2237 -2805 0
-3414 -1401 0
3311 -3070 0
-3907 -1285 -3995 -2434 0
-2239 -2566 -3126 -786 0
2989 -1604 0
101 -2652 -1774 0
-3851 -2822 -2773 0
3833 -2254 -3696 -1550 0
25 -1842 0
3519 -2647 -746 -14 0
3742 -2574 -3891 -3365 0
-1494 -3359 0
1488 -1089 -3108 0
-3752 -195 -2626 0
-3621 -3080 -2305 -3983 0
2971 -235 0
2738 -1038 -192 0
3731 -2223 -930 -1545 0
-3673 -881 0
1671 -3714 -2232 0
1172 -2364 0
3010 -567 0
1063 -1454 -3153 0
-3736 -1122 0
3579 -3134 -2541 0
2086 -938 -1951 0
-157 -328 -2818 -1963 0
2058 -3782 -3836 -1253 0
2855 -226 0
-1969 -640 -2820 -48 0
-2886 -2222 0
2067 -2399 -185 -2058 0
405 -2437 -3430 -1517 0
1966 -1505 0
-3174 -1544 -2757 0
-702 -2875 -1625 -2765 0
3997 -2058 -2631 -2951 0
-3454 -1404 0
-1282 -2204 -1105 -2952 0
2341 -34 -1055 -637 0
2109 -468 0
1290 -3257 0
236 -1263 0
3266 -1414 -3502 0
1930 -1876 0
3230 -2642 -14 -2559 0
-1322 -2013 0
543 -3282 -2980 0
2519 -3873 0
1134 -229 -781 -2711 0
1651 -618 -1512 0
2407 -924 -512 0
148 -3587 -1642 0
2043 -2721 -1508 -2715 0
2835 -3746 -304 0
787 -2934 -3321 0
1759 -1586 -1554 0
1163 -1623 -3392 0
1401 -3416 -2435 0
-3754 -3835 0
1063 -2828 -3223 0
1168 -1527 -2991 0
914 -2607 -1627 0
3713 -2212 0
-1993 -2668 -2504 0
428 -1197 -490 0
850 -3619 0
-3509 -3385 -40 0
2495 -2961 -1335 -2322 0
3524 -2464 -758 -1367 0
1271 -3965 0
-2103 -1359 -3868 -2539 0
-124 -2003 0
1279 -2650 -2042 -3937 0
521 -3707 -713 -3865 0
109 -1241 -669 -3357 0
-2610 -2207 -1665 0
3805 -2468 0
3596 -3299 0
300 -2928 0
3094 -3551 -2365 -834 0
1508 -919 0
171 -438 -2555 -1095 0
2502 -942 -1769 0
-3226 -2324 -561 -712 0
199 -3036 0
-2044 -1672 -1347 0
3485 -2915 0
601 -3806 -3703 -667 0
1602 -2387 -99 0
3946 -2247 0
3019 -2615 -2123 0
772 -3587 -2724 -3316 0
3854 -71 0
428 -1364 0
3965 -2389 -3174 -3194 0
-1249 -1289 -3972 0
898 -393 -2421 0
1417 -2527 0
2074 -2937 0
-1716 -2222 -1864 0
236 -2377 0
1882 -2685 0
-146 -1701 0
400 -994 -1330 0
1929 -3258 -2209 -1753 0
1115 -3077 -874 -2925 0
2363 -2408 -2313 0
2262 -1301 -1743 -20 0
1594 -1628 -3436 -3699 0
-3428 -416 -575 -3605 0
2817 -1414 0
-3245 -1821 -420 0
2737 -1648 0
236 -3191 0
1977 -3812 -2111 0
2643 -3377 0
1955 -3014 -2886 0
-2346 -2118 0
-3512 -3580 -3027 -3535 0
1250 -3323 -2228 0
-3371 -1207 -2901 -3965 0
3516 -3642 0
3864 -2281 -1448 0
-2259 -1915 -245 0
2327 -2940 -2622 0
810 -2647 -1876 0
2458 -3310 -2641 0
-560 -292 0
2970 -2143 0
-478 -558 0
-2 -1677 -34 0
460 -2623 -2750 0
408 -3272 -3016 0
3353 -1878 -3780 -4 0
108 -874 -3900 0
1721 -1762 0
2260 -554 0
2154 -2010 0
1000 -1048 -3716 0
1091 -3109 -465 -2339 0
1719 -3057 -314 0
3538 -3275 -573 -2656 0
-626 -2788 0
3580 -3190 -18 -2445 0
-1677 -3921 -1120 -2336 0
3413 -557 -2536 -2718 0
2781 -2275 0
1560 -103 -3809 -3919 0
-471 -1884 -3017 0
1149 -589 -1066 -1493 0
-2251 -2018 -3001 0
-2628 -190 -3453 -1810 0
1694 -309 -1939 -3407 0
3704 -2809 0
3633 -2277 0
1783 -3432 -3317 -1019 0
3863 -532 0
2283 -3920 -774 0
2404 -1238 0
2395 -623 -110 -3365 0
2079 -1949 -3464 -528 0
2520 -845 0
3784 -2045 -141 -2790 0
971 -3872 0
1572 -1763 -2367 -3289 0
-1634 -3975 -2358 0
762 -713 0
-680 -2855 -1342 -2701 0
1917 -3039 -1739 0
2791 -2726 0
-705 -3403 -1388 -3864 0
-3955 -3960 -3560 0
2359 -3313 -3826 -2365 0
2445 -2936 0
-573 -857 0
2699 -3660 -776 0
-1011 -3476 -1436 0
2251 -1191 -3029 0
-3644 -1321 0
-846 -2428 -2753 -1944 0
2917 -1031 0
1571 -496 -3595 -1214 0
288 -1909 0
-1625 -2365 -280 -1126 0
-3434 -1766 0
804 -299 0
-2887 -1245 -3510 0
-647 -1604 -2769 0
982 -2800 -2434 0
2214 -665 -1009 -3173 0
3320 -1877 -1532 -215 0
1198 -146 0
1062 -3355 0
484 -550 -1780 -2483 0
3949 -2269 0
34 -1983 -10 0
-338 -1701 -993 0
-1234 -3861 -295 -2179 0
-3203 -2517 0
-2182 -3070 0
1661 -2966 -962 0
1865 -1054 0
-2358 -596 -508 0
3302 -3172 -1225 0
-2788 -337 0
3170 -2838 -3242 0
-2424 -2685 0
2432 -276 -810 -2724 0
-1458 -3567 -152 0
2209 -2793 0
1659 -2074 -351 0
-717 -3746 -3402 0
1884 -1813 -3292 -203 0
-3019 -962 0
2328 -116 0
2810 -212 -2363 0
1932 -3083 -1936 0
-468 -3145 -3171 -2004 0
427 -385 -1491 -2774 0
-2224 -2242 -2549 0
3664 -3333 0
-1528 -124 0
2197 -150 0
-33 -74 -29 -1298 0
3957 -113 -386 0
1167 -594 -45 -2100 0
3335 -1656 0
441 -3735 -3267 -3100 0
-342 -754 -95 -742 0
2823 -1835 0
1883 -1354 0
1229 -1628 0
2861 -2122 -2303 -82 0
2995 -2675 0
2101 -3187 -1577 0
2279 -3639 -3488 0
-3176 -2547 0
-3709 -709 -1104 0
2933 -1886 0
1931 -2815 0
-1483 -536 -1500 -1841 0
3597 -2960 -3121 -1520 0
2159 -603 -3444 -2724 0
43 -1476 -2387 0
1236 -3965 -917 0
-3979 -2013 0
1619 -1092 -2589 -966 0
-3540 -3189 -1831 -841 0
622 -1321 -3488 0
1186 -3176 -1640 -802 0
761 -887 -3937 0
669 -2720 -2219 0
-3545 -849 0
866 -2950 -1697 -1226 0
1314 -3597 -2571 -2348 0
-627 -3844 -2408 0
412 -1191 -2867 -2532 0
1978 -3641 -2213 0
2570 -437 -1975 -1935 0
819 -563 -3287 -2189 0
2966 -3345 -980 -2834 0
1968 -2455 0
1725 -485 -1787 0
2125 -515 -1705 0
1655 -3006 -3650 0
-3840 -2427 -3095 -889 0
2254 -439 -771 -1181 0
418 -975 -351 0
-3345 -1735 -852 -139 0
698 -3697 -2244 -2829 0
-470 -1888 -699 -3367 0
2584 -2285 -3382 0
3476 -1593 -2142 0
-2671 -2196 -49 0
1895 -2117 -878 -98 0
2488 -3476 0
237 -3699 0
3582 -330 -379 0
2175 -3790 0
1571 -1020 -582 0
1825 -129 -1573 0
1740 -3576 -1034 -768 0
444 -3857 -3127 -2986 0
215 -3165 -3586 0
2148 -3835 -2669 0
-969 -1916 0
-2906 -2525 0
-3957 -3349 -90 0
-1677 -984 0
3448 -871 -2348 0
1184 -1806 0
3533 -1391 -3820 -3460 0
-3601 -596 -2365 -2082 0
-644 -2985 -1544 0
2495 -1989 -3117 -3709 0
2215 -1131 -2575 0
2432 -3287 0
-2356 -2957 0
3966 -927 -3288 0
903 -55 -881 0
648 -3026 -3967 -714 0
2048 -3382 0
-2436 -3995 0
-3960 -2492 0
-2784 -1034 0
-763 -1469 -96 0
33 -1530 0
988 -1024 -3673 -164 0
2472 -3864 0
3043 -2098 -2452 0
3521 -19 0
2999 -603 0
3166 -2720 -2426 0
1507 -1212 0
-3580 -2200 -3731 -460 0
817 -1289 -2854 0
874 -4000 -712 0
359 -2689 -311 0
3433 -535 -604 0
1107 -3277 -3265 -3757 0
3046 -664 -3684 0
3587 -2064 -1582 0
2102 -47 0
-840 -427 -2756 -833 0
2875 -1563 -3173 -1167 0
677 -389 0
245 -2762 -1223 0
894 -1776 -3406 -3328 0
1571 -2351 -1783 0
1848 -854 -2627 -450 0
-2346 -3985 -167 0
3567 -2705 -2576 0
1962 -2699 -3378 -222 0
-3819 -1126 -3000 0
3869 -1238 -125 -3712 0
363 -3948 -258 0
-1398 -2795 0
-2125 -3484 -2942 0
421 -1528 -3579 -1592 0
-3007 -2091 0
-146 -562 0
1595 -3030 -1509 0
3653 -3442 -1529 0
-2728 -3161 0
-3737 -1198 -3027 -2070 0
3788 -3984 0
-101 -3514 -2493 0
-2012 -3343 -2076 -196 0
638 -3907 -3852 -2857 0
3907 -135 0
3843 -1964 0
1380 -3432 -1849 0
-1333 -992 0
-514 -1561 -1970 0
2495 -3939 -1263 0
-658 -728 0
806 -1317 -3395 0
2874 -3450 -600 -1676 0
-3807 -63 -995 -3821 0
-2561 -3453 -2820 -475 0
1507 -3890 -3318 -23 0
-3790 -2690 0
-2549 -7 -2424 0
-1757 -3772 0
2785 -687 -1416 0
104 -1694 -2278 0
1385 -2497 -3231 -2474 0
3473 -1090 -2154 -3877 0
1899 -1337 -3434 0
1202 -1952 0
1618 -3028 -68 -2870 0
2867 -3556 -761 -1148 0
1500 -3102 -2885 -3857 0
-2648 -3655 -1567 0
59 -3385 -3208 0
86 -1634 -392 -2079 0
313 -1742 -3423 -2353 0
623 -14 0
-3897 -2824 -1371 -1451 0
-2820 -830 0
3267 -761 0
762 -1971 -1211 -1147 0
-3784 -3879 0
-3327 -3551 0
2472 -92 -632 -3967 0
-250 -151 0
-3104 -728 0
1821 -950 -2737 0
-2249 -1253 -487 0
2886 -1718 -2985 0
1385 -3544 -3509 0
2433 -1252 -2287 0
2761 -1790 0
1735 -1697 -2819 -3176 0
2528 -1925 -856 -2018 0
1965 -2570 0
3222 -3805 0
-2260 -2976 -3742 0
-1453 -3129 0
-2642 -2719 0
-132 -1302 -2693 0
366 -35 0
194 -3364 0
-1626 -1791 -361 -3523 0
1718 -237 -2545 -337 0
2640 -953 0
3466 -1947 0
2835 -20 0
1668 -1837 -430 0
678 -2367 -3498 0
2013 -687 -1734 -511 0
3898 -2415 -2643 -2465 0
2582 -2079 0
-3439 -1296 0
1781 -2575 0
3633 -2753 -3103 -1867 0
615 -1334 0
-2019 -492 0
3917 -389 -3825 0
3886 -3927 -3286 0
-3616 -1648 0
3968 -1850 0
1674 -20 0
-3863 -1169 -3543 0
-3623 -814 -1575 0
3624 -22 -1879 -1294 0
93 -413 0
2970 -1162 -3181 -1018 0
1929 -1957 -3948 -923 0
-3565 -896 -2158 -692 0
2884 -186 0
1566 -3944 -3401 0
34 -1791 -3894 -1222 0
1555 -3910 0
-310 -3568 -1340 -838 0
1045 -1703 -1115 0
3699 -1384 -195 0
1965 -3903 -3307 0
3366 -3627 0
2596 -2268 0
2198 -392 0
2596 -3277 0
-3521 -1673 -579 -3456 0
2355 -844 -451 0
-3971 -716 -748 -2342 0
1389 -520 -1328 0
-3556 -1839 0
2708 -82 -3374 -1971 0
321 -318 0
1150 -3953 0
3471 -863 -2197 0
-1252 -2107 -1882 0
3690 -3190 -1445 0
2593 -619 -2859 -3272 0
3663 -423 -3158 0
3450 -2390 -2167 -3459 0
426 -2567 0
-3263 -1584 -2019 0
-3062 -1975 0
1589 -1630 -374 0
1269 -770 0
2261 -1383 -1229 -344 0
3461 -3887 -1753 0
3340 -1101 0
-2411 -3775 -1302 -221 0
1043 -3862 -1639 -1944 0
1466 -1491 -3648 -709 0
-520 -1600 -3568 -978 0
3209 -713 -3913 0
1982 -1191 0
2971 -2190 0
-3777 -376 -1883 0
-1092 -1370 -3804 0
-2294 -1969 -2547 0
3560 -1789 -483 -2234 0
1222 -3147 -3361 -1683 0
3573 -2931 -3659 -476 0
554 -3070 -1573 0
3823 -3587 -1289 0
-384 -1912 0
2415 -2889 -3080 0
-2227 -1544 -3295 -3870 0
-360 -2549 0
2331 -2226 0
2294 -192 -2008 0
2063 -608 -3374 -2088 0
672 -3699 0
1317 -592 -2976 0
3659 -515 -1692 -3968 0
1906 -2621 -259 -112 0
474 -756 -1523 0
3779 -2226 0
1054 -3584 -1976 -493 0
-2872 -3111 0
2142 -2382 0
-1201 -345 0
3605 -2634 -3387 -3449 0
3219 -2680 -247 0
2439 -3404 0
1440 -735 -268 -2390 0
39 -2253 -2445 0
440 -3901 0
1001 -278 -2031 0
3491 -3355 -1877 -2002 0
334 -826 0
-3055 -1269 -2350 -908 0
2420 -317 -97 -447 0
2368 -3655 -3176 -2051 0
3076 -3333 0
-128 -994 -2033 0
-3922 -271 -1656 -3350 0
-3131 -2621 0
3460 -1195 -3907 0
3065 -630 0
-1060 -3389 0
1955 -634 -2800 -1157 0
860 -424 0
2538 -2260 -3271 0
214 -1640 -782 0
760 -1365 -993 0
1975 -2274 0
3857 -2006 -2280 0
-1084 -567 0
1372 -1121 -1764 -2752 0
86 -3050 -3211 0
-1412 -1702 0
3738 -2135 -3164 -2025 0
-1683 -1022 -2243 0
3085 -2720 -730 0
1611 -707 -2995 0
1702 -3569 0
3868 -1679 0
1241 -2724 0
1226 -2630 -1313 0
3771 -2697 -1618 0
-3791 -1746 0
2214 -438 0
-2840 -2777 0
1146 -944 0
-1457 -1424 -442 0
2297 -2426 -3172 -1174 0
-782 -346 -1074 -3206 0
2393 -1509 -3001 0
1062 -2548 -1495 -8 0
3450 -2078 -2992 0
-3464 -3041 0
1123 -1232 0
236 -568 0
2117 -3162 0
2631 -2837 0
2254 -351 0
1616 -2050 0
-800 -2900 -2844 0
900 -3156 0
672 -2819 -470 -1314 0
3216 -633 -2610 0
-1045 -3162 -1907 0
3639 -1315 -1909 0
1335 -2894 -2890 -713 0
395 -2017 -2031 -1391 0
922 -1379 0
1660 -27 -3996 0
2203 -801 -1743 -1849 0
2604 -3019 -134 0
3749 -1272 -2234 -1241 0
1184 -2768 -645 0
1013 -3443 -1629 0
298 -2067 -1427 -534 0
577 -2704 -3453 -576 0
1189 -3364 -969 0
1369 -3095 -3789 0
-3246 -1694 0
1733 -3151 0
2442 -2251 -849 -3328 0
3128 -2534 -1350 -157 0
-181 -2937 -3847 -3343 0
3841 -389 -1124 -1935 0
252 -1984 0
3496 -2307 -408 -2947 0
2564 -134 -870 -1227 0
-855 -3142 -3405 0
2166 -622 0
3444 -3505 -1226 0
-244 -922 -2333 -3942 0
-941 -76 0
-319 -770 0
105 -1256 0
-2463 -1602 0
-1153 -2890 0
3919 -100 -1340 -2550 0
-1446 -1475 -860 0
-3280 -407 -1724 0
-296 -3246 0
2674 -2388 0
520 -2134 -1787 -823 0
710 -2278 0
-3160 -2706 -2876 -344 0
-1836 -1185 0
-3818 -2619 0
1595 -984 0
-3783 -3683 -387 -3852 0
3644 -2599 -3379 -292 0
-233 -1833 0
2080 -3359 0
561 -3331 0
2962 -2735 0
442 -1476 -3398 0
-2035 -3323 -3725 0
3492 -1764 0
-2080 -1371 0
-3967 -1966 -3870 -1726 0
2860 -2557 0
2912 -3025 -2664 -1163 0
2696 -3738 -657 0
659 -1538 -3914 0
2765 -2256 -2319 0
1849 -2101 0
232 -337 -3227 0
1544 -36 -3205 -2589 0
1120 -2563 -173 0
-2610 -2196 -2163 0
-1134 -225 -3302 -2877 0
-2070 -2245 0
3691 -605 -365 -93 0
3739 -1421 -3195 0
3973 -2372 -1608 -1058 0
2479 -2434 -1901 0
-956 -943 0
2371 -1952 -2074 -799 0
1570 -2809 -2356 -3627 0
-2331 -2807 -838 0
1782 -3856 -3198 0
2796 -695 -52 0
2153 -2846 -1140 -2928 0
628 -1658 0
2871 -1248 0
1294 -813 -1565 -3350 0
281 -2156 0
2845 -3339 -1421 0
2031 -2514 -1982 0
-1967 -1050 -2766 -1854 0
-2417 -3006 0
2932 -2042 0
-3817 -1675 -257 -3932 0
-3912 -15 -2396 0
3730 -157 -3270 -3586 0
93 -818 -1508 0
2458 -1090 -2772 0
458 -1076 -3406 -2536 0
2589 -2714 0
165 -1624 -960 0
-2944 -3846 -505 0
-2200 -1745 -2300 -3131 0
1953 -1545 -716 0
-827 -1314 -3961 -1867 0
1530 -1587 -3652 0
3505 -3666 -1425 0
3390 -2833 -3830 0
-2626 -3311 0
3369 -2084 0
705 -830 -1952 -2147 0
2377 -3399 -999 0
1365 -2475 0
3354 -805 -3118 -1777 0
-3944 -637 0
406 -3989 -1172 -3954 0
2566 -3777 0
-3660 -3307 -3280 0
-1870 -2442 -1567 0
-2588 -3956 -1105 0
628 -395 -2658 -2046 0
671 -626 -2257 -677 0
3718 -3603 -1435 0
-513 -1586 0
2827 -840 -71 0
2658 -2448 -55 -82 0
2949 -1100 -3502 0
1103 -2530 -2588 0
2950 -3799 -1316 0
-1646 -2534 0
-994 -3402 0
-768 -2219 0
1409 -2264 0
117 -2282 -1162 0
1937 -3913 -2640 0
-2602 -2060 -1586 -1763 0
1409 -562 -370 0
2867 -179 -2761 0
-2700 -3217 -1299 -1234 0
2642 -1441 0
3280 -933 -2465 -1142 0
480 -1524 -1987 0
338 -879 -2696 -2909 0
3169 -2128 0
-2350 -2286 -1008 0
-845 -2658 -1615 0
3295 -869 -129 0
372 -2848 -3704 -2623 0
2097 -1003 0
2504 -2621 -136 -1925 0
3425 -3136 -3447 -326 0
824 -1861 -2715 0
985 -2091 -3891 0
-3517 -61 -1921 -3830 0
2095 -3682 -3450 -79 0
414 -1530 -2081 0
1564 -241 -1135 0
-2735 -3132 0
3989 -3856 -1715 -2268 0
2355 -1264 0
1583 -2404 -3599 0
-89 -1827 0
-2299 -3402 -2930 0
-1143 -3939 -2945 0
405 -3904 0
2477 -3656 0
115 -3499 -2180 -3737 0
-2498 -3744 -1355 -1071 0
228 -761 0
-731 -2724 -1896 0
3872 -1337 0
336 -2790 0
-2708 -251 -2508 0
200 -386 0
3537 -2508 -2162 0
3497 -2207 -720 -1567 0
2747 -3029 -103 -2585 0
2964 -2309 -1600 -483 0
767 -3442 -986 0
127 -3138 0
-3664 -1275 -2386 0
2256 -3 -1323 -2048 0
3557 -3652 -2331 0
-3219 -373 -3465 0
830 -3915 -3902 0
225 -583 -2946 0
1023 -2719 0
3664 -3286 0
966 -2892 0
497 -223 -1341 0
1601 -1880 -3138 -3449 0
-3117 -3790 -3618 0
-1371 -1690 0
-2687 -662 0
450 -3568 0
3605 -3346 -3321 0
2864 -200 0
464 -3794 -930 0
-2692 -779 -1294 0
3324 -1646 -1704 -659 0
-2453 -2662 -3204 -950 0
2063 -334 -3930 -1640 0
-3158 -1245 0
467 -1152 0
1678 -376 -93 -1205 0
2725 -3059 -1946 0
1439 -3897 -1033 -247 0
-265 -2124 -3156 -2487 0
2373 -3949 0
1956 -2567 -3847 -1196 0
-3771 -2389 0
3199 -2879 -501 0
-10 -1021 0
3526 -2906 -1577 0
675 -3186 0
1894 -283 -2347 -3733 0
2587 -998 -1574 0
1354 -336 -1887 -1101 0
-150 -1949 0
3262 -3800 0
1130 -3242 -2817 -3140 0
1378 -1236 -34 -1956 0
275 -3873 0
1165 -1640 0
3647 -2397 0
1095 -1413 0
-2203 -1821 -1675 -3862 0
1643 -1633 -2348 -1284 0
2665 -882 0
-2493 -2070 -846 -740 0
921 -3065 -215 0
1177 -3821 -1687 -566 0
2661 -1514 -2421 0
-3308 -3454 -1694 -2118 0
2178 -490 0
2164 -3984 -1931 0
3636 -146 0
1150 -1105 0
-209 -1376 0
2518 -485 0
2990 -1972 -995 0
2600 -1301 -1021 0
-1563 -3967 0
-660 -556 -3042 0
-2926 -1032 -3486 0
-2980 -3184 -1094 0
741 -3737 -56 -908 0
373 -717 -2720 -2902 0
484 -3664 -1001 0
994 -1639 0
-239 -1864 -655 -901 0
143 -3937 0
1274 -2038 0
-2164 -1561 -2656 -2071 0
-217 -852 0
3147 -2414 0
3716 -2171 -748 0
514 -1966 -1033 0
487 -3809 -1128 -2142 0
-3705 -3758 -3330 0
2146 -1832 0
1233 -252 -3706 0
-1647 -774 0
2726 -2349 -269 -3119 0
2258 -2670 -1550 0
2968 -1544 -565 0
-1319 -2428 -1192 -1938 0
-1650 -3953 0
-440 -3123 -1240 -1078 0
-2120 -3344 -1094 -181 0
965 -211 -1235 -3189 0
2746 -755 0
2530 -3681 -3006 -3331 0
3900 -517 0
2073 -278 0
1448 -1851 -2628 0
1635 -3606 -248 0
-109 -1860 0
2419 -1653 0
-2107 -2758 -3304 -3025 0
-282 -1071 -1410 0
3501 -2311 -2251 -2222 0
-2408 -255 -2763 0
-77 -3591 -3052 0
1533 -1152 -2782 0
2390 -2983 0
2251 -2441 -2114 0
1578 -3119 0
3707 -1469 0
2258 -2579 -290 -668 0
2367 -694 -3557 -2330 0
3870 -3261 -703 -1183 0
3522 -3578 -3023 0
3660 -3604 -3692 -2732 0
239 -412 -654 -1632 0
-938 -1096 -208 0
-363 -3004 -1792 0
-1289 -163 0
2463 -1618 0
-3222 -1330 0
198 -2378 0
3523 -3043 0
1993 -688 -2803 0
1709 -1192 -664 0
3407 -1087 -1530 -863 0
1193 -1446 -3080 0
264 -122 0
1529 -1958 -2985 -827 0
2069 -3781 0
1434 -2604 -412 -2836 0
556 -3444 0
-1489 -3824 -985 -40 0
-3989 -1928 -3032 -2075 0
3767 -3459 0
1701 -1288 -3051 0
-2420 -3151 -2611 -617 0
3038 -1042 -3106 0
1590 -3179 -2821 -3657 0
2357 -1183 -914 -2998 0
-462 -3770 -2937 -115 0
262 -3794 0
1104 -3717 -228 0
3135 -697 0
797 -3360 0
1954 -2425 0
3033 -1127 -2229 -252 0
-3650 -2149 -3847 -2496 0
1520 -428 0
156 -507 -3135 0
1676 -3450 0
-408 -675 -2905 -3022 0
3817 -1539 -1098 -724 0
-3244 -1531 -2815 -3573 0
-3839 -174 0
588 -2878 -2671 -2815 0
1921 -747 -2435 0
104 -1804 -358 -3628 0
1253 -2514 0
3384 -1103 -1295 -182 0
2928 -2588 -328 -3540 0
1847 -2130 0
-203 -1553 -2600 0
-2569 -2356 0
38 -1233 0
433 -509 -854 0
-3266 -712 -1568 0
3936 -666 -1785 -881 0
1565 -2872 -3233 -3936 0
-2757 -2089 0
3110 -1755 0
675 -2231 -1950 0
-1710 -2357 0
-2008 -803 -607 -606 0
-987 -1127 0
3753 -873 -3507 0
214 -2210 0
-1836 -2839 0
-1978 -1534 -2385 -1088 0
3551 -1887 0
1619 -229 -976 -3648 0
330 -813 0
1248 -3295 -2527 0
473 -524 -2443 -2702 0
-956 -656 -2907 0
-44 -2218 -3493 0
1703 -3486 0
2916 -469 -3655 -404 0
3169 -1402 -1445 -3784 0
-85 -1339 -325 -1285 0
451 -1214 0
3592 -3937 -744 -781 0
-3865 -2181 -500 0
1238 -2824 0
-2924 -2562 -2035 0
1888 -1055 -526 -3188 0
-3184 -1660 -510 -740 0
-2135 -2642 -3456 0
1236 -2556 -1957 0
3572 -204 0
-2027 -2940 -2087 -1631 0
3645 -853 0
-3785 -3931 0
-3497 -3440 0
-779 -1562 0
2322 -3740 0
-458 -3153 -393 0
-754 -1483 -3048 -432 0
741 -748 -2627 -3719 0
3812 -851 -2112 -159 0
498 -3757 0
1131 -3660 -1003 0
-3974 -3801 0
1033 -2559 -215 0
1035 -3118 -2444 -1705 0
-2658 -2890 -1172 0
2418 -1068 -2757 0
2620 -651 0
-2197 -1017 -2587 0
2792 -1827 -3242 -1562 0
-1697 -3161 0
-503 -1227 0
-2097 -1807 -2557 0
1190 -3475 -3075 0
-813 -863 -3226 -1680 0
-3888 -2378 -2712 0
2534 -698 0
1572 -3352 0
3373 -1474 0
2311 -879 -298 0
2353 -140 -3188 0
-677 -47 0
-3705 -265 0
1934 -2557 0
-1060 -3205 -1826 0
2506 -1626 -3060 0
3874 -2438 0
1118 -3026 -629 -1157 0
-2154 -3795 -341 -1980 0
-885 -1195 -577 0
-1884 -761 -503 0
1811 -21 -3617 -1146 0
3751 -311 -222 -3753 0
228 -1723 -1696 -1938 0
290 -3765 -1555 -1107 0
-3471 -737 -139 0
1551 -2407 0
235 -2305 -2505 -2662 0
1724 -3920 0
-105 -2201 -3366 -2822 0
-1179 -64 -53 0
-669 -2076 0
2481 -2706 0
2844 -2878 -1425 0
-1530 -1125 0
-464 -667 -478 -2989 0
3610 -3849 -2178 -2828 0
575 -3731 0
2648 -2035 0
-551 -2217 -2690 0
3232 -1143 -125 -3008 0
3615 -2614 0
2808 -2615 0
-1551 -3483 0
1157 -664 -802 -3013 0
1371 -409 -1040 0
1412 -2165 0
-187 -3845 -3486 -2547 0
1698 -259 0
1986 -1113 -616 -2455 0
3991 -480 0
1707 -795 -2954 -1943 0
3008 -2373 -1028 0
3853 -3899 -595 -3122 0
-3419 -1054 -54 -1766 0
2645 -481 -2153 -2632 0
1131 -744 -3614 -1847 0
2585 -83 0
-3023 -3345 -3666 0
1468 -2967 -1169 0
793 -1009 -3078 0
318 -640 -2761 0
2758 -3675 -1319 0
-710 -3278 -25 0
2391 -131 0
144 -360 -3212 -478 0
3910 -1757 -1826 0
1973 -3101 -2306 -120 0
-2934 -3869 -3275 0
-2091 -3626 0
3997 -2342 -3052 0
165 -3472 0
-906 -3626 -3190 -3759 0
-1074 -2363 -3077 -2004 0
-3303 -1034 0
3119 -750 0
466 -3505 -484 -3305 0
-2491 -3473 0
1706 -3386 -3743 -274 0
225 -2008 -2950 0
-993 -2947 -1411 -3856 0
1096 -395 -2034 0
-595 -1084 -548 0
-2866 -3003 0
2128 -3985 -720 -632 0
-1661 -2995 0
-2121 -2346 0
3216 -2294 -3004 0
3452 -3245 -448 -3286 0
-1035 -146 -2280 0
3293 -2265 0
3228 -394 -674 0
-758 -607 -3737 0
2286 -1642 -2668 0
2569 -2374 -1121 0
2395 -968 -2015 -3987 0
-2933 -3673 -2539 0
2025 -2547 -2595 0
3954 -3337 -3903 0
-479 -3056 -458 -3470 0
-1829 -1238 -3358 0
2095 -1079 -909 -2809 0
2676 -1438 -1234 -1444 0
3673 -1159 -1866 0
1363 -1465 -1152 -3797 0
674 -972 0
-2489 -3561 -3162 -2636 0
3419 -2662 -1002 0
3239 -3484 0
-826 -2919 -3537 -3349 0
181 -667 -2743 0
2692 -833 -3438 -3430 0
800 -1961 0
516 -1518 -2318 -1603 0
3617 -1863 0
505 -46 -3439 -1513 0
1749 -1057 -2116 -1155 0
3547 -3250 -2912 0
1231 -1438 -1395 0
2300 -837 -1717 0
3493 -1222 -874 -3214 0
3486 -1222 -3435 -1004 0
-3976 -3107 -2676 -1879 0
1269 -1394 -3783 0
3771 -3601 0
1565 -1172 0
19 -1846 -961 0
1311 -207 -610 0
3298 -3036 -2926 -863 0
3240 -1078 -3850 -896 0
-619 -1546 -885 -389 0
3352 -3060 0
-67 -3615 -437 -2881 0
-1794 -2346 -2086 -2749 0
3943 -1199 0
1932 -162 -3519 0
-2483 -1458 0
-3739 -2179 0
144 -3067 -222 -2498 0
3016 -1003 0
3009 -1107 0
171 -2820 0
-1600 -1483 -1833 -1938 0
-2559 -3328 -2724 -3323 0
2386 -816 0
2535 -911 0
-2379 -2788 -958 0
1889 -1281 -711 0
258 -2903 -295 0
299 -2924 0
-1909 -96 -453 0
-2169 -988 0
3281 -1793 -879 0
3828 -3644 -3725 -3074 0
2243 -3339 -3592 0
612 -3263 0
2018 -2411 -3329 0
1843 -427 0
229 -61 0
-971 -417 -2749 0
259 -632 -2656 0
2243 -1774 0
1800 -2764 -1693 0
3618 -3616 0
2278 -1143 -969 -1182 0
-3149 -3812 0
358 -3356 -3391 0
-3368 -2888 -3093 -275 0
2157 -584 0
3059 -2461 -881 -2847 0
963 -715 0
1323 -2652 -2312 0
2045 -589 -3516 0
872 -2095 -1693 -3758 0
2407 -1343 -1745 0
2028 -2334 -3351 0
1060 -1668 -705 -1283 0
3383 -1583 0
2872 -3209 -915 0
2759 -1634 -1587 -2356 0
3036 -2606 -32 0
1415 -2024 -1526 0
1009 -212 -1432 -3189 0
-2207 -160 -113 -1302 0
-1810 -1775 0
-1699 -38 -925 -2142 0
-1971 -3830 0
2310 -2547 -2788 -1114 0
-1454 -3619 -2130 0
688 -3928 -1107 -206 0
2692 -2125 0
-1898 -2728 -3111 -2654 0
2676 -3682 -3366 -66 0
2912 -217 -2120 -2750 0
1544 -810 -2448 -2647 0
1419 -1612 -3486 0
3115 -1920 0
67 -1475 -1029 -509 0
852 -56 -986 0
1326 -1308 -3097 0
705 -1020 0
2002 -1980 0
2246 -767 -3539 0
3135 -3324 -386 -1327 0
-1303 -3932 -3049 -2159 0
-3675 -1231 0
-2322 -1604 -2961 0
2229 -2068 0
600 -118 -3958 -333 0
1218 -1267 -368 0
1378 -2241 -2532 0
-1103 -822 -1213 -134 0
2377 -3 -2854 0
2800 -2212 -1871 -3527 0
870 -1482 -3735 -3059 0
1793 -2222 0
1300 -2290 -1731 0
-1391 -1145 -372 -940 0
-1759 -2964 0
-362 -245 -1932 -3808 0
-826 -3208 0
2086 -3221 -1313 -3836 0
1981 -3906 0
1444 -914 0
-1266 -3906 -2000 -781 0
3310 -3770 0
3169 -425 0
1750 -2427 -184 -2075 0
29 -1502 0
-2961 -4 0
-4 -3132 -1450 -3545 0
1883 -826 0
3396 -3917 0
-377 -1711 0
-736 -2332 -3184 0
1335 -1210 0
3402 -2187 -743 -1192 0
3949 -3933 -3298 -3641 0
35 -3283 -1835 -478 0
2109 -2137 -700 -3665 0
2307 -1210 -550 -2150 0
844 -997 0
-1752 -1505 0
-2105 -479 0
3606 -690 0
1436 -2938 0
2606 -473 -1010 -3691 0
2277 -2625 -439 -977 0
2956 -3288 -3000 0
-2021 -423 0
-2995 -1693 -2980 0
3318 -3997 -815 0
2893 -1556 0
-942 -3669 0
-319 -1468 -2848 0
1601 -1551 -2454 0
-1521 -1144 0
1353 -2803 0
-2851 -138 -62 0
3273 -1843 -2062 0
-2902 -1555 0
1562 -3121 -42 0
515 -1396 -813 0
-647 -185 -892 -1746 0
3114 -2172 0
2989 -3570 -2033 -1464 0
95 -2823 -1883 0
3113 -621 -3544 -3425 0
3250 -1139 -2102 -2966 0
-3079 -1406 -1390 -2441 0
2072 -3325 -670 -3017 0
2534 -1066 -392 -2241 0
-286 -2011 -924 0
245 -1477 -3994 0
2004 -788 0
2512 -2018 -3922 -2754 0
3813 -3437 0
3273 -3149 -2075 0
1790 -1113 -2776 -2435 0
268 -1239 0
674 -2086 -18 -1047 0
2927 -915 0
-15 -2071 -1996 -573 0
66 -3973 0
-3350 -1979 -3239 0
128 -1415 -3241 0
-3317 -2888 0
-2480 -3818 -3246 0
-451 -3450 0
-2258 -3055 -2343 -2223 0
1040 -1749 -3634 0
2569 -3012 -2651 -1676 0
-619 -670 -2155 0
1892 -1866 -2494 -174 0
-1453 -935 -364 0
2337 -2132 0
-246 -1135 -2244 0
1160 -3509 -2891 0
1631 -2863 0
1072 -3275 0
2843 -1920 0
2968 -797 -1210 -3374 0
3075 -3299 0
2668 -305 -1957 0
1490 -205 -719 -63 0
3667 -3215 -475 0
71 -237 0
3053 -2957 -2440 0
160 -2975 0
1857 -3487 -3192 0
2285 -1973 -152 0
360 -611 -3087 0
455 -334 0
1612 -2781 -1375 0
3715 -3091 0
2870 -1975 -3417 -450 0
2481 -2577 -83 0
-209 -963 -1919 -3415 0
2928 -1633 0
-1889 -3737 -3502 0
1655 -1648 -3926 -3167 0
1053 -2528 0
2181 -1430 -3724 -3459 0
547 -899 -2673 -1380 0
3558 -1116 -3825 0
2666 -3636 -1678 -1193 0
-2635 -284 0
1226 -2052 -144 -3433 0
2039 -843 0
60 -389 -748 -2400 0
218 -1536 -3611 -3277 0
-1376 -3632 -3475 -3950 0
-3926 -280 0
1365 -14 -349 -2421 0
1991 -2629 0
3167 -3163 -3113 -252 0
-66 -3948 0
-3062 -2588 0
-1090 -1700 -2378 0
-1161 -553 0
-3388 -320 -11 -2901 0
378 -3825 -498 -3457 0
-842 -1551 -866 0
1097 -1556 0
3109 -2752 -2127 0
742 -2534 -2638 0
3100 -1559 -2006 0
3592 -3171 -2980 -895 0
2944 -3189 -1645 -1895 0
3481 -1910 0
2755 -2385 0
1817 -2835 -1503 -2461 0
3014 -3540 -1116 0
3970 -1566 -83 -1129 0
3574 -3320 0
2288 -1399 0
1790 -2046 0
-2230 -1448 0
-1585 -930 0
758 -2084 0
3561 -3737 -16 0
-558 -1262 0
-3310 -1241 -43 -1716 0
-3643 -760 -3016 -1155 0
3182 -1058 -1528 -1953 0
794 -236 -2430 -1874 0
-2378 -3906 -748 0
250 -1165 -1237 0
1973 -150 0
3145 -2761 -3401 -3197 0
656 -1903 0
1425 -1213 0
3637 -3641 0
2296 -485 -1847 0
2855 -2110 0
-1621 -111 0
-3674 -3270 -2058 0
2248 -3974 -363 0
1487 -2790 0
1961 -3139 -3555 -3682 0
-2522 -1423 -2813 0
2137 -33 -2476 -1781 0
3383 -2266 -2264 0
121 -800 0
707 -2696 -2703 -1171 0
-3798 -1783 -2012 -2729 0
699 -1680 -957 0
1263 -255 0
-2398 -3192 0
3710 -1562 -1585 0
-526 -2804 -2191 0
3580 -2840 0
-18 -2185 0
-3808 -2931 -694 0
-3336 -3993 0
-1389 -871 -332 0
3653 -296 0
2733 -1471 -2540 -3701 0
-707 -3192 -736 -974 0
3010 -547 -2666 0
126 -3503 -3735 -3641 0
-1839 -1187 -3382 0
-1788 -2946 -1719 -2191 0
-2760 -1893 0
-672 -673 -1639 -2716 0
3935 -3875 -2501 -2234 0
575 -401 -182 -2108 0
2947 -1639 -1714 0
-29 -1446 0
-3356 -1625 -668 0
2543 -2575 -2008 0
1384 -1044 -3995 -2922 0
-1898 -3120 -2116 0
2011 -137 -2002 0
-3870 -2574 -3082 0
289 -1877 -2401 -282 0
-542 -259 -3834 -2591 0
3186 -1926 -384 0
1478 -2591 -2913 0
562 -2540 -1834 0
2115 -204 0
1019 -2267 0
-3766 -519 -3305 0
3861 -277 -2245 0
348 -3669 -3984 0
2164 -769 0
-1189 -2347 -602 0
703 -3986 -3671 0
1956 -563 0
1565 -645 -3238 -2498 0
-979 -560 -2544 0
999 -3461 -2564 0
3520 -1257 0
-682 -458 0
-905 -2611 -3729 0
-2857 -3590 0
2328 -3861 0
-662 -2734 -2799 -873 0
1419 -3995 0
1419 -2799 -557 0
2989 -277 0
2999 -3378 -2016 -2862 0
1309 -2301 0
1101 -1668 -3438 0
-3955 -112 -2216 0
-3664 -153 0
1529 -2006 -1674 0
3883 -165 -433 0
-3495 -1198 0
2981 -3774 0
967 -205 0
3293 -1194 -2306 0
2063 -3282 0
-524 -530 0
2234 -464 -77 0
3755 -3814 0
2938 -756 -1502 0
-1815 -3733 -2774 0
1154 -1025 0
2783 -2152 -2073 0
234 -3343 -105 -3084 0
-3334 -117 0
43 -510 -3982 0
3199 -738 -1423 -3180 0
1360 -1606 -988 -8 0
330 -1643 -3737 0
3018 -3675 -3408 -3837 0
-674 -2018 -88 0
825 -1126 -1997 -167 0
2695 -3279 -2145 -2497 0
790 -1430 -2440 -1561 0
-3492 -3877 -1329 -340 0
1386 -977 -479 0
343 -2602 -897 -1309 0
2551 -421 0
1907 -2692 -985 -87 0
2789 -1941 0
918 -899 -3264 -2308 0
-1092 -3868 -1902 -538 0
-2648 -1890 -1800 0
3984 -3811 -1057 -2341 0
3249 -3692 -3015 -3132 0
1769 -3536 -1461 0
-2959 -120 0
2211 -2259 0
568 -3849 -706 -3934 0
2140 -3346 -83 -3575 0
2864 -989 0
-868 -369 -1020 0
-3413 -3095 -1072 0
-636 -1373 0
-1902 -1342 0
990 -2726 0
3927 -1255 -1531 0
-550 -3482 -2961 -3250 0
740 -3586 -2281 -476 0
1078 -3946 0
-1723 -3172 -2439 0
1418 -701 -3090 0
-2491 -2369 0
-1950 -2008 -2418 0
2022 -3140 -3388 0
1867 -2502 -3532 0
2470 -451 -2215 -133 0
642 -2985 -1023 -2148 0
-2027 -427 -497 -903 0
-847 -3855 -2124 0
3458 -591 -2752 -1127 0
665 -51 -3816 -3767 0
1382 -3627 -2060 -3787 0
71 -3438 0
-3532 -1645 0
2622 -2891 -1253 -1567 0
-3098 -3285 -2127 0
3283 -1835 -324 0
697 -215 -537 0
3742 -3493 -2105 0
559 -79 -3668 -552 0
3961 -3945 0
-1259 -1478 -2487 0
136 -3687 0
904 -874 0
75 -3382 -881 0
3401 -428 -1128 0
3168 -2755 0
2592 -1948 -1907 -2942 0
2260 -2882 -3165 -3318 0
-558 -3341 -949 0
1340 -2425 -3386 0
-2566 -2677 -2052 0
1956 -1387 -2154 -3178 0
699 -2636 -1370 0
-2424 -3825 -3691 0
3003 -1980 -1632 -2690 0
-1931 -1562 0
851 -2265 -3885 -3266 0
3162 -1740 0
677 -3025 0
3102 -1374 0
3889 -3354 -2180 0
581 -1028 -776 -1871 0
3627 -1299 -3703 -3335 0
3957 -1432 -95 -2008 0
1600 -3016 0
2695 -2993 0
-3153 -1170 -1816 -2050 0
1691 -3765 0
-3010 -3551 0
487 -1087 0
-1731 -41 -633 -3992 0
1999 -709 -2 0
632 -89 -3443 -2910 0
-2731 -677 -3349 -2379 0
-3384 -740 0
1501 -1687 -130 -498 0
-3404 -1766 -1892 0
-1869 -2216 -3627 -3106 0
-3463 -1241 -2717 -242 0
1458 -3569 -1219 0
-559 -1842 0
1360 -948 0
3756 -1639 -3886 0
2382 -3536 0
61 -1851 -1187 0
-2563 -2334 -3285 -2551 0
1136 -2927 0
1366 -2173 0
-1547 -2612 0
-1991 -259 -1152 -2679 0
88 -2210 0
-158 -2778 -2553 -3188 0
2438 -3770 0
2011 -2949 0
3190 -3303 -3605 -593 0
750 -2513 -1286 0
-2962 -3669 -2170 0
533 -53 -3474 0
1526 -738 -3701 0
296 -3946 -2406 0
3322 -623 -3727 0
3311 -2404 -1075 -1120 0
-3351 -2270 0
2332 -3518 0
-571 -2530 -2449 -3741 0
-2176 -41 -83 0
3712 -3422 -211 0
2309 -156 0
2454 -3684 0
-1230 -3848 -1047 0
-662 -2846 -1532 -1267 0
9 -2315 -1548 -2592 0
1945 -523 -2904 0
1837 -1032 -2405 -1043 0
3632 -901 -3621 0
2587 -523 -1874 0
590 -2207 -1689 0
-196 -1334 -3284 0
-3077 -1315 0
3811 -3827 -694 -892 0
-3831 -66 -517 0
1536 -3415 -1814 -2920 0
2420 -1558 -2668 0
1375 -1717 -2058 -1052 0
1184 -783 -2338 0
3119 -3223 -945 0
1110 -1729 -3740 -998 0
639 -1959 0
229 -349 0
-1592 -3662 -914 0
763 -3334 -759 -1342 0
2891 -71 -3483 0
2743 -3628 0
2025 -2083 -1709 -3715 0
729 -1456 -2927 -2389 0
-1512 -1433 0
2966 -2095 -148 0
649 -3190 -2282 -1053 0
1121 -939 0
2446 -1967 0
1899 -3519 -961 -829 0
-297 -3492 -250 0
2254 -752 0
-2081 -2629 -1464 -491 0
1223 -753 -2817 -3837 0
70 -782 -1613 0
-3135 -2946 -2466 0
-634 -1866 0
1159 -984 0
3518 -3460 0
1271 -3477 0
2094 -3728 0
2952 -2733 -766 -862 0
27 -3852 -2470 0
381 -1642 -2061 -1505 0
-3624 -1550 -2617 0
3365 -805 -2890 -1447 0
-690 -2929 -2787 -1809 0
1331 -1044 0
-36 -95 0
-682 -1794 -1955 0
-333 -1933 -527 0
-2661 -299 0
-179 -340 0
2779 -669 0
1306 -1222 0
3467 -627 -3722 0
2991 -3336 -2385 0
3390 -1545 0
-3500 -65 -1803 0
3072 -1230 0
3183 -425 -3456 0
1030 -491 0
-1527 -3960 -1613 0
-3004 -3825 0
3065 -510 -51 0
-2876 -2049 -3261 -1930 0
-3563 -2430 0
-2474 -3003 -2130 -526 0
3743 -2709 -856 0
2583 -1628 -527 -2660 0
371 -2950 -3479 0
-3507 -2447 -333 -2587 0
1548 -2340 0
2808 -3584 0
349 -2067 0
-2792 -83 -1670 0
3440 -1611 -3622 0
3602 -1673 0
2777 -469 -3726 -2362 0
1479 -2924 -1068 0
-598 -1887 -126 -2193 0
1677 -1899 -845 0
1217 -3067 -2855 -291 0
193 -983 -1413 -810 0
-3420 -2988 0
1505 -713 0
3098 -437 0
2391 -3077 -122 -791 0
-2093 -1109 -3637 0
-491 -695 0
-1400 -3071 -1769 -274 0
-2832 -867 -794 0
2609 -3682 -1438 0
2208 -2918 -2715 0
2165 -3125 0
2049 -2137 0
1677 -976 0
470 -2105 -3041 -3984 0
1477 -2012 -533 -510 0
2301 -2130 0
-2164 -1799 0
-3798 -1078 -2914 -2810 0
-2859 -1130 0
2303 -3518 0
1815 -2063 0
2751 -440 -2149 0
91 -113 0
2901 -3045 0
-203 -1678 -1368 0
2742 -1741 -3612 -612 0
3928 -860 -1503 0
715 -51 -2567 -2993 0
1742 -735 -397 0
939 -1037 -3943 -2596 0
1858 -3877 -3922 0
-2826 -3239 0
759 -3533 -2349 0
3582 -1053 -1506 0
184 -3677 -2366 0
3823 -1318 0
1479 -832 -2992 0
3874 -1166 0
-1975 -1804 -2467 -46 0
2755 -560 -2046 0
-931 -649 0
-696 -2649 -3715 0
-2652 -1391 0
1889 -3127 0
-3960 -2562 -1770 -2454 0
-562 -2648 -3638 0
1865 -1765 0
2759 -3843 0
996 -3841 0
73 -2995 -2672 0
576 -280 0
477 -187 0
2871 -2764 -1913 -46 0
3493 -689 -1686 0
1708 -3926 -1163 0
-1614 -2565 -2034 0
556 -2318 0
1113 -24 -3042 0
-3125 -3608 -777 0
-338 -3360 -3954 -208 0
-2546 -742 -886 0
1662 -2177 0
1773 -3230 -3757 -3256 0
1148 -3217 -1296 0
105 -2828 0
1540 -425 -2442 0
1347 -3540 -1420 -2927 0
1564 -1250 0
-1870 -1872 -2964 0
1972 -2580 -2920 0
795 -748 -2937 -768 0
3040 -2364 -2858 -565 0
3815 -72 -907 0
2287 -3316 0
3701 -301 0
3983 -1881 0
1423 -1073 0
591 -3139 0
254 -143 -3207 0
3620 -3580 -1421 -1316 0
1957 -1730 0
3655 -2943 -995 0
-3695 -1840 0
2057 -1257 -927 -1374 0
-3440 -3860 0
177 -3041 0
-2906 -688 -3538 0
801 -3153 0
697 -2254 0
-890 -1149 -3490 0
1757 -504 -15 0
2971 -421 -2268 0
-3850 -3832 -1035 0
644 -2148 -1342 -1480 0
1778 -3745 0
-3726 -367 -16 -1245 0
2371 -2956 0
1256 -1949 0
3712 -3348 -1273 0
3941 -1045 0
1025 -776 -2209 -1740 0
-573 -210 -2103 -717 0
230 -3213 -3374 0
1763 -1464 -801 0
234 -2322 0
1355 -2231 0
73 -2828 0
2338 -2390 -1212 0
-2588 -2036 0
3595 -573 -3958 0
819 -2790 0
3752 -3920 -2223 -562 0
543 -1361 -1107 0
210 -3870 -389 0
3638 -2130 0
3799 -3337 0
-2982 -2875 -3629 -1906 0
2925 -1360 0
894 -3495 -2311 -2398 0
2552 -3605 -399 0
-3273 -2610 -3071 -974 0
24 -2105 -2228 -3785 0
3429 -82 -3548 -1993 0
-584 -2411 -3206 -3187 0
596 -2245 -3350 0
2947 -1433 0
3358 -1355 -126 0
2106 -2141 -2705 -1691 0
2501 -1012 -2866 -3153 0
-1919 -3366 -3893 0
2801 -1739 -2798 0
1974 -2985 0
2075 -1049 -2736 -459 0
3439 -934 -2956 0
-3893 -721 0
1747 -933 0
255 -3947 0
-2493 -1919 -1908 0
-2166 -3350 -1670 0
2676 -2929 0
823 -2930 0
588 -999 -2100 0
1076 -49 -3284 -1296 0
-3838 -3972 -3606 0
3614 -3913 -210 -746 0
1004 -3816 -601 -566 0
2571 -2421 -2330 -3762 0
818 -1472 -2437 -2433 0
-1187 -1840 -517 -3205 0
617 -2380 0
1145 -1593 -3033 0
1795 -1952 0
-2790 -1722 -2460 -2020 0
-1350 -3453 0
-3226 -1863 0
-1408 -3494 -784 -2380 0
3160 -3312 0
-88 -3198 -1312 0
3512 -628 -2620 0
1673 -1610 -2135 0
3356 -1760 -2789 0
-2648 -2529 -2038 0
-1291 -1038 -1465 0
2032 -2873 -2211 0
-3765 -2519 -1074 0
1200 -1281 -201 -750 0
3188 -3532 0
33 -712 -2420 0
3834 -255 0
-77 -1477 -1103 0
3444 -1146 -2168 -1863 0
1098 -770 -2242 -2791 0
1293 -117 -3530 -124 0
3577 -2396 -3918 -2695 0
-1977 -3170 -1826 0
3632 -2129 -1596 -916 0
1928 -1559 -3236 -973 0
3731 -567 -2539 0
2364 -1573 -3547 0
799 -209 -1394 -1812 0
-973 -3640 -552 0
2362 -2373 -3364 0
2511 -3390 -167 0
3471 -2852 0
3709 -3331 0
-2546 -431 -190 0
3868 -876 -3105 -1082 0
1161 -832 -3431 -752 0
3758 -272 -1270 -3154 0
-3139 -2592 -1975 -2831 0
464 -1382 0
2418 -1764 -3494 -2416 0
646 -1218 -3659 -564 0
14 -2097 0
-2715 -525 0
-213 -2279 0
-989 -76 -271 -1444 0
3204 -1784 -2511 -1543 0
-1688 -2723 0
-958 -1396 -2990 0
-2150 -1031 -3377 -1254 0
202 -3828 -55 -545 0
2514 -411 -1091 0
2202 -2969 -1454 0
-3491 -1240 -1503 -3832 0
3777 -2031 -764 0
-3088 -769 -1803 -138 0
-352 -2591 -3417 0
2699 -385 0
3705 -3845 0
-2487 -330 0
1194 -1840 -1808 0
1761 -3307 0
2011 -750 0
1317 -3994 -258 0
-309 -2207 -2048 0
3267 -3607 0
-864 -104 0
2990 -2825 -590 0
1340 -1995 -3521 -1254 0
1131 -1891 0
1408 -2915 -1575 -2277 0
1913 -922 -1696 0
2477 -2397 -2755 0
622 -938 -1208 0
1989 -507 -1854 -1744 0
2740 -1825 -2882 -3105 0
-1226 -743 -317 0
-1054 -392 -1518 -1226 0
1090 -95 -2392 -2241 0
340 -460 -2685 -1293 0
-2749 -2673 -3010 0
679 -1537 -1041 0
-1226 -413 0
2849 -527 -3946 0
1598 -3626 -2245 0
2732 -2796 -2863 0
2595 -2828 0
3296 -1886 -403 0
697 -1314 -2793 -265 0
-351 -95 -387 0
699 -2129 0
-3414 -1823 -2282 0
-2436 -2621 -785 0
-3223 -3827 -3622 0
-2150 -1004 -3887 -514 0
2524 -1036 -368 -179 0
3789 -2834 -1932 0
-2144 -1866 -3935 -993 0
2258 -314 -3426 -2844 0
1736 -3569 -1582 0
-1199 -1362 -49 0
3352 -1773 0
454 -2597 -3104 -2589 0
391 -2948 -2281 0
1892 -2203 0
300 -1608 0
3440 -492 -3178 -2395 0
-3591 -1003 -1573 -3003 0
-1325 -1523 -3850 0
3077 -42 0
-2766 -982 -964 0
1471 -2780 -1144 0
3620 -3272 0
1987 -354 0
2564 -2350 -264 -2978 0
2576 -1211 -3487 0
3792 -1133 0
-3330 -1625 0
270 -111 -1215 0
1155 -1853 -3624 0
1544 -2486 0
-1299 -1670 -454 -2372 0
1135 -532 -1785 -867 0
-2218 -1732 -994 -3046 0
1250 -2509 -2723 -747 0
216 -3782 -1238 -2208 0
626 -312 -1874 -3211 0
3820 -3085 -482 -913 0
-1010 -516 0
3248 -698 -468 -3332 0
2096 -2877 -2036 -2519 0
831 -2484 -483 0
183 -503 0
1293 -2885 -919 0
2379 -3536 -3013 -679 0
-1071 -2184 0
-3204 -2997 0
172 -3232 0
-1983 -1603 0
3575 -1309 -892 -3790 0
3988 -2044 0
527 -1337 0
-2917 -698 0
-1135 -1055 -86 -1742 0
-86 -70 0
-2024 -2023 -3720 0
203 -3365 -398 0
-826 -3588 0
439 -1767 -809 0
3454 -1911 -3083 -1681 0
1827 -1822 -558 0
2260 -2322 0
-3930 -217 0
487 -516 -3867 -3528 0
-2297 -1290 -905 0
-3507 -852 0
-1739 -1648 0
-757 -3169 0
-260 -1540 -55 -205 0
1980 -927 -3499 -1584 0
1841 -3265 -2609 0
1715 -15 -3585 0
463 -3372 0
-1222 -3494 -3497 -1317 0
321 -2877 0
2480 -3202 -1527 -1966 0
-529 -973 -1147 0
2042 -3884 -1751 -3869 0
-3459 -108 -2840 -3219 0
2513 -1118 -1834 -438 0
-2968 -2906 -345 0
1447 -3128 -1812 -3746 0
-597 -924 0
619 -2671 -3010 -2193 0
1834 -119 -865 -1773 0
-1130 -153 0
-2512 -916 0
1179 -990 -1589 -1291 0
2724 -3057 -837 0
3224 -1041 0
-82 -1655 0
-2900 -3955 0
-2220 -3930 -456 -85 0
540 -2425 -2640 -344 0
-2212 -1671 0
1212 -3992 0
862 -1079 0
3186 -3849 -1779 -594 0
416 -3890 -2823 0
3784 -2241 -1397 -3070 0
-3583 -2132 -1288 -3872 0
2993 -2123 -1180 0
-3938 -3186 0
2768 -1241 -2539 0
550 -1200 0
2406 -2300 0
-3042 -2579 0
452 -2498 -547 -2895 0
2629 -268 -3856 -510 0
3921 -3939 -1685 0
2551 -3555 -1392 0
458 -3818 -672 -887 0
1929 -3999 0
3906 -3269 0
-861 -3690 -3218 -922 0
2246 -3614 -2736 -11 0
3877 -3457 -3505 0
1755 -332 -2558 0
-1359 -3323 -981 -3773 0
-2124 -245 -508 -1964 0
2795 -967 -2208 0
1541 -2481 0
-3951 -3407 0
3775 -2970 0
3417 -2491 0
-2493 -2443 -3810 0
-1584 -1732 -611 0
-2348 -984 -3642 0
-1635 -3625 -340 -2719 0
2516 -192 -1754 0
775 -2003 -2931 -87 0
2815 -863 -2306 0
405 -1966 -3108 0
1671 -1086 -2561 0
47 -2677 -1794 0
-2381 -3089 0
-1893 -2656 -637 0
3107 -973 0
1651 -322 0
3048 -3640 -277 -2090 0
-2153 -3051 -162 0
658 -1412 0
2023 -2513 0
-3378 -2213 -2584 0
-1579 -1852 -2605 -2382 0
-1840 -1611 -3143 0
-1011 -3792 -220 -2498 0
-1205 -975 -3585 0
-1155 -1555 -1830 -516 0
-2392 -2441 -1586 -271 0
72 -3361 -1322 -8 0
1406 -905 -353 0
-1748 -2500 -365 0
-2406 -2543 -3845 0
998 -947 -3176 0
3077 -3980 -1007 -3946 0
1447 -3905 0
2701 -3382 -2921 -1353 0
3637 -2137 0
-3171 -3269 -2686 -3458 0
3581 -3021 0
251 -897 -1331 0
2413 -3497 -857 0
2810 -910 -3452 -3562 0
2209 -370 -757 -2409 0
-1276 -3359 -524 -3039 0
-1762 -3127 -3416 -2552 0
2278 -3484 0
1507 -1705 0
2363 -361 -2704 0
1697 -1181 -480 -2663 0
-1700 -3722 -3383 -1617 0
3073 -339 0
3135 -2056 -1339 0
1621 -2819 -667 -3835 0
3550 -2498 0
1030 -3086 0
724 -2501 -3892 -3164 0
1728 -268 0
772 -1813 -3644 -1523 0
-1305 -3471 0
-2638 -2854 -3819 -14 0
2946 -3750 0
-619 -563 -634 0
1819 -744 -298 -2572 0
-1520 -1163 -2993 0
580 -3570 -2793 -1928 0
561 -2514 0
3536 -2103 0
1573 -1386 0
2887 -2559 0
2606 -233 -2436 0
-1056 -531 0
1332 -1466 0
390 -1273 -1047 -2737 0
-1117 -1739 -2511 -994 0
923 -1984 -2972 -1546 0
832 -1638 -1429 0
-1756 -743 0
3170 -1628 -3297 -766 0
106 -243 -666 -3631 0
954 -642 -869 0
3094 -1998 -836 0
3727 -2709 -2842 -877 0
-3576 -1866 0
858 -2709 0
-1779 -3706 -77 0
1177 -304 -3325 0
1626 -1877 -3739 0
3795 -2117 0
754 -1647 -2328 -1316 0
-1430 -2438 0
-398 -1658 0
291 -3495 0
2823 -3637 -1521 -3147 0
2913 -1388 0
430 -2777 -3904 0
-19 -763 -3667 -3304 0
3533 -3273 0
-1202 -441 -1937 -808 0
1329 -3382 0
1744 -2943 0
-1928 -1064 -1597 0
3664 -1437 -2546 -3657 0
3837 -1810 -2775 0
-2235 -16 -2722 -3817 0
1108 -3579 -2739 0
2007 -3336 -3939 -3667 0
3926 -2511 -3765 0
-3961 -1743 0
150 -3398 0
2659 -1318 -1021 0
3789 -1410 0
2744 -3164 -461 0
3517 -1569 -1563 0
1503 -630 0
2479 -2817 -190 -1423 0
3495 -2372 -1533 0
230 -1155 -1890 -263 0
-2051 -3426 -3447 0
2644 -915 -3996 0
-3344 -3246 0
2034 -1533 -3496 0
3618 -1773 0
3122 -3180 0
3387 -2315 -2339 -2229 0
739 -363 0
-881 -3844 0
-886 -2031 -2078 0
251 -224 -3352 0
1925 -2332 0
793 -773 0
2967 -3165 0
792 -237 -1418 -3432 0
2590 -1097 0
3612 -344 -70 -2690 0
-2737 -1616 0
-2433 -3071 -732 -3523 0
2605 -1526 0
-387 -149 -815 -3031 0
975 -1626 -2990 0
-3835 -2373 -395 -1179 0
449 -1593 0
1837 -768 -1454 -1649 0
-2665 -3073 0
732 -482 -3863 -1229 0
2810 -2437 -733 0
1458 -2195 -3452 -1425 0
136 -2640 0
187 -2886 -1629 0
-130 -3244 -2691 0
977 -3620 0
3228 -3231 -1029 -1897 0
260 -782 -1344 -3593 0
929 -1030 -1658 -1629 0
721 -2764 -838 -3914 0
1797 -2017 -2057 0
3624 -2997 -1930 -1713 0
889 -3139 -263 0
3489 -1290 -2671 -823 0
-2408 -3556 0
3674 -3735 0
458 -2985 0
2219 -1653 0
3016 -3582 0
3758 -3088 -777 -2959 0
3676 -1003 -2432 -3226 0
2699 -2686 -3491 -3987 0
2458 -1476 -3054 -3095 0
3998 -1043 0
3943 -1825 -3767 -1575 0
-2056 -1360 0
-2098 -3681 -263 0
-3765 -3557 0
3766 -2553 -3254 -1463 0
774 -2044 -3479 -2569 0
3626 -928 -3384 -264 0
133 -3424 0
1619 -3457 0
1887 -1272 0
2275 -1661 -1895 -293 0
3047 -938 0
3379 -2498 -3353 0
376 -111 -1086 -2210 0
-2957 -1542 0
2465 -2393 -1019 0
3094 -2052 -649 0
-3263 -3546 -3561 -3257 0
1035 -2371 -3563 -1839 0
1942 -866 -1278 -185 0
1723 -473 0
3934 -2706 -1111 -3206 0
454 -906 -2504 -223 0
3506 -473 0
30 -2530 -3756 0
-1557 -3768 -855 0
1526 -1225 0
2801 -2002 0
2870 -3633 -554 0
2479 -571 -1994 0
2385 -518 -3660 0
-598 -699 -1907 -2742 0
3013 -1251 -1024 0
2942 -1430 -1129 0
2364 -1699 -2443 0
2725 -3038 -44 -517 0
266 -236 -859 -1177 0
-3084 -2937 -1067 -969 0
-1888 -2742 -3140 0
-3124 -3881 0
3150 -3918 -1556 0
914 -1457 -145 0
374 -3609 -3843 0
2766 -2339 -2526 0
-3567 -2151 -211 0
445 -496 0
3381 -892 0
3515 -289 -2115 -743 0
1288 -2703 -349 0
2391 -2077 -1418 -3819 0
3521 -863 0
3743 -1400 -279 -3152 0
3056 -994 -2917 0
2524 -3443 -727 -3135 0
3833 -156 -1226 0
-2538 -3332 -1572 -2988 0
3805 -1545 0
-3686 -1636 -2818 -1452 0
939 -2350 -909 -2847 0
3835 -2210 0
2342 -3777 0
763 -3377 0
-3107 -321 0
-3015 -3026 -1919 -1599 0
3664 -1476 -2686 -4 0
-727 -3560 -3724 -1517 0
3016 -946 -995 -385 0
998 -1566 -1759 0
285 -2209 -1661 -2402 0
3114 -1367 -2941 -515 0
2778 -1507 -3658 0
1269 -678 -3723 -2072 0
2415 -2748 -619 0
2265 -3212 -3204 0
692 -2981 -1483 -2248 0
1717 -3325 -1985 -2629 0
3788 -1635 -2060 0
54 -3289 -899 -798 0
-1044 -521 -1545 0
2788 -829 -1371 0
2796 -3613 0
3985 -243 0
-202 -3745 -3010 -1218 0
-2543 -2431 -3271 -3298 0
-3499 -574 -1065 0
909 -3210 0
585 -1566 -95 0
3280 -3691 -3625 -3857 0
3300 -224 -1683 -3365 0
2016 -1696 -3874 -2069 0
2286 -3617 0
299 -3396 -3929 0
2940 -13 -1735 -3728 0
136 -2725 0
2525 -941 0
648 -1691 -1796 -2730 0
593 -352 -3334 0
1440 -2357 -1063 0
-3946 -1532 -2865 0
468 -3328 0
3484 -374 -780 0
-1981 -3756 0
2328 -3723 -2612 0
2620 -3921 -419 -3643 0
2526 -3798 -2678 -2780 0
-2146 -564 -3582 -1697 0
911 -3176 0
30 -1862 0
-267 -3601 -3970 -1717 0
748 -3134 -2283 0
1550 -145 -2114 -1067 0
3909 -3096 -2766 -3874 0
2389 -1835 -972 -3524 0
2010 -2534 -1651 -2307 0
3158 -89 0
2395 -1423 -851 -3011 0
-1589 -3695 -3556 -3179 0
-1284 -1388 -793 0
1829 -3707 0
1494 -2280 -1152 0
2400 -2190 -2622 -3434 0
3802 -2004 0
1688 -3678 -3234 -900 0
3404 -1073 -1765 0
2117 -3627 0
1589 -3682 0
2896 -3056 -1134 0
-668 -797 -3310 -496 0
110 -9 -3090 -3445 0
1152 -3414 0
795 -1717 -1338 -793 0
686 -1488 0
-2460 -3513 -532 -2788 0
2236 -368 -2513 -3699 0
1579 -3162 0
753 -1906 0
451 -2388 -1113 0
-2584 -3046 -3357 0
118 -3256 -3049 0
-157 -3266 0
-3910 -348 -895 -398 0
3706 -1842 -238 0
1761 -3766 -3363 0
3934 -2260 -2695 0
2906 -2160 0
3878 -2494 -3339 0
-2394 -2564 -1531 -566 0
3392 -2716 0
1374 -357 -1147 -1163 0
-2898 -2269 -1846 0
-729 -720 -2873 -2621 0
20 -74 0
-2334 -3165 -1303 0
2796 -3049 0
1041 -2479 -2313 0
3197 -1456 -221 -1708 0
262 -1034 0
-2314 -3448 -1650 0
1291 -2703 -3227 0
1355 -1547 0
-3726 -3984 -2567 -2425 0
3657 -2067 -3078 -3199 0
798 -826 -563 -2705 0
-813 -3505 0
3392 -662 -1928 0
-1903 -3468 -1054 0
-3204 -2697 0
818 -729 0
-2944 -1294 -2101 -3009 0
2897 -2075 -2792 -3574 0
3898 -3624 0
-1505 -2422 -1942 -1940 0
3449 -3902 -1554 -1701 0
1076 -1708 -3980 0
-851 -1249 -1191 0
1734 -3428 -3501 -1084 0
-2162 -1662 0
-1980 -1430 -3395 -242 0
3835 -3303 -2944 0
915 -2114 0
2291 -3714 -2708 0
1554 -80 0
397 -1305 0
-1441 -2940 -2199 0
2529 -1419 -2391 0
2924 -2854 0
734 -408 -3262 -2198 0
1464 -1523 -106 0
3360 -927 -1621 -1737 0
1112 -2366 0
1412 -3670 -3244 -2061 0
2767 -2784 0
2795 -2494 -549 0
2499 -3299 -2444 0
2702 -2311 -3513 0
3559 -1318 -3499 0
-2996 -3313 0
570 -2233 -2160 0
-2194 -1195 0
-1625 -160 0
-2540 -443 -2399 -528 0
3741 -1856 -3782 0
2579 -2408 0
3443 -2775 -1668 0
807 -117 -1785 -3473 0
2336 -1105 0
-3095 -742 -1392 0
2861 -560 -1594 -2147 0
-3545 -2172 0
3223 -829 -216 -2396 0
-2874 -1408 -1996 -3533 0
3727 -2446 -945 0
-2376 -3811 0
3339 -3743 0
856 -156 -1017 -2519 0
2903 -1296 -2868 0
-1276 -1148 -254 0
3917 -1257 -688 0
3132 -86 0
1049 -648 -1595 -1874 0
707 -3825 -2105 0
3351 -1659 0
1380 -818 -341 0
-2666 -903 0
675 -1555 -677 0
2631 -3477 0
2605 -1837 -670 0
2407 -3636 -2819 -3155 0
321 -2905 0
2755 -1543 0
780 -3856 -2340 0
2801 -3469 0
2085 -2278 -1934 0
-861 -754 0
2654 -3606 -3791 0
271 -2702 -2044 -3438 0
3892 -2919 -746 -2275 0
3737 -900 -652 0
226 -3446 -3463 -1969 0
2482 -706 -1283 -680 0
-27 -3011 0
1339 -1845 -2056 -3652 0
1857 -3598 -75 0
908 -1230 -1421 -550 0
1706 -3741 -562 0
440 -1398 -1118 0
1693 -3367 0
-3897 -1857 -3737 -3231 0
3704 -1429 -1557 -3772 0
3482 -3337 -2469 -2531 0
2748 -1222 -1068 0
3442 -83 -3789 0
1812 -3292 -3888 -2264 0
2509 -1750 -3672 -3909 0
2408 -284 0
734 -2355 0
3424 -2412 0
3687 -1631 0
2061 -127 -2208 -2951 0
3223 -522 0
-1192 -3553 -3808 -2244 0
-2643 -1534 -1890 -4000 0
3027 -3585 -1684 0
866 -500 0
3417 -2422 -3074 0
1899 -2543 -3871 -3688 0
445 -2638 -2894 0
3766 -1432 0
1211 -3567 0
512 -1191 -3598 -2347 0
-936 -1470 -1424 -1375 0
-2154 -141 -2222 -2437 0
864 -1536 -1248 0
-2982 -2593 -2634 0
-3369 -1928 -3674 -3191 0
98 -2621 -2196 0
-3332 -399 -751 -492 0
-3432 -865 -127 -2790 0
1667 -2134 0
1434 -824 -1346 -2766 0
845 -3682 -569 0
-2755 -1291 -893 0
-1810 -2771 0
2489 -1019 -2827 -1449 0
1068 -3208 -321 -1541 0
-1701 -985 0
2559 -2832 0
1378 -1166 0
2414 -740 -1665 0
2556 -142 0
-3129 -3800 -1365 0
1826 -883 0
2487 -1359 -2367 0
-3800 -3599 -3942 0
3864 -190 -413 -2579 0
-3238 -770 0
1067 -2966 0
530 -370 -2185 -3740 0
-1131 -359 -135 -2368 0
-783 -646 0
-983 -2109 0
2633 -897 0
3594 -77 -1957 -1538 0
2232 -2385 0
1298 -1929 -3478 -3186 0
1602 -3462 -2242 0
3132 -355 0
-446 -269 -3346 0
1337 -2487 0
-2434 -3768 -122 -3586 0
1719 -308 0
-853 -1754 -1673 -603 0
-321 -1789 -2016 -2787 0
3643 -486 -2270 0
1736 -666 0
986 -1538 0
2182 -1259 -459 -1771 0
3494 -1563 0
2300 -71 0
3707 -2215 -1597 0
-2875 -3693 -1334 -2764 0
-159 -1200 -81 0
3530 -2303 -1414 0
-569 -3435 -3045 -2677 0
3784 -3913 -3089 -2898 0
303 -2671 -78 0
682 -1354 0
-2468 -302 -3169 -2444 0
2883 -2294 -118 -936 0
-2954 -1449 -1346 -3189 0
-433 -3253 0
2230 -3117 -3067 0
1744 -792 -788 0
2887 -284 -3883 0
-3388 -3827 -3115 -3208 0
-2050 -2555 0
3379 -2761 -3267 0
9 -1253 -2975 0
1783 -31 0
3949 -1321 -2734 0
3791 -2882 0
-3850 -1084 -2893 -2269 0
60 -3613 -3328 -3605 0
3483 -3345 0
2713 -1651 -951 0
1282 -3925 -1350 -1016 0
-3961 -1725 0
-1998 -450 -3906 0
1265 -111 -533 0
-1456 -3110 -3476 -456 0
1178 -843 0
2118 -2365 -2288 -1232 0
-3913 -3593 -2863 0
2531 -235 0
2358 -1936 -1739 -3795 0
3357 -1901 -912 0
1313 -1484 -2416 -2980 0
-1268 -2173 -1786 -1610 0
-2190 -1708 -2472 0
3292 -922 -1694 0
-2438 -3446 -1562 0
-674 -1184 0
238 -348 -1584 -204 0
1581 -2525 0
-1687 -2996 0
3688 -3658 0
-174 -1393 -1852 -3001 0
2610 -2624 -3501 -1037 0
1454 -663 0
1044 -3398 -1869 -2114 0
1001 -2319 -135 0
-2660 -231 0
1494 -1115 -3811 -1915 0
2579 -307 -1959 -1930 0
20 -3027 -1801 -788 0
327 -258 -2409 0
-158 -3739 -736 0
1667 -3179 -2630 -2255 0
3851 -1106 -2608 0
1347 -3062 -2592 -2247 0
-1133 -1919 -1977 -3060 0
3741 -1382 -2058 0
1777 -3135 0
-456 -107 0
819 -3862 -1085 0
2374 -2684 -1991 0
-2405 -866 -2904 -1422 0
427 -3215 -2881 0
605 -1280 -1731 0
-2668 -409 -3442 -2219 0
-1883 -2306 -600 0
1854 -539 -370 -1303 0
-3092 -236 -2177 -3157 0
1229 -259 -2959 -48 0
2301 -945 -632 -696 0
2950 -232 -3997 -2089 0
3006 -1153 -3053 -122 0
2658 -1064 -31 -2237 0
3195 -2025 -2616 0
-1924 -2659 0
-1710 -827 0
1774 -1986 0
2766 -3039 0
-2916 -2685 -2210 -1794 0
-3146 -1671 -3411 0
1023 -1100 -3929 0
1195 -430 0
3655 -813 -1723 -124 0
1159 -715 -1147 -563 0
969 -2499 0
3672 -2853 -1924 -3641 0
1777 -1799 -1151 -1077 0
-1016 -1729 -9 -633 0
-71 -1710 0
-2442 -1258 -1802 -1460 0
-615 -2465 -857 -3805 0
1975 -3328 -2606 0
-2297 -3390 0
2168 -1482 -1506 0
2124 -1710 -348 0
3543 -2509 -3518 0
1844 -3469 -3033 -3989 0
1850 -1809 0
-2883 -3656 -858 0
2761 -2165 -2541 0
-2005 -2870 -2003 -3922 0
3106 -562 0
-3781 -3114 0
-2053 -3329 -307 -344 0
-348 -2292 0
3834 -2120 0
3468 -843 -951 0
2466 -2006 -2569 -3022 0
1770 -40 -1294 -2079 0
2840 -2185 -1031 -3623 0
2149 -3015 0
3716 -3377 0
847 -3862 -2817 -3632 0
2159 -2899 0
2112 -929 0
1070 -3189 -844 0
-1549 -2207 -2045 0
2133 -128 0
3469 -1734 0
-2778 -16 -2747 0
-457 -2141 -3119 0
1689 -1444 -879 -3942 0
1362 -927 0
3576 -3607 0
500 -658 0
-3844 -657 -817 0
-3837 -1340 0
2034 -123 0
832 -147 -2423 0
-2647 -2264 -456 -875 0
1033 -3225 -1408 0
-3946 -1533 -1621 -2574 0
3032 -2282 -1861 -3088 0
3172 -2579 0
1633 -3343 -240 0
1824 -1344 -3537 0
1045 -3940 0
3124 -1538 -155 -2019 0
-3572 -1350 -2488 0
2060 -2477 0
130 -2885 -2988 0
840 -158 0
-3176 -1514 0
-255 -388 -2212 -2348 0
-285 -3956 0
297 -3837 -1840 -2353 0
2490 -3660 -819 0
-3785 -2968 -417 -882 0
413 -1049 -3024 -2100 0
2756 -1111 -448 0
3781 -560 -3196 0
189 -1618 -2699 0
1951 -3249 -1699 0
-2228 -1404 -2856 0
3277 -771 -224 0
2142 -3812 0
1079 -563 0
3964 -194 -1250 -3536 0
-1362 -1545 -2246 -3788 0
354 -884 -2299 0
-3380 -3822 -2531 0
-2424 -2037 -3695 -1082 0
2188 -3721 -1695 0
2945 -92 0
-395 -363 0
-3316 -3139 -3989 0
-1759 -1133 -1021 0
445 -2317 -2053 -3698 0
-3273 -2948 0
-3819 -1526 0
2764 -941 -2635 0
-3624 -3466 -1667 0
3129 -616 -2176 0
3299 -2457 -1656 -3703 0
3114 -1832 0
3867 -320 -3252 0
-180 -2153 -333 0
2538 -674 0
69 -3230 0
-526 -2437 -3755 0
-3256 -593 -2425 0
3572 -1300 -43 0
3580 -3116 -793 0
-929 -726 0
-1903 -2679 -491 -3936 0
875 -1226 0
3171 -108 0
1257 -1002 -1581 -2065 0
3390 -2947 -1597 -1208 0
945 -3969 -2812 -3747 0
-598 -2368 -3436 0
3088 -2954 -3739 -793 0
1506 -298 -880 -3425 0
1861 -3061 -2034 -540 0
1682 -542 -1089 -574 0
-899 -960 -2167 0
-3590 -3934 -3952 -2012 0
1028 -3357 -2996 0
3517 -3922 -3854 -224 0
2941 -475 -3428 0
-2718 -1637 0
-467 -100 -3077 0
3855 -2815 -1849 -2016 0
3599 -1370 -828 -3085 0
870 -3931 -2030 -1289 0
3119 -3255 -1462 0
-1041 -3079 -333 0
2920 -175 -2800 -1761 0
3362 -2790 -1951 -405 0
-2175 -2587 -3765 -3432 0
1693 -1927 -2766 0
247 -284 -2788 0
3771 -3223 -3439 -2202 0
3034 -1797 -3693 -1041 0
2869 -2369 -1234 -417 0
-1760 -2112 0
1998 -4 0
25 -326 -1447 -1156 0
3959 -2718 0
-1313 -350 -751 -3177 0
501 -3349 -2748 0
3018 -192 -2020 -1711 0
2154 -1153 -3437 -2074 0
-1555 -1853 -3363 -3134 0
-1181 -769 -1248 -3532 0
1682 -2816 0
3380 -248 -751 0
1070 -3874 0
2040 -3091 -2382 -3063 0
1854 -2472 0
118 -766 -2702 -1790 0
707 -2418 0
-2600 -2426 0
467 -2659 0
3922 -1271 -2934 -3103 0
145 -2569 0
2386 -3156 -3863 -2146 0
654 -2585 -2397 -1549 0
3655 -3523 -3970 0
-1939 -2911 -1720 -1397 0
2394 -3212 -2092 0
-3482 -2897 0
3138 -2511 -272 0
3712 -778 -313 -1384 0
387 -2698 -2758 0
2447 -3793 0
2108 -2390 0
1095 -3104 0
-417 -1732 -436 -1054 0
3006 -3385 -692 0
521 -2322 -2104 0
-3787 -875 -1063 -1325 0
2191 -3072 0
-2199 -229 -3119 0
2044 -1849 0
1968 -2439 0
-1316 -1227 -1807 0
-2081 -2749 -2098 -733 0
-451 -1281 -3640 -2749 0
-2222 -179 -1623 0
2525 -1171 -3228 0
-3065 -3551 -3157 0
-3266 -3979 -1479 0
-2095 -3612 0
2204 -3492 0
-1977 -770 -246 -538 0
-1422 -1713 0
-3085 -770 0
3802 -335 -3328 0
-1661 -3878 0
1049 -1979 0
2026 -968 0
1457 -3117 0
-439 -2221 -3248 0
3724 -3611 -898 -962 0
301 -880 -2506 0
-1606 -1314 -2494 0
144 -1315 0
1632 -3111 -332 -1879 0
1054 -3899 -3678 -3578 0
2943 -1952 0
-326 -859 -3004 0
3465 -3218 -76 -717 0
948 -2721 0
-565 -2631 -1351 0
3335 -2932 0
-2963 -2018 -1156 -1658 0
19 -2213 -3001 0
1453 -3175 -1806 0
-1709 -316 -739 -415 0
2037 -1686 0
836 -2291 -679 -2661 0
2307 -1404 -3736 0
1757 -481 0
2170 -1385 0
-996 -3249 -3719 -2270 0
1372 -1490 -2796 -2588 0
1985 -1283 -3811 -484 0
3992 -2020 0
-993 -2125 -1370 -2354 0
1472 -1858 0
3415 -776 -253 -693 0
3664 -2554 0
2924 -3498 0
3398 -2956 -527 0
1154 -877 0
383 -2895 -3074 -3759 0
946 -2547 -1521 0
-2469 -2785 -1287 -511 0
168 -2086 -1370 -2725 0
347 -812 -2345 0
-139 -3731 -3423 -1259 0
360 -2552 0
3551 -3421 -1311 -3530 0
1518 -3567 -2692 0
1018 -2855 0
3941 -59 -1292 -699 0
2130 -3446 -3200 -3628 0
2517 -2566 -2824 -3464 0
-3816 -2393 -2814 0
410 -759 0
-1765 -3962 -3639 -2814 0
-3399 -3233 -3895 0
2354 -3440 -3737 -2796 0
1539 -3460 -935 0
1204 -70 0
2651 -1113 -2441 -2606 0
-2780 -1835 -3447 0
219 -693 -1953 -2758 0
-3876 -918 -1180 0
198 -317 -3732 0
613 -82 -704 0
1277 -3960 -517 -717 0
-3957 -1138 -3256 0
-1074 -3543 -1444 -724 0
-1885 -1981 -464 -3491 0
94 -877 -455 0
2988 -98 -1652 0
1632 -1651 0
2184 -391 -1902 0
652 -1084 -2053 -960 0
3066 -2065 0
2740 -595 0
-2893 -711 -901 -697 0
-1442 -1621 0
2089 -1868 0
-2340 -725 0
-397 -786 -3535 -2055 0
344 -509 0
592 -1104 -3403 -1486 0
2497 -1249 -2159 -989 0
-795 -2778 0
1956 -3042 -1156 -2852 0
2704 -1479 -1732 -3080 0
-1533 -3994 -3134 0
2217 -2603 -1278 0
1252 -1462 0
-3645 -3127 -1248 -1800 0
-1333 -2460 -1365 -3600 0
-1508 -3885 0
3923 -3653 -2604 -1425 0
3214 -1557 0
649 -310 0
3834 -3705 0
1362 -3711 0
3303 -2855 -906 0
2881 -376 0
882 -3379 -2245 -1928 0
2816 -691 -1672 0
1904 -2117 0
1858 -1945 -2519 0
-3626 -3015 0
2909 -277 0
3108 -3645 -2661 -2802 0
-2527 -3831 -1962 -2708 0
-841 -1140 -297 -2366 0
-3206 -3043 -1855 -1774 0
3904 -3178 -3435 0
3401 -2998 -2092 0
1387 -2332 -3541 0
-879 -505 -321 0
3433 -3859 -2812 0
2648 -2633 -2603 -2896 0
3971 -657 -2374 0
1173 -3769 0
778 -104 0
1828 -1564 -3880 0
3114 -2071 -1740 -2321 0
-456 -423 0
-1006 -265 -2585 0
714 -1962 -826 0
2022 -1275 -3327 0
1836 -1514 -2584 -2846 0
1704 -3653 0
-825 -3063 -1343 -783 0
1411 -3516 0
2610 -3133 -549 -976 0
1698 -172 -925 -2620 0
2833 -3721 -1680 0
3991 -2334 -2806 0
377 -3951 0
-705 -3218 -2908 0
2483 -1744 -942 -3846 0
3289 -2110 -997 -2414 0
1496 -555 -1350 0
-3447 -2262 -2568 -1226 0
3242 -2949 0
-958 -298 0
2656 -1272 -917 -2076 0
1712 -1812 0
-3846 -3937 0
1796 -2349 0
880 -1862 0
1940 -2210 0
3805 -738 -2384 0
-3714 -2342 -2445 0
1173 -3768 -1705 0
76 -588 -3325 -1450 0
2674 -3841 -1074 0
-2061 -3322 0
1380 -1588 -2492 0
2210 -3418 -3894 0
2685 -2542 -1067 -310 0
1218 -833 0
1770 -1312 -3084 -1490 0
3222 -223 0
226 -3068 -778 0
-577 -817 0
1942 -2033 -2311 0
2391 -530 0
751 -1025 0
-334 -3676 -389 -1206 0
2274 -3715 -1226 0
1788 -52 -3022 -1668 0
-466 -1647 0
-108 -284 0
-2903 -959 -1624 -3808 0
3957 -3173 -367 0
3172 -1094 -1900 -3254 0
3943 -3479 -2571 0
743 -2698 -164 -686 0
-2778 -2858 -1089 -28 0
1206 -886 -2501 0
1367 -44 -142 -1257 0
1788 -3070 -601 -2993 0
2794 -1073 0
165 -2819 -2105 0
198 -2782 0
2260 -3378 -3174 0
-1606 -3535 0
-2398 -1289 -3912 0
-2754 -1329 0
2978 -528 -3101 -3173 0
-2414 -761 -3918 -2774 0
-295 -2821 -1175 0
3404 -3840 -3049 0
815 -1332 -1250 0
-655 -3883 -194 0
-2309 -1977 -2518 -577 0
-1208 -816 -2828 0
-3782 -1698 0
3190 -1447 0
-1668 -814 -3475 0
-2750 -3275 -734 0
1121 -106 0
2482 -2668 -3198 -645 0
-544 -1932 0
-696 -1629 -518 0
-1131 -1142 -3256 0
1910 -169 -1584 -3361 0
1803 -2304 -3115 0
-807 -1442 -2270 0
3510 -1008 0
3046 -3430 0
717 -1885 -692 0
3950 -3568 -408 -1721 0
2595 -493 -1543 0
2788 -3702 -1479 -1717 0
3138 -3394 0
2132 -2254 -3091 -1829 0
3361 -757 -2366 -287 0
-2551 -3596 -2924 -2128 0
75 -1340 0
635 -2708 -275 0
-2785 -3204 0
2878 -1902 -3479 0
2893 -40 -3038 -396 0
-3669 -3483 -3690 0
-2557 -2361 0
-3002 -1180 -1384 -1657 0
1716 -1035 -935 0
-3802 -1628 -534 -2525 0
3577 -2696 0
-642 -3771 0
703 -3388 -2823 0
-2218 -2485 -1146 0
2577 -110 -3253 0
1384 -2359 -1047 -3758 0
1626 -3114 -3167 -3435 0
3575 -803 -2393 0
2082 -3230 -2952 -1337 0
3257 -1011 -570 0
3818 -783 -3036 0
-927 -2197 0
2194 -1878 0
2603 -2670 -3595 0
1564 -3583 -57 0
1768 -971 0
1173 -543 -1203 -1270 0
-3914 -581 -820 -2126 0
1427 -1099 0
377 -1153 0
-3259 -2032 0
3464 -2753 0
-2892 -1806 0
1216 -2665 -800 0
869 -1593 -2818 0
1620 -857 -1048 0
-870 -2235 -645 -1137 0
-3559 -3431 -1742 -3012 0
1051 -378 0
-2547 -3432 -688 0
3619 -1079 -140 0
1783 -38 -2370 -629 0
-3311 -2410 -1486 0
366 -3065 -2420 -666 0
472 -3557 0
-1093 -2136 0
2814 -3442 -1255 0
1029 -2296 -3837 0
-3832 -2427 -2558 0
-2122 -3923 -3072 0
2120 -2081 0
693 -3836 -2549 -3750 0
-3545 -1245 0
-1261 -720 -3318 -864 0
-2846 -2034 -1062 -1844 0
2529 -3401 -990 -3534 0
3212 -2418 -2204 -1725 0
2976 -2016 -1215 0
313 -3225 0
-1806 -3253 -3557 -1485 0
3918 -1490 0
3329 -2237 -130 -2377 0
2278 -3593 0
3224 -30 -867 -2631 0
-774 -2601 -1817 0
3139 -2642 -1941 0
-1310 -82 -2912 0
3445 -467 0
2689 -2186 0
3345 -3365 0
-1608 -1037 0
2103 -3126 -992 0
-112 -2712 0
1374 -2429 -1353 0
1229 -2421 -2204 0
-2982 -1703 0
1458 -2390 -2410 -1667 0
1028 -3893 -2586 0
-285 -424 -185 -2789 0
719 -2204 0
-1190 -765 0
2254 -3580 -2096 0
-1581 -1027 0
1789 -313 0
448 -1267 0
1698 -2558 0
90 -590 0
512 -1264 0
2170 -981 -1241 -3909 0
-835 -159 -1763 0
-340 -895 -1456 0
-3101 -1676 -421 0
-2995 -1947 -3472 -3476 0
2511 -3213 0
3705 -111 -542 0
2670 -3893 -3196 -3716 0
-2645 -310 -2842 -1218 0
-3274 -3147 -822 -354 0
3365 -1076 -2507 0
901 -3221 -1425 0
656 -1699 -1769 -2262 0
3040 -499 -2711 0
-834 -3552 -1149 -731 0
3016 -2422 -336 -230 0
843 -1708 -3039 0
1560 -628 0
21 -1424 0
1027 -2507 -1103 -1387 0
1165 -3734 0
294 -3120 -2752 0
2342 -3808 0
-2388 -3186 -3842 -3807 0
2297 -3262 -2700 0
-1869 -2169 -408 0
155 -3092 0
2119 -1586 -3159 0
-1406 -224 -872 0
527 -1778 0
2720 -1206 -683 -2446 0
-1640 -1752 0
-2338 -2980 0
2737 -3322 0
1809 -1100 -282 0
3060 -2998 0
1603 -307 -1367 0
619 -837 -847 -2478 0
-2170 -394 0
696 -2981 -3452 -1931 0
589 -592 -1950 0
3090 -2888 0
3459 -3600 0
-1963 -3747 -3876 0
1422 -2750 0
768 -2420 -1098 -2326 0
-2947 -989 -2228 0
2509 -3121 0
3594 -1037 -254 0
214 -1471 -1986 0
2190 -2195 0
3809 -2044 0
3574 -1407 -3462 0
3645 -3695 -2830 -2397 0
-1857 -1742 -748 0
-1445 -661 -1118 0
3291 -1253 0
765 -2299 -3375 0
2120 -308 -2420 -489 0
1689 -3915 0
1030 -981 -1486 0
3912 -2617 0
2195 -2035 0
-1987 -2919 -3548 -1675 0
2408 -873 0
-3783 -1053 0
1294 -535 -2217 0
359 -2445 -3533 -1098 0
1523 -1782 0
-1348 -552 0
2028 -114 -2243 -2011 0
2787 -742 -3966 -1483 0
-836 -1895 -903 -2014 0
-2183 -3270 -2274 0
1321 -884 0
3651 -1326 -1946 0
85 -2826 -2358 -1070 0
3740 -1268 0
801 -3545 -3864 0
-3621 -21 0
2577 -922 -1529 -2385 0
-1948 -449 -2773 -1282 0
1106 -194 -2248 0
237 -2921 -3531 0
1178 -3117 0
3894 -3915 -1141 -2650 0
1108 -2348 -790 0
3483 -1474 -3115 0
-1128 -2413 -3287 -2901 0
3257 -979 0
2528 -3507 -1891 0
-3739 -582 -955 -3316 0
-1236 -3724 -1356 -821 0
3933 -1715 0
-684 -2694 0
570 -910 -3827 -435 0
1709 -3598 -3178 0
2907 -1703 -3047 -3054 0
3333 -1292 -2725 -1496 0
1948 -3695 -774 -897 0
-2296 -2206 -1035 0
-2130 -1674 0
314 -2419 0
-168 -2199 0
2872 -1918 -2137 -1999 0
1553 -1065 -2069 -917 0
3557 -3607 -3595 -2730 0
3226 -618 0
1743 -1521 -3324 0
3059 -360 0
1821 -707 0
3378 -3747 -1894 0
4000 -800 0
558 -3262 -1236 -3949 0
-2323 -761 -315 0
3796 -1970 -377 -679 0
2522 -1198 -1672 0
-1461 -1263 0
2052 -2116 0
3418 -3610 -2791 0
1220 -1358 0
-3938 -2572 -2156 0
3232 -2931 -1373 0
3634 -1365 -2407 0
3490 -651 0
188 -1531 0
697 -1733 -1683 -1610 0
3380 -1054 -2399 -3370 0
979 -3988 0
2626 -204 -2854 0
-1062 -2867 0
1225 -2443 0
2152 -3770 -1480 -274 0
518 -3739 0
3766 -2447 -2864 -1790 0
915 -29 -3841 -2712 0
-3826 -1661 -2456 -3819 0
3122 -966 -545 -2487 0
2547 -64 -970 -1569 0
-3246 -2373 -2262 0
788 -3227 0
-629 -1265 -3191 -1434 0
-1573 -2672 -708 -3825 0
-432 -450 0
80 -2969 -3534 0
2232 -1901 -1438 -3515 0
3152 -3973 0
2582 -240 0
3461 -925 0
3313 -2879 -2941 -3518 0
-1478 -471 0
-1269 -2258 -467 0
-2174 -883 0
3566 -461 0
2695 -1705 0
-142 -159 -2771 0
1028 -1619 0
3209 -1245 -1338 0
-3408 -1133 -4000 -3399 0
615 -2108 -3056 0
500 -3910 -724 0
2492 -3935 -2106 0
1333 -2957 0
3254 -1214 -2886 0
756 -2723 -665 0
1356 -3605 -2936 0
1495 -3695 0
1592 -1049 -950 0
2148 -3198 -440 -2336 0
-782 -3587 -3416 0
3524 -1202 -793 0
3354 -574 -3211 -2404 0
-3317 -578 -2326 -890 0
3871 -1129 -3689 0
-2197 -1855 -1068 0
1275 -3613 0
1298 -164 -3377 -1253 0
1758 -1036 -3062 -2363 0
3713 -2309 -978 0
-651 -2303 -915 -1155 0
-2445 -2218 -435 -493 0
1638 -3455 -3105 0
2406 -536 0
1064 -1238 -1250 -136 0
340 -3616 -331 -2042 0
-3677 -477 -2658 -2070 0
-3899 -628 -132 0
926 -2302 -172 0
273 -2779 -1493 0
-2070 -3312 0
1182 -2223 -1280 0
3232 -2438 -441 0
3736 -634 -2853 -2653 0
3613 -3671 0
1205 -1587 0
3936 -3718 0
164 -38 -1029 0
1978 -2206 0
2367 -2829 -2305 0
-2572 -2707 -851 -2079 0
3808 -619 -1559 0
2 -2118 -394 0
-2497 -783 0
3578 -749 0
1713 -3610 0
3869 -420 0
446 -240 0
1445 -3250 0
1484 -1215 0
-2658 -2352 -2033 -1500 0
1782 -3151 -1914 0
2294 -2654 -2454 0
3790 -373 0
2630 -1102 -217 -2303 0
2034 -2815 -3418 0
-1676 -3367 -3084 -1314 0
564 -2378 -2849 -1385 0
1154 -3016 -3419 -919 0
-1262 -1147 0
-1940 -1148 -2643 -1930 0
-1940 -1145 -2419 -1774 0
2436 -213 -3223 0
-1004 -641 -316 -3710 0
1552 -1316 -1993 -1168 0
3091 -1649 0
1834 -3499 -124 0
2738 -2497 -1085 -2978 0
-2310 -2402 -3677 -2527 0
1202 -3984 -1165 0
2317 -3280 -3403 -2574 0
3991 -3805 0
2849 -44 0
237 -3841 -2149 0
2120 -2086 -64 -3466 0
556 -2918 -2293 -382 0
-1388 -1857 0
750 -2850 0
3760 -2468 -669 0
-1770 -3183 0
3757 -3239 -687 -926 0
320 -1865 -435 0
108 -210 0
3612 -2942 -1544 0
3271 -6 -1109 -3716 0
2712 -3583 0
-1029 -229 -2334 -3862 0
3227 -1809 -2328 -2043 0
845 -3118 -1773 -2956 0
1225 -2488 0
1343 -64 -3146 0
-2040 -1900 -2497 0
2255 -2062 -224 -3890 0
1238 -2227 -1372 -3568 0
2999 -447 -1169 0
-1589 -2729 -1701 0
243 -3983 0
584 -77 -220 0
-3116 -3250 -1200 -166 0
2178 -995 -408 -3129 0
818 -521 -3553 0
-1023 -1066 0
2674 -2485 0
-18 -1215 -1733 -2282 0
1267 -3001 -2168 -727 0
58 -1704 -29 0
1615 -3188 -1232 -752 0
2685 -1858 -378 -2561 0
2142 -2144 0
3100 -2327 -1200 0
2122 -434 0
1334 -3101 -2457 -666 0
1635 -3557 0
1332 -2516 -1614 -32 0
1216 -2897 0
874 -2618 0
3477 -1083 -1700 -2906 0
3788 -240 -1971 0
2294 -554 0
-3599 -1011 -2739 -1545 0
514 -1359 -3522 0
2617 -3843 -1877 0
339 -1918 -3850 0
3556 -2819 -1871 0
-1553 -2342 0
-2143 -1718 0
-3138 -2751 -785 0
3630 -2257 -2738 0
-2907 -1068 -2034 0
1366 -2408 -493 -892 0
1346 -2868 -1451 0
1094 -254 0
2094 -2106 -1428 0
2230 -2720 0
2366 -3255 0
3199 -59 -1909 -3313 0
3053 -2550 0
3251 -3854 0
1756 -3058 0
-2003 -3316 -240 -763 0
1274 -1684 -1212 0
3187 -2800 0
1205 -1479 -1596 0
-1951 -2910 0
3707 -1889 -3872 -2256 0
1790 -918 -2113 -3356 0
714 -3584 0
-3778 -156 -467 0
75 -79 0
-719 -2723 0
548 -2524 -559 -3347 0
3904 -3315 0
3267 -514 -61 0
3589 -3701 -2437 -3869 0
2255 -2983 -3221 0
2380 -2005 -1485 0
-1517 -2229 -1408 0
1006 -3639 -1597 0
-652 -3749 -3212 -1507 0
-2496 -3450 0
1566 -775 -2988 0
1038 -3888 0
3982 -234 -3505 -2448 0
2064 -3152 -1781 0
-3324 -2921 -242 -2607 0
1887 -3139 -3368 0
1094 -3596 0
3673 -1609 -468 -2618 0
1287 -1637 -3357 -383 0
382 -158 -1312 -3411 0
205 -1047 0
-3860 -543 0
3196 -1822 0
-3690 -3374 -3431 0
-3508 -2546 -3033 -3169 0
403 -3831 0
2164 -1046 -3243 0
-3824 -3683 -3030 -2036 0
-3221 -2746 -3003 -1004 0
2768 -1438 -888 -3344 0
370 -3567 0
3340 -1936 -949 -2588 0
-3731 -115 -2762 0
2752 -1064 -2799 0
141 -1144 -3988 -2227 0
-1930 -328 -2702 0
2502 -3538 0
2414 -1375 0
1093 -1441 -2224 0
949 -1299 -2772 0
-2132 -1686 0
492 -2578 -1768 0
25 -102 -2327 -3162 0
2484 -2418 -2245 0
2536 -1872 0
-3653 -1759 0
-3949 -172 0
2657 -1801 -1055 0
2928 -1999 0
-1348 -3726 -3956 0
321 -643 0
-3976 -3367 -437 -2849 0
2539 -812 -2705 -2340 0
45 -1973 -3489 0
386 -2132 0
-3847 -1445 -3900 0
3 -1884 0
3644 -1404 -454 -3900 0
2996 -1933 -3639 0
509 -2897 -3319 -3792 0
-2969 -1915 0
-3387 -2579 0
-316 -707 -2812 0
117 -3145 -3217 0
2027 -3176 -2006 0
975 -694 -1330 -2715 0
1427 -1574 -858 -2979 0
867 -3949 -3786 0
2370 -2210 -2238 0
546 -632 0
-2338 -3803 0
-2203 -3989 -2075 0
527 -2838 -2527 0
2739 -2224 0
-1236 -2454 -1810 -1336 0
-2484 -2888 -3551 -3448 0
1975 -1334 -1710 -3942 0
2024 -2952 -3560 0
-1499 -2649 0
658 -824 -1951 0
1008 -3143 0
131 -2309 -2564 0
1718 -879 0
3230 -2395 -1124 -2857 0
2382 -1120 -2034 -3791 0
-3377 -3491 -3120 0
-3116 -2033 0
24 -3079 0
-710 -639 -2823 -436 0
-2838 -3987 -2102 -3381 0
-729 -3051 -287 0
1746 -3701 0
-212 -1954 -2724 0
1473 -1135 -1150 0
3443 -395 -3380 0
3474 -2709 -220 0
3559 -3182 0
3102 -1675 0
-1408 -1775 -3413 0
3048 -1692 -2304 -2747 0
3335 -117 -2995 -82 0
3848 -2043 -2196 -1888 0
2180 -3574 -2257 0
-316 -1338 -3580 0
326 -673 -1427 0
690 -2536 -1511 0
1244 -1401 -2512 -2399 0
3043 -2482 0
3623 -894 0
955 -3917 0
3393 -3618 -3315 -1428 0
-1831 -1754 -1088 -3539 0
-2960 -2769 -243 -2021 0
3089 -1067 -3301 0
3690 -2309 0
846 -1040 -2812 -3028 0
2526 -2337 0
1321 -2646 -3020 -865 0
-361 -2317 0
3648 -1501 -2365 0
38 -1674 -198 -2689 0
-2861 -303 0
3955 -338 0
-710 -1383 -2455 -681 0
-1520 -659 0
-767 -3351 -2523 -903 0
3814 -1300 -671 0
-767 -1832 0
2319 -3777 0
1958 -617 -2977 0
-2811 -1053 0
-1083 -96 0
3227 -2306 -3625 0
-2201 -438 0
3079 -1899 0
1879 -3062 -3197 0
486 -3788 -3720 -1368 0
-2591 -471 -2994 -1190 0
216 -200 -332 -1782 0
2668 -1421 -1483 0
3228 -3455 0
3313 -62 -2174 -2125 0
3202 -3081 0
1974 -2097 -332 0
2178 -38 -3300 0
-3360 -2630 -33 -2477 0
-3077 -2994 -832 0
3616 -3821 -1758 -694 0
-1583 -1030 -3548 -2078 0
1053 -842 -2519 0
-2488 -3968 -1717 0
1228 -2280 0
-1565 -3541 -308 0
3093 -861 -729 -3895 0
1039 -1594 0
3454 -2868 -379 0
-3349 -1748 -1421 -453 0
873 -2534 -3284 -141 0
-3105 -1354 -1864 -3916 0
88 -3375 0
1368 -2881 -1908 0
-2363 -482 0
1614 -1840 -2185 -2756 0
-1726 -3510 -3498 0
3970 -40 0
-3103 -1373 -657 0
3910 -2165 -3450 -2727 0
3927 -922 0
1475 -3137 -2887 -2127 0
456 -1958 -2397 0
2820 -3324 -2786 -1091 0
86 -959 0
3394 -2287 0
1962 -2718 0
-3323 -905 -1607 -2309 0
3363 -1663 -1853 0
2580 -1641 0
-3548 -91 -3045 -263 0
1730 -1453 0
-1546 -3865 0
-1782 -2298 -1708 0
1337 -1668 0
-553 -1579 0
1001 -215 0
-1406 -2683 -1467 0
354 -2412 0
3039 -161 -1923 0
103 -2727 -2530 -1664 0
191 -3321 -416 -1991 0
3148 -431 -3770 0
-1136 -2590 0
-3834 -2376 -1700 0
1438 -2807 0
-3783 -3520 -732 0
-2740 -3399 -357 0
3579 -886 0
437 -2235 0
-883 -3580 -1850 0
-3189 -2879 -171 0
3262 -3960 -684 0
867 -3527 0
2362 -1692 0
2513 -288 0
-1679 -2989 -1916 0
1977 -1696 0
435 -2880 -2898 0
3499 -1641 -2196 0
-3580 -1504 0
3262 -1041 0
-2777 -10 -3542 -498 0
-391 -3035 -3525 0
-17 -3651 -570 0
2116 -2289 -3049 -256 0
-1972 -3341 -1433 -2461 0
613 -2249 0
1126 -1259 -2794 0
693 -1176 -2082 -3669 0
2038 -3969 0
1992 -3757 0
472 -119 0
-1258 -2557 -2960 -671 0
952 -3059 0
-3040 -26 -3354 0
128 -1174 0
632 -804 -1053 0
3805 -3966 0
709 -105 -1016 0
3433 -3572 -2112 0
-2117 -286 -2870 0
2531 -3918 -3495 0
-77 -688 -710 -3190 0
-681 -742 -2792 0
-3008 -3669 0
143 -2566 -3817 -3516 0
3347 -2310 -1971 -2821 0
2301 -1370 -1326 0
3287 -388 0
1099 -1237 0
206 -643 -3467 -1329 0
3398 -1036 -262 -3930 0
-3769 -1567 -2600 -2987 0
3423 -2134 -2674 -898 0
1848 -2589 0
2887 -3904 -865 -162 0
1126 -2664 0
-3433 -1770 -3413 -3939 0
-2931 -767 -1206 0
2546 -3467 -68 0
3677 -230 0
-3782 -1961 0
-2414 -782 0
-6 -3584 0
2550 -2956 -2802 -960 0
3701 -137 -2962 0
649 -2929 -699 -1767 0
2744 -520 -757 -2228 0
1898 -2423 -3592 0
1063 -3037 0
1138 -3117 0
-1395 -2484 -3331 -1396 0
3785 -2995 -2988 0
2549 -2501 -2151 -355 0
12 -3332 0
238 -580 -2843 0
-2859 -2252 0
-3084 -1163 -1577 -1972 0
1938 -902 -1418 0
-1805 -3461 0
2910 -139 -2723 0
-2799 -511 -830 -147 0
2706 -2970 -73 -50 0
-1376 -3360 0
-1331 -933 0
2716 -1861 -714 0
3596 -120 -1693 -1932 0
-3579 -2106 -1233 -33 0
-120 -104 -1615 0
719 -100 -1730 -472 0
-1916 -403 0
2360 -2321 0
1588 -3880 -3390 -2195 0
695 -388 -1404 -3998 0
-3685 -2199 0
998 -688 -3804 0
2893 -3956 -1522 0
1315 -181 0
2065 -2945 -948 0
2542 -1139 0
3980 -2140 -1461 0
3741 -3830 -1495 -2380 0
2705 -1633 -757 -830 0
2302 -2439 -1281 0
382 -2207 -2425 -450 0
422 -542 -895 0
-2158 -2485 -2805 0
3286 -1668 -2193 0
-2827 -1933 -3093 -1311 0
2274 -3611 -2275 -3141 0
-3240 -2898 -3818 0
3792 -7 0
1161 -3655 0
3325 -2926 -349 0
3163 -3088 -414 -3147 0
823 -2626 -2459 -1680 0
1180 -871 -840 0
2289 -3377 -2033 0
3470 -1054 -2701 0
2809 -207 0
3822 -3471 -2743 0
1481 -2706 0
1700 -1165 0
1550 -332 0
2901 -1690 -2924 -98 0
-1788 -2223 -2659 0
-3718 -1239 -3713 -2527 0
-859 -3043 -1584 0
3335 -1975 -2744 0
973 -2490 0
3153 -1612 -3142 -3418 0
690 -3140 -1002 -1321 0
-3100 -1844 0
2691 -889 -3525 -3350 0
1757 -142 -2657 0
1979 -3294 -2009 0
1224 -455 -33 0
3937 -3789 -569 0
2822 -2307 0
551 -3389 -1412 -1665 0
-2707 -2366 -3451 -2951 0
-573 -1258 -3786 0
529 -2118 -532 0
-2171 -244 0
-3834 -2589 0
1131 -733 0
-3938 -3289 0
1162 -3856 -1354 -39 0
3577 -3171 -3933 -1371 0
2684 -3452 -917 -497 0
780 -3681 -2398 0
-3064 -2687 -3186 -1586 0
1860 -1501 -3104 0
1472 -2532 0
-3684 -357 -789 -2500 0
-1455 -422 -2061 0
1142 -3063 -719 0
2760 -1080 -3895 0
1096 -2437 0
1414 -3407 -1987 0
-2324 -681 -1687 0
2212 -2648 -2936 -1971 0
3017 -755 -1842 -3838 0
-1786 -2494 -1248 0
873 -1149 -3262 -1580 0
42 -1817 0
365 -3641 -1434 0
2695 -17 -658 -2236 0
-1193 -1142 -734 0
-1664 -3385 -2651 0
2012 -1940 -2275 0
2783 -491 -883 -3405 0
-42 -924 0
377 -827 -2482 -1877 0
-975 -980 -1031 -2870 0
-3032 -2769 -2445 0
3671 -3656 -680 0
1698 -790 0
-2726 -2063 0
829 -1691 -1847 -953 0
3485 -3096 0
-224 -950 0
1466 -535 0
3876 -738 -1881 -2061 0
-18 -688 -1390 -1463 0
-1088 -654 0
1153 -1294 0
476 -1965 -75 -3449 0
-2041 -1188 -3337 -3950 0
1551 -1095 0
3528 -305 -1537 0
-134 -501 0
670 -399 -1315 0
3017 -3528 -719 -302 0
-1318 -1613 0
-3060 -3849 0
2189 -3053 0
142 -2523 -2513 0
-1663 -1679 0
217 -1051 0
-365 -1777 -1168 0
1452 -2484 -3470 0
1290 -803 0
-1702 -2405 -1739 0
349 -3208 0
1305 -3782 0
3979 -73 -799 -2575 0
1180 -2465 0
-2940 -602 -2800 -3887 0
541 -665 0
1145 -352 0
2565 -653 0
2009 -2900 0
1488 -522 -421 0
-1207 -3742 -3097 0
-2336 -3496 -110 -824 0
-2423 -3353 -3941 -752 0
-2415 -3339 -2215 -2814 0
-3034 -1844 -3363 -3666 0
1424 -1104 0
2472 -211 0
3644 -617 -3942 -733 0
1587 -3680 -2805 0
249 -3182 -2092 -3513 0
1715 -3058 -3259 -3346 0
1681 -1389 0
3088 -1572 -790 0
1635 -292 -1035 -1426 0
-2743 -3772 0
3612 -7 -289 -961 0
-1814 -1082 -3774 0
2312 -1983 -1721 -565 0
-2240 -2293 -715 -3593 0
1477 -1965 -269 -2216 0
1938 -1403 -62 -172 0
1243 -795 0
116 -2520 0
3788 -236 0
1324 -2825 -2834 -980 0
3251 -2158 -2055 0
785 -1268 -428 -1190 0
2330 -714 -1203 -1270 0
92 -1690 -3670 -2504 0
3203 -2927 -3643 0
-52 -93 -3006 -759 0
3208 -2356 0
3727 -3358 -830 -846 0
-800 -1413 -600 -3898 0
-2289 -1154 -1618 -234 0
-2621 -3075 0
2257 -475 0
1117 -3085 -52 0
3524 -3967 -266 -1123 0
-1189 -764 0
-3333 -116 0
-2647 -82 0
-3693 -948 0
2743 -95 0
2191 -1097 -1668 -2943 0
909 -3956 -25 0
-3662 -1529 0
978 -157 0
146 -220 0
3260 -211 -1272 -1368 0
-3918 -414 0
401 -3245 -3663 -1333 0
474 -2391 -3297 -1170 0
1926 -1906 -2246 0
3929 -1785 -893 -3854 0
3226 -3231 -132 -3026 0
475 -804 0
3882 -3514 -2130 -83 0
3999 -2565 -2853 0
1303 -1337 -1228 0
1505 -3008 -3560 0
-843 -1797 -2963 -2256 0
378 -526 -2548 0
1951 -1811 0
3042 -1082 -395 0
-38 -1564 0
494 -122 -3966 0
514 -560 0
-2198 -1657 -3460 -2022 0
454 -2941 -2589 -1117 0
1969 -3904 0
178 -1261 -102 -2337 0
-1195 -1605 -1157 0
3226 -3182 0
2646 -1731 -575 0
2844 -2883 -2782 0
1516 -3733 0
-3066 -3121 -3840 -2350 0
1477 -1849 -1708 0
2449 -3922 0
3229 -3893 0
-3425 -715 -141 0
1378 -2698 -949 0
-1161 -624 0
3791 -551 0
-1703 -811 -3048 -3280 0
-3235 -1988 -748 -638 0
3149 -1752 -2640 -362 0
3027 -2378 -3959 -3795 0
995 -2873 -1805 0
-3479 -1803 0
-305 -1936 0
1505 -1251 0
1466 -3811 0
-2583 -1806 -1008 -1917 0
-3624 -3361 0
3140 -1422 -3317 -184 0
799 -2825 0
70 -49 -627 0
-2861 -1588 -271 -3275 0
3897 -2125 0
-159 -1372 -992 0
-144 -1529 -1925 0
-3277 -2708 -572 -2985 0
-1193 -2315 0
2298 -2882 -3851 0
456 -64 0
-3634 -979 -1626 0
-2758 -633 -3111 -3561 0
637 -1307 -2648 -1392 0
2972 -1463 0
-875 -3425 -3016 -3471 0
1455 -2097 0
2922 -3103 -1622 0
3549 -1556 0
-424 -387 0
739 -377 -2582 0
1990 -959 -2360 0
2014 -1395 -3733 -3346 0
3328 -2218 0
2940 -2803 -2314 -1879 0
-1555 -2921 -706 -335 0
1892 -2449 0
1182 -1410 -871 -3661 0
509 -249 -3847 -1104 0
490 -2430 -3838 0
1008 -2476 -1030 -2909 0
2923 -798 0
625 -943 -3384 -655 0
608 -3336 -3844 0
1298 -549 0
-1327 -1136 -2539 -1780 0
2579 -1822 0
2369 -551 -2384 0
3082 -2303 -1400 0
2823 -1485 -374 0
1286 -571 0
-2573 -364 -333 0
3887 -1163 -3436 0
3004 -2440 0
-739 -1034 -1121 -1369 0
3781 -3551 0
-1705 -2057 -3066 -654 0
3788 -1953 -111 0
477 -1613 -2336 0
1915 -1045 0
-1453 -3831 -2114 0
-503 -1823 0
3400 -566 -2195 -3838 0
289 -2896 -2085 0
3665 -570 0
618 -1478 -1317 -1896 0
-3659 -3189 -3581 -2109 0
705 -330 -760 0
412 -1591 -972 0
1145 -33 -609 0
3855 -1740 0
-1609 -3890 -2960 -1905 0
2251 -3223 -1659 -3387 0
1331 -218 0
129 -537 -2294 0
692 -59 0
-3600 -3395 0
3803 -1639 -813 0
-299 -274 -917 0
3448 -3823 -1427 -2782 0
3598 -2571 -3789 -419 0
2114 -3176 0
1589 -833 -3818 0
1031 -97 -3215 0
-65 -921 0
2582 -3664 -1070 -1818 0
1173 -3440 -3299 0
210 -438 -2238 -1905 0
3615 -3761 -2386 -2093 0
1974 -1367 -3948 -294 0
2739 -1783 -1189 0
-557 -99 0
691 -2507 0
1270 -3242 -1645 0
3769 -994 -1881 0
-2309 -1990 -1285 0
1737 -2804 -1187 0
-3664 -3806 0
-431 -2390 -3659 0
1942 -3484 0
3721 -3732 -3703 0
-1014 -2761 -1087 -3895 0
2859 -2635 -863 -155 0
-1357 -1794 0
-2615 -2077 -283 -1463 0
2857 -882 -3985 -3167 0
3499 -1347 0
-1111 -981 -1487 0
1523 -785 -2879 0
-2716 -3444 -533 -1321 0
930 -3464 0
1317 -1036 0
-1052 -1488 -1817 -2718 0
2430 -940 0
2559 -223 -3252 -2956 0
264 -1908 -261 0
1806 -2766 -3332 0
-1488 -872 -1035 -2372 0
2483 -3313 -724 -2540 0
177 -114 0
1279 -315 -1979 0
3846 -482 -317 0
2321 -1677 0
3718 -2899 -1209 -1183 0
2489 -3290 -2566 0
1460 -3536 0
3267 -1578 0
-3213 -1817 -2555 0
2605 -594 -1605 -1140 0
200 -1077 -110 -3011 0
2760 -3479 0
-2610 -2639 0
3452 -3315 0
3459 -1145 -1811 0
1888 -3861 -2191 -2690 0
3424 -3247 0
-3345 -2292 0
363 -444 -1812 -3551 0
978 -3380 0
-530 -3651 -1207 0
2357 -2206 -2331 -1862 0
1831 -187 0
3119 -1490 0
414 -1355 -3473 0
3338 -2188 -3555 -2202 0
1468 -1767 0
-3815 -3025 0
84 -2991 -2702 0
-511 -1589 -1071 0
2719 -92 0
1053 -131 -3440 -1646 0
2387 -2913 -996 0
508 -304 0
1132 -3699 -3964 -2805 0
-885 -2084 -1865 0
-2840 -1010 -3905 -1586 0
-2829 -194 0
1432 -390 -1090 -1834 0
-3837 -3665 -3266 -2292 0
334 -2999 0
1962 -1740 -1381 0
2799 -1958 -2158 0
-1436 -1434 -3373 -465 0
3151 -239 -354 0
2093 -2179 -1034 -564 0
532 -1550 -3202 -3307 0
3968 -3715 -1362 0
3346 -2832 0
1478 -1482 -1186 0
3983 -1868 0
-1824 -922 -3885 -1894 0
3367 -757 -3545 0
100 -1202 -40 -1646 0
105 -2420 0
1829 -397 0
-3315 -827 -3565 0
1730 -220 -3060 0
1317 -57 -2681 -3448 0
1817 -3357 0
2149 -1568 0
2047 -781 -954 0
-735 -574 -3970 0
-3748 -470 0
3285 -3861 -3433 -3731 0
-245 -2259 0
423 -2158 -2446 0
77 -1124 0
315 -2138 0
2999 -1422 -2097 -2254 0
2965 -1363 -3736 -2664 0
1770 -3091 -3353 0
1910 -3980 0
1466 -2532 -1613 0
1168 -817 -2235 0
1602 -2698 -3417 -527 0
-1219 -2531 -3010 0
3754 -3387 0
3111 -1211 -2650 0
2061 -3143 -3881 0
3860 -3814 -2006 -1459 0
-3232 -1551 -1910 -826 0
1298 -1177 -1092 0
778 -2664 -2155 -121 0
3369 -1694 -21 0
3009 -1468 -2573 -926 0
3274 -963 0
-747 -2411 -2481 0
-3153 -2895 -219 0
3521 -1622 -489 0
1365 -1460 0
2152 -1142 -2601 -3150 0
1133 -2517 -3929 0
366 -1152 0
-2181 -1703 -2580 -458 0
-1473 -1369 -2254 -2511 0
1899 -3634 0
3676 -1967 -2230 0
1959 -2939 -2637 0
970 -3982 -658 0
478 -2663 -3333 0
-3413 -2450 0
3457 -2452 -2453 0
-1854 -1013 -1007 0
201 -1009 0
-1181 -1160 -2194 0
2751 -3881 -2613 0
1088 -688 0
3253 -3693 -1172 -3291 0
1092 -2802 -2598 0
-940 -638 0
3331 -2801 -1969 -3936 0
-1789 -3033 -3104 -837 0
2879 -1869 -880 -3756 0
1574 -189 0
2644 -3897 -536 -2775 0
-1320 -458 0
2877 -1858 -2623 -3715 0
-3497 -491 -1075 0
3566 -1870 0
3126 -1739 -2999 -2889 0
-2431 -3980 0
-3059 -2580 -950 0
2430 -3553 -187 -1285 0
-1103 -1810 -3231 -569 0
508 -28 0
1689 -2371 -2482 0
-3934 -599 -654 0
3229 -2866 -2648 -793 0
3437 -188 -1449 0
1010 -2231 -3776 0
1941 -3682 0
3942 -1412 -755 0
3568 -1417 -1911 -1396 0
2584 -294 0
-530 -1879 -1596 0
1288 -300 0
-2288 -1195 -3707 0
187 -3697 -768 -1683 0
1006 -223 -2490 0
3085 -2492 -3674 0
1258 -421 -3160 -1354 0
-927 -3922 0
104 -862 0
-362 -735 -1610 0
-3601 -2581 -231 -374 0
1151 -1202 -3239 0
-2827 -2914 -2133 0
3447 -2058 -153 0
-3504 -2495 -1330 -2885 0
7 -1342 -3521 0
-619 -3548 0
2582 -2161 -720 0
-1734 -3612 0
1635 -3100 0
2344 -484 -74 -1752 0
13 -1015 0
3765 -415 -1760 -1029 0
1586 -2068 -1998 -3120 0
223 -3573 0
-3751 -2354 -2964 -1334 0
1287 -15 -136 0
-2184 -2682 -909 0
3671 -332 0
268 -1449 -3770 0
3533 -752 -1384 -3336 0
-521 -2127 -1579 0
3053 -3189 0
3458 -3494 0
1700 -3894 -3442 0
-1740 -2650 0
2493 -3695 -1728 0
-3731 -1772 -3700 0
1141 -2852 0
-2521 -3487 -25 -3416 0
3675 -1420 0
1829 -916 -3753 -1656 0
2008 -1242 0
2503 -3037 0
-2703 -2439 0
1814 -280 -1743 -703 0
38 -3599 -1305 -2820 0
-1794 -3522 0
422 -727 -2999 -2201 0
1010 -815 -2875 -630 0
1303 -682 -3005 -1676 0
-1054 -633 0
1680 -1216 0
2981 -2633 -2111 0
-1669 -2339 -263 -2577 0
1494 -3319 -1062 0
-1658 -2454 -3209 0
193 -2758 0
-583 -1702 0
3677 -3177 0
-2063 -3214 -3478 -2142 0
1485 -59 0
-1890 -2941 -2806 0
-1387 -3859 -3781 0
1916 -1869 0
439 -258 -2937 0
-2939 -3445 0
1838 -877 0
468 -2348 -3730 0
3016 -114 0
1696 -785 -3097 0
-2926 -943 -1041 0
-489 -1616 -1808 -2707 0
1421 -1302 -1317 0
576 -3594 0
1426 -1249 -487 -1508 0
-1624 -1753 0
-1986 -2368 -1904 0
992 -596 -3095 0
-1155 -3627 -3564 -3392 0
1998 -2351 -3812 -561 0
2234 -3312 -2605 -822 0
1793 -3320 -2284 -3302 0
3223 -3320 -3714 0
3685 -1724 -2239 -2807 0
-2641 -3676 -1357 0
3897 -2713 -2396 0
-3822 -2622 -170 -3901 0
-3055 -2544 -2063 -1379 0
-604 -3214 -2804 -1244 0
2964 -933 -1379 0
1306 -1385 -2588 0
1900 -3938 0
1078 -2239 -2286 0
3632 -2582 -1524 -647 0
769 -435 -3561 -839 0
2898 -647 -2700 -1805 0
459 -2542 0
705 -249 -1174 -2399 0
1157 -3449 -656 0
1840 -2095 0
1180 -1617 -222 -1618 0
2261 -1835 -2110 -256 0
1765 -71 -707 0
537 -2030 -3984 0
2870 -482 -1999 -943 0
57 -3439 0
3433 -2566 0
2160 -1813 -3705 0
3925 -3539 -2067 0
-1244 -2618 -1660 -4000 0
-67 -947 -363 0
1886 -3964 0
2 -2527 -1355 -228 0
-1570 -3088 -1692 0
1235 -2988 -3558 -1861 0
13 -3345 0
3510 -2447 0
731 -3448 0
2424 -513 -2208 0
96 -3375 -1896 0
-3947 -1973 0
2773 -3277 0
456 -2377 -340 0
-2620 -3118 -2611 -730 0
1390 -2388 -2835 0
-1577 -379 -1163 -3029 0
-1830 -1297 0
597 -3874 -890 -2112 0
3313 -1844 -163 0
701 -3901 -3529 -1872 0
1718 -3740 -3762 -1448 0
473 -2563 -2803 0
-1832 -3456 0
-923 -375 -3100 -3662 0
62 -2027 -1962 -2042 0
-1106 -3379 -2062 -3716 0
960 -3235 -3873 -2131 0
1938 -1513 0
-2320 -2281 -3729 -3843 0
2990 -3336 -2059 -2803 0
3263 -584 -1922 -3574 0
1590 -2699 0
-1689 -1215 0
3383 -885 -1589 -2860 0
936 -2773 -1304 -419 0
-1278 -1598 0
2848 -1597 0
-1087 -595 0
2134 -407 -1931 -3229 0
-1904 -1492 -2330 0
3517 -3573 -1297 0
3120 -2335 -2612 0
756 -3472 0
752 -59 -448 -607 0
2547 -396 0
686 -3446 0
-3534 -3702 0
3733 -979 0
2911 -3877 -3513 -2341 0
-1327 -3729 -2399 -2546 0
806 -1021 -2352 0
2737 -1362 0
-163 -994 -202 -3173 0
3542 -2371 -2360 -871 0
2574 -576 -3027 -1609 0
3849 -3020 -1470 -2710 0
532 -1957 -3103 -3215 0
3968 -2050 0
-1145 -2870 -1263 0
3291 -2051 -714 -2839 0
1902 -551 0
-3387 -2849 -1750 -1516 0
-3398 -3462 0
937 -859 -3714 0
3864 -2035 0
2597 -3372 -1900 -3886 0
1700 -173 -2388 0
3967 -3554 0
-1432 -2386 -3115 -3369 0
3953 -3736 -3984 0
1257 -472 -3796 0
1660 -1276 0
1654 -1777 0
-1480 -3598 0
3576 -2993 0
-3212 -429 0
1979 -3292 0
313 -47 0
-3913 -3326 -2282 0
2470 -3712 -3764 -601 0
2836 -3467 0
1434 -305 0
-431 -3341 0
1292 -2606 -3105 0
-1301 -190 -850 0
-2931 -3260 -2398 0
-1368 -3912 -1008 0
1166 -3375 0
-776 -590 -1632 0
1265 -2802 -3904 -1101 0
-3433 -432 0
-414 -89 0
3671 -3258 0
3341 -1721 -1233 -615 0
374 -3616 -1128 -1251 0
-882 -2447 -2858 -1100 0
2845 -560 0
2591 -738 -28 -1436 0
-3934 -3787 -3998 -716 0
-1043 -1961 -2278 -180 0
3469 -1647 0
3422 -1421 -802 0
-1054 -2594 0
-2603 -6 0
2961 -1331 0
997 -3351 -1827 0
978 -681 0
-530 -2452 0
2581 -1401 -1474 -3672 0
2689 -705 -2370 -697 0
2517 -2802 0
3831 -563 -815 0
1216 -148 -2877 0
3407 -344 -3856 0
2298 -2348 0
2089 -3525 -2329 -1872 0
-2926 -2291 0
1151 -177 -1724 -2199 0
2077 -3705 0
1029 -1298 -1731 0
-686 -3814 -1857 0
2354 -1735 -1319 0
427 -43 -3184 -265 0
-1680 -3576 0
1018 -3123 -3075 -2065 0
-3584 -1017 0
2485 -1364 -3849 0
2532 -1456 -1916 0
2093 -1434 0
3876 -1492 -3441 0
-2864 -2567 -1813 -1487 0
2161 -311 0
3894 -2461 0
2058 -910 -2643 -265 0
836 -81 -460 -3380 0
2380 -3357 -114 0
1583 -3679 -3005 -3977 0
2812 -3320 -124 0
2935 -2403 -3985 0
-2430 -3949 0
133 -2039 -1344 -624 0
-1820 -686 -2144 0
-325 -645 0
716 -2581 0
3820 -540 -63 0
1448 -3887 0
1678 -1984 -309 -356 0
517 -3229 -2359 0
99 -2005 0
338 -1730 -922 0
140 -1090 -1074 -3503 0
3310 -3419 -3106 0
3920 -3438 0
-1387 -3284 -2131 0
2523 -3121 0
1969 -1065 0
-472 -593 -244 -1005 0
1088 -2740 -681 0
3488 -3502 -3999 -632 0
-1051 -823 0
-1344 -2744 -2964 -3685 0
-3622 -3379 -1508 0
3837 -3452 -1311 0
2174 -1795 -810 -1522 0
3711 -1413 -1121 -1622 0
1655 -3887 -3786 -2128 0
2899 -3389 -1009 0
2606 -3564 -3015 -3735 0
-2875 -2787 -3612 0
305 -1815 0
3313 -386 0
2422 -3725 -3218 -1099 0
2697 -3883 -1673 0
3361 -473 -211 -1016 0
2452 -1385 -2821 -2596 0
127 -1696 0
-2913 -2071 -1195 -1151 0
1007 -1339 -368 -869 0
784 -3300 -3404 -3441 0
3000 -2573 -3223 0
-1106 -3203 0
2253 -2272 -1335 -1601 0
1651 -53 0
175 -3307 -2321 0
1357 -1791 -1759 -1407 0
824 -463 -2609 -3252 0
1884 -3939 -1829 0
337 -1890 0
-3444 -1369 0
2086 -612 0
950 -3774 -1230 0
3950 -1515 -1912 -3864 0
2414 -3977 -278 -742 0
-3477 -3334 -2373 -1437 0
255 -704 -3502 -314 0
367 -2053 0
3557 -2223 0
62 -1191 0
1063 -3195 -3488 -748 0
1769 -3798 -1109 -1177 0
3067 -296 -1016 -2308 0
2510 -1238 -220 0
1389 -1711 -1754 0
-1643 -1757 0
45 -59 -1214 -3326 0
2273 -2619 -3186 -2427 0
2536 -894 -2982 -274 0
2038 -806 -2772 -3041 0
987 -3405 0
616 -1868 -3286 0
1095 -975 -84 0
2040 -1070 0
502 -96 -1036 -1316 0
-2225 -3746 -1913 -855 0
-524 -17 -2331 -1144 0
2385 -383 0
2316 -3006 0
883 -3488 0
2 -2648 0
288 -2447 0
1106 -229 0
308 -1943 0
3535 -875 -269 -1504 0
2588 -2363 -1519 0
-3479 -3991 -1876 0
420 -2000 -1111 0
-3930 -3321 -104 0
282 -1257 -918 0
948 -2883 -2463 0
3279 -2917 0
-427 -3592 -766 0
3913 -3526 -2641 -3000 0
2322 -977 -2635 -2563 0
935 -3060 0
2430 -1864 0
480 -3886 0
1527 -2088 0
1694 -2131 -528 0
3069 -1711 -17 0
3474 -1372 -3023 0
3147 -994 0
1475 -200 -2860 0
2252 -856 -2169 -890 0
2473 -1536 -3202 -3364 0
3972 -231 -3910 -1573 0
1089 -3110 0
2493 -3808 0
2850 -144 -2489 0
2260 -2326 -691 -2463 0
801 -3269 0
3664 -1105 0
392 -1846 -3358 0
1746 -1955 -2104 -1487 0
3882 -2373 -2510 -2046 0
-974 -3941 -269 0
2123 -3021 -1768 -730 0
3142 -543 -601 0
2181 -173 -1060 -3780 0
2249 -3028 0
-1232 -3205 0
2577 -2123 -2838 -29 0
3196 -1545 -2305 0
-3329 -3558 0
-2426 -1163 -429 -1960 0
3646 -2514 -1042 0
1914 -2608 0
3269 -468 -1923 -1774 0
2662 -1201 -3347 -3590 0
701 -2003 0
1574 -522 0
3737 -498 -3925 0
3048 -2927 -876 0
415 -533 -1793 0
3199 -1160 -985 -2963 0
2841 -1283 -305 -3435 0
3369 -1024 -326 -2541 0
3119 -3425 -1720 0
2484 -2762 0
-672 -2806 -99 -561 0
3035 -39 0
-2306 -2016 -1986 -3395 0
-1455 -1034 -1995 -2060 0
641 -844 0
502 -2230 -2153 -1428 0
3587 -672 0
3518 -1796 0
327 -826 0
695 -2062 -2123 -1229 0
280 -1026 0
-2105 -1532 0
438 -33 -1479 0
2550 -1274 -686 0
3353 -143 -2361 0
3484 -2990 -3238 0
2923 -2988 -3314 0
-2286 -1300 -3175 -618 0
3864 -1073 -3845 -2952 0
1928 -3635 -3788 -461 0
2283 -1655 -1779 -3593 0
-1214 -2666 -1206 -3655 0
-961 -715 -1526 0
3581 -1994 -1719 0
-3825 -956 -3641 0
1699 -1499 -2310 0
142 -2478 -67 -1212 0
1438 -1482 -1053 0
766 -1383 -906 0
-2108 -1499 -252 -865 0
1275 -345 -1176 0
3139 -551 0
1658 -2451 0
-721 -814 -3232 -3877 0
868 -3452 -1975 0
781 -840 0
695 -450 0
-322 -2422 -297 0
3309 -3541 -3417 -1534 0
3619 -1595 0
-1333 -828 0
1094 -3164 -3636 -2278 0
3023 -2485 0
3370 -1771 -2085 0
608 -746 0
2350 -247 -81 0
530 -864 -3895 -3505 0
3541 -3365 0
523 -2274 0
46 -2904 -3980 -1003 0
2467 -2538 -1002 0
2007 -996 -3173 0
2350 -2471 -3378 -188 0
2022 -3404 -450 0
722 -746 -1934 0
-2032 -1398 0
1557 -3638 0
788 -2323 0
1900 -3774 -3552 0
1787 -2252 0
3692 -758 -3786 -2688 0
-707 -2815 -2138 -812 0
2596 -2858 0
-2162 -3999 0
3336 -3286 -2482 0
-2379 -2391 0
1443 -2496 -3471 0
823 -3195 -2838 -2111 0
-2541 -2629 -873 -188 0
3225 -3286 0
-2441 -3884 -423 -3680 0
504 -3726 -3103 -2719 0
-3270 -3246 -3427 0
2671 -985 -2166 0
3254 -2005 0
3734 -166 -1071 0
959 -748 -1378 -3392 0
3375 -541 -2338 0
2673 -2165 -2898 0
2056 -3698 -3010 0
3756 -911 -1172 -1945 0
723 -1340 0
2176 -2220 0
3045 -39 -351 0
1737 -1701 -2552 0
371 -3328 0
-1900 -2214 -1718 0
1312 -1338 0
-3095 -3444 0
1784 -309 -2918 0
-3163 -1602 0
2268 -788 -3231 -693 0
-2409 -2937 0
-2453 -3018 -599 -2629 0
3045 -1449 -1443 0
326 -3009 -3198 -1486 0
2908 -2570 -3392 0
2055 -1846 -3854 -1849 0
3347 -3510 -3272 0
3281 -1516 -3711 0
559 -2911 -823 -1409 0
200 -3656 -2406 -855 0
-1978 -2304 0
2642 -398 -3237 -3766 0
-1819 -3869 -2222 0
-637 -1512 0
2554 -1851 -3827 0
2588 -3998 0
143 -3653 -1569 0
3491 -3796 -473 -1886 0
861 -3638 -724 0
3781 -1933 -2597 -1487 0
3781 -3851 -941 -113 0
-3529 -3102 -2437 -972 0
3338 -13 -1508 0
181 -2813 -3257 0
2051 -1994 -1716 0
1866 -1912 -67 0
-158 -2706 0
-1675 -3002 -3585 0
-1146 -417 -3582 0
2877 -897 -3263 0
-602 -3048 0
3321 -2033 -1818 0
-117 -2727 -3917 -1997 0
938 -169 0
-2178 -311 0
-1012 -3250 0
-2041 -3301 -256 0
2992 -2213 0
-1252 -1958 0
-855 -339 -2382 0
1841 -513 -132 0
1049 -2452 -456 -2796 0
1421 -205 0
-3456 -1515 -3661 -2025 0
3454 -835 -1931 -3325 0
633 -3305 0
764 -3102 -106 0
2449 -967 -3056 -1976 0
1750 -2189 -3966 0
1000 -3143 -919 0
2716 -2824 -2418 -2954 0
3027 -1457 -863 0
-802 -1782 0
1729 -2174 -536 -2836 0
1926 -2970 -1912 0
1871 -1961 -1074 -2881 0
3064 -3440 -2485 -2783 0
1963 -1069 -2971 -3150 0
3470 -3511 0
-2285 -744 0
1 -1128 -1323 -713 0
-1426 -2425 0
-2020 -231 -3004 -1725 0
3217 -1369 -1825 -3288 0
877 -3931 -1605 -2111 0
2072 -2293 -2042 -2230 0
3274 -2873 -1576 0
-1681 -3969 -3553 -892 0
3298 -1539 -1772 0
949 -614 -1122 -31 0
2227 -2500 -408 0
-3351 -3848 -3114 0
-3964 -2533 -1206 -1829 0
548 -977 -3190 -3932 0
-1616 -3574 -867 -2558 0
-1990 -714 -1868 0
843 -2912 -179 0
3901 -1493 0
-3177 -2734 -1172 -163 0
-3849 -1330 -1668 0
3019 -2177 -3228 -1711 0
877 -8 -1226 0
-913 -1348 0
1990 -275 -825 0
764 -3248 -3311 0
-1028 -990 -1157 -568 0
-3926 -1705 0
-3502 -2514 0
2477 -3297 0
337 -2306 -3663 0
-3945 -163 -987 0
-3234 -3550 -1270 -457 0
3628 -2955 0
796 -2800 -1811 -1571 0
-3478 -575 0
1275 -597 0
2995 -174 -1501 0
-3092 -1761 -129 -3356 0
3487 -2966 -3742 -460 0
812 -1296 -763 0
-2044 -1360 -795 -910 0
-2233 -247 -2147 -1051 0
430 -3252 0
1981 -3641 -1321 -1905 0
3415 -373 -1624 0
1482 -2829 0
2864 -3555 -1626 -1783 0
-2254 -286 -3993 -3555 0
1266 -758 -706 -3428 0
931 -992 -1682 -3659 0
475 -2853 0
1527 -178 0
2571 -1969 0
3206 -3495 0
1648 -3228 -3833 -2681 0
623 -1153 -2552 0
1601 -1791 -1344 0
2840 -328 -1211 -1619 0
3619 -1152 0
1504 -1683 0
3405 -1675 -2198 -3495 0
3267 -3406 -638 0
2168 -2563 -3234 0
3668 -676 -682 -1023 0
1328 -1744 -273 -2518 0
-67 -53 -1006 -3856 0
2178 -2168 -708 -3768 0
2808 -1945 -1913 0
3139 -2355 -27 -1789 0
-2607 -1176 -1965 -150 0
3600 -984 -1986 -324 0
116 -1910 0
3421 -856 0
-3319 -530 -155 0
-2838 -1536 -1939 -2585 0
594 -895 -248 -2134 0
26 -2185 0
3510 -2056 -3544 0
-351 -689 0
3037 -630 0
2610 -621 -2595 -3018 0
2903 -2317 0
1421 -3629 -3492 0
548 -2156 -1446 -447 0
2126 -3283 0
-720 -3468 -547 -3173 0
2103 -3564 -1192 0
-2452 -3799 0
2501 -3428 -1189 -2101 0
3985 -3083 -3680 0
-657 -2482 -833 0
1232 -84 0
2670 -3081 -3882 -2233 0
-79 -3920 -115 0
630 -2913 -55 -396 0
245 -2595 -3701 0
-3447 -3896 0
1780 -150 0
3703 -509 0
831 -2494 0
1537 -2203 -1936 -2557 0
2066 -1742 -2464 -221 0
1815 -1315 -3680 0
-3201 -2355 0
-2237 -1611 -2107 -927 0
-3271 -1358 0
-1879 -329 -1902 -3909 0
899 -3432 -3434 0
1924 -3272 0
197 -903 -2474 -1356 0
340 -2751 -2784 -2532 0
3421 -2259 -2979 0
-3269 -107 0
752 -1665 -403 -3425 0
3781 -805 -1338 -3669 0
731 -2838 0
1202 -3238 -2343 -1504 0
-1680 -3389 -720 0
-3951 -1424 -3751 0
1658 -2478 -651 0
-2995 -1400 -1510 0
3590 -1054 -681 0
1812 -3499 0
1998 -2471 -514 0
1738 -1730 -3551 0
2472 -797 0
3240 -3742 -149 0
-2150 -3530 -3033 -266 0
2010 -1682 -3249 0
1759 -1517 -2576 -2040 0
3914 -2394 -2135 -753 0
-1139 -449 0
2825 -443 0
297 -1165 -3228 0
1664 -675 0
-1505 -1481 -1193 0
2299 -57 0
-3666 -2215 -2008 -3636 0
2866 -3811 -2107 0
2161 -1532 -3539 -993 0
2932 -2882 -3100 -2597 0
3883 -3798 -3686 -1549 0
924 -3824 0
2735 -1830 -3341 0
-2852 -1364 -522 0
-1294 -2119 -637 -859 0
3713 -2106 0
592 -3973 -2823 -3454 0
1936 -3567 0
607 -1208 0
3835 -357 0
3764 -1774 0
2625 -980 -495 0
3481 -3110 0
-3453 -1147 -3258 0
2030 -3706 -623 -2095 0
3683 -1447 -3150 0
-914 -2832 -1060 0
2062 -1445 0
208 -467 -1419 0
3371 -3996 -1586 0
-610 -921 -382 -3792 0
2903 -2166 -296 0
684 -654 -2654 0
183 -1005 -3381 -744 0
-3291 -3300 -496 -871 0
-2967 -2823 0
-905 -1493 0
2414 -122 0
1176 -3332 -1354 -1252 0
-2228 -1175 -2681 0
-582 -1334 -2279 0
218 -3106 0
-1725 -530 0
3470 -1210 0
3233 -3239 -2973 -959 0
-1395 -1820 -3884 -3328 0
-244 -1349 -68 0
239 -3851 -3087 -1866 0
1207 -3379 -2742 -932 0
2060 -2966 -105 0
3469 -1001 -2052 0
3458 -3186 -3054 0
3607 -185 -2624 0
1144 -3690 -1404 0
3342 -1474 -588 -3301 0
-1208 -2793 -3221 0
2718 -3358 0
-3284 -764 -2350 -661 0
-2869 -710 -695 -3590 0
-2573 -483 -2060 0
2343 -3491 -1984 0
1682 -32 -794 0
2148 -147 -2043 0
237 -350 -2268 0
3567 -760 -3548 -3299 0
1897 -3269 0
-1447 -555 -653 -1169 0
858 -3547 -1156 -3200 0
263 -1686 -407 -1598 0
3227 -3524 0
-877 -1427 0
-3569 -3312 0
2945 -2663 -1996 -1045 0
2979 -2104 0
3621 -3426 -2394 0
-1162 -576 0
2425 -3204 -2409 -492 0
2436 -1268 0
293 -2564 -837 0
-1978 -2903 -2101 0
950 -519 -833 -527 0
-1215 -1701 -3266 -541 0
1855 -3631 -979 -3584 0
1322 -1334 -3520 -2090 0
3180 -3325 -717 0
-9 -1233 -1645 -3392 0
3715 -988 -538 0
-3500 -629 0
-1492 -848 -381 0
1652 -1178 -2827 -190 0
187 -2615 -1284 -1839 0
-2010 -1883 0
839 -2130 0
1067 -442 -490 -2527 0
2309 -212 -3171 -808 0
3406 -3562 -2584 0
3440 -1633 -3649 0
421 -1611 -1368 0
2195 -2826 -849 -583 0
-3767 -3618 0
-1024 -3658 -2709 -2799 0
-1066 -795 0
-2238 -2048 -3676 -2526 0
2958 -3383 -1913 -1302 0
2397 -3938 0
-685 -3003 -2617 0
2223 -1267 0
2959 -849 -1734 -2987 0
-3293 -1524 -1753 0
2201 -631 -1822 0
2733 -2557 -354 -154 0
-1085 -2587 0
1357 -3931 -1618 -425 0
2428 -2244 -746 -1539 0
2319 -3641 0
2147 -661 -640 -731 0
-299 -3406 -399 -2212 0
106 -1749 -2246 0
1888 -443 -3739 -318 0
656 -1203 -3933 0
-1217 -3962 -806 -2689 0
1774 -1840 -3536 -1652 0
-398 -285 -1841 0
1568 -1212 0
-3328 -374 -3207 0
3709 -1516 -3407 0
3080 -2357 -1810 0
505 -2417 0
2524 -1753 -146 0
2403 -1428 -2414 -3745 0
2270 -3244 -3483 0
1581 -3643 0
-3860 -3755 -1220 0
-2634 -905 0
2712 -1347 -1656 -1714 0
1053 -2275 0
1736 -3393 -364 0
1874 -3229 0
-993 -2983 -2313 -1408 0
2550 -861 0
-174 -2410 -571 0
3631 -3011 0
2712 -710 -2272 0
-2397 -520 0
-2028 -1007 -3609 0
188 -2784 -3725 0
-2075 -2304 -1825 0
734 -2704 -2345 0
65 -1651 -1730 -245 0
-289 -248 -3560 -1864 0
-381 -1637 -1241 -3716 0
2173 -2475 -665 0
2990 -2867 -1975 -3293 0
49 -958 0
243 -1030 0
-2344 -905 -3544 0
-289 -2090 -3473 0
-2007 -2654 -474 -2376 0
1622 -2641 -555 0
-1444 -3347 0
2400 -3169 -3370 -2617 0
-945 -1489 -135 0
1263 -2782 -1916 0
1598 -1035 0
1744 -189 -17 0
-1195 -1794 -2492 -3404 0
738 -1704 0
2548 -3751 0
2176 -857 0
397 -1379 -3749 -517 0
592 -1148 -3570 0
1277 -3420 0
-3178 -3180 0
94 -583 -2834 0
735 -2298 -2487 0
3851 -1037 0
1005 -3840 0
1026 -3938 0
2041 -2838 0
1035 -1270 -2524 -194 0
755 -3938 -697 0
20 -284 0
2337 -2192 0
2587 -1501 -752 -2232 0
2224 -1901 0
2078 -1493 -510 0
3162 -963 -1197 -874 0
-3294 -882 -2371 -269 0
3483 -1567 0
-1280 -857 0
-2199 -974 0
3788 -2941 0
580 -1225 -862 -1472 0
2629 -1432 -1932 0
801 -2969 0
3966 -2817 -2628 -1134 0
1418 -1839 -1596 -2355 0
-2778 -1262 -1925 -333 0
3230 -494 -2404 -374 0
2327 -1794 0
2270 -2350 -2025 -2265 0
1789 -3572 -953 0
3229 -1897 0
1774 -1898 -3138 -2781 0
2425 -2226 0
2936 -426 0
2425 -3045 -2609 0
2312 -3104 -409 -3084 0
2328 -649 -931 0
3049 -2248 0
1569 -1768 -14 -3376 0
1421 -889 -1374 -1605 0
-970 -2124 0
674 -1207 0
2555 -1915 -1929 -3617 0
-2796 -3404 -1273 0
835 -1238 -3206 0
-747 -2618 -507 0
2777 -1877 -1063 -2285 0
2386 -1748 -1839 -1201 0
480 -2887 0
-2601 -805 -623 0
275 -1846 -1204 0
1790 -1479 -59 0
-1577 -3474 0
2518 -3927 -538 -1892 0
-1020 -988 -3365 0
-468 -2155 -1001 0
-1470 -2834 -866 0
-3835 -868 0
3624 -937 -1218 -2950 0
-1033 -269 -1287 -1291 0
923 -647 -527 0
2902 -2041 -3880 0
1461 -264 -3742 -2113 0
-128 -154 0
3807 -2086 -161 -2545 0
1887 -1880 -919 0
2958 -3698 -406 -3596 0
956 -2863 0
3033 -2978 -406 0
738 -18 0
-127 -101 -3654 -1678 0
479 -3599 -96 -3731 0
1532 -810 -3274 0
1644 -2344 0
1285 -3447 -1098 -3179 0
2880 -784 -1573 0
3224 -1063 -817 0
-1858 -209 -1384 0
605 -3504 0
810 -3985 -62 -1840 0
-1840 -654 0
3612 -523 -447 -2476 0
290 -1545 -685 -3334 0
-3600 -754 -3482 0
528 -571 -1358 -752 0
-2489 -298 -1056 0
-686 -2672 -616 -1139 0
-655 -312 -2943 -1388 0
2618 -1391 0
2586 -24 -3415 0
2842 -2098 -1927 -2044 0
831 -3389 -3428 0
1763 -2225 -3748 0
3227 -937 -3957 0
2930 -630 0
3644 -1271 -1786 -2448 0
2514 -1772 -153 0
-1301 -1764 0
2562 -579 -402 0
-3780 -360 -359 -1247 0
-1889 -2986 -3367 -1478 0
2995 -3101 -3055 -3866 0
846 -1711 -476 0
-2389 -1623 -335 -3262 0
-1514 -1128 -2353 -3947 0
1932 -3641 0
3320 -3336 0
3256 -3957 0
1187 -3591 -626 -209 0
3179 -2196 -3370 -980 0
3460 -3836 0
1599 -1829 -2199 -1022 0
2634 -1891 0
1383 -941 0
2823 -2263 -736 0
3410 -387 -1812 0
2248 -124 -2051 -2067 0
904 -1456 -1891 0
1903 -1403 0
-2622 -3686 -1261 0
-3132 -2288 0
-2205 -3109 -3043 0
3572 -2701 -1187 0
1052 -3747 0
915 -1434 -3797 -964 0
-496 -886 -344 -959 0
-670 -3236 -3308 0
2197 -988 -912 -2913 0
869 -3010 0
3844 -3378 0
743 -2300 -2662 0
-3182 -797 -454 0
39 -1454 -1966 -402 0
-789 -1302 -2461 0
1252 -3332 -2112 -263 0
3437 -634 0
3282 -354 -2437 0
-1052 -1781 0
3306 -1420 -2777 0
2783 -317 0
1831 -3320 -2983 -1536 0
2149 -3097 0
-3391 -848 -3607 0
3725 -1331 0
1142 -139 0
1536 -1562 -3884 0
1098 -3806 -923 0
3983 -840 -3079 -2564 0
1716 -3614 -1561 -1076 0
1200 -352 -885 -2709 0
1754 -3597 -984 0
3111 -82 -1188 -1256 0
-1372 -1731 0
-442 -2843 -399 -3900 0
-1599 -3594 0
-3472 -1931 0
-95 -1040 -71 -2480 0
1560 -942 -2838 0
-3200 -2882 -1918 0
-1187 -241 0
218 -1487 -3363 0
448 -2972 0
3867 -3825 0
-1682 -2790 -2120 -893 0
2454 -44 0
3069 -184 0
778 -1244 0
673 -1234 -2504 -865 0
1984 -2050 -357 -2172 0
2673 -463 -3128 0
-3437 -3383 -2312 0
3561 -1619 -1375 0
1911 -257 0
-3361 -1782 0
-2287 -2915 0
1034 -2809 0
3585 -3137 -3637 -1435 0
3562 -2939 -1195 -508 0
-830 -1905 -1186 -3858 0
974 -2273 -2872 0
-3391 -869 -375 -1604 0
-2747 -1781 -3883 0
2797 -3670 -1042 0
568 -1709 -2719 0
1014 -3244 0
470 -3601 -898 0
1920 -885 -3544 0
3168 -3295 -1555 0
-3700 -750 0
2944 -3841 -926 -2627 0
2778 -1160 -1907 0
2477 -962 -2940 0
3793 -88 -685 0
2212 -2598 -2014 0
-730 -1754 -2054 -2455 0
3553 -2331 -3595 0
-3590 -2439 -697 0
2529 -1285 -690 -2704 0
48 -1321 -2537 -1316 0
594 -3622 -1008 -2780 0
-1509 -2159 -2177 -3324 0
-3883 -3803 0
3527 -1750 -1893 0
421 -3452 -2302 -1047 0
-3321 -3365 0
1068 -90 -3719 0
-1846 -2889 0
3389 -322 0
3271 -1552 0
-1862 -252 -3531 0
2750 -1176 -2319 0
977 -757 -3892 0
3654 -1453 0
1322 -3195 0
128 -2998 0
3246 -1613 0
1938 -47 -1209 -1249 0
930 -2987 0
301 -2258 -1423 -2787 0
1272 -2928 0
2082 -1798 -870 0
3029 -3845 -2094 0
2231 -3665 0
431 -1917 0
1210 -2494 -3517 0
3976 -1701 -2083 -453 0
-2468 -2091 -966 0
3344 -1312 -1872 0
-868 -2438 0
2454 -3628 -1696 0
-1615 -2694 0
3821 -2855 -1943 -3466 0
1461 -350 -1714 -3312 0
1153 -1946 -2656 0
604 -1149 -3763 -3070 0
319 -2817 -1262 -3764 0
2486 -741 0
2748 -3294 -3902 -2350 0
-416 -143 0
2594 -380 -241 -3006 0
3733 -167 -3335 -825 0
13 -3853 -1258 0
-1558 -1590 -603 -2678 0
1336 -527 0
-279 -2282 0
-3781 -946 0
1115 -1741 0
838 -2832 -1175 -821 0
592 -503 -366 -3037 0
1775 -1431 0
2275 -3595 -1555 -663 0
-2791 -3825 -1038 0
2117 -623 -3245 0
1652 -3513 -1503 0
-2441 -2720 -2783 -3431 0
2431 -2147 -2263 0
1140 -2001 -1176 -3469 0
3338 -2231 -3038 -2073 0
2109 -375 -3820 -1245 0
-258 -1183 0
-3688 -3203 -1492 -3625 0
2185 -2806 -2824 0
2456 -3101 -2020 -3192 0
91 -2121 0
-1686 -975 -1458 0
-1493 -3080 -3495 -3428 0
2274 -3362 -1298 0
640 -399 -2435 -1978 0
1824 -3019 -1049 -1038 0
-923 -3573 0
2032 -2507 -2824 -784 0
2650 -2646 -1339 0
-46 -436 0
2576 -349 -1079 -3592 0
-2065 -3104 -3113 -2447 0
1336 -3881 -1213 0
-1908 -1121 -1729 -3243 0
-74 -2871 -1252 -10 0
413 -1315 -3666 -3812 0
604 -2001 -1142 0
2426 -3429 0
-2917 -964 -12 0
-190 -3534 -218 -3234 0
-3218 -1409 0
2040 -814 0
2032 -2815 0
426 -1764 -3280 0
1592 -574 -2736 -2657 0
2646 -2804 -656 0
-3964 -2521 0
3207 -457 -3261 -2515 0
2288 -2559 -2803 -2128 0
-3756 -3701 -3732 -1049 0
-3 -1125 0
611 -565 -630 -1159 0
3764 -229 -453 0
-1926 -337 0
-2512 -2001 -2415 -515 0
26 -1797 0
-1518 -3228 -1530 0
793 -2405 0
716 -2843 0
293 -524 0
3158 -3724 -1564 -1154 0
3868 -1640 0
1856 -2027 -3262 0
3747 -2017 -313 -1174 0
3166 -1553 -2920 -3489 0
832 -785 -1501 -444 0
3480 -3751 0
-1820 -2775 0
-3997 -941 -680 0
2915 -3596 -3679 -3419 0
2362 -1668 0
-2194 -3992 0
-2170 -2633 0
-3994 -3991 -2076 0
-897 -2897 0
3644 -2930 0
36 -351 -3523 0
639 -230 -1469 0
-3352 -3321 -1200 0
3094 -491 -6 0
-2638 -1369 -244 0
-253 -3840 0
2178 -1449 0
775 -1185 -2872 0
1604 -2382 -2570 -40 0
1654 -1332 0
-2485 -3579 -3808 -2312 0
3094 -3013 -383 -536 0
2965 -3592 -167 0
-1242 -649 -3579 0
2700 -3455 -2410 -3773 0
2658 -3659 -1195 -341 0
2711 -2724 -3246 -1977 0
-3070 -2742 -2632 0
-2374 -1800 0
2433 -507 -655 0
-461 -1422 -922 0
1151 -1792 0
2542 -1834 -7 -1105 0
381 -1736 -1955 0
-2786 -747 -1360 -2977 0
507 -3596 -657 -1034 0
-2787 -982 -1642 -369 0
832 -2987 -3431 -3576 0
3837 -3407 -2865 0
-3003 -2164 -2523 0
1491 -548 -1879 -676 0
-2207 -1450 -436 0
2506 -291 -3282 -26 0
1973 -1790 -2863 -3344 0
2401 -1570 0
-3402 -3068 -783 -2530 0
-1808 -3880 -408 -835 0
3352 -700 -1898 0
1365 -2848 -3974 0
-1286 -3390 0
3532 -2651 -1174 0
752 -1264 0
1742 -849 -3861 -2227 0
-649 -927 -1476 0
-2505 -2527 -1698 -1260 0
-3269 -1598 0
2819 -2563 0
-2365 -2327 -91 -2955 0
1351 -2302 -3379 -3126 0
-135 -475 -2474 -576 0
-3634 -858 -3852 -2987 0
3739 -3276 -2749 -590 0
2283 -658 -1734 0
3593 -317 0
1291 -3806 -1313 -3194 0
3139 -2255 0
3111 -871 -3075 -2168 0
1391 -732 -2048 -3796 0
2318 -3469 0
-486 -1554 0
2213 -1028 -3407 -2434 0
3330 -3910 -268 0
836 -2216 0
3972 -2800 -2057 -1078 0
2889 -1428 0
-1165 -39 -818 0
292 -3853 -1852 0
-1082 -1539 0
203 -1731 -2641 0
886 -923 -474 -1197 0
3836 -1951 -1949 0
1163 -2069 -3245 -3750 0
2682 -3661 -333 -2242 0
-2780 -1388 0
3294 -2350 -3451 0
3702 -343 0
-2427 -3596 -1343 0
-2823 -3734 -3585 -545 0
-1572 -606 -2629 0
3277 -1852 -1007 0
2088 -3721 -469 -1755 0
271 -408 -3728 -1465 0
2506 -520 0
2757 -3757 -3667 0
-709 -2376 0
575 -125 -2292 -1828 0
295 -1791 0
559 -2517 -3257 0
3966 -1927 -2407 -2747 0
503 -1326 -536 0
3570 -2290 -734 0
-1875 -620 -1686 0
3974 -726 -2108 0
-1581 -3349 -1100 0
-3428 -1459 0
2434 -3519 -3546 0
-3848 -983 -1512 0
510 -2507 -1031 -3801 0
711 -3892 -106 -1582 0
-3104 -3704 -3650 -3894 0
-478 -1651 -1040 -680 0
3220 -2988 -1334 -1607 0
-841 -2472 -2605 -1801 0
-2822 -1351 -3128 0
300 -1206 -268 0
132 -3057 -1151 0
-2880 -3501 0
347 -2644 -1926 -256 0
32 -315 0
-3830 -3401 -1752 0
-2224 -891 -1014 -394 0
2373 -2441 -1094 0
-2177 -3779 0
205 -2961 -1064 0
-3314 -3791 -3172 0
767 -3547 -2298 -707 0
3609 -94 0
2287 -3594 0
2337 -2474 0
-3789 -1629 -83 0
2804 -3746 0
474 -1565 0
