c Horn formula (polynomial-time solvable)
c 1000 variables, 2500 clauses
p cnf 1000 2500
906 -222 -632 0
365 -155 -452 0
430 -692 -565 0
-134 -896 -309 -370 0
-546 -530 -462 0
449 -371 0
493 -47 0
464 -119 -581 0
655 -341 0
-764 -997 -411 -446 0
88 -994 0
792 -799 -750 0
-185 -871 -22 0
-710 -771 0
85 -383 -299 -40 0
-283 -733 -897 0
509 -109 -167 -801 0
652 -244 -926 0
224 -533 -741 0
364 -547 -704 0
717 -105 -535 -766 0
752 -182 0
553 -497 0
508 -67 -538 -488 0
944 -113 0
704 -30 -433 -377 0
797 -354 0
-413 -958 -207 -38 0
711 -170 -935 0
289 -278 0
-924 -337 -769 -642 0
295 -350 -342 0
263 -827 -632 -633 0
659 -268 -829 0
910 -157 -717 0
525 -627 -485 -264 0
595 -674 0
188 -628 -985 0
914 -203 -209 0
367 -976 0
615 -516 -750 0
662 -351 -278 -302 0
702 -389 -522 0
-925 -920 -840 0
74 -44 0
605 -256 -434 -431 0
174 -121 0
806 -845 -511 -58 0
703 -273 -860 -968 0
177 -774 0
146 -926 -883 -421 0
247 -365 -203 0
970 -751 -648 0
-467 -966 -746 0
342 -686 0
113 -899 -597 -986 0
420 -437 0
557 -195 0
-488 -472 0
534 -984 0
-297 -79 -993 0
813 -816 -196 0
965 -22 0
742 -935 -657 -312 0
689 -578 0
408 -294 -744 -124 0
364 -539 -740 -400 0
993 -940 -314 -257 0
606 -102 -737 -945 0
558 -810 -266 0
-43 -420 0
596 -957 0
722 -304 -215 0
746 -594 -374 -714 0
-254 -969 0
-877 -476 -272 0
-883 -541 -75 -945 0
766 -679 -380 -55 0
-794 -475 0
874 -977 0
-227 -540 0
688 -383 -291 0
-756 -686 0
785 -251 -429 0
-114 -829 -97 0
-868 -500 -114 -170 0
387 -12 0
941 -261 -66 -686 0
-870 -670 -413 -131 0
221 -443 0
770 -65 -594 -639 0
-494 -616 -295 0
-320 -109 0
-206 -622 0
285 -20 -186 -195 0
307 -655 -902 -542 0
849 -788 -534 0
752 -909 0
899 -384 0
881 -846 0
192 -227 -956 0
-135 -663 -166 0
-538 -190 -875 0
558 -131 -79 0
-489 -355 0
415 -434 0
732 -859 -445 -539 0
210 -755 -88 0
866 -293 0
-148 -860 0
187 -77 -387 -38 0
129 -414 0
910 -392 -419 0
-558 -632 -328 0
839 -224 -486 -639 0
390 -733 -689 0
196 -653 -187 -998 0
739 -168 -135 -195 0
818 -978 0
219 -898 -679 -404 0
-586 -546 0
-569 -489 -386 -756 0
-824 -962 -905 -407 0
-321 -485 -512 0
551 -285 -793 -887 0
923 -587 -149 -988 0
847 -550 -725 0
809 -532 0
75 -271 -32 0
287 -545 -651 -604 0
-211 -180 0
-723 -848 -202 -449 0
769 -760 -841 -632 0
395 -656 0
838 -5 0
-244 -172 -653 0
446 -267 -675 -299 0
954 -843 -462 -629 0
-196 -474 -167 0
594 -226 -815 0
239 -295 0
159 -688 0
637 -521 0
985 -912 -251 0
198 -909 -75 -942 0
160 -999 -165 0
29 -390 0
837 -220 0
679 -459 -865 0
576 -426 -12 -265 0
764 -863 -985 0
654 -77 -470 -912 0
756 -165 -556 0
796 -776 0
638 -305 -533 0
-475 -576 -614 0
-3 -122 -433 -90 0
31 -754 0
690 -699 0
806 -567 -109 0
-920 -353 -170 0
75 -875 -289 -888 0
-501 -821 0
-288 -808 -721 0
62 -970 -415 -485 0
249 -354 -854 0
475 -442 -933 0
240 -732 0
703 -484 -990 0
837 -918 -61 -372 0
822 -11 -745 0
644 -464 -326 -871 0
592 -887 -253 0
301 -188 -434 0
704 -46 -893 -502 0
297 -710 0
930 -385 0
600 -189 -826 0
-350 -21 0
-798 -914 0
211 -670 0
512 -545 -717 0
849 -900 -965 -236 0
-760 -646 -607 0
869 -542 -792 0
-848 -916 -182 -945 0
-734 -156 0
884 -598 -777 -432 0
842 -559 -319 -676 0
-711 -16 -896 0
-559 -83 -977 0
879 -326 -65 0
-117 -976 -943 -235 0
-382 -9 -64 0
24 -721 0
847 -793 -80 -5 0
-399 -355 0
255 -187 -508 -22 0
256 -112 -140 -639 0
966 -204 0
-845 -118 -241 0
-18 -683 0
-615 -774 0
914 -282 0
832 -285 -549 0
-455 -431 -562 -933 0
187 -227 -966 0
325 -568 0
-644 -679 0
834 -641 -320 -978 0
-170 -408 0
-772 -585 0
-515 -373 -145 0
911 -173 -715 -159 0
-694 -413 -215 0
64 -39 0
861 -800 -405 0
-12 -351 -583 -186 0
-869 -739 -801 -444 0
-331 -253 -208 -207 0
794 -691 -308 -905 0
360 -182 0
390 -576 -717 0
829 -11 0
6 -539 -454 0
748 -158 -278 -801 0
801 -613 -77 -988 0
121 -99 -888 0
208 -730 0
-92 -412 -691 -939 0
743 -569 0
455 -949 -141 0
-52 -222 -395 -364 0
704 -985 -906 -131 0
-79 -766 0
-988 -22 -158 -934 0
-160 -721 0
-203 -903 -869 -361 0
-274 -220 -243 -963 0
625 -164 -534 0
366 -609 0
759 -828 -733 0
394 -927 -496 0
-102 -148 -32 0
870 -787 -889 -118 0
111 -185 -739 -691 0
171 -77 -410 -97 0
-543 -627 -201 -947 0
-786 -357 -138 -568 0
-80 -887 -329 0
612 -861 0
161 -516 0
275 -906 0
859 -91 -513 -40 0
671 -315 0
14 -287 -510 -416 0
752 -680 0
375 -349 -405 -777 0
-654 -883 -491 0
933 -518 -419 -302 0
-637 -806 -113 -348 0
970 -292 0
-591 -287 -729 0
727 -452 -249 -920 0
527 -661 0
-782 -230 -692 -40 0
462 -972 -566 0
-379 -842 0
380 -943 -256 0
-262 -915 -361 0
438 -300 -753 -431 0
856 -755 -650 0
-710 -784 0
800 -605 -263 0
475 -967 -476 0
625 -788 0
137 -885 -147 -82 0
576 -77 -825 0
634 -708 -805 0
-100 -9 0
659 -726 -503 -592 0
542 -481 -329 0
-412 -526 -590 0
-888 -290 -935 -739 0
128 -81 -31 -118 0
321 -782 -267 -538 0
373 -302 0
316 -310 -616 -603 0
-173 -453 0
908 -443 -459 -995 0
766 -322 -187 0
274 -328 -824 0
-488 -653 -854 -35 0
-189 -706 0
-251 -949 -580 0
-942 -184 -186 0
-159 -914 -647 0
218 -31 0
269 -820 -561 0
325 -423 -783 -642 0
-270 -96 0
918 -768 -957 0
37 -351 -745 0
-127 -663 0
906 -797 -779 0
123 -12 -79 0
122 -113 -132 0
135 -894 -339 -55 0
291 -858 -179 -212 0
188 -848 -429 0
-178 -341 0
910 -267 -865 -824 0
395 -636 -669 -9 0
209 -760 -191 0
-880 -86 0
30 -39 -622 -581 0
29 -228 0
306 -987 -752 -402 0
361 -54 0
359 -695 -899 0
575 -234 0
497 -792 0
981 -609 -684 0
397 -450 -820 0
21 -588 -301 0
63 -492 -122 -53 0
238 -393 0
99 -35 0
543 -32 0
684 -825 0
97 -868 0
193 -326 0
420 -864 -528 0
444 -632 0
577 -406 0
883 -838 0
-556 -344 -606 0
210 -636 0
996 -507 0
764 -850 -673 0
-990 -785 0
111 -346 0
605 -530 -769 -443 0
721 -940 0
107 -61 -782 0
908 -533 0
776 -278 -256 -756 0
504 -481 0
-235 -555 -216 0
892 -226 -525 0
-638 -281 -647 0
457 -435 0
631 -793 -851 -706 0
-74 -64 0
808 -418 -911 0
742 -817 -806 -425 0
213 -301 -934 0
862 -531 -701 -452 0
178 -885 -758 -388 0
145 -156 -95 0
-149 -323 -192 0
306 -795 -543 0
-444 -466 -347 0
-218 -282 -443 0
-293 -851 -351 -681 0
737 -612 -942 0
63 -535 -710 0
-813 -245 -252 -440 0
934 -964 -78 0
-487 -799 -778 -534 0
-678 -55 -547 0
464 -370 -786 0
819 -329 -694 -919 0
857 -616 -660 -552 0
544 -263 -711 -868 0
147 -101 -657 -408 0
948 -504 -175 0
146 -125 -880 -166 0
-588 -559 -519 -218 0
462 -34 -993 -999 0
252 -921 0
863 -661 0
11 -644 0
-641 -703 0
920 -462 -993 -370 0
357 -903 -558 0
-450 -880 0
-770 -573 -169 0
411 -371 0
-807 -601 0
-854 -745 -849 -804 0
567 -601 -571 -353 0
-847 -535 0
395 -810 -251 0
359 -300 0
-721 -158 -253 0
112 -961 0
412 -971 -698 -974 0
172 -647 -917 -62 0
836 -305 -805 0
-527 -74 -365 0
149 -504 -111 -147 0
-735 -24 -276 -766 0
846 -310 -968 -493 0
166 -169 -429 0
-287 -798 0
290 -241 0
-350 -747 -318 -921 0
363 -427 0
-342 -695 0
286 -525 -582 -304 0
207 -55 -843 -346 0
869 -51 0
254 -90 -639 0
819 -946 -150 0
440 -905 -411 0
410 -622 -897 -161 0
-723 -972 -797 -525 0
575 -73 -246 0
-829 -886 -135 -383 0
389 -283 -394 -538 0
166 -62 -288 -317 0
17 -876 -114 -544 0
432 -185 -787 -439 0
710 -766 0
-748 -727 -26 -190 0
486 -868 -208 0
-455 -576 -843 0
-892 -997 0
897 -871 -551 0
-222 -12 -361 0
900 -461 -270 -298 0
547 -116 0
414 -927 0
12 -516 0
491 -651 -217 0
-35 -983 -320 0
-285 -880 -658 0
-790 -694 0
453 -271 0
643 -778 -926 0
389 -505 0
-76 -377 0
746 -584 -950 0
556 -918 0
544 -12 -918 0
186 -179 0
994 -871 0
-569 -307 0
716 -782 -797 0
-193 -690 -644 0
-718 -169 0
396 -3 0
484 -207 -945 0
657 -196 -611 0
713 -793 -770 -895 0
198 -506 0
-352 -356 -252 -48 0
148 -458 -772 -59 0
-751 -508 0
144 -580 0
897 -829 -706 -786 0
205 -665 0
353 -432 -106 -123 0
162 -247 0
-177 -496 0
604 -340 -532 0
646 -552 0
-446 -848 -716 0
-805 -69 -53 -254 0
-227 -143 0
-656 -148 -232 0
500 -50 -385 -374 0
-525 -80 -250 -703 0
430 -667 0
780 -103 -8 -866 0
69 -399 0
80 -139 0
723 -217 0
687 -916 0
989 -437 0
22 -809 -608 -909 0
1 -118 0
-375 -269 -23 -15 0
791 -637 -467 -351 0
608 -187 -89 0
190 -991 -699 -559 0
-820 -614 -600 0
561 -800 -852 -873 0
761 -382 -278 -116 0
476 -608 -100 -501 0
284 -526 -172 -644 0
405 -170 -967 0
960 -614 0
863 -310 0
-824 -362 -170 0
30 -48 -717 -460 0
280 -656 -42 -543 0
-725 -368 -354 0
339 -28 -864 -21 0
-911 -130 0
897 -414 0
-107 -143 0
-433 -149 -501 -519 0
118 -212 -676 0
793 -122 -577 0
721 -400 -853 0
-210 -389 0
285 -37 0
-768 -821 -769 0
-752 -20 -432 -737 0
-862 -367 -495 0
226 -649 -395 0
136 -869 -928 0
942 -340 -951 -756 0
-830 -395 -543 0
829 -843 -780 -249 0
-340 -105 -314 0
124 -637 -184 0
803 -333 -455 -673 0
711 -46 -28 -759 0
642 -676 -969 -322 0
922 -68 -980 0
-892 -726 -169 0
-695 -283 -227 -791 0
474 -686 -874 0
901 -57 -168 -580 0
983 -719 0
152 -986 0
-220 -138 -339 -83 0
114 -462 0
299 -427 -455 -3 0
654 -85 -869 -764 0
-359 -629 0
366 -619 -47 0
619 -333 -328 -304 0
5 -645 -809 0
826 -867 0
93 -558 -876 0
614 -428 -139 -867 0
493 -629 0
982 -954 -110 -478 0
597 -4 0
105 -721 0
523 -105 -603 -194 0
-661 -303 0
906 -126 0
1 -916 -433 0
-902 -724 0
608 -453 -520 -42 0
71 -280 -16 -940 0
441 -933 0
462 -440 -964 -406 0
-389 -84 0
-467 -554 -174 0
904 -873 0
-172 -109 -913 0
-962 -211 0
807 -436 -708 0
324 -52 0
903 -337 0
-193 -609 0
361 -56 0
41 -334 0
640 -311 -11 -298 0
411 -158 -183 -263 0
-4 -823 0
948 -862 0
161 -307 -86 -842 0
-620 -901 -403 0
181 -44 -1000 0
386 -929 -85 0
691 -373 0
131 -211 0
443 -618 0
24 -411 -992 0
955 -747 -503 -869 0
-581 -518 -213 0
-847 -113 -291 0
209 -801 -991 0
55 -417 -33 0
537 -61 -148 0
-152 -311 0
690 -243 0
693 -612 0
899 -968 -823 0
138 -410 -343 -253 0
163 -592 0
905 -195 -182 -210 0
-214 -793 -982 -271 0
316 -720 -895 0
-536 -544 -391 0
-142 -36 0
-906 -326 -119 0
-570 -320 0
666 -142 0
227 -538 0
123 -886 -431 -728 0
163 -113 -418 0
911 -70 -654 -316 0
541 -188 -337 0
-97 -342 -973 0
-680 -386 -408 0
1000 -1 0
740 -52 -497 0
-62 -11 0
740 -527 -685 -72 0
-963 -757 -215 -970 0
980 -484 -719 -416 0
181 -586 0
731 -849 0
-151 -68 -412 -45 0
560 -825 0
299 -366 -126 0
593 -937 0
395 -596 0
-233 -434 -369 0
631 -78 -864 -728 0
693 -520 -710 0
951 -214 0
-142 -360 -372 -475 0
-758 -688 -902 -732 0
736 -964 0
407 -262 -815 0
98 -18 -88 -434 0
-647 -256 0
495 -514 -927 -319 0
282 -525 -70 0
602 -284 0
-340 -757 -426 -495 0
764 -204 0
236 -454 -659 -163 0
919 -211 0
121 -138 -729 -822 0
73 -159 -472 0
654 -36 0
-737 -531 -692 0
-711 -132 0
572 -768 0
-607 -695 0
101 -409 -405 -392 0
804 -702 -362 -295 0
-754 -958 -970 0
-675 -85 0
769 -62 -278 -258 0
-99 -168 0
859 -886 -31 -992 0
112 -194 -993 -708 0
848 -208 -986 0
-736 -147 0
-51 -127 -460 -741 0
476 -137 -875 -373 0
338 -745 0
791 -383 -2 -558 0
-676 -220 -1 0
335 -75 0
125 -81 -577 -470 0
896 -177 -607 0
234 -493 -426 0
898 -205 -415 0
21 -702 0
268 -752 0
988 -135 -206 -392 0
1000 -86 -636 -604 0
34 -831 -861 0
868 -129 -882 0
773 -610 -646 0
316 -442 -599 0
598 -404 0
379 -105 -322 0
710 -712 0
-18 -836 -543 -996 0
777 -165 -641 0
-747 -765 -23 0
751 -563 -928 0
-518 -113 -724 -384 0
-502 -963 -650 0
-187 -198 -177 0
-328 -890 -773 -143 0
691 -746 -936 0
910 -194 -159 0
957 -55 -791 -949 0
698 -533 -174 -707 0
470 -416 -955 -622 0
779 -481 -597 0
-110 -259 -41 -622 0
337 -293 -802 0
363 -271 -945 -328 0
551 -967 -643 -13 0
394 -131 -16 0
-10 -320 -526 -294 0
672 -342 -582 -917 0
613 -317 0
-190 -371 -130 -653 0
837 -405 -109 -565 0
439 -612 -142 0
859 -442 0
867 -72 -169 -800 0
250 -72 -390 0
316 -115 -554 -358 0
-351 -689 -533 0
367 -641 -635 0
217 -404 -397 0
398 -819 -893 -527 0
345 -783 -224 -200 0
-20 -65 -70 -957 0
61 -550 -540 -22 0
608 -208 -869 0
-350 -220 -982 -155 0
714 -470 0
-98 -634 -297 -626 0
620 -712 -45 -437 0
346 -366 -40 0
479 -732 0
716 -890 0
507 -95 -666 -529 0
-258 -581 -462 -390 0
-128 -516 0
202 -214 0
-254 -348 -415 -633 0
-984 -585 -518 0
677 -658 -559 0
654 -214 -582 -542 0
976 -432 -769 0
657 -746 -407 -128 0
-364 -282 -584 -132 0
-706 -78 -736 0
-495 -917 -973 -687 0
417 -911 -302 -348 0
733 -124 -971 -360 0
-409 -57 0
255 -580 0
431 -327 0
-421 -589 0
431 -581 0
285 -370 -636 0
-147 -221 -600 0
985 -691 0
282 -656 -427 -746 0
-829 -391 0
452 -883 -812 0
749 -975 -427 -591 0
999 -331 -507 -18 0
-540 -75 -741 -451 0
433 -349 0
538 -934 0
-88 -304 0
75 -576 -843 -700 0
237 -225 0
-669 -119 -89 0
765 -1000 -5 -665 0
940 -472 0
-242 -698 0
-271 -857 0
488 -151 -295 0
866 -167 -454 0
72 -701 -240 -41 0
236 -555 0
876 -140 -256 0
817 -182 0
434 -254 -377 -301 0
-682 -339 -797 -664 0
435 -735 -478 -969 0
259 -471 -20 0
888 -106 0
-290 -481 0
318 -160 -671 0
8 -623 0
-864 -13 0
681 -975 -554 0
-791 -511 -754 0
-299 -69 0
-818 -759 -130 0
421 -6 0
49 -242 -365 0
407 -187 -446 -131 0
-663 -258 -654 0
-188 -370 -375 0
833 -45 -60 -909 0
436 -794 0
752 -699 -954 0
372 -656 -806 0
203 -258 0
949 -874 -794 0
-5 -893 0
87 -53 -560 -981 0
-618 -434 -133 -481 0
876 -696 -553 0
495 -409 -575 -897 0
-592 -589 0
509 -366 -337 0
-977 -857 0
816 -160 -837 -581 0
918 -784 0
-677 -764 0
639 -828 0
-302 -323 -886 -363 0
482 -898 -320 -266 0
-156 -949 -192 -483 0
684 -194 0
348 -389 -430 0
10 -28 0
460 -624 0
917 -601 0
695 -325 -552 0
803 -850 -270 -870 0
-570 -755 0
461 -673 -471 0
-140 -420 -94 -138 0
538 -397 0
93 -722 -437 0
970 -14 -434 0
-540 -631 -843 0
871 -720 -204 -960 0
348 -440 0
941 -435 -809 0
950 -838 0
511 -119 0
160 -88 -141 0
500 -128 -963 0
432 -169 -308 -831 0
393 -525 0
929 -367 0
800 -662 0
678 -863 -284 -79 0
394 -224 -599 -899 0
-735 -881 0
-98 -537 -660 0
379 -548 -117 -737 0
-29 -75 0
203 -425 0
-432 -328 -68 -858 0
154 -589 0
959 -681 0
-766 -143 -840 0
909 -878 -758 0
968 -412 -108 -790 0
386 -290 0
-979 -277 -256 -568 0
56 -904 -283 0
727 -655 -94 -145 0
-347 -196 -437 -975 0
900 -897 0
388 -202 0
762 -338 0
478 -677 0
550 -873 0
688 -497 -467 -787 0
30 -70 -481 -780 0
144 -648 -171 -663 0
98 -684 -819 -424 0
157 -114 0
-396 -787 0
-783 -327 -162 -504 0
-130 -683 -978 0
-790 -413 -958 0
-553 -984 -821 0
113 -259 -47 -936 0
752 -92 -342 0
201 -542 0
594 -949 -707 -165 0
714 -866 -254 -695 0
171 -680 -846 -979 0
724 -306 -624 0
322 -224 -860 -58 0
335 -844 0
713 -71 -562 -975 0
525 -344 -250 0
602 -734 0
406 -468 0
689 -821 -474 0
946 -484 -216 0
731 -713 -995 -965 0
-591 -78 -497 -882 0
-889 -776 -871 -587 0
985 -554 0
391 -432 0
-216 -210 -940 -794 0
-995 -140 0
281 -94 -546 -798 0
298 -934 0
563 -91 -277 -838 0
-622 -939 0
-468 -338 0
817 -795 -627 -191 0
-841 -912 0
692 -459 -846 -46 0
621 -176 -707 0
109 -598 -407 0
889 -495 0
685 -900 -745 0
-338 -354 -430 -503 0
-773 -220 -185 -191 0
51 -220 -457 0
953 -959 -167 0
102 -475 -696 -603 0
574 -355 -985 0
643 -924 0
759 -503 -176 0
79 -417 -976 -689 0
242 -182 -664 -892 0
721 -64 0
591 -505 -350 -610 0
-493 -186 0
619 -152 -774 0
228 -987 -102 -43 0
748 -338 -785 -2 0
177 -259 -938 0
105 -814 0
498 -348 0
-347 -88 -530 -830 0
707 -432 -741 0
-697 -607 0
589 -939 0
551 -780 -373 -819 0
469 -837 0
352 -882 -555 -901 0
-231 -989 -929 0
695 -208 0
819 -534 0
968 -483 -783 -604 0
-274 -628 -214 0
-374 -740 0
755 -855 -784 0
515 -877 -93 -287 0
264 -667 -419 -27 0
371 -821 -960 -704 0
11 -591 -411 -97 0
-58 -750 0
805 -490 -672 0
321 -364 -156 0
769 -506 -527 -592 0
971 -265 0
124 -976 -67 -788 0
954 -786 0
643 -380 0
-279 -774 -708 0
307 -85 -509 0
285 -505 -518 0
459 -971 0
299 -868 -686 0
-358 -734 -610 0
770 -599 -466 -900 0
576 -754 -507 -352 0
530 -514 -490 -718 0
-934 -453 -476 0
528 -255 0
930 -861 -548 -431 0
155 -935 0
261 -690 -429 0
892 -782 -670 0
881 -421 -575 0
-897 -793 -791 -342 0
558 -928 0
855 -648 -903 0
-913 -113 -829 -600 0
123 -342 -477 -808 0
-366 -76 -110 0
879 -927 0
452 -209 -341 0
-7 -962 0
863 -52 -602 -207 0
894 -763 -475 0
200 -196 -432 0
-88 -399 0
-349 -248 -902 0
884 -235 -635 0
898 -603 -305 0
479 -855 0
-470 -276 -488 -522 0
695 -266 -454 0
-320 -889 -592 0
380 -257 0
488 -970 0
550 -62 0
244 -359 -108 0
987 -531 0
274 -925 -387 -800 0
403 -234 -308 -143 0
725 -469 0
447 -771 -597 0
637 -164 0
-592 -195 -40 0
212 -215 -767 0
547 -583 0
-327 -552 -72 0
-405 -28 -188 -444 0
-906 -19 0
-685 -198 -272 0
-779 -869 -249 0
485 -649 0
948 -662 -853 -248 0
427 -555 0
292 -928 -322 0
489 -421 -441 -186 0
383 -160 -821 0
128 -307 0
-500 -280 0
667 -919 -969 -455 0
-15 -288 0
397 -248 -220 0
-239 -555 0
100 -937 -815 -698 0
444 -917 -477 0
-641 -864 0
296 -34 -745 -442 0
26 -767 -93 -904 0
137 -754 -719 -605 0
903 -112 -726 -14 0
-100 -513 -212 -174 0
528 -212 -70 -32 0
796 -246 -749 0
201 -711 0
178 -802 -32 0
319 -285 -772 0
518 -517 -670 -144 0
313 -808 -450 -570 0
199 -494 0
583 -944 -83 0
-266 -661 -822 0
193 -316 0
499 -22 0
218 -967 -912 0
836 -385 -989 0
-929 -180 -126 0
-921 -58 -301 0
-591 -5 0
-8 -573 -554 0
4 -108 -650 0
-207 -607 0
647 -123 0
660 -330 -782 0
680 -529 -652 -871 0
101 -631 -731 0
715 -176 -267 -220 0
574 -994 -685 -758 0
749 -212 0
274 -175 0
565 -692 -345 0
211 -173 -113 -272 0
169 -934 -634 0
-596 -473 0
153 -536 -581 -847 0
-841 -696 -66 0
450 -503 -397 0
76 -565 -408 0
382 -338 -990 0
953 -498 -938 -705 0
588 -845 0
938 -413 -968 0
2 -36 -213 -648 0
622 -572 0
887 -479 -73 0
701 -428 0
-138 -16 -82 -598 0
673 -550 0
786 -175 -622 -684 0
652 -561 -645 -897 0
-104 -922 -413 -113 0
-319 -571 -726 -786 0
793 -326 0
891 -777 -763 0
196 -536 -15 -192 0
871 -550 -493 0
-642 -480 -72 0
764 -778 0
431 -150 -790 -60 0
-327 -375 0
587 -206 -151 -931 0
853 -45 -743 -78 0
291 -114 -947 0
674 -836 -528 -97 0
433 -312 0
-272 -683 0
744 -599 0
392 -905 -883 -951 0
144 -400 0
-929 -364 0
200 -323 0
721 -73 -800 -305 0
581 -859 0
772 -725 0
41 -578 0
945 -492 -588 0
864 -836 -591 0
541 -169 -700 -291 0
-791 -178 -327 0
-786 -991 -258 0
746 -452 -640 -416 0
-906 -155 -443 -135 0
90 -808 0
83 -936 -456 -227 0
440 -234 -284 0
148 -281 -126 -792 0
128 -752 -11 -960 0
-624 -610 -849 -504 0
-767 -181 -93 0
-247 -703 0
-927 -116 0
417 -313 -905 0
-946 -521 -777 0
-164 -553 -924 -883 0
851 -945 0
631 -532 -347 -778 0
833 -467 -985 0
110 -770 -955 0
656 -949 -188 0
280 -702 0
-933 -788 0
241 -583 -399 0
449 -910 0
721 -528 -225 -675 0
148 -847 -98 0
616 -413 -796 0
-578 -278 0
-767 -780 -679 0
799 -199 -406 -503 0
182 -352 -683 0
191 -875 -412 0
380 -155 0
-945 -36 -503 -930 0
347 -359 -199 -408 0
609 -322 -262 0
767 -277 0
704 -834 -204 -390 0
407 -64 0
385 -139 -473 0
-35 -155 0
-757 -359 -17 0
-999 -453 0
-792 -908 0
675 -987 -317 -489 0
108 -359 -172 0
368 -287 -487 0
-366 -616 -158 0
-752 -581 -302 -245 0
424 -791 -966 0
991 -794 0
997 -947 0
623 -791 0
-384 -34 0
940 -270 -585 -321 0
446 -107 0
44 -705 -639 0
-196 -144 0
212 -95 0
470 -859 0
536 -203 0
640 -855 -891 0
491 -176 -850 0
213 -522 0
416 -261 0
-332 -922 -826 0
-201 -204 -255 -306 0
792 -730 0
635 -476 -466 -534 0
28 -660 -512 -288 0
-774 -966 0
234 -263 -254 -757 0
-981 -729 -737 0
669 -241 -962 -912 0
-523 -619 -904 0
742 -196 -382 0
-649 -83 -22 -90 0
986 -341 0
408 -351 -658 -260 0
220 -125 -351 -257 0
393 -78 -226 -150 0
740 -227 0
446 -225 0
-187 -133 0
879 -524 -953 -783 0
587 -770 0
833 -776 -888 0
-506 -92 -134 0
26 -327 -419 -863 0
696 -1 -626 0
-286 -631 -875 0
253 -675 0
-94 -109 0
386 -93 0
734 -523 -207 -542 0
-888 -492 -249 -511 0
593 -175 -390 -820 0
121 -848 -935 0
-220 -606 -963 0
637 -551 0
-710 -897 0
75 -891 -152 -540 0
-987 -906 0
-683 -929 0
58 -776 -583 0
420 -418 -776 -860 0
292 -565 -816 -219 0
393 -569 -839 0
696 -73 -847 0
-534 -377 0
440 -899 -3 -296 0
149 -770 -862 0
-59 -226 -115 0
105 -966 -820 -721 0
58 -3 0
648 -142 -627 0
804 -439 0
937 -569 0
787 -452 -326 0
-519 -71 0
908 -971 -979 -793 0
-122 -846 -342 0
325 -703 -158 0
576 -479 -904 0
-455 -106 -408 0
887 -812 -224 0
-106 -404 0
994 -803 0
126 -616 -847 0
93 -685 -422 -275 0
393 -718 -657 -616 0
761 -709 -583 0
646 -251 -580 0
559 -777 -945 0
944 -769 -990 0
-898 -193 -732 -961 0
-52 -222 -329 0
-943 -68 0
-635 -300 0
759 -507 -442 -462 0
131 -285 -627 0
124 -713 0
-661 -102 -16 -992 0
74 -787 -730 0
-456 -400 -403 -318 0
-84 -47 -386 0
456 -787 -978 -657 0
487 -534 0
815 -246 0
671 -917 -56 0
473 -790 -931 0
128 -433 -362 -921 0
482 -399 -264 -175 0
276 -905 -696 -893 0
-772 -224 -240 -285 0
851 -653 -654 0
-682 -630 -66 0
-69 -81 -764 -659 0
554 -641 -373 -501 0
236 -682 -327 -440 0
25 -801 -58 0
-847 -279 -141 0
-378 -660 0
-312 -308 0
365 -895 -159 0
254 -504 -738 -449 0
257 -222 -561 0
757 -323 -346 0
131 -204 0
-456 -552 -951 0
-595 -254 -738 -850 0
133 -568 0
199 -377 -378 0
274 -134 0
147 -765 0
523 -839 -105 0
664 -575 0
951 -295 0
869 -959 -397 -962 0
849 -379 0
476 -849 -155 -55 0
730 -15 -207 -956 0
-103 -172 -82 -853 0
630 -505 0
-929 -655 -650 0
953 -853 -616 -91 0
580 -959 -665 -616 0
924 -569 -496 0
-233 -273 -778 0
68 -292 -353 -919 0
453 -183 -72 0
332 -395 -511 0
706 -87 0
882 -211 0
766 -754 -404 0
63 -439 0
157 -375 -739 -706 0
-78 -587 0
629 -683 -553 0
139 -277 -80 0
66 -195 -363 -602 0
-170 -905 0
901 -526 0
-351 -523 0
-288 -56 -887 0
40 -141 -73 -324 0
531 -130 -79 0
-524 -95 0
-747 -718 -838 -463 0
-521 -228 -597 -573 0
298 -255 -195 0
592 -639 -121 0
933 -788 -927 -609 0
320 -295 -680 0
108 -58 -480 0
445 -646 -563 0
519 -740 -193 0
386 -660 0
656 -512 -425 0
860 -214 -151 0
137 -351 -201 -300 0
739 -787 -650 0
383 -435 -7 -432 0
239 -535 -632 0
541 -12 -230 0
485 -848 -589 -107 0
890 -523 -497 0
-481 -19 -263 0
551 -398 -623 0
668 -870 -446 -726 0
581 -620 0
509 -976 -351 0
250 -828 -475 -144 0
137 -213 -155 0
897 -588 0
-630 -312 0
-204 -755 -37 -275 0
971 -861 -67 -777 0
472 -405 -926 0
417 -979 -857 -370 0
-995 -557 -253 0
564 -664 -132 0
-529 -77 -752 -882 0
266 -976 -891 0
420 -818 -175 0
-861 -489 0
264 -774 0
-128 -225 -286 0
-623 -547 -964 0
583 -267 -828 -108 0
995 -722 0
694 -635 -848 0
-960 -343 -546 -716 0
797 -44 0
-621 -853 -736 0
966 -898 -265 0
-562 -471 -246 0
667 -753 -14 0
836 -892 0
616 -218 0
245 -263 -700 0
598 -300 -130 -401 0
-292 -568 -413 -155 0
-624 -466 0
956 -143 0
274 -92 -948 0
747 -763 0
594 -87 0
544 -382 0
-344 -45 -666 -305 0
-512 -888 -982 -334 0
348 -595 0
79 -384 -67 -843 0
-253 -275 0
101 -968 -742 0
-722 -301 -753 -235 0
587 -836 -746 0
460 -288 -586 0
873 -792 0
222 -520 -553 -999 0
827 -185 0
473 -932 -607 0
737 -715 -673 0
-141 -174 -561 -897 0
-989 -580 -410 -628 0
394 -464 -415 -976 0
730 -397 0
956 -484 0
-308 -703 -750 -156 0
530 -365 -285 0
-816 -618 -626 0
254 -304 -719 -740 0
373 -9 -621 -785 0
29 -472 -93 0
677 -987 0
978 -113 -833 0
120 -785 -277 0
682 -583 -952 -728 0
291 -49 -740 -447 0
170 -475 -176 0
164 -151 -608 -730 0
310 -71 0
672 -221 -142 0
-818 -39 -433 0
609 -437 -805 -680 0
261 -220 0
873 -317 -26 -928 0
937 -828 0
444 -865 0
-260 -173 0
804 -677 0
-516 -389 -68 0
-261 -349 0
-519 -290 -992 -828 0
983 -576 -293 -129 0
917 -584 0
420 -625 0
258 -837 -137 -634 0
27 -721 0
604 -765 -996 0
2 -850 -145 0
441 -181 -178 -502 0
210 -968 0
-805 -464 0
407 -244 -545 -459 0
13 -843 -261 -757 0
-258 -834 -368 0
-221 -646 -490 0
227 -98 -518 0
-294 -406 0
396 -915 0
757 -268 -383 -432 0
879 -189 -414 0
250 -894 0
160 -55 0
-51 -274 -302 0
601 -793 -629 -340 0
963 -944 -918 0
-916 -61 0
24 -886 -650 0
231 -858 -539 0
-903 -611 -596 -616 0
-228 -689 0
688 -869 0
-291 -1000 -816 -618 0
-658 -828 -79 0
69 -824 -226 -453 0
892 -573 0
799 -112 0
721 -83 -480 -339 0
904 -789 -166 -981 0
442 -676 0
-429 -839 -557 0
345 -414 -971 0
17 -398 0
-298 -35 -223 -421 0
-760 -388 0
-6 -839 0
275 -626 -668 -729 0
385 -513 -399 -649 0
-624 -89 0
371 -160 0
772 -7 -775 0
348 -742 0
546 -50 0
664 -517 0
123 -454 0
875 -185 -521 0
-554 -32 -59 0
-530 -139 -369 -204 0
-444 -516 0
-548 -623 -799 -994 0
972 -573 -693 0
495 -29 -10 -991 0
-394 -486 -44 0
338 -816 0
257 -745 -898 -73 0
456 -851 0
483 -376 0
194 -307 -422 -300 0
-905 -11 -461 -717 0
543 -306 0
118 -449 0
-295 -181 -942 0
905 -537 0
731 -449 0
739 -277 0
407 -728 0
302 -510 0
990 -46 -636 -261 0
193 -407 -203 -148 0
905 -252 -343 -585 0
508 -206 -917 0
460 -904 -719 -423 0
390 -265 0
196 -77 -495 0
546 -612 -801 0
842 -299 0
-230 -541 0
-569 -560 -140 -939 0
-437 -813 -611 -968 0
538 -792 -407 0
70 -29 -611 -332 0
297 -409 -583 0
999 -347 -29 -762 0
452 -533 0
383 -493 -352 -72 0
629 -287 -836 0
392 -890 0
434 -263 -887 -567 0
867 -989 0
76 -525 -826 -638 0
295 -661 -226 -307 0
834 -471 -155 -64 0
858 -865 0
26 -475 -666 0
204 -672 -24 -678 0
466 -234 0
-59 -163 0
-478 -328 0
503 -712 -965 -277 0
569 -920 -17 0
731 -171 0
758 -555 -667 -537 0
375 -787 -551 0
965 -995 -242 -416 0
953 -199 -288 0
10 -69 -319 0
229 -674 -498 -836 0
-464 -219 -901 -836 0
181 -390 -861 0
87 -937 -189 -161 0
-506 -843 -564 -50 0
666 -354 -885 0
813 -704 -180 0
131 -856 0
764 -299 0
91 -16 -113 0
-355 -768 0
336 -725 0
271 -636 -884 0
981 -827 0
539 -825 -58 -547 0
-126 -585 0
890 -229 0
981 -19 -74 -467 0
375 -82 0
216 -550 -272 0
-318 -719 0
-633 -373 -772 -843 0
-167 -447 -43 0
999 -198 0
-32 -61 0
419 -781 -109 -561 0
832 -351 -22 0
191 -242 -267 -816 0
447 -708 -220 0
538 -617 -253 0
291 -391 -56 -568 0
-310 -351 -707 0
733 -706 -271 0
450 -458 -867 -420 0
391 -160 -214 -976 0
-230 -14 0
-157 -718 -234 0
906 -169 0
-121 -751 0
-740 -1 -134 0
-895 -36 -665 -295 0
-293 -203 -805 -898 0
-142 -571 -429 0
87 -119 -562 -183 0
421 -108 -423 0
960 -92 0
-971 -705 -306 0
422 -900 -782 0
942 -949 0
932 -624 -499 0
-290 -340 0
144 -427 0
231 -649 0
-451 -673 -570 -952 0
-832 -533 0
757 -879 -970 0
738 -771 -641 -562 0
990 -807 -580 0
-331 -696 0
939 -531 -684 0
117 -258 -50 0
780 -162 -246 0
-277 -963 -468 0
365 -501 -650 -891 0
427 -408 -697 -109 0
528 -719 0
-836 -100 0
996 -197 -151 -824 0
-690 -635 -183 0
786 -700 -129 -380 0
684 -469 -514 0
-291 -324 -698 -414 0
-299 -347 -931 0
492 -152 -317 0
5 -211 0
565 -724 -844 0
175 -535 -493 -216 0
-811 -915 -638 0
15 -721 -43 -678 0
-977 -537 -745 0
-840 -496 0
327 -80 0
287 -462 -426 -672 0
-957 -546 0
547 -610 0
912 -650 0
79 -797 -888 -701 0
756 -117 0
31 -354 0
312 -274 0
528 -862 -774 -754 0
102 -822 -463 0
968 -283 -9 -646 0
977 -40 -91 -628 0
766 -446 -277 -852 0
640 -206 -565 0
691 -80 0
883 -626 0
225 -239 0
768 -556 -796 -11 0
736 -987 0
871 -897 -369 0
879 -416 -295 -875 0
-326 -389 0
-24 -780 -84 0
-591 -116 -124 -447 0
-134 -830 -616 -20 0
-959 -24 -591 0
-246 -509 -223 0
168 -827 -179 0
-66 -240 -30 -450 0
736 -943 0
373 -46 0
233 -918 -972 0
900 -138 -465 -936 0
750 -488 -681 0
803 -226 -727 0
63 -238 -744 0
16 -657 0
-1 -175 -898 -25 0
-634 -942 -43 -293 0
814 -304 -325 -154 0
-107 -933 -406 -254 0
967 -897 0
-321 -591 -295 -585 0
114 -900 -120 -15 0
67 -932 -79 -950 0
-92 -128 0
116 -224 -249 0
-743 -653 0
611 -668 -157 -602 0
-217 -533 -204 0
642 -468 -806 -807 0
290 -754 -779 0
508 -544 -617 -528 0
418 -422 -781 0
417 -371 0
832 -701 -128 -925 0
157 -384 0
355 -992 -773 -152 0
823 -115 -393 -607 0
-66 -744 -316 0
194 -635 -866 -41 0
206 -352 -272 -588 0
918 -531 0
-909 -347 -548 0
-549 -252 -21 -243 0
488 -741 -973 0
-628 -962 0
929 -529 0
-239 -701 -579 -196 0
-559 -172 0
-851 -713 -695 -101 0
-586 -900 0
141 -53 -925 0
-144 -312 -485 -818 0
-865 -58 -136 0
429 -976 -420 -702 0
495 -463 0
739 -5 0
-260 -628 -861 0
-591 -974 0
568 -706 -287 -303 0
817 -958 0
-566 -161 0
142 -741 -904 -205 0
137 -728 0
46 -467 0
895 -968 -409 -11 0
644 -144 -375 -579 0
32 -933 -249 -733 0
338 -369 -233 0
245 -831 -29 0
-567 -682 -564 0
-529 -763 -943 -323 0
585 -768 -79 0
269 -528 0
478 -680 0
837 -282 -513 -216 0
-983 -853 0
765 -436 0
-299 -270 -884 0
118 -922 -14 0
924 -998 0
455 -54 0
710 -565 0
605 -949 -953 -53 0
606 -715 -501 0
988 -172 -485 0
145 -183 -128 0
310 -701 -946 0
733 -415 -609 -732 0
987 -849 -344 -285 0
-920 -937 -861 0
611 -365 0
71 -352 0
342 -52 0
901 -472 0
-766 -518 -509 -650 0
156 -496 -130 0
-662 -892 -887 0
512 -384 -225 -705 0
-195 -788 -391 -93 0
952 -22 -774 0
931 -397 0
274 -710 0
418 -68 0
387 -850 0
715 -924 -524 -579 0
641 -485 -259 0
-131 -797 0
145 -455 -239 -135 0
-859 -940 0
-573 -202 -456 0
416 -296 -651 -503 0
574 -442 -623 0
-449 -71 -306 -446 0
401 -959 -20 -346 0
-536 -221 -889 -944 0
895 -236 -547 0
195 -691 -480 -364 0
840 -525 0
-600 -592 -82 0
417 -266 -438 -849 0
263 -288 0
587 -561 -843 0
131 -243 -914 -550 0
8 -857 -202 -267 0
-126 -521 -595 0
-809 -182 -123 0
-827 -490 0
693 -249 -724 0
-797 -215 -54 -750 0
636 -921 -312 -114 0
-624 -579 -12 -996 0
131 -285 -494 -56 0
-214 -134 0
-212 -669 -883 0
916 -209 0
131 -768 -644 -473 0
-624 -262 0
312 -132 -367 -936 0
369 -843 0
340 -550 -674 0
338 -834 -687 0
534 -394 0
786 -603 0
-165 -578 -328 -98 0
714 -190 -927 0
675 -131 0
836 -175 -172 0
256 -517 -20 0
545 -669 -822 -565 0
-136 -90 -297 0
81 -338 -43 -852 0
-695 -24 -387 -289 0
47 -991 -257 -621 0
597 -489 -864 0
451 -637 -663 -659 0
-390 -698 -626 0
154 -315 -263 0
-668 -437 -713 -544 0
147 -198 -872 0
120 -557 -135 0
731 -173 -36 -466 0
-471 -406 -664 -123 0
5 -225 0
440 -26 0
69 -51 -582 -12 0
-670 -350 -88 0
-124 -305 -392 0
468 -344 -580 0
489 -218 -517 0
964 -60 -384 -973 0
-929 -798 -758 -782 0
-141 -289 0
152 -864 0
114 -454 0
-639 -548 -592 -830 0
864 -213 0
111 -806 -538 0
-953 -862 -851 0
-899 -237 -597 0
146 -380 -963 0
268 -908 0
364 -423 -808 0
833 -369 -92 0
91 -565 -117 0
-753 -866 0
377 -931 0
-459 -69 -902 -122 0
-45 -645 -815 -576 0
359 -421 -932 -205 0
928 -992 0
926 -487 -772 0
-679 -81 -20 -198 0
173 -714 -264 0
817 -665 -965 -526 0
-644 -319 0
773 -727 -648 -251 0
-585 -378 0
529 -151 -901 -620 0
213 -987 0
775 -974 -925 -203 0
622 -26 -589 -322 0
291 -761 0
367 -26 0
264 -785 0
488 -172 -580 0
638 -466 -721 0
259 -334 -682 -845 0
866 -453 -272 0
-276 -186 0
-169 -486 -174 -212 0
820 -654 -586 0
912 -157 -92 -500 0
141 -209 0
139 -264 -485 0
-399 -413 -363 -630 0
980 -380 0
321 -482 -574 0
-466 -390 -755 -76 0
954 -525 -912 -984 0
-715 -296 -448 0
491 -61 -279 -259 0
83 -906 -739 -797 0
-514 -586 -118 -621 0
-449 -492 0
221 -497 -884 0
120 -315 0
779 -259 0
641 -942 0
610 -767 -726 0
-671 -673 0
593 -323 -455 0
-514 -25 -555 -229 0
-842 -719 -990 0
166 -558 0
386 -890 -871 -479 0
514 -575 -177 0
-843 -694 -252 -589 0
193 -510 -462 0
-853 -576 -681 -908 0
-775 -184 -579 0
-977 -749 -474 -925 0
-934 -905 -972 -454 0
5 -149 -136 -535 0
-224 -919 -456 0
258 -140 -554 0
706 -985 -813 -592 0
79 -294 -859 -399 0
-621 -725 0
-623 -437 0
730 -602 0
-156 -679 0
-500 -96 -231 -376 0
-561 -659 -216 0
-173 -985 -860 0
-80 -319 0
-399 -462 -811 0
374 -913 -267 0
277 -794 0
268 -398 0
277 -593 -554 -941 0
581 -13 -439 0
933 -596 -642 0
787 -366 -749 0
671 -597 -799 -400 0
477 -341 -41 0
-494 -840 -520 0
689 -32 -790 -259 0
60 -48 -171 0
375 -208 -764 0
155 -658 -357 0
510 -649 -95 0
187 -109 -436 0
90 -609 -528 0
56 -30 -972 -670 0
197 -95 -271 -824 0
429 -544 -849 -11 0
-747 -828 -765 0
310 -309 0
49 -338 -162 -894 0
-274 -880 -150 -61 0
-483 -612 -14 -301 0
103 -208 -584 -394 0
711 -503 -251 0
164 -575 -817 -385 0
-276 -662 -969 -725 0
-43 -189 -596 -794 0
-832 -60 -331 -224 0
155 -48 -567 0
-797 -936 -155 -480 0
55 -968 -143 0
964 -717 0
971 -452 -788 0
-721 -523 -300 0
680 -704 -807 0
41 -896 -20 0
9 -434 -914 0
26 -367 -21 -393 0
940 -834 -959 0
196 -151 -63 0
25 -559 -851 -387 0
984 -257 -938 0
443 -696 -477 -244 0
84 -656 -297 0
857 -599 0
-353 -818 -694 -615 0
517 -945 -516 0
-655 -44 -645 -902 0
342 -181 0
395 -536 -256 0
529 -824 -61 -120 0
646 -281 -967 -620 0
129 -574 -554 0
800 -613 -719 0
362 -297 -725 -745 0
-393 -424 -510 -734 0
709 -731 0
772 -933 0
722 -870 0
186 -416 -833 0
-110 -748 -104 0
-838 -448 0
-872 -464 -604 0
-794 -663 -407 0
817 -89 -394 0
723 -524 0
964 -708 -307 0
-797 -197 -360 0
-849 -776 0
15 -812 -503 0
-345 -614 0
424 -14 0
20 -632 -330 0
829 -176 -477 0
-438 -747 -176 0
-411 -571 -598 -48 0
-357 -19 -187 0
767 -716 -334 0
388 -1000 -461 -826 0
-732 -919 -504 0
-694 -376 -193 -468 0
550 -530 -412 0
110 -732 -683 0
240 -683 -750 0
913 -706 0
-386 -731 -915 -195 0
-76 -527 -359 -538 0
162 -586 -810 0
236 -115 -1000 -487 0
320 -55 -914 -987 0
-884 -911 0
833 -334 0
-71 -443 0
-526 -836 -149 0
-781 -339 0
646 -914 0
429 -811 -675 -433 0
740 -96 -905 0
284 -430 0
997 -241 -539 -240 0
239 -912 0
558 -149 -802 0
942 -737 0
89 -860 -153 -514 0
398 -546 -843 0
70 -312 -618 -758 0
841 -726 -717 -438 0
474 -764 -794 -177 0
383 -680 -876 -815 0
101 -970 -939 -622 0
-432 -290 -442 -327 0
619 -154 0
-465 -788 -900 0
803 -783 -601 0
118 -215 -412 -489 0
280 -465 -210 0
-421 -251 -875 0
222 -431 -303 -725 0
-409 -2 -96 0
113 -418 -156 -310 0
75 -390 0
856 -153 -910 0
183 -953 -968 -457 0
-848 -496 -601 -758 0
-75 -216 -291 -591 0
377 -661 -281 -673 0
110 -137 0
-730 -166 0
-844 -820 0
-107 -408 0
699 -487 0
-562 -847 -111 0
926 -525 -680 0
760 -135 -133 -225 0
-667 -731 0
755 -89 0
58 -458 -532 -689 0
-820 -222 -854 0
84 -484 0
727 -68 -154 -932 0
502 -791 -105 0
-784 -754 0
333 -745 -782 -186 0
876 -421 -864 -808 0
102 -355 -91 -440 0
204 -501 0
581 -45 -660 -856 0
7 -838 0
-331 -559 -788 0
208 -210 -390 -2 0
-676 -524 -774 -936 0
907 -268 -369 -261 0
-145 -886 0
321 -708 -673 0
650 -416 -830 0
629 -494 -666 -182 0
-835 -595 -354 -734 0
-767 -704 -643 -854 0
937 -962 -860 0
303 -913 -26 0
389 -754 -128 -770 0
-681 -663 -232 -66 0
549 -320 -64 -882 0
474 -727 0
-189 -515 -103 0
469 -41 -56 -608 0
-60 -617 -762 -630 0
-433 -283 -218 -831 0
405 -259 -918 -275 0
596 -146 -68 -714 0
-144 -169 -936 -142 0
449 -593 -161 0
829 -910 0
686 -645 -663 0
840 -101 -790 -870 0
-786 -733 -164 -533 0
630 -991 -904 -645 0
134 -837 0
512 -622 -661 0
773 -449 0
838 -903 0
-506 -428 -740 -142 0
336 -610 -363 0
-890 -919 0
-980 -542 -1000 -668 0
919 -242 -715 -22 0
74 -173 0
494 -354 -156 -492 0
92 -392 -258 -544 0
169 -39 -641 0
225 -718 -147 0
536 -982 0
296 -394 -134 -202 0
-394 -362 -72 -363 0
468 -704 -647 -513 0
-645 -500 0
515 -205 -220 -124 0
-340 -484 -926 0
712 -593 0
-13 -40 -818 -354 0
-151 -802 -112 0
24 -951 -156 0
587 -75 0
-454 -179 -8 0
315 -897 0
684 -817 -306 -693 0
442 -620 0
-516 -872 -30 -690 0
418 -345 -320 -912 0
952 -20 -430 0
50 -159 -771 -8 0
198 -214 0
391 -753 -876 0
615 -923 0
52 -202 0
663 -467 -693 -173 0
760 -271 -160 -530 0
389 -673 -328 -214 0
-102 -569 -988 -774 0
949 -412 -340 0
322 -461 -742 -131 0
621 -601 -323 -547 0
499 -715 -945 0
25 -559 -510 -848 0
61 -820 -610 -883 0
236 -985 0
561 -542 0
104 -111 -399 0
272 -577 0
652 -737 -165 0
148 -265 0
759 -682 -866 -220 0
774 -466 -554 0
467 -537 0
-898 -193 0
501 -426 -671 -539 0
255 -214 -339 0
383 -934 -377 0
633 -957 0
-339 -238 -681 0
-722 -636 -973 -748 0
-680 -858 -231 -944 0
289 -656 -712 -294 0
762 -183 0
865 -25 -727 -175 0
874 -843 0
45 -339 -49 0
6 -376 0
-222 -843 -29 -895 0
398 -807 -787 -410 0
435 -553 0
998 -745 0
-348 -14 -551 0
288 -226 -97 -586 0
738 -120 0
436 -923 0
836 -510 -175 -399 0
297 -609 -903 -63 0
306 -663 -447 -923 0
915 -749 0
-183 -521 -111 -73 0
871 -293 -250 0
657 -277 0
-566 -276 -436 -361 0
-198 -442 -898 0
478 -309 -550 -311 0
298 -475 -898 0
968 -518 -410 -299 0
-878 -860 -336 0
-464 -208 -263 0
516 -2 -363 0
28 -597 0
730 -502 0
633 -690 -546 -241 0
123 -153 0
-23 -691 -287 0
327 -91 0
65 -500 -416 0
-925 -811 -17 -42 0
-712 -334 0
919 -623 -803 -178 0
237 -731 -791 -92 0
925 -798 -534 0
193 -307 -687 -905 0
573 -693 -735 0
787 -399 -688 0
717 -506 -672 -628 0
803 -634 -929 0
81 -864 -501 -160 0
-420 -5 0
-862 -996 -497 0
-249 -774 0
149 -458 -209 -72 0
479 -509 -19 0
-182 -445 -788 -552 0
-375 -499 -639 -975 0
761 -728 -957 0
408 -412 -263 -827 0
-826 -494 0
822 -64 -352 0
723 -614 0
114 -401 0
-178 -697 -752 0
930 -9 -901 -520 0
435 -408 -934 0
-545 -709 0
-523 -279 -723 -206 0
343 -736 -785 -501 0
-527 -853 0
77 -245 -36 -731 0
549 -938 -152 0
-312 -833 0
-550 -949 0
751 -331 0
258 -312 -299 -21 0
112 -508 -883 0
913 -126 -37 -399 0
843 -744 -347 0
-159 -504 -537 0
833 -435 -397 0
-132 -944 -673 -696 0
655 -817 -411 -530 0
-714 -323 -403 -847 0
875 -363 -792 0
384 -685 -146 -81 0
955 -238 0
-826 -675 -427 -119 0
975 -846 0
256 -309 0
459 -564 -673 -95 0
579 -259 0
587 -859 -734 0
-277 -56 0
-910 -993 0
113 -26 0
134 -532 -142 0
930 -162 0
627 -674 0
313 -675 -776 0
487 -349 -683 -341 0
681 -780 0
17 -20 0
-359 -136 -305 -215 0
-550 -489 0
286 -318 0
369 -964 0
687 -646 -114 -494 0
225 -998 -656 0
638 -94 0
-987 -133 -518 -57 0
-105 -118 -221 0
299 -958 -65 0
136 -91 0
214 -222 -498 0
215 -634 0
563 -419 0
-90 -206 -611 -176 0
722 -943 -526 0
370 -746 -541 0
-344 -18 -721 -210 0
-211 -989 0
66 -775 -701 0
-140 -592 -823 -145 0
498 -29 -736 -399 0
-134 -86 0
617 -114 0
697 -154 -647 -679 0
-770 -412 0
504 -541 -15 0
-445 -710 -368 0
-864 -219 -142 -837 0
106 -190 0
11 -492 -209 -439 0
439 -195 -958 -752 0
-555 -486 -548 0
-46 -698 -99 -477 0
369 -745 -157 -53 0
-62 -408 0
430 -149 -865 0
661 -954 -972 -804 0
873 -364 -621 0
-705 -461 0
403 -747 0
929 -7 -970 -767 0
409 -551 0
333 -468 -978 0
-177 -130 -756 0
391 -247 -251 -859 0
716 -906 -737 -862 0
229 -829 -970 0
-285 -166 -17 0
-210 -444 -523 0
281 -156 0
952 -671 -113 0
-705 -296 -608 0
-606 -211 0
-824 -134 -292 0
-494 -288 0
749 -162 -117 -562 0
467 -452 -664 -206 0
497 -40 -266 -987 0
-635 -74 0
316 -887 0
556 -29 0
547 -812 -702 -111 0
219 -983 0
-997 -358 -88 -951 0
242 -36 -804 -847 0
-785 -712 0
242 -394 -59 -846 0
469 -439 -444 -468 0
532 -374 0
-170 -183 0
-563 -569 -215 -369 0
-170 -481 0
696 -654 -253 0
678 -506 -231 0
78 -852 -146 0
-506 -862 -21 0
-943 -11 -421 0
103 -286 -362 0
527 -820 -695 0
958 -667 -203 0
784 -495 -227 -866 0
484 -574 0
-398 -475 -478 0
-309 -967 -689 -827 0
330 -830 -364 0
560 -854 -849 0
685 -161 -95 -706 0
817 -815 -52 0
516 -784 -881 -168 0
136 -709 -382 -555 0
400 -367 -165 0
647 -602 -215 -241 0
10 -606 -921 0
-39 -706 -442 -228 0
324 -861 0
661 -62 -124 -832 0
-590 -354 0
332 -854 0
513 -185 0
222 -203 0
280 -964 -652 -201 0
937 -86 -52 -252 0
901 -898 -563 0
916 -568 0
-651 -167 -604 -717 0
875 -300 -90 0
230 -874 -396 -102 0
972 -802 -543 -484 0
299 -160 -617 0
-617 -573 0
-37 -946 -304 -831 0
42 -773 0
-406 -916 0
-357 -815 -885 0
715 -600 0
488 -485 -1000 0
715 -750 -992 -61 0
795 -965 -45 0
681 -733 -856 -943 0
391 -283 -687 0
408 -691 -401 -661 0
48 -680 0
715 -764 -622 0
24 -166 -220 0
561 -12 0
906 -75 -418 0
-932 -100 -836 0
-252 -851 -748 0
-507 -629 -836 0
427 -646 -931 0
260 -820 -184 -409 0
228 -438 0
30 -82 -437 0
60 -538 0
389 -478 -992 -502 0
634 -719 -105 0
853 -867 -611 0
78 -535 -738 -185 0
-449 -265 -75 -724 0
-445 -325 -150 0
-415 -637 -456 -617 0
385 -253 0
425 -795 -378 -961 0
-575 -335 -862 0
505 -461 -191 -400 0
-754 -914 0
344 -395 -507 0
342 -803 -656 -26 0
971 -742 -123 0
918 -914 0
717 -512 0
815 -248 0
-821 -4 -731 -238 0
263 -975 -521 0
-948 -476 0
128 -632 -507 -332 0
82 -643 -80 -706 0
-306 -868 -466 -731 0
594 -137 -1 -727 0
-605 -869 -895 -174 0
330 -219 -702 -476 0
786 -793 -664 -499 0
243 -435 -953 -428 0
327 -828 -253 -841 0
723 -770 -549 -575 0
-505 -156 -376 -694 0
806 -519 0
819 -576 -407 -757 0
283 -98 -48 -820 0
-127 -677 -129 0
863 -394 -880 0
836 -103 0
514 -780 0
-663 -125 0
857 -791 0
995 -240 0
852 -291 -866 0
-460 -695 -967 -670 0
14 -592 0
-886 -200 0
-97 -591 -244 0
460 -263 -702 -655 0
942 -685 -954 0
782 -110 0
281 -749 0
931 -602 0
-875 -494 -697 0
470 -119 -862 0
717 -961 0
-347 -394 -80 -729 0
290 -710 -400 -898 0
971 -836 -989 0
457 -397 -781 0
337 -207 -372 -256 0
270 -153 -244 0
588 -497 -207 -528 0
929 -239 0
489 -824 -64 -352 0
481 -489 0
-963 -575 -173 0
45 -730 -40 0
149 -543 -955 0
624 -531 0
917 -706 -780 0
-379 -667 -753 -680 0
-336 -636 -730 -399 0
-823 -174 -555 -6 0
524 -998 -422 0
-276 -898 -404 0
392 -973 -152 0
75 -515 -333 0
-18 -797 -608 -506 0
-652 -617 -687 -10 0
598 -245 -854 -603 0
585 -158 -198 -394 0
-162 -337 0
8 -424 -371 0
-560 -698 0
-211 -961 -583 -540 0
573 -242 -186 0
218 -976 0
572 -56 -253 -772 0
916 -932 -157 0
917 -109 0
777 -102 -841 -421 0
-88 -809 0
559 -622 -974 -346 0
837 -853 0
500 -124 -810 -727 0
465 -987 -321 -371 0
923 -375 -822 -382 0
508 -524 -480 -966 0
-587 -980 -612 0
-764 -929 0
575 -31 -557 -369 0
-603 -683 0
-572 -380 0
-790 -177 -112 0
620 -438 -57 0
348 -464 -67 -197 0
793 -889 -322 -429 0
967 -273 -248 0
825 -250 -556 -848 0
884 -436 -730 0
795 -207 -728 0
19 -927 -663 -905 0
409 -625 0
636 -924 0
382 -101 -766 -534 0
27 -634 0
149 -559 -228 0
257 -530 -208 -653 0
89 -665 0
586 -409 -692 -318 0
131 -394 0
986 -783 -362 0
348 -624 0
955 -544 0
668 -434 -181 -834 0
393 -403 -849 -61 0
172 -895 0
152 -215 -493 -573 0
545 -17 -566 -903 0
-4 -869 0
-453 -582 -435 -613 0
111 -92 0
791 -625 -576 -623 0
923 -59 0
820 -798 0
-246 -645 0
107 -184 0
-19 -894 0
760 -238 -838 0
-304 -207 -410 0
322 -521 -894 0
222 -283 -670 0
677 -334 -418 -9 0
-338 -98 -714 -703 0
577 -194 -567 0
