c 4-SAT formula
c 500 variables, 2000 clauses, 4 literals per clause
p cnf 500 2000
137 -213 286 -113 0
-456 -27 -421 343 0
-338 -435 -300 397 0
-18 302 429 -208 0
-125 -393 110 -49 0
349 -179 -272 374 0
473 243 238 268 0
-350 -67 -74 -93 0
-178 -260 -21 -238 0
-284 -402 34 -38 0
327 375 -440 214 0
198 -457 478 -34 0
-164 215 183 -459 0
-167 226 -104 -291 0
173 -224 -290 -54 0
-125 -271 -186 -71 0
120 -463 56 78 0
376 299 215 -265 0
249 -146 -133 371 0
-471 270 -249 203 0
373 -344 356 199 0
-360 -37 348 -136 0
452 -371 -63 465 0
-75 -452 13 -23 0
174 -374 -81 -216 0
407 400 -168 -206 0
283 -149 108 248 0
-380 -278 -123 -241 0
474 -278 -109 -251 0
122 -431 -425 115 0
207 447 485 262 0
-7 453 -359 -287 0
208 -32 -59 -346 0
-261 -119 -496 -156 0
376 -390 210 -335 0
-426 354 -177 429 0
441 218 368 4 0
399 -32 -115 488 0
268 26 173 30 0
-268 301 59 491 0
99 18 73 192 0
64 -195 143 -281 0
170 465 412 224 0
-302 -92 233 -96 0
356 69 211 -150 0
226 363 -208 -436 0
206 -226 -415 152 0
429 -54 247 61 0
44 -461 -117 -340 0
-291 194 -163 102 0
463 175 -314 -126 0
-292 -79 489 406 0
478 -79 -316 -423 0
-497 -436 283 -311 0
-326 -378 -321 462 0
444 483 -413 -139 0
-247 -39 -223 488 0
445 149 275 79 0
-137 409 232 -288 0
366 161 -355 324 0
109 -208 464 -363 0
-302 -401 -48 461 0
-337 74 409 453 0
-283 -177 -33 62 0
-421 298 -168 372 0
247 160 389 386 0
378 376 161 -235 0
113 374 -34 -439 0
59 -26 70 8 0
-347 -308 395 344 0
92 -193 -438 -427 0
441 436 -336 -96 0
-401 -393 -2 500 0
304 198 -45 320 0
-345 -39 58 -266 0
446 372 -203 -342 0
188 -141 222 -431 0
-10 -449 366 318 0
224 -452 243 -107 0
419 -37 198 256 0
210 -91 183 417 0
93 -408 422 51 0
-224 -319 -93 347 0
-151 -370 -286 263 0
-275 449 -238 -359 0
-348 445 -317 375 0
-232 -239 -416 105 0
148 -233 260 -294 0
422 -16 -45 -332 0
-499 -296 -108 -181 0
-83 325 333 440 0
410 -273 135 189 0
-343 104 430 -41 0
403 -406 368 -297 0
-347 -193 235 -380 0
187 -162 398 -380 0
396 394 -275 -444 0
160 135 277 -494 0
444 368 77 261 0
-339 456 93 384 0
-169 -458 51 -210 0
203 247 404 8 0
-415 -142 -175 174 0
-186 -274 485 -47 0
136 -459 411 208 0
324 378 -69 148 0
-264 -397 -452 99 0
-448 -242 378 -439 0
-461 119 369 -217 0
-50 275 -274 243 0
407 320 100 31 0
184 -374 -27 274 0
10 363 -498 147 0
426 291 198 394 0
302 -183 -371 187 0
348 405 -329 -449 0
411 -156 -316 325 0
-156 -443 -392 15 0
458 455 -396 -436 0
219 293 136 215 0
-373 -190 149 39 0
-37 420 359 462 0
-310 375 145 51 0
-336 -58 32 258 0
-419 -88 184 353 0
259 -80 102 -280 0
434 451 -193 -359 0
226 -428 -410 178 0
-186 -124 -500 161 0
-440 115 391 201 0
171 245 81 -143 0
468 -222 16 21 0
69 -174 -107 148 0
-479 157 -310 -191 0
310 433 -431 -420 0
-310 366 -226 -201 0
-27 -412 80 -304 0
196 -308 209 101 0
199 -76 -388 -281 0
-360 -267 -257 -215 0
367 13 334 -290 0
-138 406 -416 302 0
55 156 -458 -493 0
138 279 327 437 0
-258 -79 -402 456 0
-405 310 -62 -262 0
466 -164 -169 -498 0
-475 145 208 279 0
-378 -424 -318 -386 0
-434 371 -48 21 0
21 70 -64 332 0
-262 411 -495 470 0
-471 351 157 458 0
355 -40 -346 -329 0
-249 496 -270 240 0
-421 -413 424 -254 0
303 164 106 -46 0
-225 -269 219 314 0
347 183 64 454 0
-63 467 4 484 0
417 212 132 -363 0
494 -479 -454 -71 0
298 -296 -215 87 0
456 134 462 -118 0
-237 454 -296 -140 0
441 174 -268 478 0
-479 -31 35 54 0
-280 -239 -412 -321 0
-89 340 138 -71 0
320 -111 -144 396 0
201 196 -320 318 0
334 58 -416 497 0
-123 464 -414 483 0
-79 -328 -442 -356 0
217 -443 427 330 0
-91 -145 -434 474 0
424 223 -59 -365 0
-192 48 31 397 0
-246 316 272 -45 0
-301 54 65 79 0
-390 354 -277 -81 0
155 312 154 -364 0
107 -111 40 -85 0
221 437 366 -52 0
315 -202 -393 391 0
248 -159 -500 -223 0
287 2 -470 -354 0
-443 -405 -495 248 0
-90 -229 -284 248 0
-498 -484 -256 -195 0
-277 117 -438 -334 0
-261 313 354 211 0
407 159 -438 -423 0
-160 369 -104 107 0
36 168 -352 435 0
-79 229 354 -186 0
-434 -77 482 -413 0
348 2 -213 -118 0
440 -162 108 396 0
21 264 -26 252 0
150 -363 432 -178 0
-378 -490 359 487 0
-257 -19 410 -7 0
-382 -187 -296 -84 0
301 33 456 17 0
-99 60 -446 -318 0
122 -87 -118 168 0
174 -151 203 -37 0
-32 -120 -52 124 0
-114 -215 -352 52 0
-460 11 342 -57 0
-40 500 -470 -48 0
469 -208 470 146 0
493 229 67 -64 0
-126 -219 250 265 0
365 -347 -204 490 0
474 450 147 318 0
-386 -429 -51 147 0
-203 -211 417 143 0
-190 369 266 323 0
-109 -200 445 -119 0
-372 235 -476 -281 0
-481 68 -404 221 0
-140 -231 397 311 0
409 -190 -149 58 0
305 472 128 -349 0
-12 -90 474 -163 0
-47 -427 -316 74 0
-70 14 -371 438 0
247 104 -320 30 0
145 -135 389 274 0
-285 170 -388 152 0
458 383 454 307 0
-280 -269 -351 210 0
-9 -281 -261 -142 0
6 479 -462 146 0
-78 -232 -208 128 0
113 -33 203 -379 0
-29 327 132 170 0
-13 -473 198 -335 0
97 60 -467 -114 0
-139 -331 393 4 0
322 26 135 -103 0
445 -393 -314 115 0
26 384 -32 369 0
-385 349 -419 -32 0
465 170 -24 13 0
302 -188 -126 -312 0
-331 108 214 199 0
-358 386 -162 380 0
-366 120 -207 -385 0
251 -342 -123 -190 0
-430 -408 412 -355 0
321 356 -445 256 0
-152 -47 325 238 0
-64 327 -494 328 0
-131 207 330 346 0
-384 -276 -51 -108 0
459 -44 -438 -220 0
-255 -292 -426 -156 0
-299 -385 452 -485 0
220 333 431 176 0
-408 -16 67 -289 0
434 139 26 -217 0
254 38 184 213 0
-316 36 291 -8 0
17 387 -403 441 0
-477 -109 -170 55 0
-171 313 131 315 0
258 -386 31 235 0
-350 -30 -378 440 0
-201 329 334 379 0
-151 -466 -291 -308 0
383 391 -193 266 0
434 341 166 334 0
-365 86 -92 195 0
-24 191 -185 201 0
-217 188 -7 -372 0
-328 35 153 -98 0
-356 -154 432 -50 0
-372 -308 188 205 0
120 -334 180 221 0
341 -400 203 -306 0
265 -239 -45 423 0
437 -482 197 114 0
228 -227 345 108 0
86 479 465 -288 0
291 289 347 478 0
370 138 -478 327 0
-201 -253 75 277 0
128 -124 309 -165 0
68 116 -454 -86 0
223 -33 -458 292 0
264 -258 68 -420 0
278 -292 -14 -470 0
226 -31 477 -499 0
268 -147 247 -180 0
257 -454 -158 30 0
-361 493 319 118 0
431 25 153 -51 0
339 191 -345 319 0
-133 235 119 100 0
291 119 284 -159 0
-142 -70 327 234 0
-499 102 245 446 0
-19 -356 393 33 0
-199 -347 413 -167 0
150 497 -12 20 0
-219 24 -432 -416 0
125 466 -5 132 0
-61 -327 179 -6 0
-438 -68 388 131 0
340 -363 -305 55 0
205 -310 -335 -39 0
470 -174 50 245 0
-198 -110 208 408 0
419 462 413 -266 0
-387 -347 -16 -489 0
463 109 -31 264 0
-285 -8 -303 -207 0
-66 291 86 -234 0
49 42 414 -24 0
-21 169 -154 -324 0
500 -454 474 79 0
-325 8 -196 -340 0
-57 -255 -113 -223 0
-92 303 57 157 0
254 230 -7 156 0
-451 -499 231 334 0
66 -33 364 -356 0
-467 341 -35 325 0
356 347 -79 -311 0
144 -4 -46 -442 0
-23 -358 -184 -458 0
-300 -120 260 -346 0
-270 -102 -437 -335 0
-321 177 -337 360 0
496 75 -299 404 0
221 -420 266 25 0
-215 -292 94 351 0
-140 263 -276 465 0
3 -410 364 271 0
457 119 -408 461 0
-478 41 35 -479 0
-420 -389 -308 -241 0
-252 33 -383 277 0
-346 337 385 -457 0
489 -190 -179 207 0
489 430 -12 329 0
-217 -271 116 303 0
92 460 -218 90 0
-351 5 278 33 0
-205 493 -100 -333 0
-345 -489 111 330 0
-375 191 155 189 0
429 336 -150 -54 0
489 -5 -481 -92 0
412 -416 91 203 0
24 -340 25 104 0
398 358 -112 -239 0
-80 -387 -189 -295 0
-109 -224 -239 -202 0
-347 -242 264 52 0
55 463 311 257 0
-158 313 -56 -168 0
235 233 450 57 0
442 83 15 70 0
161 -169 457 -459 0
-273 37 -475 329 0
271 -464 -31 274 0
-121 421 129 -477 0
-8 -422 -86 437 0
-265 190 76 417 0
356 -441 499 -222 0
-254 349 279 -482 0
113 107 -473 -13 0
333 499 -372 -2 0
191 -180 -304 -445 0
114 -432 100 -118 0
452 111 479 475 0
3 -255 -308 464 0
325 -133 -72 -350 0
445 275 -437 -91 0
-70 423 4 158 0
363 274 122 418 0
350 -110 -61 -448 0
109 474 -315 457 0
204 -34 42 149 0
-46 224 -77 -102 0
83 480 416 -193 0
-301 -243 387 -419 0
154 -370 399 85 0
-36 -50 -358 -68 0
481 386 317 267 0
-467 58 -76 95 0
262 -297 118 186 0
19 176 -356 440 0
477 81 284 239 0
-136 90 281 -392 0
475 264 -344 104 0
194 459 465 -331 0
153 325 450 -432 0
-343 -20 -132 -4 0
-336 183 488 425 0
-319 -347 -436 -84 0
-76 -445 -326 296 0
53 197 370 -353 0
293 -417 375 331 0
296 410 -353 433 0
-243 -160 222 -221 0
-176 -335 405 458 0
-273 321 -103 449 0
184 36 216 -286 0
15 269 262 335 0
-17 134 -395 262 0
177 -356 482 398 0
474 285 372 287 0
328 408 302 -417 0
-487 -123 397 126 0
-468 319 -256 384 0
284 199 -332 112 0
-493 -371 -331 260 0
441 213 -444 310 0
237 125 -286 373 0
493 439 443 -46 0
-315 -290 174 436 0
348 -254 -217 455 0
192 -139 -2 -464 0
-44 308 -267 296 0
-262 146 449 456 0
-80 -401 -115 83 0
88 -275 -316 260 0
-346 158 -440 145 0
-281 -231 91 -84 0
478 -431 126 -398 0
37 -19 -209 211 0
16 249 -373 447 0
15 455 284 -435 0
179 242 -328 246 0
-346 -223 -291 -86 0
310 -103 222 -163 0
415 -479 139 -254 0
-252 -498 -216 400 0
-114 454 143 -379 0
-253 -47 135 -201 0
26 -96 -360 -492 0
-7 -3 -267 -484 0
17 250 430 358 0
336 199 -337 -295 0
65 361 -407 -362 0
-497 -202 -84 -430 0
-116 324 327 454 0
-87 19 6 400 0
-200 -230 -13 260 0
78 -341 -134 318 0
-308 67 -123 46 0
292 -284 -460 -421 0
-233 -377 263 14 0
155 443 263 256 0
237 236 294 69 0
-402 19 205 211 0
307 433 -180 -11 0
98 -146 -46 329 0
-173 -94 445 327 0
230 57 -286 -397 0
-197 -141 -119 -87 0
-368 -245 185 427 0
391 303 -463 -66 0
-223 132 454 -252 0
418 472 394 459 0
-418 174 491 91 0
-254 -78 107 -178 0
-141 274 78 -255 0
282 -319 -364 -312 0
126 376 -104 245 0
470 -473 -424 -50 0
-385 -252 -405 -125 0
-292 -160 -471 177 0
257 388 -306 -280 0
424 -432 311 357 0
27 -428 -210 -201 0
-320 -282 112 -35 0
10 -425 484 398 0
82 -318 36 -315 0
-379 208 321 151 0
276 -441 382 362 0
-196 142 293 467 0
153 -214 -199 -138 0
359 342 279 -257 0
239 24 -438 245 0
200 -128 241 259 0
-13 -167 -374 199 0
178 -170 -247 163 0
362 -480 -26 -9 0
-367 -393 243 175 0
-181 48 -11 -167 0
293 35 -278 156 0
-144 359 -72 -499 0
280 -290 6 76 0
-137 87 430 412 0
-233 -33 9 -213 0
298 -44 479 294 0
-119 198 495 192 0
-160 152 -65 429 0
386 -232 180 -175 0
-126 -158 88 317 0
-19 5 172 84 0
395 -348 476 -34 0
-268 -315 -426 294 0
-425 270 64 -246 0
-92 -56 -95 393 0
-247 408 333 282 0
112 -21 214 -494 0
375 -383 -118 -465 0
-80 128 -436 -296 0
-280 -382 -336 187 0
475 138 -2 -326 0
418 -343 206 264 0
252 90 439 221 0
-135 171 -378 214 0
-103 -423 236 -321 0
-127 -331 114 -381 0
374 -22 -251 276 0
-19 406 291 337 0
167 179 427 290 0
-340 204 -434 -282 0
352 116 365 35 0
-264 37 -185 426 0
-140 115 47 -42 0
284 -482 -341 -77 0
250 420 -244 -402 0
-80 -194 -211 -411 0
175 216 -381 197 0
211 199 -309 -6 0
157 -186 -74 205 0
217 -451 -168 -2 0
200 -449 -433 -333 0
489 -290 -408 -153 0
7 -444 430 172 0
-364 -174 386 201 0
-86 -204 290 -67 0
-54 -50 -38 369 0
381 -400 39 -245 0
316 -92 -305 437 0
-483 -32 196 234 0
-88 -228 -99 -330 0
-207 -227 -400 -153 0
-473 -76 -293 -130 0
-410 17 392 -468 0
157 -42 -487 -474 0
-179 -51 355 177 0
82 138 64 -316 0
157 -421 -173 127 0
-413 97 343 -398 0
426 -337 -241 -77 0
-7 199 -69 -424 0
-3 11 -241 402 0
-58 -133 220 485 0
-305 223 -483 -70 0
-165 474 -430 221 0
128 -440 -406 265 0
-433 116 392 215 0
-154 -359 -132 243 0
25 -319 -424 -119 0
-205 254 -232 70 0
1 447 -209 365 0
84 186 -192 -212 0
-31 -125 71 77 0
344 -95 265 288 0
-499 14 -49 221 0
-494 -164 -314 20 0
-342 -392 299 -126 0
-354 235 350 -263 0
-431 -481 166 -381 0
15 -231 -225 7 0
137 82 240 121 0
293 26 155 -489 0
113 104 -442 117 0
468 177 165 241 0
474 -438 109 265 0
-464 -110 444 -111 0
-370 -5 466 34 0
-409 -172 -392 396 0
355 430 -237 -114 0
-164 -395 391 -357 0
-396 -171 393 291 0
-173 437 -183 293 0
-86 336 -91 48 0
413 -28 -122 -121 0
215 207 356 -240 0
235 448 -330 -223 0
373 339 370 188 0
-436 338 -30 263 0
-9 -333 397 20 0
-375 -89 -264 332 0
-139 -180 -92 -462 0
-5 -334 46 -82 0
146 -341 -82 44 0
149 -357 -400 -21 0
-342 -44 346 215 0
-405 -303 472 -126 0
126 -485 198 377 0
-158 -157 444 -310 0
-257 -230 343 270 0
-202 293 -95 -345 0
-433 -438 -71 -474 0
-249 345 494 -405 0
-454 -202 268 487 0
-398 -486 -115 236 0
296 348 242 -175 0
293 -286 327 -485 0
-375 -61 289 159 0
-132 -344 234 248 0
214 199 396 -323 0
6 -127 -463 56 0
-442 -155 373 42 0
-399 -46 450 -217 0
-195 244 -15 20 0
-273 467 138 242 0
-59 -388 346 264 0
-286 -371 -13 103 0
-230 -488 -373 469 0
284 -279 -176 -342 0
69 67 -47 -117 0
242 -290 207 -314 0
-357 126 374 285 0
-107 148 289 -369 0
142 -77 -399 -483 0
-368 -217 94 -129 0
-403 286 -101 -374 0
-174 -393 -310 478 0
-403 -498 409 417 0
-139 367 -491 -432 0
125 -206 486 105 0
114 -300 408 48 0
-177 -8 197 319 0
314 329 -449 102 0
-100 177 -31 299 0
43 490 -423 25 0
-74 466 -299 291 0
-164 -404 141 -333 0
476 -103 66 -435 0
486 16 -143 247 0
10 -124 -195 -92 0
404 67 -256 -312 0
481 74 -346 407 0
-68 332 -93 398 0
122 -80 380 -464 0
-496 -233 176 26 0
-346 331 -99 -120 0
-461 437 -153 218 0
-37 -404 330 -8 0
-493 153 -2 365 0
11 46 -341 67 0
-109 36 -273 -236 0
83 -131 354 439 0
-200 -434 298 -116 0
-31 336 -227 -17 0
-62 15 -342 148 0
129 4 -7 -393 0
-180 341 427 -209 0
34 378 461 389 0
363 490 -155 -311 0
423 287 233 -415 0
2 -464 -415 -209 0
-202 -45 377 -144 0
-416 -245 344 254 0
222 277 114 402 0
-124 49 194 -24 0
46 -381 -203 176 0
-51 -257 32 -166 0
193 366 -377 40 0
26 318 258 21 0
467 70 -420 247 0
360 -260 -416 391 0
-450 -498 -95 347 0
-360 -60 -190 42 0
128 216 -185 431 0
-64 -137 -37 -94 0
-330 239 -376 -342 0
-78 -201 31 -204 0
287 -340 12 486 0
-237 480 334 314 0
243 -211 415 149 0
-391 -40 224 479 0
269 106 -149 6 0
-67 108 216 -337 0
-146 -14 28 135 0
-13 405 -297 302 0
255 35 -394 433 0
365 263 -159 451 0
-87 443 269 452 0
-132 362 394 455 0
495 -74 124 -398 0
-338 293 155 139 0
-335 -454 435 -263 0
448 89 136 164 0
-47 436 -169 206 0
-360 438 -35 -390 0
-384 325 10 -199 0
-148 400 -441 -224 0
-405 89 182 -290 0
251 -484 458 -130 0
394 480 -41 -183 0
375 -283 332 84 0
159 292 115 -334 0
-189 350 270 -495 0
-253 -336 420 82 0
-339 368 460 -364 0
250 476 181 -308 0
334 472 88 -403 0
289 -453 113 -492 0
460 66 254 392 0
351 97 -11 -142 0
360 328 444 -459 0
174 2 -234 -65 0
-281 -190 -479 20 0
-443 -166 -212 -191 0
70 385 134 -437 0
-62 229 151 290 0
421 117 99 -362 0
-180 -221 -499 128 0
379 -405 302 259 0
-236 108 -328 -223 0
427 -384 30 282 0
-433 -255 -319 260 0
-249 -271 -180 360 0
-50 -89 -296 282 0
-213 -321 -380 310 0
-455 68 141 -500 0
-417 -268 432 231 0
-395 -135 446 -362 0
-338 -25 35 53 0
128 -500 195 388 0
427 -130 22 308 0
-442 9 -467 265 0
396 167 307 281 0
-14 -120 -490 -333 0
333 -86 375 246 0
379 170 -416 -374 0
170 200 -291 -67 0
323 408 -459 -149 0
-237 122 497 494 0
-46 -185 -121 -331 0
287 -490 401 -60 0
415 65 -385 365 0
28 418 60 -66 0
-13 -295 258 19 0
-301 190 -136 159 0
123 -248 234 267 0
492 283 -409 440 0
192 290 -233 -255 0
-126 -359 245 306 0
-49 366 2 -273 0
285 -415 240 -272 0
376 258 12 -467 0
-34 61 -203 -146 0
-335 -315 -34 -237 0
-306 329 42 188 0
27 -140 -448 -337 0
-400 -395 258 -333 0
-195 -385 228 -75 0
-342 5 297 199 0
80 236 -429 -129 0
-379 -257 -359 -371 0
-109 -232 -240 -379 0
197 103 19 -118 0
134 -291 -155 -435 0
424 -309 -393 -152 0
-334 8 -290 -427 0
476 170 -275 268 0
-478 -176 203 -419 0
-474 -309 -451 -320 0
-467 371 125 426 0
-256 391 -388 183 0
71 -299 -5 -328 0
-377 -330 200 -324 0
-22 -228 -52 -151 0
353 -216 361 -230 0
88 -238 46 -341 0
-337 182 -135 -463 0
393 81 235 -342 0
-270 -169 49 225 0
-493 -51 -212 -63 0
477 110 -456 -407 0
-198 203 -303 10 0
342 -98 418 -361 0
-79 132 -248 463 0
-99 -200 61 409 0
-133 158 -459 -30 0
63 75 181 -446 0
-12 97 -491 143 0
-215 315 362 298 0
-115 387 -269 -121 0
409 351 228 19 0
393 113 -283 86 0
-179 -419 -72 466 0
-170 -425 127 -192 0
-297 -317 -251 -447 0
-140 -293 -119 -266 0
213 287 360 -159 0
-58 105 264 -393 0
451 -443 -178 -128 0
37 -282 205 476 0
60 152 -172 -284 0
207 183 -279 11 0
37 -379 390 417 0
-333 463 86 -82 0
108 -483 40 -361 0
338 -192 35 273 0
-466 -169 150 268 0
199 311 -14 140 0
-434 433 -330 291 0
-455 438 -198 -95 0
-481 -233 15 -404 0
189 -473 -395 -13 0
13 -229 -471 -472 0
4 -299 -232 -146 0
477 -141 -277 -290 0
456 -132 65 465 0
9 339 409 -80 0
-284 327 -395 -302 0
-85 429 -491 -454 0
-451 -340 -181 302 0
-80 348 280 207 0
-470 265 -311 -188 0
190 -252 286 361 0
76 -267 132 299 0
248 -66 -257 383 0
295 249 322 -291 0
-20 215 297 382 0
243 244 314 449 0
-337 -205 106 336 0
151 18 283 35 0
491 -207 369 86 0
-136 144 284 115 0
289 -425 105 -427 0
-52 -192 177 421 0
24 128 -20 141 0
9 18 458 -95 0
-349 484 286 344 0
490 115 -382 103 0
-206 -480 374 361 0
-82 -226 301 -249 0
154 324 328 -439 0
312 -115 -491 298 0
-197 -294 270 -412 0
226 -406 -35 -230 0
-392 424 -270 -461 0
298 189 203 -364 0
172 -480 373 16 0
-321 -97 255 -71 0
-245 -171 -455 -131 0
-46 -430 -496 -168 0
-198 310 20 214 0
-153 -438 429 51 0
444 -394 387 -169 0
-251 -481 281 495 0
247 459 323 186 0
251 -87 8 264 0
489 -494 -306 371 0
-227 304 -17 -348 0
-67 152 -335 219 0
238 -464 -197 -154 0
-127 271 435 319 0
-318 -101 -204 -104 0
-187 -69 379 -258 0
-355 86 55 -305 0
-449 -465 404 -433 0
-257 234 -301 -160 0
30 472 -285 -205 0
-18 447 389 145 0
-135 337 439 -428 0
75 -313 451 493 0
-406 301 -446 -92 0
269 -436 300 -429 0
193 -194 -83 241 0
91 65 -369 99 0
-79 -200 -276 -450 0
235 -125 -486 12 0
30 4 -345 -260 0
-439 -327 432 -429 0
450 -420 127 -314 0
-488 337 98 226 0
-6 77 242 127 0
-434 -185 -7 -452 0
440 22 330 320 0
182 -202 -333 431 0
-11 429 -487 24 0
162 -263 -352 -454 0
453 246 441 47 0
299 106 89 467 0
270 -248 -108 -486 0
-57 -404 -354 -171 0
61 320 -97 -73 0
111 -273 -489 226 0
-289 384 -497 -405 0
19 -26 80 202 0
362 -145 -16 389 0
-152 -175 482 -244 0
352 -309 -294 -263 0
160 178 286 469 0
365 253 483 444 0
-395 191 445 156 0
105 86 -52 318 0
-232 238 83 127 0
-199 286 423 290 0
406 -72 -192 -137 0
14 381 -176 -482 0
225 92 442 -112 0
-469 -413 -165 -285 0
476 188 -38 -119 0
-101 319 496 -290 0
189 449 -463 -156 0
-272 406 -318 -432 0
163 -340 343 -15 0
-149 -135 -199 -421 0
-315 173 497 -70 0
-349 139 -490 219 0
31 286 499 -497 0
-366 -117 -151 -454 0
-456 -110 161 -324 0
-349 187 -80 17 0
-149 113 379 -412 0
-497 -297 -325 394 0
-393 65 -486 -135 0
368 261 -465 52 0
-485 140 -143 6 0
432 -467 319 474 0
-72 -413 468 -167 0
-137 -39 -471 -227 0
81 -380 -214 -200 0
314 -335 -282 499 0
164 -286 -485 -291 0
-139 -405 91 306 0
353 188 -328 -330 0
-109 -388 417 -391 0
-120 418 370 366 0
143 116 -493 456 0
336 353 329 350 0
382 53 -288 -490 0
475 -22 367 328 0
-47 377 294 110 0
144 199 -264 -330 0
157 -455 17 -82 0
335 175 -237 -177 0
-249 36 -277 -243 0
-300 -225 -39 -301 0
243 -272 -65 32 0
-483 278 442 150 0
-385 477 399 -176 0
-57 216 328 -81 0
254 -277 465 102 0
-98 -184 400 110 0
-172 497 -397 225 0
237 434 259 -479 0
200 246 495 -208 0
270 -416 71 368 0
170 -432 274 -66 0
-151 -414 -320 148 0
218 473 -489 182 0
289 6 -46 -302 0
304 -8 297 149 0
156 170 -432 -51 0
-365 -402 453 -232 0
-270 302 -398 286 0
272 376 261 -432 0
-64 328 221 251 0
307 -270 -38 -49 0
-211 -60 -70 -472 0
230 397 410 -52 0
245 80 73 490 0
152 188 -240 -212 0
6 208 157 275 0
390 43 433 163 0
-212 -336 -386 -47 0
-490 102 -416 450 0
-223 441 -462 434 0
-85 -372 -365 110 0
-385 187 204 271 0
269 243 -286 255 0
458 311 472 238 0
-402 -113 476 190 0
372 -483 365 -266 0
-90 449 -321 288 0
-97 211 126 -461 0
474 -65 296 388 0
-265 -146 406 328 0
-379 -162 -400 193 0
247 -22 -209 -65 0
317 262 478 -72 0
397 280 372 356 0
-12 268 -452 -373 0
-364 -114 -66 410 0
-11 -55 466 -460 0
128 -308 -295 18 0
244 309 316 -486 0
418 -312 -225 30 0
-283 38 -344 -426 0
212 -277 -367 69 0
-338 116 -343 147 0
-304 -149 181 -309 0
29 46 -434 -328 0
-231 -143 312 197 0
-138 -247 363 123 0
478 363 -218 -144 0
-145 -269 473 486 0
1 -86 121 363 0
-24 222 -436 -73 0
350 -85 -431 313 0
-117 351 353 -139 0
-129 296 -45 -118 0
-323 174 -103 108 0
139 -381 421 296 0
201 479 290 219 0
-144 36 -307 79 0
-252 468 -124 -144 0
462 -266 44 492 0
369 -291 254 459 0
312 273 456 159 0
207 459 -124 145 0
-452 -263 285 71 0
263 454 -212 -70 0
-448 192 389 -263 0
-430 481 -154 -302 0
100 -123 -348 265 0
-66 -347 323 -439 0
-42 148 330 447 0
431 -453 394 306 0
350 -418 42 -380 0
-407 225 429 -392 0
-265 152 -70 408 0
76 -454 70 323 0
147 294 -296 104 0
406 50 381 219 0
28 380 241 -320 0
-393 -126 -246 339 0
28 -52 -206 4 0
460 113 -484 197 0
-250 370 -71 -212 0
348 -169 -140 380 0
329 -17 -85 111 0
-101 289 -148 29 0
135 400 492 -412 0
105 -310 -221 363 0
-231 245 318 267 0
246 -171 283 271 0
488 73 431 263 0
-137 -18 -211 -167 0
-362 -418 176 -101 0
-200 -217 -35 -373 0
-55 -362 347 -98 0
-322 -280 189 226 0
322 81 -96 63 0
-129 -305 130 449 0
-481 72 457 -397 0
86 495 298 -251 0
126 -480 -131 -195 0
-29 -367 -2 36 0
73 -436 186 -273 0
121 41 -182 -191 0
312 -48 -277 -282 0
105 54 377 342 0
228 -32 146 215 0
89 -234 -489 -432 0
-224 380 -90 65 0
445 400 -162 137 0
366 -64 97 -273 0
-108 -210 116 11 0
-379 434 206 494 0
-190 -51 201 3 0
-425 375 390 -91 0
99 468 130 -103 0
392 293 106 -261 0
145 -155 -96 -84 0
-356 -163 121 348 0
79 162 345 454 0
-147 -33 -330 -472 0
437 -476 -61 -44 0
426 200 220 -147 0
-240 340 -360 -246 0
115 153 289 159 0
-265 337 -433 164 0
-493 -158 -44 182 0
381 -289 454 128 0
-346 -119 -469 120 0
442 269 65 -2 0
-285 -500 -89 395 0
-85 203 295 388 0
281 326 -352 41 0
132 -171 30 -493 0
312 -13 -214 94 0
-402 487 249 -77 0
-66 466 -265 -329 0
286 -357 234 208 0
397 283 305 310 0
-25 -102 465 -370 0
492 35 83 -367 0
262 364 344 -136 0
65 113 -421 -274 0
-227 293 214 -122 0
278 34 55 175 0
270 -459 -81 -14 0
-234 165 -207 -249 0
205 -206 26 367 0
-199 -167 -434 20 0
455 426 -117 -414 0
-41 459 -207 464 0
87 -400 -438 -311 0
-254 364 -376 -275 0
388 -279 202 -141 0
-53 232 255 -188 0
-404 57 -9 -467 0
447 219 -236 -279 0
-462 -288 -301 127 0
-479 -228 155 -41 0
-1 350 372 -498 0
-473 36 -202 -411 0
-70 483 151 -217 0
-248 -331 404 -243 0
484 -268 -121 186 0
-250 -424 -384 444 0
467 52 -314 351 0
-151 18 -6 44 0
325 457 -313 51 0
-25 24 -386 -401 0
216 -357 -302 -457 0
-79 -183 185 -203 0
-173 2 -138 432 0
-108 194 -167 381 0
-421 -461 256 -252 0
-204 -341 34 -317 0
498 163 481 -292 0
417 318 77 210 0
-375 -469 240 304 0
-236 -411 -203 278 0
-162 -404 -252 -213 0
190 64 -325 -467 0
342 304 -418 -192 0
264 -414 257 -259 0
64 -88 296 -420 0
100 16 -485 121 0
118 492 131 39 0
445 -319 -259 -246 0
-61 301 -279 -243 0
9 339 193 358 0
-265 92 313 -358 0
-236 133 -91 -410 0
-399 85 -307 -480 0
-279 415 457 355 0
-301 -137 239 321 0
-446 -329 -284 89 0
104 -491 -223 -125 0
-383 -234 -286 -135 0
329 -380 -314 -99 0
-62 -11 -272 -323 0
458 -498 -364 -433 0
172 46 -57 468 0
343 403 395 -286 0
163 52 -266 -199 0
489 -344 35 -85 0
-306 -317 216 80 0
-449 -424 -144 276 0
29 229 -387 87 0
458 490 -180 497 0
183 291 -487 -373 0
-474 -296 396 352 0
-368 322 320 314 0
283 -498 -463 341 0
439 391 -426 433 0
461 453 148 -391 0
-413 220 -242 -155 0
-32 126 337 168 0
430 303 276 160 0
9 -111 -149 -32 0
312 -487 -314 46 0
150 -352 415 263 0
-61 268 -110 75 0
-422 140 -174 1 0
-223 -67 101 73 0
326 -62 343 251 0
431 -435 51 -222 0
496 -66 478 91 0
71 -145 353 -496 0
-384 -8 458 -20 0
-312 184 -7 -263 0
-462 -52 286 -336 0
380 -335 -276 -15 0
-169 -423 -324 150 0
168 326 465 229 0
-170 -277 -133 -15 0
-442 451 180 9 0
308 -313 54 60 0
-113 198 -373 39 0
63 -323 135 -277 0
-305 -488 -460 -77 0
-394 87 146 -63 0
210 382 -83 172 0
-106 216 191 186 0
461 145 28 410 0
198 91 206 -83 0
-477 -481 -97 -226 0
-280 -62 -477 231 0
58 154 -211 -386 0
-138 329 347 8 0
134 324 -203 -345 0
-127 -422 174 244 0
-428 -375 -302 -473 0
477 -213 -198 103 0
20 277 -113 310 0
256 -265 402 299 0
299 237 338 208 0
484 458 -205 -488 0
483 375 169 125 0
120 483 -190 173 0
436 -255 -248 83 0
-15 320 -309 -279 0
88 298 373 379 0
233 421 434 -81 0
-346 -228 -257 466 0
426 -399 309 48 0
44 -100 -371 -307 0
223 -424 144 -399 0
-239 -394 392 -162 0
100 476 -111 -286 0
192 199 143 -341 0
-105 208 182 237 0
-10 194 258 -90 0
410 -487 -298 -447 0
-458 371 -450 -201 0
268 189 -323 20 0
-244 -288 184 -92 0
-295 351 -47 -86 0
37 -12 118 158 0
-63 130 93 224 0
197 235 198 -84 0
-317 -205 183 265 0
-479 -420 219 233 0
-302 -216 349 86 0
385 368 423 -35 0
-87 -209 54 -155 0
-153 -341 81 479 0
329 -285 -206 159 0
303 67 -50 47 0
-144 234 32 18 0
-330 210 65 195 0
-471 -290 -350 -56 0
43 -298 392 85 0
181 -43 -174 -79 0
327 356 95 483 0
105 89 -113 153 0
325 -398 -362 -359 0
338 156 257 -109 0
207 370 -166 218 0
-101 211 137 98 0
-345 -94 360 -176 0
-36 111 481 150 0
-279 -174 -176 378 0
-219 -442 -73 -480 0
-260 -394 53 448 0
350 -159 -252 42 0
26 -229 -135 -128 0
370 -433 97 -140 0
234 -495 309 428 0
-90 240 250 165 0
82 -262 316 271 0
415 219 405 192 0
99 186 387 -274 0
358 51 -48 481 0
-333 86 430 282 0
245 436 76 -347 0
390 39 468 192 0
453 345 -401 75 0
444 -455 156 410 0
-436 -280 258 222 0
217 76 237 -395 0
-353 94 222 -170 0
188 -435 440 -105 0
-249 2 -499 -307 0
-315 245 -373 -261 0
251 69 334 -460 0
218 123 -396 87 0
79 2 -422 -151 0
189 398 -312 -250 0
286 -371 55 141 0
-417 -283 -439 64 0
-16 77 -123 421 0
-235 184 202 259 0
469 475 -344 322 0
-171 -121 -403 37 0
89 -311 316 -132 0
-273 87 -169 214 0
-266 46 -346 -36 0
-312 257 456 -226 0
-433 142 -295 222 0
262 -399 -138 -38 0
-246 -275 -417 427 0
-457 -314 -13 55 0
-32 -19 -428 -390 0
131 -73 488 -187 0
-148 -190 -235 380 0
411 498 342 181 0
-196 -386 -46 -492 0
40 278 -314 -92 0
-484 375 -347 -166 0
143 120 164 -490 0
165 -335 311 -406 0
-105 -158 232 -3 0
77 434 -10 -435 0
448 194 -346 -465 0
-168 430 -475 418 0
264 307 242 -300 0
38 71 -386 70 0
-297 -327 -260 -51 0
477 -385 383 -244 0
334 -102 278 -291 0
-86 205 51 -52 0
-48 316 222 -491 0
-497 -162 -99 -237 0
-436 -411 467 -463 0
65 -383 157 -209 0
-8 -75 -453 78 0
-147 322 -299 278 0
-175 210 488 266 0
323 312 -267 -188 0
-466 271 213 -497 0
466 216 444 -396 0
-284 493 38 -260 0
311 348 14 -386 0
455 357 216 -250 0
-290 -369 254 -132 0
-443 208 -97 -433 0
-192 249 -474 113 0
44 233 -407 -248 0
179 -187 -254 -97 0
-141 -27 -464 275 0
-279 402 -432 100 0
176 -271 -217 -413 0
264 453 -403 -170 0
-365 233 -25 -195 0
-53 54 214 -481 0
-17 -498 -283 -486 0
490 -454 82 159 0
469 233 194 127 0
-436 335 -290 172 0
331 91 -217 476 0
359 244 -254 48 0
195 137 -76 225 0
-209 267 -286 -384 0
-163 107 -328 442 0
-40 -125 25 282 0
-314 362 -224 41 0
-495 -20 -158 130 0
-215 -236 22 -320 0
-361 -199 -299 -154 0
169 84 -190 -24 0
459 185 234 -133 0
-166 165 134 145 0
222 -80 -372 62 0
266 13 311 -50 0
36 -474 -452 319 0
195 337 -322 446 0
294 283 -481 -251 0
-368 -233 -270 161 0
390 -289 412 296 0
498 292 53 340 0
174 166 -480 -113 0
28 452 193 -20 0
107 33 -80 -2 0
-346 116 -436 75 0
491 431 332 -112 0
-103 -213 291 -11 0
-392 -466 82 130 0
323 114 105 -5 0
146 -232 480 -422 0
61 57 -89 -405 0
-298 257 -220 458 0
-361 242 -453 159 0
7 316 -373 89 0
-253 -147 -173 -374 0
272 -338 471 373 0
241 299 -58 -457 0
-261 -492 -423 -106 0
-141 206 -490 -359 0
109 11 430 300 0
-470 -391 488 214 0
357 -308 -219 72 0
483 247 41 100 0
-488 497 -57 -439 0
-160 -465 411 489 0
-413 317 -370 263 0
-164 440 134 -412 0
183 246 -284 167 0
-438 155 13 -386 0
261 260 -212 434 0
-137 371 350 -260 0
36 99 89 -11 0
197 -225 44 27 0
238 174 -485 134 0
-481 -460 -138 -468 0
-492 177 150 -134 0
-112 -328 -191 474 0
-306 66 316 260 0
-83 192 413 -315 0
-196 31 -87 -83 0
335 -10 423 208 0
-395 135 -74 -279 0
450 -448 -23 161 0
-218 -453 19 -330 0
24 304 245 149 0
457 29 -319 -94 0
-279 -132 -475 213 0
-418 -68 -375 -244 0
6 -45 -422 438 0
-184 274 194 76 0
85 404 309 -273 0
212 -249 -16 -420 0
-14 -167 193 147 0
-73 -327 20 19 0
444 -148 245 -136 0
-487 335 -262 217 0
-441 -235 431 138 0
-21 383 132 -196 0
94 278 357 -337 0
-264 150 391 238 0
-32 324 -329 200 0
233 -486 64 -53 0
451 274 -330 -446 0
-152 247 -402 -496 0
181 381 -292 -236 0
-15 200 -470 354 0
-263 214 78 202 0
469 123 339 205 0
374 -478 -172 -456 0
-488 -413 -285 -215 0
-291 126 322 183 0
320 192 -101 79 0
-366 485 318 -34 0
222 -400 9 -369 0
145 -139 155 93 0
-357 387 326 -444 0
-344 488 493 -415 0
303 -452 -301 176 0
228 219 31 -268 0
422 -303 76 154 0
485 -232 498 -38 0
-62 -104 -340 -198 0
262 -80 -302 412 0
423 29 -190 -292 0
-13 351 243 -448 0
279 427 -371 83 0
71 -87 119 437 0
-472 -148 304 181 0
424 196 -284 193 0
-145 -144 -374 256 0
-454 -169 -159 319 0
99 66 318 221 0
256 122 -395 -68 0
-352 -163 -118 -419 0
-136 186 319 227 0
390 382 -480 432 0
-472 50 -436 -238 0
-23 141 -391 -392 0
94 155 191 -264 0
-474 -402 323 269 0
-272 -171 -410 444 0
159 -385 495 -272 0
-246 -38 418 363 0
-290 330 -139 -266 0
431 -212 191 345 0
-429 -494 -85 237 0
116 -2 -445 -13 0
-161 66 -139 98 0
-117 113 49 -489 0
-383 -451 -414 -392 0
121 -237 -45 -116 0
245 -272 -188 341 0
447 -139 443 -93 0
-27 -44 318 -481 0
-317 417 -439 34 0
-304 -497 -410 483 0
259 31 240 -462 0
376 -126 -484 209 0
-400 -36 7 333 0
-345 -218 3 -439 0
426 126 -115 -171 0
290 132 -277 372 0
-347 -315 31 -299 0
-99 58 -239 -481 0
-88 273 -396 -83 0
89 123 -271 182 0
206 350 -135 -134 0
327 -27 -182 -274 0
451 175 -251 -487 0
262 233 -336 -399 0
-38 441 424 -349 0
422 -340 -423 115 0
-393 165 330 -325 0
306 -130 -405 -239 0
479 -129 56 397 0
-113 433 14 -448 0
111 137 327 -151 0
-53 -309 494 200 0
371 -460 10 193 0
39 19 59 296 0
314 -489 384 139 0
-180 488 -451 60 0
278 -267 320 -266 0
293 -151 -192 14 0
337 -498 152 488 0
336 108 -285 122 0
-13 -160 -274 -376 0
-160 -448 -267 -303 0
-413 122 -370 125 0
-499 125 42 396 0
371 -295 451 -328 0
311 -354 107 275 0
-74 21 -296 -106 0
-361 -68 14 390 0
-327 313 -172 -197 0
450 325 64 -414 0
-89 -210 136 -134 0
416 40 50 227 0
332 256 129 -201 0
-495 371 238 440 0
297 -498 224 32 0
-488 -285 -249 -198 0
430 -381 -453 58 0
-494 384 -400 142 0
-431 27 260 -276 0
-310 177 -38 236 0
-499 457 -494 37 0
97 -367 447 -132 0
-374 357 267 -420 0
369 -351 -382 -106 0
367 87 -439 162 0
393 135 -36 3 0
-484 -347 -387 -224 0
-452 -190 9 -462 0
188 -159 262 -225 0
-88 32 -18 274 0
158 342 -35 -55 0
341 274 -322 181 0
-3 143 86 33 0
-94 3 161 -368 0
-221 23 3 14 0
8 272 428 63 0
-144 443 -221 -308 0
496 -64 -494 430 0
-279 -16 97 487 0
-85 115 -431 223 0
218 -200 33 370 0
-206 181 38 -305 0
-427 -384 -418 18 0
-117 -142 -308 -279 0
-275 -424 336 289 0
142 -260 369 -494 0
-166 410 -288 -387 0
177 -339 171 394 0
436 432 363 -243 0
267 -440 -394 -152 0
-343 -492 48 -465 0
16 88 119 -278 0
-190 172 9 317 0
-81 -457 221 -432 0
-300 304 299 -91 0
186 -339 366 -462 0
202 280 92 -163 0
-499 -341 -8 328 0
-258 -60 -391 183 0
-113 417 -395 -130 0
-464 -465 -12 -192 0
363 -486 -338 499 0
-499 340 125 212 0
436 -206 -451 47 0
239 131 106 37 0
-379 499 -364 90 0
-74 3 -372 -358 0
272 154 -423 309 0
14 346 -453 411 0
176 430 -14 260 0
460 139 499 278 0
107 61 -453 370 0
284 -31 -477 498 0
42 -192 257 -236 0
69 492 315 -413 0
-94 -219 137 188 0
81 37 254 -50 0
-194 -94 430 86 0
219 295 -479 107 0
370 -63 144 -337 0
-245 -130 -140 -465 0
-119 101 -227 -150 0
404 127 255 -313 0
193 -480 450 289 0
471 -36 -337 479 0
480 240 -243 -285 0
293 -206 -280 472 0
-349 256 -280 -21 0
-62 65 163 -95 0
137 209 494 -443 0
207 -132 43 -282 0
26 255 445 -407 0
-159 -86 -179 -283 0
-210 -459 -489 -237 0
-446 -199 -361 201 0
-314 -361 201 400 0
360 -483 175 30 0
274 -49 -334 -91 0
-272 -430 -329 -57 0
224 -187 8 197 0
136 411 128 -179 0
435 -345 -159 -210 0
186 -436 279 -353 0
-85 -192 318 460 0
-137 355 17 79 0
-255 91 -352 -16 0
-265 -499 -262 -84 0
402 355 344 480 0
-495 168 -358 486 0
42 -266 477 -6 0
-451 493 225 -330 0
180 210 -372 105 0
-182 29 278 -236 0
-268 -298 -472 373 0
-418 484 223 -365 0
317 -377 -10 -481 0
100 78 -377 -326 0
305 14 117 204 0
-82 -152 405 141 0
165 -488 -456 -424 0
424 -283 -462 -496 0
460 -285 -282 468 0
-336 130 36 316 0
142 375 -322 200 0
-185 -169 163 -129 0
444 -498 -26 -358 0
-457 -289 294 172 0
-432 286 387 175 0
-329 -458 344 258 0
-366 -230 -1 -52 0
-324 -51 -464 256 0
411 -309 124 -12 0
-373 303 450 167 0
390 -313 114 -205 0
-53 -251 117 -419 0
320 43 165 202 0
105 -113 -6 -241 0
-140 -137 -62 119 0
134 -314 271 -120 0
236 -125 -425 400 0
-77 492 299 4 0
429 369 -74 -192 0
36 490 38 -299 0
-100 -108 -318 416 0
-4 350 78 15 0
-397 -371 -279 -312 0
89 377 351 -498 0
309 -188 -365 -397 0
-162 289 -403 -234 0
-458 202 -379 -273 0
-161 4 -392 -249 0
326 -183 -117 62 0
-229 -155 469 475 0
380 -99 -310 -14 0
33 247 147 339 0
78 -1 418 -384 0
-43 -86 61 205 0
148 -352 -333 354 0
295 109 -18 -485 0
-60 323 1 -422 0
-392 85 -309 -101 0
278 -233 249 -203 0
248 -441 -47 392 0
343 -468 186 242 0
-390 59 424 -298 0
490 -219 109 -182 0
-440 -170 -320 460 0
-268 283 469 -173 0
195 -500 -65 148 0
69 -158 -173 396 0
228 131 -54 -497 0
-401 -331 -123 -415 0
313 -67 -397 -219 0
474 318 -75 -132 0
351 -222 208 253 0
460 162 -175 466 0
44 -238 -463 -490 0
-278 -131 187 130 0
-22 -250 107 -150 0
128 -393 -361 -135 0
-288 -311 -203 66 0
-302 264 -472 -149 0
372 -460 -146 -461 0
-183 52 65 437 0
111 64 119 -268 0
-200 -52 173 195 0
-77 282 169 99 0
-58 -77 -202 449 0
-439 -274 -489 450 0
-382 41 -175 486 0
24 347 -120 -447 0
91 457 -318 281 0
164 -9 -227 433 0
99 104 -426 -295 0
303 450 -387 -493 0
-78 326 415 -90 0
318 362 34 -204 0
-383 429 344 40 0
-444 -464 348 13 0
9 60 -87 -375 0
-158 -17 489 -231 0
-225 -469 282 263 0
371 341 -386 140 0
-162 -16 41 73 0
-350 -65 -139 -151 0
-230 29 -329 -236 0
-492 386 459 479 0
66 345 391 -469 0
-343 -98 -204 -407 0
-416 -93 -388 158 0
-291 136 -366 152 0
-497 325 -451 -275 0
-82 -41 -144 -87 0
68 -130 499 -233 0
425 45 263 283 0
-314 -28 171 442 0
-427 -467 -123 268 0
243 268 -319 405 0
-251 27 -350 386 0
215 -459 275 -411 0
-225 479 -49 -391 0
256 181 -218 268 0
169 394 350 -123 0
253 438 365 -260 0
214 207 49 -44 0
186 100 -466 -342 0
385 220 -50 -223 0
-255 -111 -315 122 0
-51 120 209 378 0
90 -26 -175 -123 0
132 476 64 -499 0
-8 -146 51 37 0
439 -423 -189 205 0
-490 324 -181 454 0
237 -196 -382 170 0
-302 20 -11 -173 0
-324 63 -189 185 0
474 444 -247 -312 0
386 318 -61 -273 0
-182 475 -339 158 0
166 -289 322 -58 0
-412 53 161 -103 0
475 268 151 35 0
-174 -87 -86 -105 0
-289 -171 344 312 0
224 -94 110 -463 0
-428 -446 -385 -427 0
-492 -360 -158 -186 0
459 131 -144 -277 0
458 351 -27 -154 0
-415 101 -334 214 0
-61 -437 -220 -140 0
-60 -306 -394 -478 0
-322 132 -351 -163 0
173 306 314 74 0
-287 90 -250 443 0
478 465 -265 -133 0
302 163 42 -250 0
-239 28 -305 -106 0
314 -271 1 -136 0
164 -266 320 -224 0
-136 -475 105 -69 0
-263 475 458 -398 0
-324 203 12 -315 0
-339 46 -274 29 0
-129 -91 -42 -268 0
493 41 391 -245 0
421 17 -319 270 0
-15 -77 363 194 0
311 -388 254 222 0
425 -225 279 379 0
-113 79 -382 78 0
416 -226 -151 -158 0
-486 -308 140 386 0
-314 -93 -453 -363 0
487 257 283 155 0
33 -29 217 184 0
-165 7 -43 361 0
459 -363 473 -118 0
86 201 3 355 0
-287 -215 452 -369 0
439 4 169 -60 0
360 -209 114 -92 0
-484 -206 -40 -61 0
225 -418 50 397 0
-446 -339 -121 489 0
389 -355 121 -288 0
-368 -83 -460 48 0
-445 -188 201 129 0
351 -484 422 -330 0
477 -55 382 73 0
115 255 10 -139 0
-190 -407 248 -157 0
-146 -313 343 410 0
-327 -255 430 -254 0
-158 -325 -178 307 0
197 237 -208 407 0
-325 -477 -466 -150 0
477 493 279 82 0
-104 -156 126 -10 0
-478 78 238 -314 0
357 496 265 -94 0
-9 61 -205 -215 0
7 158 458 490 0
384 124 318 -74 0
383 108 251 177 0
-417 46 -204 -384 0
-171 270 -261 -469 0
-127 207 351 -333 0
485 -315 -178 27 0
47 115 312 411 0
-129 190 -322 272 0
61 -462 -353 269 0
-435 -293 392 414 0
196 -169 240 173 0
-356 54 14 81 0
-318 130 434 36 0
-87 -48 456 143 0
39 181 -495 -349 0
-400 -486 267 -140 0
148 157 -213 400 0
-459 48 -301 480 0
-124 -443 -41 -250 0
-431 -369 -178 189 0
-312 76 351 -151 0
52 316 329 -411 0
-95 203 -246 354 0
334 -357 248 -378 0
192 -386 -208 -330 0
436 63 111 -157 0
375 129 462 -468 0
-58 -498 -486 -385 0
-311 -18 -408 335 0
-290 -205 14 -435 0
82 188 191 119 0
170 -378 236 -238 0
-225 371 142 -233 0
-54 460 380 -451 0
-210 -170 -410 -495 0
-232 -367 -182 122 0
70 -459 -169 40 0
-153 449 199 248 0
-7 206 -239 -238 0
-436 53 -430 481 0
-230 38 395 358 0
171 395 439 192 0
234 -277 322 28 0
-409 -73 -96 163 0
-297 -490 -434 242 0
437 380 140 465 0
-430 -76 -148 171 0
-389 328 -135 -13 0
-246 -23 -342 32 0
-294 -328 -91 -483 0
-471 -441 -110 -487 0
-312 14 -485 -289 0
270 155 190 202 0
363 -65 425 -420 0
-8 -166 335 -163 0
243 269 220 -114 0
-492 -55 -433 135 0
249 -169 -400 -99 0
303 338 -333 -473 0
87 -77 -304 287 0
-258 -463 214 277 0
-489 209 -48 -256 0
38 -82 324 -226 0
-180 -449 196 -490 0
-487 413 296 -294 0
-458 -92 345 336 0
-497 27 250 348 0
57 -208 -269 213 0
-195 129 -294 292 0
-245 -116 422 -167 0
-237 -431 385 -199 0
277 187 -211 463 0
-348 261 426 74 0
-146 -42 487 -394 0
361 421 -375 209 0
-341 -398 245 335 0
161 -248 -112 260 0
-321 -193 360 139 0
218 -499 379 318 0
-103 2 424 -75 0
-61 -26 459 -238 0
-178 -248 -252 -49 0
-490 8 38 -472 0
410 469 -183 -116 0
357 -26 256 486 0
40 -278 -222 137 0
-493 -443 399 -329 0
472 -7 -359 -316 0
-436 284 -425 64 0
-35 -135 346 176 0
279 -377 -356 -144 0
-313 492 -397 -231 0
276 -91 242 326 0
44 -71 497 -355 0
-378 223 -72 4 0
314 44 317 143 0
12 -111 313 -236 0
408 220 60 382 0
-483 269 229 293 0
-411 -86 21 459 0
53 -447 -17 -352 0
-483 175 -273 18 0
251 313 -334 331 0
493 445 108 -301 0
-217 175 130 -64 0
236 168 484 398 0
185 300 14 -151 0
-97 -433 65 -89 0
366 92 -326 -365 0
65 -324 39 -84 0
262 420 -42 152 0
-417 352 160 45 0
-424 127 -214 14 0
113 -314 -137 -491 0
-252 101 -398 -433 0
221 81 -148 -160 0
332 58 56 -445 0
-474 -240 -257 -63 0
-183 175 -251 62 0
254 -216 108 -356 0
-4 -107 263 -241 0
-77 142 334 221 0
-317 -220 -388 306 0
-339 -13 -75 -387 0
370 -368 -325 -24 0
-168 109 -481 -44 0
89 473 131 -421 0
402 382 410 420 0
396 -272 -493 478 0
-321 -246 -499 -199 0
191 389 -372 -353 0
-39 -158 341 -497 0
450 428 159 2 0
217 63 -14 293 0
-226 -286 -248 -213 0
149 200 232 -440 0
-54 -192 55 443 0
296 166 -125 -59 0
469 -90 -251 -455 0
85 -131 -113 193 0
307 80 187 -259 0
315 -248 113 -429 0
84 -415 466 280 0
-78 -363 -175 45 0
67 -200 101 360 0
-61 -420 359 -314 0
-190 -9 -111 -201 0
-418 -189 444 48 0
460 158 -293 357 0
310 -379 -205 -481 0
-213 144 -183 486 0
-35 4 -237 -456 0
-243 -449 76 421 0
50 81 -304 -433 0
-123 -455 -143 -256 0
466 275 -462 -391 0
-104 -290 434 -417 0
37 -336 397 179 0
167 -180 154 -344 0
69 -129 424 279 0
277 -161 -54 419 0
-258 10 152 35 0
-209 -255 354 -464 0
396 -478 -270 104 0
121 -52 -276 -326 0
-432 -362 167 149 0
-251 -148 140 384 0
-302 -249 -485 -423 0
263 403 -247 -304 0
-388 439 -109 57 0
-226 191 -335 323 0
91 298 395 22 0
196 -294 57 346 0
3 224 480 249 0
-400 -289 -228 470 0
-114 383 -249 312 0
-374 45 101 -493 0
401 457 -166 395 0
387 -108 187 41 0
-18 119 26 -415 0
174 -212 -307 281 0
373 448 398 -236 0
386 -128 363 488 0
-462 -388 -24 -466 0
236 148 -120 150 0
