c 5-SAT formula
c 1000 variables, 4000 clauses, 5 literals per clause
p cnf 1000 4000
-951 -467 -942 825 -212 0
-798 862 920 587 -671 0
320 -476 528 -862 624 0
441 480 -579 -42 773 0
-878 -766 -311 148 509 0
-785 -514 369 382 -169 0
-907 112 -683 737 1000 0
-49 -167 -149 -966 454 0
87 157 -736 12 -450 0
-466 -974 741 98 489 0
395 291 397 -475 450 0
-611 110 576 647 369 0
295 -116 666 -860 -991 0
984 365 798 399 438 0
-335 458 -537 276 -182 0
-157 -355 61 -316 -412 0
153 581 -177 -810 -496 0
217 -250 203 -85 -799 0
710 -844 429 146 -397 0
-940 -94 -245 -692 -205 0
-396 -880 -869 -573 404 0
575 -455 113 -120 887 0
768 -649 -902 -135 244 0
692 749 -783 -456 -448 0
-859 -751 -434 -498 -63 0
327 -110 -783 439 888 0
932 -406 -12 -946 262 0
448 31 176 148 457 0
905 447 727 479 195 0
701 -640 786 239 526 0
-407 -67 -13 -763 -72 0
-33 -613 -963 -101 -126 0
450 -664 -518 597 521 0
580 -2 -232 108 -857 0
-638 297 485 663 640 0
-234 948 596 -987 956 0
-479 -6 -643 -769 -505 0
-174 -293 -802 409 -350 0
-848 829 298 -500 476 0
133 696 509 588 342 0
-514 -570 -596 343 309 0
481 -574 -894 -470 -630 0
-886 -628 258 190 116 0
-353 -89 533 978 272 0
-158 -258 -460 17 -828 0
-33 962 -715 -932 170 0
881 -606 -678 797 239 0
-397 319 -840 -441 -646 0
-401 -223 -340 118 39 0
731 -808 443 363 391 0
-981 812 234 453 -95 0
9 13 -893 -852 569 0
911 948 15 432 -337 0
659 585 -326 166 -264 0
874 115 -780 -468 843 0
-566 656 -561 346 -480 0
80 -77 -292 145 242 0
669 -981 895 -311 -150 0
694 -219 -138 -499 -583 0
-307 -492 -310 -875 -415 0
366 -903 724 852 -328 0
716 418 -873 207 -996 0
-357 -526 -555 773 -260 0
682 -122 42 781 -773 0
338 794 764 -811 354 0
-960 -483 -634 948 -186 0
65 117 180 -29 -299 0
4 -883 -747 -825 144 0
387 354 193 -355 444 0
-879 886 -294 231 367 0
-877 -310 -723 932 466 0
18 -607 -385 -964 -552 0
-229 -280 374 -187 -143 0
570 -120 -214 498 2 0
-798 602 -71 -535 -74 0
-900 3 231 -927 134 0
-473 -527 174 -943 -521 0
-879 946 779 -444 -668 0
-277 724 361 -677 -299 0
46 -107 350 679 647 0
-321 112 93 -215 130 0
442 -483 361 625 -548 0
438 842 594 207 447 0
311 2 695 -887 601 0
33 -767 -70 -959 -989 0
-929 156 -988 -61 358 0
90 -298 -383 784 -20 0
-160 -939 399 -1 230 0
-906 257 289 115 591 0
-744 -372 -159 992 242 0
-121 823 681 -100 -371 0
937 421 -631 692 -425 0
-323 447 -393 214 -294 0
-622 584 -259 -942 345 0
-813 365 -362 535 -134 0
-331 533 839 510 -467 0
365 -806 116 292 -447 0
829 825 655 141 783 0
-414 953 586 -958 924 0
-919 -928 -692 899 -154 0
908 772 -120 535 -503 0
763 -255 796 824 -737 0
-992 -955 -530 449 903 0
-729 231 759 -498 -699 0
789 -631 196 691 474 0
807 -625 805 -929 295 0
-419 227 886 -427 770 0
-232 -965 553 -228 405 0
-16 -919 86 397 452 0
-572 -378 257 -620 681 0
592 -332 954 708 714 0
760 -743 764 982 -433 0
-671 521 811 310 394 0
802 586 115 786 -949 0
-889 890 -599 -437 -802 0
-636 449 794 -287 -359 0
-742 -654 -283 -901 -443 0
-939 -362 427 -974 -674 0
438 -550 168 -393 519 0
522 953 -95 796 497 0
793 -301 -463 176 124 0
570 957 -542 931 531 0
793 -515 687 -305 310 0
753 -141 188 498 557 0
561 825 670 -983 -358 0
-884 987 -181 759 -694 0
875 755 -933 -390 919 0
252 -756 846 -915 -212 0
978 -375 719 -460 -83 0
-344 -205 333 -713 -507 0
401 -735 508 -100 395 0
-429 -354 881 750 676 0
-657 -901 -784 -779 950 0
67 -932 824 -48 680 0
-377 -412 -257 -624 749 0
343 144 -67 -227 30 0
-913 -219 665 -375 582 0
-815 -500 213 486 84 0
-626 -480 -767 519 -836 0
-211 -384 898 -284 -6 0
-688 -955 831 -164 -619 0
-894 -819 -10 -42 -870 0
29 -932 -106 307 -306 0
-998 -127 193 -220 522 0
-653 98 80 129 203 0
-392 -329 328 272 814 0
-675 514 966 -194 349 0
218 128 774 304 -99 0
17 -884 353 -405 -780 0
-516 -888 551 -17 -372 0
-560 707 555 -17 252 0
807 -393 278 698 749 0
113 -604 333 90 -362 0
-21 861 397 472 -842 0
-261 584 -70 764 -250 0
-703 -4 41 -105 -9 0
108 702 789 -453 222 0
-222 -712 -888 -305 -137 0
990 -333 -268 754 748 0
971 -49 441 -990 -953 0
-86 516 32 -246 764 0
975 177 -613 40 608 0
220 290 -902 -247 -778 0
69 535 591 859 -156 0
-517 501 -584 -761 -385 0
-752 471 69 -40 -204 0
932 -773 -297 -815 -355 0
-644 754 -687 -616 770 0
-965 938 486 753 -730 0
-241 259 550 -819 980 0
-115 46 -2 -408 522 0
-15 988 581 -120 -136 0
862 -827 -880 -560 777 0
908 571 413 66 978 0
689 -650 183 275 370 0
-913 776 516 983 226 0
-888 783 449 437 -592 0
-195 -783 551 -528 -466 0
704 904 744 -766 -607 0
-36 -562 965 -40 724 0
795 69 559 892 20 0
295 -552 332 706 90 0
-117 -613 -293 -12 760 0
730 -243 -421 409 -68 0
103 -450 -243 19 658 0
-37 775 790 330 324 0
-218 360 284 -687 -522 0
-521 350 -757 -475 724 0
-747 543 -271 43 451 0
165 -604 952 -982 -371 0
-328 142 857 -948 -535 0
477 -420 726 50 281 0
620 -232 -754 741 -938 0
-50 -924 780 -585 7 0
-865 -217 -653 608 -405 0
363 164 382 -40 874 0
-600 23 -803 -597 261 0
599 756 186 -464 -408 0
669 -763 591 -980 649 0
300 -614 555 472 355 0
532 -900 848 698 -86 0
105 65 -561 627 -355 0
-807 718 948 214 569 0
-924 -240 -349 260 408 0
150 -57 -658 -309 -720 0
-919 -409 955 -258 -912 0
-356 491 49 -542 -1 0
-284 474 405 -89 780 0
178 230 -630 -966 729 0
649 -945 646 738 -73 0
-146 -311 -718 -928 347 0
-393 -336 546 959 275 0
370 -257 944 -288 908 0
578 -704 165 -301 -341 0
-374 865 546 779 -88 0
618 -1000 945 -995 447 0
-488 287 114 -905 -768 0
763 27 204 803 214 0
1000 -446 -149 828 664 0
-482 237 -505 916 132 0
-950 406 476 688 -124 0
-593 -776 -307 995 -62 0
712 870 280 -862 -951 0
-604 44 -274 333 570 0
652 763 638 -406 -609 0
-103 870 -185 28 -629 0
925 -664 -849 137 -822 0
734 -909 14 -580 -303 0
744 620 661 850 -287 0
534 -550 127 -145 509 0
823 564 -946 -772 338 0
-784 586 663 -91 114 0
804 -755 -748 591 713 0
-243 -804 -497 -867 628 0
192 -960 -90 838 -576 0
629 48 56 -293 -903 0
-345 77 -731 657 -303 0
629 -395 688 -947 989 0
863 -224 -704 -179 201 0
-195 -869 -599 -739 -1000 0
-807 -58 738 421 896 0
758 643 137 873 -51 0
503 -783 395 878 -94 0
913 388 -418 624 932 0
-560 -458 -272 -153 147 0
-586 912 -408 768 332 0
937 276 -657 -423 148 0
316 824 -978 -7 -196 0
-292 695 -60 216 730 0
-510 108 838 364 -498 0
802 657 506 53 194 0
447 952 -138 560 -199 0
894 131 993 468 556 0
305 -621 976 48 -386 0
-937 921 -22 620 140 0
-172 -792 -634 -986 311 0
-773 924 486 184 20 0
-597 -51 -386 555 -1 0
394 -414 -451 234 325 0
-364 785 796 -220 -313 0
-356 437 -95 -467 -328 0
950 150 -396 -824 864 0
61 -702 724 759 -127 0
29 -616 250 -198 41 0
754 432 -336 -529 -161 0
-378 290 -434 -817 841 0
-648 -110 -229 -718 35 0
-878 612 -339 -836 -426 0
-29 -956 -434 -430 -924 0
-585 -828 -596 486 -182 0
-592 125 -325 749 922 0
932 -593 -873 -782 -829 0
772 -211 723 -467 -925 0
361 508 775 -315 546 0
-451 297 448 -854 -765 0
656 -803 -533 -928 477 0
480 771 -46 80 110 0
483 512 199 -116 -409 0
-792 -243 -545 676 196 0
-589 340 -768 471 77 0
-259 898 112 626 895 0
-341 648 -282 21 -979 0
-465 -904 667 164 877 0
120 -518 422 -223 951 0
-918 -253 758 -966 138 0
-570 -935 -954 -57 -937 0
-693 -206 -120 614 -704 0
715 -247 13 267 503 0
-47 -812 -756 232 -9 0
-346 205 -59 289 -885 0
-493 -914 -168 -554 -407 0
-245 -709 342 -423 82 0
622 682 256 -822 638 0
812 891 -876 404 505 0
-759 26 -877 755 100 0
-448 833 629 -1000 949 0
657 743 950 468 -431 0
640 -818 566 142 951 0
161 -240 8 -357 -948 0
-159 519 -433 -821 45 0
238 -27 -964 -85 391 0
-823 -53 618 829 -373 0
195 74 -819 -723 -40 0
474 -87 837 531 635 0
-671 82 -649 -751 -446 0
-863 -865 -528 -953 691 0
807 163 784 -131 781 0
129 -875 -682 -665 -8 0
-303 -392 283 -800 153 0
248 944 -998 -713 -347 0
231 -826 965 -586 -266 0
156 -756 -958 -566 -367 0
930 283 -634 -927 -233 0
744 748 -941 -432 -126 0
-109 819 235 798 948 0
-606 311 -891 -390 270 0
785 -157 -163 -701 -644 0
241 955 790 312 824 0
-31 702 308 307 36 0
647 894 742 265 -604 0
853 -733 180 -758 -912 0
-297 678 -298 371 -805 0
-511 -757 643 -283 517 0
-543 776 -13 -16 -423 0
-583 687 -947 78 258 0
-448 -50 -610 944 -738 0
-127 -343 37 372 -379 0
-638 446 851 -701 -552 0
19 -959 -130 2 -160 0
306 607 656 -516 -992 0
-630 -260 683 -972 -365 0
-176 -617 -242 -887 -307 0
-395 487 313 828 -51 0
-213 993 790 -659 -560 0
1 -709 70 271 968 0
39 -459 894 -765 -493 0
-851 -247 -531 877 -524 0
-683 -997 189 457 735 0
-401 572 226 -331 -350 0
-426 35 410 -414 734 0
-502 -634 -832 -534 496 0
70 -15 491 270 932 0
-926 31 -734 -221 537 0
-850 324 597 -757 -685 0
301 559 127 -487 -5 0
224 -419 -932 793 380 0
-767 -189 -827 364 166 0
433 519 -631 670 951 0
-329 -296 545 -823 -169 0
-776 -105 -861 -379 809 0
608 851 -396 670 -794 0
551 -740 -378 -537 568 0
44 359 -621 706 814 0
-914 -578 -620 804 479 0
-996 -882 -707 -772 -12 0
750 -73 -608 60 958 0
149 610 -338 446 178 0
675 -908 -181 -614 424 0
-245 -800 807 -7 835 0
-988 -90 -91 -936 529 0
-268 -637 731 -35 83 0
791 73 592 321 853 0
-442 -194 697 209 -747 0
-620 -139 -203 707 676 0
782 -959 568 956 791 0
141 487 -458 142 65 0
505 -498 -859 -703 608 0
644 -247 -291 888 194 0
642 -473 610 427 142 0
255 -958 -553 614 -367 0
-417 653 959 -975 455 0
615 -712 504 661 -572 0
-964 847 -414 -948 -775 0
241 505 -680 684 712 0
179 -955 -212 523 -167 0
-239 794 344 47 11 0
-974 -912 719 -343 391 0
-563 -79 -547 -616 -614 0
-873 -850 576 145 720 0
302 -911 171 653 979 0
-937 -311 -660 -534 -237 0
905 852 781 184 400 0
-127 -391 -577 501 313 0
-899 -600 548 -475 92 0
927 228 -941 627 852 0
495 -466 830 -186 -756 0
-914 899 530 315 -359 0
-139 -912 375 -45 -771 0
331 -879 -538 383 168 0
-540 -975 -528 330 -511 0
546 35 -621 -910 372 0
-50 -13 923 425 -996 0
-866 139 176 517 261 0
47 -31 549 -409 814 0
46 895 476 -8 -643 0
43 -54 -414 761 722 0
-810 -260 -359 299 -403 0
-265 -416 5 -885 825 0
723 712 -46 -238 128 0
-517 454 -496 34 -833 0
499 733 642 -505 -403 0
909 107 -658 957 596 0
-614 -669 -96 -507 -374 0
213 -831 216 976 697 0
38 -499 -815 984 357 0
-362 -951 -770 -810 558 0
-717 213 251 -731 -461 0
766 -237 -313 -865 101 0
113 -282 972 -134 805 0
-409 508 790 -803 771 0
-683 -440 -719 497 -646 0
406 -540 962 991 542 0
330 920 -99 -477 -64 0
436 -135 -619 -313 -597 0
-862 -478 -936 806 -485 0
179 -968 131 943 246 0
974 -119 -195 -777 726 0
-58 -856 397 -227 40 0
-33 -111 -733 -300 -858 0
-7 -189 -604 -430 -139 0
-370 -892 267 389 233 0
26 -504 590 -480 -437 0
420 272 773 939 104 0
-895 845 -523 -815 -838 0
258 -837 834 174 774 0
-679 685 970 -583 435 0
587 -303 -73 916 -62 0
-75 637 -261 824 -795 0
333 348 690 -90 -118 0
-941 380 357 812 841 0
17 -745 -772 179 843 0
72 -554 -19 -273 862 0
-946 998 -658 457 -211 0
661 -934 618 -804 -423 0
889 -728 -760 -894 225 0
924 858 703 -40 -989 0
-731 -84 746 -241 -279 0
295 329 166 197 -19 0
343 934 749 561 -554 0
-628 -505 183 962 879 0
889 20 9 229 192 0
-277 -330 49 -242 633 0
-409 608 -440 112 -167 0
-468 261 712 510 792 0
263 463 -720 268 -907 0
731 737 734 -573 688 0
-245 -295 35 -829 550 0
454 -412 -855 400 -754 0
-557 -641 -754 671 148 0
601 57 245 -81 -507 0
-141 261 809 -344 -151 0
-688 932 -701 804 -84 0
-329 -818 -689 974 -683 0
-996 454 -92 -927 -378 0
702 -352 194 496 -109 0
-760 876 -130 -187 854 0
-278 693 260 1000 593 0
-404 20 615 -262 321 0
708 767 -453 857 -626 0
894 -88 -113 -241 -27 0
-278 -490 -140 467 423 0
513 89 -144 -825 -938 0
-647 -752 554 -505 -268 0
293 597 -217 451 -628 0
654 -108 -332 -769 776 0
342 -939 180 580 -418 0
328 -660 -367 -311 -464 0
493 648 -888 772 -509 0
62 -10 307 -875 -235 0
822 -41 800 -501 988 0
195 -704 -182 -732 207 0
380 -516 -545 273 995 0
234 -301 742 -711 -281 0
-309 -524 -319 -552 665 0
797 424 855 -376 -928 0
701 -655 -760 -992 -762 0
159 -222 656 481 17 0
-754 -581 540 -711 -269 0
401 -725 543 -646 -769 0
208 -662 -507 -281 499 0
-899 333 -449 436 -220 0
-663 -873 -414 529 -215 0
-46 -863 32 706 957 0
338 998 502 -198 435 0
201 467 764 -927 -811 0
220 910 634 -351 323 0
13 -772 -167 705 -419 0
-338 485 179 -475 265 0
712 764 -498 -612 180 0
440 772 179 763 -301 0
-473 -361 -521 -937 -96 0
716 196 -199 -341 406 0
-176 538 -958 -140 177 0
323 263 -99 -898 874 0
712 871 -627 -498 464 0
755 578 -241 -496 976 0
-223 768 -259 752 -431 0
546 337 -724 -57 133 0
-48 800 -927 -656 -885 0
435 753 -12 -687 -833 0
-372 777 180 434 -385 0
885 607 357 -653 -139 0
-126 901 233 -544 -597 0
954 -30 904 -822 826 0
109 191 700 -600 -788 0
833 804 -190 735 462 0
-859 -645 50 -638 322 0
-440 -540 -803 25 -249 0
637 160 811 -617 -604 0
-744 365 -775 101 -845 0
-287 -502 -746 -179 -461 0
-679 -965 646 26 -713 0
-726 -368 637 312 31 0
-882 -959 -914 -22 -599 0
659 -941 352 717 -207 0
-586 -767 877 -777 -956 0
852 -591 131 -482 834 0
902 44 -284 781 -711 0
-923 -715 153 -564 488 0
573 -206 -4 274 390 0
281 -964 805 731 -172 0
811 -869 665 616 -185 0
129 -496 -645 402 463 0
-217 370 -829 513 -438 0
-745 -16 645 -479 -430 0
-212 -859 473 874 -936 0
-339 799 503 -245 -387 0
18 -157 713 898 -942 0
760 341 -295 7 155 0
744 -577 -943 174 738 0
839 -759 -894 652 -860 0
142 -605 642 748 607 0
-377 -851 -598 123 397 0
499 836 -497 867 -204 0
336 417 191 -250 769 0
-715 -390 -417 737 -425 0
286 -457 -277 -578 -392 0
-798 439 -620 -677 670 0
995 -252 743 862 30 0
179 -1 -958 648 533 0
-894 -873 206 604 535 0
-644 557 591 -250 -866 0
-49 -742 240 516 -284 0
455 92 -241 966 932 0
428 -449 258 556 -427 0
851 -25 842 -12 -17 0
249 -998 193 944 418 0
-615 220 47 923 610 0
150 -962 200 488 -397 0
-912 -652 966 883 273 0
561 -963 -199 729 893 0
-5 383 -268 800 -925 0
338 343 743 -671 -355 0
-134 -190 370 -77 876 0
-779 -623 454 -396 -325 0
853 540 182 -476 35 0
692 -365 -155 542 -271 0
-370 -576 310 -279 665 0
-741 484 511 138 190 0
28 895 -682 -681 350 0
-682 -211 -161 -858 -647 0
-104 518 -497 -945 254 0
773 -145 365 -215 -681 0
717 725 -810 -130 27 0
-827 770 969 342 499 0
992 -153 359 -966 -424 0
589 214 -735 278 -627 0
-785 325 401 739 -890 0
468 -346 942 493 -330 0
662 -870 -35 937 211 0
572 364 -709 -301 594 0
-356 550 -503 -276 -935 0
135 72 99 402 977 0
-966 353 -71 -989 840 0
525 474 -225 197 -408 0
824 -782 -716 -634 -334 0
-855 -501 -413 141 -756 0
594 -59 680 -908 982 0
347 685 131 376 621 0
-294 923 -596 -865 814 0
65 -186 -235 625 424 0
892 345 -134 -309 875 0
552 -407 531 -37 400 0
-530 -238 -291 -848 945 0
-840 380 -526 -636 462 0
667 961 -782 401 -433 0
-598 401 -410 1000 -785 0
-419 467 876 786 -557 0
-927 316 869 933 -353 0
-453 623 -57 597 -435 0
-423 884 578 250 -814 0
324 946 300 -188 -133 0
-643 -972 936 853 -122 0
-494 879 -460 -827 -193 0
-186 -439 373 643 -850 0
739 59 222 910 284 0
-671 -646 828 353 72 0
-224 519 -362 541 -969 0
815 -437 -793 -475 761 0
388 -618 936 362 394 0
62 163 891 -8 267 0
-122 915 -660 -932 -590 0
581 -567 -623 -91 -651 0
258 303 -788 490 -795 0
944 355 -616 613 75 0
995 870 -769 -392 -797 0
-668 -236 -267 -843 938 0
-117 74 182 109 597 0
-754 735 -505 231 312 0
385 -819 413 547 -746 0
-690 158 334 -449 -831 0
-997 936 -39 113 923 0
395 328 -84 -673 -730 0
-460 -383 -673 638 653 0
560 896 428 168 -764 0
487 -223 -958 -733 234 0
-544 532 -474 -60 918 0
660 792 -38 976 -65 0
-417 982 -726 -266 358 0
-841 322 636 783 119 0
646 806 -517 -332 -918 0
189 616 -239 -734 -950 0
326 -957 870 -285 -747 0
651 421 736 142 -68 0
906 -931 978 -71 -922 0
765 -192 906 -35 -506 0
800 -992 33 -581 -879 0
78 563 -914 278 -380 0
-978 -949 -846 650 831 0
293 -478 -318 -142 878 0
-821 -140 -291 -370 -718 0
172 -746 -175 69 300 0
233 976 -19 -393 993 0
366 -241 -32 823 563 0
412 -772 50 878 656 0
-664 -182 -718 -629 777 0
487 -134 -722 944 -186 0
2 547 356 429 -176 0
83 -29 919 -292 378 0
606 -40 934 523 -491 0
-517 -570 651 617 319 0
854 495 -656 99 -835 0
-921 -376 -491 730 249 0
480 335 799 -789 33 0
478 202 796 -267 522 0
455 -300 -913 -791 -794 0
928 667 595 858 -36 0
837 774 718 177 -322 0
-32 -726 963 901 439 0
-315 -790 -848 496 149 0
449 316 -371 217 532 0
266 -403 -665 -995 122 0
232 -639 -637 336 543 0
124 686 289 844 -77 0
-15 261 102 689 954 0
-308 660 147 149 111 0
844 631 634 967 -917 0
-405 26 -358 594 -965 0
980 301 -737 850 884 0
-469 683 -110 -361 838 0
563 689 -908 -574 400 0
780 15 -366 422 -497 0
594 -418 794 344 -397 0
-135 256 -916 -161 -669 0
-993 -309 40 383 -349 0
-511 580 -539 235 257 0
736 890 938 235 -493 0
-961 982 774 565 -191 0
549 -77 866 335 278 0
628 -718 -816 617 -645 0
8 -943 -101 -104 268 0
13 293 -949 -963 -239 0
763 -332 -123 729 -300 0
-324 627 -299 692 -41 0
852 985 326 -904 -254 0
121 810 638 -239 -871 0
-896 -663 -769 -949 868 0
898 434 267 181 -868 0
-661 974 -64 871 550 0
64 -912 255 -590 152 0
-454 -504 487 98 631 0
-728 188 818 -442 745 0
976 -312 -944 398 -533 0
970 408 -143 -117 452 0
-554 -60 39 920 -519 0
174 -639 -879 -648 567 0
867 -179 -358 -201 -727 0
310 -133 540 -28 412 0
662 776 327 -353 -650 0
573 561 -733 865 -693 0
-665 -928 -46 -278 402 0
665 717 907 -169 -72 0
191 819 576 68 -461 0
-404 -480 -413 -762 335 0
163 -587 488 -23 712 0
637 -356 -294 -438 539 0
357 778 -368 490 -762 0
-76 -37 865 -852 473 0
-101 923 408 -66 570 0
-89 -505 -861 -748 39 0
-80 -272 -725 581 -341 0
560 812 54 73 174 0
402 831 -862 -224 700 0
-389 -183 -264 191 288 0
713 237 53 -399 -318 0
-116 -189 -550 896 -950 0
630 -472 968 -259 -774 0
-345 824 -618 -617 -133 0
811 613 598 -730 309 0
794 -766 506 -304 -340 0
26 845 798 164 -199 0
689 -427 54 843 610 0
-298 -73 -18 -411 -445 0
600 -651 984 -37 349 0
26 299 665 -71 839 0
-879 -116 -528 -103 411 0
-350 -575 -438 -618 -363 0
650 370 -389 -98 -647 0
-245 -736 -970 845 655 0
-777 -368 -557 798 -322 0
455 -494 272 207 -180 0
-565 899 652 -164 91 0
381 233 290 -143 689 0
85 476 202 830 -233 0
287 861 -789 880 -664 0
183 316 913 -908 -791 0
7 233 266 -587 -500 0
-64 -50 453 86 708 0
938 -864 -247 719 -945 0
-309 57 505 467 -948 0
-888 578 553 -405 -565 0
-937 493 127 -786 -642 0
164 -134 -152 818 916 0
-77 -58 -655 864 925 0
156 342 -798 543 -364 0
270 -545 -115 22 726 0
646 -674 950 253 502 0
-725 -598 158 -528 446 0
-136 -330 69 -169 -145 0
-873 -436 561 623 676 0
50 728 996 -452 242 0
751 -540 -981 384 -160 0
845 -774 327 52 492 0
755 -817 197 444 838 0
951 298 -645 966 782 0
-697 538 316 -637 -863 0
696 466 -716 -211 -360 0
137 191 -727 526 511 0
-575 -39 114 -958 926 0
728 160 892 941 -956 0
-418 36 -654 -40 845 0
559 -425 174 -152 -615 0
-846 -22 -54 921 23 0
-284 75 -669 257 -955 0
-35 620 -160 -761 -54 0
-703 -714 -136 55 387 0
564 894 421 -229 898 0
-242 -430 716 790 41 0
596 305 -579 -798 285 0
868 198 166 -878 -125 0
-912 304 579 -543 30 0
410 660 99 145 280 0
599 956 876 -970 860 0
631 -598 -771 -400 -678 0
226 589 -994 -794 -14 0
-903 358 -314 -707 -363 0
-499 -740 -83 235 -571 0
46 -346 -171 645 -859 0
263 -187 -558 -172 -109 0
-725 -166 858 814 947 0
-839 -857 335 -704 811 0
-88 618 -290 873 -49 0
410 110 -940 -756 868 0
924 -985 -150 -282 897 0
-728 -355 -65 284 -171 0
-342 646 325 766 940 0
-41 -189 -795 732 322 0
200 -701 -404 -617 446 0
-886 -354 688 787 782 0
-222 -310 890 -292 403 0
-485 -131 -469 -349 509 0
-835 512 823 -1 -74 0
-709 -892 -857 502 -474 0
363 59 460 -494 379 0
697 968 -843 -927 -223 0
484 -700 664 -164 -307 0
321 554 -410 -233 -221 0
-149 298 -594 -703 171 0
367 -342 464 -407 845 0
-624 -601 451 -512 -570 0
-387 -333 559 -925 -777 0
18 -935 119 -883 528 0
668 604 850 -763 -895 0
578 151 -138 -45 28 0
784 341 981 -610 -529 0
-491 -27 -963 556 -193 0
-674 28 830 -664 252 0
-26 -684 -386 545 541 0
298 -803 831 -6 -341 0
235 -445 -789 193 -450 0
471 612 -96 -15 -853 0
170 449 488 -539 -231 0
470 146 178 -669 -361 0
-39 719 -698 666 824 0
-554 -704 -766 -621 -522 0
-245 20 183 364 -664 0
-52 295 375 -822 -71 0
-796 -318 212 911 896 0
964 266 39 -366 192 0
-931 370 376 -621 830 0
-426 -74 151 -777 24 0
740 -837 980 599 51 0
832 787 780 530 -296 0
691 -57 -634 702 -848 0
-707 942 -66 757 953 0
-879 -95 560 -171 -326 0
138 -153 -494 774 -19 0
322 881 148 -694 755 0
-185 -670 -459 545 -283 0
-823 819 866 -69 -181 0
-748 470 365 754 -467 0
163 -131 -313 478 114 0
532 810 -60 838 112 0
599 -770 -471 -700 -164 0
362 473 256 -417 -361 0
-834 788 629 488 -624 0
-519 169 -575 632 709 0
380 -337 376 -521 769 0
-37 873 -124 -502 858 0
607 -575 978 958 693 0
-148 510 412 942 -818 0
678 799 704 991 232 0
318 418 -434 300 -895 0
481 -302 730 48 -80 0
-905 -619 732 -535 772 0
469 637 -155 962 397 0
341 755 543 645 -878 0
-395 -822 589 8 -427 0
68 -560 -826 -487 -631 0
306 787 -309 -555 770 0
855 905 -709 338 492 0
-945 444 681 -805 502 0
802 938 786 -478 578 0
-527 -914 -207 -269 145 0
715 -88 385 878 156 0
-107 790 -675 -225 -982 0
466 616 -629 461 969 0
896 -213 143 951 -460 0
720 -872 287 -58 104 0
-785 824 311 -100 962 0
-781 734 871 52 380 0
893 291 192 -596 642 0
790 553 589 412 -66 0
-833 501 571 197 -82 0
590 -218 -959 -266 -189 0
312 -901 937 -433 -469 0
-151 -175 962 -817 -559 0
310 -34 -483 -302 -915 0
-51 -648 -488 -276 757 0
-688 104 266 -460 43 0
307 -164 -620 602 403 0
-411 -54 192 -655 396 0
376 837 -760 -241 -774 0
-632 -570 285 -885 -534 0
-148 -867 -863 1000 813 0
-973 234 590 17 -249 0
-36 255 165 972 -528 0
860 -543 725 -462 890 0
91 722 -473 -816 33 0
-1000 512 34 -861 -330 0
685 927 -527 361 60 0
288 106 824 660 -529 0
537 -921 158 -553 -317 0
876 408 787 -303 -947 0
419 212 669 -642 427 0
-734 -765 783 966 -833 0
-526 114 -877 162 852 0
796 8 -132 -171 206 0
-835 -894 508 -408 239 0
468 405 781 261 680 0
84 345 -956 -766 -207 0
340 -414 -373 -449 970 0
636 -147 471 -74 -349 0
-692 27 549 -677 193 0
-461 -711 -644 518 860 0
292 -578 191 -156 -455 0
-740 -390 505 -267 -296 0
646 -202 -272 -606 -552 0
972 -285 -772 -245 732 0
-491 -608 -226 482 -576 0
-34 -812 -424 -178 591 0
517 681 329 -952 -409 0
-593 776 -679 754 -988 0
498 596 325 9 173 0
-81 877 537 -119 59 0
42 308 -781 893 -467 0
-620 -282 735 -994 972 0
666 88 -168 -450 418 0
-36 -649 703 -403 -836 0
40 -595 205 -709 412 0
329 -533 -280 684 473 0
-767 426 492 827 -302 0
-970 -724 -423 -633 -452 0
-784 -862 662 -370 299 0
-736 -865 816 345 138 0
691 104 -687 392 -377 0
-390 -578 -760 355 957 0
739 -491 -633 -656 743 0
-478 -456 -73 178 -999 0
317 452 -661 101 -579 0
-609 433 943 -126 -833 0
-766 337 -599 -119 274 0
536 -807 -214 625 -114 0
-208 -122 -444 -136 -443 0
556 -445 -927 644 -971 0
16 -165 -978 953 -222 0
140 418 269 161 -423 0
-815 173 -459 -313 -219 0
-448 78 -748 570 -820 0
-899 198 96 172 -962 0
667 140 -983 840 287 0
601 -130 -841 -742 -218 0
790 -191 866 -425 502 0
851 293 707 869 304 0
488 -396 868 387 -414 0
-545 -834 938 -154 11 0
-391 548 553 -594 -787 0
323 -314 347 -815 494 0
632 400 -612 820 -60 0
-699 -899 -926 -982 -379 0
-774 254 -577 117 106 0
764 5 250 -520 410 0
-401 870 321 -968 -641 0
384 689 -50 -815 383 0
424 -800 542 -664 -454 0
363 507 -683 650 -695 0
-155 342 479 -615 -430 0
645 -890 -238 -832 703 0
657 303 154 -421 -929 0
-33 483 994 -862 250 0
560 -669 -84 718 603 0
879 516 -188 -725 -685 0
540 854 771 701 -433 0
-920 140 861 370 557 0
-182 -451 -361 503 -852 0
348 577 231 243 328 0
810 -843 -907 456 -985 0
398 -134 649 337 -99 0
-352 872 -596 -112 -372 0
-595 -499 -959 862 109 0
-853 41 347 -151 -903 0
-735 -713 402 -898 -998 0
118 31 580 884 -988 0
172 358 613 -732 203 0
-841 -611 148 -605 -151 0
596 199 -913 386 930 0
89 -780 -596 932 251 0
265 590 -935 456 929 0
-100 248 796 -481 -988 0
429 -310 -330 757 711 0
809 62 238 857 -65 0
-687 -989 -634 -820 -214 0
-384 -6 -747 322 -429 0
932 439 43 242 -738 0
791 991 839 935 -694 0
-385 330 -65 -473 -938 0
703 506 -957 538 248 0
-503 -392 -833 -893 862 0
198 943 -545 -258 -211 0
402 291 -530 544 681 0
-617 -696 781 -147 942 0
57 322 -62 -511 762 0
-534 622 638 315 -633 0
118 559 844 -576 552 0
-370 653 352 -310 -942 0
126 329 -379 -391 -566 0
454 -591 -794 547 -120 0
-488 595 83 -438 -365 0
-430 -842 -904 264 452 0
176 -418 876 -877 724 0
221 -926 -289 -435 597 0
789 -153 534 612 613 0
-721 -408 -3 874 -665 0
-167 977 346 377 -731 0
382 -420 896 -543 -765 0
777 -873 389 -742 177 0
817 -344 -170 295 962 0
-165 614 -980 912 815 0
-906 756 682 -430 1 0
920 -923 468 -175 -532 0
280 70 -945 -478 -662 0
-876 33 -955 -420 -103 0
-209 -288 -688 249 316 0
-888 -337 -918 926 228 0
-659 -265 14 -798 -612 0
311 697 -703 796 -627 0
72 -114 359 932 -45 0
-802 436 -409 -976 -148 0
-683 987 -940 -982 -202 0
416 -345 623 -600 -388 0
775 -360 -395 314 -719 0
-165 80 33 538 5 0
963 992 534 -585 698 0
216 252 658 -174 341 0
-289 900 589 666 19 0
-943 -819 513 -739 -970 0
-530 568 532 -122 447 0
80 629 -205 254 -792 0
834 -353 790 -695 -427 0
-829 -232 81 -608 800 0
-125 174 -991 -545 481 0
209 395 -946 -940 -709 0
-88 -586 469 207 428 0
536 902 849 -502 31 0
-753 8 -261 -911 -270 0
839 111 -90 378 -501 0
-726 5 540 -165 -598 0
-222 -586 617 -410 742 0
540 547 -532 260 -170 0
-442 -637 245 718 -535 0
-505 830 -920 -767 -604 0
328 -343 670 -252 -531 0
960 -327 -666 493 102 0
-140 -402 -130 367 -993 0
897 -701 -748 492 54 0
-31 775 969 -940 399 0
395 -741 -929 885 494 0
-621 3 -313 -681 112 0
873 28 910 566 792 0
-482 908 -909 417 728 0
-658 -88 -484 -681 -121 0
33 -654 453 96 -179 0
165 815 287 93 -633 0
-342 -3 933 824 439 0
-912 -979 -245 875 -516 0
232 186 -692 -931 253 0
-327 744 -52 240 699 0
-564 570 -184 -952 559 0
-578 189 551 196 720 0
-596 -525 563 717 867 0
-604 -628 165 796 571 0
387 -874 143 493 -403 0
161 922 736 -836 879 0
-68 -317 322 299 -811 0
-472 -109 654 717 306 0
177 -736 -370 -828 662 0
-559 816 -854 -969 -4 0
-77 459 820 -449 638 0
396 847 -333 -67 309 0
562 -727 269 768 631 0
-476 584 -931 -59 450 0
-303 446 -519 -825 -661 0
431 -430 -209 979 -530 0
-355 568 783 319 464 0
854 -501 882 341 -60 0
267 -708 648 -497 -381 0
978 459 -177 -165 673 0
-804 -239 -859 254 867 0
-531 63 19 -711 899 0
993 184 -862 59 801 0
322 -694 -372 318 112 0
-778 -844 853 221 558 0
-617 72 -685 -806 -665 0
-197 -398 838 -441 43 0
903 -684 960 -68 8 0
-989 -577 -127 907 426 0
759 80 -94 -709 774 0
-341 417 677 -247 266 0
-329 -463 234 52 -580 0
-659 544 -923 124 -778 0
354 -91 489 187 -380 0
-535 662 206 -540 -28 0
-524 -192 901 -98 926 0
-519 -557 582 647 864 0
-380 838 919 -356 -67 0
330 -367 714 316 -777 0
-876 626 -184 -948 305 0
944 258 435 -66 -202 0
947 -429 372 545 194 0
809 -677 -681 816 -551 0
-903 -16 92 -956 -443 0
-861 -954 -51 -184 481 0
530 -475 -62 -589 -706 0
-618 -326 762 -429 -430 0
-639 -133 -670 936 770 0
-690 637 -611 -16 515 0
284 404 82 780 628 0
-141 694 995 -651 873 0
44 177 -976 -849 -523 0
-698 -685 -419 -534 -289 0
205 889 -521 793 620 0
-160 -343 884 581 -150 0
344 532 -364 652 774 0
924 76 -523 906 -102 0
-450 -358 -719 642 634 0
-753 684 -212 956 -721 0
10 -204 785 41 95 0
-563 -304 543 95 -816 0
140 -757 -419 -700 -38 0
94 739 108 310 -5 0
-850 -754 433 105 -871 0
485 763 -992 -484 -281 0
768 -255 -376 -972 863 0
-207 1 -229 -161 -629 0
-229 736 -976 93 -630 0
-723 470 -66 -217 455 0
-371 270 648 -756 -424 0
204 -417 -11 79 299 0
-854 738 602 280 865 0
300 870 -366 -697 -58 0
5 -42 513 387 -708 0
-809 227 700 258 528 0
456 700 760 804 833 0
200 115 101 -334 -260 0
818 869 61 567 -536 0
492 647 789 -760 921 0
-976 600 -30 655 721 0
827 -337 922 -77 663 0
-338 69 -526 665 -865 0
-792 489 -613 931 172 0
117 226 737 -599 850 0
641 -658 630 398 -922 0
-407 -988 -378 -586 756 0
839 158 871 747 -2 0
-359 123 312 434 435 0
973 -330 -729 -620 295 0
-905 743 423 -697 234 0
-421 67 791 -201 -381 0
394 318 -871 -47 -214 0
-477 487 774 422 539 0
-699 145 376 410 401 0
-558 -726 673 -103 -889 0
-387 -69 -681 973 -957 0
-925 -4 -116 -906 -360 0
-308 63 -517 13 -462 0
-48 390 927 46 293 0
-651 994 676 -503 -840 0
671 -193 -317 767 337 0
149 473 -37 -324 668 0
-246 -971 -728 -786 64 0
539 983 -967 264 -373 0
295 -66 -572 -960 -621 0
-727 327 -212 286 916 0
-350 613 207 95 816 0
-453 943 -929 -230 -859 0
589 59 -890 782 267 0
-309 354 -245 -600 -432 0
-507 -966 259 -330 -172 0
975 484 -620 -867 -303 0
423 81 -408 198 -139 0
-164 -654 -348 730 13 0
743 -44 -731 155 131 0
531 92 50 -215 -777 0
71 58 -331 -22 59 0
910 359 453 859 349 0
-544 -233 238 91 -350 0
-380 -424 763 428 572 0
676 245 901 557 302 0
-913 246 -577 612 467 0
842 886 714 799 479 0
-30 932 999 224 1000 0
545 -852 -777 -641 -531 0
-883 595 202 -240 268 0
-255 832 -141 -175 -422 0
914 -40 -525 -73 -164 0
-797 -705 -959 -427 315 0
186 -194 258 465 982 0
563 17 -779 780 848 0
152 -271 109 628 -97 0
137 -760 92 950 356 0
262 -940 -490 949 -296 0
-63 -433 -996 980 -186 0
970 568 848 494 829 0
-963 39 -316 690 19 0
966 -677 181 -178 -761 0
454 26 262 -62 -704 0
-198 723 937 920 -683 0
264 619 687 -966 -842 0
187 -606 197 812 -588 0
786 203 542 -551 -602 0
329 318 109 -24 -492 0
155 637 -888 -496 -368 0
-82 42 -701 -853 755 0
-836 -765 988 757 -671 0
-725 160 305 792 -211 0
316 -367 904 202 -265 0
-773 -488 -662 -673 -745 0
788 -615 410 218 -368 0
209 727 593 475 36 0
-348 -356 -27 295 -930 0
97 870 -541 944 845 0
758 -687 -12 318 -818 0
-818 -565 -80 -509 -938 0
356 816 -819 896 -524 0
-278 95 88 83 193 0
819 -6 227 -743 -578 0
-622 916 500 978 -172 0
-290 -220 356 -379 -41 0
-993 -393 -872 54 -85 0
867 -797 -961 812 -206 0
437 -403 856 715 502 0
400 469 342 86 -657 0
-37 933 -382 626 -851 0
979 886 -435 124 -504 0
-782 810 836 926 240 0
-901 -752 620 108 306 0
-772 -831 535 878 216 0
-393 774 940 -12 32 0
-239 -816 410 18 439 0
315 -915 445 -722 464 0
-764 445 392 -582 164 0
-98 84 -237 179 752 0
-776 -146 861 282 143 0
-358 461 -862 548 -814 0
-79 97 412 395 179 0
-133 439 -356 -130 976 0
891 -335 728 300 31 0
-571 119 -706 836 121 0
-362 696 -687 495 76 0
-956 -170 397 -383 -486 0
402 265 395 -861 947 0
-849 275 112 -174 -471 0
-230 -390 247 784 -535 0
292 -871 920 470 446 0
581 -572 296 -627 644 0
-571 -849 579 -815 700 0
-626 757 143 -609 -148 0
1 -568 -869 -676 -983 0
-8 -971 345 -238 30 0
344 -795 -858 218 19 0
-126 695 84 -4 847 0
-435 -1 53 -171 -711 0
657 -357 603 -955 -840 0
100 107 47 449 794 0
640 -777 -270 470 221 0
-332 -547 905 64 -110 0
-242 575 495 831 106 0
-40 -42 -440 -893 111 0
-481 -521 384 148 -443 0
-627 -698 982 917 -389 0
806 -264 923 973 -911 0
382 287 548 7 325 0
-130 967 -401 -419 619 0
479 493 -930 -466 335 0
435 -308 715 621 546 0
289 -698 -833 716 -697 0
899 -296 -15 -424 274 0
483 423 -201 -257 686 0
-114 431 -781 -281 441 0
667 501 546 312 577 0
-388 426 581 303 580 0
666 -259 -565 181 178 0
725 -270 -224 710 -152 0
159 -972 -714 -343 907 0
-95 -358 355 612 -992 0
-976 -316 -77 626 -930 0
172 529 346 893 57 0
327 684 978 987 275 0
670 563 -449 -624 -290 0
-553 -788 -771 -216 -774 0
85 -498 419 873 -491 0
535 -908 -510 -951 663 0
88 -874 904 493 -754 0
-782 835 -964 55 -80 0
427 -665 -943 524 276 0
873 419 -712 208 -520 0
827 -880 -434 -153 687 0
164 -703 -330 388 854 0
577 -768 -204 -615 -638 0
264 -756 920 563 -452 0
391 -869 -447 290 -945 0
904 196 155 635 -700 0
-342 411 -703 373 471 0
-477 141 -514 -96 529 0
-387 941 678 -165 956 0
784 -458 -489 324 -890 0
-522 726 613 -21 -408 0
357 244 367 914 -286 0
-908 -720 -110 363 415 0
-702 -266 236 917 977 0
-887 -312 261 934 467 0
643 -217 -748 193 -670 0
-403 -208 -982 -26 961 0
885 -462 819 39 946 0
535 728 -917 282 -976 0
-307 247 87 -429 -386 0
856 -146 996 747 643 0
-672 -862 463 -482 -572 0
-341 -100 -365 623 -272 0
646 391 -624 -961 152 0
476 959 -752 -996 -801 0
80 654 -960 -795 294 0
248 734 855 -495 -631 0
-531 -402 210 606 -56 0
-860 -778 105 -773 -799 0
-8 -559 730 -964 -909 0
-603 671 834 156 -179 0
-676 -6 -695 -702 -76 0
-232 744 -816 -857 -313 0
749 -886 898 -869 -432 0
-797 715 -164 -308 -378 0
77 -5 893 -684 749 0
-124 778 713 756 -865 0
211 493 -663 216 -122 0
907 542 295 416 102 0
341 32 441 -808 612 0
813 758 405 59 -562 0
-718 -784 -584 555 -315 0
-535 -297 -499 -139 984 0
-69 -944 -880 -524 764 0
-506 -542 476 5 -902 0
785 552 -466 -431 -63 0
717 831 215 345 -962 0
-45 840 764 -214 -379 0
-328 185 -763 -170 636 0
-679 -739 -585 672 -758 0
-937 28 646 -539 -651 0
-482 -264 -678 933 215 0
-421 153 -805 155 -124 0
-28 343 -768 -207 628 0
-873 859 -281 3 215 0
-200 -832 580 -120 -731 0
-851 -802 -93 -279 -444 0
-318 -377 938 84 822 0
-263 -291 617 -491 93 0
-915 -413 942 -622 876 0
595 854 -256 -900 276 0
761 685 -642 787 -584 0
635 -234 -192 -801 -985 0
-126 -85 706 -524 679 0
-587 589 264 500 -899 0
784 909 -708 -81 -847 0
-192 -993 -387 113 557 0
-470 556 161 614 -430 0
-50 -824 -670 658 764 0
-203 548 -756 -276 -364 0
-877 -151 671 35 -661 0
445 -75 680 940 -317 0
-445 850 868 349 -235 0
-367 -660 12 -356 713 0
-203 489 -117 -572 -324 0
-486 152 148 789 132 0
-409 797 767 -793 921 0
-85 770 -252 -963 -573 0
-971 -331 848 -672 -239 0
-148 394 196 -138 329 0
-6 -229 -992 14 -124 0
504 -75 858 102 -915 0
-781 729 -4 119 -343 0
488 -31 957 -110 350 0
-403 -545 -896 -701 -278 0
675 505 -870 671 387 0
-548 -308 93 -866 664 0
-58 52 927 -866 70 0
-163 -210 -955 718 106 0
-222 -160 -41 -698 349 0
-453 -54 786 712 -865 0
-60 320 45 -964 -65 0
662 -96 42 -553 9 0
-437 685 467 -311 138 0
665 -558 -193 430 -66 0
-263 -842 -302 61 979 0
-901 407 553 -387 263 0
510 877 58 676 317 0
-23 -344 728 923 666 0
-946 -745 886 426 863 0
548 -958 979 -85 120 0
-818 403 -533 -891 595 0
651 297 -404 240 -847 0
783 108 719 -553 126 0
-626 -27 853 -363 31 0
112 76 107 -430 -696 0
-200 -45 -202 622 -95 0
854 852 529 -628 -586 0
-345 -352 -790 -987 616 0
640 -20 599 -615 -283 0
301 -785 868 -945 -105 0
305 348 -326 458 -718 0
284 -793 203 -240 -207 0
-391 -831 282 222 -90 0
744 -962 606 -989 -923 0
732 -191 -827 626 -111 0
531 -17 10 -249 -66 0
-865 412 -705 -453 804 0
-485 806 -612 -418 314 0
734 -324 188 415 -467 0
-297 -238 -547 286 -317 0
545 -472 986 -506 157 0
-977 -928 -850 475 576 0
-42 783 668 -986 -282 0
684 478 -320 823 -150 0
-802 265 809 -98 760 0
851 -455 85 787 531 0
-773 -980 971 -384 -845 0
-698 792 439 -989 972 0
479 -323 -150 333 -434 0
-475 688 -195 674 -610 0
928 362 464 -134 -162 0
-152 -560 933 577 -285 0
-547 -333 -814 -771 -847 0
642 19 72 408 478 0
33 80 153 -58 757 0
-958 320 420 572 887 0
-1000 -976 -404 99 627 0
-802 220 -189 464 884 0
526 -936 -180 602 -727 0
247 405 -710 -244 390 0
-584 -608 706 367 759 0
475 407 -761 204 -789 0
99 518 -266 -123 724 0
461 294 231 -387 -890 0
-162 -293 331 -816 814 0
-525 416 -648 931 786 0
-917 -901 609 -524 559 0
-48 -342 -461 607 294 0
-61 -610 103 122 43 0
-436 -371 -943 -194 -1000 0
468 527 587 886 -507 0
-470 -898 370 -979 -600 0
-28 510 900 299 -160 0
-259 -184 -846 310 -833 0
783 -604 -979 221 -326 0
277 310 884 -312 602 0
953 32 -59 -235 -875 0
84 -975 -621 -98 652 0
-603 494 -702 985 -639 0
-921 -98 364 -536 433 0
-562 810 456 -668 -392 0
-43 634 739 -994 128 0
575 -144 -957 268 110 0
812 990 -734 631 -330 0
229 724 810 -448 342 0
396 -759 -225 41 336 0
203 782 615 402 535 0
684 736 -799 943 915 0
-807 -681 -151 -449 92 0
426 -950 -414 489 701 0
-671 865 733 624 271 0
-937 109 -129 -924 -514 0
917 -200 307 11 -833 0
110 -229 -302 -928 -588 0
-577 942 -201 -278 255 0
-703 -673 -407 -540 99 0
-919 -445 -519 523 -666 0
-162 -524 -880 59 510 0
758 -990 638 -595 973 0
-250 613 -939 210 -163 0
675 -187 479 368 -970 0
-924 -749 409 995 342 0
308 -153 723 -811 -434 0
-304 -592 701 68 772 0
-271 943 -737 74 -948 0
337 824 -518 823 488 0
-248 -949 -865 632 -615 0
-609 963 525 -203 -701 0
-916 557 792 -374 469 0
-19 -64 740 250 252 0
706 -397 -565 -265 -908 0
845 333 596 76 -334 0
-860 -185 159 552 -333 0
-794 -798 700 169 -292 0
870 643 543 -385 -80 0
144 -143 -540 103 -823 0
-703 -824 236 379 65 0
-804 -677 -627 35 335 0
-497 -133 -924 137 505 0
149 870 171 19 38 0
-353 -405 -841 531 50 0
-193 601 82 -884 -254 0
475 359 455 384 943 0
-397 620 87 -15 586 0
-954 -383 657 -299 866 0
-18 161 32 -347 941 0
-933 403 -736 -548 -941 0
802 842 975 344 827 0
494 590 -455 382 247 0
-981 692 854 -748 -336 0
501 -296 -614 -106 -361 0
-864 -234 -192 -405 291 0
-929 751 -405 425 148 0
-78 -230 -585 636 -36 0
190 700 43 938 510 0
-775 -503 32 -173 -268 0
869 893 625 -784 753 0
707 -970 201 874 -977 0
80 6 628 452 216 0
-306 951 -310 63 312 0
-811 -165 335 411 359 0
-184 -906 -349 189 -321 0
824 -732 -961 -378 -581 0
-275 382 -979 338 153 0
918 -87 -452 320 -737 0
382 -676 684 224 193 0
6 632 203 247 139 0
-961 267 113 -858 -679 0
684 596 -593 -894 780 0
-652 664 539 -739 -466 0
546 68 -981 526 -949 0
388 395 -658 -828 -320 0
-825 -885 697 -241 990 0
-152 -86 861 -67 -757 0
6 185 507 841 314 0
-487 586 58 788 848 0
312 -716 -87 585 424 0
226 974 858 303 -594 0
344 -999 57 -321 -113 0
145 -133 180 -806 -119 0
-294 174 -346 572 -969 0
97 -907 -547 -248 -460 0
-281 460 918 602 -781 0
-585 946 770 -491 -212 0
-904 603 570 304 506 0
157 399 325 -999 -652 0
31 422 782 513 -672 0
983 -176 266 -271 -847 0
-314 -485 -551 -649 250 0
776 -997 -134 -694 995 0
-277 701 -857 -645 905 0
-715 -122 -55 654 602 0
-573 -363 -758 -601 637 0
-235 -535 -506 794 -377 0
358 -176 376 648 249 0
390 43 29 -229 -857 0
709 -98 -606 232 154 0
335 507 -678 866 740 0
818 263 508 222 261 0
-604 -637 -777 -175 -729 0
964 -89 166 649 -137 0
-431 617 185 358 692 0
-576 650 -674 625 -143 0
-563 -33 -544 626 -348 0
-97 797 -925 -535 451 0
985 -305 858 578 -883 0
485 -461 324 -88 -38 0
-194 949 341 -910 -314 0
566 -131 268 444 81 0
819 -828 291 -503 5 0
-927 923 606 -366 -902 0
-987 765 476 -168 10 0
-247 -442 -133 596 -861 0
986 -170 -455 -66 -629 0
-711 -52 -523 419 -122 0
-798 318 129 106 -464 0
190 -932 398 -697 -385 0
-848 424 -465 -594 972 0
-897 -183 736 -716 -706 0
-333 -197 93 921 -175 0
-919 -277 -960 872 -372 0
270 -861 -828 -29 -361 0
-479 614 -434 -89 -369 0
937 335 -341 284 28 0
627 963 152 834 319 0
-286 -127 802 -569 -940 0
-607 47 -725 36 -654 0
-9 972 906 -965 565 0
397 -147 567 530 18 0
-748 540 -335 953 -702 0
-952 -715 857 -551 -416 0
-701 163 -203 -325 6 0
366 -692 5 293 775 0
-722 422 -720 835 -441 0
-649 147 -980 -368 -394 0
-272 528 -819 -814 -17 0
-959 -374 -536 -429 476 0
-665 -687 -726 -808 779 0
134 710 613 -602 17 0
340 565 455 583 -596 0
146 -156 396 989 -766 0
333 -238 382 636 39 0
-403 -970 853 -174 628 0
-908 314 750 -904 -90 0
-950 742 919 -747 393 0
-875 -540 -77 731 -643 0
590 989 834 89 -922 0
-242 -815 113 -657 880 0
182 318 277 159 -305 0
-297 -350 -819 338 -72 0
464 -362 -173 -638 942 0
-183 192 343 446 -861 0
-219 602 -323 -388 627 0
-773 916 -653 -853 446 0
-665 -621 -638 -200 -108 0
486 83 516 -472 898 0
361 481 972 -666 -812 0
605 -873 -548 -5 -52 0
657 197 -463 404 911 0
-632 618 118 -494 -96 0
855 431 -399 -555 -810 0
-761 -396 -36 87 574 0
-284 -515 883 -283 1000 0
415 461 760 -877 -338 0
-318 402 743 -821 930 0
648 777 -28 775 52 0
-41 -901 -526 -316 -502 0
-94 690 584 205 196 0
-18 853 797 -840 -698 0
804 790 788 103 -508 0
291 -759 777 -367 238 0
-637 -582 -509 226 -85 0
307 -264 71 -232 69 0
260 -33 571 374 488 0
-50 -744 -370 -167 820 0
-976 -644 -22 795 314 0
697 -629 616 687 174 0
6 -380 637 737 -10 0
948 -457 490 747 -938 0
-840 494 148 498 995 0
-437 -717 -74 970 672 0
784 969 429 -121 271 0
-671 657 480 637 -284 0
-13 246 -570 610 -151 0
-803 762 -357 132 -705 0
626 -489 384 165 161 0
-303 760 46 618 -115 0
580 52 593 566 59 0
-581 749 351 457 -2 0
487 -44 1 560 70 0
-922 -552 -177 -228 407 0
-67 266 -586 511 -202 0
68 -389 -871 -327 -370 0
773 -585 -612 -47 109 0
829 12 95 -937 -186 0
614 318 -766 -89 818 0
197 329 -882 -651 456 0
739 -36 -602 -815 442 0
-194 -287 -483 727 171 0
393 346 272 -208 921 0
378 -346 -535 -975 -213 0
-195 332 818 -5 739 0
-574 609 104 280 169 0
-790 828 483 72 353 0
-189 296 -386 621 -652 0
-642 503 372 391 -542 0
62 970 71 -411 -110 0
-431 798 509 547 606 0
-232 99 919 -735 -67 0
-646 370 -607 -345 615 0
-935 -241 410 46 -869 0
868 594 874 -506 -517 0
-952 -229 -413 -225 -815 0
89 -905 -614 844 240 0
-315 -722 -92 -36 551 0
164 -796 -61 949 66 0
749 -651 514 357 434 0
-179 606 140 678 -131 0
153 -235 110 257 -586 0
599 -827 394 120 677 0
-997 209 863 822 -685 0
296 -344 416 -881 49 0
995 699 -51 -538 -834 0
-831 269 510 -30 517 0
547 931 339 -420 -204 0
-335 -886 650 341 -727 0
-58 -480 904 278 344 0
-546 932 656 -479 -303 0
-20 -42 80 -629 444 0
-383 2 398 -265 -31 0
706 -508 748 -162 586 0
400 335 -341 -973 767 0
973 -286 412 -709 136 0
681 -553 154 -163 -867 0
402 -777 -371 58 965 0
584 -231 497 484 -967 0
-394 -138 376 -407 372 0
-152 -141 642 -560 810 0
-128 -122 485 -326 -537 0
557 850 -976 519 -924 0
4 788 -759 847 745 0
534 375 -757 53 541 0
-721 -949 191 676 177 0
29 264 -548 194 866 0
-905 705 823 -528 598 0
-747 -307 195 -637 413 0
357 -746 593 805 943 0
-354 999 -278 504 414 0
130 -299 -223 284 -709 0
-200 399 191 -553 306 0
922 79 397 475 712 0
-759 152 377 -384 671 0
-725 929 -709 -837 928 0
-309 -594 -671 623 816 0
-62 208 655 -998 -719 0
-200 615 431 -392 -654 0
784 -478 -698 -301 927 0
690 734 -890 396 422 0
-433 418 421 -331 731 0
-395 -8 -96 -562 511 0
-846 36 -338 -287 -844 0
654 -163 387 -2 -195 0
-782 832 707 582 977 0
-585 764 710 -235 194 0
5 -486 -762 976 199 0
638 -782 -982 -573 -249 0
437 807 144 -732 835 0
466 764 490 398 -215 0
-253 713 -456 -274 -765 0
-739 284 555 616 -125 0
389 844 213 -472 152 0
48 194 -913 484 716 0
593 -574 621 -811 836 0
455 281 -537 -518 981 0
-468 716 717 893 684 0
149 634 -104 981 -604 0
-366 -235 -809 24 53 0
202 -906 -14 -19 -454 0
-918 -786 -661 -563 65 0
-475 753 -61 -633 -385 0
513 -771 -24 -364 -703 0
504 -572 -653 -83 -915 0
-996 -592 413 503 553 0
-456 -575 886 346 -772 0
-195 800 214 902 616 0
736 679 -255 -747 -871 0
-846 -151 836 222 623 0
-958 -797 507 -103 -138 0
-719 544 -579 -954 -951 0
654 -761 490 72 -465 0
-334 -900 833 146 205 0
-837 754 -697 -57 185 0
264 -939 -277 384 -394 0
-946 -364 -303 13 -373 0
-506 -227 741 -757 -548 0
49 856 365 366 946 0
419 -979 785 577 749 0
-332 -365 366 -116 -836 0
-342 192 288 -665 308 0
-359 -839 -883 -419 417 0
-31 -886 354 -350 -336 0
-85 149 865 -535 -150 0
-407 -757 -713 227 -23 0
621 -586 -576 -507 -361 0
707 213 -13 468 -604 0
531 -452 332 -658 -93 0
238 676 833 880 555 0
-1 388 578 -63 649 0
642 706 -855 892 872 0
-500 327 518 677 516 0
64 163 794 -915 581 0
-215 236 -11 786 -869 0
724 -258 -247 583 -151 0
99 -837 -270 -56 198 0
714 180 165 676 663 0
670 -97 142 999 -379 0
-821 -882 -994 36 -619 0
775 367 436 -850 -186 0
-594 145 -532 -113 -518 0
-704 -502 474 951 46 0
-329 361 316 -321 833 0
-62 -833 380 -47 -608 0
878 -53 -864 714 795 0
-386 270 -719 -328 923 0
942 567 380 507 -761 0
-121 892 -114 723 -440 0
344 862 206 942 -882 0
-608 405 -100 409 218 0
984 -990 705 -566 -648 0
282 70 -832 -255 -465 0
-310 446 -112 690 -967 0
-526 -220 -838 920 -933 0
-572 -386 -408 119 -932 0
325 429 567 73 -923 0
391 -680 301 268 -733 0
644 -457 668 -104 -305 0
-394 -687 674 -253 186 0
-596 -31 -420 753 -648 0
-452 286 -207 -6 88 0
-376 306 727 -410 -445 0
-295 -523 -460 -402 62 0
362 -647 -355 -470 -281 0
43 788 -570 -671 340 0
201 767 438 -873 -171 0
167 -232 840 902 -741 0
614 528 -146 337 84 0
-720 -387 140 780 908 0
-35 777 -472 -314 3 0
-437 -453 -141 682 -964 0
-565 322 -713 -84 6 0
-49 -412 -563 -184 139 0
922 591 54 352 772 0
-542 -978 -118 798 -77 0
-672 -892 136 861 667 0
389 -942 433 116 -932 0
871 -655 817 -571 797 0
695 -752 657 751 10 0
-752 -963 182 346 387 0
14 752 189 921 -667 0
474 -58 -82 -991 930 0
998 523 73 409 400 0
623 -631 794 -852 430 0
968 -963 -44 -440 319 0
458 -615 134 668 48 0
-519 695 -617 -531 -926 0
-362 -216 856 303 166 0
-17 603 887 -191 106 0
-434 198 -951 537 -849 0
447 696 -866 199 860 0
-288 569 204 -57 -821 0
-191 996 -375 -50 -266 0
-463 -68 791 -321 -143 0
-239 374 859 867 -439 0
913 518 -106 -603 -93 0
790 -838 -477 276 -696 0
245 884 -831 -535 -928 0
-291 -149 891 -389 -865 0
963 130 -928 -34 151 0
-365 946 902 516 587 0
-385 -263 459 23 -514 0
989 553 792 -656 -414 0
404 -260 -724 706 363 0
-931 188 -849 679 -210 0
706 -58 -89 -331 -915 0
-784 -598 -574 -570 -599 0
498 -588 -159 -549 -508 0
-529 -815 -677 -786 -347 0
-671 41 -508 579 910 0
666 -524 887 531 465 0
632 -771 -447 591 681 0
-157 638 -662 677 366 0
-329 -276 955 -474 528 0
148 -14 -587 -369 -613 0
642 439 -861 876 -882 0
-903 -749 517 400 37 0
218 620 -205 598 888 0
667 734 -238 909 294 0
-62 -34 61 -519 -213 0
-352 105 759 -286 972 0
-699 -619 661 -50 726 0
675 -289 -30 546 -869 0
883 969 774 -62 -422 0
227 -775 -941 -776 -784 0
750 -481 -802 647 -906 0
954 476 -352 102 -223 0
-614 -491 999 726 735 0
-377 -63 732 -328 675 0
95 552 -277 221 943 0
-773 770 520 -320 -64 0
-818 -52 25 806 61 0
662 62 -21 7 -513 0
-807 -967 966 -583 -296 0
-931 -263 775 220 727 0
512 649 101 -771 605 0
-119 -641 912 -349 -509 0
318 -905 822 654 -569 0
-304 -393 -483 599 -253 0
1000 912 -379 -573 -531 0
116 385 173 421 901 0
-304 400 834 901 -867 0
-595 -441 263 435 -404 0
976 -452 -576 -457 241 0
879 -279 -382 -755 275 0
972 965 -441 139 -87 0
610 -147 268 999 -962 0
506 -139 -921 -468 -74 0
-403 43 324 206 165 0
-390 363 309 525 -246 0
-800 16 547 -843 101 0
934 -634 649 541 353 0
726 -803 -462 -82 381 0
-977 660 879 -689 -413 0
-735 -521 909 258 383 0
-79 933 667 682 -318 0
-675 -626 -33 801 -678 0
-234 -615 977 469 -915 0
602 -583 76 -391 -316 0
-42 -391 -442 434 -13 0
881 586 -338 -149 -984 0
-95 -450 -375 998 17 0
580 -169 825 -772 226 0
616 566 -193 -334 -93 0
632 835 249 -911 -124 0
-461 861 -339 318 916 0
-671 642 718 632 -437 0
931 884 252 719 322 0
626 85 -375 894 -17 0
-498 -873 714 -33 -565 0
-142 633 398 -854 181 0
-784 510 -990 110 88 0
-537 289 984 -910 -504 0
134 -700 548 445 -211 0
-441 -375 575 -835 -642 0
553 -452 -788 -935 419 0
804 402 -910 -892 -707 0
402 864 -901 4 -6 0
-964 907 706 -810 705 0
-854 -589 -426 -789 -746 0
-642 139 531 -535 -297 0
-919 535 263 -91 421 0
-498 779 400 -14 -961 0
78 963 -939 -305 -911 0
713 275 327 196 -461 0
319 899 939 271 -25 0
-181 -249 938 992 -271 0
627 -691 127 -24 -306 0
633 -190 -129 760 157 0
458 251 533 -34 439 0
312 383 737 -189 -91 0
-591 651 -627 -729 -222 0
371 741 870 999 -931 0
664 690 566 -480 -441 0
208 694 83 -413 -109 0
677 528 257 -820 545 0
22 530 -205 99 -734 0
-1000 753 -334 -973 -351 0
492 -142 -367 862 497 0
883 761 966 634 -625 0
365 229 858 506 -620 0
-236 -472 -749 -538 -467 0
36 -789 331 -370 144 0
-463 -114 739 -932 -760 0
-292 172 -183 -703 -322 0
739 -609 -720 -441 -941 0
-467 -332 279 -52 772 0
673 -936 839 862 38 0
-219 56 281 -798 -22 0
107 23 -354 -960 833 0
-754 718 576 -768 691 0
-666 -308 348 50 -974 0
-939 -7 -176 654 287 0
-792 108 497 -29 -693 0
-911 592 -574 397 -344 0
-987 404 -874 703 -625 0
737 -530 801 -324 -553 0
70 -387 394 225 -464 0
-333 291 -552 -4 959 0
473 182 -988 564 254 0
-945 -781 -564 517 340 0
-812 -29 219 732 202 0
-218 -283 -520 205 22 0
342 -920 704 562 -672 0
687 646 -452 -138 35 0
-443 520 792 243 334 0
-609 -65 -482 -759 -613 0
-613 208 -28 -774 -789 0
594 635 304 865 -366 0
196 435 198 -639 -256 0
520 -770 -217 358 -880 0
60 -204 678 904 -409 0
817 -293 -871 -229 823 0
536 -766 -864 574 -304 0
-241 51 315 -734 251 0
-995 -42 -506 -258 956 0
-621 266 86 -563 -515 0
-88 877 721 -251 63 0
468 701 -485 -103 -718 0
846 325 720 759 174 0
550 -109 -440 567 627 0
176 86 -170 536 867 0
-850 -178 -688 -486 292 0
-953 -838 -820 608 -923 0
920 -528 832 -346 352 0
528 -252 110 187 -131 0
-144 504 567 -917 -454 0
505 -254 -716 -16 931 0
-985 12 -20 329 22 0
-308 -283 -858 359 769 0
-874 -535 809 181 -104 0
-285 -235 62 692 337 0
-527 925 -351 728 -870 0
964 447 923 263 -926 0
412 922 656 900 170 0
211 -728 476 -361 549 0
-955 -19 -471 381 453 0
971 125 -591 102 939 0
-219 6 -545 -567 -937 0
-195 665 610 509 -745 0
236 932 564 -635 438 0
928 -215 -208 -935 -139 0
429 982 -285 -134 -266 0
-585 -321 580 230 525 0
-745 404 -437 87 -262 0
-558 460 621 261 5 0
851 74 389 798 -372 0
-464 -358 739 142 4 0
-397 854 836 -931 -215 0
-215 -147 -917 -483 -338 0
-845 12 -101 -400 641 0
322 -166 516 986 -727 0
220 -428 29 -676 -545 0
-633 -578 299 895 439 0
715 221 709 396 899 0
387 990 -239 -629 -645 0
240 -651 113 -711 859 0
-846 -1000 -816 1 343 0
-31 488 -189 -715 65 0
-588 -463 928 -629 45 0
-799 -225 -343 -274 174 0
-315 696 383 -817 609 0
-445 -686 -582 -489 -265 0
-890 846 763 -803 56 0
601 45 -585 464 875 0
936 -108 828 -446 773 0
-653 -579 803 -44 743 0
977 -185 117 -40 -167 0
766 912 265 796 721 0
121 713 -139 -467 -757 0
763 -853 996 768 -333 0
-237 47 252 654 457 0
-697 -503 -531 24 300 0
-445 949 399 372 111 0
-995 -954 -731 479 647 0
-644 -429 -936 -933 -13 0
43 274 542 -457 612 0
109 -43 518 139 981 0
-316 -258 -393 502 3 0
99 -548 -174 250 -560 0
94 909 544 755 -276 0
345 903 896 866 -687 0
-395 109 -425 -322 685 0
-750 480 786 -203 348 0
912 -228 -441 -507 -316 0
-330 -784 -387 626 -693 0
504 373 938 -156 956 0
-390 -581 355 701 225 0
-60 -775 991 763 -321 0
676 600 -945 28 732 0
-894 -703 -829 939 910 0
494 623 -829 679 -878 0
207 -553 554 509 -790 0
598 507 -852 870 -373 0
445 303 82 -391 990 0
908 37 842 -521 -111 0
-228 -256 -253 713 -637 0
464 -785 615 -786 93 0
159 90 -693 -405 -652 0
-568 543 -134 -346 -601 0
287 623 -213 775 -84 0
-570 -480 529 -546 175 0
53 311 -826 -253 331 0
-275 124 -834 -628 -934 0
179 -773 749 -472 -326 0
-969 140 24 -690 221 0
-459 -944 -127 825 -744 0
437 692 906 657 -831 0
-742 428 -529 711 868 0
656 -85 892 -616 -752 0
254 -500 -632 534 -124 0
960 622 535 200 -624 0
536 729 877 -481 -836 0
553 575 456 155 -70 0
39 871 -329 -956 -913 0
176 487 -805 536 -371 0
703 -865 -479 807 830 0
172 -679 -516 -792 939 0
525 326 -111 -947 -563 0
832 -50 564 -156 -88 0
85 148 -68 -638 594 0
-934 620 -580 721 -712 0
-744 -567 468 -618 -544 0
-286 213 -10 -695 510 0
-671 -381 502 866 -609 0
-406 555 240 -491 -837 0
-93 -381 576 -677 -458 0
-946 -848 -423 -663 227 0
25 949 381 291 -753 0
-571 658 236 -246 189 0
-43 782 294 -464 815 0
409 -422 301 -406 536 0
650 719 14 -637 347 0
-54 -151 -730 -435 -346 0
728 698 407 -858 -490 0
-50 926 -70 692 -791 0
-159 315 -53 -157 -706 0
-341 892 63 -178 997 0
-91 -769 -646 -550 -50 0
-750 -29 844 -575 142 0
952 302 595 -276 38 0
587 317 -678 -469 396 0
-689 -798 897 621 998 0
843 -848 601 -99 -162 0
817 771 880 734 -518 0
779 -139 504 36 35 0
748 830 -683 -665 966 0
-502 592 889 634 200 0
-471 249 -527 -553 -610 0
-347 -546 298 -872 424 0
303 880 -984 -199 360 0
-357 -544 202 -737 -31 0
-80 865 766 -845 -472 0
-430 -706 612 -857 -255 0
-290 -915 689 -359 -392 0
702 -35 972 -463 246 0
-923 -856 436 177 494 0
944 771 -715 -355 -540 0
58 -304 990 -938 -911 0
-351 -36 305 758 -470 0
538 430 800 -563 -579 0
441 -980 554 810 771 0
621 -1 384 966 58 0
-312 273 271 -489 -559 0
680 -177 -630 -935 -363 0
-83 955 -934 355 652 0
-827 121 933 -681 657 0
208 -175 -306 247 -110 0
714 -435 -798 -711 -250 0
-291 -77 -76 -275 673 0
-604 -571 305 427 713 0
-200 -363 781 -47 -900 0
-791 401 405 243 -671 0
-116 -235 -650 -788 -871 0
-502 -766 872 -390 -171 0
-1000 -750 -930 -254 -245 0
471 758 -505 -974 586 0
257 -222 965 510 404 0
167 -462 -995 529 574 0
945 487 -380 -562 621 0
-937 84 956 101 -88 0
-683 -713 258 -455 -464 0
816 -523 -92 915 550 0
630 -527 565 -637 673 0
-576 730 705 220 -949 0
562 194 -615 -337 690 0
890 -933 -259 -473 -570 0
-565 871 -555 755 -683 0
-352 954 602 836 -717 0
-185 249 160 -971 -136 0
-14 -654 -266 -76 -579 0
507 -646 -909 -442 202 0
513 -849 -840 -266 263 0
640 -949 296 -120 -956 0
-147 711 -174 -576 135 0
926 741 957 -349 733 0
-27 -470 837 -485 787 0
781 260 511 683 -52 0
219 -244 -626 173 -417 0
-530 -200 820 421 -433 0
-229 -908 500 -424 393 0
460 821 -983 636 -179 0
277 -812 655 194 -558 0
112 -128 110 232 -13 0
-404 -182 -358 991 -829 0
504 21 -906 113 678 0
-975 -633 400 -277 -958 0
-960 -812 600 307 -91 0
-871 843 -376 396 175 0
505 623 -166 -934 -387 0
681 218 843 42 149 0
-382 -529 766 -652 -240 0
602 -366 224 -528 756 0
5 448 -785 22 496 0
-884 -212 -175 -631 928 0
-873 -215 -874 992 698 0
-406 -527 -621 781 773 0
783 374 -687 -672 956 0
-605 -949 839 633 998 0
-883 553 -799 868 -954 0
617 -917 -130 -592 -655 0
-622 -375 -739 491 -123 0
-363 -239 327 770 316 0
348 -83 877 115 981 0
-352 921 -557 346 464 0
136 -592 506 -852 -815 0
861 130 983 59 -616 0
-887 -996 830 -400 450 0
-12 255 -109 -310 861 0
-741 -266 -192 571 679 0
-160 281 95 230 700 0
-223 720 952 404 -1000 0
-576 40 -142 -188 -548 0
818 -150 -126 -377 914 0
-72 -717 -727 863 -681 0
-280 -674 416 6 218 0
-4 888 -891 -816 349 0
102 -470 134 -867 -430 0
667 668 985 -966 -357 0
946 670 -583 32 -615 0
44 748 -193 633 155 0
113 -575 115 613 -983 0
-467 6 -966 331 -103 0
236 249 389 909 -911 0
-202 143 -883 619 -402 0
52 -300 -608 -359 -267 0
888 367 -674 -400 841 0
493 718 381 -448 543 0
-214 -731 -13 268 856 0
135 76 137 912 594 0
-251 862 145 982 -154 0
60 311 647 182 -752 0
74 165 349 -385 -453 0
540 -62 -620 -106 22 0
-373 823 -877 530 -371 0
-611 284 -312 -707 -884 0
-376 369 -601 -67 -615 0
-323 668 -966 561 624 0
-88 -134 161 -196 99 0
-92 742 -843 -793 -32 0
41 143 126 349 -958 0
-936 -163 -361 577 815 0
-979 -707 516 656 133 0
-714 299 -603 215 938 0
168 -884 -35 203 587 0
671 -212 788 478 -675 0
-560 670 -554 -332 669 0
-231 -911 544 226 977 0
-712 746 218 -322 -436 0
-824 -218 -337 684 559 0
-467 -226 966 -244 -919 0
465 -262 -327 549 23 0
173 -937 -484 -527 -109 0
102 -908 623 705 619 0
426 -398 579 692 59 0
-828 573 359 -990 483 0
-958 250 410 411 692 0
-787 -810 383 106 -46 0
475 705 808 119 -291 0
-90 -312 80 -265 418 0
851 -663 43 -155 -920 0
839 -390 -519 -87 180 0
-747 -306 389 -521 105 0
569 747 -333 807 422 0
260 -354 492 323 -546 0
-324 318 -649 913 245 0
663 -739 -844 434 -980 0
-123 779 695 -484 207 0
-783 746 -256 -833 214 0
-24 750 787 798 -685 0
133 116 -460 947 -796 0
-496 -42 245 -904 -4 0
381 449 -697 582 794 0
-468 629 -5 -408 -391 0
-188 32 -235 -779 -885 0
912 -33 -987 760 368 0
-4 -277 -498 17 278 0
-494 859 -119 -670 -282 0
-564 -632 112 -708 -741 0
-237 811 -38 189 861 0
203 -397 -641 701 -613 0
377 208 684 -89 -996 0
-598 413 -687 67 -340 0
525 63 271 869 684 0
-636 834 549 576 -788 0
494 474 -793 101 283 0
156 990 -442 88 -539 0
-45 98 -151 38 -480 0
-769 -771 187 796 -961 0
-48 -631 712 -350 736 0
906 628 -442 -99 -356 0
248 644 702 -48 512 0
-891 145 -291 872 -772 0
691 -69 -916 907 -818 0
-621 795 -793 875 -683 0
-713 920 -993 127 -964 0
-335 -325 -483 458 439 0
-543 -24 713 979 391 0
602 -984 -939 -716 339 0
289 -916 -943 -56 -837 0
-806 634 522 483 922 0
-666 -515 -343 426 831 0
-334 419 -644 -441 -629 0
625 189 841 464 53 0
-733 -890 -228 369 -516 0
825 835 566 -718 -580 0
-3 -576 -749 -840 618 0
750 519 -158 157 229 0
-893 777 507 705 651 0
-381 275 -924 982 895 0
187 -28 -56 777 -348 0
777 996 452 620 652 0
-396 -332 853 -736 935 0
282 112 830 798 -402 0
400 -626 776 477 926 0
-87 123 351 186 385 0
-672 456 -677 -977 73 0
-256 435 -584 -687 -682 0
-90 -736 918 983 60 0
-46 884 794 -237 613 0
-35 191 754 341 258 0
-701 -203 657 -711 341 0
780 212 -207 622 275 0
-473 189 -666 -537 893 0
-207 515 -540 -347 780 0
-749 -123 57 -903 665 0
-609 446 -153 594 364 0
743 -247 262 -985 -305 0
430 572 431 -499 -634 0
812 818 -448 -31 733 0
-944 86 -594 -995 -88 0
530 342 920 782 -65 0
52 -61 266 198 -582 0
397 961 -531 951 242 0
251 -246 746 39 564 0
-353 -461 295 390 79 0
-968 -785 -74 -138 -156 0
-44 -995 -252 385 46 0
-284 -35 -850 439 -597 0
545 -347 -850 662 651 0
-715 704 616 330 191 0
300 -866 226 -15 889 0
845 -615 466 473 -335 0
45 -256 -730 581 -49 0
89 -977 -139 539 129 0
760 593 -72 229 141 0
-728 -363 -308 138 -344 0
-98 -532 -90 17 -587 0
729 150 6 85 20 0
605 -392 526 381 768 0
-69 306 311 366 499 0
144 -502 503 -465 760 0
-385 -963 210 -553 -436 0
-668 388 -113 -57 289 0
-317 -959 567 947 332 0
-604 63 825 -659 466 0
302 385 681 -856 578 0
-191 -934 -607 -28 -879 0
-385 -182 -524 831 -819 0
-673 500 134 -152 -693 0
-887 -665 -404 632 976 0
315 84 114 -855 685 0
-478 -897 -547 -709 690 0
-62 216 -480 -435 -512 0
-826 -513 273 164 -847 0
-172 -921 646 132 -460 0
51 22 927 536 -876 0
843 146 582 -403 -612 0
955 -643 -889 -120 -275 0
-909 -738 200 -681 75 0
899 -724 -591 -141 877 0
734 -356 673 -871 -42 0
-692 -670 -753 -352 -568 0
858 -181 -785 42 -411 0
-679 -325 -430 992 -971 0
802 144 -493 -826 349 0
-196 331 -916 754 795 0
244 538 -473 607 -193 0
-257 133 846 -207 -931 0
86 -192 429 41 233 0
-272 -885 -156 572 -41 0
441 -464 976 990 -522 0
-138 -306 55 934 -107 0
411 -838 344 -810 -267 0
117 573 -228 -145 235 0
-911 -515 584 -228 -283 0
183 233 854 -374 -575 0
-280 7 -863 -308 -19 0
-353 -363 -361 -510 538 0
254 995 732 167 765 0
-455 -785 -301 -219 -776 0
-275 455 -506 119 990 0
-98 -509 -55 -832 770 0
417 41 -591 -100 161 0
-541 332 -59 -825 142 0
404 495 534 -877 -990 0
133 -451 -487 -382 873 0
895 453 -201 -961 -547 0
-656 449 -169 493 361 0
-583 932 -376 -381 -761 0
-162 -493 -633 -819 955 0
-27 -59 462 214 -592 0
667 177 600 -44 583 0
-769 -858 -141 -487 -612 0
394 -549 -9 967 -858 0
-60 139 846 286 156 0
-712 726 915 950 -945 0
919 710 -234 -171 686 0
-858 -731 -796 -308 659 0
-436 -523 289 -434 -605 0
419 -11 583 49 -928 0
458 -644 314 -909 -534 0
400 -611 -517 316 -370 0
543 958 818 4 -347 0
-413 -767 717 -961 281 0
-200 91 845 522 617 0
-781 820 -344 906 -602 0
-127 -263 126 411 703 0
175 -287 -44 402 -320 0
-992 -103 -886 364 529 0
-495 -326 36 -568 840 0
-890 -109 518 327 -18 0
452 -612 435 273 686 0
794 613 -867 -870 -191 0
-812 -951 -440 -924 963 0
-301 -25 747 802 -920 0
951 -323 -880 472 -802 0
-186 -47 506 -971 -214 0
855 41 -666 -205 -453 0
-838 -648 251 714 848 0
-246 -804 142 146 -126 0
-6 285 785 554 -575 0
-422 -940 176 -929 -299 0
266 864 485 812 -670 0
-937 33 86 636 -125 0
-181 275 -611 985 -305 0
-370 -219 -296 -78 428 0
804 -949 -794 -196 81 0
-993 156 451 655 88 0
-604 -25 -634 207 -888 0
164 606 -242 970 524 0
437 353 151 -1000 375 0
-106 -950 -231 -938 -94 0
-775 -146 -502 835 -317 0
421 -132 433 845 -890 0
-619 815 696 365 -55 0
268 405 -440 194 -313 0
-271 43 222 -259 765 0
350 -485 141 -329 546 0
-235 326 -96 821 137 0
771 834 358 -267 314 0
698 -685 534 -924 585 0
-196 -51 256 609 -162 0
-505 803 880 736 324 0
631 -788 679 -657 408 0
434 675 518 -996 -757 0
-842 -708 915 448 11 0
-297 -113 -238 767 450 0
-917 596 -849 -283 -844 0
882 388 -925 753 -68 0
328 394 955 682 671 0
216 -752 -304 -509 -381 0
-945 -788 -139 -578 656 0
58 -295 80 -330 -35 0
478 659 441 -749 261 0
610 -338 -999 636 -937 0
296 -270 406 155 78 0
809 -229 -484 -623 764 0
-859 435 -735 484 -407 0
-366 743 400 -918 931 0
891 -649 729 181 -184 0
-673 -530 625 -372 766 0
-716 183 -946 -90 -851 0
-651 -524 -623 -243 707 0
965 -379 183 -686 -467 0
-719 -97 -218 -587 -749 0
182 541 17 461 -526 0
719 -1000 465 922 807 0
-237 -565 -615 -906 956 0
-520 -88 -618 -598 -685 0
-582 879 -99 625 -473 0
771 648 -334 -18 -360 0
907 947 -642 -254 -43 0
281 -662 -323 -507 602 0
208 -280 168 418 429 0
664 -519 -461 -665 -811 0
823 -443 199 295 995 0
-932 972 801 -795 447 0
-328 714 -321 -575 -15 0
37 -251 265 625 -477 0
712 900 -278 966 193 0
542 551 92 508 510 0
-555 -855 103 410 923 0
679 -101 163 -775 -755 0
-942 -726 -517 454 965 0
-899 433 876 -403 -506 0
-686 -490 -168 -924 -204 0
-378 562 -42 -700 -953 0
741 250 -970 -626 -886 0
751 140 -258 761 191 0
291 191 626 743 -72 0
614 98 -655 -899 -310 0
-560 274 354 572 421 0
-829 943 925 572 199 0
-133 -364 768 -561 669 0
652 -419 936 -132 -394 0
212 -449 -376 471 371 0
827 -727 -142 -117 156 0
-877 155 -9 -254 -103 0
-490 -143 -183 -611 209 0
-531 -486 -790 -543 983 0
-457 -508 -817 188 181 0
-630 -187 418 -739 -341 0
11 -701 383 704 107 0
545 -223 747 -679 681 0
-700 -488 542 -976 -368 0
185 290 -791 478 -155 0
-278 716 154 261 -686 0
-364 787 901 715 -829 0
-230 -634 424 -891 337 0
309 571 -205 -471 -351 0
279 376 -165 -254 880 0
827 -509 -753 -310 189 0
-946 813 -348 -943 906 0
675 289 -579 282 492 0
559 325 637 200 943 0
733 -749 -886 -824 -426 0
-865 128 -76 221 -924 0
367 -645 -732 -811 -173 0
688 -968 -665 -220 333 0
448 -264 798 -815 -462 0
15 -459 865 898 -829 0
51 -613 -9 -340 -501 0
-111 -157 -241 -844 573 0
938 -203 -279 -636 201 0
-92 -79 -363 -25 -881 0
-621 -542 -300 539 -413 0
-805 536 -445 652 600 0
-284 562 -244 -991 972 0
-281 -111 387 165 471 0
-867 -341 -337 787 -54 0
-622 307 -797 -269 544 0
-662 -312 -895 -8 889 0
123 644 871 -212 119 0
-196 25 -173 807 418 0
198 182 259 320 770 0
-611 368 -50 426 -492 0
-483 -445 -29 -27 -805 0
-988 -272 -507 238 482 0
-61 332 74 -542 656 0
317 565 -79 763 -413 0
-56 372 101 681 626 0
144 -777 922 -774 477 0
366 630 -837 -87 540 0
17 -296 374 -838 -824 0
-709 -59 -112 589 -636 0
-307 -536 11 828 591 0
130 915 998 -529 -936 0
644 808 355 -540 -114 0
56 484 -342 804 -400 0
666 -442 604 -411 -570 0
-927 956 632 985 667 0
-327 -8 -689 -293 -904 0
298 989 319 930 552 0
6 151 875 668 -200 0
28 -426 544 -792 -682 0
939 -447 938 885 960 0
416 -16 18 -439 996 0
-923 -776 43 -38 587 0
721 -315 -165 202 297 0
-614 -724 -235 953 262 0
-174 -210 578 968 -543 0
812 178 -165 -368 876 0
98 679 252 102 836 0
347 485 388 -721 -516 0
-945 704 523 47 796 0
452 909 996 983 712 0
420 330 -124 -723 987 0
591 -671 606 360 -14 0
-258 -336 -820 -124 -540 0
-756 -718 -255 675 -871 0
-449 552 -119 -126 -27 0
-361 346 -219 -920 -583 0
-384 447 434 -458 472 0
709 998 749 -116 -310 0
55 -329 -156 -468 -149 0
762 145 249 500 -297 0
908 -95 -359 788 -982 0
-51 -579 210 -91 357 0
605 441 -376 82 356 0
788 452 -827 554 -830 0
-400 728 914 733 -317 0
-250 971 646 -926 876 0
-253 -179 -584 -368 790 0
588 311 637 649 -11 0
212 105 91 -922 139 0
-182 63 280 989 -805 0
-196 616 939 230 831 0
127 993 -373 572 636 0
730 619 -403 526 -427 0
526 -468 648 -923 206 0
-368 405 404 -429 973 0
896 975 137 -581 162 0
745 996 459 359 -264 0
-376 140 -249 -271 -675 0
570 510 -365 -240 915 0
-385 252 -208 660 603 0
-327 273 199 951 -413 0
-349 -651 -913 -27 -181 0
577 -80 385 25 841 0
66 -573 -448 752 273 0
-681 873 -375 921 195 0
556 -865 -410 747 852 0
-634 423 960 -658 226 0
-677 -829 -490 615 -950 0
184 -232 231 185 751 0
-561 737 944 579 139 0
390 -128 -591 122 954 0
273 317 743 920 865 0
291 -932 128 -290 951 0
-378 335 60 -521 -147 0
637 -345 -129 -956 -859 0
-775 705 737 327 901 0
398 216 -729 -614 -776 0
-338 -679 -537 158 -346 0
747 -806 79 358 -349 0
461 -410 704 425 -891 0
569 -400 -602 86 529 0
-884 417 -547 740 -911 0
348 -617 304 686 648 0
-643 800 -757 -93 -2 0
-900 568 931 -269 -305 0
238 -945 -984 -122 -642 0
-560 591 18 374 -538 0
-840 -455 -623 642 689 0
99 -481 -106 -991 796 0
896 -532 394 -553 -342 0
-890 760 -422 -72 -124 0
-571 -968 -823 903 -354 0
-998 -554 -48 985 441 0
-39 -346 454 -684 -748 0
-782 144 109 -427 674 0
291 201 -580 -953 -9 0
-846 444 -554 -777 942 0
772 -120 -504 562 313 0
-726 -710 854 -520 471 0
285 320 429 166 -82 0
997 -637 -188 -844 250 0
-348 584 -817 -835 434 0
328 -872 -984 -131 -453 0
-344 210 250 -532 725 0
-384 -938 -472 -365 -464 0
-125 -200 266 621 -933 0
-946 -548 -744 -723 -75 0
395 22 55 -417 -647 0
-823 -142 330 -698 850 0
410 367 -942 -293 831 0
112 91 -320 -326 -918 0
484 640 -810 977 237 0
344 -597 -164 -940 619 0
33 -371 734 -779 574 0
542 466 -504 -687 778 0
-622 206 438 211 -445 0
790 -121 10 -853 -620 0
-387 -421 798 -648 820 0
459 -76 379 473 -97 0
-442 559 957 -779 249 0
808 -394 416 -179 863 0
-238 264 -364 914 -425 0
-526 -519 23 -494 988 0
232 -498 122 -135 192 0
-513 -18 528 971 603 0
332 491 790 536 35 0
-959 -563 -47 567 27 0
-724 -572 -922 605 152 0
706 -393 340 -673 22 0
-862 -27 -403 -135 -447 0
880 -206 -158 -271 353 0
-129 521 -102 2 489 0
-551 438 -599 871 479 0
-604 655 -133 40 -408 0
823 297 117 -797 355 0
-580 858 -151 -935 -101 0
-819 253 -807 561 -858 0
307 37 941 -579 -767 0
963 2 593 -172 -481 0
-433 42 -475 584 192 0
-884 -237 -897 268 647 0
80 -73 -615 199 -239 0
512 252 -779 500 -467 0
505 -735 -96 -786 853 0
410 -637 983 -560 33 0
-289 -526 538 851 -415 0
-249 -652 -50 -123 6 0
-714 273 -765 -698 -601 0
766 451 -190 -643 -175 0
908 83 -855 -603 -230 0
-640 467 473 -603 -437 0
-347 -315 678 519 -424 0
-676 165 -396 -595 -401 0
204 -644 -729 441 698 0
-300 898 901 747 951 0
808 443 203 -457 -431 0
-271 -111 278 -448 -603 0
671 -55 -493 606 -25 0
103 269 -954 -700 745 0
-153 993 174 -592 -936 0
208 -326 -597 -723 -104 0
-887 138 435 71 737 0
569 882 676 630 -322 0
288 930 -8 357 956 0
532 -240 622 -770 211 0
-14 -330 762 -307 -223 0
-416 389 -888 994 287 0
-630 -724 59 208 -465 0
-587 544 -787 326 69 0
79 -928 964 -842 -962 0
182 -639 916 -48 876 0
-72 785 -561 345 219 0
-740 -690 293 -120 -409 0
274 818 -228 617 260 0
281 -667 509 -827 103 0
-152 466 47 658 425 0
420 987 137 -788 -666 0
331 129 -144 500 -29 0
-695 264 -436 590 -847 0
-720 495 -820 462 182 0
-946 -764 911 -271 284 0
504 516 698 972 937 0
-591 -537 16 -302 529 0
139 187 -52 -511 587 0
-680 -402 324 -818 335 0
126 -343 9 424 509 0
994 -146 489 -665 168 0
-252 -73 607 -386 343 0
647 -507 657 -543 578 0
644 -529 648 236 -382 0
56 -173 -868 21 637 0
800 632 589 -33 -582 0
911 -198 573 416 352 0
208 908 607 -802 -85 0
980 -716 -240 425 -780 0
-610 -205 -941 -485 942 0
773 -181 909 904 -953 0
-577 -160 9 313 486 0
412 496 769 966 617 0
915 -690 -954 427 -210 0
-493 -828 158 882 122 0
-562 427 -312 741 -426 0
214 370 -91 118 902 0
-515 205 -129 665 583 0
-958 820 -155 531 -732 0
624 942 866 7 950 0
-983 322 -927 -557 108 0
869 487 367 -747 -192 0
42 364 -32 228 565 0
492 390 -698 208 -657 0
-146 28 325 -3 -1 0
39 308 792 -30 226 0
795 -963 425 -693 -793 0
941 937 414 -321 230 0
-984 -66 -371 341 889 0
514 229 -550 -953 835 0
780 -88 -659 579 404 0
856 386 -68 420 -572 0
179 -638 -256 -910 -901 0
292 754 523 209 815 0
-814 770 -810 816 345 0
423 892 -583 -968 397 0
986 -101 743 -116 -618 0
-905 -690 -320 186 -147 0
-890 897 -755 -988 126 0
-708 -782 59 773 781 0
-478 -237 -558 894 511 0
578 -221 714 -251 -770 0
-636 915 280 -554 -539 0
26 -589 -699 -657 -152 0
-250 602 -578 -587 641 0
838 588 569 138 -342 0
71 721 -436 874 -529 0
484 -29 624 -319 213 0
-400 -983 -884 341 -563 0
36 -269 -389 611 -627 0
-906 -373 29 246 -234 0
175 -229 572 -504 -736 0
-649 750 -428 -725 993 0
804 -978 -336 -521 -154 0
532 106 779 356 966 0
-19 -919 -734 86 -785 0
-450 918 -706 608 559 0
-552 259 428 877 925 0
298 -559 -837 -403 487 0
103 336 -51 -463 674 0
93 647 -308 724 921 0
674 -54 -123 585 -629 0
191 755 775 216 48 0
-642 -565 -798 -75 470 0
-35 376 -381 169 -665 0
-734 240 858 -928 -345 0
-606 -331 -653 516 636 0
-662 -330 -771 -932 973 0
33 555 720 -511 470 0
-62 -646 944 112 -297 0
-630 -603 441 679 996 0
-873 -840 -129 216 -700 0
261 404 -850 -339 -86 0
358 -532 623 966 490 0
-459 -627 -937 -514 -506 0
653 123 84 -696 483 0
-485 -259 420 -69 -522 0
960 18 689 666 -69 0
661 -473 433 175 334 0
-251 96 -908 509 -212 0
814 647 311 -717 321 0
704 -484 -109 447 -17 0
357 168 312 909 -420 0
971 -85 -755 -551 -9 0
633 375 569 -262 415 0
918 420 -185 252 194 0
667 205 775 198 -75 0
-848 130 -239 -918 -969 0
949 -901 710 30 894 0
896 892 -536 561 658 0
356 -884 367 -530 -610 0
-816 955 716 -580 623 0
338 530 -447 -485 819 0
-649 273 -462 -96 769 0
-101 49 55 878 819 0
-844 -445 196 -349 -92 0
593 -967 677 -453 313 0
125 323 736 361 823 0
835 721 964 908 280 0
-379 1 779 876 -664 0
-650 -359 257 893 -264 0
889 -411 -405 -653 -261 0
-924 391 -79 865 279 0
-667 123 117 -320 803 0
-897 -732 -842 742 -144 0
-852 -477 493 14 -457 0
-730 861 251 327 -187 0
-972 22 192 -28 94 0
-158 334 715 273 -781 0
280 -714 -791 -93 382 0
128 -328 -233 -626 -336 0
423 210 75 -355 138 0
330 -13 523 409 -460 0
-131 -49 323 899 -908 0
-48 569 182 -234 580 0
378 -680 636 712 -204 0
-426 215 595 151 -490 0
-994 -249 186 64 639 0
583 -20 -487 -618 -803 0
-251 -991 -613 -516 794 0
-700 490 408 156 590 0
581 169 -280 183 531 0
530 283 199 843 635 0
156 324 -643 75 695 0
-875 907 539 370 -301 0
831 41 -548 781 -427 0
811 378 -712 -388 -872 0
947 -809 437 -454 -439 0
219 -363 -331 -119 -447 0
-799 506 -709 440 -187 0
-558 914 -879 757 -903 0
77 328 -240 351 67 0
55 -600 -17 -584 -569 0
-734 871 34 373 213 0
-809 -965 191 275 288 0
-793 264 -9 -552 -147 0
-857 -626 -921 526 649 0
556 662 571 -837 -38 0
-245 -747 -96 62 -207 0
-660 -469 930 965 -787 0
-284 -355 -941 -185 406 0
-306 -954 5 -906 155 0
-160 78 -691 -609 392 0
-574 -143 -973 184 896 0
494 333 -314 -438 21 0
-841 817 950 945 -730 0
816 339 -207 -523 -797 0
-641 1 -830 743 -419 0
853 -208 38 522 51 0
636 709 -140 637 -147 0
-378 -980 973 -351 -180 0
755 -651 -72 886 186 0
-846 -272 -523 -461 178 0
946 970 -506 -351 -216 0
-127 530 737 489 -955 0
583 483 150 880 613 0
227 702 -564 180 -950 0
-88 -990 -711 829 -537 0
-817 977 -70 -896 -255 0
-765 318 906 -434 -154 0
-889 -244 -167 -198 -252 0
304 883 -138 366 60 0
269 -2 493 -512 404 0
-400 -411 757 -230 310 0
-267 -327 133 759 686 0
-140 -558 -770 386 700 0
987 925 210 459 860 0
491 -173 -226 -782 402 0
26 -568 -604 -757 56 0
-607 103 218 -347 -633 0
-62 -133 305 246 40 0
-440 -542 185 -930 994 0
-769 -763 914 -609 799 0
-296 -153 574 860 -645 0
-4 959 -930 606 730 0
-702 -651 -45 -278 299 0
480 -930 -948 -735 -914 0
-427 379 -639 773 -662 0
-183 -377 -724 -997 -164 0
-80 -303 -564 822 93 0
-371 732 188 -932 -708 0
54 -475 719 -486 831 0
924 -23 49 -73 636 0
-454 -510 61 -250 615 0
-618 -328 120 771 -824 0
-952 -804 598 -552 -360 0
-708 683 -487 872 -516 0
223 559 -720 -14 369 0
-373 283 -135 -219 483 0
-452 -394 -1 346 768 0
-575 16 810 -458 -850 0
-873 -586 -902 92 -957 0
-841 -346 -164 992 -588 0
-774 767 -570 -246 -643 0
-851 151 -714 61 322 0
609 287 584 -45 624 0
801 -972 515 -426 644 0
-815 119 -897 26 -513 0
-994 -808 356 561 982 0
-616 225 831 708 -463 0
846 -589 -690 -987 125 0
831 -172 313 809 979 0
523 -620 434 -383 868 0
330 122 701 -690 152 0
-473 -665 -696 -924 -269 0
-560 -78 -662 222 868 0
353 -984 -213 -165 -643 0
-976 -931 534 -217 664 0
-82 -76 -951 773 -876 0
-82 -205 -610 503 43 0
-733 336 245 135 643 0
-849 -698 -204 453 -946 0
726 636 -289 -979 -624 0
-979 813 840 -13 -140 0
-228 -187 692 466 384 0
233 -842 5 139 -988 0
-881 99 -33 406 212 0
207 -432 -765 306 534 0
-607 488 -677 564 -791 0
29 -719 244 211 -388 0
864 793 526 489 -507 0
-668 -579 -197 329 -33 0
820 -727 378 -882 991 0
18 481 168 787 -753 0
899 462 661 -643 -460 0
-103 338 -286 -858 930 0
209 -920 251 -552 -902 0
30 620 933 -586 3 0
104 844 139 -336 759 0
977 -730 -662 -638 -629 0
-708 872 -681 -371 70 0
152 -952 -364 357 -961 0
769 -805 846 593 -576 0
-293 420 -904 -70 976 0
716 369 -640 -993 -849 0
-147 474 616 224 967 0
-143 976 -491 -651 461 0
801 90 48 852 -954 0
154 576 732 523 569 0
555 -822 -846 783 366 0
115 -184 567 391 -163 0
-587 -952 -118 -44 332 0
-72 -549 -423 -732 -128 0
-599 -812 910 222 -30 0
209 -896 214 -801 248 0
-679 151 -759 -662 110 0
-191 947 962 75 943 0
-635 177 528 700 -980 0
-940 90 -216 -279 -100 0
430 627 327 -445 -509 0
-780 -472 643 619 822 0
-958 911 -579 -772 788 0
394 969 143 454 -485 0
828 343 -589 227 426 0
387 -484 -32 845 -969 0
-210 28 431 -552 -457 0
660 -148 -904 -704 298 0
-247 842 475 697 -942 0
359 431 435 -518 -433 0
-341 702 -629 87 -65 0
119 -598 -187 995 -652 0
347 -377 978 -237 -148 0
596 -3 272 184 -2 0
-295 -385 -876 -65 -253 0
-683 -866 -221 144 -580 0
618 562 -217 661 -486 0
62 776 97 148 -636 0
466 -811 202 115 -850 0
298 594 -546 -257 147 0
837 959 -93 498 505 0
-709 285 -510 -219 -234 0
204 948 757 -970 720 0
718 -799 -155 -812 426 0
-532 669 -381 -228 993 0
669 -266 919 838 616 0
675 -808 -994 901 -22 0
-854 -369 518 -58 -513 0
-583 745 209 839 204 0
-182 517 267 -567 -432 0
-268 -105 -612 -501 127 0
671 -44 899 961 -861 0
895 677 -173 -409 157 0
-905 448 358 -266 571 0
925 789 240 -983 992 0
-329 544 956 -919 541 0
-58 802 753 -282 -516 0
-35 570 968 41 391 0
-105 557 -667 -266 -714 0
-137 808 342 338 838 0
799 160 513 -122 -586 0
-788 -271 -905 279 871 0
-945 646 -764 -19 472 0
-949 810 903 219 184 0
708 -918 597 557 -839 0
-838 779 969 321 -578 0
-135 529 575 -957 -151 0
206 520 -390 2 245 0
249 324 130 -726 -843 0
-493 -947 749 -80 923 0
658 584 -142 300 314 0
183 -843 591 347 697 0
564 868 45 -968 -958 0
622 -903 7 59 930 0
-687 403 -310 26 -233 0
-715 516 418 749 686 0
618 -807 -740 364 881 0
-34 573 -78 -337 496 0
24 233 -652 -644 -212 0
64 762 -701 -902 -315 0
803 488 -393 -802 -45 0
-262 351 -750 94 137 0
-134 -737 405 675 653 0
177 194 682 -533 -346 0
196 -382 -344 -946 588 0
756 846 -126 -895 839 0
868 -238 487 -235 -831 0
61 -357 -597 -139 -502 0
-377 -394 354 -592 -530 0
-377 296 -357 828 256 0
771 -310 -109 524 657 0
71 455 574 330 26 0
-65 157 -613 -217 25 0
-686 51 -358 699 627 0
-835 -827 -50 723 -567 0
917 -641 -288 -507 478 0
-160 -473 -406 -339 -724 0
923 507 -617 -307 -421 0
-528 993 -399 236 -282 0
474 307 -136 -851 -178 0
840 932 427 311 -886 0
492 72 -775 -695 -134 0
959 538 45 650 -328 0
666 -922 258 -763 343 0
865 -42 -708 915 138 0
599 865 889 913 977 0
472 -599 -349 592 -205 0
18 -73 -768 904 897 0
47 756 -570 -706 -822 0
-711 -752 -137 -282 521 0
71 757 -813 873 -176 0
891 932 -653 841 709 0
-90 -416 -11 284 819 0
137 -578 554 -233 60 0
-893 871 -656 -425 -288 0
-621 -512 -701 3 -393 0
-980 -955 501 -353 -433 0
467 785 684 -357 808 0
-796 880 55 894 913 0
-274 -970 779 -628 536 0
-985 -432 832 -843 -103 0
-135 -362 942 -597 -716 0
-815 -392 -381 -492 308 0
-865 401 -77 -419 -114 0
565 -185 -238 134 769 0
876 -280 -100 -970 155 0
790 458 -944 -652 687 0
230 -395 -108 542 319 0
-141 -251 -580 656 -225 0
-606 -51 -6 394 -384 0
-78 403 861 -638 53 0
469 -835 768 -80 -739 0
235 -876 815 -628 700 0
-769 93 -71 900 459 0
-998 -438 -185 135 956 0
764 297 -243 151 -830 0
96 -664 897 215 814 0
-325 -226 186 -975 -178 0
449 551 273 -429 -87 0
-724 141 254 -201 891 0
702 815 874 -561 -988 0
-742 993 157 320 185 0
356 -254 218 933 -574 0
-542 497 658 -474 550 0
-741 -370 -64 -350 -972 0
-439 499 -648 245 -263 0
994 790 -982 243 -869 0
-575 -223 298 -399 -744 0
-9 175 -387 -479 -625 0
-413 176 96 894 -74 0
712 -195 -288 496 364 0
805 156 899 159 -252 0
358 -171 646 -889 -615 0
1000 -514 -993 -758 133 0
292 326 -74 -176 -825 0
780 -630 430 34 129 0
-972 428 225 381 -765 0
-414 -572 471 1000 901 0
-93 9 -90 -598 707 0
102 317 -348 -900 -242 0
527 668 -73 -217 -132 0
916 423 547 -181 150 0
-446 -342 105 -326 369 0
858 831 613 -468 125 0
608 472 437 -262 -309 0
-648 938 248 -823 -367 0
-137 -128 -397 -600 -671 0
124 -407 380 -512 332 0
-618 545 677 -963 593 0
870 -297 405 474 -68 0
820 -792 -605 -157 -322 0
-648 -731 -140 144 412 0
-965 787 701 580 652 0
-416 -69 -755 -841 -596 0
259 172 553 -286 -914 0
-11 175 416 -85 -146 0
684 325 972 -550 -488 0
397 182 -671 422 -254 0
151 167 387 -812 -406 0
456 349 844 -224 -189 0
95 911 57 381 61 0
112 -248 -390 -952 495 0
791 -689 -773 22 859 0
314 -700 379 -584 62 0
-414 310 583 -348 -178 0
-67 11 361 -667 -408 0
29 587 649 634 130 0
212 288 -2 -285 -864 0
-579 -143 -140 524 53 0
-995 -604 457 693 796 0
832 296 -365 -713 -315 0
-283 913 -704 220 993 0
371 -899 9 -631 64 0
845 401 222 -878 733 0
229 -183 35 690 542 0
-368 348 -938 331 -258 0
333 650 405 -879 -675 0
203 -325 39 448 324 0
846 -381 -980 158 -306 0
-755 -207 991 349 933 0
-791 15 -494 -857 239 0
544 441 -421 -255 109 0
-168 -973 865 99 -475 0
454 522 -681 -443 -493 0
-357 735 -6 -94 -311 0
-377 -696 -939 218 -81 0
-649 753 858 474 -377 0
814 485 56 -950 190 0
329 708 -4 -583 -831 0
-455 -388 300 182 943 0
-352 918 -828 299 125 0
649 -668 -739 -458 -157 0
-522 47 645 -92 287 0
575 752 -180 -617 126 0
301 555 -585 733 26 0
-341 987 31 -261 56 0
-473 515 -182 -573 -934 0
-919 -617 -714 -581 148 0
-40 -705 -101 -567 661 0
-912 -676 809 687 242 0
-906 153 -335 370 -626 0
959 833 662 -22 -972 0
479 614 -686 -700 -811 0
-941 -208 -334 -550 828 0
-408 168 193 -618 428 0
662 -803 -193 -607 -166 0
-680 373 -345 560 -131 0
-641 -279 -915 213 -440 0
730 -450 427 303 697 0
-56 -672 -870 -282 -115 0
367 -4 268 -981 523 0
782 -303 65 -411 -884 0
90 -651 554 -212 -419 0
796 -962 -478 64 -432 0
-826 868 450 678 265 0
283 548 -856 -322 122 0
691 33 590 -954 -132 0
388 -376 -263 670 -801 0
210 844 -830 -323 913 0
898 -302 318 954 489 0
-430 240 -418 -806 -653 0
345 954 914 -691 -490 0
-104 828 -17 -288 581 0
-978 151 732 376 -850 0
193 -282 -527 662 -80 0
935 267 53 -372 -504 0
912 -623 856 -75 573 0
-2 -247 -652 -485 -817 0
365 -622 -945 -256 871 0
-790 577 -283 -915 -389 0
84 278 -67 -465 408 0
376 525 981 523 164 0
-250 928 -96 -885 712 0
-752 883 -954 594 678 0
930 404 401 160 -565 0
-846 -890 -280 805 621 0
-490 523 547 597 113 0
751 -507 -435 386 -69 0
-737 352 -732 405 763 0
394 44 -106 -13 -422 0
636 -684 -333 -500 -376 0
365 -340 -47 -983 -396 0
-24 204 -968 471 -644 0
486 850 -211 496 647 0
-765 169 -850 -81 -436 0
-238 -291 740 -474 786 0
-991 -831 886 266 -723 0
547 767 765 935 264 0
315 429 -168 538 -576 0
799 766 -629 984 -505 0
911 -831 517 625 609 0
900 -239 -748 665 587 0
-517 -844 -180 321 122 0
-999 -810 -460 955 633 0
-771 486 556 705 -179 0
-249 971 -348 891 347 0
-355 -32 583 -494 -36 0
-772 569 310 -262 -897 0
724 -621 -653 -683 840 0
-579 -88 -115 -420 -376 0
764 -991 -294 -683 -361 0
-236 659 -888 274 443 0
-687 645 -292 -386 -91 0
39 -41 97 -360 672 0
-787 595 987 249 755 0
-241 -961 249 535 -949 0
649 71 322 -88 876 0
-579 836 -189 -849 -974 0
-751 144 469 554 -823 0
789 442 -927 978 116 0
-57 14 963 842 838 0
-834 -732 -321 -513 57 0
-702 25 152 971 310 0
397 907 -229 -664 -841 0
746 -370 350 -651 -557 0
226 -243 -316 678 -799 0
-891 -161 -236 -296 -908 0
-297 -64 -589 -325 321 0
-921 715 -623 -930 883 0
-999 710 -652 489 -462 0
-329 421 154 -165 65 0
505 -677 -78 41 695 0
738 29 -699 392 -94 0
-101 -806 -646 110 728 0
-870 608 -917 -25 -955 0
-524 260 -735 -78 743 0
-367 -178 656 -862 -755 0
-360 791 -861 -617 86 0
-450 866 16 -954 -791 0
451 -913 45 231 -803 0
399 -647 -63 -221 -132 0
898 863 -401 972 936 0
-246 -851 935 567 549 0
535 -23 894 -70 -603 0
734 740 844 817 -773 0
227 -620 -514 742 882 0
604 647 771 594 -824 0
791 525 -144 773 297 0
996 -267 -56 52 702 0
-957 -914 -369 -70 658 0
785 595 -783 15 -20 0
-446 -989 -396 -273 144 0
-127 333 685 351 516 0
-716 527 -841 -301 58 0
642 716 -340 -934 384 0
584 -205 748 508 -293 0
-174 802 -51 106 310 0
-421 462 950 -192 -948 0
-479 -136 -715 -405 -299 0
159 -841 -395 -169 722 0
291 157 611 -894 -372 0
-321 972 777 414 -875 0
607 81 -109 -245 -103 0
-60 682 -385 -567 -144 0
-3 447 184 559 -789 0
-989 -336 -779 742 589 0
437 -218 726 61 -533 0
-311 -789 -448 -638 -873 0
-796 13 -804 -130 208 0
-390 -323 325 -904 406 0
-639 -573 557 -702 294 0
-297 -146 854 694 347 0
111 892 -745 581 -873 0
-185 -211 -539 -272 672 0
518 359 930 470 -256 0
216 433 -288 -925 -653 0
740 -133 821 400 972 0
547 831 -561 233 24 0
-837 716 -237 -712 588 0
29 -356 136 -184 -339 0
-55 217 383 593 -676 0
-65 518 84 -895 -698 0
-762 405 -904 558 -970 0
-196 491 -445 249 752 0
-643 -528 -467 167 16 0
-2 -508 213 -700 -601 0
-510 -8 -59 834 941 0
779 -593 433 572 480 0
-837 -72 -104 -776 568 0
30 969 -877 -948 693 0
402 -727 776 -588 -375 0
-380 -42 -370 481 384 0
25 -170 513 233 -375 0
338 -866 -330 305 652 0
-948 894 607 844 -125 0
960 659 -851 515 435 0
297 -635 201 -547 821 0
875 65 181 410 566 0
295 -541 630 -2 -835 0
-255 557 158 -168 672 0
-603 416 -592 590 -296 0
627 -796 763 -228 115 0
-117 457 -378 -277 -842 0
-343 -202 -587 104 -231 0
251 423 -720 -494 544 0
-417 29 776 -59 842 0
73 -11 -544 291 -26 0
-353 461 232 -597 250 0
449 -127 -122 -906 145 0
-904 57 962 -911 832 0
-927 88 -83 -635 -49 0
-661 -273 -997 372 16 0
-745 701 -126 -889 848 0
944 769 -593 911 690 0
-52 -974 805 -226 -470 0
533 -468 1000 -863 -617 0
245 329 -353 -276 -2 0
643 584 -6 278 -423 0
79 -360 137 187 -250 0
-889 -137 -842 -252 103 0
-288 -99 -887 -347 -922 0
688 -913 -794 465 841 0
878 -297 -600 -54 -808 0
156 930 105 -330 -171 0
-674 371 938 -656 -979 0
-31 -376 603 116 -557 0
-782 723 515 34 -404 0
-39 933 -391 561 -493 0
-959 250 -718 955 -171 0
660 -963 552 -892 -674 0
517 -593 -41 -227 23 0
456 -349 800 558 -352 0
560 -853 -197 982 -568 0
-366 -974 -610 99 -862 0
418 -729 -205 53 -307 0
-511 690 884 2 -379 0
-914 -334 510 415 -155 0
4 -108 -724 -175 -320 0
259 949 -359 80 563 0
717 557 291 -893 -944 0
104 983 -397 -368 481 0
28 -829 -172 917 -197 0
-481 806 -968 439 654 0
-687 -185 88 -543 36 0
-578 994 851 -167 960 0
-274 543 -411 -647 -745 0
241 162 569 -46 -949 0
-564 -522 366 -230 -30 0
-33 -904 -209 -330 273 0
839 356 -363 522 -47 0
-27 54 -634 -936 433 0
890 -88 -149 679 -810 0
962 924 -336 60 890 0
-40 -744 431 -309 288 0
-562 133 753 -85 636 0
-286 -943 -387 273 -28 0
2 464 -10 515 827 0
-623 433 936 388 -890 0
-992 148 209 239 -365 0
-65 -944 431 953 -993 0
59 850 261 -583 486 0
105 30 -42 -923 -571 0
507 -154 -99 -939 96 0
464 753 403 938 -157 0
-421 889 -902 43 -614 0
-156 -665 -250 -481 -523 0
-451 845 201 162 -487 0
-551 903 148 202 -849 0
43 155 -310 -373 546 0
89 -941 -166 -704 651 0
278 -457 341 -288 -737 0
-125 -369 222 749 -198 0
884 -274 480 120 -352 0
188 361 893 876 744 0
342 783 -927 -609 489 0
-576 192 393 489 731 0
-698 385 390 655 -614 0
246 -24 -865 105 -90 0
-650 330 -1 -777 786 0
-623 850 -272 -51 883 0
525 255 -832 684 -604 0
781 177 448 -312 103 0
177 426 891 -250 680 0
598 340 914 -673 79 0
-211 363 359 -804 -180 0
643 254 -903 -775 -440 0
578 -795 -586 -986 -358 0
-477 749 -737 -130 -378 0
-970 724 662 -22 -965 0
-676 912 867 -25 161 0
-728 880 -5 750 -424 0
340 -314 415 726 418 0
569 485 64 151 795 0
425 808 -221 560 827 0
-740 319 -67 408 83 0
-819 -957 -149 -532 -771 0
-110 -511 -644 -358 432 0
401 926 304 -696 554 0
390 643 342 985 -125 0
-10 157 -167 -442 380 0
-49 313 381 436 317 0
400 -973 58 -539 -299 0
-576 -356 -755 -377 -427 0
599 -101 741 -554 139 0
-582 -916 375 866 900 0
598 3 930 974 145 0
613 552 -332 86 975 0
671 906 -541 -872 -373 0
611 -38 -260 365 -624 0
97 521 10 -659 188 0
-924 56 504 -539 -907 0
567 958 562 401 -452 0
949 2 -989 -882 105 0
930 962 -675 -42 -57 0
-724 692 924 -118 -732 0
-653 -978 -285 441 -106 0
-777 907 -621 -781 928 0
-85 565 -202 -78 736 0
473 -444 -155 59 -697 0
507 579 394 671 -362 0
-421 -585 -655 959 982 0
361 -210 657 49 -137 0
-387 712 -149 324 436 0
-183 -76 -962 481 -737 0
-848 -15 990 -748 -6 0
-675 815 -727 737 131 0
660 -770 -518 -730 -492 0
-41 678 -4 642 132 0
-781 -690 -653 -436 -520 0
-345 985 -295 -98 769 0
-909 -217 -447 -743 978 0
619 433 -672 -746 -342 0
116 -551 -22 -433 983 0
30 665 -499 -86 904 0
915 -392 113 783 242 0
-655 807 -67 -62 448 0
-748 -138 236 -819 -612 0
379 32 -448 -55 -878 0
-634 -728 -174 -163 -255 0
975 145 -174 402 -71 0
578 -465 -227 -666 -64 0
126 -956 -389 -381 530 0
55 561 -458 -157 -374 0
399 -483 -369 -165 164 0
307 -147 -62 48 -553 0
352 -738 -234 -829 366 0
-826 -941 225 -300 897 0
152 560 -964 -88 952 0
-576 834 -466 -52 604 0
483 919 -209 502 329 0
-900 -708 107 -279 -473 0
756 -90 85 -634 -534 0
923 -699 241 -24 -930 0
356 -883 238 -452 -287 0
-922 -336 -157 -715 -531 0
-314 -596 82 590 -625 0
667 -852 -874 -842 855 0
-771 -607 216 701 991 0
-367 -63 233 285 231 0
-203 -650 17 -45 -990 0
-738 -478 152 -158 218 0
961 224 566 -156 -108 0
-871 -207 -869 -479 -199 0
-209 853 -96 -619 890 0
678 281 -113 -807 237 0
-402 618 361 503 762 0
631 -616 -914 -514 743 0
-199 786 154 304 -960 0
-307 -606 -810 -253 -909 0
-336 -294 -692 844 -102 0
812 -541 877 -97 -852 0
-307 -428 974 -786 18 0
-225 171 65 435 -573 0
804 -663 561 955 895 0
-30 482 484 813 545 0
610 -66 -399 -501 866 0
704 244 614 -930 389 0
571 199 -427 622 -51 0
780 -781 -291 -189 560 0
-104 -863 83 781 92 0
-365 -636 -965 213 303 0
153 664 714 680 216 0
-501 785 532 118 922 0
353 -691 -916 -481 531 0
-577 453 -307 -711 801 0
-124 -682 -754 337 -624 0
-2 5 -410 -390 -475 0
300 -521 -546 -686 164 0
683 11 477 264 317 0
10 -772 -476 -261 345 0
-214 -249 -851 424 953 0
555 -203 -11 -379 636 0
-652 512 -657 727 -654 0
765 -779 793 -627 42 0
619 276 -537 -512 -849 0
-792 -263 742 -110 -703 0
967 592 328 857 -220 0
-881 342 -622 -568 -456 0
-666 -510 6 -505 -32 0
-182 -254 390 219 841 0
-176 -365 -446 272 -445 0
993 -227 -210 -600 390 0
415 -194 675 496 -811 0
739 558 -385 292 539 0
-861 -2 727 836 -712 0
-301 75 -549 468 720 0
-177 874 182 364 947 0
152 289 -64 -182 -520 0
135 -280 -680 103 192 0
-120 -498 -709 677 -914 0
703 205 -701 464 -228 0
805 704 -879 434 -909 0
-286 -739 -21 248 -821 0
265 -813 513 915 -348 0
-158 870 320 -221 -624 0
-819 607 195 322 645 0
452 -10 728 107 221 0
-485 -986 946 915 -9 0
-527 18 34 -85 -500 0
310 -810 -249 -340 -137 0
514 478 -910 -348 580 0
-279 -772 -3 459 -388 0
714 137 933 -990 108 0
-6 -926 -317 597 834 0
329 1000 -405 -979 -668 0
-345 -456 612 -740 909 0
792 708 -547 404 692 0
-106 -50 -312 -554 -501 0
664 -950 -620 -88 813 0
-908 788 -895 464 -330 0
230 -347 782 67 -900 0
-441 -339 -934 191 -855 0
541 862 -644 -365 500 0
-192 675 58 -210 -733 0
207 453 -665 569 -261 0
-229 -455 -134 -841 370 0
15 800 889 981 712 0
864 -499 260 -568 704 0
179 607 -668 147 -451 0
-188 -70 -953 873 855 0
-849 678 -549 -32 251 0
-270 840 888 -136 122 0
595 281 430 189 -542 0
-658 -669 -543 -127 -936 0
-476 300 -854 -446 -688 0
-194 -553 883 -522 -887 0
-356 -496 742 823 745 0
-801 -690 -58 849 -562 0
-587 205 45 -599 722 0
-816 -429 -204 -160 660 0
426 -490 355 210 -741 0
265 783 412 193 -122 0
162 -451 673 106 198 0
-297 -37 439 430 -223 0
-811 759 -356 -127 77 0
263 -87 950 565 230 0
-161 -335 763 862 -317 0
-356 214 968 -570 719 0
-45 -500 -89 659 -412 0
-735 -299 332 -483 -56 0
-813 -904 821 686 -713 0
-700 527 -813 105 904 0
1000 374 8 -149 -783 0
814 -371 94 865 -108 0
-905 -998 279 -798 -32 0
808 650 643 -348 -985 0
-13 101 999 218 905 0
-233 645 506 204 835 0
420 -581 -271 -437 897 0
763 -76 -552 -746 432 0
278 941 -530 -588 596 0
-758 -706 -707 295 -959 0
-495 895 -179 -319 -339 0
-736 -535 511 -406 -381 0
279 372 159 127 518 0
561 -259 -509 393 -436 0
-654 -502 -204 -615 38 0
-814 467 413 -179 74 0
752 -155 863 856 -847 0
439 -983 276 370 150 0
223 925 551 -891 -857 0
870 -707 -272 557 724 0
521 -683 -740 -570 -335 0
253 148 -195 268 732 0
286 -684 -355 -870 729 0
-730 -651 738 -649 -574 0
-415 594 378 602 777 0
-807 777 951 464 842 0
-84 -517 -219 -606 672 0
938 455 -634 -392 342 0
-143 219 -731 -619 120 0
-592 -777 387 -292 -899 0
323 -59 649 157 -158 0
-281 -82 339 -399 -949 0
-502 -889 -116 -742 -133 0
-459 -308 -426 -269 284 0
795 156 727 175 -409 0
550 -15 -867 -167 706 0
192 -15 -965 401 -850 0
614 751 356 600 476 0
589 -232 -246 990 -955 0
-810 -702 -894 -389 421 0
-914 845 330 -228 293 0
538 135 -134 73 699 0
324 930 139 -320 551 0
436 885 -769 -532 844 0
982 598 -164 929 236 0
-308 728 159 391 893 0
-709 907 -46 -21 -257 0
174 -674 -541 -894 -778 0
-584 381 -158 295 311 0
668 704 334 219 483 0
948 529 -443 -168 -912 0
979 -87 -916 877 -618 0
244 820 963 416 274 0
908 -42 -928 -949 -859 0
-233 927 910 546 154 0
310 379 945 -446 -464 0
-724 -479 308 -730 582 0
199 -713 393 892 -695 0
174 -86 -833 633 421 0
-191 220 -776 -994 111 0
561 385 -966 -29 162 0
320 467 593 83 89 0
-198 -935 895 996 621 0
-647 744 928 -107 588 0
987 173 -227 350 -736 0
770 -437 771 334 -347 0
-763 913 -968 -930 -638 0
-126 336 -864 579 387 0
597 436 -693 950 -673 0
-67 134 -707 457 -132 0
981 -789 -290 -238 -415 0
-951 -412 502 -28 432 0
-518 -760 654 376 -733 0
341 -853 845 256 698 0
858 285 914 744 -994 0
-961 451 96 -811 -890 0
194 798 -1 -539 896 0
72 -293 -638 -193 -879 0
-199 514 950 368 682 0
645 -777 -625 -453 -289 0
59 -26 282 -285 -628 0
-994 -175 -673 -837 -435 0
-809 639 771 277 130 0
-537 742 -182 488 -542 0
-473 -542 -321 -872 -913 0
-847 741 474 885 -194 0
-166 328 -287 -281 673 0
965 -575 997 651 -550 0
305 -191 -929 -42 302 0
-543 -5 469 -669 551 0
527 563 298 -466 173 0
353 954 -762 -175 -448 0
23 363 -318 604 385 0
209 14 -330 921 941 0
-385 -166 -423 540 673 0
-363 502 -49 378 -712 0
400 126 -22 -433 747 0
-363 689 -362 -215 -413 0
-642 759 -609 -355 317 0
-333 -90 -523 728 -317 0
-884 -427 -842 829 722 0
-680 831 553 928 931 0
670 -629 -111 143 -597 0
-559 621 519 981 -776 0
430 -268 948 -267 -357 0
515 118 -201 -275 654 0
390 134 -623 587 753 0
-454 -302 -281 712 -953 0
-155 346 -901 -533 708 0
741 568 592 586 -875 0
377 -124 226 410 -86 0
-100 -819 -746 811 -276 0
804 484 -913 -352 -889 0
-402 -954 313 178 -512 0
433 -376 -973 840 896 0
872 -422 285 185 -201 0
-349 -483 -380 594 -306 0
-36 -267 593 437 -902 0
-860 376 256 770 300 0
232 -906 734 726 832 0
8 531 877 -185 -850 0
-291 -907 -265 -305 780 0
-542 -788 -886 897 -121 0
-812 83 -873 579 -189 0
196 -974 -630 -808 -257 0
181 -271 -912 756 -436 0
-489 271 668 -308 484 0
908 409 -181 -805 -39 0
894 208 -834 -359 -990 0
812 -749 -267 110 -330 0
763 -184 -935 -448 -263 0
481 -72 467 849 496 0
-293 -200 454 948 -618 0
-311 467 14 421 -94 0
-231 -886 322 -665 -255 0
533 140 241 794 -894 0
-369 133 -490 822 998 0
459 -447 -6 -528 -793 0
-636 -70 909 652 -26 0
-667 -204 742 943 734 0
509 970 -947 -542 991 0
-699 665 182 -838 -853 0
822 665 229 -726 574 0
-341 -272 -636 -671 -514 0
974 480 929 301 207 0
-547 1000 -875 591 976 0
-407 729 859 480 -937 0
-849 -562 210 -925 842 0
699 61 636 455 828 0
668 794 42 644 -247 0
755 -900 106 -428 722 0
823 -47 -598 339 -45 0
-631 136 -550 -924 -130 0
-197 -172 371 -521 -691 0
-66 854 156 24 -445 0
-389 -536 653 -344 -585 0
-961 821 322 -923 -674 0
-876 -836 479 -963 -644 0
488 -425 159 940 793 0
-573 607 399 -971 -244 0
116 274 758 -654 -731 0
-81 309 -47 -695 114 0
380 -17 898 381 19 0
270 660 570 236 983 0
357 -473 654 698 635 0
-334 -624 -17 815 343 0
520 -491 450 513 830 0
-362 -539 404 -963 572 0
290 18 614 -497 955 0
503 645 711 -355 -88 0
143 965 -80 469 -200 0
-377 52 -150 -342 -790 0
70 -822 26 674 -339 0
583 -211 -11 875 812 0
-90 -422 42 -238 -774 0
107 765 -174 -640 -814 0
-275 975 -807 -11 787 0
-794 322 668 -601 -823 0
-531 -110 -948 -24 46 0
-661 991 -473 192 -321 0
-866 123 426 -196 461 0
-299 -412 618 -476 -589 0
-121 -766 714 -562 864 0
834 -570 42 621 574 0
475 -99 62 307 -12 0
344 101 -67 -219 -706 0
-460 -735 397 -555 752 0
-264 301 554 760 -229 0
921 -340 -720 -130 206 0
676 361 -902 -37 -87 0
-37 -736 -812 792 739 0
-394 -433 -1 299 528 0
-573 416 -382 827 362 0
850 -787 -704 905 993 0
-746 -177 555 -932 -633 0
791 -135 337 -75 362 0
306 49 409 425 -579 0
608 -605 364 -182 -959 0
263 924 342 -88 674 0
-529 637 184 179 337 0
455 257 839 -481 120 0
684 998 717 261 237 0
771 -412 695 702 -380 0
510 164 914 349 -991 0
-343 722 -587 -550 -27 0
249 -358 -453 -119 -313 0
-339 726 647 119 399 0
118 -749 -242 -366 269 0
180 -148 -135 979 -408 0
59 -261 -145 -794 -816 0
-773 508 -702 346 203 0
359 -57 -64 -237 133 0
131 -733 -478 -935 334 0
-892 -659 75 184 -94 0
-998 -49 282 -587 847 0
-474 -849 -626 -876 465 0
432 -77 -247 -901 32 0
612 969 487 555 332 0
46 -855 909 265 892 0
84 558 -974 390 -624 0
438 -482 -911 896 752 0
-821 -27 76 -461 486 0
-662 -176 684 -239 30 0
-543 -793 -68 -341 77 0
-728 -777 -26 -9 -64 0
171 221 819 -316 994 0
343 719 -864 482 -748 0
439 218 -27 -267 -417 0
-717 728 827 376 -899 0
994 340 -363 647 686 0
-524 785 -602 648 504 0
-170 -833 321 -1000 698 0
268 211 287 296 859 0
250 437 263 -974 -970 0
535 144 -582 -838 -512 0
-609 -205 -31 519 -788 0
21 -15 602 969 -236 0
266 -991 -296 414 -734 0
-629 898 -390 -786 -53 0
807 585 -761 -597 -689 0
-4 -194 -925 818 534 0
-180 850 572 -791 794 0
-235 -252 -965 166 -236 0
-744 -379 821 78 776 0
618 -592 -210 -964 247 0
-985 -727 142 -324 -245 0
-49 182 885 -457 932 0
-793 -157 160 408 704 0
578 -755 -65 -171 -634 0
-722 -220 -650 825 631 0
-133 -846 378 -81 -246 0
820 106 649 -958 53 0
-40 -540 215 -8 900 0
951 -112 347 -949 773 0
177 -222 626 78 -845 0
110 325 -974 950 -454 0
823 794 294 536 -216 0
247 -317 -374 -616 9 0
-102 629 1 -395 554 0
-365 552 -739 -241 681 0
891 357 688 256 384 0
-273 -694 983 590 -195 0
542 -853 767 -926 -583 0
899 -333 -58 298 -627 0
-892 37 525 535 -554 0
996 890 547 -875 359 0
-721 846 -719 -353 49 0
921 -403 -889 766 -256 0
-719 451 -155 270 277 0
-233 -530 660 519 571 0
647 -91 362 -739 -6 0
883 945 -432 815 45 0
188 185 -612 -891 -694 0
-549 43 29 -952 -216 0
472 784 -701 -745 -429 0
-340 672 -272 -64 103 0
753 785 -859 -362 -755 0
11 249 810 489 -230 0
-293 416 -341 -896 -335 0
-723 469 12 306 171 0
731 591 393 923 -334 0
146 137 937 810 776 0
-382 263 -435 -83 -741 0
-457 472 320 562 199 0
-797 204 328 988 535 0
-244 595 -572 201 -778 0
560 655 960 516 -865 0
-352 -471 431 -582 -878 0
358 -182 -594 -748 -577 0
-492 349 -142 -982 765 0
424 84 369 804 -532 0
-483 -837 -765 -888 522 0
-757 -493 791 -294 -367 0
-481 463 301 -369 -86 0
702 229 544 117 151 0
-978 -657 470 -295 511 0
-102 -323 708 -555 -827 0
-89 465 314 96 -241 0
-467 108 193 -725 284 0
-17 214 15 -140 -635 0
366 184 201 205 867 0
-471 114 971 -217 -228 0
-50 208 72 -789 -77 0
274 -419 -190 860 676 0
-720 311 -659 -790 932 0
529 533 36 750 435 0
-94 120 544 -441 -612 0
-666 -642 -406 746 680 0
799 -648 -459 405 443 0
858 58 -502 -107 -606 0
421 999 -810 396 -287 0
146 924 -598 -602 554 0
735 731 -116 779 145 0
295 -859 994 69 -72 0
793 429 97 -118 -317 0
-194 830 -250 190 594 0
-38 203 -403 77 508 0
-363 621 -109 763 -682 0
856 14 -694 -508 786 0
226 -898 774 925 998 0
852 -13 471 -461 -289 0
-769 51 -104 -37 -195 0
138 91 -763 -339 283 0
742 -188 492 869 -920 0
-575 967 549 -689 907 0
-508 283 -461 -841 721 0
402 -969 -412 582 766 0
737 950 608 330 817 0
-931 404 -7 -522 -650 0
-384 -490 980 -850 311 0
205 50 -552 884 -947 0
502 -272 192 -924 836 0
776 809 -320 -141 165 0
-174 470 -961 940 773 0
-106 -153 -268 -74 237 0
-84 -378 509 565 -676 0
-556 -113 787 -312 -291 0
-679 -425 442 -590 -97 0
-983 -20 458 -764 878 0
792 -522 780 901 -414 0
640 -253 761 -296 672 0
138 -113 -28 934 -638 0
614 -84 -528 -865 -209 0
385 84 738 554 -75 0
229 297 -982 598 -925 0
80 -339 313 -389 -109 0
-542 739 -791 410 252 0
-821 148 127 560 -679 0
-443 375 -326 -768 503 0
623 956 414 -375 -486 0
-176 876 -913 69 159 0
-918 131 645 -317 -619 0
-792 955 504 -877 33 0
-516 108 718 698 -162 0
-982 514 627 -849 -86 0
-732 9 780 295 -643 0
-637 643 712 -518 286 0
653 94 44 -750 -118 0
-954 283 -492 827 -446 0
18 -248 809 -227 642 0
695 806 138 265 -748 0
432 -913 -447 -103 441 0
-909 550 269 -338 722 0
-536 699 -820 -191 -54 0
578 -617 925 -314 38 0
-674 638 443 -25 -920 0
-689 -75 660 258 -108 0
-969 458 -691 -639 588 0
905 769 442 -620 377 0
-659 -666 -982 564 -440 0
-564 81 -993 427 280 0
114 563 -339 -683 -769 0
-983 984 116 -472 913 0
141 202 342 -123 -94 0
-629 -300 350 -771 -988 0
648 973 -946 -677 12 0
-410 -238 40 -137 -860 0
436 676 -910 -34 -397 0
66 901 -791 -236 584 0
89 -388 -277 -276 -404 0
960 -129 -234 380 -778 0
-268 -63 28 61 -988 0
662 93 -975 601 -154 0
-91 98 -178 -9 -881 0
-304 -834 753 90 248 0
-110 53 508 131 364 0
46 144 -284 492 344 0
-762 -434 -866 583 54 0
663 -326 -432 803 627 0
841 653 -506 -132 -879 0
460 126 78 882 171 0
209 610 -584 37 -119 0
-896 -467 625 -596 394 0
912 328 366 -498 318 0
490 361 -144 176 -338 0
927 543 531 377 120 0
372 251 768 -553 -168 0
205 -497 7 -826 583 0
566 101 538 -470 986 0
-630 -526 352 -216 -684 0
189 -403 -614 695 -599 0
-116 -326 -362 -154 -506 0
279 -757 417 -356 638 0
45 -422 -660 -499 -270 0
312 797 -924 141 705 0
777 -401 -184 575 -215 0
-407 -173 -864 172 -190 0
-626 -686 589 -951 957 0
66 592 294 -608 166 0
-553 581 -350 438 -67 0
-976 348 -355 -90 585 0
-504 -155 931 419 7 0
-872 -544 -338 -643 96 0
-778 607 491 -988 552 0
654 573 -612 -969 873 0
-313 731 725 583 773 0
417 892 969 879 -777 0
-92 -30 129 65 -941 0
94 725 416 -279 323 0
864 689 200 -27 -675 0
-909 -537 -492 -695 832 0
372 327 811 -155 -454 0
-759 -498 -62 428 -547 0
602 -196 862 232 52 0
-844 -339 -521 431 186 0
-540 987 -827 -290 865 0
-443 -783 -615 24 -951 0
924 205 -644 512 683 0
-559 -971 -520 -201 563 0
707 -126 907 -79 598 0
-607 -633 732 -929 741 0
-936 178 19 978 -884 0
-340 827 581 372 -205 0
-513 601 -602 762 743 0
-596 591 -421 -778 -50 0
-567 -714 403 592 -471 0
-537 -122 643 -297 -819 0
235 462 470 -705 -361 0
-299 -321 397 -712 -869 0
505 -120 -315 -352 646 0
-901 308 795 -640 -315 0
266 -152 -213 933 233 0
-442 -285 217 -189 -923 0
-521 -267 -832 234 -896 0
-646 -63 587 189 872 0
910 203 -310 3 366 0
-858 -937 -560 -783 -381 0
100 -459 876 216 -705 0
799 -211 -431 333 -268 0
-963 -881 -131 -787 -464 0
551 989 -430 -534 968 0
-880 367 157 -272 856 0
-614 142 239 -444 926 0
-690 308 -538 -512 894 0
503 -155 850 -454 -883 0
-978 102 998 795 991 0
-407 -721 514 -895 -861 0
507 -602 562 -136 616 0
370 127 -362 428 207 0
762 -332 -330 374 109 0
440 -169 802 242 -951 0
