c 5-SAT formula
c 1000 variables, 4000 clauses, 5 literals per clause
p cnf 1000 4000
265 290 -962 -260 252 0
753 -837 -118 735 -979 0
-333 959 -437 633 -565 0
-203 242 -975 -801 -9 0
491 479 483 606 593 0
808 11 -334 -810 -758 0
-340 16 -657 652 604 0
-324 -694 -664 802 -735 0
-338 -58 935 358 -457 0
-56 -170 -986 -315 488 0
275 -982 -201 386 -675 0
-186 171 987 -793 63 0
-824 -98 -526 -254 816 0
851 684 -25 168 945 0
-738 -215 -189 -606 919 0
-636 41 -52 344 -980 0
-805 651 57 737 -424 0
-113 517 -69 -439 -4 0
-489 707 -966 -996 317 0
-685 -979 549 853 -883 0
770 -748 914 -270 99 0
-872 360 267 -126 -551 0
-370 194 -47 -688 -596 0
-27 660 897 -236 -425 0
-928 627 -107 -181 238 0
-159 -313 -625 635 842 0
686 534 -305 591 -883 0
11 -676 216 -819 456 0
-354 -910 755 798 -39 0
-393 -333 581 -392 351 0
-585 -899 759 -723 -478 0
719 -385 -70 807 -134 0
389 -212 706 29 238 0
794 515 -537 753 -895 0
784 855 -626 31 318 0
362 -610 162 471 550 0
873 -636 815 159 637 0
533 -773 14 -308 -224 0
872 -515 913 -635 -897 0
21 -629 -399 355 976 0
315 -864 919 -866 92 0
-519 845 -122 737 -782 0
588 -335 -893 -719 -183 0
-602 43 -181 799 386 0
846 289 -841 819 524 0
633 -961 358 -525 26 0
-972 -166 -158 206 281 0
-210 -958 96 -377 159 0
225 -82 611 581 -59 0
-357 -291 264 -181 973 0
-168 -999 964 277 988 0
21 -626 486 -325 822 0
-9 153 -152 -382 -271 0
-342 529 291 928 523 0
39 -512 801 -140 -870 0
593 -74 -443 376 755 0
745 -542 -649 -937 -494 0
732 -242 -405 459 9 0
731 664 -517 412 -251 0
765 -447 -997 -835 -319 0
946 659 390 635 -6 0
424 -361 -935 223 976 0
-355 -689 742 -381 665 0
255 247 543 -553 480 0
-402 -498 104 -231 -981 0
-315 467 -526 616 583 0
571 -63 -242 820 -372 0
-274 952 524 -346 733 0
231 -266 528 -799 65 0
150 460 331 205 -717 0
-845 -989 -707 694 -452 0
618 205 153 376 -263 0
-951 104 -7 93 150 0
-692 -299 -3 736 564 0
-642 -507 715 -765 126 0
26 51 -38 -571 886 0
-452 -319 -494 -501 -264 0
-740 -608 -628 -687 -206 0
-45 554 2 -449 138 0
-877 724 865 342 262 0
-763 758 -10 -128 564 0
-13 -965 -775 162 -122 0
516 322 -672 25 -701 0
530 -418 -665 909 -684 0
273 499 112 362 -654 0
-127 -94 -754 -76 -37 0
951 484 -633 110 -622 0
324 512 915 -712 -290 0
-734 462 -742 925 -219 0
-763 863 931 -411 -811 0
-427 814 554 94 166 0
456 -951 134 -457 -241 0
393 -602 -231 533 545 0
901 864 -504 -991 -868 0
231 -657 -235 -162 621 0
273 -141 708 181 -536 0
-827 -546 819 250 -211 0
51 -565 204 -980 4 0
541 687 334 110 822 0
-733 -512 -140 -276 961 0
642 -395 459 -555 170 0
434 -685 -864 -966 -759 0
-535 -233 597 -441 298 0
-581 -79 657 76 -394 0
274 -567 853 905 -591 0
243 -391 -552 143 848 0
-79 851 -34 796 263 0
-390 -838 762 -336 22 0
717 684 361 -680 -249 0
379 996 156 763 -388 0
148 -832 516 -538 -504 0
-46 -205 -414 493 -360 0
-459 71 -908 -761 316 0
156 -357 -409 235 71 0
192 340 -888 -991 209 0
-305 692 -114 174 241 0
213 -477 -56 -192 -419 0
-934 652 -452 -857 60 0
874 711 562 -795 970 0
32 888 -461 -599 -67 0
-725 -562 -171 -349 -788 0
387 -743 14 -698 576 0
-735 199 -302 -720 -282 0
-670 606 617 625 -927 0
767 -552 602 480 -589 0
-112 445 -300 -648 984 0
-720 974 29 545 -650 0
927 -339 -566 639 865 0
-499 221 -467 711 -589 0
749 793 858 185 723 0
161 -305 -48 589 -765 0
44 350 716 -431 -567 0
967 511 -427 -761 82 0
492 408 635 138 -899 0
900 -970 990 404 103 0
-618 -295 396 17 -425 0
276 144 -182 180 -7 0
-735 1000 666 -878 -530 0
46 726 722 -430 -989 0
-216 486 -883 -520 40 0
318 791 -602 445 527 0
383 534 -770 961 316 0
-468 480 -94 648 647 0
958 132 17 805 716 0
379 -181 -204 -208 133 0
-894 278 -333 -375 -673 0
897 703 -239 -815 317 0
-140 -892 358 855 501 0
928 -88 882 383 -962 0
-56 401 106 -247 908 0
859 -329 -320 -574 34 0
104 881 879 -822 230 0
291 670 160 -404 741 0
222 -544 67 34 -720 0
172 -515 -723 770 435 0
154 -485 -96 -746 109 0
997 -472 -942 147 455 0
-310 -13 -362 -336 -752 0
787 101 687 -741 424 0
970 -653 542 -332 -571 0
-872 -590 825 731 360 0
-990 -200 -595 525 36 0
832 664 292 265 326 0
677 746 -840 404 246 0
163 812 2 808 933 0
911 -342 550 156 309 0
-64 50 -113 135 977 0
527 65 112 951 -800 0
-504 54 663 51 553 0
138 741 -118 433 4 0
-794 105 904 426 -501 0
-652 396 -375 -835 544 0
-268 -884 96 -493 -719 0
76 -517 -339 678 591 0
802 170 -882 -169 402 0
915 921 -957 11 994 0
-809 -421 50 346 971 0
751 745 906 38 987 0
-880 237 -818 169 -849 0
187 862 383 -843 955 0
527 433 927 -518 181 0
-834 -842 -860 473 -359 0
-777 -9 -521 -669 487 0
-460 449 597 569 -28 0
-218 939 861 -713 85 0
-985 94 301 255 172 0
626 -12 -329 -476 -650 0
-133 283 555 978 -825 0
-437 -71 357 -8 34 0
865 -856 431 928 991 0
-972 -901 522 -680 897 0
329 553 -277 -271 699 0
-137 -182 -242 941 806 0
-211 804 -439 953 749 0
-818 783 251 -174 -551 0
-817 -123 -400 169 612 0
684 98 849 266 426 0
-627 -690 780 -32 -80 0
-431 685 -419 -198 -140 0
-369 166 895 -154 -335 0
-740 -994 493 561 -654 0
149 657 914 568 911 0
-72 -98 -623 959 -384 0
-994 254 -605 -429 723 0
703 -859 -842 901 122 0
-936 817 -432 318 465 0
-741 -921 -652 530 649 0
969 -480 -695 -575 -411 0
330 -710 896 -912 -612 0
779 948 942 -153 428 0
-663 906 -457 253 -84 0
-64 160 82 689 -50 0
-561 130 354 759 702 0
485 -565 945 397 -302 0
494 828 -567 -5 -791 0
-106 954 -172 948 107 0
-734 843 112 -438 116 0
-296 682 -677 -400 328 0
835 -866 -664 -831 485 0
847 -537 131 530 -253 0
536 -804 836 322 427 0
-468 -554 822 300 780 0
289 238 189 -486 604 0
269 -86 619 29 -203 0
-813 -485 597 318 -626 0
708 -509 473 -319 431 0
-479 166 327 640 -246 0
-580 -850 241 431 523 0
-771 988 -232 704 253 0
290 313 491 -962 990 0
-294 -631 118 -694 233 0
-680 918 -353 604 441 0
640 -496 108 -165 616 0
-61 -510 423 334 419 0
337 847 197 552 775 0
328 -416 -349 -203 511 0
-605 -899 265 675 -572 0
-955 -897 -157 -559 818 0
938 2 170 -604 -59 0
749 -500 645 -310 -963 0
-20 -996 -639 -336 -376 0
160 234 761 -680 796 0
-299 -842 934 247 951 0
-747 423 333 171 111 0
-385 131 323 515 956 0
170 -784 -361 415 794 0
452 -135 -500 95 823 0
-703 150 -489 -515 -674 0
-963 83 -106 723 858 0
-597 -993 725 472 396 0
-27 817 683 -344 -451 0
-689 241 -694 -738 57 0
-680 44 -710 -947 -471 0
951 695 -398 -611 187 0
-369 -269 333 -587 -352 0
-214 407 936 -764 -274 0
-835 -523 997 382 -668 0
763 -530 -578 226 -305 0
627 413 953 -312 -751 0
337 -146 -587 391 -883 0
-401 42 792 -153 -788 0
-895 418 452 -627 -158 0
-634 154 494 -20 447 0
922 -606 46 937 -105 0
-262 -697 -352 887 855 0
-831 357 898 -419 -914 0
521 -970 431 -870 -680 0
93 672 562 -737 781 0
332 876 398 500 -493 0
-847 704 -306 -601 222 0
755 -763 141 411 -485 0
634 623 833 974 416 0
391 541 517 244 -459 0
-202 100 -405 -307 -615 0
-761 348 -547 931 -54 0
-41 -179 327 -431 628 0
-919 885 603 -534 179 0
-397 788 -277 -614 317 0
53 -145 -541 -718 876 0
22 -650 660 -490 815 0
45 247 148 988 879 0
301 -403 -843 383 729 0
-506 767 -403 861 660 0
889 421 978 -424 -297 0
278 -503 226 773 -276 0
155 -18 -995 -910 -236 0
-455 -541 136 -896 -686 0
-101 -670 132 968 -322 0
708 -147 -277 -20 572 0
-662 9 -92 676 763 0
-41 -900 556 385 -219 0
343 -811 -204 293 686 0
560 607 -28 -843 -810 0
877 673 282 -430 866 0
743 -183 650 -27 -900 0
270 533 723 -866 72 0
-647 -156 -964 -181 780 0
-208 -792 250 -946 986 0
-531 323 761 368 -19 0
-287 355 117 -892 -389 0
555 -146 -531 388 -551 0
-172 730 -895 -86 -828 0
-922 -458 -554 167 -728 0
889 -363 301 255 -396 0
-682 -869 64 -410 -567 0
441 643 249 -724 -898 0
530 260 -471 -838 389 0
-180 -25 -211 448 -212 0
986 -432 -14 -803 18 0
-892 -686 300 531 -329 0
372 269 -798 -114 383 0
883 -88 -972 750 -77 0
781 -927 -619 611 413 0
-469 457 233 851 -599 0
678 905 883 269 -780 0
-475 200 -735 792 -323 0
-121 -534 -32 428 -670 0
-265 581 -773 -780 -482 0
668 632 123 527 -507 0
371 -966 158 -839 -441 0
978 -814 -1000 357 -767 0
224 -735 361 -45 -273 0
160 328 859 187 340 0
-209 -100 641 -794 302 0
178 962 638 9 -157 0
-84 745 -69 146 -542 0
-184 63 10 991 76 0
-492 966 -881 -942 -137 0
-571 376 -928 822 -698 0
-340 -61 -319 828 286 0
321 185 -436 317 866 0
928 -671 -964 -118 -15 0
217 -465 277 434 879 0
423 467 441 -907 242 0
117 -49 -349 -361 744 0
245 980 712 -139 -237 0
658 -13 -831 919 925 0
749 -131 -986 -588 688 0
-302 -516 -364 -856 514 0
730 -946 -337 910 -363 0
-629 -68 -976 936 379 0
-629 -540 225 115 671 0
-537 -947 669 -538 107 0
-719 748 -241 -629 -522 0
-627 881 664 -605 -115 0
-813 -927 -506 317 -404 0
-292 41 153 -805 -192 0
-889 491 931 -52 847 0
209 213 -955 148 -838 0
292 744 845 -277 -604 0
-201 647 -433 977 -47 0
-570 -370 612 801 -750 0
359 843 502 -267 279 0
-990 -538 575 944 -115 0
-712 932 386 568 -268 0
-433 -456 789 -476 564 0
549 -559 764 -13 -953 0
933 915 -605 -535 -923 0
440 -364 -377 -263 845 0
-93 -620 -457 -492 308 0
-846 405 -735 -394 343 0
29 -192 -17 -373 418 0
25 433 -350 873 616 0
-352 265 -609 -440 614 0
-992 -761 238 -56 -424 0
-847 -99 -322 805 -984 0
493 -193 145 496 -821 0
975 -175 -546 694 10 0
-546 -992 401 399 976 0
933 578 -531 -225 430 0
700 163 -592 613 -595 0
502 577 -611 744 -581 0
119 -545 206 935 958 0
536 -141 826 381 731 0
241 174 -121 -385 1000 0
-968 -276 242 -172 976 0
-298 -151 -833 -803 -451 0
102 382 -791 -582 931 0
228 931 -198 508 -809 0
766 645 527 545 548 0
179 826 -208 740 81 0
922 -176 -596 214 284 0
458 389 614 305 -914 0
-738 -570 -597 -450 -398 0
-894 433 486 -639 155 0
326 665 -555 -195 140 0
594 -858 336 53 44 0
138 625 -446 -902 -660 0
-392 264 436 438 121 0
930 -301 -814 243 399 0
-947 -512 129 -320 371 0
-497 -558 987 302 -343 0
-434 892 782 -880 244 0
-888 -548 87 -632 -919 0
-438 -711 -337 462 819 0
-190 201 -83 -307 -742 0
385 -564 -682 202 -877 0
633 598 191 -854 -572 0
-379 816 745 -368 758 0
-943 720 -667 -159 -69 0
45 -694 -847 -897 -556 0
705 950 -345 -183 915 0
-845 -487 117 -544 559 0
536 832 935 -404 408 0
-921 -774 -402 -267 570 0
863 880 -433 973 -921 0
-535 967 -536 417 874 0
-239 -273 835 569 -977 0
744 -225 -989 361 129 0
-129 -573 43 -410 555 0
393 546 80 599 253 0
647 -91 159 30 600 0
-980 -321 576 203 733 0
-828 -550 -229 10 127 0
807 736 101 973 -201 0
-338 -245 148 503 -280 0
-44 957 751 262 -62 0
45 -192 974 -98 -119 0
-538 -940 624 488 136 0
-651 588 817 -470 -108 0
62 172 762 653 -261 0
234 -93 -408 388 328 0
-657 -70 -862 223 364 0
-238 193 587 -412 312 0
-173 535 143 -782 -97 0
629 945 325 217 -286 0
-163 -943 88 -643 42 0
479 844 -118 -761 -122 0
-593 444 -317 79 903 0
-22 -881 -952 -266 771 0
-254 445 -262 131 600 0
34 57 -154 -874 -293 0
-401 284 378 786 -711 0
254 -394 600 -217 935 0
-740 888 136 221 135 0
-721 858 522 -790 247 0
833 128 -365 -303 791 0
-267 84 362 -660 1000 0
-655 474 779 519 -939 0
-624 308 -665 -113 135 0
-195 -973 -856 625 433 0
791 -2 -713 660 134 0
-26 -767 -231 995 -876 0
-411 -732 -671 -331 -385 0
-454 606 -629 -453 97 0
44 -234 -464 136 580 0
-390 -175 58 387 -755 0
-814 803 540 -911 207 0
895 -969 -198 -203 225 0
237 -734 97 -833 201 0
140 442 -973 732 741 0
384 -335 495 -990 481 0
-829 -773 766 -45 979 0
434 585 138 48 852 0
916 -703 440 165 -731 0
204 -366 -310 -768 -523 0
495 82 -258 -52 -299 0
815 -789 -559 -219 907 0
-953 -46 416 -786 376 0
-758 849 -596 891 -133 0
-549 631 654 684 259 0
465 758 516 156 -283 0
-324 -878 416 204 116 0
-413 583 121 384 89 0
83 -26 123 -316 356 0
-950 305 -738 316 -864 0
196 -616 530 271 -69 0
60 257 -771 961 -430 0
681 23 739 730 -475 0
589 -1 664 32 -901 0
538 -160 917 637 -299 0
-933 -133 582 667 -431 0
635 -195 -275 112 590 0
91 4 451 330 -462 0
-380 933 835 640 166 0
-658 729 -53 176 820 0
-400 2 997 610 -674 0
468 -157 500 -530 180 0
773 419 303 758 -494 0
212 -183 -724 897 732 0
293 681 -158 227 475 0
-21 666 998 112 374 0
-421 -352 -550 428 -247 0
288 397 820 471 -647 0
146 228 750 89 -487 0
375 301 -311 -565 715 0
78 503 -664 -677 -950 0
-267 -444 869 -946 66 0
-258 783 765 566 215 0
624 51 -286 -52 162 0
-513 -599 -891 -800 237 0
231 147 -543 989 316 0
959 71 -642 712 -804 0
-455 785 -833 282 -295 0
-485 870 -256 -193 19 0
-738 -760 -780 -16 130 0
803 945 -587 -351 -383 0
290 637 -949 293 419 0
236 819 787 488 -231 0
-339 89 -107 74 291 0
-684 -363 -848 883 53 0
-538 -502 463 804 -324 0
-243 399 202 937 419 0
-630 618 -247 -601 200 0
-824 254 330 224 898 0
-187 627 -757 31 -634 0
72 987 -875 -444 319 0
-832 -907 93 -19 -610 0
241 961 439 593 743 0
-336 -435 967 878 353 0
280 780 -119 359 113 0
734 221 -466 968 -983 0
-104 328 -601 -6 427 0
-62 980 -139 724 441 0
98 73 24 732 808 0
636 -416 -518 207 939 0
-994 956 407 -21 287 0
-724 937 454 352 -388 0
856 -284 -337 -691 -379 0
319 -858 654 -787 518 0
-74 -1 -478 93 -931 0
-442 493 563 223 935 0
-915 723 244 325 -867 0
-263 -991 -198 -234 816 0
-241 529 -671 -397 -593 0
-446 383 322 669 720 0
-537 -192 -363 543 -987 0
-39 552 -688 -256 219 0
340 -147 -539 609 315 0
994 -609 -664 -979 -347 0
-537 -104 -284 -9 245 0
-94 998 -429 -600 919 0
-484 162 -793 -668 -722 0
894 423 635 591 421 0
503 -318 912 -451 951 0
823 95 146 498 -14 0
-177 599 616 -475 -548 0
-567 751 865 149 -528 0
-598 -976 -422 417 -733 0
-827 -915 -472 333 733 0
357 -262 -543 587 -307 0
465 434 -576 -174 446 0
691 469 -892 -894 -504 0
949 -932 -425 -829 -66 0
305 -903 -304 470 -252 0
73 -528 145 633 136 0
827 393 -468 621 -383 0
-807 731 76 -949 563 0
-30 -103 916 -192 752 0
-278 202 -151 -262 393 0
475 98 -399 -238 512 0
809 -936 -889 659 -525 0
-149 867 -191 803 -665 0
508 589 -428 -735 172 0
500 718 -305 -158 349 0
-427 271 594 928 131 0
998 -806 256 -351 -432 0
-823 832 -340 -40 109 0
-759 -906 -362 -679 -29 0
759 -622 -645 -877 -577 0
193 117 856 -959 -908 0
-923 448 -781 185 777 0
578 -501 317 107 -356 0
821 -239 -117 449 -581 0
-33 324 702 561 -270 0
-966 -284 750 -57 42 0
-904 -165 -8 -687 -744 0
720 -979 -305 701 -616 0
184 -808 436 -211 347 0
-850 837 -270 -191 143 0
227 122 -456 -190 791 0
297 -627 291 7 -281 0
137 249 -265 -221 -407 0
-587 -749 -196 -419 95 0
-890 -540 -451 73 -517 0
-839 504 835 -417 68 0
-836 -633 727 -970 237 0
-828 -625 613 -46 -449 0
940 896 -545 -391 591 0
793 542 -155 -509 124 0
87 30 290 187 -904 0
-425 502 489 -37 -675 0
-737 451 822 -914 -515 0
528 -232 -855 -131 626 0
532 4 983 -389 -671 0
130 -293 -203 110 -139 0
-944 179 444 280 497 0
168 875 440 -110 -143 0
-761 -490 -182 652 -276 0
-911 507 412 833 715 0
-425 -792 -410 -310 -707 0
-691 -150 -927 366 -45 0
-791 904 -575 -695 -845 0
744 -664 359 108 127 0
824 292 -878 383 -35 0
-794 770 437 -439 -66 0
-303 -564 -914 -576 192 0
-390 188 663 517 -497 0
26 820 -535 697 150 0
642 -363 -108 46 116 0
-814 -875 -552 -697 360 0
-559 312 929 -29 596 0
544 -156 -496 444 706 0
-587 -844 -361 552 523 0
-235 -385 -539 799 -155 0
47 945 730 631 95 0
139 290 487 310 -20 0
25 -139 -59 741 -53 0
869 624 -908 121 441 0
752 155 360 -563 216 0
-403 -62 -166 432 -240 0
-547 -370 -801 363 -789 0
136 811 697 359 789 0
464 549 -843 -516 624 0
659 936 -422 334 -296 0
861 836 885 139 905 0
185 -900 -993 547 -505 0
-408 713 -726 978 340 0
36 -412 -197 -436 -526 0
779 982 -545 -335 -231 0
-399 448 -714 -171 837 0
198 -372 -664 -62 309 0
411 268 608 -460 337 0
169 -546 89 901 -483 0
-740 369 306 526 990 0
395 990 -393 -514 10 0
-468 -74 -780 808 176 0
186 -615 -59 729 -529 0
-700 914 -845 -617 -522 0
592 -66 286 502 -516 0
705 -875 177 -66 -925 0
-116 100 475 -496 -690 0
-340 -343 -316 -963 -408 0
974 31 475 282 182 0
-25 -105 -170 820 -625 0
713 -551 -468 -384 264 0
120 815 545 127 -955 0
249 996 937 -799 461 0
262 493 -599 -999 -633 0
-603 767 620 633 626 0
871 -288 -667 -386 -351 0
-702 -758 800 -609 -67 0
-718 -563 -87 -477 -474 0
-65 -668 697 -795 -618 0
-938 374 -776 92 105 0
706 475 -743 747 -420 0
-448 641 14 -349 -989 0
499 -749 -778 892 -656 0
649 -180 -984 495 -55 0
-127 653 -151 521 -156 0
-462 -745 843 51 -730 0
-757 704 367 966 824 0
381 703 -290 548 -919 0
-354 218 -583 -473 128 0
57 -663 804 691 -288 0
-45 443 -316 753 -551 0
997 -778 715 584 -321 0
-519 60 509 -99 8 0
-920 615 -279 369 316 0
-139 74 -480 997 673 0
220 666 -486 -961 -138 0
299 747 199 -799 99 0
-632 -757 214 891 -385 0
-246 339 807 -715 147 0
348 -573 768 212 501 0
-412 344 -571 678 41 0
-122 -306 980 -702 908 0
-322 818 -358 -95 -341 0
-387 -97 856 700 -122 0
55 424 671 387 -507 0
-206 931 -554 -880 -802 0
770 942 -912 -754 267 0
857 39 347 487 -676 0
625 -176 863 740 65 0
645 434 -207 -374 -720 0
216 -595 -868 -297 578 0
-137 -706 -637 -793 -83 0
-610 837 -222 -483 -569 0
502 -634 -776 -326 876 0
-145 119 -497 557 -144 0
323 753 635 854 629 0
170 632 68 495 -28 0
649 -946 -814 -558 -433 0
-574 -286 726 476 665 0
-601 797 450 887 -763 0
-633 -362 -559 273 -354 0
191 -341 -837 398 -26 0
-23 -158 69 704 226 0
-639 567 -836 -158 -347 0
734 -833 882 -862 -798 0
927 880 620 -67 -678 0
-725 112 998 611 -716 0
-302 567 901 408 352 0
-858 265 19 -183 -41 0
-121 577 29 178 299 0
-253 739 -542 -207 322 0
-671 -297 73 -580 -398 0
303 -900 -155 729 305 0
162 -610 218 -567 969 0
-177 441 -48 -872 -766 0
334 -757 -254 362 640 0
337 -155 427 -85 547 0
-952 -223 -740 -284 -626 0
-957 989 -90 -581 23 0
549 325 -867 -725 599 0
475 -295 -461 105 510 0
-273 -817 -808 463 -226 0
397 863 692 -691 688 0
-347 194 -133 993 733 0
-54 736 862 -473 -362 0
863 -21 -549 172 138 0
753 911 -577 241 137 0
-193 -79 636 365 346 0
87 -744 -630 -645 611 0
-757 -745 787 -56 -286 0
302 562 -982 -798 894 0
-322 614 -966 -126 -774 0
-195 462 -686 648 -402 0
-591 -485 -498 -736 854 0
-842 -888 -523 -572 -511 0
-438 -950 468 -484 -123 0
-690 -503 135 -963 973 0
-623 -314 -198 525 136 0
-950 -996 642 -561 -403 0
594 4 -938 -821 847 0
-106 -150 391 -58 -526 0
947 61 -386 22 697 0
-342 785 432 -489 -41 0
589 709 564 -567 -886 0
-389 -757 510 330 154 0
-971 963 648 594 -643 0
-419 926 302 661 798 0
567 -662 -451 -680 624 0
654 -368 361 -795 491 0
-979 888 537 -394 682 0
996 669 352 317 -874 0
-291 -801 -192 -860 313 0
88 180 296 -874 -813 0
570 -256 492 979 963 0
692 -492 99 -270 -455 0
97 719 -275 -274 -319 0
809 991 -433 75 -19 0
776 -78 258 294 738 0
-573 -934 455 -700 251 0
296 -72 -36 438 201 0
-840 -67 763 -841 -161 0
149 493 323 -978 157 0
978 -305 -761 765 895 0
125 217 -841 790 -501 0
241 691 164 505 901 0
-916 -827 216 -795 594 0
-475 563 -358 745 -662 0
-880 843 -385 -498 25 0
202 -357 -899 -693 -94 0
216 -432 -801 -393 -80 0
547 -48 455 -471 809 0
684 -661 695 -411 808 0
376 94 734 -883 114 0
-917 86 -820 -759 311 0
371 -988 501 489 803 0
794 -994 778 817 -485 0
896 -526 425 -110 -979 0
16 -393 -95 870 611 0
-390 -29 988 -383 -299 0
-18 -836 528 516 -37 0
-783 -667 467 -201 268 0
-726 -413 286 428 276 0
654 239 -218 -220 871 0
-48 -427 77 687 416 0
985 -415 -273 -604 -624 0
-833 -304 416 -328 21 0
240 570 493 -535 507 0
-818 -378 528 27 -937 0
-832 -249 -602 227 22 0
-661 611 278 325 -942 0
-96 256 -979 503 -116 0
273 741 108 319 -584 0
-467 411 -779 -906 308 0
302 -215 409 -848 -256 0
-144 807 275 176 -780 0
172 599 324 41 -325 0
-531 704 735 807 220 0
-392 502 -907 232 517 0
88 369 786 376 766 0
-582 -565 -26 -68 -766 0
407 33 309 838 -340 0
-60 941 -374 332 -674 0
975 -619 472 -475 -91 0
82 68 644 -397 621 0
28 995 -131 405 -60 0
738 -732 766 -649 -305 0
-539 187 107 -975 999 0
-987 -756 -484 -870 277 0
-909 781 -913 208 -907 0
897 -260 -195 935 819 0
950 -916 391 -426 78 0
-45 -20 -604 518 223 0
719 705 -656 533 139 0
123 -364 390 -280 -570 0
880 -745 581 844 -473 0
-930 839 348 775 -480 0
-689 -951 -671 61 573 0
-10 324 -736 -587 -629 0
108 -626 -722 502 217 0
-939 -248 561 450 96 0
-66 826 -599 -779 243 0
-562 -777 -779 538 496 0
-652 314 725 784 -443 0
117 -354 199 -110 967 0
18 497 -599 -805 251 0
677 -279 197 964 161 0
-49 962 -135 -217 413 0
881 -242 506 -122 -138 0
-177 -304 -144 -849 -602 0
208 334 -198 523 926 0
-217 16 194 542 716 0
388 428 286 -64 -665 0
-716 -381 134 -97 -54 0
-164 -92 -321 941 231 0
-809 885 844 -157 709 0
147 255 974 669 -632 0
-792 -691 -982 -825 722 0
-420 481 -203 -61 49 0
982 -137 -926 -288 555 0
-909 -620 -413 508 730 0
342 290 276 -14 879 0
973 -366 -312 721 -604 0
-437 -898 650 852 -398 0
-290 -609 40 886 -938 0
-627 -996 928 514 610 0
732 841 -855 900 200 0
-730 -633 -583 998 276 0
-583 -664 434 -72 941 0
-669 -842 -4 -418 354 0
-39 78 -923 -852 357 0
140 -798 -625 -616 -120 0
871 -178 -583 -754 -851 0
470 802 -298 931 -69 0
363 978 281 -35 693 0
-490 376 52 224 602 0
248 -414 249 -119 -503 0
824 -271 726 306 413 0
744 -860 802 902 929 0
165 -143 328 -593 -1 0
-126 -821 361 -26 -142 0
-324 582 948 130 -201 0
825 190 316 823 697 0
933 568 -368 -245 744 0
-963 727 542 -7 -207 0
352 616 -715 513 -27 0
-823 -204 -432 112 261 0
-643 -692 -499 -887 -186 0
-647 -965 -263 34 -782 0
236 272 84 319 490 0
-682 -429 -75 -321 -299 0
441 -775 570 836 -631 0
-365 282 122 450 73 0
642 815 16 -736 -177 0
-248 977 -797 288 89 0
751 673 692 74 226 0
-450 -316 -251 208 868 0
833 -348 538 -532 100 0
-262 -74 168 -335 -623 0
862 -15 -474 -99 -762 0
481 -605 -97 -530 -427 0
538 -342 666 -237 -543 0
-406 -807 349 -213 -333 0
965 922 -341 889 -255 0
-135 -521 664 180 841 0
-606 304 -364 81 455 0
832 941 30 371 329 0
-842 -833 514 -471 -956 0
-204 337 -98 702 -882 0
489 -631 -443 341 -749 0
335 468 177 362 -969 0
-879 344 -874 959 -858 0
486 872 -968 191 -634 0
855 164 -841 378 -36 0
430 766 453 -56 -637 0
408 -870 -87 998 -140 0
-154 482 -520 -509 504 0
555 466 960 -490 465 0
567 850 -131 650 841 0
-354 572 78 39 432 0
-183 648 785 968 405 0
782 575 635 571 -717 0
-241 -691 158 176 -103 0
968 719 394 447 592 0
761 549 926 -969 -420 0
-942 -131 -729 -841 936 0
747 -846 865 -221 209 0
286 262 366 575 970 0
552 207 976 -165 -176 0
561 -203 963 241 292 0
309 -648 -822 -627 -452 0
-283 -371 554 451 517 0
-654 -604 522 -275 295 0
527 -665 211 -138 381 0
-833 -553 -103 -442 -938 0
-156 -855 831 233 208 0
-505 876 -275 -294 -242 0
270 601 36 -707 -786 0
-620 -971 -389 -629 727 0
874 -178 981 412 349 0
402 -802 104 929 -735 0
935 422 -432 388 795 0
997 938 -628 584 711 0
-823 538 -915 757 316 0
780 813 624 -692 -157 0
937 336 350 -379 -449 0
-989 548 267 -354 551 0
-386 378 891 -169 731 0
-654 -613 -273 -101 -793 0
651 499 -405 -812 657 0
-624 -646 -22 -854 -310 0
352 -597 -605 -460 413 0
-889 -471 209 489 -539 0
998 419 -101 -464 -709 0
-416 -992 530 -963 -154 0
-419 517 597 -536 -581 0
870 -271 -534 -88 196 0
-595 894 456 -684 -145 0
-150 -858 405 -951 351 0
766 -956 278 -286 -934 0
453 358 287 -544 625 0
-725 -392 105 323 578 0
955 -168 71 77 216 0
631 522 526 473 -95 0
801 -457 744 -785 -188 0
199 833 334 -1000 -506 0
714 -758 -979 -504 394 0
147 469 -743 -28 379 0
-26 -642 -264 -496 -118 0
819 318 804 -618 373 0
-905 -336 -900 277 -881 0
-512 106 -668 503 -981 0
-494 228 -386 756 99 0
-330 -79 -494 -413 405 0
-771 41 -409 441 929 0
331 -322 220 745 857 0
-615 467 902 -107 -465 0
-162 149 989 -205 635 0
211 747 -871 -95 -827 0
289 -623 92 -945 -329 0
-348 558 -956 -646 147 0
-650 -169 63 782 21 0
734 -890 647 -230 -509 0
-687 363 -305 255 -366 0
-229 -741 129 383 537 0
322 408 242 174 -217 0
-529 364 -749 -869 -577 0
-643 -306 450 -453 654 0
-576 316 -912 480 105 0
-787 311 550 755 759 0
708 -562 -921 363 361 0
712 -387 -327 514 -18 0
-21 690 549 -942 565 0
-217 550 151 140 -88 0
328 -32 -505 235 -966 0
-562 49 817 280 508 0
339 433 137 -652 666 0
697 585 48 -72 354 0
-26 -260 -683 873 581 0
-678 -64 -255 -637 -857 0
-276 190 736 -620 524 0
742 113 -49 217 164 0
562 -401 -800 22 -552 0
-475 -947 -537 -436 54 0
-298 153 491 215 -273 0
318 -108 688 -360 -539 0
333 -688 430 936 -861 0
347 789 677 685 514 0
-787 -105 671 463 -536 0
-502 755 -451 -300 -507 0
789 -797 465 -983 -130 0
420 392 964 627 -661 0
-385 281 130 -805 760 0
-387 -372 723 -174 463 0
-442 -892 584 631 526 0
839 -941 -456 -74 54 0
-390 740 -144 -801 -644 0
362 -95 990 -74 -814 0
740 -385 -735 -753 86 0
-846 702 717 458 292 0
160 -778 -237 -818 -40 0
-381 494 -326 276 -858 0
723 -962 716 -883 -251 0
338 476 635 -592 -398 0
-221 486 -869 -239 763 0
-321 417 -400 -187 -707 0
390 487 -766 -643 -340 0
538 13 -477 560 552 0
-872 947 -786 6 188 0
-689 59 -956 -787 -311 0
52 138 325 -315 -894 0
-732 874 680 -535 -568 0
-443 949 -98 -374 -922 0
-986 503 105 96 135 0
556 709 -713 397 -503 0
-499 94 984 752 195 0
-939 626 -468 -878 -590 0
371 -818 -602 629 -448 0
657 245 718 298 -912 0
-462 411 -274 275 -884 0
-731 562 197 -499 -875 0
-674 -412 -249 -455 537 0
-985 284 836 -599 697 0
-823 -880 60 632 -418 0
484 -989 854 -278 -149 0
587 -744 174 806 624 0
-864 379 -538 -680 687 0
971 915 -771 728 -193 0
754 -407 751 -562 584 0
289 -482 -569 822 378 0
520 -229 -842 -554 -344 0
731 851 144 -847 108 0
827 926 -446 769 -766 0
321 -785 116 -228 -715 0
-902 127 -635 -889 -443 0
686 464 -209 -498 -717 0
897 -521 614 -514 -152 0
-641 634 -154 533 936 0
-165 -253 -658 -385 391 0
-839 -487 439 -938 366 0
163 -509 -858 860 -971 0
-304 -494 767 -26 803 0
-862 993 -240 -699 -142 0
374 -47 -687 717 -900 0
-733 648 -771 -369 -822 0
614 983 917 -308 622 0
-105 984 298 70 873 0
94 513 171 -465 296 0
-386 152 -665 -133 514 0
-480 -403 -562 -788 225 0
654 -762 679 -311 545 0
-458 -902 -981 447 -449 0
-52 858 -463 -992 439 0
455 589 506 -34 938 0
-740 -632 -567 -535 284 0
699 -836 282 -846 -464 0
-248 340 817 -170 275 0
-593 -745 852 229 -537 0
476 631 174 954 52 0
-468 439 -111 -623 -254 0
-100 -853 626 707 114 0
212 291 -36 -523 86 0
-437 27 403 356 -110 0
143 -311 -74 -411 524 0
668 -742 -654 -723 857 0
957 -600 752 934 448 0
-404 -697 667 44 -603 0
75 143 890 370 436 0
-958 -585 -684 182 127 0
-56 31 -587 585 345 0
704 -773 319 162 -215 0
112 -12 -759 -877 -698 0
-51 -176 -579 -820 -6 0
-998 396 183 565 -932 0
-589 -723 19 113 590 0
-701 -82 285 -820 687 0
-615 -760 -278 230 -872 0
-538 -914 -397 -846 -345 0
278 -930 756 86 -464 0
860 -697 -874 -226 -680 0
834 -60 -896 109 -71 0
365 875 -383 243 878 0
816 869 -120 -483 57 0
69 -148 55 847 -541 0
83 56 -616 754 10 0
430 79 849 289 -483 0
36 -82 -378 326 104 0
341 126 -441 902 -647 0
765 -294 624 -625 -788 0
-944 -752 -768 67 118 0
339 -998 586 -618 55 0
943 -728 -573 -991 -308 0
-560 869 -408 -735 -939 0
-274 -38 -25 487 -94 0
-718 -8 629 660 -772 0
-569 -710 691 761 687 0
248 474 952 404 400 0
-510 -97 377 485 139 0
697 360 357 -892 -642 0
-938 -502 -970 -415 -717 0
-151 761 -739 -366 -976 0
759 -314 -641 32 889 0
-434 -142 113 635 -51 0
-413 216 -19 -371 -685 0
323 26 526 -314 -885 0
434 959 -291 580 746 0
-181 -78 -695 577 -772 0
-221 -46 226 749 -168 0
-804 -8 110 159 -453 0
593 940 417 158 -913 0
502 -530 -671 -782 453 0
518 819 -534 -170 783 0
533 283 -642 -40 -868 0
-245 -64 777 136 -261 0
486 933 -757 743 -322 0
73 -74 -747 442 -468 0
258 -467 -768 920 -803 0
-580 369 757 -688 -442 0
56 -582 337 -388 8 0
83 -563 -482 227 320 0
-188 558 -68 -941 -542 0
-99 -598 -790 -523 501 0
991 763 -82 -116 -890 0
741 467 -399 722 -136 0
-58 -75 135 -415 -791 0
-683 -270 -749 881 -82 0
-632 -118 -901 -145 342 0
-966 -574 477 -221 948 0
-684 16 111 297 309 0
888 -728 -636 978 -861 0
-215 629 49 -68 40 0
-794 73 111 473 587 0
-628 -957 407 -968 -559 0
367 5 147 -389 78 0
-155 625 -84 587 -794 0
983 -645 848 -178 -356 0
163 930 619 894 -934 0
938 -640 590 622 -19 0
-870 571 -469 -851 -520 0
590 -410 499 -441 339 0
821 115 -673 746 34 0
-438 811 478 -197 830 0
-234 -917 -896 88 759 0
-362 -591 484 819 -206 0
-84 -74 -801 221 533 0
744 694 346 705 -903 0
529 -255 -753 647 -958 0
-754 -66 314 -8 -520 0
-607 -480 -781 883 369 0
-465 446 -64 689 -176 0
447 519 -959 601 -897 0
-419 924 -285 503 349 0
784 -74 -591 -830 -205 0
553 669 -706 -573 -9 0
-795 396 -732 12 786 0
984 -400 947 -320 -581 0
571 -392 -248 -792 633 0
794 -23 -371 -455 -726 0
975 -790 -828 611 483 0
-238 -679 324 556 -621 0
-948 -112 -474 695 -698 0
-100 197 972 -349 77 0
-511 13 601 8 871 0
205 426 300 876 -978 0
419 -754 83 203 265 0
887 30 -942 -465 5 0
-868 -846 720 683 193 0
771 -590 195 -980 609 0
742 797 501 -220 -408 0
317 -709 -265 217 932 0
864 -437 -255 -83 -757 0
910 -668 755 324 -559 0
579 553 299 -730 426 0
-532 481 -749 71 327 0
-431 -754 -272 201 -895 0
-880 343 -65 -39 -597 0
951 -478 -511 521 647 0
-495 -968 -96 -190 542 0
-870 -26 863 -237 -246 0
536 924 -842 133 -657 0
704 -240 961 865 -998 0
-604 423 -517 678 491 0
-791 -649 -458 -180 372 0
669 -993 958 705 147 0
-90 373 954 391 698 0
23 424 -715 -493 107 0
212 -766 -518 -787 -387 0
-880 -884 410 -691 15 0
934 821 84 561 832 0
-38 296 80 -828 583 0
-499 -874 -365 -954 656 0
16 -605 -7 -53 -579 0
863 161 464 -17 -26 0
509 657 929 -144 -620 0
-567 513 100 -911 11 0
-341 -842 -887 -853 -395 0
-103 425 758 -457 536 0
116 146 909 -160 -65 0
-251 369 -238 -641 -758 0
727 -56 -821 -137 -391 0
-618 -259 738 577 486 0
247 437 -223 -914 746 0
366 -88 524 -127 494 0
52 546 434 -953 -949 0
139 -700 566 568 -911 0
214 255 407 -19 559 0
662 877 -202 6 197 0
749 -549 993 -939 -214 0
916 940 89 -75 121 0
-681 -622 480 559 -943 0
209 849 771 -349 -80 0
983 -562 630 169 -337 0
-993 -574 512 -456 -119 0
83 632 856 -464 -134 0
-395 555 -961 101 992 0
877 -105 525 248 837 0
120 172 986 -811 459 0
-470 -81 -922 -74 585 0
934 799 452 358 726 0
299 840 82 615 -892 0
-623 153 105 462 950 0
999 -289 73 -107 131 0
-903 169 -506 530 -87 0
-919 -940 -582 644 112 0
-260 -869 322 848 258 0
302 765 135 155 105 0
232 917 -424 696 -988 0
741 241 335 -532 -527 0
-55 186 -738 773 969 0
14 868 -973 -959 -208 0
210 696 685 889 924 0
186 614 -54 696 902 0
-523 -351 -448 -136 -350 0
-335 -494 376 -650 823 0
147 -293 -106 614 173 0
-857 -545 395 -444 60 0
864 -689 -156 -544 909 0
685 508 258 335 383 0
-750 -470 -319 -628 -164 0
-377 598 714 -879 -335 0
-568 -977 372 714 510 0
-448 694 -681 57 -839 0
-118 67 -871 698 -669 0
922 -155 613 -254 172 0
-595 114 116 -704 -194 0
99 392 -639 858 -631 0
993 -211 -58 -812 -923 0
-937 -986 -709 152 16 0
-956 141 781 -595 703 0
632 -877 -524 898 -953 0
83 -931 -360 -760 739 0
-628 -453 136 -702 510 0
-718 -84 518 323 752 0
848 48 385 290 295 0
972 37 797 -874 955 0
-553 -395 46 -377 -227 0
-107 428 291 -561 -44 0
507 -572 875 231 821 0
744 -220 -972 -854 -964 0
-276 344 -369 -627 841 0
564 -579 -600 -813 -338 0
-113 -399 12 -221 -64 0
-592 -702 -496 647 593 0
-189 1000 -621 936 -984 0
-909 -630 793 114 -201 0
-711 518 -938 517 521 0
833 475 357 811 -590 0
-414 860 226 545 96 0
-509 -555 -167 625 -120 0
536 537 98 104 354 0
-202 -236 360 810 -607 0
44 -776 -812 -645 -517 0
175 324 -576 225 -401 0
-858 581 693 332 -353 0
445 488 -341 -489 -672 0
-296 -432 -139 195 -28 0
-987 849 -200 798 678 0
901 -35 -621 -445 -816 0
-885 738 844 822 -603 0
571 -105 -791 576 -556 0
-932 -145 -360 -736 -325 0
376 68 -6 -309 -811 0
-682 141 888 -705 -527 0
-239 -116 464 -901 -597 0
-847 60 506 -789 -408 0
-730 -156 -59 310 567 0
857 33 446 -484 667 0
-622 -878 -326 -641 403 0
326 600 214 -815 -503 0
-297 126 -960 914 102 0
218 -53 -494 253 -265 0
362 541 104 48 586 0
-772 -995 -321 -595 106 0
-477 974 -427 -140 437 0
227 473 -742 232 121 0
-171 -613 -422 -866 326 0
-864 -809 -51 920 -867 0
652 -685 433 52 -874 0
348 900 -788 6 41 0
509 -935 907 625 -680 0
-477 -80 -374 -196 -534 0
458 923 917 -612 -229 0
352 -997 337 -130 970 0
506 -944 931 -97 -974 0
483 958 411 -695 916 0
419 93 424 -455 442 0
-587 99 -5 147 -87 0
-396 -370 -320 -583 -124 0
456 -130 -572 737 855 0
498 825 600 -88 -460 0
-584 512 115 603 -747 0
-162 -46 -587 -594 510 0
901 -587 -722 838 740 0
409 833 923 317 -63 0
10 122 -57 -433 -79 0
788 124 595 -305 422 0
866 365 597 -181 631 0
-685 893 810 -657 -389 0
-31 -274 831 134 32 0
68 848 -671 -225 204 0
-620 -672 411 818 634 0
-167 247 591 -785 605 0
-784 -562 865 -353 465 0
-222 948 -220 -560 -357 0
-613 771 -962 907 89 0
817 269 416 533 109 0
734 651 606 -621 -874 0
-968 -512 347 -693 -601 0
-86 519 -206 162 -971 0
870 -60 -621 -408 -285 0
-371 -547 -658 376 913 0
707 -847 537 -652 -150 0
-91 -212 -914 480 -661 0
257 594 -134 -460 -284 0
472 -103 663 138 206 0
802 -280 960 405 -831 0
-579 878 764 -114 719 0
616 369 -882 672 900 0
864 -981 710 141 -880 0
-715 -778 -228 312 507 0
-447 602 -250 -344 -42 0
519 580 -37 -979 752 0
589 -934 -402 -876 -247 0
-257 895 18 382 -491 0
-588 -1 -172 -140 791 0
-67 954 623 838 664 0
-872 965 891 -909 907 0
-850 -289 866 -787 212 0
-723 826 784 373 419 0
419 285 -471 904 610 0
150 509 -894 31 -745 0
-116 393 -203 -197 168 0
319 -58 930 -158 334 0
-357 428 616 -783 994 0
-338 2 658 -698 846 0
777 -997 -209 -601 -948 0
308 303 -773 638 -877 0
833 -704 -940 -345 -968 0
810 -340 -142 554 -707 0
-993 -435 731 -914 -902 0
155 533 652 765 -607 0
-606 491 91 -431 363 0
537 -260 -921 436 -430 0
-280 401 718 683 -860 0
-350 592 323 -770 -120 0
-207 -128 373 -728 -277 0
52 -410 519 -620 -225 0
779 -851 761 497 473 0
-801 -286 212 -817 -241 0
-438 -860 -199 775 -949 0
-216 -121 -217 601 -532 0
926 723 812 -90 -369 0
882 -787 -668 976 39 0
-468 490 206 257 764 0
-552 346 -756 378 -519 0
19 -594 573 -946 -733 0
-796 -870 -542 458 790 0
-385 -898 -687 -166 990 0
-274 -604 879 655 -890 0
490 62 957 287 451 0
-526 201 390 579 511 0
880 -686 136 -210 -248 0
-975 -903 -515 374 -342 0
374 44 299 -6 -519 0
289 -344 527 -876 691 0
327 529 402 956 -377 0
-55 49 -895 -466 679 0
930 -439 459 -806 844 0
-251 -455 -378 -263 -191 0
-747 292 80 399 -594 0
571 -212 -220 435 -263 0
577 -30 513 884 -45 0
409 -817 -104 852 619 0
-737 820 898 -506 939 0
-240 -924 258 9 -735 0
-110 799 830 -257 359 0
201 -601 -134 -764 972 0
-725 240 309 878 419 0
-640 531 -572 -786 385 0
-577 193 359 185 -235 0
-368 531 -129 -900 181 0
396 -871 -616 737 -55 0
945 -671 881 -52 -199 0
886 -721 -864 -354 879 0
788 677 -881 -507 -789 0
-914 30 853 202 -790 0
-121 799 450 833 247 0
-660 922 -668 -78 -255 0
-120 949 332 680 -218 0
744 743 -163 700 445 0
-940 245 185 -275 -135 0
629 721 -570 -652 -138 0
-399 -790 382 -110 -423 0
993 911 -443 -323 -932 0
269 365 -949 306 198 0
907 902 -704 -73 -520 0
-315 -566 82 972 355 0
118 913 211 -40 750 0
-418 762 328 761 -480 0
114 -297 343 275 222 0
-435 -654 739 -976 911 0
-639 720 -743 -174 -600 0
-703 -97 -768 -791 -251 0
717 26 896 -153 -696 0
159 156 -535 178 569 0
-437 -216 705 -368 -203 0
-252 460 309 969 -107 0
18 -543 328 892 -162 0
-465 -626 -797 778 184 0
-299 866 -803 -632 18 0
910 -267 522 588 21 0
572 -93 420 316 516 0
-291 -874 573 969 -992 0
-948 351 -470 453 74 0
299 -438 985 -816 -614 0
384 912 964 -407 346 0
975 -589 831 474 874 0
405 -281 46 -535 346 0
-849 -851 -403 579 -116 0
-795 69 -181 -921 -249 0
-711 343 -977 37 378 0
-159 802 -286 798 -249 0
-284 854 171 -198 -554 0
650 199 467 327 -225 0
97 -958 892 -645 848 0
198 -972 837 -764 -695 0
-828 -654 474 -865 -738 0
489 339 337 -444 685 0
-15 -128 -369 928 -709 0
664 -569 -335 -797 662 0
-659 748 940 -154 -391 0
-571 -46 795 -900 54 0
-714 823 485 829 155 0
-230 -915 -87 159 334 0
256 -418 -985 -111 5 0
128 212 -996 -947 -132 0
345 940 -124 -356 37 0
-707 777 -365 -70 762 0
-93 -443 376 689 -40 0
660 -598 404 457 449 0
-814 -154 -567 -709 139 0
-421 702 742 55 145 0
-360 731 -716 -382 -118 0
934 -360 -706 852 101 0
418 631 120 207 -453 0
-201 253 -94 -725 -713 0
328 -552 -428 -778 931 0
-815 562 883 -605 -587 0
-366 -756 915 204 724 0
-789 -46 -685 -268 371 0
780 -231 -899 -700 -200 0
-328 -734 -526 698 -939 0
725 115 -812 99 986 0
665 -858 947 891 -286 0
-822 543 -985 -567 213 0
-564 -295 -330 509 -290 0
554 551 -184 74 818 0
-302 -964 776 -180 712 0
-582 542 -557 45 436 0
677 61 635 -825 -74 0
27 125 -774 -267 -138 0
464 -190 493 -506 140 0
-625 871 -631 112 270 0
324 616 217 396 758 0
-409 192 -557 935 149 0
-556 -107 286 -812 -445 0
984 -394 -962 61 -486 0
-734 744 668 -227 -950 0
65 78 983 -877 562 0
253 -386 621 138 169 0
-966 8 -302 -448 -420 0
-586 -342 -150 -71 -747 0
-426 294 -111 234 -423 0
-980 -132 512 -976 -543 0
-379 -743 365 -949 -889 0
288 -400 -568 -864 357 0
126 379 -45 691 -873 0
-218 5 309 -958 786 0
-416 -250 930 -271 -46 0
-656 632 346 314 -995 0
93 151 956 736 922 0
31 320 617 -522 718 0
-24 860 -86 789 67 0
268 734 393 -212 424 0
-495 -6 700 778 985 0
-41 -800 -824 625 435 0
-451 646 -942 -111 -810 0
-274 625 -90 -995 -804 0
453 197 84 671 -288 0
399 -255 559 -576 -686 0
-503 -233 -448 301 87 0
668 205 413 -997 557 0
265 -608 943 -801 -875 0
681 920 442 -989 649 0
892 325 484 785 -967 0
-895 189 969 -138 198 0
735 -2 -405 722 322 0
77 976 -411 -266 247 0
188 235 -942 -6 -574 0
-948 55 95 201 937 0
-636 350 -154 -964 785 0
-118 -386 -97 501 -974 0
764 -831 -626 909 1 0
-140 603 457 -86 -572 0
689 -93 797 -545 701 0
697 889 -620 486 809 0
312 -85 -630 809 -442 0
-600 774 706 957 -435 0
-28 283 228 -866 -391 0
607 190 -806 632 -772 0
255 -723 -371 125 357 0
-902 -958 427 -582 185 0
656 864 671 358 825 0
189 -105 801 267 -444 0
924 -704 670 -488 351 0
-512 -163 626 -11 264 0
-476 26 199 -784 -737 0
292 257 -828 -573 172 0
791 -291 -185 -544 -947 0
825 671 -110 106 269 0
265 -411 486 98 216 0
-845 -10 -687 -773 473 0
-287 -428 90 258 -357 0
-947 -521 -466 -875 130 0
-124 168 -191 417 -79 0
196 -932 -633 -627 -603 0
462 -67 -215 20 -757 0
-18 -830 190 -365 -450 0
309 -418 -514 282 867 0
175 -312 756 -348 124 0
937 941 164 809 -171 0
-200 719 -562 586 370 0
-824 -894 258 246 338 0
797 -235 -925 244 -997 0
-805 -946 884 78 889 0
150 -576 996 -962 128 0
720 -882 -379 -435 -309 0
304 433 -529 938 -402 0
249 -215 288 628 -347 0
-649 324 -746 -689 391 0
775 37 890 266 954 0
717 -454 -77 267 754 0
884 -429 950 216 -358 0
-338 280 428 -8 -704 0
-595 -266 780 -433 -800 0
-886 -323 614 433 -473 0
-1 -672 414 -488 -397 0
122 502 64 493 -879 0
-826 355 -400 -607 -109 0
-284 -108 997 -773 745 0
-753 -942 -571 857 -150 0
83 -475 -733 609 362 0
335 -408 41 -515 450 0
-865 -319 257 391 -842 0
842 666 626 352 -224 0
-159 642 309 -626 -835 0
966 -55 -906 965 -540 0
-498 -26 -244 -351 326 0
-106 -752 976 614 823 0
599 826 -813 823 497 0
-957 -908 -278 710 -81 0
12 151 -359 462 89 0
741 -174 390 -426 330 0
-418 413 257 -951 720 0
785 902 508 254 771 0
-572 484 -586 361 -120 0
-38 77 -393 502 -23 0
659 429 48 463 -696 0
265 -250 459 -757 786 0
-781 925 938 187 236 0
-753 499 775 -638 -1000 0
-339 581 -598 12 942 0
-188 382 305 290 288 0
-582 599 48 -929 -785 0
594 117 759 -357 11 0
-774 132 -44 -264 94 0
-493 616 173 -593 -481 0
-102 773 173 976 628 0
-672 -747 851 256 -832 0
301 596 854 546 -558 0
833 835 -200 113 -17 0
-43 -591 106 459 -133 0
-758 761 -616 38 830 0
-100 -479 -591 71 -251 0
-555 102 -926 -340 743 0
-425 -796 518 6 -989 0
7 506 888 -583 -481 0
388 -911 343 -749 -588 0
-491 81 -739 -409 628 0
-911 -479 730 -750 612 0
-393 -240 -243 -472 206 0
-698 265 832 -527 -118 0
298 443 44 -447 558 0
300 -233 610 -723 691 0
485 853 -520 -507 -862 0
-444 -562 483 994 -991 0
-147 497 -177 102 -656 0
653 -800 794 199 -503 0
617 176 153 -614 925 0
-15 989 -189 -863 -754 0
-699 885 -406 225 705 0
-40 -870 -658 705 -206 0
655 -970 518 -501 303 0
-236 787 414 369 -872 0
301 -260 -275 572 900 0
-765 -384 -998 187 -794 0
-854 -90 407 642 -238 0
873 79 4 625 -908 0
256 731 386 915 962 0
-291 712 306 394 319 0
944 -248 -404 -57 485 0
212 -459 -301 -633 -506 0
-201 889 931 130 445 0
-810 368 -982 682 -719 0
-851 959 453 818 -330 0
-449 -592 454 -379 22 0
-77 -925 -346 -203 469 0
735 -766 -240 1 -362 0
927 -173 -824 -321 -665 0
-796 715 784 426 880 0
515 602 -44 605 -966 0
-805 730 841 -875 -98 0
282 189 -998 -611 -366 0
-388 -786 -483 -952 -641 0
470 454 -34 -580 -484 0
557 -951 -985 337 946 0
786 702 534 194 791 0
758 -124 -45 -255 135 0
406 204 649 -65 -762 0
479 40 15 111 -221 0
191 836 -379 -505 28 0
-36 494 -96 778 -581 0
-672 -170 431 854 -536 0
461 321 188 450 -141 0
531 -458 -608 553 -852 0
-632 -877 538 -317 -279 0
-347 -319 -488 891 991 0
-962 -163 114 269 510 0
-939 387 942 462 -603 0
23 -428 178 706 204 0
-134 -940 -911 -336 258 0
448 870 -246 161 -887 0
-55 -788 -344 -983 -949 0
-646 342 625 43 -405 0
-896 4 -221 910 450 0
-949 -406 461 135 159 0
-757 735 405 -359 -515 0
494 903 892 -360 -88 0
-245 623 656 774 127 0
-245 -83 32 769 102 0
959 -682 -87 519 442 0
-974 60 793 -509 495 0
-846 479 334 614 -114 0
-85 104 -184 -238 -262 0
-437 -224 -339 -756 -660 0
854 615 -649 -701 -811 0
343 -435 -346 186 54 0
-812 251 6 -253 -184 0
412 137 257 -772 95 0
796 387 924 586 15 0
-715 -383 -800 684 959 0
456 -255 -440 -826 743 0
622 -311 -63 410 -476 0
498 -19 -4 950 -571 0
925 686 515 57 -968 0
950 699 610 -160 362 0
577 -109 -228 823 403 0
508 129 205 276 -919 0
-43 392 905 201 -248 0
-921 57 -631 -742 -303 0
303 873 -902 913 -626 0
-307 -553 605 768 -63 0
555 355 -755 171 978 0
471 812 -896 279 912 0
-280 -353 754 -272 169 0
595 249 792 534 557 0
-900 -403 10 724 731 0
-256 -173 754 -129 -456 0
-958 782 -617 -681 -923 0
-827 -954 -730 -251 230 0
-272 -27 -598 -957 326 0
473 244 -433 669 514 0
-841 -778 861 306 658 0
164 642 -721 174 -964 0
268 -981 390 98 -134 0
-434 -126 384 105 -469 0
-342 67 -625 -856 -38 0
-305 217 -972 557 -371 0
946 317 312 -718 -272 0
117 109 165 792 -188 0
-525 -832 -554 245 936 0
-779 -628 18 75 808 0
722 168 -645 -545 -410 0
-610 -505 178 931 -443 0
613 -349 -558 879 67 0
783 901 911 -350 739 0
236 976 229 -247 -886 0
-546 -409 556 35 -723 0
-373 540 -894 666 647 0
12 -386 -302 -612 330 0
793 -170 4 -989 -662 0
755 -450 592 -521 573 0
-927 242 -993 675 423 0
-368 115 911 -626 -546 0
-684 970 -324 427 795 0
769 -446 365 63 -623 0
-466 -518 559 -499 252 0
432 -53 760 758 349 0
-664 245 304 473 182 0
703 -628 -475 -119 302 0
978 924 283 -999 -243 0
107 254 -338 578 -737 0
140 864 -137 -391 225 0
-940 -849 -431 880 952 0
179 -478 -695 778 -975 0
-644 -279 33 -895 -508 0
-363 491 415 -888 235 0
403 527 48 -503 75 0
612 -898 545 498 -312 0
34 155 560 -751 -570 0
219 -930 393 960 525 0
899 -244 -254 247 -817 0
-824 50 -202 -237 -294 0
-48 -837 -788 -999 -379 0
-268 -313 822 -631 553 0
810 -487 -634 883 491 0
948 -563 -501 -169 900 0
-415 867 -974 -113 537 0
-345 677 988 -75 -316 0
-616 489 -354 -389 43 0
-429 -759 557 -611 470 0
-786 -357 -593 260 408 0
-390 421 -198 404 644 0
230 117 862 -297 204 0
274 943 129 340 620 0
289 -739 609 -967 227 0
882 905 47 -479 797 0
490 628 -703 -55 576 0
182 627 488 -553 286 0
-698 -458 976 -711 -353 0
576 -663 187 -979 -151 0
110 -364 539 366 916 0
-176 511 340 800 -680 0
-171 398 813 -205 902 0
-301 404 673 312 -999 0
-846 655 -115 49 913 0
664 469 27 -60 872 0
-345 850 -200 254 -216 0
45 -219 160 -713 -967 0
-67 -707 -184 650 -620 0
-68 972 -332 -48 471 0
-698 399 209 -682 435 0
-25 92 38 975 732 0
114 -223 734 941 -369 0
956 -799 -730 -264 -668 0
-565 -821 -104 567 624 0
-596 126 -707 -485 -502 0
192 -456 -632 459 -47 0
806 -703 162 243 481 0
745 638 161 463 -793 0
-945 972 19 397 959 0
-93 -501 -775 943 -589 0
-585 -240 -784 22 453 0
358 -767 999 47 116 0
899 -699 857 -976 965 0
900 -869 -847 203 763 0
-757 855 341 -1 641 0
-506 619 -589 -706 890 0
-518 -186 -407 -508 864 0
133 663 430 817 236 0
394 -512 -899 577 -793 0
89 883 -518 349 -433 0
-785 -602 -525 937 -613 0
208 674 977 827 435 0
-542 -36 459 910 -972 0
793 -272 666 188 -166 0
-644 -420 875 882 -56 0
-80 923 946 415 -337 0
-814 -38 468 478 469 0
-550 -249 492 -491 -610 0
171 38 227 847 734 0
255 211 5 -658 897 0
699 -493 184 -159 192 0
281 410 106 158 786 0
-88 151 -239 17 -832 0
376 -955 -120 -210 -851 0
324 745 235 616 -505 0
-683 -587 -796 717 -205 0
925 -156 -861 -966 -220 0
716 -945 529 760 -670 0
-239 -923 982 -464 -647 0
815 -711 745 -294 293 0
-284 -244 329 606 -825 0
-368 -820 183 -191 -887 0
382 -425 354 -505 727 0
521 -993 286 -38 632 0
-774 -902 172 -726 850 0
-74 -644 984 -49 -399 0
109 973 641 198 697 0
189 307 544 -383 -889 0
-341 -129 -271 437 -191 0
218 833 -239 -328 -457 0
884 70 606 -470 -369 0
433 17 -125 -981 613 0
-469 743 478 908 -259 0
754 -485 -491 -952 -728 0
-184 -359 716 -999 -547 0
514 -468 -529 -414 -692 0
-621 -968 76 -20 -764 0
-431 150 3 -215 -274 0
823 -995 -970 -546 -122 0
-977 -925 -110 420 -327 0
806 828 619 852 345 0
155 835 -203 775 -644 0
-668 -860 364 -842 805 0
434 319 -239 928 830 0
961 -8 -206 -551 -239 0
899 -711 -471 -870 170 0
-603 -695 -851 -792 129 0
-735 952 501 -740 -814 0
-502 313 554 -140 273 0
60 223 633 107 697 0
-337 -462 -42 -208 -295 0
-352 34 -526 453 -95 0
-708 131 -339 -239 245 0
253 -156 -38 -162 -704 0
635 -183 -54 -27 -136 0
-415 -959 336 -858 -617 0
91 -802 247 733 -74 0
-280 176 -311 546 565 0
-358 866 -722 -465 -840 0
768 -261 -562 304 420 0
989 -866 -101 -263 285 0
563 886 -194 277 -305 0
568 877 -337 -235 64 0
-981 163 433 274 578 0
-711 -511 445 234 265 0
293 225 -662 -954 -778 0
827 136 -909 -346 900 0
-10 -971 263 615 800 0
-893 253 -786 50 464 0
781 285 -507 234 465 0
-977 -178 543 -197 -993 0
-513 -657 999 -496 282 0
-746 677 555 -367 -633 0
-656 -305 693 821 -410 0
715 157 524 -50 -105 0
502 -440 491 -950 614 0
111 -739 723 -724 188 0
545 991 36 -971 331 0
946 -234 406 -101 -389 0
-217 524 406 -850 205 0
-560 -542 202 835 -873 0
577 -460 -738 297 -486 0
19 -794 -529 190 222 0
404 -952 -851 817 359 0
-197 -808 -649 -637 -817 0
49 345 -442 316 -346 0
-525 -560 -641 -512 -211 0
-255 292 -524 -735 -326 0
-405 -855 860 244 -722 0
-480 -56 239 607 -225 0
259 616 698 -30 -224 0
-314 -996 422 -955 930 0
-720 91 -751 -966 795 0
-285 -675 612 211 -112 0
-980 -768 -64 636 -624 0
161 778 -263 216 -67 0
-162 519 841 -173 -862 0
-189 -253 -221 -304 800 0
798 -292 116 596 -178 0
-107 -881 850 245 311 0
640 403 -587 33 59 0
-65 -788 -194 -304 263 0
41 278 -43 798 831 0
732 -901 199 -753 -881 0
698 136 236 913 -8 0
216 -67 -862 -867 -226 0
912 25 752 846 965 0
759 -983 -584 -94 -700 0
717 -435 -913 63 -676 0
-198 -164 -563 -319 -282 0
987 -562 879 85 305 0
-963 -157 -532 152 156 0
-365 -109 -431 669 -436 0
-680 973 -220 -580 354 0
914 975 25 -355 886 0
184 113 709 593 -674 0
582 460 254 285 714 0
-485 -845 269 620 -759 0
684 831 227 105 237 0
167 513 323 -836 -752 0
596 404 763 647 93 0
-247 569 -787 -340 -434 0
982 -963 110 460 881 0
388 937 381 -259 585 0
262 213 363 -85 52 0
-519 -590 -627 197 567 0
902 -15 959 -564 865 0
979 441 967 478 235 0
-911 -707 996 -977 150 0
590 922 -349 -708 -651 0
-320 -547 -556 -218 -161 0
-30 869 790 -60 -363 0
-459 205 383 -145 -847 0
-666 -364 947 -734 -726 0
-435 280 -176 249 210 0
410 468 -13 248 -36 0
274 287 282 -925 -824 0
615 484 -371 825 789 0
-257 232 -999 105 812 0
-273 413 -713 -19 -814 0
239 -705 335 971 -800 0
485 7 939 -589 509 0
809 -578 217 113 543 0
-665 178 18 -280 -816 0
-207 548 -439 509 -697 0
555 356 827 -743 381 0
324 268 -159 16 -508 0
-361 -11 -892 683 -635 0
-781 249 -987 444 -454 0
569 99 672 -934 -842 0
688 198 -21 218 131 0
-555 -953 -316 -469 157 0
726 -121 454 733 -273 0
68 -378 381 -750 -509 0
-607 614 -256 564 342 0
-835 246 -53 -296 768 0
-747 -649 -849 927 -331 0
-191 434 -683 -177 701 0
930 -58 -29 -329 -103 0
809 -430 -417 -342 -201 0
143 -897 180 -145 -610 0
-737 -857 136 -236 809 0
-753 856 -300 545 103 0
982 263 -630 -983 -342 0
-473 -1 68 -80 387 0
556 -940 -262 564 -766 0
648 -345 -667 -831 40 0
68 235 -607 -356 -693 0
250 -762 702 485 771 0
523 -458 -81 346 171 0
983 564 -73 477 172 0
317 -676 617 747 633 0
-870 734 961 656 -910 0
-326 -250 370 -387 -195 0
-489 103 785 697 925 0
345 -161 607 487 -77 0
-613 927 452 -175 -288 0
654 -976 896 -235 468 0
-310 468 342 -527 -891 0
955 -347 773 581 -665 0
966 -164 -247 197 -469 0
382 -156 -51 -182 963 0
-748 182 382 595 124 0
310 -971 -572 953 274 0
20 -74 957 -507 698 0
-94 -719 -67 -407 788 0
258 -486 550 852 -953 0
104 -50 841 587 695 0
-199 95 -858 -451 419 0
945 249 -770 -987 -844 0
145 250 709 5 561 0
-790 830 -598 -753 101 0
-80 834 -429 152 493 0
-48 817 -134 -677 281 0
46 -878 972 -151 773 0
-429 874 512 -26 -875 0
795 -419 -828 -66 -213 0
416 -298 -423 828 -79 0
212 763 545 475 -749 0
205 -66 402 -766 560 0
325 -929 368 -35 -72 0
-629 155 -64 -292 -979 0
-381 832 948 -838 753 0
-779 113 266 733 764 0
-803 285 -513 884 320 0
-884 98 -270 -15 329 0
-386 -855 -485 -63 -944 0
-669 -780 964 668 -497 0
55 -668 339 624 -325 0
509 586 990 -215 113 0
544 -537 -419 -161 -633 0
193 790 315 -890 334 0
-440 -472 464 994 -422 0
52 63 -64 -205 -568 0
-912 -610 -808 -824 -487 0
197 807 513 604 919 0
498 -269 496 -457 -735 0
-94 368 -459 647 101 0
-601 395 427 -571 147 0
-554 136 317 478 473 0
448 873 -337 -549 -206 0
-996 -744 992 -336 258 0
56 -945 -775 -873 -222 0
-455 -776 260 110 790 0
674 -844 -842 -69 506 0
461 -609 -276 -937 923 0
947 60 -780 281 442 0
436 656 -233 -768 940 0
-337 -854 -276 -239 -296 0
-581 -322 137 -808 636 0
-812 926 -863 782 -207 0
-702 -762 -978 -412 -569 0
151 519 475 -709 967 0
-894 226 623 -79 859 0
-537 -758 555 -386 362 0
-528 -359 778 -414 839 0
287 250 -387 -347 -683 0
210 -97 -504 -963 590 0
483 435 -404 656 -428 0
292 -597 505 -491 485 0
187 40 26 -692 -756 0
111 16 465 -159 500 0
-145 936 206 501 -164 0
8 -541 755 868 389 0
-42 -323 -972 -849 -517 0
691 -949 168 411 880 0
68 708 920 955 151 0
-817 -719 920 -556 -529 0
-73 972 -83 827 -162 0
965 -124 -241 939 -217 0
-290 769 -187 749 325 0
79 406 -950 -792 -636 0
-477 86 234 -594 -634 0
-651 73 -234 758 229 0
-289 530 -676 198 -922 0
597 945 217 -750 -533 0
-963 252 -684 -384 133 0
42 -383 994 -245 112 0
97 -49 -625 -838 -423 0
494 -128 541 -704 -105 0
731 554 275 331 -708 0
738 -148 99 -132 212 0
555 886 996 543 852 0
5 288 -935 -343 -678 0
754 390 -906 936 -654 0
831 859 721 -778 844 0
-646 861 -982 404 -159 0
114 -282 -725 -920 726 0
-737 975 336 -54 -479 0
314 138 -593 -64 631 0
-508 -828 -803 -15 100 0
-789 772 -280 201 492 0
584 593 -629 -596 919 0
715 230 -572 -270 -366 0
-97 -893 -493 354 20 0
505 -410 -694 273 -560 0
635 -206 -315 -527 -288 0
-51 219 916 -215 874 0
666 -726 -71 -429 892 0
709 -801 -753 -180 253 0
-401 -9 -876 -523 60 0
806 -529 -84 52 -578 0
189 801 418 -948 294 0
804 -412 -248 314 205 0
-718 310 624 -621 -671 0
530 324 -242 683 218 0
-568 208 -82 -606 388 0
547 -962 -51 -535 -258 0
-476 17 -553 739 158 0
705 239 -750 768 -850 0
281 839 -214 778 871 0
272 582 -727 558 -204 0
774 535 -63 411 321 0
329 778 852 493 -866 0
48 -846 -72 67 172 0
-507 916 -174 -311 648 0
950 109 712 -250 -239 0
911 -54 -115 -510 -676 0
-133 740 996 831 -597 0
417 657 246 970 -686 0
-770 217 -900 957 -505 0
941 1000 -801 -284 220 0
834 -450 323 622 854 0
-677 -328 555 -114 -882 0
-945 -481 -117 -880 -610 0
-589 -909 -536 -999 -856 0
-609 -877 -61 866 550 0
976 659 954 793 518 0
205 -509 -182 -691 848 0
718 -540 -663 940 -939 0
-976 675 -482 -407 -609 0
515 405 -594 355 756 0
-96 -610 399 -869 292 0
-806 -455 -557 563 614 0
349 28 496 -446 -522 0
861 -455 -769 -281 368 0
437 -591 -383 828 -643 0
116 278 -909 -56 230 0
711 394 -913 351 464 0
-867 -510 -564 322 705 0
843 -421 -319 -871 403 0
-686 -203 -137 594 -213 0
940 39 -140 628 993 0
11 -226 -189 -976 449 0
679 596 -478 -159 793 0
-838 915 -753 -714 477 0
-264 900 -762 305 -178 0
-421 940 609 -920 -965 0
-958 51 566 -2 825 0
586 291 -737 -986 10 0
-221 389 227 868 -51 0
-829 -225 -290 495 -563 0
-964 -496 -145 -130 -459 0
-189 -255 -640 269 976 0
-816 -464 846 -631 70 0
568 316 -218 -62 -542 0
659 -741 162 -217 304 0
-581 -89 -811 728 188 0
945 714 291 420 -249 0
-337 -86 718 -448 -782 0
79 -150 326 -85 688 0
374 -896 721 766 -53 0
197 839 -106 -187 -189 0
74 976 -866 415 -947 0
-939 208 665 -398 -402 0
574 -416 179 253 -797 0
-51 -584 -106 -64 -309 0
-805 182 -975 -328 636 0
-832 980 559 -796 -777 0
579 791 -847 -124 -415 0
-232 260 -412 902 -276 0
-97 48 -847 -860 567 0
279 -183 313 -763 -786 0
-826 -723 801 597 -316 0
-688 217 -234 120 -481 0
-635 -782 -940 712 -379 0
-668 469 -691 599 884 0
-559 589 410 -776 804 0
-793 364 854 482 -456 0
-282 630 -543 682 364 0
-961 233 324 394 980 0
366 292 263 -133 -651 0
-352 -85 618 356 547 0
-805 -94 996 -198 939 0
152 163 666 772 -386 0
-444 836 205 -529 -632 0
-982 -341 -229 173 -148 0
29 377 -631 -993 596 0
125 -906 -855 -812 -498 0
-278 -49 769 170 -373 0
-207 336 315 352 503 0
299 -622 878 800 66 0
-702 433 72 -974 351 0
-266 -284 -868 -504 51 0
-450 -808 983 388 100 0
-8 281 603 -419 441 0
775 -853 -735 -303 258 0
626 -809 -523 369 788 0
-340 -415 132 332 -72 0
-774 764 -971 -378 -486 0
-74 220 535 -297 -381 0
675 -845 -543 611 -490 0
140 -506 948 424 -249 0
237 913 43 -160 -613 0
227 440 -333 -774 -153 0
-180 305 -760 -72 -734 0
875 -103 -718 -465 -631 0
-714 -691 -378 -356 -960 0
868 -4 463 -829 -452 0
89 491 -615 -581 -978 0
-502 287 111 173 624 0
-238 815 649 193 -727 0
-329 -688 371 -752 -574 0
964 -1 -630 371 -775 0
-37 -170 744 259 -423 0
891 521 -299 -736 983 0
-866 -233 -160 -248 140 0
922 469 -560 107 692 0
-555 -895 102 560 419 0
296 98 -625 403 -759 0
214 232 -414 -448 -819 0
558 -609 -416 -720 -732 0
-600 -961 -743 -783 989 0
-6 -486 147 -288 -982 0
-550 44 -728 821 -994 0
697 -622 229 612 -430 0
-742 -104 764 -590 54 0
-347 213 939 530 -382 0
-938 821 329 -77 -797 0
-499 843 670 -130 627 0
400 -740 898 -311 959 0
687 -605 274 310 -716 0
349 199 -883 805 -765 0
48 636 38 786 149 0
265 -138 -191 -617 594 0
-635 362 272 -883 754 0
27 -915 945 138 67 0
-879 -151 691 735 -924 0
811 613 -271 -223 -64 0
611 -949 -678 625 142 0
-95 -17 93 64 -679 0
-101 -603 205 242 687 0
-951 -160 892 -19 482 0
-358 -53 -650 -632 746 0
-935 -406 722 -609 188 0
687 839 523 474 -34 0
499 -372 -42 -738 171 0
84 -509 -678 615 430 0
972 -632 -798 770 740 0
-667 -402 -468 782 -660 0
777 -189 -132 -679 -693 0
-646 -250 518 329 152 0
-856 368 224 961 -887 0
876 -804 -640 257 -524 0
161 755 -322 -389 -471 0
-839 -33 561 94 447 0
694 452 568 962 -336 0
-340 775 708 -363 600 0
-657 -263 -897 772 700 0
-650 394 -810 -201 884 0
192 349 -435 -150 -958 0
-211 702 348 -557 -127 0
-941 800 -355 -412 229 0
298 -280 665 -861 758 0
-488 12 219 919 899 0
-531 -970 -580 -929 -798 0
621 606 727 -269 -397 0
42 -489 -643 685 32 0
64 827 -999 816 1 0
817 883 215 -879 -653 0
-767 93 -918 -975 82 0
578 125 348 393 -2 0
-599 -33 -456 452 128 0
-513 -940 828 651 139 0
782 856 525 -804 187 0
286 10 699 -818 -933 0
431 -420 270 -102 682 0
-272 -941 -940 -712 113 0
411 -621 -862 -382 235 0
-764 -17 -542 418 785 0
-625 387 320 -570 845 0
-253 691 417 -79 199 0
126 -391 430 212 -260 0
944 380 -747 991 840 0
-87 511 840 -404 -624 0
-543 538 -472 -338 700 0
420 713 730 -639 -51 0
864 494 721 850 390 0
-385 -893 -973 742 579 0
-232 336 -294 -759 948 0
-484 -597 265 906 726 0
481 -851 921 -420 291 0
-455 -859 886 -890 442 0
-178 323 -213 -212 -765 0
-741 575 713 -568 -245 0
782 -798 -482 -172 -426 0
-55 481 499 529 -502 0
-344 300 610 -292 -819 0
824 554 -942 334 736 0
-396 -732 236 -163 -779 0
-186 422 523 -480 -617 0
108 380 489 660 -359 0
-485 -831 203 -280 769 0
160 137 -293 -166 -900 0
-842 699 -152 -884 310 0
351 113 -104 136 -903 0
-150 -841 294 -546 -591 0
337 620 562 -44 181 0
-12 -748 -355 -65 932 0
-142 -231 -410 849 658 0
814 763 -63 543 -186 0
19 -20 915 -611 646 0
433 -803 230 -996 -140 0
804 365 -205 -997 170 0
833 -277 351 -753 788 0
289 -479 444 872 529 0
887 -46 -135 -291 -895 0
-617 -691 -355 -497 -784 0
234 -395 -460 -444 -681 0
-260 -758 -718 957 -341 0
-68 215 -645 368 -100 0
-620 -917 -556 870 -530 0
784 806 -718 584 -452 0
-675 -664 519 47 713 0
208 -503 304 849 -388 0
134 -938 -899 -535 549 0
619 -120 -526 -406 834 0
-919 565 -121 -918 -274 0
174 662 -307 -4 628 0
709 -348 -525 233 -506 0
-805 -878 560 -257 857 0
-612 -51 757 -81 -495 0
256 652 -670 351 -146 0
-103 837 621 798 -153 0
810 -195 -897 -17 471 0
140 153 -630 941 -714 0
-57 272 196 765 610 0
999 -603 275 -730 -555 0
-899 302 -22 749 -975 0
852 449 -63 761 -479 0
775 -477 -969 939 601 0
-443 -914 -462 442 -911 0
-274 922 593 866 216 0
-840 791 -244 116 -178 0
767 626 365 -464 -978 0
727 509 802 -621 -741 0
-906 -773 675 13 943 0
217 -24 -318 123 432 0
88 -329 603 970 -294 0
-316 -580 986 628 -441 0
52 199 -322 671 -850 0
-694 -158 -674 883 -936 0
228 -595 721 -578 248 0
-938 165 -136 606 -578 0
858 -866 950 -44 843 0
794 164 872 -522 110 0
867 -364 -376 320 -317 0
-329 613 -978 -675 -128 0
-756 305 -158 -842 -865 0
-15 13 -957 871 527 0
-949 -851 565 222 336 0
-718 615 886 146 -468 0
50 320 -216 -686 728 0
190 100 -821 -640 947 0
-937 356 83 596 -823 0
-810 -380 930 562 41 0
163 760 -23 380 609 0
-790 368 316 849 -205 0
730 -526 823 623 -748 0
-939 -829 -885 642 366 0
-754 76 -432 -588 -897 0
-916 -650 -533 -803 424 0
15 241 714 -925 276 0
-829 823 347 -746 889 0
107 298 -474 -393 -858 0
-655 -872 926 232 647 0
425 -737 -150 -772 -61 0
-591 680 -82 -967 -126 0
-482 -787 -278 -940 256 0
620 581 829 -804 -481 0
888 505 -119 -847 -800 0
-64 -549 -720 852 801 0
767 -974 292 -188 -631 0
712 -891 864 -18 651 0
-817 -176 124 -622 705 0
164 41 742 186 316 0
305 720 950 -996 -831 0
761 11 904 -606 386 0
362 -586 487 155 532 0
-859 -278 -818 304 -130 0
-262 -605 927 447 731 0
-413 -661 -586 214 -120 0
-458 447 -798 459 -890 0
-617 250 -765 494 -895 0
-542 -653 89 638 -537 0
238 797 988 -21 -704 0
356 -514 -847 467 805 0
-383 -126 -571 -927 624 0
-271 754 421 -454 604 0
255 -263 -611 -240 915 0
609 -458 -435 146 -194 0
-89 -372 937 333 594 0
132 -280 -441 -789 -662 0
625 -103 -622 -938 -434 0
-883 135 -357 454 -379 0
-335 -647 -633 -36 265 0
347 596 399 -537 -875 0
-181 -13 -258 -690 -520 0
-58 767 -345 -93 914 0
917 831 737 462 -992 0
142 292 -190 -969 -733 0
892 633 517 -494 -239 0
883 -930 347 -617 -799 0
-30 -131 266 -954 -104 0
-369 -187 788 436 347 0
819 -21 -61 403 -285 0
-246 40 186 -895 404 0
471 37 654 -969 -604 0
-88 -473 -175 -936 901 0
321 -391 352 -422 492 0
109 492 450 -661 -520 0
-871 -580 -960 -231 -249 0
95 -944 -333 -959 -348 0
-775 -770 -121 -451 -658 0
-543 -83 -340 -871 109 0
276 995 -466 -186 873 0
-437 -100 989 799 -351 0
-56 -201 47 435 21 0
-133 -664 20 401 915 0
-815 184 110 392 602 0
-836 869 428 -528 -594 0
664 -843 287 -948 586 0
-758 -719 288 888 -675 0
-359 -885 624 620 -29 0
-700 345 -985 -503 822 0
933 783 580 773 230 0
-851 -353 -135 773 619 0
-826 -35 -734 510 595 0
-710 -331 -234 573 -904 0
-2 922 293 521 -164 0
722 -651 497 312 -740 0
-396 -964 -842 207 242 0
-350 210 -424 -924 115 0
127 268 622 658 302 0
515 -870 882 -193 -700 0
446 -118 -818 72 106 0
-107 810 -550 156 11 0
-390 666 -538 -962 233 0
818 -970 -382 -672 -352 0
-872 935 545 -62 480 0
-388 264 -525 606 10 0
750 506 356 -855 -407 0
247 -69 -961 -723 -772 0
524 -726 -552 -68 -495 0
70 -877 -406 -483 -431 0
-968 504 -515 -851 566 0
39 28 889 -874 462 0
392 812 -272 284 697 0
403 44 180 -856 980 0
-400 549 -252 771 -158 0
-448 -845 725 143 439 0
197 51 -604 -316 -937 0
833 749 -543 -217 726 0
906 662 -379 787 -700 0
43 182 -10 -423 982 0
-207 462 -313 203 -212 0
738 -786 771 -898 271 0
-739 838 -994 -315 193 0
594 -889 -267 -167 16 0
-813 -739 -118 294 746 0
-895 525 979 236 138 0
-262 192 -888 -700 38 0
-417 835 548 -758 111 0
716 45 -333 528 -890 0
377 -659 -596 393 306 0
340 -575 -477 414 -542 0
-209 36 222 -600 -680 0
-350 -322 576 581 96 0
605 -736 536 -431 380 0
-433 886 -356 900 -926 0
822 776 765 241 516 0
-927 -672 -110 313 795 0
-697 831 -164 208 628 0
-941 510 561 -431 -413 0
-566 244 252 797 -828 0
-243 731 -94 -156 -22 0
207 -876 -794 528 976 0
-143 48 -721 -937 770 0
195 783 502 -690 -996 0
-393 529 -214 -312 -80 0
-805 -110 878 -259 -348 0
-900 -169 -47 -744 294 0
470 -439 -760 603 241 0
672 173 -465 775 -297 0
364 -612 142 -524 628 0
-238 609 -455 -106 927 0
640 -898 -409 -675 -746 0
107 283 355 -446 -270 0
914 -576 -452 799 301 0
-663 -337 -13 -623 25 0
972 -242 -474 413 909 0
226 801 -585 845 322 0
-645 170 -630 573 178 0
-942 331 -793 -512 -235 0
653 497 -209 -402 -783 0
826 -898 326 514 679 0
-196 675 -241 727 -32 0
791 654 -320 -893 145 0
-927 833 147 572 -662 0
555 -77 859 -478 -143 0
78 -446 119 156 -199 0
-638 -96 532 -614 -205 0
-72 984 554 599 -728 0
413 -667 386 395 -439 0
526 375 687 305 728 0
-976 333 -231 791 -277 0
-411 498 130 -120 -820 0
410 671 263 767 -194 0
709 -623 212 -642 -422 0
-600 711 218 -779 776 0
883 304 524 94 820 0
-406 -155 223 166 -650 0
78 911 -639 260 334 0
491 794 505 458 -74 0
-389 -473 746 -564 -514 0
321 -375 473 -466 -920 0
236 43 397 -534 57 0
-534 -6 735 -950 542 0
-712 1000 719 -214 -701 0
442 911 -580 -339 235 0
-30 959 188 374 586 0
-61 -390 559 359 -635 0
-295 -646 -331 -509 922 0
-988 440 702 -692 -95 0
77 696 527 949 579 0
422 181 180 349 -998 0
528 46 914 118 334 0
-95 -217 252 -881 263 0
-444 755 439 -328 793 0
-337 -655 727 -542 -457 0
719 810 -497 537 -293 0
-132 -943 382 -957 476 0
-767 117 254 61 -198 0
-933 159 390 -70 837 0
-464 895 34 129 -8 0
-613 -220 279 724 -583 0
-570 -890 -579 393 90 0
284 -365 849 -836 852 0
170 475 -772 -830 -388 0
548 -766 -471 -32 -582 0
662 -539 192 -418 -313 0
933 733 -888 362 -404 0
-308 866 -51 48 120 0
737 -573 209 288 283 0
-960 -115 88 -553 285 0
63 -336 -189 -779 600 0
-988 591 -220 39 -122 0
203 423 140 250 -144 0
-952 980 -352 -49 543 0
900 -716 172 766 -386 0
-909 664 651 -486 -478 0
-967 -437 -638 -907 345 0
31 -506 957 -199 -401 0
917 160 602 -222 571 0
989 -179 -984 -331 -221 0
980 -407 178 -273 381 0
-361 -225 -263 914 777 0
-293 839 -284 919 202 0
-283 35 -264 -350 -179 0
-654 308 -601 -104 401 0
-876 -678 -881 -236 613 0
-352 -727 -186 -698 32 0
-466 -156 -279 -225 -258 0
647 -93 718 -984 -884 0
469 986 -146 669 192 0
284 558 -994 377 870 0
970 -88 -98 -932 -812 0
21 -199 -833 -170 78 0
322 178 -275 829 -827 0
223 271 563 -759 -812 0
-73 -816 940 137 972 0
461 -679 -588 807 -944 0
-769 382 -137 821 792 0
-662 426 -609 -73 -23 0
-449 -438 343 -999 63 0
757 -707 -139 558 607 0
126 -550 -46 930 -655 0
-271 40 405 874 -514 0
84 -458 -452 535 635 0
564 -858 -498 -64 -454 0
-71 735 -383 -606 759 0
221 877 -203 789 614 0
-495 313 127 -147 796 0
-369 312 540 481 121 0
802 989 478 -765 -188 0
-621 -722 900 248 -75 0
-161 -735 72 524 -588 0
-340 -451 -789 -26 236 0
-999 327 -198 -4 599 0
338 -323 -370 -10 642 0
-598 948 227 -325 157 0
423 -64 265 803 334 0
-469 186 -343 -282 -747 0
778 959 786 -835 -733 0
-500 -250 165 -695 375 0
709 58 317 531 -551 0
889 -712 -647 -275 385 0
372 885 385 -30 -763 0
252 92 -996 -60 381 0
-914 371 -338 621 499 0
-189 148 -427 -437 465 0
587 -703 975 898 -28 0
-219 -814 236 257 808 0
-621 596 562 -827 -906 0
-873 -62 705 -625 -263 0
715 635 -887 -29 420 0
-385 -64 362 734 -904 0
700 -101 -416 -618 573 0
733 922 255 -361 946 0
-237 -925 143 -837 -691 0
-177 172 -447 866 829 0
-421 941 -556 -395 901 0
267 -604 -374 -593 388 0
-369 -499 -22 -438 537 0
261 -471 -854 990 -139 0
-434 947 -244 929 -972 0
-770 20 211 638 -726 0
809 -559 -229 100 -418 0
-900 -718 130 -945 -819 0
-496 -551 334 -290 392 0
940 -339 922 356 375 0
199 271 109 221 329 0
-382 514 819 866 -329 0
770 687 589 -455 646 0
-209 -174 -967 425 -844 0
-170 242 -274 -108 -88 0
-28 816 487 996 920 0
424 -169 392 82 645 0
575 -515 -298 262 379 0
-492 -144 427 790 -605 0
-726 883 -674 -343 -176 0
779 242 -713 -38 -664 0
26 -29 -552 960 117 0
-612 -355 543 -298 -6 0
-286 855 -1000 -476 -486 0
55 -752 -419 -1000 -633 0
-126 51 255 -970 405 0
287 741 -604 -45 -866 0
-73 -673 -451 -35 90 0
346 292 896 -650 963 0
135 877 469 953 -936 0
-31 -731 802 567 -312 0
402 176 -354 -314 -493 0
948 214 -294 656 -163 0
612 357 187 687 193 0
661 863 720 -420 38 0
698 827 891 -29 -947 0
-215 264 -238 485 33 0
-659 -470 810 -16 494 0
-902 359 856 -263 808 0
462 595 418 799 895 0
-380 -736 -11 -207 236 0
-812 94 -398 -976 -197 0
196 421 768 -391 497 0
-263 -720 -303 520 882 0
392 462 -617 -366 755 0
-20 28 -856 589 -979 0
-277 305 -898 -857 457 0
-916 829 -440 -961 -194 0
731 325 879 15 -129 0
809 720 -178 284 948 0
553 23 -539 -887 291 0
-423 396 523 -946 310 0
149 841 -994 -958 468 0
-20 -481 803 605 -964 0
-551 112 454 447 -372 0
-949 -911 849 129 -666 0
192 -179 575 -303 -227 0
302 584 -450 -912 -142 0
-930 -786 106 234 -901 0
899 -160 738 374 903 0
753 844 106 -637 720 0
998 528 743 145 -618 0
-861 -918 -487 342 242 0
-880 -141 375 -394 301 0
659 959 -262 604 -524 0
255 677 486 895 173 0
209 -289 658 164 578 0
957 -566 836 -365 -39 0
69 227 -705 8 560 0
-870 -273 317 173 -879 0
788 853 452 537 707 0
410 -429 -61 -298 -418 0
-188 448 2 198 926 0
-900 -187 -227 890 30 0
107 520 -698 590 562 0
943 538 767 -778 -932 0
-183 969 -962 461 -60 0
-547 -464 -492 -551 901 0
702 830 744 674 410 0
381 282 -817 635 -554 0
-68 925 951 -364 780 0
769 171 -525 -103 230 0
698 -507 -654 -458 538 0
-505 -681 -226 705 -444 0
-150 903 84 -663 -401 0
-817 -125 696 -446 -414 0
843 -530 280 317 -396 0
-128 -394 847 -79 328 0
781 855 -577 423 -716 0
11 265 955 -182 -961 0
521 -275 -307 -805 609 0
-206 -996 488 -969 -314 0
702 -55 81 -777 700 0
-499 896 566 -606 -246 0
203 441 940 -218 -233 0
-757 -736 776 171 875 0
-744 529 200 -285 -973 0
178 513 -882 159 -652 0
-820 284 991 -652 -832 0
126 -879 871 -435 319 0
764 -279 257 -96 594 0
-795 -56 -68 555 783 0
928 80 -773 837 -313 0
-822 -578 -440 -854 890 0
-785 -602 -512 902 -827 0
-369 -42 710 637 -322 0
-522 -188 875 -520 773 0
-635 788 -650 -717 126 0
107 -308 754 -121 997 0
-917 -526 -933 229 -131 0
-486 -881 -323 749 125 0
-41 84 66 -174 264 0
937 -259 78 -373 338 0
-299 -487 385 -425 9 0
-975 -436 368 -535 11 0
-684 -951 556 863 -904 0
-730 337 763 -145 -376 0
267 -691 19 64 950 0
600 -231 221 -350 675 0
-179 -503 265 -277 -891 0
-334 -646 2 -329 -235 0
462 147 146 64 -37 0
95 734 -825 608 100 0
854 314 487 687 -283 0
830 -997 603 -841 780 0
-101 -184 -623 12 -483 0
-716 -232 455 -679 838 0
-858 71 -724 393 289 0
64 44 -818 726 91 0
-724 -867 -949 700 -582 0
-962 867 721 -766 -165 0
-498 -358 -30 799 293 0
350 -868 -509 764 430 0
454 58 723 -682 929 0
445 -697 -835 158 282 0
-267 -232 979 -24 -977 0
-787 -937 -81 207 929 0
-551 389 -380 362 76 0
851 -10 -29 924 -203 0
367 -990 492 892 384 0
-845 682 794 -549 58 0
-191 48 766 316 -928 0
-661 50 -584 363 -947 0
431 -334 46 -800 537 0
709 584 -217 -650 -260 0
-786 593 143 752 -832 0
599 -222 319 -1 797 0
-324 851 315 -973 -69 0
-449 757 -41 -169 906 0
562 867 -226 502 525 0
256 -636 -25 887 -219 0
-176 -729 982 877 711 0
-252 62 430 -586 -83 0
-341 420 -132 187 515 0
427 978 -284 31 -889 0
43 -949 327 965 697 0
-373 349 -183 588 -102 0
-772 -507 -687 -521 -848 0
-802 839 272 7 156 0
901 311 -457 -67 243 0
-293 -481 809 69 -582 0
-913 -562 183 -992 -527 0
-715 903 -809 846 -338 0
-543 704 886 -642 263 0
49 -36 784 -584 -76 0
412 -909 -919 -657 691 0
-820 405 665 -333 777 0
372 779 -897 336 195 0
-453 -14 -833 780 -783 0
-17 129 431 -580 -326 0
440 215 251 672 596 0
125 -331 29 -265 -74 0
396 -86 16 379 935 0
-579 -848 -210 854 -319 0
-842 -797 645 637 -579 0
802 -391 -849 128 563 0
-300 930 -709 800 509 0
-618 671 713 -709 -813 0
-977 -557 466 648 -895 0
-820 367 308 -551 -458 0
-91 868 -790 -14 -43 0
-485 -748 -543 599 483 0
-29 -767 344 -961 93 0
-735 -282 807 16 657 0
-871 -604 987 521 296 0
-967 335 -529 -692 -527 0
234 732 52 946 -432 0
-18 414 229 -651 -731 0
-9 -173 204 723 363 0
35 -566 390 -617 25 0
-518 -303 411 -841 -391 0
-355 -474 -489 754 185 0
-818 -602 33 999 925 0
782 31 -490 710 34 0
-974 -752 625 286 232 0
-454 -106 -866 -554 -491 0
-558 38 464 943 629 0
916 -852 395 -569 538 0
-729 -108 676 -226 973 0
936 -115 -924 -600 -484 0
938 -619 -140 219 891 0
527 -433 -36 157 -497 0
-397 119 941 -292 16 0
-610 -708 451 368 -696 0
-475 -148 293 -197 -622 0
185 79 505 -333 -699 0
523 -372 -332 906 276 0
414 -356 -983 -483 81 0
-575 -49 804 368 28 0
100 315 -191 454 -545 0
951 708 630 -170 -907 0
-818 -949 -884 -98 361 0
236 -469 146 -345 -61 0
-704 279 -925 -317 -79 0
384 467 484 696 234 0
-72 -477 623 -744 -693 0
-24 -193 -74 716 -533 0
-675 822 -430 -617 753 0
408 -220 -50 -267 -132 0
856 -724 -818 -716 661 0
-881 -313 900 -785 -90 0
77 209 450 709 79 0
-892 122 -243 -925 826 0
85 582 78 -559 640 0
-832 69 -845 -462 210 0
666 989 -687 642 -904 0
-728 895 998 921 1000 0
-778 -595 -543 -406 874 0
-476 -655 279 70 -408 0
872 -418 -97 845 -77 0
-750 122 -114 85 399 0
-500 -50 795 -470 -591 0
403 904 771 626 -320 0
258 537 192 -730 705 0
-667 -947 2 -3 252 0
237 -816 89 66 -616 0
425 -569 -186 -562 -975 0
21 -381 742 -643 -159 0
265 -178 313 970 450 0
-726 -55 -260 117 -401 0
-695 62 -240 -865 -539 0
-385 -446 -836 -916 -954 0
-896 348 -771 917 -669 0
260 917 -249 961 -91 0
-76 -407 -487 -544 -911 0
581 -165 -17 21 -185 0
379 769 -697 648 210 0
-597 -183 537 800 80 0
-249 -495 877 -602 -459 0
695 459 390 264 267 0
13 -822 676 -478 -863 0
326 386 491 -396 115 0
-984 105 115 -191 -517 0
937 416 267 527 -769 0
557 365 -90 441 -944 0
-490 -543 -944 -862 -611 0
-298 -21 -103 -686 326 0
459 -302 568 572 -295 0
526 -125 -978 -952 -453 0
-895 150 -231 830 -128 0
-89 -768 404 -276 -993 0
377 -133 229 475 813 0
544 817 -967 767 -838 0
744 666 -188 -400 -295 0
-232 481 399 -311 -931 0
122 804 -938 336 314 0
-768 292 358 -922 331 0
273 784 -583 -617 -128 0
-100 583 -121 974 -114 0
660 794 -842 -286 407 0
-36 775 -122 -294 860 0
140 737 -316 180 978 0
-553 -146 -149 -483 480 0
-665 507 78 -106 -868 0
117 -721 876 -362 -865 0
-895 353 314 -181 -997 0
-571 947 640 -858 -595 0
-973 246 -205 449 -496 0
258 -120 453 -845 -48 0
246 -298 699 -88 -382 0
464 -965 -777 938 -141 0
-244 -9 -434 -719 169 0
35 481 792 -1 946 0
-332 -66 458 23 704 0
-800 -704 -295 896 237 0
-974 794 121 644 -14 0
-279 9 -205 -174 801 0
234 -34 843 207 -123 0
-910 649 675 -928 913 0
888 -540 -338 -785 -884 0
-223 607 -801 991 -53 0
805 683 -764 741 -765 0
-202 -667 -8 853 118 0
449 359 -453 -454 -366 0
-917 -828 -753 469 -55 0
-432 349 426 589 -253 0
572 742 320 -362 -504 0
279 -733 -302 -437 -759 0
920 -836 43 637 -617 0
185 -70 -610 -781 -452 0
-833 717 -869 837 587 0
549 -36 -863 96 789 0
388 -55 709 809 -974 0
437 891 998 837 848 0
-628 -500 584 187 472 0
277 -830 -875 -418 -607 0
341 65 -442 285 -156 0
627 632 125 571 439 0
-906 567 -163 -540 -804 0
380 300 80 862 869 0
644 -172 253 626 -998 0
37 -568 231 -645 -418 0
231 -180 892 -847 406 0
-699 -284 543 -855 -53 0
481 -962 -61 995 947 0
293 -343 710 -678 -897 0
-354 -510 -616 368 -280 0
-815 429 -316 692 663 0
-933 -764 329 -222 -754 0
450 -898 -364 319 -18 0
967 -476 378 -100 362 0
-850 559 830 417 -406 0
-943 -585 -583 -170 -389 0
-905 695 -449 -143 -809 0
868 441 403 871 -323 0
-935 -652 -591 -134 329 0
-702 -520 225 722 65 0
-616 -535 226 -664 -851 0
93 361 735 42 942 0
-879 -835 -572 739 274 0
-979 -347 -249 666 214 0
-52 268 413 406 582 0
-589 246 -75 -523 993 0
-80 186 338 922 -920 0
-258 -467 -722 377 430 0
-317 -635 908 876 -515 0
340 114 -820 264 -158 0
307 275 884 9 -974 0
279 349 606 -792 -363 0
303 -857 985 -116 89 0
969 -656 784 -44 -501 0
405 7 386 -670 -575 0
835 -180 802 450 559 0
937 -714 998 -148 -719 0
936 844 927 781 636 0
618 -817 890 -883 -958 0
716 178 -337 -161 -129 0
170 -388 -14 442 -378 0
-946 -192 901 -614 612 0
36 -499 -885 680 -786 0
-154 713 460 270 229 0
-855 -6 -760 157 -976 0
844 949 -666 -469 -611 0
-488 -790 -727 -562 924 0
425 723 -937 339 -203 0
591 775 610 987 84 0
-323 399 628 384 930 0
-542 -630 -154 833 -221 0
-638 -240 -188 767 268 0
641 310 697 -446 256 0
161 -172 627 -536 -129 0
550 -727 958 -683 753 0
-217 -29 281 679 -882 0
-559 -172 -272 120 452 0
99 -711 -280 226 -958 0
840 -879 -733 -165 270 0
213 -806 -159 208 148 0
490 848 -744 330 517 0
201 -762 999 -457 -839 0
916 574 -415 -311 698 0
183 759 -474 -110 686 0
804 -471 420 -814 -174 0
67 850 -919 -917 871 0
140 728 529 -14 827 0
-481 -380 967 -618 -204 0
999 383 -627 456 962 0
-294 543 779 -308 547 0
62 834 559 165 -141 0
-300 -750 -176 -519 818 0
232 -317 874 -918 -612 0
-546 635 -922 680 317 0
62 -833 -36 -182 582 0
900 -637 -148 970 -832 0
147 -289 -670 -394 -295 0
-908 -255 994 825 -876 0
-666 -708 870 652 850 0
560 -664 -254 -934 -246 0
-789 -145 -700 102 614 0
243 989 853 -909 45 0
404 331 -582 802 -611 0
-783 617 -227 -216 -864 0
-888 -81 350 -769 803 0
-810 360 85 -295 -962 0
872 -256 132 718 -708 0
938 -62 848 785 -296 0
145 -213 -834 602 -633 0
965 -770 -714 -750 914 0
-741 -403 46 -487 696 0
-822 -686 -714 -928 648 0
-600 -316 -940 -133 -44 0
161 530 595 -963 912 0
-682 449 -823 -693 953 0
-541 -86 -713 -320 219 0
-758 39 -191 -489 -836 0
-440 347 13 163 -907 0
542 -315 -34 -20 -229 0
-313 514 -969 868 -863 0
-566 783 465 -184 -340 0
-545 -550 -902 654 -509 0
884 -629 -106 147 -40 0
-497 740 -149 -992 -949 0
-660 -475 -789 -330 585 0
947 458 -857 -892 320 0
-374 -35 174 262 643 0
844 -282 641 785 841 0
-658 -703 -350 767 -997 0
-791 -831 -895 -699 18 0
5 -789 921 -238 -686 0
539 -716 492 670 579 0
81 -915 375 -71 -428 0
990 379 -33 -430 791 0
-611 101 130 -405 -402 0
654 439 326 -59 -140 0
638 -976 2 223 -155 0
-10 -774 -499 265 -720 0
-543 -899 -575 -25 892 0
94 -498 696 906 -319 0
141 -360 -791 -612 695 0
364 -907 -995 197 -146 0
74 -308 -309 560 434 0
-496 -246 -76 -375 245 0
-310 895 984 -512 408 0
-480 313 -797 -328 -27 0
-957 974 680 800 912 0
870 959 -395 33 350 0
927 854 -663 -981 -505 0
162 -339 -455 110 -224 0
802 957 -585 930 757 0
-137 -219 476 -751 777 0
-113 712 695 -460 -286 0
536 -170 -541 -484 -619 0
967 -40 847 346 -86 0
-346 -968 628 -129 -124 0
710 -902 -386 -647 -868 0
-781 -286 430 273 314 0
-852 396 -729 326 -454 0
878 939 984 -367 555 0
250 -14 145 141 487 0
-629 888 -889 -829 450 0
-374 190 749 -668 883 0
813 -238 -257 58 -318 0
-449 241 -907 997 -461 0
-844 -268 424 465 -374 0
-950 -508 142 -689 -117 0
109 722 414 -518 -449 0
862 21 632 -872 -698 0
-118 548 -236 469 601 0
825 -340 -988 249 -297 0
-750 -182 -6 313 -504 0
-588 -176 -730 -626 -788 0
-534 -843 -478 -416 807 0
-113 -541 -447 875 877 0
-12 965 395 -344 118 0
332 -684 859 -152 -820 0
153 -490 -806 -636 -601 0
-709 927 395 115 -998 0
-917 -460 752 -42 161 0
-890 -809 -244 109 -984 0
-117 -116 -373 -508 522 0
-153 -209 288 352 -121 0
721 92 -104 100 -95 0
676 176 946 -523 -364 0
164 44 -258 -93 183 0
581 -680 -32 102 788 0
-126 332 -370 110 -874 0
-60 314 -7 -897 -661 0
-383 252 39 675 -101 0
-614 107 931 -429 -600 0
-926 -334 913 -338 238 0
410 759 -849 399 214 0
986 -954 490 424 498 0
-682 -87 180 -267 952 0
770 938 378 901 806 0
212 -633 -110 784 36 0
884 -2 375 -193 -321 0
96 830 640 436 -245 0
-408 -695 679 -363 992 0
-608 -784 538 721 -252 0
564 369 607 929 249 0
-860 -60 891 548 -101 0
-335 142 509 872 725 0
305 440 -632 -451 919 0
929 -4 629 690 -216 0
-343 24 485 -422 -788 0
871 -138 -686 910 -249 0
904 330 516 -564 -936 0
-856 -980 -901 -329 575 0
4 738 -173 -783 523 0
-620 48 198 273 -357 0
208 -753 -776 357 -334 0
-454 -111 -256 -45 -550 0
255 98 894 185 -549 0
644 134 -766 -822 -39 0
-3 -224 149 -671 -371 0
-291 10 736 362 232 0
-264 266 -214 -456 -120 0
-450 750 -800 -16 68 0
424 -327 -783 -105 534 0
-376 978 875 78 -626 0
-546 463 832 985 23 0
550 297 -499 451 590 0
971 814 -82 666 311 0
-691 844 -723 208 -447 0
-542 -14 -814 660 824 0
-531 -445 666 -719 -864 0
140 379 216 -49 965 0
-765 -862 204 488 888 0
-706 -77 -561 -657 605 0
-652 27 511 -707 -872 0
935 -458 -156 327 117 0
-475 -234 834 650 -799 0
-910 -354 130 832 270 0
-340 -691 -785 -408 226 0
-277 111 201 -79 -883 0
-452 -33 -161 562 -935 0
-503 17 854 845 886 0
968 -975 -804 -909 668 0
-394 323 -144 -969 -304 0
472 324 990 -936 964 0
-593 -67 -127 -32 -555 0
10 -370 488 -49 755 0
367 107 340 -702 119 0
-887 -949 28 577 953 0
-857 74 852 -920 956 0
-911 -873 430 427 -398 0
-414 640 587 -483 144 0
336 -304 551 379 -855 0
-842 -341 -914 -124 -357 0
-10 646 -845 233 -652 0
576 -494 -851 589 -447 0
-526 -723 -552 -235 -817 0
-885 -610 2 586 -712 0
353 -940 -817 875 159 0
-932 -305 444 -421 641 0
197 -630 303 977 350 0
-57 866 297 -126 -915 0
-450 573 -112 111 -950 0
752 642 951 636 -238 0
-662 543 -452 -551 -470 0
-67 12 -19 -980 889 0
-850 -401 684 819 785 0
529 325 -373 -1000 200 0
-93 787 -612 -317 371 0
322 -869 -333 920 -603 0
510 -620 148 693 -725 0
335 -64 -466 -896 472 0
-316 -22 855 -951 725 0
-776 -667 57 -33 -394 0
-353 -584 -831 -793 -401 0
197 932 953 -5 951 0
-657 -391 960 624 -570 0
275 904 -723 -372 -879 0
-276 192 247 -296 -55 0
291 -103 217 26 -344 0
561 43 525 925 -319 0
-168 679 -751 570 117 0
-100 633 -936 -498 -215 0
748 -546 447 333 -525 0
739 356 -138 -52 -796 0
184 -800 278 -176 -640 0
-274 -626 58 -621 -329 0
441 -424 -902 -751 -198 0
705 -704 725 -72 926 0
921 -808 -352 -629 -75 0
178 812 -497 -628 367 0
880 -504 391 924 -93 0
-231 405 -891 832 -759 0
-405 944 284 -844 152 0
-399 44 795 -766 -814 0
-99 -786 125 976 707 0
772 268 -387 194 946 0
151 248 -281 187 -819 0
-984 217 15 481 540 0
-936 -19 -770 -688 91 0
265 887 251 -178 -951 0
-701 904 -880 10 597 0
724 546 965 590 31 0
681 -310 700 -269 133 0
-821 391 102 -569 49 0
425 387 -5 63 984 0
-342 -6 204 315 550 0
146 678 -848 -63 -742 0
759 76 -195 323 -117 0
-748 115 -227 -839 1000 0
-638 -200 -487 550 -486 0
-664 -57 -885 268 -482 0
-220 -304 -535 666 -209 0
399 690 519 -156 -176 0
246 -694 -853 865 -134 0
933 -851 578 -702 369 0
491 27 769 606 -116 0
31 954 -189 477 -221 0
787 962 -394 239 -142 0
120 253 -577 -903 -45 0
-391 176 -356 -463 773 0
109 17 -74 161 936 0
-357 77 631 -889 307 0
811 -975 482 -84 175 0
-388 -359 -728 463 808 0
-642 -174 88 -169 -884 0
-30 763 606 328 983 0
-453 611 673 -820 271 0
-773 475 -544 34 271 0
17 137 855 -199 65 0
192 993 922 697 292 0
54 -74 -854 442 526 0
-140 -755 87 94 -276 0
-608 216 -951 1 -670 0
-312 -720 -383 -212 362 0
-152 449 834 -692 -207 0
-854 -717 513 -614 -348 0
-277 57 967 -899 49 0
606 401 667 159 955 0
-864 -673 -713 -820 700 0
40 339 -415 850 -563 0
-412 -340 130 -877 -339 0
-623 -368 506 -414 -946 0
-270 144 -341 -167 -78 0
115 558 131 782 -63 0
-328 -623 -294 -336 444 0
-196 467 873 -63 -737 0
620 79 459 -415 -701 0
114 4 247 262 -561 0
-583 870 -394 -89 -36 0
534 293 -519 -882 873 0
-345 142 627 41 -787 0
133 -565 -511 -231 -671 0
829 623 -100 -759 -441 0
-31 -699 770 -307 956 0
14 914 35 818 -585 0
-622 939 970 -2 -840 0
165 442 212 -447 955 0
485 -364 343 -601 793 0
-376 904 520 -346 164 0
667 -106 -552 -334 -723 0
498 -215 -326 192 383 0
511 576 118 -419 215 0
94 -253 746 -354 128 0
-41 -941 290 590 733 0
807 -68 29 -777 -766 0
-122 291 592 388 384 0
390 -372 395 180 -579 0
-421 -9 -991 763 -860 0
-384 -163 843 -188 -961 0
-683 189 31 -318 70 0
720 451 -423 937 94 0
-372 -518 350 -639 -12 0
-453 -704 648 885 -298 0
929 -225 -997 182 218 0
197 719 -294 407 -130 0
-609 126 743 -890 119 0
692 -445 -788 675 783 0
819 768 1000 -924 868 0
-450 -263 58 936 47 0
-506 -963 414 -320 -874 0
-800 -422 -766 861 -707 0
182 -811 -927 -862 -432 0
621 650 661 -552 186 0
-969 418 -633 -1 163 0
190 34 525 -329 -91 0
504 -634 83 339 729 0
139 -175 513 -357 -129 0
-755 -434 -45 -59 -849 0
31 312 -844 697 707 0
-640 -674 509 -830 251 0
-923 216 497 -868 537 0
155 -204 -276 42 873 0
338 574 624 -440 -733 0
-464 419 403 -797 -757 0
217 462 -267 899 798 0
-426 382 339 -406 569 0
-604 199 -997 -847 349 0
-936 677 757 -674 963 0
-930 371 -79 -229 805 0
-662 -15 -357 736 77 0
-163 679 670 -732 -870 0
-871 194 91 -87 -936 0
-295 838 -170 153 544 0
-468 -926 332 -999 -683 0
667 906 806 341 130 0
-155 -162 359 262 681 0
239 -453 319 -74 263 0
-584 -809 338 -614 774 0
100 737 35 638 527 0
-321 792 -178 -963 3 0
-439 -393 169 890 -446 0
175 688 -43 487 -35 0
800 807 -2 -94 476 0
197 -269 -156 385 -763 0
92 -924 362 392 -791 0
-802 190 763 -517 -572 0
717 -647 976 -802 -303 0
364 -408 -83 -608 449 0
431 -20 -704 608 -560 0
-635 792 955 -167 478 0
917 996 381 599 64 0
284 -350 842 463 -435 0
-194 -645 -562 -554 -704 0
-822 723 647 -924 -592 0
-524 -150 509 629 90 0
859 -830 462 122 -755 0
-177 -76 850 243 100 0
-955 -941 -626 174 681 0
585 936 -587 286 -650 0
372 -728 -573 -985 -209 0
-11 -818 22 -713 -815 0
915 -394 -801 -255 -775 0
-315 762 645 651 573 0
762 -386 -580 276 220 0
-376 -775 154 -102 -171 0
-224 -493 57 198 662 0
547 570 780 -409 -697 0
-182 -117 -262 -764 -990 0
-8 816 -225 -475 -608 0
-19 244 263 567 -789 0
941 -175 615 -804 -951 0
-986 627 -244 778 502 0
938 802 -348 -380 -675 0
397 -248 393 -741 -162 0
912 -779 839 626 -830 0
-936 -379 -99 -946 -930 0
289 364 -810 -370 967 0
219 382 -642 -558 270 0
318 41 -5 805 244 0
517 -187 -267 -693 -322 0
-560 -35 377 595 532 0
313 432 -91 514 225 0
923 705 247 715 -254 0
543 -372 69 870 -473 0
35 -913 329 -611 -134 0
800 -205 -571 803 768 0
324 -485 977 -503 354 0
456 -694 500 807 364 0
-96 520 415 379 -553 0
-497 323 200 36 -551 0
198 868 243 665 270 0
-435 -755 -211 753 91 0
232 332 -832 -146 544 0
808 -279 383 -190 -142 0
876 -970 -131 973 314 0
160 -251 3 587 -170 0
565 -276 -291 -179 -459 0
191 -506 -370 -546 -640 0
831 115 434 -3 -667 0
350 -796 770 627 -553 0
-245 939 -992 236 546 0
-565 -777 -906 976 -132 0
753 -706 310 -739 976 0
36 -627 -89 824 -937 0
-137 632 -975 59 734 0
-524 800 966 258 941 0
660 -30 543 230 -68 0
295 -484 929 153 563 0
103 334 221 115 403 0
903 -377 348 -115 549 0
-688 -295 986 182 -379 0
684 224 431 459 510 0
350 443 479 682 728 0
122 -372 666 -929 -882 0
-308 652 875 -70 -324 0
744 -89 907 779 -869 0
-172 627 -441 753 462 0
-693 -256 692 -120 -432 0
-430 -880 -148 741 -134 0
-762 -151 -108 881 655 0
-596 -457 -22 642 679 0
-929 993 596 184 -876 0
-632 -837 233 525 -275 0
-282 514 538 -670 -194 0
-15 147 268 -29 264 0
-709 285 886 630 374 0
375 275 -123 723 879 0
30 202 200 -123 217 0
422 276 -703 527 924 0
-182 -972 -236 339 -311 0
333 725 -810 751 -798 0
428 114 338 -879 492 0
-334 274 64 -25 -753 0
727 -149 -782 -517 -56 0
-872 -376 291 413 -842 0
-854 652 -40 285 -54 0
-271 226 -513 76 -798 0
-246 -554 -526 -13 263 0
-579 502 -147 975 756 0
735 -857 -232 -499 29 0
310 -327 -720 -571 -519 0
-101 -739 68 998 678 0
-740 -500 -896 -655 107 0
-995 990 -112 78 249 0
364 -339 334 -547 -91 0
-37 -796 430 826 -725 0
-955 -85 255 754 442 0
886 -254 -97 -263 -207 0
932 -771 3 636 -310 0
70 419 668 -435 -808 0
878 -764 -600 76 -744 0
-164 -897 -499 -99 864 0
236 -246 -85 -394 -823 0
-477 850 242 958 313 0
438 770 55 291 646 0
340 -684 212 287 -874 0
336 650 805 -514 -515 0
-625 -177 -279 447 296 0
-359 3 -48 357 -98 0
-756 155 836 -468 355 0
-737 519 617 340 935 0
-780 872 50 -953 969 0
471 675 -622 -29 -339 0
-532 101 -321 598 -783 0
-69 490 961 -911 226 0
170 -794 524 -332 146 0
-243 823 952 -236 -677 0
-470 -2 -137 -968 -772 0
179 512 161 -580 -742 0
442 -410 955 873 688 0
638 863 -425 504 -212 0
-617 640 -327 375 34 0
402 840 -313 -802 -743 0
647 -22 179 163 192 0
-892 416 927 140 993 0
-648 996 -413 19 -589 0
294 -367 894 395 -433 0
208 703 450 -399 -672 0
-1 -290 143 389 -743 0
452 740 -614 503 280 0
761 -715 -380 71 -562 0
463 -262 444 506 -65 0
-150 -927 -550 611 -740 0
703 543 -305 313 -617 0
-667 -742 270 587 -50 0
-416 761 -508 847 591 0
367 857 -282 654 283 0
452 38 873 -726 -492 0
-739 39 429 699 93 0
692 -920 482 -154 415 0
-366 991 -30 166 190 0
-415 -103 -55 -647 624 0
7 263 -127 -227 198 0
899 112 776 694 -394 0
-86 370 -196 941 -813 0
836 -719 513 625 566 0
-217 -107 -839 995 -619 0
734 -510 647 -673 383 0
-205 -213 198 605 -262 0
341 473 73 -498 506 0
924 -240 -584 -930 772 0
920 198 -438 -814 418 0
-938 470 891 -47 460 0
96 -828 964 -308 123 0
752 899 -833 965 -152 0
-665 662 -209 201 414 0
-949 -725 333 -958 -12 0
427 -356 61 914 -157 0
-928 -195 -312 -196 -733 0
181 315 449 411 -601 0
543 712 812 -553 -217 0
-923 -902 974 894 -967 0
-320 -184 -544 342 903 0
-478 504 943 -533 908 0
-872 674 381 441 -162 0
-169 -987 474 -286 -300 0
334 612 -528 -978 -247 0
-205 16 781 87 2 0
-638 271 429 63 -600 0
-369 862 -640 963 801 0
-236 567 -926 618 243 0
-182 629 -809 -625 -886 0
358 -927 57 -709 890 0
512 -971 976 166 -934 0
664 -77 60 -139 -88 0
-938 199 425 -124 334 0
-152 80 -691 65 -260 0
-637 838 -715 -733 -214 0
-917 493 522 482 802 0
-322 165 -581 -588 -544 0
319 616 51 231 553 0
858 -395 674 218 -807 0
161 306 199 737 -669 0
-617 -650 235 65 917 0
-65 -99 -646 -519 566 0
53 379 704 957 791 0
-616 -272 587 801 918 0
720 -314 -907 765 322 0
752 462 -292 -432 355 0
62 621 -326 -380 -715 0
-554 -445 -952 -739 458 0
-758 -298 -371 204 686 0
197 430 517 917 -623 0
965 280 952 753 754 0
21 345 -537 -882 841 0
-181 52 -56 102 -487 0
-93 -278 255 739 -367 0
-45 -509 684 226 -674 0
-911 19 78 485 -866 0
-694 -749 666 -531 -160 0
-503 -454 -21 -203 -428 0
785 127 147 -628 -647 0
-17 560 -345 455 247 0
-426 -951 -169 249 651 0
-541 -833 -404 574 412 0
894 494 -355 445 -408 0
120 -806 -271 -23 820 0
-367 885 197 586 504 0
-227 679 356 -383 448 0
-671 742 678 -503 312 0
-257 -180 -30 228 -97 0
81 242 -690 127 -38 0
-62 -232 -420 -156 -256 0
-253 525 755 310 -966 0
-90 -608 3 -347 568 0
-175 -191 489 -636 795 0
-191 -230 -386 206 -103 0
378 991 192 -241 166 0
-697 -427 202 648 -429 0
-264 -411 -900 269 39 0
135 517 4 906 204 0
47 -879 -967 -660 -950 0
-434 152 760 -230 614 0
862 206 288 -728 500 0
559 -638 -517 771 244 0
-306 817 -162 -291 -968 0
-76 -798 -626 -353 352 0
-567 803 846 721 67 0
-847 43 286 -347 531 0
651 -723 724 -188 -784 0
926 -970 -510 -933 -464 0
291 409 744 682 -395 0
261 -192 -692 -831 -716 0
212 -961 993 -155 95 0
-73 -743 -793 340 666 0
-130 821 767 79 97 0
779 -197 -712 10 500 0
-33 393 -271 -171 122 0
582 -718 385 837 859 0
-443 746 -985 96 -784 0
143 -184 158 -527 18 0
-216 -536 -96 -126 848 0
-650 979 12 653 -601 0
143 661 -829 173 912 0
652 -822 481 458 -696 0
770 896 359 -102 937 0
-513 15 -371 -453 774 0
-81 953 -507 -964 -210 0
-568 -208 -872 -769 616 0
317 -199 -862 121 111 0
298 489 130 662 -619 0
-978 664 427 496 907 0
-981 -612 548 571 -610 0
935 437 177 958 580 0
590 252 -773 589 -9 0
-48 955 -922 125 587 0
-793 31 3 585 138 0
-382 -23 -745 -368 -865 0
-828 -549 749 -437 -21 0
311 -333 -482 742 204 0
11 433 198 -417 -290 0
-716 456 466 -308 -985 0
-473 -944 716 160 -270 0
-508 -424 804 987 699 0
-710 -857 674 -424 709 0
-690 193 768 348 805 0
-10 142 916 495 146 0
109 85 81 408 -999 0
376 565 595 -276 522 0
-928 -514 860 959 -246 0
67 -650 943 341 -614 0
483 230 -880 -320 989 0
519 -397 236 -452 -607 0
-68 121 -932 572 -503 0
739 -43 890 519 -911 0
920 18 -454 -506 -218 0
-338 -905 -926 -509 -994 0
301 -459 703 271 -261 0
949 84 214 -957 28 0
483 146 562 979 -321 0
190 -772 -335 930 -183 0
-513 572 -938 535 -950 0
958 -672 325 -643 -750 0
-113 -925 635 -23 887 0
160 -279 -99 137 -624 0
909 388 237 -95 -658 0
-435 472 660 -746 955 0
775 -282 382 269 634 0
-954 263 -410 -387 728 0
607 640 -627 195 950 0
-772 -342 -61 -373 113 0
-662 649 -74 283 539 0
28 674 820 -644 -983 0
-871 -622 -15 938 461 0
720 324 470 -608 -552 0
504 -44 230 447 450 0
17 513 -252 -279 322 0
262 205 -66 -62 665 0
768 974 862 839 -325 0
-922 19 350 -893 148 0
-200 -944 631 204 406 0
-285 -399 -356 676 969 0
651 157 905 196 63 0
216 -346 886 -122 -845 0
-635 783 670 -239 125 0
126 -904 -945 -975 162 0
778 756 754 606 -876 0
-720 885 -693 404 120 0
932 907 -405 254 924 0
-882 106 927 556 -477 0
-360 -639 352 972 -325 0
337 672 301 983 -392 0
-363 -803 549 417 480 0
-321 54 688 -406 912 0
-841 55 85 -486 -219 0
-909 673 -421 -811 263 0
-133 645 -716 -417 251 0
191 -329 15 950 27 0
-123 -238 636 -21 784 0
-741 570 -489 -173 -346 0
944 692 268 269 -399 0
430 -391 -808 389 -483 0
-479 279 -976 973 357 0
60 -560 990 -429 -585 0
-668 530 -284 -266 -771 0
-151 242 -997 -728 551 0
402 881 667 859 -937 0
-901 896 -832 23 -806 0
855 220 511 115 941 0
-512 391 156 -549 870 0
209 223 -249 729 -320 0
-380 339 993 -407 -66 0
-534 701 449 507 -379 0
535 -454 967 -72 -628 0
696 142 122 -935 642 0
890 -625 -706 -899 579 0
-426 887 -698 -70 972 0
-117 688 -837 810 739 0
771 -685 -272 -524 294 0
-571 -883 43 -763 9 0
-724 -898 -687 714 300 0
392 574 500 -477 -459 0
810 -761 720 19 -820 0
532 -721 745 120 -510 0
427 -840 -820 -124 20 0
-692 317 -644 -443 731 0
218 -397 380 247 -449 0
-718 -867 382 -699 570 0
455 538 322 -262 426 0
-194 -174 -714 -40 758 0
-49 -241 378 512 500 0
-744 -362 -427 -59 455 0
-220 263 -418 -670 603 0
-710 688 -662 741 349 0
638 495 555 -744 -959 0
-540 581 -871 -148 -290 0
-471 -626 -339 -663 864 0
364 -702 266 883 290 0
234 705 -730 -870 -773 0
59 -661 676 -481 -108 0
-182 -238 -556 -700 852 0
952 775 448 292 -659 0
-736 -428 304 -418 783 0
-381 -67 926 -787 507 0
287 -560 525 -492 -65 0
-961 214 -553 584 715 0
244 772 308 -82 572 0
-30 -324 771 111 490 0
-976 217 -633 -914 114 0
-997 -651 477 641 146 0
-397 200 941 -505 -598 0
721 -22 209 -195 944 0
-97 113 259 -106 150 0
135 -242 19 -971 579 0
-177 884 213 230 -654 0
901 -380 -486 7 482 0
382 405 890 282 -708 0
-112 -855 47 -382 752 0
-340 446 -906 681 633 0
-183 -753 147 769 705 0
605 -122 -101 245 -946 0
672 -610 990 -899 18 0
194 -219 -532 -920 -485 0
196 453 416 862 -227 0
366 -380 -226 -708 -505 0
-668 383 -169 317 754 0
-864 -589 252 -937 233 0
-787 -512 -236 -708 -237 0
-638 -794 238 -636 552 0
525 220 -912 579 -263 0
838 -849 -205 102 -498 0
-921 -899 -692 -236 63 0
-733 -653 173 466 253 0
229 279 645 154 -259 0
135 -542 814 615 -921 0
-657 -485 -672 434 978 0
-239 -87 315 -323 -290 0
-242 228 -359 -708 -529 0
-704 253 -387 869 -775 0
-792 -976 -59 898 691 0
509 -651 -28 -638 80 0
414 500 -176 -371 8 0
-795 -925 117 569 -482 0
-483 -527 722 305 -279 0
-395 608 -847 380 -781 0
54 890 222 -755 -203 0
-727 49 -755 -636 -731 0
-587 -605 -92 -817 773 0
617 -329 -165 982 747 0
784 -600 -472 -945 -206 0
-264 622 -156 200 389 0
876 470 -594 -700 -130 0
-254 817 365 -689 214 0
-76 427 -292 -132 108 0
201 107 565 734 959 0
780 755 488 -976 140 0
-261 30 334 523 991 0
23 526 -710 -195 -7 0
448 224 -111 356 -76 0
-806 -84 82 29 -388 0
545 -749 611 928 304 0
81 229 297 834 772 0
-302 164 -965 282 152 0
401 811 -164 682 -618 0
176 -167 537 -917 -217 0
-647 -444 67 278 -115 0
-463 -314 -125 274 -122 0
411 -193 -949 -249 920 0
-920 -85 -435 71 -334 0
-716 903 -26 227 -935 0
55 384 -219 690 -536 0
-202 398 15 -337 75 0
419 493 -471 -489 204 0
-512 -816 907 -51 824 0
-175 -370 650 -803 -669 0
-13 817 210 -503 111 0
-409 -445 -189 -786 554 0
-869 -621 -114 -828 -872 0
-378 -142 -123 -876 368 0
-485 -965 -563 -524 983 0
120 383 356 761 -663 0
-29 -816 970 -535 -27 0
-704 -117 278 281 91 0
-912 824 -113 164 -900 0
321 -582 714 -511 -384 0
61 -666 -153 400 -103 0
353 -596 -724 337 431 0
-613 565 -832 -945 -517 0
-890 -896 -814 -837 342 0
-868 229 547 -19 -287 0
645 766 452 -149 22 0
-353 279 -379 -106 672 0
-718 15 712 436 -461 0
-745 -391 -426 631 -718 0
-768 938 -636 -411 -132 0
519 -278 -481 -347 -95 0
-433 674 698 -502 -435 0
931 -592 1000 853 595 0
13 724 -849 -309 -534 0
-449 -822 -562 -299 -550 0
347 -590 -866 -353 113 0
-330 757 -985 -989 -483 0
-681 305 61 -945 -915 0
441 673 -141 870 -259 0
660 -427 -745 -820 -94 0
677 -226 -844 -647 -566 0
585 138 -692 87 -115 0
323 789 890 -639 621 0
-324 -566 -772 -401 685 0
508 -692 986 553 560 0
-730 505 635 -875 762 0
832 -223 596 -68 81 0
-300 -281 188 407 975 0
659 29 -940 763 59 0
967 -345 -437 214 44 0
-281 -264 599 919 771 0
666 368 657 -61 257 0
-932 -287 -774 -529 748 0
488 -80 -430 325 33 0
-751 -997 -25 166 327 0
116 -784 -471 -902 -781 0
465 972 916 711 244 0
727 -681 976 484 -678 0
-957 165 235 -40 446 0
25 28 -85 769 -908 0
-666 -426 371 835 -23 0
493 830 106 -37 70 0
-194 380 -106 588 -100 0
-910 -199 906 511 705 0
-144 582 -988 441 611 0
-100 -318 576 762 325 0
904 938 -786 -876 151 0
863 -332 258 415 -135 0
-900 -403 588 -15 -984 0
557 684 -776 -661 44 0
877 28 565 -585 -485 0
-301 201 799 659 418 0
707 293 231 -174 612 0
-382 -428 600 -501 -35 0
434 792 -178 -263 -702 0
95 39 -387 570 463 0
119 450 -770 -12 -959 0
-895 -814 775 -877 -139 0
-94 73 918 945 859 0
538 696 -690 71 46 0
727 -857 -383 -545 360 0
-842 597 567 -114 -503 0
-907 -730 660 -70 513 0
-590 696 -435 690 168 0
976 262 804 -349 -955 0
578 -201 -387 256 844 0
-662 615 -756 307 834 0
-704 878 34 -487 -196 0
-917 -360 -120 123 447 0
59 -805 831 98 -916 0
-861 211 -836 742 -457 0
380 676 -450 -797 600 0
-97 613 909 -663 -500 0
668 -173 272 -798 -56 0
-842 -524 -450 -621 448 0
-170 453 427 613 340 0
7 239 -807 -127 389 0
-488 -372 857 113 243 0
852 -429 -523 -966 -269 0
-540 -522 282 682 170 0
225 -827 -36 -733 914 0
551 701 -862 -584 -651 0
696 -201 77 -820 -304 0
-471 464 -596 -526 -982 0
507 710 889 57 -274 0
-3 383 282 -29 -325 0
163 -466 -714 649 148 0
-20 719 142 246 575 0
902 -237 -270 -159 579 0
148 -828 686 -641 325 0
-100 796 703 -744 887 0
150 358 -614 -532 142 0
104 397 462 964 553 0
557 -27 -374 937 -180 0
186 -314 -853 -709 -644 0
-537 -192 -226 -179 447 0
-560 -916 -40 556 -382 0
-379 -936 295 394 -656 0
870 231 -818 -393 107 0
784 204 571 -305 -180 0
635 -529 -826 215 88 0
458 421 -158 390 -832 0
906 922 855 -318 -702 0
660 52 507 -955 -666 0
-375 -244 -410 -825 316 0
221 793 -534 421 368 0
237 -812 -590 944 -579 0
465 423 898 -170 -520 0
29 311 -384 515 139 0
-209 -344 955 405 -793 0
231 992 88 582 821 0
235 -745 854 376 746 0
970 -624 616 577 -220 0
218 -345 160 -760 -718 0
-955 -749 777 -293 -996 0
745 -317 -423 -354 155 0
879 623 -483 -216 598 0
-586 -480 511 294 720 0
860 528 -465 -14 -625 0
396 -910 793 67 70 0
571 -187 -401 -505 -99 0
-342 -634 681 -662 812 0
546 660 -11 34 73 0
-173 -464 979 965 505 0
948 206 -724 953 -338 0
-868 783 515 508 538 0
542 -126 -39 -149 763 0
-21 292 -742 -395 -666 0
807 -17 792 -631 -830 0
871 847 387 226 -235 0
815 -477 675 853 -468 0
657 -456 -409 18 540 0
118 -595 201 -430 590 0
-509 730 -960 -686 -242 0
715 439 -954 -374 -531 0
-583 179 -96 33 -352 0
-573 -424 575 139 433 0
-808 -15 819 -517 -145 0
-190 4 484 -232 762 0
615 -784 -979 584 71 0
-77 -61 -889 939 -254 0
-76 -710 -622 -114 781 0
975 -88 -142 365 -178 0
152 452 248 336 -260 0
-75 625 802 -177 403 0
467 338 -714 199 -656 0
-832 529 -854 202 -746 0
325 -804 -883 -760 -572 0
-643 94 382 934 -917 0
-675 -854 -215 743 962 0
38 -626 -733 -415 -860 0
-240 -835 81 70 971 0
-725 922 403 75 715 0
-30 -15 381 -33 915 0
-597 -167 612 -404 31 0
-435 961 263 55 -769 0
-212 16 802 -13 -548 0
-282 -630 731 809 261 0
-820 951 672 -534 -455 0
718 732 -303 762 214 0
-635 582 903 -771 145 0
541 -60 656 738 545 0
-377 881 576 -511 959 0
222 760 130 518 -490 0
786 769 51 974 -570 0
-171 -226 -465 58 -877 0
609 -843 -161 870 396 0
-16 -182 -791 -606 503 0
-16 113 785 -705 636 0
-444 -838 806 28 -878 0
799 656 263 -216 426 0
-681 -448 -50 -46 390 0
597 104 -850 -314 129 0
553 496 -996 585 -881 0
-793 -720 107 586 918 0
345 -966 -277 -336 -939 0
-430 -131 -124 -979 670 0
415 -113 -187 432 591 0
783 -296 -669 289 -435 0
56 -187 624 996 532 0
885 -515 -107 332 813 0
-610 -240 688 -168 -726 0
435 88 -213 -705 -226 0
638 -527 -135 -265 -849 0
698 330 -805 -459 658 0
980 665 779 -257 -473 0
170 -405 -667 -327 -820 0
573 -436 364 787 280 0
781 976 -814 314 878 0
3 791 438 -29 716 0
665 288 -327 -375 51 0
-456 458 552 -302 259 0
-356 -6 669 -539 -608 0
193 479 366 919 736 0
964 -793 -865 -997 897 0
-112 -584 -868 -82 880 0
413 -6 -252 -98 883 0
475 809 -859 -95 -239 0
862 385 -284 -286 55 0
502 -132 150 -723 -721 0
437 -872 -779 270 -590 0
779 -459 -616 -977 566 0
405 976 -362 491 -343 0
-771 -874 708 589 574 0
892 551 -326 508 885 0
-184 -69 168 -415 252 0
636 876 -650 326 -523 0
903 -324 431 982 -972 0
-884 -283 99 454 -148 0
588 -695 215 119 -814 0
-976 586 143 -154 130 0
-331 -88 246 305 -776 0
-897 -491 445 -213 -109 0
-350 992 406 -612 989 0
-505 -722 -106 657 723 0
466 -361 619 643 -828 0
-305 567 338 13 -410 0
339 -369 667 -215 -973 0
930 790 20 -10 -271 0
81 -188 781 19 -290 0
-454 -365 643 383 -627 0
-862 -187 -131 -618 -210 0
-772 256 417 -729 898 0
-275 253 -741 826 -239 0
451 -510 436 98 -355 0
261 -288 549 -278 795 0
663 870 -961 369 515 0
248 -225 -229 -787 298 0
-802 -703 -151 53 -112 0
-915 -3 -202 58 536 0
782 -949 -149 -152 787 0
-853 -465 -525 -804 -653 0
136 204 178 -446 669 0
274 646 -216 491 -823 0
92 -984 -382 647 772 0
-811 -862 759 -698 -847 0
-502 -484 -425 824 -197 0
-219 -393 543 338 -858 0
-895 414 -403 210 885 0
-327 -779 107 912 877 0
-536 -735 401 334 438 0
-773 -182 -887 -99 839 0
403 -811 -782 217 250 0
156 -132 -23 562 -653 0
164 -425 -827 -201 -475 0
-431 593 869 934 765 0
-394 219 -923 -750 654 0
655 520 -322 522 523 0
863 410 97 -895 266 0
-547 800 101 -660 -625 0
-837 -599 744 -894 -524 0
991 -374 642 919 -929 0
613 944 -126 300 94 0
103 329 587 -547 42 0
216 548 -473 580 -73 0
-340 -620 -309 185 385 0
-784 -380 -234 732 -848 0
647 -927 -35 182 -637 0
10 -779 667 -141 559 0
371 -77 -40 242 -675 0
-771 -903 -753 385 -798 0
-194 -325 146 -552 -454 0
-647 -93 -525 -698 -197 0
714 54 -523 358 -566 0
-194 21 234 -997 887 0
-226 174 754 415 -519 0
376 868 990 -566 25 0
-166 261 320 -375 57 0
-429 13 -100 102 -174 0
-799 478 -606 -719 -296 0
330 -928 175 -758 19 0
862 -718 -238 659 228 0
185 -492 431 -464 -816 0
