c 5-SAT formula
c 1000 variables, 4000 clauses, 5 literals per clause
p cnf 1000 4000
-992 550 231 -477 604 0
-218 -578 -526 906 -823 0
509 -700 -207 -578 866 0
648 352 737 -12 -698 0
495 -207 -659 836 -716 0
957 341 -615 883 -367 0
775 992 436 432 155 0
-55 -350 573 976 -577 0
735 -651 -752 314 77 0
876 -735 197 -651 622 0
-765 992 -959 -151 846 0
817 208 970 -251 132 0
-149 -526 -453 389 624 0
-263 -278 -404 619 226 0
-367 -215 613 805 607 0
366 -979 -667 298 -165 0
-42 -818 207 -831 -686 0
-492 477 -967 999 287 0
-50 -691 960 -491 -734 0
891 -938 -712 930 674 0
976 607 -827 101 -582 0
-900 -93 925 919 -540 0
-744 458 -755 -869 291 0
283 -84 -385 137 -784 0
-462 -617 274 -749 215 0
704 964 -862 160 -195 0
-329 -871 -331 84 567 0
377 -199 375 -592 884 0
-114 561 863 -201 -494 0
41 186 476 -234 -673 0
-119 258 -350 147 -467 0
68 -778 -481 287 727 0
-497 643 -266 -597 -812 0
-426 480 -964 2 999 0
-347 -91 235 -532 969 0
93 885 581 -28 678 0
-890 904 767 938 880 0
843 640 -277 -665 982 0
-314 -277 7 -90 672 0
-132 334 123 -71 -596 0
14 578 499 -746 136 0
-563 -620 843 228 391 0
-886 -166 -481 -75 350 0
577 -364 -13 -209 -868 0
-319 -564 498 761 -592 0
-295 -161 452 367 167 0
197 -370 -851 92 58 0
858 -290 -448 -898 597 0
803 -846 -476 -967 -565 0
-200 233 397 -719 -702 0
-668 -703 893 430 -547 0
-288 171 -369 -384 -525 0
800 -869 -511 -388 -606 0
711 -633 -254 17 659 0
-980 744 488 -964 828 0
931 277 374 929 -25 0
-374 -602 892 928 -168 0
-516 942 524 -485 -293 0
-516 426 -691 370 688 0
-862 906 -367 787 -388 0
-72 -607 -372 501 -796 0
-490 -766 -678 953 -671 0
644 -549 -40 696 569 0
538 425 888 -999 -754 0
-413 295 535 -632 94 0
-935 885 -430 -273 559 0
-436 -770 996 -435 -342 0
-871 854 97 947 -424 0
768 -880 246 895 638 0
813 -955 43 825 680 0
924 321 -603 -406 -40 0
-871 263 -542 -865 -69 0
653 233 180 910 -631 0
-655 763 106 702 -835 0
-791 95 621 -662 -963 0
187 -798 935 292 -212 0
581 -540 820 239 -869 0
-709 951 979 -474 -594 0
884 -937 464 -932 710 0
988 -164 -816 -999 369 0
704 929 305 -534 264 0
-87 255 -997 -784 -448 0
-265 -993 524 -370 801 0
-29 -471 150 985 -761 0
373 448 -78 -749 242 0
-877 -232 -145 -238 131 0
928 394 -654 -334 -311 0
-921 40 223 -946 552 0
911 672 -544 -657 219 0
780 247 258 176 -943 0
487 411 890 611 -463 0
502 -551 -726 -345 -397 0
-902 417 734 -367 327 0
852 376 -361 384 -390 0
271 284 -610 -712 294 0
-106 -505 663 -476 50 0
157 678 -484 -773 -394 0
-940 565 -493 507 286 0
924 -540 -620 -289 -396 0
-950 -114 -38 648 -57 0
-725 997 688 760 -789 0
-722 -231 713 161 743 0
751 826 -510 965 -994 0
-127 -387 -96 160 -821 0
-332 709 -568 415 58 0
-837 -320 643 947 282 0
-870 -532 632 591 220 0
502 533 -376 570 -597 0
-488 -259 -947 -48 -342 0
529 950 -395 421 499 0
473 -412 445 631 42 0
856 114 -608 -650 785 0
-922 376 -582 299 -969 0
915 -436 -568 -801 -940 0
599 310 597 -503 -371 0
-842 107 992 -358 -853 0
-179 -597 556 -447 288 0
-673 -106 -273 -721 -358 0
-6 -207 -290 -749 184 0
480 -101 -249 928 -804 0
-862 -116 96 797 -354 0
158 315 510 -324 -922 0
179 187 -294 -59 -871 0
322 -206 565 188 -756 0
-513 -964 547 -717 422 0
-882 382 698 -512 -439 0
-837 753 801 22 786 0
-553 680 -401 123 -796 0
-351 697 54 -364 912 0
682 -863 877 400 -284 0
-71 289 -163 907 127 0
733 -248 673 -283 -337 0
295 -911 -250 851 -773 0
26 632 401 -807 438 0
-215 -782 -874 -851 -254 0
181 -289 922 -525 498 0
-906 -137 -204 905 420 0
-372 998 748 -87 364 0
673 -653 -651 686 901 0
563 -358 -520 589 -388 0
599 591 -77 -962 -928 0
813 828 -646 803 942 0
826 -720 -406 -893 -466 0
-673 -714 281 308 -350 0
408 510 438 -987 55 0
-644 440 855 568 -517 0
116 177 -846 -631 -910 0
-715 -301 -134 97 205 0
-270 976 -845 -786 -140 0
639 904 192 421 783 0
624 963 -293 -84 -211 0
-126 381 253 447 -208 0
865 -589 795 -885 -781 0
843 519 137 13 735 0
900 -952 -540 136 -445 0
119 -770 -854 -879 505 0
995 -845 -183 3 -315 0
620 -998 -327 -539 313 0
366 -616 -761 12 -703 0
-627 443 -924 785 510 0
810 287 401 -284 -90 0
-408 859 818 -402 -274 0
-196 -701 128 -195 -122 0
233 -365 -637 -984 -812 0
-219 -180 -671 -663 -502 0
952 993 -597 -838 -545 0
751 -270 -18 561 77 0
738 570 346 493 151 0
-917 -661 834 491 131 0
-112 930 -654 -470 241 0
-846 714 -351 -520 -882 0
317 -93 383 442 627 0
994 337 -647 -430 -904 0
-380 989 3 994 832 0
-816 416 -175 378 365 0
-439 -722 360 -212 876 0
-654 -844 682 315 -122 0
586 454 311 -380 461 0
-188 43 -367 -91 574 0
-599 -80 953 341 776 0
-456 -635 -1 438 860 0
558 789 -858 241 71 0
-345 113 -286 576 -824 0
958 -732 498 476 750 0
-849 -94 -489 391 882 0
122 82 -88 -876 341 0
-135 -680 -702 -32 27 0
629 -831 686 124 847 0
595 -401 -25 -357 -928 0
-459 5 -744 -116 -58 0
644 -966 930 967 -157 0
-67 560 -386 -126 -647 0
239 231 -998 730 -63 0
-643 -56 757 732 793 0
-59 218 -847 -372 808 0
477 320 -238 46 442 0
208 -48 923 -322 -670 0
-312 -853 269 737 739 0
129 223 988 740 -676 0
489 -944 30 661 -51 0
117 -727 -990 512 973 0
355 359 405 881 -916 0
-263 181 -979 881 431 0
172 -415 -962 454 294 0
18 14 -615 541 465 0
-397 -935 -215 268 548 0
-476 492 -764 467 -497 0
681 -984 -454 274 -986 0
220 -424 494 -317 916 0
210 465 -121 -367 87 0
986 -156 608 -254 977 0
903 22 564 -90 -579 0
772 312 592 715 -556 0
-707 -327 73 723 -955 0
-486 -605 -831 21 -925 0
-843 -653 -535 177 397 0
-839 757 -683 -502 -198 0
-916 22 219 87 -989 0
-314 867 580 652 -280 0
955 -421 -226 205 -51 0
748 -109 145 -294 -364 0
-977 -607 727 42 -952 0
203 39 87 667 918 0
850 355 -605 431 -440 0
910 -201 417 844 268 0
-887 -556 -846 783 111 0
-103 -803 -44 487 -704 0
670 -540 679 -267 -268 0
388 -451 -311 692 -379 0
215 687 -608 -144 149 0
-151 144 327 -475 415 0
-508 -9 -467 -122 995 0
-549 -609 -634 -53 -949 0
-48 -278 943 -57 864 0
-934 -623 313 -269 576 0
94 326 235 798 -640 0
-431 809 145 -884 852 0
635 -95 -84 -79 878 0
325 -983 -549 242 -627 0
-50 -113 189 518 -780 0
-797 586 819 10 -610 0
931 -158 419 982 -450 0
532 -484 -716 -67 605 0
-259 24 -334 312 -842 0
128 13 170 191 384 0
-427 474 489 -779 -746 0
19 444 986 803 571 0
314 23 -659 -721 429 0
-364 -997 429 -456 955 0
-686 -567 -835 12 -157 0
636 -413 -899 417 -410 0
366 372 104 -756 409 0
975 317 275 -469 104 0
-17 -921 -705 886 -616 0
-696 -624 -749 -930 -893 0
-876 201 259 -265 583 0
-566 -696 -91 -221 -726 0
53 740 187 773 -944 0
905 -116 -271 122 -831 0
335 661 389 86 -536 0
-864 -62 -968 -962 -30 0
78 -435 -135 -553 -785 0
374 235 -8 124 -291 0
892 399 -371 -121 -479 0
20 876 972 23 262 0
-147 -867 640 -621 -365 0
-272 -849 602 -313 -271 0
-40 492 -241 -997 499 0
24 860 3 461 277 0
159 -611 -500 513 -95 0
683 738 562 518 -758 0
924 270 -163 -635 -593 0
-965 -266 -778 -768 937 0
-501 -940 -987 438 -636 0
158 436 -31 -310 783 0
727 175 589 -679 260 0
516 780 229 -82 748 0
-578 -383 -309 -468 -513 0
-818 398 -127 269 -618 0
-118 792 -329 -977 -460 0
-351 571 -343 -44 283 0
-240 394 760 -289 441 0
709 797 -397 -719 776 0
783 159 -503 -42 -445 0
-898 937 -660 -965 327 0
-205 -578 -958 285 -739 0
507 628 -521 -765 -818 0
266 707 -651 -236 991 0
295 440 672 48 786 0
-391 804 61 852 -572 0
-895 884 767 506 -385 0
607 -956 851 -623 -322 0
-300 -277 -403 -33 -481 0
504 -991 249 -225 611 0
-467 -336 746 958 446 0
-193 -495 210 -949 -867 0
-77 701 -506 950 -979 0
-480 922 285 507 -963 0
714 -804 450 485 -60 0
-647 -482 -8 77 906 0
481 126 -650 280 -486 0
-504 736 185 -229 -657 0
718 492 414 -805 -161 0
528 935 -275 598 -929 0
237 46 -996 804 -387 0
159 -202 392 -58 577 0
917 556 899 -187 175 0
-169 -526 849 74 950 0
-933 -997 580 444 677 0
871 -45 -297 -234 -636 0
904 953 -777 -936 -952 0
281 -167 -921 -883 -140 0
-967 -663 294 376 726 0
120 348 -280 -585 131 0
-868 -17 261 -881 516 0
597 -610 -748 511 751 0
-683 273 326 711 449 0
-418 -2 19 -598 127 0
-783 314 70 -630 -761 0
398 153 939 900 -930 0
424 52 969 262 804 0
350 299 959 134 336 0
-970 832 67 -322 724 0
-448 -4 -219 177 -514 0
-738 -719 240 -912 773 0
-837 -42 -65 -101 -563 0
-80 976 -938 74 705 0
-845 -214 433 -547 -608 0
542 638 118 918 -106 0
-218 -828 -236 -866 -582 0
-719 -492 926 -227 -522 0
887 -312 755 -181 -45 0
256 50 315 -272 979 0
928 707 573 -477 -968 0
-657 -460 -387 -209 414 0
-576 552 -375 -62 -480 0
915 -781 -214 390 -996 0
529 454 976 -435 -99 0
-373 648 -657 -673 -709 0
769 -569 -957 857 -143 0
-70 -1 -531 237 -892 0
-581 468 763 -290 388 0
-983 -141 -635 -765 384 0
-308 -632 327 -245 984 0
-485 -438 -661 361 376 0
805 859 373 304 -869 0
-630 -863 -95 326 408 0
183 467 102 -652 -382 0
-78 701 -843 618 -657 0
-807 -341 -658 -224 -472 0
751 -413 239 -142 -572 0
-123 911 461 -16 -800 0
-716 -893 360 -590 -217 0
448 -227 301 -290 -990 0
-542 381 -484 646 -500 0
-522 908 -489 -37 -482 0
63 -942 624 -308 490 0
487 726 479 -99 472 0
-135 -712 122 168 830 0
-976 731 -30 604 -319 0
-504 -926 165 -476 383 0
-861 96 -545 426 840 0
-740 597 958 -813 -483 0
-211 -667 -326 -741 -356 0
-476 -547 630 -805 -963 0
383 -883 950 -186 -295 0
-781 -753 712 163 -616 0
-338 -576 -105 5 -22 0
683 -504 12 -251 766 0
848 794 166 -658 -286 0
-905 769 -181 211 2 0
33 184 -481 998 195 0
540 -8 -375 -47 288 0
-433 -55 128 900 401 0
554 54 282 679 5 0
-406 -67 583 240 -648 0
769 -382 -622 511 775 0
395 594 -684 -743 639 0
407 -570 -121 601 733 0
807 798 353 98 937 0
488 -685 -52 32 -665 0
990 -867 -284 -683 94 0
271 -399 207 -719 138 0
-422 527 -918 323 182 0
410 182 -579 -624 228 0
-371 731 -501 -165 235 0
539 587 841 -735 -510 0
-710 -75 -568 -78 -220 0
-340 679 -446 -44 -738 0
-220 617 873 443 -472 0
269 803 792 -93 -645 0
940 -978 -542 482 50 0
-817 46 374 922 745 0
-699 -581 260 571 -376 0
-827 294 -68 801 -323 0
-997 683 -509 746 974 0
530 666 -217 290 380 0
513 -755 -212 189 -775 0
942 -135 352 -316 262 0
-62 -455 -375 826 917 0
950 -240 -647 780 -613 0
201 567 -966 918 -319 0
-740 915 181 -896 -125 0
-665 -188 477 -623 667 0
263 67 437 287 942 0
-331 272 688 -9 -33 0
-871 212 761 753 -654 0
-51 774 -164 -888 -584 0
114 -589 -932 770 420 0
-283 -263 862 791 -78 0
621 -855 164 4 893 0
979 -152 -86 -54 423 0
327 -140 -492 513 -68 0
-663 -886 736 866 -56 0
90 273 285 672 -346 0
620 243 492 249 585 0
-904 -554 -919 478 292 0
904 -526 618 67 957 0
664 -269 -312 324 -376 0
-647 654 -487 462 108 0
694 680 231 -652 802 0
827 94 -891 -958 -344 0
-918 890 -887 511 -160 0
419 -72 389 -665 -191 0
911 510 -830 -426 -379 0
651 -50 797 -751 553 0
-157 -798 55 -260 -895 0
-225 -618 649 -324 28 0
-658 -782 -513 -720 -249 0
588 489 -214 408 904 0
896 -576 -483 118 -546 0
388 593 -542 -118 -681 0
-507 -643 -745 -165 253 0
14 16 -354 -499 -869 0
-483 -514 494 180 -989 0
348 -798 729 -377 564 0
623 413 -975 465 -57 0
-519 -388 668 828 101 0
350 510 -60 851 -941 0
428 -911 195 -516 427 0
633 614 -978 -994 -579 0
342 -694 359 -18 -373 0
230 170 -762 283 208 0
-357 716 -281 800 707 0
-514 -499 -624 526 -101 0
735 -781 471 -609 796 0
-708 474 540 -539 -407 0
-731 -582 -24 -430 -579 0
-11 965 29 441 381 0
-159 -908 409 -523 -602 0
758 642 595 928 3 0
-26 56 -957 85 -257 0
-701 346 -169 616 -658 0
343 -74 -646 -498 172 0
-149 91 -740 -787 551 0
-355 -230 -302 612 -896 0
333 -553 160 56 -164 0
533 992 -237 -275 -188 0
735 183 711 -539 -310 0
-389 718 -431 -233 -533 0
734 301 -393 915 583 0
682 50 -91 1 115 0
547 725 316 986 -950 0
-850 -767 742 966 -783 0
-759 94 303 -626 -856 0
186 440 -666 -494 786 0
33 -935 951 -422 -217 0
-728 -825 373 437 211 0
993 -245 -288 246 805 0
-202 229 234 -5 -713 0
27 -572 872 -710 -430 0
514 -656 -100 745 9 0
514 -583 164 -386 442 0
709 299 -534 634 74 0
-255 -299 447 379 -811 0
565 120 617 169 -275 0
-55 659 -103 784 656 0
-518 228 -699 52 -780 0
-176 618 630 -941 -161 0
-54 -716 591 124 -813 0
-924 821 674 -275 -543 0
-120 -452 -409 -557 725 0
-995 19 -391 803 622 0
875 -966 480 476 -437 0
481 76 123 411 -906 0
574 -262 267 -820 604 0
382 -614 546 -606 -881 0
946 -434 343 -943 784 0
-527 -123 -182 -643 -184 0
499 337 -632 -768 920 0
599 906 895 671 171 0
64 461 784 355 151 0
-67 -361 -894 -162 73 0
341 172 -214 -471 -965 0
-643 867 -756 -233 -487 0
-886 -760 -9 -254 -241 0
237 -663 -761 -63 90 0
20 -479 962 -623 59 0
863 828 67 410 -54 0
-953 797 -460 -390 -125 0
934 -306 -283 48 -713 0
-667 353 -93 -745 447 0
511 -138 -172 -556 -371 0
-155 926 977 -588 525 0
-598 602 323 -412 19 0
-27 -515 445 -184 750 0
-950 -422 590 -795 -190 0
414 372 -421 584 279 0
-715 705 -952 -340 -312 0
747 -176 624 -949 -985 0
-208 891 -494 -372 278 0
-809 940 -516 181 -434 0
-204 -985 386 -210 610 0
-230 527 891 8 -348 0
-609 -993 961 862 431 0
295 -539 818 -43 -541 0
63 -618 991 -313 -751 0
-251 145 -22 666 140 0
-201 673 -860 173 994 0
-952 278 -514 -688 -590 0
-402 568 -897 -913 -849 0
451 -895 -568 697 331 0
-753 -73 661 -659 131 0
-177 518 -783 -311 398 0
-570 755 -397 -937 -513 0
-28 -87 -550 497 -712 0
-236 739 -951 443 958 0
-989 -644 964 -446 -308 0
678 -442 638 631 -792 0
797 -869 649 165 -759 0
-184 51 -731 947 921 0
-236 -836 -341 -571 900 0
-782 636 62 95 -713 0
-519 -755 133 -454 -429 0
89 735 -852 -6 -598 0
181 66 -724 29 568 0
536 -211 -436 -866 -37 0
380 -464 564 -679 932 0
448 -799 -253 -113 -798 0
-760 40 143 872 24 0
294 -545 759 -251 -75 0
574 -57 -709 448 -662 0
-707 84 -601 894 -280 0
-755 -859 501 -616 158 0
-125 -118 930 199 -157 0
-170 -180 -222 242 970 0
-308 -887 -131 336 715 0
289 20 861 -131 745 0
-557 -339 930 -452 900 0
-752 -34 -746 459 -297 0
609 764 867 739 113 0
-763 -249 -640 -441 -438 0
890 427 288 -634 871 0
900 627 -798 611 832 0
735 -829 789 -572 899 0
871 256 281 265 -823 0
814 -728 796 -631 -297 0
-167 229 359 -538 -715 0
948 -640 -145 737 547 0
-507 -395 -462 944 360 0
684 590 -414 867 -782 0
162 400 102 458 -62 0
-354 299 506 -402 11 0
-56 90 -179 485 -765 0
-651 393 -890 -47 -685 0
529 549 142 532 -952 0
590 -382 -442 -115 -60 0
619 -169 -83 1000 121 0
-842 -53 -484 -761 804 0
-281 857 -330 344 -509 0
-573 -783 385 -872 188 0
412 774 -170 298 754 0
796 -784 153 -957 -215 0
-865 -858 911 -933 111 0
-244 -1000 189 131 -558 0
784 724 -183 699 138 0
-751 463 704 798 -775 0
-98 -516 365 -521 278 0
-149 -941 718 975 -384 0
-702 -125 -603 -671 -67 0
509 6 744 467 -893 0
984 -281 -849 621 578 0
624 558 -927 446 270 0
-427 -154 -930 -948 463 0
919 707 399 -596 -783 0
-305 -423 -125 595 677 0
146 612 642 538 497 0
764 165 -238 658 428 0
701 404 -543 -272 -712 0
-585 -339 -384 24 267 0
613 -181 705 -676 -931 0
-309 950 -277 898 832 0
4 -525 238 514 -582 0
-942 71 55 -101 -579 0
-631 -996 -864 758 -895 0
866 271 -887 -359 761 0
521 258 455 110 -974 0
820 -531 412 -255 295 0
-767 899 815 -832 -352 0
2 307 369 -471 -385 0
388 717 368 510 416 0
455 -982 -462 960 -127 0
44 -918 773 880 -12 0
98 760 49 609 -773 0
-170 309 249 -347 -932 0
-769 -917 -603 708 205 0
490 -295 -58 391 -382 0
-177 648 -290 -660 -531 0
-411 -47 -252 -98 924 0
109 -575 741 832 584 0
-132 -447 145 523 -449 0
308 -840 61 339 473 0
854 866 732 661 -447 0
857 790 -860 100 99 0
313 62 -282 370 942 0
245 -681 -305 713 838 0
-435 15 90 365 -431 0
-975 282 444 -474 858 0
-729 -93 996 84 490 0
346 270 262 495 380 0
341 119 982 -106 288 0
159 765 -682 -729 -632 0
-30 -485 35 754 16 0
34 766 298 11 -931 0
607 -731 692 416 -459 0
211 380 -985 419 -178 0
683 -761 -509 735 862 0
345 754 805 -497 244 0
737 234 151 -671 -80 0
-631 -27 -832 274 761 0
412 -302 -85 -922 522 0
-830 45 427 -552 832 0
57 715 453 -684 373 0
-495 -500 -428 -554 -144 0
-23 -427 706 327 504 0
-742 190 -625 572 -365 0
686 -614 -538 141 822 0
-6 -96 235 844 216 0
993 769 860 338 -440 0
412 20 -261 475 284 0
-688 -546 -921 -117 511 0
756 -835 -269 356 -995 0
-139 -639 36 468 558 0
-549 -908 -552 -10 -282 0
-27 603 -364 -937 -287 0
-896 31 -522 277 821 0
-952 -754 606 596 -479 0
-999 -280 -430 -322 -80 0
512 -822 -143 -499 528 0
704 284 -168 259 -356 0
-152 -574 -211 -801 -818 0
199 -735 953 277 -129 0
74 -956 -492 -351 247 0
-135 -927 -110 -184 792 0
-723 -537 734 -994 -133 0
361 276 -213 425 611 0
-14 936 -630 -374 -808 0
-343 530 100 314 -941 0
-559 382 60 90 182 0
599 244 621 -300 162 0
520 -808 -479 -390 578 0
-267 -510 278 358 131 0
-867 -681 -401 -767 316 0
29 678 565 969 534 0
-394 -827 -991 -865 -944 0
-772 -467 712 637 -512 0
-826 -945 815 -659 190 0
398 -203 -373 139 948 0
-503 -133 715 134 272 0
37 -122 518 -799 320 0
784 50 -945 559 238 0
-111 828 756 362 598 0
433 577 418 438 -526 0
506 -62 533 -421 29 0
-558 -139 479 577 -711 0
259 -810 992 -993 108 0
-244 -106 668 -573 274 0
-691 -506 -222 -907 -83 0
629 456 226 -220 724 0
-441 -292 -499 755 449 0
-610 -869 -447 967 -939 0
-503 162 -197 -591 386 0
304 -865 -415 -289 -20 0
435 -751 -120 -770 -745 0
467 840 151 926 -334 0
-163 -275 -864 -707 685 0
872 -24 666 -897 653 0
-817 998 -1000 -482 304 0
-336 -994 206 -410 461 0
689 428 754 948 -450 0
540 -743 713 -655 -860 0
476 -271 -678 273 550 0
-612 -344 -15 -101 -208 0
-345 -635 -309 -318 -286 0
139 -77 -708 168 -776 0
-509 -176 -45 -369 767 0
294 -682 340 -519 93 0
402 -7 -473 482 570 0
-134 -956 65 854 -79 0
-464 605 769 463 598 0
803 688 915 -978 -476 0
584 319 -273 492 190 0
839 -324 801 -856 763 0
-488 513 -355 247 -4 0
477 -731 -881 -968 -687 0
741 -277 97 661 259 0
265 399 -388 282 397 0
-856 256 -399 -469 562 0
87 -394 -4 -64 -770 0
493 461 227 918 -752 0
316 -810 323 180 -893 0
425 393 955 9 622 0
-223 -445 314 -262 -493 0
475 -595 -264 11 -372 0
472 -826 158 -902 -90 0
-489 539 654 996 -157 0
821 653 875 365 320 0
-725 470 -614 244 430 0
-175 -158 -729 28 -951 0
842 431 269 578 810 0
-39 45 727 119 -384 0
606 -153 -845 -285 64 0
555 510 -733 -802 -986 0
-640 -131 -298 -791 399 0
-849 -550 -409 342 -897 0
500 -452 -676 -449 -160 0
-581 784 -441 -467 739 0
-948 163 435 -7 573 0
225 -266 -218 576 40 0
-46 197 -564 -839 306 0
-314 293 -722 -181 -855 0
-784 700 -921 -173 985 0
954 -176 -367 164 -601 0
-945 847 322 390 37 0
-172 361 362 150 278 0
962 -100 665 -21 299 0
-556 -187 227 526 342 0
551 -806 -863 -689 -761 0
-235 558 -436 -827 783 0
978 -942 683 -531 -620 0
-465 166 745 -318 275 0
409 117 317 -391 -504 0
-762 -855 -902 340 95 0
701 300 -895 -256 117 0
867 648 -78 -117 775 0
737 926 37 -585 211 0
986 -634 -917 -483 45 0
526 934 359 122 -110 0
-941 -251 869 -360 -371 0
721 -464 -219 650 -938 0
585 228 -955 708 540 0
-928 67 -275 -416 162 0
-386 657 -744 822 544 0
472 550 -653 -590 -745 0
-702 -308 979 -161 -28 0
-256 897 971 852 -623 0
-351 155 -409 -749 -479 0
278 995 39 168 911 0
9 58 -724 400 381 0
554 403 -992 -803 807 0
-953 285 822 599 -231 0
-460 123 -781 -29 926 0
-136 -811 983 -870 236 0
175 -374 -946 489 441 0
175 -698 369 -919 -380 0
-928 -673 -601 214 502 0
559 246 -905 -876 752 0
-870 -956 -932 -900 -367 0
-669 216 556 865 798 0
-276 -165 -575 -111 64 0
627 -676 671 -603 -500 0
-902 -743 -684 596 -527 0
823 -126 60 -963 -139 0
589 457 -328 447 -551 0
-838 -674 682 -736 -166 0
996 -307 -201 -451 -945 0
-238 14 -300 -877 316 0
-49 837 332 800 -418 0
-966 589 398 -518 272 0
-361 133 -676 -163 132 0
247 -545 664 -382 -546 0
-85 147 -969 67 691 0
-493 -405 122 936 -292 0
295 162 878 -787 -395 0
-82 933 -170 -737 498 0
675 -647 629 -265 -943 0
-486 -354 -415 292 -571 0
195 -35 -872 -169 164 0
-626 325 -23 -954 -599 0
872 -123 926 220 -364 0
-259 -20 -319 305 -754 0
-520 251 -601 629 -902 0
278 -108 -253 227 -105 0
97 891 955 536 -735 0
572 375 460 -769 -459 0
-920 -805 -274 -545 849 0
-259 255 -656 229 -317 0
-439 -338 -254 574 712 0
675 633 718 706 -401 0
409 -995 870 851 420 0
-271 379 -427 -150 536 0
183 24 341 613 -209 0
-874 362 -221 597 -267 0
-91 436 614 -788 7 0
-797 -900 658 773 782 0
514 -243 -400 434 179 0
493 -225 88 242 -685 0
-931 -337 739 623 -405 0
931 -780 -770 135 -662 0
693 646 -235 91 499 0
79 -315 106 -29 -921 0
954 1000 -54 370 -792 0
273 442 -306 915 -321 0
496 151 466 965 -756 0
-996 679 37 -216 -250 0
-667 -116 -220 -629 -820 0
-410 169 428 -421 -196 0
18 -97 275 64 469 0
731 -586 37 847 -854 0
427 -38 485 175 320 0
-772 -743 314 479 -248 0
996 147 -491 962 23 0
333 -524 412 129 -688 0
219 -395 186 -937 -140 0
-637 54 -175 730 459 0
800 -964 -988 80 979 0
693 -578 939 60 -698 0
185 -368 598 4 312 0
-584 -890 586 -320 926 0
-699 -791 862 24 183 0
-682 -742 -821 -751 -85 0
-978 -52 -723 -839 502 0
397 560 -640 988 -376 0
-645 528 -792 -183 -949 0
-319 858 218 -175 -945 0
187 207 884 -778 835 0
-794 110 441 998 -445 0
629 -169 -342 -360 -655 0
-846 -328 290 597 260 0
615 -740 547 704 -295 0
556 -589 -112 515 592 0
-25 994 -707 958 -754 0
175 675 383 -428 890 0
-765 -816 975 670 896 0
-817 -230 -139 -495 568 0
-107 875 930 36 -283 0
-895 -384 -316 -238 608 0
-103 -755 -481 -934 -496 0
-37 -475 -370 248 -419 0
-744 870 -424 11 -272 0
-789 -722 -237 124 -645 0
332 571 -155 508 -588 0
-950 982 352 587 374 0
-90 679 -861 -200 -454 0
-703 307 -164 509 433 0
368 -209 482 337 -823 0
805 441 407 444 484 0
577 985 -852 -357 645 0
-383 -667 824 -861 -577 0
-804 -884 -513 -32 -900 0
440 554 921 -288 -612 0
-418 181 437 -397 786 0
695 -603 412 -126 -200 0
505 796 966 -94 -396 0
701 703 -512 547 -697 0
-977 961 -81 316 -113 0
-986 322 -115 413 553 0
-413 -794 776 718 805 0
752 791 -76 689 628 0
-621 156 -866 -590 -411 0
-213 -703 -47 123 -581 0
-857 833 572 -394 419 0
-166 814 298 829 194 0
-79 444 709 522 -672 0
-201 574 974 -258 -723 0
-588 -650 181 -908 711 0
-519 -464 751 561 632 0
309 -702 208 570 53 0
144 31 -673 -59 282 0
-192 -66 -155 -198 -481 0
-426 -780 -902 -84 501 0
66 -267 360 -411 -831 0
-168 361 667 285 -415 0
549 -738 -149 411 -457 0
386 797 457 -942 -504 0
-552 933 -439 539 36 0
-987 -973 346 -63 47 0
-511 29 326 632 71 0
-365 569 -337 -308 175 0
-759 722 -302 -821 -649 0
-658 881 117 -207 -177 0
-436 -579 -301 -815 919 0
273 -482 522 -987 445 0
113 728 -49 -818 730 0
-510 233 -64 564 -410 0
-178 269 110 -264 584 0
-924 -266 -892 -248 694 0
513 -814 -732 -577 478 0
-766 35 307 46 67 0
121 439 -715 404 -103 0
-18 201 705 -824 -231 0
724 -32 -21 690 971 0
716 251 447 -757 -515 0
-939 -432 38 344 188 0
564 -180 285 -382 474 0
-632 743 268 903 -435 0
-870 643 -180 245 -28 0
585 630 -302 717 -139 0
-301 916 -747 -555 -24 0
-108 -187 -790 291 -35 0
-320 755 -615 760 538 0
752 -20 -573 -121 -595 0
737 -298 -306 218 -283 0
330 -38 886 29 -36 0
74 292 320 611 -934 0
847 549 -257 621 -734 0
-824 403 -465 -623 -539 0
693 -366 -984 -396 -877 0
-675 -238 222 -1 836 0
98 -608 -923 -529 847 0
838 178 466 685 -58 0
684 -88 -209 -998 -160 0
-564 -180 562 -179 339 0
-428 -806 540 165 -469 0
-259 -647 -491 500 -463 0
282 -588 349 912 -782 0
-650 -845 -517 -54 -982 0
-37 -528 502 673 114 0
232 -267 -583 124 607 0
-506 -637 -897 746 488 0
507 90 832 127 -753 0
62 210 920 743 -827 0
-875 -650 270 910 510 0
-865 -459 -602 -748 861 0
965 -601 -469 97 -624 0
-672 -880 -552 23 885 0
-155 892 764 -108 557 0
922 -833 -544 892 -456 0
-756 410 700 -532 584 0
-689 822 608 413 -890 0
625 193 617 -8 -481 0
-274 -985 -149 344 -381 0
-310 -32 251 818 364 0
-227 -406 -501 -428 10 0
-910 278 595 294 -990 0
-757 932 -712 -10 390 0
-411 690 -480 87 33 0
33 -216 32 -471 62 0
17 -727 767 904 703 0
-849 752 -671 20 139 0
703 477 -607 -924 667 0
-65 -740 -568 -470 75 0
671 675 136 208 884 0
-24 -640 -434 -379 20 0
853 -235 508 180 -734 0
-23 693 136 -877 -160 0
-540 988 -22 -536 963 0
185 -549 52 997 515 0
-201 825 420 -303 855 0
924 -426 157 -863 -410 0
-913 483 948 45 -661 0
474 820 -494 -692 89 0
-781 947 550 653 397 0
2 -182 100 948 -668 0
-28 -213 745 940 855 0
-226 669 -233 317 590 0
-210 226 609 352 460 0
706 -212 -943 -937 -46 0
786 -263 -468 -99 369 0
142 -719 618 -506 -652 0
789 -286 -766 -128 922 0
82 346 622 -139 280 0
26 771 -188 -726 -847 0
274 -531 -434 107 -865 0
937 594 201 -380 -705 0
-22 -360 284 -566 241 0
-586 -605 414 108 171 0
-726 -532 -601 101 36 0
894 -774 964 618 -246 0
412 733 -477 -577 20 0
-408 519 -757 -28 180 0
-483 -237 -129 -549 807 0
-788 -923 737 -189 978 0
807 202 -521 25 -30 0
-681 50 179 -435 -589 0
-978 -75 -259 41 -530 0
-217 -292 494 -712 605 0
-645 -253 11 322 -601 0
-277 536 -636 -455 229 0
-452 313 275 873 52 0
-709 495 -672 -763 41 0
-845 614 523 843 -680 0
-444 163 821 338 478 0
925 -168 -211 -405 -45 0
355 -340 -628 -989 728 0
992 -22 47 39 629 0
732 -961 207 -721 706 0
-27 650 73 512 160 0
-179 576 977 278 -115 0
730 -40 186 -499 -12 0
-388 -775 -490 784 -672 0
-684 -461 -179 -708 -109 0
-533 364 -672 140 892 0
832 -248 -38 755 986 0
-475 592 600 511 -622 0
-751 171 302 410 313 0
730 7 871 -783 -359 0
-166 -672 -144 603 723 0
-669 -659 -802 -936 486 0
831 -164 -208 158 -564 0
37 134 -25 644 -425 0
676 -512 219 764 -280 0
75 500 -641 -233 -11 0
-525 -905 739 372 268 0
-11 -814 319 544 826 0
-353 -984 -122 311 -234 0
323 844 781 -245 -87 0
-50 538 -516 830 733 0
389 480 696 -821 290 0
280 -551 -452 -147 343 0
-123 -911 -892 -837 -871 0
-675 959 -717 817 -371 0
-101 854 -638 -488 -124 0
158 761 -555 -855 380 0
-577 -999 -141 632 956 0
-207 855 181 -881 -994 0
-70 634 613 778 537 0
843 719 -803 -464 4 0
354 591 -256 668 15 0
845 -833 832 543 841 0
-134 -18 466 8 -538 0
-91 -813 -557 71 -56 0
-446 -425 50 -956 -590 0
-463 261 -588 -202 169 0
484 -544 -735 -640 -815 0
-74 -973 40 782 -151 0
-389 -728 -88 420 -612 0
-125 836 111 441 760 0
-907 -895 247 -53 987 0
-680 312 -131 516 -615 0
431 -666 -423 -173 -17 0
459 -188 -131 365 -629 0
-318 116 -537 857 -230 0
-508 -986 467 29 -34 0
-740 118 -680 -356 708 0
697 -197 461 -18 -572 0
-418 -940 25 -330 539 0
148 94 -944 -571 509 0
992 -167 22 -866 625 0
-718 66 380 -741 -558 0
-591 -227 -825 -434 -540 0
972 -355 185 -330 -135 0
-381 557 -692 399 -108 0
690 -30 -417 286 -279 0
-761 -490 486 -711 -969 0
207 231 -944 -494 -985 0
250 140 559 -560 820 0
441 705 602 -169 614 0
-602 -197 -132 695 264 0
677 418 -353 761 151 0
984 -504 989 540 -489 0
208 901 962 -19 -255 0
471 383 964 -519 -290 0
182 -415 491 -885 -520 0
-490 -781 -73 -534 -762 0
988 399 -353 871 -360 0
-322 -927 327 -888 -588 0
343 406 -437 974 -659 0
998 -794 650 115 404 0
-26 167 632 -952 245 0
152 -126 -306 -509 317 0
-764 513 872 867 -490 0
-506 145 341 492 785 0
-294 -772 286 950 474 0
951 893 877 296 622 0
88 -413 414 -245 658 0
37 280 120 -742 726 0
868 -832 -716 334 812 0
786 -78 266 -185 -943 0
466 346 463 -352 687 0
-13 -960 274 360 -792 0
-333 169 -352 -357 -387 0
670 400 86 146 -958 0
-434 -755 -633 233 300 0
642 -316 -411 -129 -848 0
-512 148 -525 458 -568 0
517 464 -171 449 478 0
-548 662 -686 812 890 0
-823 -861 -417 204 963 0
-538 644 -930 -13 628 0
-350 481 -426 319 890 0
286 -873 -93 -753 885 0
982 -374 441 -196 81 0
-117 -521 832 -25 478 0
679 -274 764 822 -258 0
894 11 -805 -540 5 0
-185 -260 844 315 518 0
-800 592 419 155 -674 0
207 -773 -786 -508 505 0
-911 -267 522 -358 91 0
377 -625 172 723 -613 0
441 779 334 -268 383 0
-223 -59 -134 -195 -28 0
996 -395 -766 -815 572 0
-336 211 478 270 83 0
-358 -498 778 -314 379 0
285 595 -882 873 -814 0
-909 -688 728 950 596 0
-100 917 -92 477 -519 0
-530 -472 -951 -659 917 0
-862 536 -897 -991 434 0
257 109 214 -593 -241 0
851 -624 -583 86 145 0
-993 626 -248 -144 -422 0
-671 -389 716 892 -640 0
-623 -106 155 178 412 0
28 -476 583 -180 98 0
-972 -554 -550 -743 754 0
-590 627 701 -737 -242 0
-173 38 -357 -743 75 0
539 -266 234 6 -626 0
819 316 904 939 -843 0
332 905 374 842 -583 0
-661 725 -288 -931 186 0
578 -695 944 63 -416 0
742 -161 -691 -859 198 0
-150 -980 -127 -265 -747 0
86 -935 342 -217 467 0
348 -209 -807 -309 -798 0
-856 333 875 -870 236 0
-428 -784 -608 732 -577 0
-728 -378 -349 -597 -447 0
-630 -128 17 65 524 0
253 -569 -681 -165 585 0
-152 -255 -516 -160 573 0
-349 -414 -256 -454 495 0
-351 22 447 -682 177 0
-242 -942 332 -475 -128 0
457 712 664 -740 -186 0
-694 -853 578 -650 -649 0
238 -971 -700 993 108 0
504 -559 135 -841 -656 0
-439 361 -781 687 -332 0
903 -164 -90 -943 914 0
-335 731 908 -895 -194 0
-140 676 -451 726 124 0
-54 270 882 902 -379 0
863 -696 873 892 372 0
-847 -427 436 -282 -499 0
-251 988 354 516 997 0
876 550 -166 -54 62 0
-385 -305 -766 -370 -208 0
-890 418 -850 39 112 0
-725 52 569 -787 -573 0
-87 -902 65 342 829 0
246 -447 -248 -387 471 0
811 -385 694 -440 -310 0
-417 536 -181 934 -342 0
700 -380 -720 385 -494 0
633 -942 -1000 522 629 0
551 -65 -956 332 -96 0
-744 -892 203 497 409 0
-249 36 -580 378 673 0
-569 -553 -599 -843 441 0
-82 -795 513 837 230 0
-205 -494 -915 823 802 0
28 635 93 859 580 0
-23 -855 -966 -713 -392 0
-207 127 -310 -177 -35 0
950 -844 -673 459 694 0
608 -734 -144 562 817 0
-108 -31 -183 -249 33 0
746 893 -979 -118 843 0
632 -982 740 889 945 0
321 -408 883 -274 782 0
-427 -477 -778 -13 562 0
-844 774 -481 -897 222 0
-565 -287 568 675 926 0
458 837 632 649 -618 0
-566 -883 187 307 -838 0
211 -784 880 -620 44 0
-461 -251 -709 16 406 0
-251 -195 191 -202 -74 0
-380 -361 -459 -563 -745 0
126 -757 -282 134 327 0
866 -93 840 -637 80 0
100 440 -740 778 -460 0
-806 137 994 796 496 0
739 267 -774 434 -263 0
-863 -693 305 54 -245 0
7 -570 -908 705 -613 0
363 728 -988 229 329 0
836 895 899 -547 -426 0
839 -28 -657 -81 435 0
560 367 195 582 -730 0
-889 -461 863 -622 -746 0
-211 -857 207 393 354 0
-347 767 822 314 -55 0
715 -202 382 -386 -559 0
97 863 -227 -789 -630 0
-735 342 910 -535 -377 0
-956 790 305 159 317 0
623 112 464 336 808 0
-18 -986 244 186 766 0
-310 440 -391 812 67 0
741 350 -34 -243 635 0
-441 7 -626 124 197 0
-722 -402 -388 288 687 0
-335 237 356 -240 -741 0
237 202 -378 944 896 0
26 209 166 812 822 0
183 850 -622 -375 -500 0
670 -525 -945 139 -892 0
307 -304 721 -302 463 0
268 -84 592 -594 -816 0
-143 550 866 381 -794 0
-767 -824 802 849 813 0
-216 941 796 31 614 0
-907 724 322 -154 936 0
789 -504 -319 -30 568 0
99 352 -992 837 713 0
845 -178 -981 -445 92 0
185 -623 877 -636 715 0
-131 -869 545 439 -155 0
742 -980 477 873 -768 0
-299 -827 -485 63 -710 0
198 401 26 -167 -331 0
973 473 324 -131 934 0
470 -918 -227 -369 800 0
-293 754 -819 356 641 0
222 -474 -190 20 -266 0
-799 170 -945 -307 730 0
-454 -83 11 905 38 0
-120 112 832 232 -882 0
-548 -566 -391 -282 377 0
-859 437 -84 -211 -174 0
-196 742 -130 -652 -761 0
-147 -809 852 702 -382 0
938 948 93 -892 -223 0
-501 -550 -215 653 -133 0
-480 850 -115 649 -764 0
559 135 524 -493 317 0
-473 -35 66 917 993 0
632 -175 -940 264 885 0
-93 -951 -696 107 20 0
-238 -956 477 552 -795 0
76 841 99 -247 -60 0
-453 -820 -215 533 879 0
-709 272 -918 -417 -56 0
115 -153 114 -973 -237 0
883 504 -23 -962 -823 0
215 -879 -731 19 6 0
-61 -952 -270 280 644 0
-720 901 364 -57 769 0
903 330 -475 -68 -375 0
-770 130 837 -660 902 0
520 -7 365 -586 684 0
-667 -30 -771 -976 229 0
-629 105 -204 -987 -79 0
-867 401 -438 -919 -514 0
-177 -524 -606 609 447 0
404 109 -391 775 366 0
417 686 311 -918 598 0
-758 -390 269 -642 -509 0
-468 -473 -589 -356 521 0
686 740 23 949 486 0
563 -201 -462 853 968 0
-916 -134 -347 -608 573 0
-342 121 -505 -178 260 0
-922 -463 -561 -59 720 0
-845 -789 556 -451 -605 0
51 312 -169 481 290 0
-678 538 -683 -705 -218 0
-983 129 771 -455 145 0
833 -964 61 -106 329 0
-768 582 -955 -18 -372 0
-955 533 229 -526 -212 0
777 -391 78 -608 -114 0
-90 -385 985 -808 875 0
-616 156 804 417 -963 0
354 -434 128 177 662 0
-303 -161 -58 727 937 0
888 -458 454 -719 -93 0
-269 -858 710 522 -531 0
-869 -23 -208 98 -719 0
628 811 606 -515 664 0
-302 -574 118 -680 243 0
828 -691 -798 -585 777 0
-435 695 501 -471 576 0
-958 -842 634 544 819 0
-644 -826 -692 -782 180 0
-492 -756 130 -103 -845 0
-446 490 161 207 -186 0
410 -489 843 102 -251 0
-423 686 -418 -277 -753 0
168 -121 -380 -750 -392 0
-737 -757 595 754 -352 0
-396 764 -583 -249 827 0
-544 658 502 -844 848 0
-545 667 735 -492 -695 0
-625 433 -236 803 -72 0
-410 377 -487 579 -578 0
-555 345 927 271 894 0
135 35 -853 -84 117 0
941 -275 475 -776 27 0
316 509 137 -911 864 0
-970 984 -139 741 790 0
-678 410 663 158 -142 0
-791 903 940 215 133 0
978 -605 542 -838 -767 0
982 -631 -703 964 -343 0
-4 -861 739 184 335 0
564 -866 -304 813 234 0
-907 -14 990 -270 743 0
881 -57 712 -96 -868 0
-220 -767 -424 290 -571 0
949 -967 -651 -107 -159 0
176 510 942 478 -697 0
-327 393 516 -130 458 0
-867 -373 -286 212 995 0
-300 516 99 -953 -144 0
-638 -711 -509 466 107 0
-334 -818 65 -220 114 0
-749 6 -667 -967 -540 0
-585 -633 196 413 732 0
1 -812 970 -665 5 0
465 661 -680 -970 87 0
-170 594 -984 -582 -160 0
223 568 -903 -520 -641 0
-334 -676 639 721 -797 0
173 694 438 -879 575 0
-257 245 -752 609 616 0
-69 -816 202 220 -568 0
-671 -274 264 -932 968 0
-173 -923 -476 -401 -579 0
-646 877 -968 446 449 0
698 -244 904 -542 -490 0
-295 593 -619 858 -352 0
-17 707 683 -415 -684 0
-2 -232 885 877 13 0
-960 -500 -735 567 432 0
-49 -409 -202 -862 456 0
182 991 -438 -876 -469 0
809 936 600 -245 397 0
958 -919 -458 -535 317 0
-704 867 151 -430 302 0
-615 -384 -775 874 -676 0
167 -611 245 -457 -385 0
133 -418 -895 495 949 0
-686 20 -627 -383 638 0
-253 785 -964 -946 611 0
653 -447 -249 182 797 0
-454 378 505 -230 -34 0
940 -407 172 574 -136 0
928 288 93 -73 997 0
-671 914 -797 47 -844 0
802 741 -150 -962 326 0
519 738 -656 -654 789 0
89 -360 605 870 295 0
893 -784 211 -550 -600 0
911 889 704 -272 -334 0
-111 25 520 114 -588 0
-567 -963 -462 364 836 0
-999 820 934 -462 -492 0
-301 863 -506 -850 720 0
466 -443 -462 378 -200 0
400 -343 -403 -289 78 0
971 201 -307 -940 668 0
-700 -200 948 842 -927 0
-219 320 760 47 -421 0
-560 -51 -334 -477 509 0
-956 491 614 -821 -945 0
-201 -872 738 299 190 0
-191 1000 -54 -670 -910 0
661 183 676 -905 149 0
-797 612 397 -209 -913 0
504 -121 -612 91 -690 0
809 -159 133 806 -777 0
-994 361 378 664 -637 0
443 495 -124 -744 766 0
-655 -346 -622 -765 864 0
875 975 -916 308 -66 0
-754 446 -586 208 585 0
717 -525 -281 421 91 0
-770 282 446 7 -788 0
398 -717 -377 -39 -341 0
177 523 292 143 -513 0
802 -529 -94 -803 607 0
348 -945 442 -67 -486 0
774 -533 322 -626 -574 0
853 601 -969 -155 -299 0
-330 -7 -345 -4 -470 0
90 628 -428 -339 696 0
609 184 158 -45 -546 0
642 -795 -880 -579 -931 0
383 322 768 -12 135 0
935 538 493 -995 47 0
903 -267 -416 700 536 0
128 -923 -186 843 -748 0
295 -106 -432 -708 352 0
-230 155 802 239 -156 0
384 486 -149 -148 75 0
-73 516 554 -314 -347 0
233 -415 -985 -474 413 0
192 -46 803 673 -268 0
967 764 300 -616 -778 0
-636 505 103 805 -104 0
665 366 -208 -904 613 0
-453 -503 946 -660 100 0
31 -542 805 -26 834 0
-739 -576 -232 798 716 0
883 130 247 253 -450 0
188 -214 -323 -549 -115 0
-637 173 -643 -850 -199 0
282 -215 280 -607 -880 0
18 17 974 -610 -231 0
85 -48 582 -976 291 0
971 -386 319 -384 73 0
257 -153 -503 -264 -487 0
890 343 273 31 -898 0
-837 -641 597 522 919 0
770 472 -324 -194 -438 0
-118 -339 -980 333 492 0
-194 35 436 1000 -346 0
897 -170 -995 -407 720 0
454 -543 -286 199 -984 0
73 -371 294 -183 -397 0
942 -821 -884 907 -926 0
-528 3 595 -365 -383 0
493 255 -886 -599 -505 0
352 498 87 -324 606 0
-595 -662 821 2 -385 0
-880 334 -884 232 -456 0
394 -51 559 -159 466 0
-679 -918 -841 935 925 0
-249 -769 -137 26 -204 0
461 645 476 877 782 0
-34 -505 -724 468 358 0
-518 673 703 -813 398 0
888 767 -290 647 -249 0
-385 -406 -347 992 570 0
146 345 432 949 465 0
657 680 -184 -154 387 0
-444 956 -106 -88 266 0
948 -272 -397 25 57 0
584 391 603 -264 689 0
425 149 -997 96 -760 0
16 594 66 -712 -995 0
-903 -538 -931 -530 -723 0
-280 129 317 346 926 0
-376 371 -111 -269 832 0
-402 114 -819 -476 548 0
-812 -61 48 969 -78 0
398 811 348 969 -206 0
261 -563 -484 -139 -485 0
-427 -132 606 97 895 0
-135 -310 -299 -713 204 0
-258 -379 -38 344 413 0
842 -713 344 285 901 0
200 831 184 807 -916 0
25 488 307 622 -31 0
730 -125 717 -339 412 0
894 -324 -253 -871 392 0
837 -455 -170 -893 -730 0
514 -328 734 -672 522 0
190 61 147 -976 69 0
194 305 -411 980 -932 0
-266 -707 -748 968 -189 0
937 -170 -721 -772 406 0
-752 -281 -30 -272 -837 0
169 324 -230 926 824 0
-993 140 -469 -650 90 0
-316 155 -843 -230 -628 0
-408 308 517 395 69 0
-874 -723 216 246 -857 0
-282 913 -75 -167 272 0
471 -653 246 -218 -205 0
-713 660 -411 -158 886 0
-663 541 262 -326 -210 0
497 -217 906 -927 -908 0
-459 -843 168 553 -424 0
-919 -28 -252 -102 610 0
-571 502 484 547 222 0
936 310 436 -327 -488 0
759 48 -683 720 907 0
-934 461 -576 -968 -823 0
-142 654 47 886 -953 0
640 -294 -325 962 429 0
977 637 -39 483 619 0
-676 -207 -505 193 219 0
361 -370 -273 502 805 0
996 799 54 208 -823 0
552 95 -698 15 965 0
-251 156 -696 447 270 0
-982 -600 605 -474 868 0
829 -552 871 676 -912 0
-358 898 -707 -130 545 0
196 156 189 -406 -418 0
137 -881 -821 876 -220 0
125 817 -828 -345 489 0
281 -875 347 -331 256 0
207 173 -839 -866 313 0
-598 -568 -66 146 632 0
-141 294 -706 949 -866 0
764 -353 387 776 -941 0
913 104 -724 -963 -764 0
514 -723 -242 -315 -637 0
-810 -270 -945 -379 -236 0
266 -83 -360 -637 756 0
-583 -341 -457 366 216 0
945 864 -679 411 781 0
-168 622 -390 -415 -342 0
954 275 -891 -262 196 0
200 832 -103 -662 506 0
-690 206 -888 -618 -856 0
330 582 -635 -296 836 0
-440 332 981 -988 879 0
-599 995 -897 -187 -839 0
72 494 -161 135 350 0
-11 275 -653 -301 -624 0
-20 290 664 450 -847 0
-442 -959 -427 782 936 0
-452 37 80 681 -956 0
-162 -89 228 -617 -53 0
-199 -970 745 855 44 0
413 -497 -454 -571 -897 0
866 -746 87 648 -779 0
-935 -847 573 -88 -905 0
584 440 -552 -218 503 0
461 853 161 877 -430 0
-948 -993 872 999 30 0
714 527 864 731 -913 0
-385 -954 122 116 -656 0
-852 47 -808 679 -278 0
336 263 554 63 909 0
-507 982 34 -739 -955 0
423 -883 -816 725 76 0
-436 -674 169 -280 898 0
-640 22 313 -572 874 0
257 -602 -450 428 -192 0
680 -385 342 16 2 0
3 141 982 -122 -531 0
-631 682 -516 240 -972 0
-935 616 -290 -89 16 0
-519 -859 9 860 -189 0
567 17 551 -183 174 0
733 -843 -884 921 195 0
-222 -221 927 -796 -882 0
323 -705 670 566 925 0
-343 -185 189 431 -707 0
-651 -406 -932 -84 842 0
308 636 -953 -36 -848 0
221 539 463 88 157 0
855 -452 -496 -846 -568 0
-747 944 865 -858 -624 0
168 314 528 39 -735 0
-74 -617 -389 463 939 0
-919 -508 321 256 111 0
459 564 -993 245 -984 0
-422 -84 -688 493 308 0
-22 -545 645 366 782 0
-294 213 988 150 725 0
609 245 -293 956 -151 0
704 -957 515 87 597 0
632 465 -941 93 926 0
526 -501 -394 -164 594 0
-488 -280 -187 302 504 0
804 42 -819 610 82 0
582 643 -253 -654 127 0
-665 653 -413 486 -872 0
756 740 664 91 569 0
728 755 -89 203 -146 0
-481 -624 155 -257 -945 0
-157 -451 146 371 514 0
-839 874 957 279 -419 0
-701 337 -158 -104 -729 0
-905 -602 473 -86 -515 0
116 -20 808 964 835 0
314 -776 -925 -208 -124 0
915 -348 978 -191 109 0
-981 -304 45 -669 -980 0
-736 -2 465 -271 41 0
-833 -412 -469 -593 -549 0
72 -748 39 51 -62 0
-395 -698 142 517 -954 0
-423 -989 -815 -110 142 0
-77 696 -243 -948 -422 0
333 611 -158 136 -269 0
636 -511 62 662 -866 0
611 -376 -100 571 340 0
284 895 622 491 -949 0
294 -323 -361 -306 136 0
-513 945 -583 -267 -221 0
-342 -659 -990 -893 433 0
-477 -253 242 -787 600 0
237 813 821 529 -506 0
-500 828 917 -515 206 0
335 -251 633 537 544 0
449 607 496 -953 -779 0
-79 -613 -225 331 944 0
-814 -304 -928 535 730 0
-674 -39 927 993 -823 0
-397 -631 -478 -661 -667 0
-320 575 21 789 643 0
-881 435 509 985 -676 0
-183 -185 -60 558 673 0
-386 -187 95 -526 685 0
292 252 809 -103 -447 0
-734 -415 -603 142 333 0
673 839 150 47 622 0
-492 807 391 202 839 0
948 920 -50 -696 347 0
771 -158 -17 -50 -486 0
217 563 -386 174 -711 0
-547 -56 614 -488 121 0
475 -41 997 541 -544 0
-872 457 950 -907 684 0
-957 -389 -646 -326 187 0
40 998 883 -801 -58 0
195 -856 -567 -982 -10 0
178 -721 151 -821 -646 0
-69 981 -226 -254 -227 0
-23 -528 -652 707 -607 0
741 -307 211 -465 650 0
458 643 97 -115 -33 0
-440 -250 180 -655 -965 0
362 809 -995 -787 -73 0
130 -720 455 851 -734 0
-496 -996 -147 -766 -784 0
-551 652 389 934 -564 0
-999 106 635 801 -694 0
498 -373 -495 849 -848 0
759 -708 497 -724 794 0
707 -369 -989 -528 455 0
-128 599 -890 677 308 0
536 692 191 -786 -566 0
289 60 602 -647 -969 0
465 75 -656 -739 -908 0
697 154 -9 -351 371 0
-552 683 273 -706 -304 0
243 -505 429 -384 -546 0
546 -235 -120 -883 415 0
885 225 -579 949 -389 0
-232 -673 517 585 481 0
-945 -411 840 533 -259 0
-727 -458 -507 -218 829 0
341 293 -174 -105 673 0
772 321 370 64 -494 0
-660 -727 99 176 -304 0
-631 163 595 572 294 0
-998 17 814 542 73 0
420 953 -137 -421 -470 0
332 702 -647 -695 -140 0
72 208 -702 266 485 0
-145 630 262 -891 -378 0
-295 723 684 -791 273 0
-612 -614 221 309 -980 0
-36 -465 -841 776 -21 0
-278 231 745 -952 -438 0
421 -80 786 -886 -737 0
-749 24 257 -121 -317 0
413 -38 751 -455 886 0
343 934 -110 -668 710 0
532 73 189 -576 313 0
-112 613 -35 -433 -835 0
579 327 124 -952 -705 0
898 -229 51 -944 -711 0
473 -652 748 -577 334 0
-168 992 -452 172 390 0
-903 -583 -426 -937 -625 0
205 750 694 51 575 0
365 -615 403 -123 622 0
939 382 649 334 -542 0
-389 578 -173 -382 -416 0
554 785 35 756 -88 0
713 538 38 -136 394 0
-917 748 419 -11 852 0
-430 920 625 568 -204 0
500 470 -599 -973 -682 0
-819 -318 -852 292 968 0
247 921 388 868 725 0
-868 519 535 79 -607 0
637 -466 -871 458 20 0
801 962 -868 -40 -426 0
-484 -757 871 469 416 0
-72 67 -783 -543 -727 0
513 634 -536 -568 93 0
-957 -433 -983 852 -962 0
-7 -143 399 -987 -551 0
-760 -462 -19 336 -773 0
363 -817 429 -179 137 0
775 -868 -623 -100 977 0
-73 -872 91 -18 1000 0
-461 207 326 -639 51 0
-871 669 468 -786 205 0
-213 -782 -27 351 250 0
-592 687 436 198 79 0
-138 170 756 222 219 0
-186 -788 -672 747 -653 0
-956 52 -810 570 -480 0
426 -856 -482 -473 628 0
-959 -813 -941 -53 512 0
431 65 -513 385 394 0
-725 173 -500 862 381 0
270 -740 751 -682 -852 0
-311 -239 -727 348 7 0
-634 135 506 801 -701 0
-82 145 883 -69 238 0
155 704 -526 -75 978 0
-419 363 949 -18 -374 0
-786 697 603 -568 151 0
226 -326 -69 960 391 0
-222 559 696 249 -881 0
-467 902 531 -660 -544 0
980 -602 -430 -934 673 0
-701 871 436 -690 305 0
438 -607 -630 481 -744 0
-13 -152 -971 -284 -32 0
-513 -19 780 947 857 0
134 46 413 -243 -116 0
155 -233 975 -928 480 0
-433 772 196 746 629 0
-875 -94 -787 246 -240 0
223 -814 -704 276 -429 0
858 -344 557 -743 -142 0
-929 -779 587 732 617 0
425 -144 -145 -618 979 0
-852 649 -740 849 755 0
78 930 -632 141 -763 0
-104 511 352 835 553 0
974 -236 -807 326 -180 0
324 -549 -165 -734 -788 0
-697 -361 636 -813 348 0
-414 -960 -819 -34 781 0
-241 207 514 -83 732 0
278 -621 -269 64 132 0
-887 175 -989 607 -146 0
-767 602 108 114 532 0
-366 -156 -875 650 -701 0
961 124 529 115 -146 0
686 295 -634 27 -874 0
-281 -52 -727 534 -514 0
-315 189 -913 374 96 0
-210 -669 866 -536 -402 0
821 704 -627 349 265 0
945 -968 -641 698 986 0
193 -807 -950 -41 476 0
-158 -511 473 -52 -258 0
629 694 595 -672 232 0
-81 -913 850 -176 791 0
-375 -424 244 587 260 0
916 -173 -25 -184 -923 0
759 -773 476 -842 579 0
574 -536 12 82 -787 0
356 146 -215 -378 58 0
-928 545 541 -983 421 0
-181 -405 226 459 501 0
87 -446 802 -342 -82 0
555 537 472 -50 -698 0
129 -150 568 -178 -848 0
-10 -494 951 127 72 0
-592 -436 287 -875 -406 0
-816 754 -543 -34 -509 0
144 -236 -781 194 464 0
941 662 727 -654 399 0
822 -757 -353 -622 -371 0
-284 274 -64 705 584 0
981 890 907 549 410 0
747 303 -647 827 -144 0
-566 -742 685 -402 168 0
282 449 -829 -287 -306 0
-869 -355 496 -523 -434 0
-387 -502 820 771 -566 0
809 246 -470 -714 -879 0
-180 -392 18 -68 -151 0
-839 18 927 -66 -818 0
487 194 986 -379 605 0
867 -219 -358 136 766 0
-501 -792 98 696 -972 0
319 839 -648 253 628 0
-76 -628 569 -912 -326 0
553 111 -555 -162 -560 0
-899 -380 -396 917 448 0
-14 740 729 226 846 0
458 -95 108 -261 -606 0
-993 -458 -577 878 -528 0
-47 56 -29 136 -450 0
-371 -267 730 689 565 0
-973 355 457 -852 -722 0
-823 730 815 105 -452 0
-583 -214 -619 938 285 0
422 528 -53 -15 -548 0
-402 457 6 363 90 0
-342 269 681 -933 -84 0
-387 363 -292 887 220 0
-293 -864 142 -282 484 0
-649 -274 -583 -703 -285 0
841 -390 -302 -219 -239 0
-694 -521 788 -901 876 0
515 294 -842 -177 703 0
-11 -73 -84 -121 642 0
-644 618 -948 811 906 0
171 -792 -946 -942 -937 0
14 182 549 -470 -301 0
-901 918 -380 872 908 0
521 582 900 980 -33 0
-419 -568 82 763 -509 0
-794 606 753 31 -464 0
-352 9 -61 821 756 0
44 309 -821 -190 754 0
669 791 184 -657 261 0
-116 382 -990 -974 -582 0
139 474 353 -64 -813 0
47 396 85 -910 -902 0
-919 -10 544 -611 -58 0
-108 277 -5 579 -30 0
-177 188 -933 -306 87 0
182 691 -415 124 446 0
453 -510 -104 136 -735 0
-337 279 -716 807 782 0
106 -902 -552 -599 394 0
-31 62 -996 -767 422 0
801 -740 405 -713 -961 0
918 978 -449 819 15 0
-207 -369 540 -483 -237 0
971 562 -51 -668 -933 0
-318 988 195 479 835 0
499 473 932 -747 112 0
341 467 491 263 -722 0
628 -944 480 862 -40 0
-345 -693 943 283 407 0
358 -831 -691 -209 394 0
73 -134 -319 -81 693 0
688 150 -747 335 -746 0
89 905 -363 273 853 0
578 86 -34 -567 871 0
306 -750 432 355 934 0
-824 171 -148 -446 -759 0
-916 837 -738 627 228 0
-378 -397 -338 723 398 0
-663 -34 255 908 -564 0
62 82 -784 590 -703 0
-543 552 76 -400 15 0
88 233 51 752 254 0
-98 -719 -588 -626 -916 0
50 578 -759 811 406 0
26 -957 386 -684 195 0
8 454 461 613 -404 0
-659 829 204 -518 494 0
-405 -924 -376 300 160 0
-613 -717 489 -32 -911 0
-453 221 -970 946 462 0
938 792 665 153 432 0
651 492 -733 -270 597 0
-13 -925 838 -363 -82 0
700 240 967 175 -392 0
619 586 817 -243 -445 0
308 602 -140 210 983 0
177 97 238 -353 704 0
-993 -636 527 427 -643 0
700 146 789 661 668 0
514 -936 387 -836 97 0
819 -960 829 -492 -403 0
871 -59 816 190 -627 0
-392 -964 876 -364 -856 0
-208 -782 33 -831 572 0
660 497 -943 750 -921 0
298 -530 969 686 -102 0
-241 -98 951 -987 837 0
937 -588 354 -325 238 0
-106 127 -80 788 246 0
821 -179 -864 -827 -364 0
949 293 529 -760 100 0
-621 -863 -509 740 -665 0
65 -506 -31 -899 672 0
289 659 174 -324 -996 0
-908 -543 696 415 -243 0
-849 435 -614 848 -102 0
-609 -114 738 583 320 0
-778 -951 -549 5 -851 0
435 -653 35 11 498 0
-638 -216 -240 481 861 0
258 385 349 226 600 0
-758 659 254 -450 931 0
-622 391 -629 -346 -279 0
687 -509 -636 -523 750 0
157 720 -460 -421 -845 0
-196 893 -16 260 88 0
623 -341 768 -84 507 0
-526 -695 -699 -280 156 0
-876 -396 924 -521 -497 0
823 -886 482 406 623 0
-754 -789 -527 -113 -410 0
592 -181 488 288 305 0
957 -556 -876 -880 816 0
-741 -452 196 -470 701 0
-795 538 366 -807 -8 0
537 405 -345 -597 -964 0
-703 -654 785 -595 -501 0
-669 -452 -679 -406 566 0
824 437 135 -243 919 0
882 575 26 539 630 0
-703 -67 -47 861 -391 0
652 942 295 255 -744 0
-986 -124 -70 -688 -825 0
67 444 175 313 629 0
-507 -809 212 66 -580 0
634 -697 -648 -265 539 0
-126 308 -347 921 -483 0
440 -827 -654 388 32 0
-54 135 -905 -650 671 0
-480 84 121 -198 457 0
-865 -759 78 155 537 0
899 -248 545 -493 -32 0
104 -610 251 -998 -502 0
677 103 -991 -630 70 0
-983 -236 123 423 881 0
114 1000 181 -3 -103 0
-160 66 -315 576 527 0
672 -205 -423 -964 -949 0
-292 -174 732 -382 -141 0
919 453 376 328 -604 0
141 -27 -606 -217 -214 0
987 -614 -311 -986 -423 0
-439 229 451 -662 808 0
541 -702 -1 -520 -245 0
-597 295 -181 262 -75 0
10 -256 -133 884 -244 0
724 -95 923 -974 317 0
211 163 -16 775 932 0
505 -238 425 704 -845 0
-943 504 -30 529 -495 0
371 -128 -308 -205 284 0
508 -675 -280 60 440 0
-956 -876 -687 -136 -157 0
-743 -745 -402 -523 -873 0
119 791 -466 -975 -894 0
122 -437 716 492 228 0
-895 435 -451 -676 53 0
11 -364 -372 656 -271 0
411 -273 103 353 127 0
745 -328 730 307 -103 0
681 822 32 -199 -924 0
-272 -893 362 -226 -35 0
-573 -873 438 399 436 0
457 85 783 876 -437 0
-390 152 -347 -716 -600 0
-733 608 424 735 761 0
-107 705 424 617 428 0
-161 889 775 899 -625 0
495 179 -343 -313 -412 0
-114 185 -360 727 207 0
-122 335 -771 -420 790 0
773 -341 -493 -918 432 0
382 -379 554 62 -15 0
-762 361 832 -320 -891 0
764 -186 902 -819 605 0
-361 256 -312 -666 -644 0
518 -394 -670 45 -856 0
740 -976 354 471 748 0
483 -708 -368 -238 -245 0
128 -41 407 866 -581 0
862 -43 593 -400 -926 0
656 202 246 -604 -590 0
433 177 648 867 307 0
336 701 -919 780 269 0
-215 781 862 620 995 0
-880 -95 -506 178 551 0
887 126 -246 -42 71 0
538 929 624 77 -125 0
585 891 -850 -759 319 0
-440 -981 -775 61 558 0
-69 -50 716 148 -655 0
646 370 -484 158 -328 0
855 -193 125 822 -208 0
508 23 638 914 -244 0
-854 190 871 595 54 0
232 196 -594 -490 -445 0
-246 -259 -711 -670 -835 0
480 -560 366 569 161 0
762 -742 -277 -380 36 0
-824 -787 319 -546 689 0
-89 122 -429 -544 464 0
656 722 -923 428 -658 0
-551 -268 -576 752 149 0
-170 1 -279 468 -1000 0
312 844 71 -489 322 0
-201 -970 -527 -916 -991 0
58 -405 -743 686 736 0
191 -578 505 -899 -766 0
-704 228 352 236 366 0
290 573 -23 -954 277 0
-910 -88 216 528 937 0
-756 379 81 180 -545 0
-493 54 546 781 -695 0
-586 145 -718 333 -328 0
-339 -81 -871 -376 292 0
-942 -251 -126 -839 -509 0
447 -160 199 -204 -169 0
724 -852 140 -437 687 0
-494 327 901 -204 642 0
-33 -779 -176 523 -974 0
945 549 -757 503 932 0
39 -437 -792 959 9 0
921 331 373 385 -586 0
252 223 273 982 -595 0
-549 564 -521 674 482 0
-648 742 -234 -379 701 0
616 -946 975 670 773 0
-282 121 80 -767 458 0
196 -525 -890 300 -978 0
469 -568 -926 -669 241 0
-123 -514 906 -780 -389 0
-868 -315 -77 107 -14 0
485 -202 276 -782 965 0
425 860 -942 147 512 0
-966 -992 667 -221 -427 0
200 -828 756 999 -906 0
-314 -945 759 325 903 0
978 -41 730 -200 -935 0
-649 -275 -657 -993 587 0
585 -189 371 118 -702 0
775 678 771 -705 609 0
798 -106 936 987 655 0
-882 -732 -437 463 137 0
79 353 188 -829 -804 0
503 430 -342 739 62 0
789 -526 -901 -888 -123 0
-273 -399 -46 863 -406 0
189 643 -134 -851 -980 0
-928 -655 247 278 -86 0
-584 718 -731 -356 -869 0
-159 -181 -100 561 547 0
-885 809 -962 638 36 0
630 -891 -775 724 -480 0
-219 810 -859 489 904 0
-887 -982 -823 -472 -279 0
803 837 967 -244 -557 0
879 -237 946 -16 -677 0
611 -90 -249 -903 -879 0
-401 -771 -545 663 -936 0
-125 -485 990 -487 -632 0
690 715 644 -502 -97 0
538 458 818 38 -566 0
-543 -376 -378 -515 -429 0
-816 316 482 354 449 0
559 -48 -226 109 -264 0
329 937 -567 851 764 0
-520 -807 667 986 -104 0
432 -986 657 978 -227 0
603 624 585 429 3 0
965 -89 -77 551 -41 0
-92 496 -315 781 -875 0
-100 657 -504 410 -122 0
-718 943 -794 -910 -182 0
164 -746 531 392 -304 0
442 669 685 427 -935 0
-723 -123 -60 -893 -373 0
-843 -339 877 -585 857 0
-541 -54 936 477 -375 0
82 809 427 875 -786 0
545 -93 -954 -827 -324 0
-389 975 -139 -720 -325 0
-770 -552 633 498 -943 0
412 -768 -10 623 -590 0
-690 679 428 -607 601 0
-373 21 229 327 -656 0
304 -491 -822 -450 -204 0
549 -574 323 993 660 0
874 870 -479 966 316 0
341 -313 -976 -74 681 0
546 107 74 431 146 0
800 626 932 383 -773 0
247 -226 -207 -922 -697 0
-284 -936 350 798 701 0
-985 -590 -488 327 798 0
-518 -728 259 -340 146 0
-540 344 -417 713 -165 0
469 -666 -417 -76 622 0
661 -585 -934 133 10 0
-656 972 934 -759 213 0
120 -610 931 542 -80 0
193 -258 274 -139 542 0
-94 -122 502 730 -396 0
672 -688 -965 -149 859 0
433 -85 70 -650 518 0
638 321 462 -390 -11 0
-328 694 679 862 377 0
-889 824 -348 408 -206 0
662 459 333 -268 -1000 0
147 -172 846 -413 752 0
118 -405 -435 -162 -949 0
136 416 631 -706 -734 0
532 729 787 425 222 0
146 714 963 -304 -782 0
-825 715 -379 -117 634 0
586 424 -546 -906 991 0
-196 -92 738 -590 28 0
-35 -719 -153 615 -526 0
-663 765 947 -631 -743 0
-829 -191 -633 -60 898 0
516 674 1 153 -673 0
887 -183 613 323 398 0
-124 679 805 -64 643 0
735 -608 -394 528 -552 0
623 385 -447 933 380 0
-5 -149 841 60 -958 0
-605 945 -350 -22 -893 0
-744 16 208 618 294 0
172 54 -329 -194 362 0
571 263 207 -231 -339 0
-50 953 -517 -794 -574 0
-431 -963 679 -600 628 0
494 887 90 867 -100 0
-582 99 -348 509 832 0
801 35 -596 820 -604 0
696 445 282 -861 -603 0
966 -280 -553 -796 55 0
662 668 -755 595 155 0
-308 54 -942 -440 296 0
-655 -43 -15 652 -421 0
429 537 90 750 -93 0
-492 -965 916 -376 26 0
573 -345 826 -872 378 0
456 -333 -801 -455 -542 0
218 -169 -179 -317 -808 0
-337 -192 384 -601 124 0
259 -549 781 -386 718 0
-438 961 -918 -673 -251 0
295 -575 -795 -921 447 0
-146 -614 -278 -114 733 0
-253 -530 -745 -661 927 0
171 481 -810 936 893 0
662 412 -858 -582 331 0
-535 45 -748 -605 107 0
-446 -828 208 759 -539 0
-699 908 -80 -858 507 0
822 -979 -124 -622 -950 0
-384 -919 203 578 -464 0
822 -816 -46 891 -287 0
-200 -469 -119 -867 939 0
930 -110 220 -278 264 0
-202 -945 645 53 497 0
-82 95 693 -896 717 0
-941 -404 824 -186 -413 0
-984 -992 526 -166 586 0
44 181 770 -862 873 0
702 683 -997 -953 -766 0
-459 128 -538 -859 269 0
878 551 172 248 -579 0
-336 -870 -90 -261 -955 0
-802 151 163 -845 -964 0
-771 55 931 740 533 0
-771 835 -376 -748 477 0
-399 139 -528 486 811 0
-89 -775 307 402 -51 0
-272 398 -37 620 -979 0
969 202 -427 -150 793 0
946 -112 -628 472 568 0
-88 378 992 265 -632 0
827 -543 -652 958 598 0
431 -776 754 491 -959 0
720 -73 -680 361 614 0
-537 -508 899 265 671 0
898 164 -876 53 -576 0
-775 -660 148 705 150 0
464 901 150 221 443 0
-431 710 -476 638 125 0
-149 667 142 103 196 0
34 -664 835 -737 70 0
63 -851 222 -640 -740 0
-873 -400 121 134 938 0
-902 -435 -279 148 510 0
844 -657 -85 265 487 0
-875 615 153 -892 -308 0
476 685 927 -616 30 0
4 -701 691 739 579 0
-337 -200 498 -950 805 0
-294 909 -311 -618 338 0
748 558 369 399 -483 0
-823 -68 86 61 -788 0
-738 427 -138 159 10 0
773 -563 -142 -115 97 0
-697 145 693 635 -29 0
760 -755 958 167 485 0
505 110 833 316 -555 0
-844 -173 -914 227 -40 0
-902 -470 -645 869 599 0
715 384 569 -965 801 0
738 141 -979 882 347 0
754 393 817 360 359 0
-100 -376 147 854 -58 0
168 773 -629 -475 -920 0
889 720 -352 738 -711 0
728 -433 606 272 836 0
339 421 -698 31 385 0
-987 160 206 456 -293 0
-395 408 -883 442 -916 0
-451 -664 436 -779 975 0
-851 -823 -814 -917 677 0
207 388 566 -81 389 0
-358 593 -806 -568 478 0
-927 -826 -351 928 -524 0
-72 487 422 806 -609 0
-812 -828 -283 367 199 0
-95 -517 -415 -847 -324 0
-347 54 120 974 -7 0
242 108 -584 919 863 0
-783 -771 686 -32 922 0
-905 711 -166 874 -873 0
253 -948 -495 -979 -11 0
702 540 198 -715 231 0
-590 360 -328 837 -653 0
-378 695 442 286 900 0
-286 -786 884 -882 -901 0
344 -860 -726 -980 527 0
244 990 909 314 -465 0
415 -162 -476 -295 -122 0
24 814 921 -940 -517 0
-667 730 -872 163 -594 0
543 536 -584 -470 -749 0
971 40 210 -760 -655 0
-712 41 934 57 501 0
566 -900 -189 656 835 0
-260 -306 -118 203 523 0
253 814 -127 562 500 0
-563 -467 368 88 353 0
-672 -926 878 937 164 0
225 725 -986 550 293 0
-593 -164 -749 -464 -736 0
504 -912 -621 913 -311 0
332 -699 370 94 -523 0
224 286 -897 -145 -955 0
-652 -431 -407 -241 -532 0
-428 -670 402 699 479 0
795 357 -566 -934 386 0
517 589 -749 476 -215 0
199 238 971 687 -233 0
-60 -585 -982 -219 -926 0
-518 419 -459 767 -867 0
-843 -577 37 209 20 0
291 595 304 979 -419 0
-723 713 -390 909 -490 0
761 211 -658 556 -172 0
994 424 897 -51 855 0
107 -432 386 649 356 0
-132 549 -362 135 426 0
-329 -31 744 -487 571 0
-508 207 941 -275 335 0
598 113 -40 -544 213 0
-941 734 -565 -798 -395 0
545 581 -418 270 773 0
-553 -491 -454 305 648 0
406 -426 -739 -799 -198 0
-620 511 273 370 -680 0
-749 -820 -833 -782 -718 0
614 -478 611 784 140 0
-127 -216 776 -408 -376 0
697 -949 -590 -728 -468 0
-234 -174 896 -25 -919 0
442 -975 -883 -472 177 0
171 -451 456 429 -242 0
374 39 -572 53 882 0
784 59 698 680 109 0
-535 288 -30 -91 -326 0
-619 123 114 -579 -270 0
-562 -892 -105 -405 -372 0
-420 -418 886 191 -549 0
-342 995 -550 798 -965 0
278 -548 449 43 658 0
994 662 -269 -397 43 0
270 777 393 -718 370 0
944 -968 -316 -396 -170 0
-486 765 500 946 -242 0
925 146 -608 -227 -960 0
-554 958 -893 76 -795 0
-62 -492 659 461 -21 0
-67 -424 217 493 -126 0
-355 -356 979 1 -85 0
375 22 561 467 292 0
460 6 -779 516 738 0
-362 -781 868 354 910 0
21 356 -593 -65 353 0
-687 -882 406 -421 209 0
-5 701 550 -856 -699 0
-569 -534 -333 -818 -21 0
852 -904 -179 851 657 0
-204 -30 -182 320 412 0
-834 -576 93 558 -761 0
15 -929 -827 -642 -402 0
-333 -513 -660 167 -691 0
852 853 -437 -40 -409 0
359 -971 -704 -469 354 0
-17 116 925 -79 -227 0
-209 -12 -607 109 993 0
-815 -146 790 691 500 0
-219 -973 271 446 953 0
412 -895 106 -134 -716 0
-967 985 230 -112 -772 0
-55 -629 807 -701 787 0
981 643 -886 549 -972 0
-761 618 -769 381 61 0
-897 -244 -255 817 603 0
-216 85 -948 -326 -654 0
-672 -352 -863 403 -364 0
168 -639 63 850 -979 0
569 339 886 -549 234 0
-337 -926 -496 -887 -372 0
540 339 704 631 -583 0
-997 133 -510 -45 383 0
-556 834 -520 135 -803 0
53 31 -573 335 8 0
-956 498 -721 301 -246 0
174 139 -887 911 402 0
939 737 -693 -42 -299 0
77 28 -199 -847 -466 0
224 861 111 139 392 0
105 864 759 -938 -494 0
-685 893 996 270 -860 0
466 -458 428 693 85 0
451 -366 -173 490 77 0
555 24 -315 -690 -620 0
587 -636 -537 -914 -363 0
292 -802 -245 -193 454 0
-487 91 758 -865 1 0
176 371 -16 816 -797 0
-926 656 511 -843 622 0
-121 -874 -584 733 764 0
-641 -501 779 98 478 0
-703 705 -711 940 652 0
-559 663 -447 963 -105 0
380 -844 123 203 -841 0
-536 468 94 179 -538 0
217 479 -596 696 583 0
-705 768 402 -920 588 0
740 -899 95 -787 221 0
243 -127 -955 812 896 0
-861 390 -981 74 475 0
-76 435 -149 -984 486 0
302 -212 -215 980 -482 0
33 -913 206 396 582 0
-894 903 -42 -512 984 0
85 -176 -841 -938 -762 0
-240 828 -618 188 775 0
904 62 662 278 935 0
-743 391 -442 -955 -983 0
-476 -313 297 -827 576 0
-935 -477 523 353 -155 0
-486 962 -151 -159 523 0
-761 605 383 -509 -983 0
908 798 -160 -192 -935 0
-953 -800 -939 606 525 0
-363 295 15 -616 125 0
-45 -18 537 405 519 0
418 -733 804 21 -744 0
365 459 -488 -716 113 0
-802 836 196 991 864 0
714 27 -728 139 378 0
-994 -550 -344 942 279 0
-989 -400 6 659 473 0
-604 -612 53 456 118 0
-190 39 -626 116 994 0
392 -223 795 -802 362 0
-277 940 -104 -637 569 0
-376 -335 371 284 927 0
-595 -923 -485 200 196 0
917 -355 -95 132 314 0
940 208 626 817 739 0
928 125 -91 891 -806 0
-829 614 -529 -203 -206 0
263 -543 -679 -602 774 0
353 573 720 645 297 0
779 -606 -632 -146 -130 0
334 664 511 741 -338 0
624 -958 204 -438 -812 0
-522 -901 331 -614 -821 0
987 -29 -621 -317 -343 0
-308 -173 -97 -811 -445 0
439 -445 846 -968 454 0
-194 -406 263 821 -181 0
13 -677 -32 975 958 0
844 753 629 -603 940 0
-42 -327 218 -457 -952 0
394 -770 578 77 813 0
-954 -261 556 -721 971 0
-653 711 14 -132 143 0
239 468 -146 -796 -928 0
275 -248 953 264 -536 0
-332 537 -417 511 355 0
-307 165 -237 918 -807 0
551 -448 -17 428 -473 0
-773 133 837 -802 -324 0
-870 45 -557 -301 -224 0
811 -217 660 -61 847 0
302 152 23 -734 416 0
973 -125 71 566 60 0
286 -580 244 108 -459 0
331 992 107 -840 115 0
-43 448 824 321 -884 0
239 -930 -660 838 -342 0
441 -487 -115 670 510 0
500 565 -560 -668 273 0
445 -227 -769 -23 -866 0
-703 744 -594 -553 -341 0
-72 520 -254 -631 -182 0
-508 682 764 375 -342 0
575 -250 511 769 586 0
-356 644 73 522 -877 0
-904 646 871 279 -163 0
382 581 -294 -966 281 0
-237 -387 -163 570 896 0
996 -616 -818 32 -644 0
2 -780 239 -105 719 0
302 652 -227 459 361 0
-492 -14 -916 808 468 0
479 -757 -568 368 -343 0
397 -982 552 246 424 0
104 -757 358 -602 -288 0
201 -956 564 482 951 0
343 -316 -676 -427 -796 0
-105 -409 -33 -424 -383 0
740 952 -369 73 -191 0
840 125 38 638 719 0
15 -242 453 808 858 0
-360 -391 -647 -411 8 0
-634 393 -502 883 775 0
564 -741 955 -832 46 0
437 710 -289 -417 318 0
29 889 599 -557 -200 0
477 824 -864 -352 161 0
-815 31 -512 998 314 0
-603 355 130 48 269 0
630 -413 877 -778 -592 0
-627 -809 -959 -521 -184 0
-352 -586 619 -751 -409 0
-147 394 474 -813 455 0
409 238 84 831 175 0
-836 -159 458 -215 625 0
-660 -922 497 -669 -367 0
105 813 411 -590 -461 0
28 -178 173 -842 506 0
355 -877 999 236 356 0
-360 189 -399 -613 -301 0
-689 -819 466 -904 -831 0
-515 968 340 -948 567 0
742 -722 -644 294 -778 0
761 -743 438 825 -734 0
30 453 -727 5 135 0
119 910 -936 59 4 0
-363 -48 -790 -687 -429 0
-66 -519 -263 625 -330 0
521 105 -677 266 -226 0
-893 -509 -861 -859 707 0
-133 79 372 -50 109 0
-861 -203 809 707 -396 0
833 309 159 -538 212 0
895 737 475 -481 -417 0
-578 666 -62 211 521 0
-546 -415 -858 721 894 0
933 -374 595 148 -802 0
-513 223 106 -332 -333 0
669 633 701 -955 -368 0
-866 -608 -929 -990 835 0
89 305 -69 -175 32 0
464 -818 975 -989 -456 0
753 -527 -938 -124 -710 0
-402 905 -755 118 -161 0
-270 -843 196 302 692 0
795 761 597 660 469 0
938 863 812 175 916 0
609 -559 843 -378 -51 0
-188 483 329 -938 417 0
-337 -241 368 779 -492 0
623 -979 -176 -676 -650 0
-389 -82 208 -190 -935 0
-693 901 899 368 288 0
-501 473 36 708 644 0
-422 -463 569 320 -225 0
81 576 -247 -342 642 0
815 239 808 636 -980 0
-922 -971 650 -932 -749 0
815 135 730 -216 211 0
264 -133 958 76 -691 0
-661 -206 380 -462 366 0
513 680 -934 525 121 0
-809 714 652 803 -5 0
-273 411 -266 706 53 0
-544 639 456 -19 491 0
-362 -797 125 -924 621 0
441 55 898 -628 270 0
-289 474 922 -634 994 0
-446 -94 552 -458 -799 0
-84 -76 933 -39 -529 0
900 -145 -792 548 -960 0
-7 272 -323 171 -128 0
38 136 461 132 835 0
-507 236 179 -700 44 0
413 759 197 -291 -185 0
740 -20 948 952 792 0
538 -834 145 -131 476 0
115 266 -652 297 665 0
831 -270 -252 -480 114 0
-606 -185 322 -230 169 0
-453 -162 -956 455 432 0
928 807 401 -75 40 0
-122 -905 -377 -432 865 0
917 -173 791 -915 903 0
19 940 524 -792 63 0
-642 203 449 -433 474 0
-104 698 -693 -332 -364 0
-386 420 407 631 -760 0
-516 117 971 354 -451 0
-685 308 -15 919 5 0
-138 923 -350 -802 -947 0
587 416 693 414 844 0
-393 -919 -723 -848 16 0
334 -781 482 683 -456 0
-462 563 299 329 169 0
-458 -171 235 971 55 0
815 545 -243 476 680 0
92 685 55 -621 407 0
605 166 478 -367 -476 0
-138 847 19 -956 -792 0
-325 -563 -744 -836 197 0
737 -774 -805 -743 815 0
957 -542 -368 -695 962 0
475 689 602 -135 -182 0
885 90 -602 51 386 0
857 -199 -631 666 179 0
-565 372 949 -629 551 0
-341 412 -641 -913 -48 0
-255 154 -484 -725 132 0
762 401 -236 989 926 0
19 469 551 -862 -179 0
-748 869 -413 -158 -673 0
-883 -623 156 -901 129 0
339 890 -420 763 231 0
815 -484 240 377 -523 0
-210 -621 -790 -57 -867 0
-974 -213 44 -55 -715 0
-542 -862 48 -84 640 0
712 -560 515 -218 345 0
-253 -596 930 -451 -8 0
604 -942 406 -662 23 0
-487 84 865 851 -872 0
-536 -55 -765 967 313 0
814 -23 211 -479 -569 0
277 -151 214 -114 -897 0
117 859 397 631 904 0
-739 -904 177 -654 -457 0
-112 775 -76 -932 223 0
-773 175 382 -754 -103 0
-221 -980 -811 -395 -132 0
-188 -566 -392 773 -317 0
849 -836 680 35 49 0
774 -986 -545 -951 320 0
90 -148 -531 -263 -192 0
104 -765 566 -295 -187 0
270 112 -841 -14 -451 0
743 691 -789 104 956 0
-81 -142 754 824 -118 0
-369 -585 -928 727 -506 0
417 -118 433 299 371 0
582 -198 937 -73 -133 0
-520 -853 161 412 211 0
-847 -380 -428 671 -263 0
226 493 991 -898 592 0
209 -699 666 402 -367 0
-81 815 -228 636 858 0
-964 324 457 387 262 0
772 635 548 438 -607 0
732 904 -670 -871 -28 0
334 549 -725 -770 -197 0
422 -543 -406 -277 812 0
-809 331 -380 -842 -39 0
885 756 -150 -186 -330 0
-320 -143 -678 -733 9 0
556 -851 803 829 381 0
-111 -420 -768 -691 606 0
140 11 943 259 567 0
320 729 411 35 980 0
-550 -733 -627 -825 401 0
-943 273 -706 -284 601 0
329 -182 -762 -891 57 0
768 615 657 -35 147 0
568 -789 262 635 893 0
345 973 -571 859 214 0
-653 -860 935 601 881 0
760 451 -581 -54 907 0
362 522 -38 420 -328 0
-234 504 -253 387 -463 0
275 -813 -376 -196 -266 0
841 485 111 -739 -962 0
419 653 -763 518 -672 0
840 -499 -940 581 -153 0
-640 750 757 -134 156 0
-942 -379 937 -570 497 0
-336 964 -620 -266 481 0
23 -453 -498 509 309 0
-298 542 616 -308 492 0
-773 806 692 -596 -357 0
709 -197 -48 -783 -980 0
-514 -426 966 -86 -558 0
483 408 98 254 -776 0
-477 -86 429 -505 739 0
-536 -129 363 -289 -330 0
251 212 919 -298 -242 0
624 -723 -444 59 -937 0
-14 -223 71 507 707 0
-755 724 -70 960 -921 0
921 802 628 798 -48 0
-472 -582 -799 -939 795 0
217 539 -689 -246 826 0
-5 -897 602 -201 452 0
-855 200 411 738 684 0
-20 -670 -223 322 101 0
-511 936 -396 760 -403 0
-634 -402 356 -769 892 0
882 -708 70 -404 892 0
-624 157 15 -123 -858 0
-287 564 23 -471 703 0
-282 -214 -805 -47 -782 0
-820 656 721 -685 8 0
481 272 748 -411 209 0
-167 -573 372 -732 538 0
-588 756 -674 -822 194 0
-535 -978 303 411 943 0
630 -648 458 574 125 0
326 81 -301 511 18 0
-189 839 -59 -960 -634 0
-338 -393 -980 -723 307 0
-273 116 681 362 441 0
727 -947 -342 -358 -949 0
-493 -462 -85 -94 -272 0
939 539 59 -321 250 0
-319 -547 -141 -595 -182 0
41 -579 772 583 2 0
-679 654 168 484 -984 0
-58 76 -408 947 84 0
954 -248 893 -374 470 0
811 -730 -464 -867 -675 0
-104 491 -591 -666 -58 0
994 -672 651 -113 376 0
451 139 380 -797 -486 0
-142 -746 -478 -107 865 0
664 878 -474 906 -535 0
704 11 -784 539 819 0
-433 400 -814 387 -383 0
178 -316 403 585 -719 0
-61 720 -31 121 523 0
-134 -54 401 443 588 0
-906 -478 904 -623 988 0
157 956 220 -578 -836 0
-797 197 228 -503 -941 0
513 -570 289 -393 301 0
-85 -710 936 258 -295 0
256 179 -312 924 -551 0
614 741 11 -949 -215 0
-414 -92 947 559 -858 0
728 -631 -964 299 -900 0
232 130 775 858 -122 0
361 844 -29 16 -669 0
607 826 -439 -604 -832 0
203 205 814 -458 728 0
716 -103 436 -296 580 0
374 -205 -307 -472 -201 0
451 246 877 564 -121 0
-666 -243 -379 -547 209 0
-922 -691 933 -599 -757 0
988 415 -443 -451 -514 0
-151 823 658 617 -909 0
20 -407 -177 -11 249 0
-607 -910 181 199 164 0
-890 -20 800 -167 -514 0
332 -423 -158 560 -411 0
-167 -156 -218 -697 81 0
359 -806 755 258 -432 0
-75 -354 -910 500 -96 0
876 705 781 -153 14 0
708 300 983 450 749 0
148 -53 243 163 -270 0
-728 -575 901 88 -971 0
513 -644 587 451 -273 0
203 149 746 835 170 0
304 -14 -509 -132 -207 0
-834 -445 646 -173 773 0
-750 317 507 -405 971 0
-81 -487 341 -965 -497 0
-725 492 -143 -855 95 0
864 -252 477 -522 726 0
-644 17 -840 -699 -168 0
-908 903 170 351 366 0
372 -391 483 -64 -891 0
-115 12 192 121 -943 0
12 670 524 -885 -830 0
-631 801 -996 549 -686 0
-232 -437 -129 -222 66 0
740 347 598 865 991 0
-407 205 -351 772 -760 0
-66 867 -12 -437 839 0
510 303 739 -880 151 0
-946 861 -500 -417 -841 0
497 -720 -49 154 -36 0
961 598 -219 -837 -295 0
276 823 -179 725 -153 0
-240 -550 987 -237 446 0
334 -409 823 -260 -300 0
-277 -43 -337 904 467 0
701 -997 -678 118 604 0
435 -995 486 940 -479 0
730 209 772 -870 -239 0
-139 434 -178 293 222 0
-843 -658 -375 842 -205 0
261 -715 -69 135 -644 0
-793 -822 -269 -636 -928 0
-900 886 762 -412 -47 0
-138 -903 -115 -773 156 0
-313 13 -932 844 -941 0
519 79 -895 -234 -799 0
999 271 956 -416 -49 0
-894 594 288 -414 474 0
517 857 -965 516 -59 0
596 -671 820 598 -53 0
-220 -574 396 56 824 0
-47 79 956 -528 276 0
829 -393 599 -690 854 0
-204 902 -988 -87 -639 0
332 109 -958 151 -755 0
-30 -66 934 -597 -584 0
-729 -731 -790 -737 56 0
-861 671 -174 107 162 0
-302 261 -537 202 -2 0
591 -739 -905 -6 -941 0
-350 -689 702 268 204 0
257 -663 618 986 -745 0
755 841 535 -718 578 0
-32 186 368 -430 -795 0
874 -339 -491 793 -750 0
-988 -690 -150 61 776 0
-814 -121 -112 85 572 0
454 -690 428 -482 292 0
887 899 846 153 -717 0
870 319 -676 853 -588 0
-329 999 914 849 -773 0
969 -389 698 712 -102 0
-709 171 -141 725 38 0
716 343 -551 957 -313 0
850 -259 -683 731 -852 0
879 189 103 258 267 0
-674 -988 711 607 -572 0
-139 131 -27 687 -646 0
-27 568 750 144 -258 0
459 886 -430 -112 154 0
-689 661 22 998 151 0
-896 -4 -309 543 -731 0
-372 256 681 454 -617 0
917 -174 -497 335 -260 0
383 -741 -960 -889 446 0
707 -376 -343 -637 507 0
-423 546 518 -835 -415 0
-154 -973 -942 659 -319 0
-621 203 -562 787 -675 0
-296 642 -237 -609 -919 0
566 945 128 -482 -636 0
-229 568 -132 -590 -939 0
273 884 2 -477 746 0
-35 -44 459 -293 288 0
653 606 -34 328 -489 0
856 696 -463 955 -88 0
804 -504 225 -551 449 0
260 675 -926 -974 373 0
381 564 -706 566 -14 0
248 513 -705 594 -543 0
105 -928 -132 542 -199 0
598 -830 -879 -670 -620 0
-123 791 -529 -501 312 0
-138 -924 869 487 -940 0
-148 -84 -387 618 -229 0
126 -45 -322 -723 42 0
733 -502 524 -919 311 0
540 -64 96 975 -956 0
-271 44 -965 551 457 0
556 -788 -344 -908 432 0
-204 107 249 870 4 0
-629 -547 498 501 -74 0
292 -480 -797 543 -98 0
-398 162 468 659 -581 0
568 652 -797 -923 936 0
-970 -393 161 644 378 0
-612 12 -266 870 -53 0
-822 744 -829 -382 -688 0
-945 796 -760 -475 459 0
-625 456 -137 999 580 0
603 815 -477 100 -427 0
-686 53 -475 -470 489 0
-628 -398 -546 -457 -951 0
961 362 -550 -437 639 0
-460 604 621 -532 -697 0
686 450 -256 -721 -663 0
-901 761 683 218 104 0
-925 575 812 31 -540 0
130 487 -579 -203 907 0
953 479 230 -265 18 0
644 739 830 347 124 0
911 -28 -454 -482 443 0
773 682 569 191 -383 0
-742 269 -910 951 -691 0
603 -951 224 -62 522 0
-815 -416 233 110 940 0
-499 -85 460 -535 700 0
-486 159 841 -390 -165 0
-25 227 671 -624 925 0
-90 -415 881 184 842 0
55 -846 -604 -477 -138 0
105 621 -487 -71 -226 0
-869 -847 -143 -654 525 0
-463 274 823 738 891 0
268 3 935 980 642 0
-724 222 -937 999 -113 0
-213 671 682 751 -490 0
87 -211 945 -748 354 0
-905 -349 -561 -727 -135 0
99 869 -765 767 -240 0
-948 -746 715 -58 676 0
842 16 702 382 625 0
407 -736 271 107 -963 0
28 187 616 -372 800 0
169 -687 597 -673 756 0
565 -655 -169 -404 700 0
-704 894 769 891 44 0
-160 424 -660 -38 396 0
317 781 -127 323 515 0
86 386 306 -631 543 0
91 510 722 966 507 0
789 214 -284 83 159 0
-791 -860 54 -505 -341 0
-389 -304 -369 -161 -211 0
126 17 -638 929 970 0
533 430 -565 378 526 0
351 -784 -632 43 978 0
213 468 -498 83 -24 0
502 808 385 357 -678 0
-425 389 -647 924 -745 0
824 -197 -129 -113 84 0
261 -322 -356 -660 -252 0
-866 -822 -435 -933 358 0
623 -996 260 962 356 0
364 -562 -661 866 -663 0
601 120 112 333 -933 0
-597 503 139 588 -757 0
-575 423 222 -608 193 0
-761 -306 -345 344 -799 0
-36 286 -41 209 269 0
-467 663 723 -83 273 0
-552 846 177 -758 -965 0
-83 -436 11 -866 -200 0
-911 198 -571 471 82 0
-677 144 -369 783 394 0
-139 304 735 868 -795 0
-46 880 392 -493 416 0
-71 -850 -844 271 172 0
194 75 868 -833 639 0
-355 761 60 -775 -820 0
-157 54 -763 820 -474 0
-124 343 -333 -885 877 0
809 384 -341 -278 -52 0
214 -979 954 52 -456 0
592 -888 -391 -102 804 0
633 -902 -907 180 571 0
404 -954 -225 -549 282 0
751 -655 -327 -184 442 0
-447 242 370 899 588 0
157 781 -460 -808 -198 0
786 797 -692 609 -288 0
-611 732 669 552 388 0
-107 -750 -941 583 774 0
553 172 -829 -885 682 0
-371 -547 651 494 740 0
626 -735 -778 738 483 0
745 619 -279 55 -722 0
-331 -962 -549 -162 17 0
-795 -618 -406 -19 -175 0
-275 -579 833 -382 650 0
854 -377 246 908 875 0
844 -63 -836 281 -228 0
-864 168 -228 120 194 0
190 -112 843 -47 -807 0
-425 -479 706 446 -239 0
3 -385 -110 219 -913 0
424 -690 229 269 -676 0
522 565 -217 -68 72 0
-227 791 -495 -81 273 0
-704 -56 -342 -901 708 0
-822 820 -918 658 833 0
-903 75 -783 101 -525 0
717 -127 -570 -77 294 0
-928 137 53 -245 -518 0
270 -713 84 -336 257 0
-796 -783 -170 312 -818 0
335 -822 -691 -418 -565 0
-157 567 904 576 101 0
-981 -292 -273 -836 -336 0
-907 878 -631 516 339 0
433 993 -975 712 -553 0
-185 227 253 88 -834 0
-30 -233 -492 237 850 0
-91 -485 -90 699 -679 0
239 -812 -561 783 643 0
-483 -152 -305 -159 -302 0
-202 833 386 651 989 0
807 -576 139 346 -399 0
-776 148 -471 -82 -32 0
-126 281 52 562 863 0
514 671 117 745 235 0
594 53 891 -969 162 0
-545 188 915 -782 181 0
-971 815 -866 -716 885 0
898 740 -781 -992 -726 0
419 21 510 300 231 0
579 -815 82 726 -500 0
-494 -804 -905 978 -55 0
-330 -581 -377 443 620 0
-272 982 -113 828 434 0
-411 -487 978 925 11 0
-482 548 740 -172 912 0
727 10 -155 -80 -988 0
186 -980 476 -110 -903 0
-399 -311 -544 156 813 0
846 888 -975 -853 -405 0
-862 905 -342 -147 91 0
-852 250 -728 800 658 0
304 273 -954 801 -236 0
-845 214 569 727 930 0
-609 -636 20 448 271 0
-2 -847 702 -969 -874 0
174 -334 880 -773 -652 0
317 662 987 759 -78 0
24 848 -595 94 624 0
-707 -364 -13 -585 767 0
705 -254 198 -480 476 0
80 168 -130 -559 744 0
859 -581 944 -159 -442 0
722 570 692 172 -388 0
967 731 364 784 800 0
21 -542 113 -886 -975 0
385 -629 -872 -628 -645 0
-193 -614 632 457 279 0
-603 -378 -624 -432 590 0
-46 -494 -68 773 137 0
-448 331 935 -642 -136 0
-784 -739 -81 602 -523 0
530 513 468 243 -25 0
130 100 -661 773 -334 0
519 214 -152 -177 984 0
-882 -96 -659 663 366 0
409 -968 -629 509 -359 0
591 -799 185 497 -767 0
-599 821 -706 -450 -538 0
-198 991 -346 -328 406 0
637 -417 595 -308 -419 0
676 -532 118 -504 698 0
-816 -56 558 -655 -517 0
882 166 -611 -261 521 0
692 334 -457 -917 125 0
-52 -38 431 -419 986 0
38 76 -139 -454 20 0
375 -107 265 682 -153 0
-907 -26 716 277 -935 0
-580 767 576 430 -613 0
676 -644 -891 -591 675 0
129 -127 -913 202 518 0
-169 -209 737 -155 418 0
-767 495 849 -363 280 0
220 -939 -320 -743 -347 0
-842 265 -338 -521 318 0
-896 195 844 -119 -689 0
613 170 357 293 985 0
-134 769 -909 -272 -677 0
698 -872 657 854 955 0
-778 25 -207 272 665 0
-72 265 -311 324 256 0
-755 345 132 -911 -913 0
-268 -324 -326 389 -308 0
-169 62 513 -870 -863 0
366 805 -351 943 426 0
878 946 -684 -238 -528 0
286 -613 -476 -425 -397 0
-692 858 -755 -485 -130 0
23 -49 883 -677 818 0
-911 -662 612 480 400 0
-567 -231 763 790 339 0
956 -933 682 -150 752 0
-148 -822 542 -157 330 0
539 385 -523 707 -744 0
-546 623 -33 -781 820 0
-348 -469 -497 -925 -874 0
157 780 -235 931 -625 0
-711 -988 877 -268 -630 0
-415 744 509 -990 -553 0
568 -239 -425 -680 876 0
372 -214 661 599 709 0
514 860 214 753 -166 0
667 800 128 202 984 0
-495 -491 -69 -663 263 0
863 -428 820 -254 -607 0
689 985 369 -793 378 0
300 536 -107 -113 -27 0
117 994 -199 -856 836 0
760 757 -278 -238 61 0
542 -379 -247 236 974 0
-861 4 -910 676 176 0
573 -218 -22 322 402 0
-864 350 61 -88 -305 0
-393 564 22 -606 620 0
-850 622 52 479 727 0
-536 98 7 751 663 0
30 -937 -141 -538 55 0
-179 -13 146 -253 -549 0
-174 -444 -256 120 -156 0
473 -728 968 -953 -347 0
868 698 -468 571 836 0
-443 440 -439 -230 -632 0
-470 430 269 -153 -369 0
-486 595 284 688 -440 0
-28 -827 -998 716 786 0
405 -569 -435 -222 672 0
830 -950 -669 829 -638 0
121 98 -248 -401 923 0
851 938 182 959 979 0
959 204 -467 -289 -221 0
-817 808 24 -636 618 0
802 -940 -61 170 -828 0
-704 16 -235 208 -644 0
-945 736 -230 742 5 0
902 532 416 683 -687 0
243 -990 -409 -746 503 0
-363 378 732 738 -79 0
-433 -206 -170 -403 4 0
-956 375 -367 549 -964 0
-321 -507 -14 68 -492 0
169 -626 -743 830 -102 0
641 262 -196 -677 606 0
-135 832 33 945 -952 0
486 206 347 -435 -651 0
52 -941 -327 -70 131 0
-557 565 -267 330 -804 0
-347 647 -561 725 -970 0
389 -676 719 -223 -167 0
-106 -809 137 -871 381 0
-18 -91 -424 -637 571 0
688 -399 692 814 843 0
-758 293 -376 -298 -514 0
-440 956 -56 788 -688 0
887 411 -73 -949 502 0
-923 -16 -469 400 -324 0
-6 -964 -785 552 966 0
-924 -589 -131 525 -733 0
-249 -841 68 -845 -676 0
-956 922 818 87 -643 0
-382 872 -997 797 -856 0
-747 -400 -676 -453 717 0
-506 -214 -622 172 -653 0
-277 -763 879 814 -257 0
729 823 -368 297 354 0
-151 -195 -404 -946 586 0
599 -383 88 -230 -177 0
-953 184 288 -956 -507 0
282 -285 964 50 -682 0
62 841 160 200 -364 0
-559 -538 -343 -410 -754 0
-351 -761 -728 -317 379 0
-515 706 523 -366 785 0
-53 527 -95 -947 -561 0
-77 570 819 319 334 0
44 614 384 128 -382 0
-991 226 -218 -968 -595 0
-16 -256 986 -163 171 0
881 -314 -935 -479 873 0
-975 -491 954 -87 837 0
-520 -543 -737 123 -22 0
452 -769 -424 673 -366 0
168 989 581 -534 931 0
-201 205 378 -515 -470 0
-402 -879 -18 933 958 0
482 -187 -269 387 331 0
183 931 405 22 -435 0
-883 535 -985 -801 -151 0
-783 882 692 862 575 0
895 -506 -715 839 -650 0
313 537 -908 -364 819 0
984 -820 -581 -710 409 0
-939 -82 466 988 -833 0
768 -245 -584 -913 -60 0
-222 -407 -368 71 669 0
-162 -39 -32 621 -557 0
-839 736 698 -236 -432 0
494 144 919 -152 561 0
-824 556 57 -529 838 0
-486 -84 806 520 532 0
282 511 410 525 -407 0
-628 -490 272 354 349 0
-286 202 189 -552 268 0
-21 -567 -835 -799 -823 0
429 149 -851 -60 110 0
313 -66 435 675 147 0
959 66 633 210 46 0
666 -720 -852 -190 835 0
902 207 -176 213 -420 0
-461 -151 974 685 -463 0
219 -256 391 -548 -777 0
-939 472 767 -3 125 0
-116 -464 -58 -15 -963 0
-389 931 -801 303 -218 0
-892 16 -565 -515 410 0
281 195 430 -50 827 0
-140 -345 -685 -162 477 0
-545 -500 -309 840 -641 0
616 166 155 -333 -728 0
97 -5 861 28 -243 0
-956 -966 182 -411 896 0
-291 -94 175 694 458 0
287 764 -190 -53 598 0
302 -132 -396 -806 848 0
436 48 453 767 -158 0
766 970 -851 -44 -995 0
620 52 -633 507 -588 0
809 -393 678 -315 167 0
-781 -283 -972 -988 -790 0
783 471 565 371 593 0
-830 -360 -440 -67 -779 0
-64 791 25 293 539 0
-386 -51 -353 -601 -768 0
311 645 443 -534 871 0
-69 -226 -558 149 -205 0
552 572 -683 525 -904 0
269 -617 992 -815 599 0
599 248 -561 867 -247 0
-816 -546 -535 70 147 0
905 80 629 -23 -5 0
180 692 -853 -109 532 0
-143 -160 -371 -559 -346 0
-68 -980 -575 237 722 0
114 -445 -932 -530 -84 0
564 -603 935 87 2 0
429 -231 -169 253 229 0
281 843 -142 520 660 0
493 263 -68 132 380 0
-600 314 968 709 -517 0
734 17 26 -671 -981 0
945 -988 486 458 729 0
-68 770 110 136 -84 0
-588 -641 -229 639 21 0
-920 252 437 -867 529 0
36 -46 280 76 -931 0
-568 -1 978 -606 776 0
-894 -352 -407 -329 -527 0
242 944 701 -876 -390 0
943 -60 57 -270 -672 0
-606 750 756 -126 81 0
212 182 791 -114 324 0
-18 30 -945 449 652 0
-399 384 -189 -386 -480 0
125 -774 -880 -113 626 0
494 -538 -341 -584 -614 0
132 122 409 451 -442 0
610 563 -525 -783 -158 0
483 -984 187 -457 858 0
955 665 872 190 -618 0
877 301 574 -70 -798 0
-945 631 -998 129 -23 0
412 -246 240 248 531 0
-948 -148 679 -415 -607 0
-122 -446 -808 840 -464 0
-1000 -327 935 -314 -414 0
-787 110 182 78 -290 0
-898 91 969 670 693 0
699 201 -954 -422 -78 0
237 945 719 -152 998 0
-222 410 -452 -237 342 0
-865 -691 985 -269 -520 0
634 478 -887 -187 333 0
863 -856 -464 -91 830 0
-550 -543 -68 -332 -96 0
472 -281 525 -904 -223 0
-565 -74 -485 97 -563 0
46 -284 -861 435 441 0
974 -971 -819 114 -188 0
-309 143 889 -906 -592 0
376 -254 -137 694 763 0
-688 -527 734 333 -245 0
-695 -657 41 881 992 0
255 -204 -918 554 -758 0
-769 744 -839 628 -667 0
-124 948 132 9 575 0
-585 236 -675 926 131 0
-470 -235 -864 -828 306 0
166 887 518 670 -85 0
-350 -716 516 373 899 0
194 535 -510 24 -277 0
216 485 508 15 747 0
-768 -334 -185 -601 -460 0
-863 795 95 757 -611 0
196 329 55 -661 -792 0
647 -371 -117 540 -207 0
-363 -717 653 543 344 0
-241 -493 657 -222 -573 0
489 -182 -914 -110 -47 0
-350 -355 700 584 578 0
326 947 -119 706 -207 0
-950 91 746 985 254 0
811 -348 494 -695 608 0
256 934 -788 438 581 0
-754 -748 -231 989 -826 0
484 963 359 -594 -582 0
675 -426 -916 877 -248 0
47 -693 -568 -569 -525 0
-96 930 -877 773 -57 0
189 480 -294 126 -489 0
-34 919 52 -438 -145 0
-966 887 888 675 -729 0
-623 811 681 -932 -611 0
647 -340 63 -528 -462 0
-508 -972 -238 -372 272 0
616 -781 46 -945 -752 0
175 802 -554 -478 -27 0
-8 77 -303 414 -838 0
-149 506 620 -54 239 0
952 631 -982 821 -967 0
175 -593 -347 792 -45 0
-7 240 805 283 158 0
-860 604 222 992 945 0
-47 37 -77 386 -863 0
-95 -994 949 -387 977 0
-669 -342 -135 -626 -734 0
91 -408 -418 926 -308 0
709 652 -217 888 878 0
-935 839 -10 398 66 0
-724 225 -800 927 565 0
-392 -182 587 -554 -512 0
178 942 -296 269 87 0
-324 834 598 461 -210 0
267 804 -741 493 490 0
-933 38 -194 -92 -138 0
-374 -354 -974 -526 -537 0
210 313 453 -182 -381 0
614 -449 -312 -47 856 0
761 -910 -299 538 52 0
-261 -331 606 -430 -836 0
-171 699 -23 806 -354 0
-630 -646 217 -292 740 0
-735 -364 -783 177 -338 0
523 293 652 849 -678 0
-459 150 -473 -742 -309 0
722 -967 -187 202 847 0
-985 -182 26 682 -512 0
-695 975 -52 173 20 0
-757 -386 -72 -990 -869 0
965 -384 341 -631 -602 0
-107 321 15 -417 -71 0
-192 28 533 -95 -641 0
68 -396 -191 -79 -795 0
629 -797 505 40 866 0
-212 -711 -559 473 348 0
-139 361 -979 132 -199 0
495 852 -100 -922 -194 0
-998 -1 389 -624 -540 0
-725 242 -666 997 -85 0
302 599 -161 694 -419 0
-688 -287 -567 342 105 0
-267 79 53 704 -852 0
436 160 868 842 -88 0
647 605 -668 837 -544 0
224 973 336 -196 -639 0
-469 855 -208 383 901 0
-87 -296 -547 -7 -745 0
270 -704 -647 868 -353 0
150 -460 -928 703 -672 0
-954 -870 772 -71 -515 0
243 539 567 496 775 0
580 -645 389 350 -472 0
259 990 -354 -138 418 0
571 366 446 178 565 0
885 -906 438 924 -600 0
870 -215 -63 -191 -617 0
-420 -296 -555 -357 157 0
310 263 -348 663 447 0
-376 -310 380 -367 456 0
135 91 -577 -130 816 0
164 -81 1000 874 -440 0
140 -26 412 -589 -818 0
-889 -331 -956 -980 450 0
-292 335 -689 -278 978 0
-215 -955 675 762 877 0
-31 -250 746 782 -432 0
-97 -115 -511 -882 656 0
-865 -779 821 574 868 0
519 -504 -218 463 -539 0
-738 988 946 -38 279 0
95 693 -144 927 -426 0
204 773 -108 -604 -726 0
-770 -213 -135 -966 -142 0
318 -297 -899 104 -876 0
-727 355 67 412 -38 0
-426 -394 -741 -907 -2 0
-379 -93 317 -793 -738 0
421 -987 992 -985 119 0
133 -348 -424 -121 -430 0
881 391 -823 741 -610 0
730 192 67 789 -882 0
-554 -929 -654 134 -416 0
703 -70 878 -389 239 0
-357 -498 -582 -23 -47 0
458 947 -894 -525 806 0
655 -753 -547 792 349 0
-948 -495 -326 370 512 0
493 -465 780 -342 153 0
124 -264 -112 -274 391 0
488 -571 -3 968 492 0
-766 -990 68 268 -699 0
-769 11 -476 264 -373 0
-804 -970 924 -526 532 0
526 168 538 -449 -453 0
602 -407 996 506 870 0
486 -637 -347 248 -587 0
137 -20 245 646 -549 0
-434 -480 -410 -388 -930 0
-463 -962 145 -59 712 0
-343 -683 821 -731 -947 0
761 95 955 721 -318 0
-894 51 599 -424 684 0
172 184 470 215 177 0
513 -704 739 -647 2 0
747 797 460 902 576 0
-435 -982 128 218 335 0
376 123 557 639 -390 0
-91 -514 -409 -513 -483 0
-277 -105 -541 779 -293 0
-196 -756 337 999 -829 0
359 -91 -130 680 323 0
309 -738 -298 200 -352 0
-896 -789 212 985 191 0
4 226 994 -877 -707 0
-958 171 -674 -751 510 0
-47 -605 506 934 -763 0
557 -112 -134 402 448 0
982 169 -296 371 541 0
379 648 -75 -445 -274 0
206 -320 -507 526 -831 0
-682 720 -67 -831 876 0
546 144 -727 -183 -278 0
258 -146 -235 -724 19 0
-63 687 -118 909 -942 0
788 1000 -407 11 324 0
417 -142 -557 183 545 0
262 959 -78 767 -107 0
134 178 788 -844 -442 0
694 355 209 -266 494 0
-532 14 228 924 -747 0
-800 -109 296 -579 715 0
712 -931 -860 917 474 0
358 -665 797 -554 -332 0
209 -936 161 281 -957 0
134 -922 -396 -395 29 0
-758 255 -273 -12 -50 0
43 -342 147 896 894 0
654 -538 107 -320 670 0
-627 -789 113 693 271 0
385 192 -446 62 -387 0
758 256 -897 536 -765 0
649 754 258 891 419 0
173 -940 389 116 645 0
-22 -29 -973 564 190 0
-360 -831 230 134 -751 0
183 -534 -387 -29 545 0
-737 448 -303 -104 -107 0
-812 -518 450 707 -716 0
523 -158 -760 171 -336 0
-585 -919 885 770 96 0
118 -512 819 -585 283 0
274 777 71 247 605 0
180 -919 852 664 -10 0
361 -271 -637 -322 15 0
-897 103 -320 874 -247 0
63 -619 391 604 969 0
933 -823 -158 812 466 0
-831 610 -327 769 -106 0
-400 436 486 276 930 0
284 420 -139 974 551 0
818 144 27 -895 768 0
-132 -128 -646 432 -804 0
591 -512 459 930 905 0
-311 -285 -412 -269 244 0
797 -148 735 881 -134 0
-449 917 -758 806 -302 0
138 488 935 -113 527 0
-929 -634 142 -238 -52 0
993 285 958 826 -131 0
957 -999 277 -599 668 0
-652 80 -404 -7 -320 0
-285 552 950 438 -746 0
740 313 -65 244 351 0
-360 646 294 274 701 0
112 -834 931 257 917 0
670 -39 -465 -518 5 0
849 -941 5 -858 -961 0
-160 -541 -752 -377 -144 0
-944 135 -673 -899 160 0
758 -674 -365 252 154 0
143 -329 -866 997 -957 0
-332 644 -725 -357 -565 0
609 -201 -717 -25 514 0
-780 -941 119 -744 -671 0
-572 -464 -749 924 781 0
91 371 580 141 -602 0
742 -321 -429 -999 874 0
-574 871 -916 269 885 0
864 677 345 638 171 0
-615 633 332 182 -934 0
883 -989 642 447 -378 0
825 121 424 -751 99 0
-30 621 155 -987 684 0
-958 896 -660 453 403 0
-112 930 -799 242 605 0
-982 478 523 -53 -264 0
-175 -441 -756 269 213 0
-380 -483 744 166 62 0
400 -269 921 961 302 0
-557 -256 -752 278 -31 0
620 440 589 826 198 0
447 -757 -120 -755 -333 0
-712 201 -241 -468 -27 0
-598 28 -966 854 -990 0
829 844 30 -999 810 0
53 866 -641 -672 -254 0
261 -819 87 607 -802 0
-295 -5 596 97 117 0
5 44 -91 440 -561 0
157 256 -889 666 -112 0
440 33 605 -691 -885 0
130 -234 -753 387 313 0
818 -10 -697 -79 -602 0
540 -691 -880 890 476 0
573 559 954 158 238 0
407 -73 -268 483 105 0
-393 98 382 589 929 0
413 459 -764 -836 85 0
-934 824 902 -78 -58 0
-344 375 -360 -2 15 0
-8 -956 244 438 -381 0
795 620 -902 -97 229 0
66 620 -649 -541 -598 0
-741 232 719 246 74 0
-673 364 856 401 -862 0
84 -682 66 849 -345 0
89 -736 -542 596 -167 0
-651 550 -942 -329 725 0
679 723 -617 725 -161 0
-782 -522 160 -140 75 0
-395 170 620 -847 -750 0
-445 -803 903 955 -63 0
711 -534 -700 -162 656 0
771 -784 134 -4 617 0
-865 665 384 -271 -744 0
-700 200 593 -636 -706 0
665 -330 631 174 -3 0
-830 4 -183 494 145 0
-548 217 -995 -425 -307 0
-429 -684 -194 -421 986 0
-342 -14 -343 -275 132 0
765 533 -316 766 -802 0
641 968 585 -933 -717 0
219 -890 -466 -69 413 0
-448 -183 -36 -284 158 0
327 -908 284 -943 -100 0
538 -190 167 -603 985 0
-764 565 64 -652 -686 0
-447 -671 -559 3 -295 0
588 651 -43 74 296 0
-401 882 -15 960 -849 0
117 -617 714 408 580 0
-799 110 -101 -295 191 0
754 -409 543 -752 -232 0
784 -693 -230 372 221 0
-914 -873 622 -940 279 0
-330 -46 22 53 449 0
83 671 960 -85 -396 0
938 208 -834 531 111 0
-452 -357 -248 210 -666 0
-86 787 61 -807 -461 0
518 76 802 -461 -996 0
670 468 -559 -362 -489 0
979 611 -864 462 707 0
-756 169 73 -821 730 0
-957 -891 878 -624 619 0
934 -356 626 445 677 0
795 -131 -225 -154 508 0
420 387 443 -822 -215 0
-213 707 -236 -662 -95 0
418 -667 556 963 262 0
423 104 -451 -369 430 0
-108 -361 206 751 -246 0
658 -476 -18 210 -230 0
959 -400 -782 686 962 0
-629 178 148 -332 345 0
130 -356 481 567 -536 0
-220 -394 112 -324 974 0
140 -801 -575 -89 401 0
49 -830 873 306 916 0
438 -18 122 -65 -873 0
-427 915 128 -862 -942 0
-333 401 -461 -514 391 0
319 -557 973 82 -102 0
-700 -485 627 770 -158 0
-531 26 -994 -760 805 0
-404 403 -940 741 -911 0
-674 740 -188 -403 -165 0
793 -817 605 -134 513 0
-473 36 5 445 -689 0
-609 -519 256 287 86 0
-37 367 705 36 159 0
-267 -19 -297 400 -824 0
-812 -413 688 -102 785 0
-360 -846 -977 726 -42 0
-601 75 112 975 11 0
-456 739 119 69 54 0
-461 -170 -779 175 46 0
794 -133 -407 -210 915 0
-652 -993 218 -871 409 0
626 721 602 796 788 0
757 587 900 651 363 0
918 -368 343 656 123 0
870 927 -714 -220 -696 0
244 1000 602 -675 -152 0
-820 779 -986 -926 591 0
748 146 501 -318 258 0
743 207 -866 951 128 0
4 124 -452 -863 -433 0
-699 549 704 -416 850 0
-594 32 576 252 403 0
180 -949 -99 434 426 0
-592 -307 -582 425 116 0
530 -313 -153 -353 493 0
-738 -845 723 -122 -629 0
-625 -786 -706 454 -740 0
222 -694 344 -299 -913 0
-235 -804 -128 -401 183 0
92 -345 265 331 885 0
48 823 566 -207 -429 0
-73 378 -121 -421 -40 0
-501 517 412 611 876 0
-756 -266 -695 149 -898 0
16 863 -134 654 295 0
184 -134 139 902 -307 0
-104 -775 563 365 -831 0
-470 -806 300 403 402 0
496 289 -249 -239 -465 0
976 -540 482 -408 -494 0
-23 -316 -318 -204 440 0
540 196 297 123 893 0
-591 570 249 901 218 0
420 -750 -542 -654 -276 0
397 530 137 809 907 0
-291 673 389 650 -266 0
-238 -620 176 890 -615 0
554 -126 -648 -508 -890 0
66 754 52 -434 896 0
555 -299 -855 -61 -118 0
-208 703 -335 -242 -613 0
-128 751 808 -548 933 0
-416 372 -573 -829 303 0
452 57 -941 -675 -980 0
95 718 -124 -619 954 0
202 792 605 -260 -133 0
565 696 670 -803 505 0
-776 868 -499 -104 543 0
406 906 822 -289 457 0
95 805 176 997 -917 0
-979 -472 59 -783 -763 0
-873 29 -433 882 404 0
-411 -605 242 610 222 0
-920 131 559 344 -895 0
61 -175 476 627 -230 0
590 -476 706 -967 269 0
-872 -431 274 -336 -912 0
-287 370 336 -772 -835 0
385 -231 -962 919 91 0
-481 650 -871 276 40 0
-243 -290 329 -777 -372 0
-526 -879 -871 814 -74 0
213 136 649 -559 -820 0
-368 42 418 759 204 0
769 -351 981 -892 -377 0
49 133 722 459 -77 0
220 944 -121 740 -677 0
171 -125 326 31 454 0
208 -582 -534 -391 298 0
-685 -375 -101 -852 -520 0
195 -853 950 -813 -592 0
343 -529 -405 392 -105 0
-754 71 537 437 780 0
-892 183 291 688 -495 0
959 297 -748 -755 -965 0
-618 456 181 -352 79 0
390 -873 -173 261 641 0
277 474 -677 -117 429 0
566 -829 654 -186 -528 0
-915 224 -977 -391 -45 0
-424 -833 902 770 575 0
-736 -913 -637 -911 746 0
867 -724 368 752 -54 0
41 649 146 577 -871 0
877 535 -240 -49 -462 0
478 -150 -297 -817 -136 0
893 634 -816 -96 601 0
226 -294 524 220 772 0
-995 -923 -611 92 715 0
-156 279 -944 566 -269 0
-759 -679 -876 -746 -278 0
327 855 814 -791 485 0
751 403 669 -164 705 0
89 -21 182 -741 -992 0
427 -252 -847 614 -56 0
186 -170 300 581 -102 0
-315 465 53 83 -551 0
121 -695 450 -768 -698 0
699 -489 11 -343 -518 0
109 764 -120 -950 879 0
-590 -937 -531 153 -829 0
-874 20 -314 51 553 0
268 897 461 594 608 0
-326 576 643 -986 511 0
-903 425 -595 987 -762 0
975 580 -33 -611 888 0
-287 878 -704 677 -27 0
1 -647 -120 -732 970 0
334 894 -351 840 656 0
-788 -139 462 -283 -123 0
732 -933 -61 862 -419 0
220 135 -651 419 366 0
-604 -637 -505 998 120 0
223 -79 -37 -253 619 0
-364 505 -390 -833 -658 0
-599 943 602 929 67 0
-855 726 -316 -165 -289 0
-731 -937 307 -47 837 0
535 -895 710 -212 -690 0
372 635 -614 116 474 0
-99 827 -851 -289 -258 0
111 -269 634 169 619 0
626 -745 614 347 -510 0
-957 -374 -75 245 -907 0
52 -958 604 562 -67 0
523 185 -350 737 846 0
-25 865 -297 901 -930 0
-775 355 -921 270 615 0
500 543 -230 839 522 0
788 404 470 953 844 0
580 602 18 -966 968 0
799 -479 252 229 4 0
-86 -687 -254 -625 458 0
-794 642 -815 597 141 0
373 42 -623 263 -415 0
334 -223 845 -946 -302 0
-454 398 333 892 -226 0
-567 -781 579 740 637 0
-58 637 -824 715 -269 0
-109 705 940 -9 555 0
-648 467 401 407 612 0
-7 874 969 -34 942 0
447 99 996 602 454 0
889 -437 -192 132 2 0
-118 -98 463 222 -805 0
-716 872 61 100 269 0
773 -661 696 478 966 0
613 -313 608 -878 750 0
-14 492 -389 854 -853 0
638 -711 286 970 496 0
916 94 237 957 164 0
105 -977 557 -77 -321 0
438 909 195 750 -398 0
618 -173 61 346 912 0
940 -447 694 787 854 0
278 359 932 694 -628 0
-920 139 -669 -205 -668 0
-955 171 26 -914 -728 0
193 739 115 482 -269 0
-978 818 841 -612 -445 0
-584 -324 91 824 -413 0
535 -58 729 -406 -916 0
-905 308 633 -44 784 0
-168 657 86 -182 -106 0
-890 273 413 -952 -737 0
-102 640 454 2 41 0
733 952 -730 -641 848 0
-146 782 544 -837 968 0
-831 43 -166 374 286 0
-492 -988 -618 -290 -399 0
653 -380 -553 605 386 0
510 -462 816 28 -587 0
-433 -281 -975 -977 595 0
852 -372 -417 265 403 0
-460 206 676 -796 412 0
-387 -596 -660 216 -621 0
-166 -922 -497 351 -892 0
44 216 681 -204 -948 0
144 -524 -786 -911 -989 0
-884 -471 5 904 511 0
267 -992 -578 -957 970 0
-108 -738 641 -572 -32 0
-84 -673 -61 139 508 0
-249 392 208 -556 29 0
-347 -888 -368 221 -305 0
-747 -973 539 -859 -390 0
574 -369 -71 -419 -760 0
859 -910 -386 198 -239 0
-547 67 -422 -391 -432 0
951 -257 743 -994 -232 0
982 -100 -624 805 -461 0
251 -538 -578 680 393 0
-616 -593 -756 -516 -113 0
-783 688 924 -378 14 0
736 -567 -169 -306 12 0
-773 -28 -902 751 946 0
-750 -992 -916 -258 -83 0
407 576 -502 -984 -365 0
-518 -108 -415 -38 482 0
-62 657 -645 -932 -955 0
370 336 -662 -550 975 0
50 -28 679 140 913 0
757 -1 862 595 553 0
932 -308 518 564 -872 0
-815 579 487 -545 -350 0
284 933 789 224 945 0
443 -137 -959 805 -719 0
-659 767 -786 -524 -821 0
-741 -608 -501 953 -544 0
781 -747 -380 -7 112 0
237 -812 607 -40 164 0
95 287 -953 -258 -954 0
-54 150 -939 801 -682 0
916 677 -981 -407 -154 0
-582 267 -70 -807 -657 0
-434 -734 -505 920 651 0
-688 -970 363 640 -429 0
-850 -989 -91 -44 -150 0
462 936 152 -729 -513 0
-481 -868 -199 -628 -255 0
-328 -621 918 -510 665 0
-196 -334 -512 -141 335 0
488 -896 -901 917 -65 0
913 639 709 -85 -372 0
-493 897 -630 335 -156 0
390 -851 -924 -401 -27 0
-105 499 85 -196 370 0
876 753 900 -306 131 0
106 722 432 -909 -831 0
197 41 704 -786 -995 0
980 -628 105 354 348 0
-418 646 285 -388 158 0
312 -546 987 85 -421 0
-299 -56 -370 -811 -309 0
45 -757 762 996 -51 0
898 -471 543 114 -690 0
-804 369 -131 740 -585 0
-87 -390 308 -878 944 0
923 469 -994 -413 -428 0
141 316 -257 85 144 0
-459 -729 -380 897 -388 0
-276 189 -209 292 -977 0
786 706 682 263 332 0
623 -787 -243 198 -717 0
-320 -912 913 -640 -607 0
-729 -458 746 -743 905 0
-412 649 -70 611 -170 0
-829 -527 416 -58 -673 0
-868 99 679 -621 107 0
272 -654 902 -931 -261 0
354 -844 -925 412 931 0
-504 -541 691 154 460 0
-936 -620 666 406 -770 0
-556 -397 -759 137 699 0
609 826 -260 687 -634 0
903 -731 379 31 -874 0
175 189 981 -762 -955 0
-564 818 380 -317 286 0
241 -754 44 652 -134 0
-283 -646 -546 -446 370 0
494 -953 -261 -203 410 0
612 -299 -749 403 349 0
-389 -25 -93 -418 -987 0
220 -6 -449 -592 -799 0
-168 -437 -720 -132 35 0
-141 149 -625 -34 557 0
158 426 -61 798 -85 0
-473 -601 -550 306 125 0
899 -46 874 -223 587 0
142 -827 71 -277 982 0
671 716 246 -194 286 0
-766 35 2 511 -93 0
171 -862 -633 459 308 0
-519 -292 -77 354 -407 0
-913 850 -351 -67 -595 0
-628 -875 662 -436 211 0
-849 -591 -918 491 810 0
-101 668 109 -461 -678 0
908 941 -553 -370 -894 0
-171 917 -314 930 102 0
-407 -191 -986 -207 111 0
321 -919 410 577 476 0
-536 -439 -477 -376 -17 0
138 -874 -346 -371 -832 0
-142 386 -691 -93 4 0
447 -8 394 -380 548 0
682 726 -176 -14 842 0
884 138 944 -244 105 0
151 571 703 271 -304 0
346 689 799 676 -656 0
281 -479 789 -33 6 0
-992 850 -538 267 369 0
599 898 -527 -34 854 0
-821 -420 297 998 -826 0
-632 87 -29 181 -279 0
-681 652 357 -373 -524 0
-918 172 -590 559 -539 0
-488 826 -357 903 466 0
-478 -677 -998 -673 -703 0
675 775 69 167 -617 0
812 -635 529 -250 317 0
731 -776 -204 669 109 0
785 -446 92 -98 -475 0
11 334 81 -220 -26 0
212 -146 221 -148 872 0
-626 -703 473 -588 289 0
-264 -85 -988 -217 182 0
466 789 743 -297 247 0
609 844 96 -460 -119 0
781 65 187 -153 -889 0
-739 -861 -784 -269 271 0
-249 115 472 66 539 0
-278 839 382 -399 484 0
-754 41 258 -831 -574 0
79 900 266 334 -345 0
556 956 551 -479 940 0
-759 -979 317 -123 -994 0
283 294 -370 -849 -39 0
529 642 266 246 -664 0
-786 -230 336 -484 950 0
-909 -804 387 738 638 0
-421 -559 -687 590 163 0
-43 -233 707 -949 -166 0
-221 -16 -185 461 782 0
895 976 -820 641 -318 0
-779 552 -881 449 -92 0
371 340 -698 820 -566 0
18 -662 -425 66 -767 0
-351 -928 88 -765 977 0
735 -253 -612 893 -339 0
-57 -890 269 -32 492 0
156 -977 820 804 -346 0
399 819 970 397 -366 0
-545 928 167 565 358 0
-881 -868 -540 872 -498 0
-201 -685 687 143 -136 0
874 -570 -991 -937 -549 0
-356 463 -674 719 -481 0
-539 -135 521 30 413 0
-940 -782 910 80 292 0
-479 -949 -95 233 781 0
503 -470 -68 540 685 0
-538 361 958 -123 36 0
192 867 -407 847 -373 0
-719 -725 367 -825 -819 0
499 306 903 -671 639 0
-786 -491 189 577 -749 0
-757 -69 -240 281 530 0
-479 468 -871 -3 843 0
-734 -665 983 -144 479 0
-952 -236 -973 902 281 0
120 952 -581 -280 634 0
79 861 844 -112 243 0
155 91 -870 -22 991 0
21 32 -843 -665 615 0
-340 103 899 311 224 0
353 -489 -235 -507 604 0
-261 -944 575 600 724 0
577 -739 703 255 -806 0
-408 -254 -847 186 -292 0
276 546 -891 144 -767 0
40 -166 -315 299 -716 0
-832 -414 -891 -633 -98 0
-245 922 -293 -736 387 0
145 -788 531 118 -509 0
621 127 -973 -364 167 0
-358 442 946 961 -677 0
-809 -736 -16 -478 -340 0
72 865 -712 -700 141 0
-570 -87 139 -813 -117 0
216 909 -224 173 345 0
-319 49 -188 297 -33 0
548 275 529 276 -676 0
684 -405 159 872 466 0
213 -148 -699 776 265 0
-791 -797 7 -416 531 0
502 -327 -312 597 836 0
-231 515 853 -273 -188 0
78 531 -231 324 -652 0
-821 101 299 -557 -619 0
611 457 -247 157 248 0
605 272 -49 910 771 0
457 -137 293 768 -389 0
-359 -690 -646 -344 196 0
889 -690 526 617 522 0
-930 -315 846 303 -326 0
-891 -36 -322 751 834 0
-478 -766 -918 -319 -843 0
-162 -734 701 -576 -925 0
420 -585 19 -117 -998 0
607 155 438 -159 511 0
970 -839 107 -955 -975 0
-27 -495 -249 469 47 0
968 -776 946 -30 40 0
-182 -540 541 -389 442 0
76 59 169 531 -690 0
-535 -220 -57 -542 -305 0
567 708 66 -254 -31 0
-925 -361 -892 930 -21 0
274 919 -666 816 -386 0
-359 84 661 -696 18 0
693 601 -285 -732 984 0
-454 -979 671 371 696 0
-375 -101 -768 -786 396 0
307 -467 775 501 -750 0
-415 120 718 -122 905 0
-860 -384 234 -290 -122 0
-623 971 533 -175 -269 0
-283 64 82 88 29 0
-603 -763 -450 -25 878 0
873 -85 454 245 861 0
930 -440 796 571 -978 0
-869 -216 -529 631 54 0
144 -557 340 -469 -463 0
-159 -256 275 365 -10 0
-962 -391 921 -678 934 0
238 819 541 -754 148 0
489 -19 350 -588 -71 0
349 -22 -614 -855 -886 0
17 -31 -906 919 68 0
157 -143 793 -579 -760 0
202 -5 30 -803 972 0
-353 -845 -621 834 -884 0
871 -604 701 310 219 0
-164 780 -118 -328 44 0
547 -882 -514 345 512 0
649 -397 -248 448 110 0
-8 825 928 -969 -870 0
947 608 278 -709 -313 0
778 264 -273 -788 384 0
-425 -687 296 -533 -257 0
-723 77 745 -519 219 0
-841 -969 -453 60 163 0
458 -278 410 527 336 0
294 213 335 -544 985 0
940 879 650 544 925 0
-239 -369 -806 -469 482 0
-9 -443 20 445 107 0
-219 -324 -554 -279 -287 0
-109 567 -929 276 -635 0
-24 7 -799 465 -939 0
318 -653 362 155 -91 0
627 -100 -160 973 -446 0
926 820 981 -424 -394 0
-189 797 948 -690 -528 0
977 -300 339 -762 -493 0
-67 849 -165 765 793 0
-148 -227 911 -908 -507 0
796 492 -126 -686 989 0
-662 463 -117 945 347 0
509 -177 60 -74 890 0
131 914 761 674 807 0
-726 318 -439 8 -32 0
-245 828 159 -552 745 0
-808 404 79 -85 220 0
52 -903 976 313 343 0
480 712 -695 -514 871 0
59 781 970 -967 -426 0
-931 159 -662 -62 -328 0
977 480 285 -665 -457 0
991 -331 -869 -520 476 0
21 -369 -74 709 -60 0
-48 -840 -725 -130 -921 0
390 780 71 755 858 0
-209 781 -983 570 717 0
-579 708 -402 -137 -80 0
-370 979 177 -192 -210 0
603 109 -92 368 -284 0
-300 -595 -482 118 -412 0
-319 789 98 -641 -977 0
-422 839 299 -182 -269 0
956 400 299 903 -16 0
-869 -220 -445 663 672 0
