c 4-SAT formula
c 500 variables, 2000 clauses, 4 literals per clause
p cnf 500 2000
-304 176 383 -249 0
136 -288 -311 -367 0
-120 23 -385 495 0
-178 457 -356 -437 0
32 138 -277 -429 0
342 -9 93 305 0
-55 240 -42 -440 0
55 214 439 -345 0
424 376 413 -92 0
-47 -179 112 136 0
102 368 488 -62 0
72 349 129 -329 0
-61 62 160 227 0
230 -361 451 58 0
-441 60 448 68 0
361 100 -147 180 0
270 -213 -72 -246 0
-328 362 57 -298 0
56 -311 -319 -342 0
-437 322 180 -212 0
-50 -81 -473 -228 0
-182 166 339 -172 0
89 369 -163 -462 0
440 -361 -106 -365 0
-30 427 -111 -377 0
-167 498 -113 62 0
-377 330 103 -251 0
-450 307 -433 -99 0
127 -363 399 138 0
308 494 -420 387 0
-134 -155 -364 -74 0
228 72 -14 318 0
-51 -143 -103 190 0
-396 -360 -55 -15 0
71 -164 -381 480 0
61 -133 431 330 0
-178 334 -252 -295 0
224 -372 -39 -192 0
219 2 -84 465 0
-32 -448 452 -463 0
306 477 -55 284 0
-236 -146 450 319 0
-122 325 -163 -235 0
-391 428 -478 -299 0
-48 310 -438 -266 0
-156 -135 327 181 0
-158 114 453 460 0
172 -126 -252 324 0
167 272 118 1 0
249 192 -64 363 0
-436 446 -90 -476 0
128 392 -5 310 0
365 -118 -440 -500 0
-39 -258 -175 -385 0
133 -339 373 -353 0
25 359 -320 104 0
10 -336 219 -300 0
369 400 -392 -134 0
-345 -56 -38 216 0
119 -444 427 33 0
110 -490 -205 -31 0
359 429 -329 -309 0
-334 -139 -404 -223 0
-161 -384 171 453 0
274 340 -69 2 0
316 -226 469 -382 0
-181 259 -248 221 0
-349 432 -303 279 0
-246 396 -393 442 0
-273 -143 320 -163 0
-499 -407 289 -258 0
22 156 -194 -438 0
-157 430 -206 -248 0
338 -112 227 492 0
205 -167 -318 275 0
397 -424 34 -145 0
-377 -92 -438 42 0
-105 -73 85 -425 0
-409 326 -139 -398 0
-199 -334 167 -271 0
-48 73 -51 -354 0
461 -129 -152 -278 0
183 382 -286 387 0
223 374 108 -277 0
-182 341 -246 -366 0
179 30 -326 -389 0
-400 179 -26 114 0
-62 114 482 -35 0
-158 442 -426 -456 0
-299 -112 -484 475 0
-327 258 464 -359 0
-188 113 492 -497 0
-55 -490 233 -279 0
-23 227 -309 -351 0
230 426 307 215 0
457 332 440 -163 0
225 -397 295 -272 0
-125 23 -41 -117 0
104 -458 -153 -298 0
-204 483 443 42 0
-450 -304 -314 -426 0
-156 190 478 2 0
-260 226 -15 457 0
-60 435 -134 164 0
318 -378 193 -392 0
468 349 -239 -137 0
-239 -79 -58 -158 0
466 -316 -288 -144 0
-110 -56 -57 -313 0
-190 185 54 -15 0
-383 -227 -355 334 0
125 -35 133 78 0
186 -364 321 -106 0
447 -159 -321 25 0
252 -53 -334 304 0
-450 -271 452 415 0
224 -114 -138 -48 0
-37 180 -476 239 0
17 -124 488 135 0
-118 -319 -423 -350 0
-369 360 -411 -115 0
-435 -496 95 -109 0
244 -72 489 422 0
373 -222 -170 -417 0
208 47 -240 -268 0
183 -54 -35 118 0
351 330 223 -233 0
359 391 -119 326 0
327 10 -17 183 0
-119 -169 -256 199 0
335 -169 -279 -468 0
263 40 378 -334 0
224 -226 213 -404 0
-369 -52 -139 254 0
51 -2 444 306 0
25 450 -182 257 0
376 330 63 365 0
256 262 7 -325 0
339 -358 -15 479 0
302 -67 32 121 0
-319 475 -279 -259 0
254 298 439 -197 0
69 -248 -222 -310 0
-375 342 17 413 0
-445 -62 498 136 0
-245 -56 -210 -376 0
-294 334 -388 -154 0
-320 -346 459 184 0
232 -439 -300 -207 0
-276 -351 -96 308 0
244 -118 54 458 0
342 274 -161 248 0
-285 -8 -250 -265 0
-401 -132 -326 -91 0
440 -475 208 -447 0
-178 134 167 -467 0
-445 306 471 67 0
279 -83 458 330 0
-29 -215 -245 495 0
245 343 482 -33 0
-15 406 -7 349 0
351 496 -275 -307 0
-443 253 -294 150 0
-3 -51 -300 10 0
17 263 -194 -477 0
-134 -488 269 -185 0
-369 -440 172 -197 0
14 -282 -59 157 0
164 -287 301 -285 0
252 238 204 -4 0
-248 417 -378 322 0
-134 -399 -220 -210 0
-36 346 -272 132 0
336 329 -218 -385 0
264 110 411 -185 0
-495 -9 494 -451 0
-350 357 240 128 0
421 -238 -184 36 0
-477 124 410 -102 0
-394 -187 -219 -284 0
-400 -362 -398 -219 0
-421 -446 416 271 0
410 -220 476 -388 0
-382 380 94 -141 0
-279 -100 123 -181 0
275 -171 297 113 0
110 498 -397 -191 0
95 -355 -17 145 0
467 -491 481 -487 0
312 332 238 277 0
-497 -260 88 469 0
-139 44 431 -409 0
-226 -26 347 87 0
-259 135 -68 -192 0
-156 -130 -325 42 0
289 267 389 -20 0
68 405 -133 9 0
-26 -215 452 -253 0
325 399 25 -352 0
-232 382 -119 112 0
200 -267 278 181 0
-322 378 -422 344 0
-59 113 -448 -444 0
-348 32 263 31 0
160 -425 -452 172 0
12 -496 -248 -55 0
-484 -215 -11 -228 0
-85 -288 -56 -37 0
-151 452 -101 -182 0
-461 -27 263 392 0
-91 -113 -268 14 0
-489 322 238 -500 0
-149 283 272 -160 0
-137 -151 167 466 0
-176 -285 345 2 0
-350 360 -83 -298 0
250 -20 -314 448 0
-388 -279 -111 420 0
130 -179 -271 34 0
-363 307 -425 305 0
431 260 79 383 0
344 -19 -339 178 0
-164 -426 113 -295 0
216 89 498 141 0
-144 -382 -440 62 0
182 298 -61 30 0
193 47 -435 107 0
-477 -312 137 -445 0
-33 -330 -5 -348 0
354 -237 -82 129 0
236 184 304 -24 0
-213 -203 360 473 0
6 -106 222 373 0
398 290 178 -82 0
-203 353 -444 480 0
-239 76 -208 -73 0
-135 -71 165 -385 0
-259 -283 -29 171 0
384 451 328 282 0
226 136 -176 -225 0
69 -306 -23 -88 0
-259 -79 209 -163 0
-23 -404 -382 -256 0
96 475 384 201 0
87 182 -405 274 0
-144 -197 -317 408 0
-480 -10 214 -392 0
-226 -282 52 448 0
394 -161 266 148 0
-247 358 -131 -333 0
125 25 -242 118 0
-441 -123 99 396 0
294 496 -481 -461 0
-28 -255 -273 -297 0
-179 -299 -329 431 0
39 237 -88 489 0
-66 -201 309 130 0
475 -446 -328 -87 0
384 -31 -26 -249 0
-129 169 -126 44 0
-100 203 -99 -372 0
113 356 -480 -164 0
-89 -149 -320 308 0
-252 126 -433 -333 0
153 456 -222 -197 0
354 173 9 -90 0
-15 327 51 -425 0
468 111 -342 52 0
192 -220 345 -200 0
-66 -470 -351 -106 0
-16 -328 444 -290 0
443 344 -402 77 0
298 373 222 131 0
-181 -477 270 121 0
-147 118 270 -197 0
-396 217 -134 -457 0
292 -37 -293 181 0
298 416 410 -240 0
-146 -160 368 -99 0
-361 57 137 110 0
18 -410 -318 150 0
-405 -149 500 -406 0
-93 -92 59 429 0
-490 -244 -201 294 0
-207 379 139 365 0
-31 -10 384 -242 0
-337 13 291 498 0
5 335 -399 327 0
94 -456 -310 13 0
-247 324 67 -269 0
14 -354 -404 -457 0
363 122 -112 324 0
268 478 381 -77 0
-228 350 -92 -283 0
-193 221 -462 -27 0
301 -375 -233 -109 0
490 153 -33 82 0
147 -373 -305 -463 0
-411 354 -451 -286 0
-42 273 19 -5 0
-324 -171 -257 46 0
327 -412 -328 439 0
-14 203 364 293 0
-419 278 -265 -75 0
-248 80 332 -55 0
341 338 369 -161 0
221 495 380 -114 0
-46 315 -11 250 0
274 21 -300 323 0
-87 -55 -491 -411 0
378 495 338 -249 0
-486 78 205 -307 0
-270 8 33 -123 0
87 -51 -13 -310 0
256 -210 -359 -380 0
29 275 250 352 0
-356 149 -346 -438 0
-369 -340 -284 467 0
-373 328 5 -445 0
-164 -204 17 -319 0
23 -75 -279 24 0
382 69 -423 -85 0
-413 244 423 -7 0
312 -387 -181 110 0
-163 110 -387 -252 0
-331 -61 -213 147 0
-146 -483 -315 417 0
-88 135 -351 -176 0
437 -261 450 -301 0
126 311 334 -145 0
220 -110 -152 -32 0
473 299 54 228 0
88 -109 -377 -32 0
88 -336 -160 -258 0
-10 -259 -356 392 0
135 -254 202 311 0
149 -34 327 196 0
115 245 -197 415 0
-422 267 -470 5 0
-395 461 167 179 0
467 -434 118 345 0
266 -339 59 -133 0
-76 78 395 -485 0
250 -389 -219 188 0
382 276 -415 -197 0
-229 321 222 370 0
-64 -275 358 298 0
-234 -467 -379 487 0
-171 -212 -114 -238 0
23 -153 -305 366 0
-13 494 -106 349 0
-298 -66 -337 59 0
44 298 418 -66 0
-149 -245 -361 -288 0
380 -145 -17 493 0
130 161 490 -420 0
-316 -324 -312 -211 0
397 -350 -318 110 0
128 341 -272 -139 0
66 45 174 -489 0
-320 -347 -267 351 0
319 -97 -3 -398 0
304 -93 353 -441 0
274 118 -219 -495 0
238 269 75 -1 0
406 64 -434 -173 0
165 -120 90 262 0
427 271 363 -497 0
217 272 58 -330 0
427 158 -140 -345 0
-342 377 -125 285 0
72 -445 -255 226 0
499 275 11 -470 0
309 -313 -189 419 0
-287 -19 119 342 0
-165 464 389 30 0
-285 246 -171 382 0
456 -341 32 -79 0
391 289 -323 249 0
440 -460 -354 279 0
265 -415 -456 -62 0
259 -106 -119 17 0
228 -148 -223 45 0
217 -273 116 -133 0
-10 -412 -44 16 0
-32 238 -53 -447 0
265 -160 33 274 0
-271 -366 -84 -319 0
-400 257 389 95 0
-202 -88 -180 -192 0
-310 289 270 -223 0
-82 -340 288 311 0
425 -396 295 -296 0
-282 -392 -41 -178 0
148 69 86 106 0
-455 82 -334 298 0
-191 -394 378 188 0
-461 -347 -413 335 0
-390 -499 307 272 0
-307 -483 91 332 0
-51 -161 184 -197 0
-182 -444 12 210 0
132 -410 -231 218 0
468 -189 195 -390 0
447 242 189 -418 0
-197 222 359 327 0
228 179 26 499 0
-283 424 104 -257 0
498 -391 -388 250 0
-51 319 471 199 0
112 110 432 -254 0
-273 -460 -75 267 0
256 331 122 458 0
58 232 -298 -310 0
-78 -262 -21 40 0
145 497 313 147 0
30 199 475 -305 0
119 73 134 -474 0
378 204 -394 -488 0
312 -452 352 -226 0
302 -55 -31 211 0
219 477 230 -90 0
-156 179 -128 -455 0
-421 -6 366 -16 0
-310 176 -216 -278 0
181 -196 46 362 0
456 423 -55 348 0
109 215 405 -29 0
-371 -92 319 57 0
37 -317 331 441 0
-33 435 285 253 0
-276 489 468 118 0
-307 -251 -278 404 0
-113 -388 453 -343 0
138 174 266 -139 0
-279 -387 165 -413 0
-183 79 -224 428 0
45 -37 159 249 0
-58 -451 -430 -421 0
262 116 389 243 0
-322 492 485 -201 0
-461 270 -468 -225 0
137 -468 -337 -386 0
-473 -405 -311 -288 0
310 -478 352 174 0
-317 -128 426 154 0
-299 -113 -117 -306 0
493 220 -332 -343 0
36 245 -273 199 0
221 -137 -395 16 0
-89 119 -312 187 0
-240 -16 496 -383 0
-209 192 -223 -226 0
163 -467 109 93 0
-61 207 482 246 0
-258 168 -295 324 0
9 -260 251 194 0
211 321 -468 -187 0
-360 -166 -427 482 0
56 -21 351 -483 0
360 -498 -222 -34 0
447 -203 112 -297 0
-127 -118 -281 -145 0
-180 -94 -225 -356 0
-155 498 3 147 0
257 449 31 -466 0
34 116 456 -341 0
109 137 48 292 0
-272 -252 75 369 0
-25 300 289 -116 0
192 42 -125 282 0
-195 -457 -290 -374 0
-365 -333 244 78 0
163 -386 -318 -309 0
81 103 212 -7 0
-475 273 -476 -27 0
390 -372 31 -155 0
-255 -275 -246 178 0
-181 -147 -177 -286 0
-440 483 403 -394 0
498 139 -362 124 0
-192 363 113 -23 0
497 -93 -366 169 0
-93 -318 99 -314 0
-54 391 76 -352 0
172 431 -242 41 0
-345 -475 495 -49 0
112 -397 -239 451 0
-361 -161 37 -430 0
203 95 495 -365 0
-492 303 -16 -410 0
-445 -256 151 -199 0
100 -160 95 206 0
149 -42 187 242 0
-326 -343 70 335 0
386 -65 -74 35 0
364 -487 272 -13 0
-90 262 -103 -319 0
-357 481 -331 -14 0
-241 -25 -400 -275 0
-176 293 441 -382 0
-441 275 -200 358 0
-165 329 224 133 0
434 272 84 -391 0
170 141 309 -445 0
-433 367 187 235 0
495 97 370 183 0
493 361 -48 -416 0
462 14 170 -147 0
356 -190 -392 -177 0
33 -473 -102 336 0
312 -150 462 204 0
24 -482 -59 -312 0
-8 -185 -50 -427 0
32 -256 -439 -8 0
-67 -186 490 14 0
-181 -18 -241 -290 0
430 388 444 -155 0
156 329 391 -481 0
-38 310 371 119 0
455 -464 489 101 0
-228 -415 345 -117 0
-36 270 -323 -199 0
282 392 -423 -461 0
-275 -32 -401 24 0
-462 32 -141 -278 0
-55 -221 198 -433 0
141 -463 199 -39 0
427 -311 310 4 0
401 -240 492 -348 0
-33 494 -152 -23 0
447 -412 158 -428 0
157 -170 25 349 0
9 -326 -164 -388 0
83 27 162 310 0
80 309 3 -299 0
-143 370 294 188 0
-341 314 -241 316 0
-184 -91 -483 136 0
173 453 460 383 0
-418 364 11 -78 0
-72 -359 -28 -259 0
-402 -88 -381 -10 0
135 457 5 469 0
273 -194 -197 -369 0
-277 190 -76 286 0
174 247 90 288 0
380 -471 124 -342 0
382 -291 -480 -476 0
273 441 -72 197 0
66 324 -366 190 0
-499 97 67 -317 0
-464 -141 -380 485 0
354 -279 -342 73 0
359 272 422 429 0
-123 69 -391 -60 0
-461 -443 146 408 0
-329 206 -171 -39 0
402 296 -214 206 0
-301 -317 -351 -104 0
-280 -103 -487 -141 0
247 -160 454 -113 0
-316 259 -392 64 0
-328 76 38 -17 0
-214 -420 -321 -443 0
-224 -118 -434 36 0
-136 35 -126 85 0
92 -131 281 179 0
-450 476 477 -134 0
421 182 22 -136 0
380 449 171 472 0
-347 232 289 476 0
-411 296 410 327 0
265 -301 135 113 0
-254 377 -426 -321 0
231 -7 452 -316 0
-26 307 145 479 0
311 291 190 -306 0
304 45 236 -66 0
-410 -287 299 116 0
-315 -242 -146 -126 0
270 313 170 377 0
137 180 168 254 0
43 475 -31 -247 0
221 -366 322 220 0
-66 -14 -232 50 0
481 482 -318 36 0
-165 31 436 250 0
-238 212 248 198 0
23 -226 345 373 0
-492 -472 -467 -386 0
-315 24 -20 62 0
-403 436 -281 -441 0
76 147 14 -272 0
290 299 199 -499 0
102 -320 70 292 0
-69 257 -18 23 0
342 261 211 -455 0
459 -143 -120 308 0
331 300 -411 11 0
-121 376 247 -23 0
-368 58 279 226 0
-499 -145 148 -45 0
-50 -397 266 36 0
-371 -40 85 -174 0
476 352 132 340 0
110 -321 -496 324 0
483 -250 -467 -102 0
136 52 -364 145 0
170 433 -373 138 0
141 243 -142 -368 0
153 129 -469 371 0
-199 -332 -352 453 0
-209 324 231 99 0
331 59 -250 106 0
-233 307 427 -365 0
-39 -77 -331 -253 0
340 245 215 -272 0
53 -298 -376 226 0
-464 213 -169 -475 0
-177 95 129 12 0
-91 168 443 -137 0
-156 -114 -489 -135 0
346 192 382 -315 0
-381 -91 427 -202 0
-390 344 -174 3 0
-466 294 165 -105 0
-351 -28 -478 116 0
-361 -383 -390 406 0
103 -323 -450 -441 0
-240 -487 -2 -328 0
464 -201 -409 178 0
468 -156 59 83 0
-359 -482 -212 -367 0
453 -412 -459 -283 0
101 -211 -114 -317 0
454 -108 236 -387 0
-273 -222 345 412 0
-32 -405 107 284 0
62 497 432 436 0
313 -475 459 327 0
340 464 -379 485 0
231 270 -251 -351 0
417 -98 169 -255 0
-310 202 159 456 0
310 420 64 415 0
22 -195 304 -285 0
-122 -43 350 488 0
-179 -39 -122 -269 0
-162 -75 -145 123 0
-136 -338 -409 -440 0
402 425 491 13 0
-197 386 -261 372 0
433 147 99 317 0
-497 441 68 444 0
-446 -208 -209 -401 0
80 420 -382 32 0
-490 -291 223 313 0
-25 -149 298 -323 0
-157 -287 -277 255 0
-436 286 -359 417 0
-395 -469 148 -291 0
184 212 133 -328 0
-126 415 -454 410 0
33 417 -411 336 0
-40 385 386 351 0
231 -297 12 86 0
-135 -371 -55 -449 0
421 -34 -417 -44 0
-388 330 426 -459 0
300 -90 -159 -50 0
42 -419 57 -330 0
-314 219 391 147 0
-482 315 -416 216 0
-427 -189 452 150 0
-251 221 74 -265 0
-223 109 198 -235 0
133 194 280 -165 0
-451 447 -430 -414 0
-293 495 326 -59 0
-262 -59 -42 -19 0
107 -433 4 -322 0
-305 -46 -329 -432 0
429 -186 241 -82 0
-360 -113 -260 60 0
358 -330 259 -50 0
-130 -56 -260 -344 0
80 21 103 241 0
-72 -185 -98 -195 0
186 487 215 -393 0
382 449 33 322 0
405 237 387 -125 0
-374 -103 -62 -22 0
-212 478 353 332 0
142 -144 398 390 0
-29 -146 -357 -27 0
-42 -90 470 408 0
-305 -177 -121 -480 0
482 88 427 349 0
-450 -21 353 -301 0
355 -58 -314 -274 0
-466 -161 -351 449 0
140 416 -24 362 0
378 -443 -461 -372 0
392 -243 120 488 0
-427 87 -45 -271 0
60 -285 -156 -126 0
2 222 -55 -160 0
-326 -474 299 -462 0
-440 -344 388 483 0
-222 21 -345 263 0
311 367 -55 221 0
-418 -500 137 499 0
-138 100 -191 -427 0
271 131 -476 -63 0
6 472 -161 276 0
300 -120 210 257 0
317 451 -462 -274 0
298 -453 342 -37 0
424 58 139 334 0
62 432 180 -311 0
462 -132 -14 -398 0
411 -286 226 -161 0
491 -179 -300 -132 0
497 -235 -399 -442 0
-409 -376 255 156 0
261 -32 348 45 0
464 438 -60 -78 0
346 73 -85 243 0
-141 -434 126 211 0
131 383 -448 408 0
161 -102 355 -499 0
14 324 16 -146 0
91 14 247 44 0
-224 -392 134 -228 0
451 -379 -167 150 0
-344 -138 -391 284 0
-113 -420 357 245 0
59 -279 -420 -216 0
-192 -227 43 -377 0
361 411 248 186 0
412 85 -341 460 0
-97 64 -451 -226 0
211 -433 424 -46 0
477 102 -349 299 0
-364 -350 214 -120 0
446 -295 114 -202 0
291 26 320 250 0
-390 -99 -151 173 0
-156 -459 391 1 0
-99 152 -169 -57 0
398 497 324 -422 0
-112 -339 -48 -99 0
-406 -286 -324 272 0
-257 185 -283 184 0
-83 -148 -78 -311 0
431 189 227 162 0
405 -228 28 -272 0
-335 428 -300 -209 0
-304 459 -31 -151 0
-186 -84 -160 -204 0
-8 -21 362 281 0
-113 -141 195 78 0
226 -152 421 225 0
-382 -152 104 -243 0
73 -498 -460 -325 0
-470 453 -130 153 0
-219 479 -482 251 0
54 -309 251 -388 0
323 37 366 225 0
450 126 -429 -318 0
51 -352 301 -343 0
-124 481 6 -436 0
-5 -24 -118 -65 0
-169 168 -165 -118 0
258 -486 140 231 0
-252 224 -300 -232 0
-127 -20 -291 315 0
-191 -121 496 -474 0
37 367 -241 -447 0
-112 302 -169 335 0
-240 59 -210 69 0
-458 344 121 27 0
-452 -52 239 -205 0
75 33 -216 244 0
-451 -135 -499 -51 0
-447 -39 -385 423 0
-271 -417 -303 -136 0
111 -373 151 -368 0
89 431 -412 192 0
-352 400 130 -180 0
-52 -10 -119 44 0
332 -407 -146 358 0
401 122 -213 156 0
-31 -459 37 69 0
480 484 154 21 0
-391 436 70 -127 0
72 -405 -398 187 0
490 -396 428 375 0
-461 -397 -416 362 0
111 146 22 475 0
-283 -152 -314 -186 0
217 88 338 -474 0
-108 193 -47 435 0
474 -282 -42 420 0
393 -410 112 469 0
-25 401 437 -281 0
431 58 454 -262 0
397 206 -93 -105 0
416 397 443 169 0
243 -310 499 -409 0
-212 -16 -353 -327 0
-392 447 273 -390 0
77 -244 70 -151 0
-186 39 382 -325 0
275 310 -404 -382 0
320 -48 -460 -76 0
-150 444 -452 -263 0
-308 130 207 156 0
404 -116 -281 148 0
88 -215 119 -451 0
-169 -67 -277 344 0
-112 -378 218 40 0
389 451 106 -493 0
282 -437 -85 55 0
335 -34 139 399 0
206 -326 213 -456 0
112 -214 -402 -263 0
138 159 378 -367 0
313 359 248 -477 0
126 69 -62 436 0
-139 102 281 -442 0
-430 -477 122 194 0
80 -492 430 452 0
-356 360 -406 -253 0
34 -422 255 353 0
488 181 -466 53 0
92 162 462 277 0
397 269 -197 19 0
-410 139 -335 126 0
72 225 323 471 0
-254 -61 -184 -348 0
148 -137 200 66 0
37 319 361 -53 0
-106 -206 281 60 0
153 -406 -99 348 0
279 -124 388 -50 0
384 -407 420 -380 0
-366 210 -335 -299 0
492 280 487 -356 0
-360 -295 112 -92 0
-475 -118 -425 -223 0
119 351 -71 80 0
303 278 -448 496 0
46 214 -296 -57 0
-278 -330 -79 385 0
-348 -90 -284 -391 0
-116 261 430 269 0
-207 142 -173 175 0
164 -254 -272 -404 0
458 381 -66 311 0
54 115 -381 -113 0
-161 -381 -87 -82 0
-195 149 -457 442 0
168 368 244 -408 0
362 233 -42 111 0
301 27 -89 319 0
471 216 490 -331 0
-412 -443 -375 -429 0
-296 2 482 63 0
42 353 -407 -261 0
-274 163 -226 284 0
480 307 476 -288 0
-163 -12 -62 -271 0
16 255 481 417 0
78 -25 -302 -209 0
-260 -417 -221 -392 0
-481 -438 -155 -426 0
-311 125 -461 234 0
-496 91 -88 345 0
-41 201 402 -48 0
-354 472 18 -345 0
-180 -37 -437 272 0
-353 42 152 270 0
-188 -233 -38 -68 0
-74 -19 -228 -97 0
488 258 69 -124 0
163 433 307 79 0
61 229 -22 -50 0
90 69 235 232 0
-455 459 -120 -356 0
461 -145 -14 116 0
-21 35 447 -43 0
239 21 322 258 0
69 -74 182 -307 0
-145 318 -428 -56 0
358 -307 -419 -327 0
-479 -406 -120 -284 0
-324 128 15 -446 0
-483 -304 -118 153 0
-492 -198 136 -1 0
145 -275 -469 -134 0
-303 244 -211 -381 0
204 345 340 -79 0
158 239 -500 366 0
253 151 -179 -87 0
-143 95 -102 107 0
-183 454 430 -30 0
488 485 466 339 0
-293 -180 308 154 0
-154 34 454 -142 0
80 439 388 233 0
319 212 -367 164 0
-454 116 34 -481 0
-296 -85 51 -158 0
-350 301 -17 125 0
391 320 325 166 0
-70 351 172 -387 0
-10 347 58 -44 0
-215 103 -104 193 0
-49 449 -332 -227 0
-311 -383 185 181 0
146 93 -176 396 0
162 283 315 -98 0
90 -185 -339 -246 0
-188 351 244 158 0
-220 362 74 -360 0
-140 133 63 146 0
289 -453 472 -376 0
29 -438 331 -497 0
-52 -450 70 138 0
165 327 323 347 0
-428 -138 -327 334 0
-98 -87 365 -34 0
211 -143 177 249 0
29 -166 -234 434 0
-196 450 138 -174 0
454 -213 26 316 0
-93 -348 211 -283 0
430 351 488 -377 0
-415 395 159 -125 0
-276 12 -248 -130 0
398 -237 -8 -482 0
173 154 71 -10 0
121 292 -377 -130 0
500 33 128 248 0
-146 145 53 335 0
-302 -233 -471 347 0
470 456 -107 -483 0
-250 468 377 -166 0
465 -331 227 -190 0
-15 -492 264 388 0
-219 326 -328 65 0
281 469 312 -353 0
-186 -203 25 -368 0
-451 57 385 78 0
-118 453 488 -28 0
-223 -500 -438 173 0
-28 -498 257 -496 0
235 188 36 -240 0
-338 -313 -110 111 0
257 39 18 -311 0
304 -353 207 -297 0
-4 303 -310 -413 0
-109 456 -22 440 0
426 165 490 211 0
-408 -56 461 388 0
49 -317 464 -405 0
397 87 -279 -258 0
348 487 -13 -338 0
491 394 435 357 0
45 412 -478 399 0
-390 109 -371 -172 0
125 -485 303 -51 0
211 31 -192 370 0
-289 -41 -182 369 0
-490 137 -118 440 0
-411 -77 -468 -1 0
-445 144 213 -9 0
355 -256 -169 -332 0
204 -238 -463 -161 0
-198 245 -151 -430 0
-228 -440 318 -397 0
1 -19 -321 366 0
354 -250 280 59 0
-411 -74 -281 -16 0
-150 -313 413 85 0
277 -192 -492 -450 0
355 -332 352 -156 0
386 -21 126 -417 0
-295 60 423 -309 0
323 -45 -101 -154 0
-341 -261 109 -174 0
364 470 -396 -498 0
188 478 -158 230 0
185 174 -134 79 0
-460 -401 452 278 0
157 222 -244 327 0
-12 406 -93 -287 0
-250 86 -160 -30 0
77 -41 -307 -83 0
282 -216 -353 -270 0
484 2 -226 -298 0
-124 490 -227 277 0
233 -320 489 -39 0
-36 169 158 34 0
499 -129 -25 -411 0
289 -252 -443 -122 0
-401 207 -439 233 0
423 -211 -188 196 0
164 -440 450 -411 0
-335 461 -289 -410 0
-130 -490 -277 -152 0
293 356 338 -340 0
235 -471 -17 -219 0
-394 284 -300 232 0
-240 169 86 -302 0
-425 112 -267 263 0
181 313 123 -225 0
182 223 142 -96 0
-470 -245 224 -298 0
-497 223 250 118 0
383 -450 -308 414 0
107 301 -135 73 0
217 -141 -294 -102 0
218 141 -109 221 0
224 -279 89 30 0
320 -23 -165 27 0
420 411 -23 -206 0
313 -192 393 -52 0
359 -312 126 -80 0
-457 -152 223 319 0
443 138 -216 235 0
-235 -46 -253 -312 0
-436 368 -212 121 0
-283 80 -267 77 0
201 43 -215 -419 0
237 -396 -358 -284 0
187 342 -270 -294 0
211 -449 222 67 0
256 -416 489 433 0
-390 135 19 126 0
-395 402 -191 -115 0
102 -197 208 365 0
-2 -250 433 -499 0
304 110 -439 94 0
-270 343 -257 -412 0
291 -385 -108 -105 0
138 447 476 419 0
-139 -301 -440 -227 0
-378 466 428 215 0
-160 -247 53 125 0
-434 486 -268 -469 0
194 126 -321 -186 0
251 55 200 -301 0
345 -379 -190 474 0
-226 -77 199 -30 0
-283 -370 -30 -347 0
62 -243 124 482 0
-192 -344 357 363 0
-14 -15 275 270 0
483 407 -73 -240 0
404 -483 307 316 0
2 -168 206 358 0
-114 -111 106 423 0
-472 382 -375 433 0
-296 -35 203 123 0
293 -196 -457 398 0
-153 464 -177 -457 0
-304 -401 37 173 0
-28 -144 253 40 0
72 -118 -144 427 0
-162 -126 246 -43 0
-48 -203 32 71 0
232 351 -173 419 0
375 492 68 -332 0
498 289 -159 365 0
-90 458 148 -81 0
-363 -489 -399 288 0
459 -248 10 129 0
48 497 494 444 0
186 40 347 136 0
-458 134 -64 -113 0
-382 339 -196 -426 0
-263 -148 -20 -356 0
-280 -322 195 -148 0
264 127 133 -4 0
377 44 -68 113 0
224 -26 313 265 0
31 -400 189 -294 0
370 -380 385 -466 0
-417 78 151 -163 0
-53 454 -167 -358 0
-476 224 225 174 0
423 -310 258 464 0
44 -80 -169 -346 0
179 485 -127 106 0
10 129 -475 321 0
-29 -400 91 -12 0
-29 178 -316 134 0
-293 385 35 -225 0
-152 -364 -120 -206 0
-429 -130 -172 -213 0
427 -248 -206 -406 0
288 -446 55 201 0
285 -374 370 72 0
-209 221 -201 -415 0
-90 -482 -475 -483 0
490 365 -148 288 0
330 -73 -80 215 0
41 59 -115 -474 0
433 -99 -361 -316 0
-421 -175 -354 -345 0
-454 48 -475 152 0
352 125 -311 246 0
-132 76 -201 -432 0
-305 29 231 148 0
-397 -192 45 132 0
-152 -453 -381 -165 0
485 51 -67 -41 0
-41 -355 161 142 0
-91 -391 -375 -136 0
159 -400 364 -273 0
-277 -33 -485 -110 0
220 -375 472 107 0
-190 275 254 159 0
195 385 -119 -352 0
-198 191 -313 -14 0
15 -437 282 -359 0
166 -246 73 -359 0
198 192 -493 -423 0
307 -397 -443 173 0
-379 89 -119 488 0
214 497 202 -351 0
-320 -184 -67 -458 0
-305 295 268 -487 0
368 317 186 -366 0
459 73 -386 157 0
-14 -215 -134 384 0
-61 -370 359 205 0
-326 168 435 29 0
-124 15 -441 -440 0
-193 254 -312 -378 0
-416 207 376 296 0
308 61 -16 -58 0
428 89 27 -90 0
-138 166 -170 -193 0
143 216 342 -462 0
36 -379 211 421 0
-199 242 -466 -445 0
420 215 288 -86 0
366 -440 2 -289 0
352 -122 -462 -66 0
-18 -182 -82 -248 0
239 104 -81 446 0
486 -373 209 397 0
-197 -441 341 47 0
32 -134 364 249 0
-66 46 -121 -18 0
-271 -99 267 -377 0
101 449 -267 -370 0
-384 -460 353 417 0
-496 180 -9 96 0
-184 326 425 414 0
-486 492 118 209 0
51 243 129 229 0
202 -65 -374 15 0
-211 486 -11 76 0
263 114 142 368 0
381 346 95 -203 0
31 484 -310 -437 0
-291 -27 -455 -17 0
313 456 -290 443 0
-285 -491 -38 346 0
-195 -220 27 -285 0
-307 -324 -436 -303 0
-455 432 -231 -135 0
137 -387 153 363 0
-427 -319 -67 -171 0
-181 343 437 165 0
352 89 -250 80 0
148 -74 314 83 0
-465 330 -40 272 0
448 417 -398 278 0
464 -102 -62 -314 0
-163 375 -178 363 0
2 221 350 41 0
-173 335 -212 20 0
467 10 -170 75 0
81 -354 240 288 0
230 431 261 399 0
-79 -108 10 -210 0
264 -228 -263 -497 0
-427 -280 21 466 0
408 7 -469 233 0
-93 -116 -85 -273 0
-160 -352 144 493 0
-10 250 -493 268 0
-473 -245 193 -116 0
461 -471 -391 213 0
-214 233 77 -171 0
-435 -383 142 -477 0
-32 -88 -182 -383 0
-2 437 44 -269 0
257 209 -181 34 0
-297 242 -108 -473 0
-245 347 131 92 0
-416 -169 -227 58 0
18 284 -388 -244 0
-304 -390 -181 209 0
416 -493 290 -151 0
-269 -116 6 -475 0
-107 -188 423 271 0
-485 338 66 163 0
-428 172 -173 -19 0
-152 -344 -23 72 0
465 -104 237 361 0
141 -24 -444 -264 0
484 -371 12 283 0
189 410 -428 327 0
96 157 376 162 0
354 427 116 -394 0
193 -437 146 406 0
196 99 119 343 0
-58 144 2 385 0
246 81 42 491 0
373 -365 -26 84 0
-408 184 419 -27 0
-340 -130 317 6 0
302 -256 431 295 0
385 -440 427 -257 0
-187 215 65 -465 0
184 140 237 399 0
378 -55 137 -355 0
-367 400 -431 43 0
306 492 316 127 0
222 -164 -479 -328 0
-74 -131 -244 57 0
144 -65 314 421 0
22 -68 -355 473 0
-500 266 -420 396 0
262 467 378 -481 0
-110 -134 -215 374 0
-434 -295 94 409 0
369 134 329 -276 0
-424 -438 139 -486 0
-324 -442 -134 135 0
62 -325 111 188 0
93 -464 -248 -496 0
256 361 -39 496 0
-322 -464 -304 434 0
359 443 -24 381 0
-458 235 336 -382 0
213 313 -170 -260 0
-451 -382 -352 -251 0
-237 127 324 -358 0
465 204 412 5 0
-481 -312 200 151 0
-299 263 -491 332 0
-466 83 -27 -1 0
414 -488 135 -69 0
-160 -448 -467 -212 0
-389 22 116 470 0
155 130 385 42 0
229 177 270 -476 0
380 147 -465 -345 0
-264 46 291 -287 0
-393 31 320 -453 0
93 101 -409 40 0
-223 352 -99 -435 0
-350 -62 -76 481 0
-231 155 -113 -492 0
-202 -138 341 483 0
82 -116 -475 -252 0
76 111 -77 -80 0
-378 -352 447 193 0
401 -283 -448 -167 0
140 -75 -238 -398 0
84 439 107 -461 0
33 140 -131 266 0
363 355 216 -178 0
369 238 -407 -54 0
36 -39 -147 133 0
-274 -72 82 470 0
150 -426 401 -418 0
416 220 209 200 0
304 -326 89 -367 0
353 171 -103 -22 0
239 -349 -192 297 0
-54 307 -277 -486 0
240 -396 231 194 0
-322 467 56 -124 0
-464 -459 -136 -10 0
382 -29 -18 -417 0
244 289 336 -113 0
-93 239 -308 -74 0
337 -435 -117 465 0
-493 197 -163 -161 0
-414 486 218 315 0
-30 -241 -202 473 0
497 -283 -419 -140 0
92 -397 189 -258 0
-206 199 345 155 0
-466 425 -476 154 0
320 381 -234 122 0
148 429 447 -261 0
-176 -248 361 342 0
-334 -110 -147 237 0
-445 -460 142 -430 0
164 -61 335 -136 0
-364 322 417 84 0
-5 -341 50 331 0
87 18 421 265 0
205 439 317 -3 0
438 168 -300 267 0
293 -126 157 -316 0
53 48 481 459 0
406 193 300 -111 0
230 165 398 -352 0
181 -195 213 474 0
-318 228 -412 234 0
97 -154 136 37 0
252 -450 108 396 0
-118 41 184 249 0
-296 492 453 301 0
-479 -160 97 84 0
151 -443 491 -249 0
-255 7 219 -117 0
-194 472 452 28 0
-151 -2 250 -54 0
-451 42 498 -174 0
-233 -86 341 373 0
-35 446 108 -368 0
-330 468 319 410 0
-181 -485 61 48 0
-365 90 307 -215 0
158 486 37 255 0
435 -489 430 -95 0
392 262 -289 146 0
435 -56 -275 -134 0
-497 142 295 -498 0
394 -424 -420 -139 0
382 -229 258 491 0
343 -191 -81 190 0
-248 -317 86 -89 0
380 -463 363 -357 0
466 339 -182 -194 0
418 -478 353 83 0
-188 206 335 499 0
-118 -352 470 8 0
-365 -453 -257 -392 0
-392 447 -234 7 0
189 149 -350 -191 0
361 -121 -251 289 0
-427 -100 -159 -79 0
351 -475 -418 -371 0
475 -168 164 357 0
126 430 -487 146 0
-479 60 -418 -115 0
-43 -187 427 101 0
-498 4 101 -491 0
-373 -333 -253 -216 0
42 -116 395 204 0
-201 215 -51 254 0
428 -402 -24 -430 0
344 -488 -242 155 0
-234 142 -99 -215 0
-170 -214 20 493 0
-136 -496 425 -235 0
-421 406 -195 -480 0
-423 49 -321 39 0
-225 396 60 -232 0
-138 351 -203 -492 0
292 158 -232 -254 0
-98 -100 -220 87 0
-258 76 495 -282 0
124 282 -409 -426 0
288 -210 96 -396 0
-201 -156 -358 27 0
-426 428 -137 -369 0
-442 226 326 -420 0
465 -344 84 -455 0
73 327 -258 -348 0
279 449 425 -2 0
267 445 -35 175 0
424 -18 -70 291 0
-291 330 297 338 0
143 45 149 494 0
97 -85 33 81 0
499 38 201 347 0
-42 341 205 118 0
436 372 63 -383 0
-285 -264 -304 380 0
-233 -313 -253 -132 0
481 439 233 176 0
305 -265 362 -159 0
-85 -330 401 28 0
362 -347 -480 -337 0
151 172 366 218 0
380 491 -68 -463 0
88 -52 -214 -96 0
326 -210 408 -42 0
464 145 59 -424 0
60 -260 -351 310 0
370 -119 389 126 0
-374 210 -385 157 0
390 226 -321 141 0
-28 449 306 422 0
31 321 118 -304 0
-51 -242 35 493 0
-23 -484 -285 -85 0
465 -440 293 311 0
-6 183 -366 403 0
119 326 289 413 0
-278 238 -347 -265 0
-500 363 -432 -497 0
197 252 -394 -485 0
68 153 -86 245 0
71 448 -193 -67 0
15 -200 171 219 0
440 -286 161 -326 0
142 216 -338 -344 0
320 317 -145 -363 0
-377 -31 -64 -72 0
-87 -469 370 -214 0
-363 -415 499 -467 0
-88 360 -218 361 0
121 -498 353 103 0
-14 -396 -386 -35 0
429 -417 17 272 0
89 -35 -197 -60 0
23 162 363 7 0
31 329 -500 267 0
-445 -302 118 263 0
196 23 447 -17 0
105 -180 -181 346 0
389 -266 -154 -16 0
-395 274 -30 405 0
188 213 311 -246 0
212 289 122 58 0
289 109 -359 374 0
196 77 -357 275 0
204 -275 -232 -253 0
-487 -99 80 -95 0
-232 -118 -325 335 0
-320 55 -420 435 0
95 281 -494 222 0
-166 27 309 408 0
-359 -179 226 -194 0
-196 276 -283 438 0
-411 426 419 -216 0
7 445 -273 153 0
386 -231 -138 486 0
-437 -190 453 371 0
-18 284 233 -359 0
272 326 -342 212 0
165 239 -488 -81 0
25 116 68 -496 0
46 -266 234 226 0
494 -213 127 -94 0
-355 231 -28 342 0
-41 419 372 -474 0
-435 -469 -139 -253 0
378 -225 399 61 0
-454 39 425 -340 0
464 -384 12 -277 0
-73 -114 -34 136 0
-116 -296 96 -188 0
325 161 77 -14 0
-211 -127 221 -183 0
152 60 -492 -423 0
-295 34 449 78 0
345 -245 102 374 0
397 -449 -308 -11 0
-433 260 -210 -33 0
-308 249 -99 120 0
-496 456 -274 -8 0
265 -367 468 366 0
107 172 -138 -84 0
420 252 -216 -36 0
253 -465 108 469 0
482 -419 -34 142 0
-268 -279 240 192 0
468 132 282 -151 0
285 -251 212 -169 0
466 478 -449 155 0
-19 136 -333 269 0
-210 -58 -9 415 0
-16 201 -212 -143 0
261 -166 -341 273 0
-336 -64 356 315 0
228 216 126 362 0
-198 168 222 -265 0
30 -141 203 -435 0
182 -485 16 297 0
-2 -341 -19 48 0
-120 -461 316 352 0
-192 -385 374 443 0
146 494 -20 157 0
298 99 228 442 0
-223 144 439 -16 0
-456 372 -6 -158 0
-259 -345 -153 -208 0
306 34 -175 -199 0
-85 -339 287 499 0
-256 -143 218 -170 0
251 466 242 -349 0
-300 -133 -381 -179 0
-128 -422 -24 -381 0
163 -188 9 263 0
284 -9 476 487 0
-328 -464 182 -258 0
-390 320 428 396 0
304 428 -283 -384 0
440 469 74 -146 0
-387 -495 408 -196 0
-485 314 143 -118 0
161 -118 169 106 0
49 276 -201 -232 0
-80 215 -107 -434 0
-100 -217 -431 375 0
182 -424 211 -193 0
-7 297 -305 -329 0
-171 290 156 -360 0
-422 178 289 290 0
227 -314 -92 -326 0
209 -491 -485 263 0
407 291 -416 -227 0
257 333 -315 401 0
-51 410 -310 166 0
7 -156 -26 -111 0
-156 171 351 -358 0
183 -346 418 128 0
374 -49 139 -236 0
-258 415 177 136 0
-436 500 498 -178 0
-228 287 305 266 0
4 -186 214 244 0
233 188 -294 216 0
-376 -132 -245 193 0
-305 -289 123 -59 0
454 268 39 497 0
-435 -162 262 -154 0
-144 -97 313 -239 0
129 318 -1 10 0
192 106 -257 380 0
-291 345 -321 -387 0
-260 108 -58 277 0
-367 -490 13 -358 0
287 -473 301 305 0
-481 -287 227 -280 0
30 425 305 106 0
-121 409 -328 249 0
-224 -201 487 -344 0
197 466 172 -69 0
18 270 233 -362 0
-120 -444 220 154 0
440 354 -205 -73 0
467 317 -62 345 0
-416 109 -194 -152 0
453 -183 -138 125 0
-102 -157 171 136 0
-131 -157 456 -242 0
-198 285 -15 -186 0
308 -167 -162 295 0
152 72 -475 56 0
348 479 192 -102 0
410 240 -497 -316 0
-87 -469 -181 -323 0
-148 -173 -37 265 0
-148 255 -428 -492 0
329 -65 -257 9 0
-467 364 -210 447 0
-261 -380 214 -259 0
361 -39 -45 -199 0
-330 429 335 -260 0
188 -57 260 178 0
-107 274 92 -171 0
296 436 489 423 0
-379 85 -349 -80 0
-251 364 -229 36 0
-372 109 -426 422 0
-428 -443 -4 493 0
-99 369 499 -87 0
-88 308 352 446 0
-344 -72 206 -343 0
-389 177 144 327 0
38 241 151 -421 0
-27 -211 -312 10 0
264 -246 -21 -160 0
-46 -291 315 -76 0
-144 397 -286 322 0
-393 426 237 -450 0
-211 417 304 -416 0
4 -341 374 -251 0
353 -289 -80 44 0
-347 -281 76 424 0
-40 -208 -486 -443 0
283 458 210 -134 0
172 16 393 -293 0
-38 -210 332 269 0
65 -163 -124 -173 0
-399 -196 -285 -228 0
487 500 -207 232 0
-139 441 -487 -371 0
-280 271 -303 -500 0
-442 303 -180 398 0
-54 -313 -40 -171 0
-268 214 -53 188 0
36 -263 -98 243 0
424 372 46 -117 0
218 474 -105 -257 0
230 161 215 456 0
-26 394 419 -418 0
11 259 -176 5 0
485 -151 -433 343 0
103 485 230 304 0
-319 -181 -289 -44 0
240 -462 411 430 0
311 465 -297 274 0
-294 -143 451 460 0
-73 478 -168 353 0
-109 60 -35 260 0
-131 -47 -97 352 0
265 -233 -268 -57 0
48 434 148 40 0
344 -452 283 146 0
364 429 293 30 0
241 157 258 -134 0
-205 -398 -313 -334 0
-341 -159 -38 253 0
-311 141 437 314 0
-238 390 -100 331 0
-118 -463 -378 4 0
-139 144 78 -155 0
-60 18 484 263 0
360 -248 -329 -264 0
378 -281 -199 311 0
-432 404 -148 63 0
368 223 207 91 0
-176 9 -412 -100 0
-114 243 166 -91 0
-21 453 310 282 0
484 356 -388 43 0
324 -246 -86 222 0
-271 -276 17 -53 0
47 -330 390 153 0
76 461 -405 -487 0
201 412 102 428 0
-84 230 188 21 0
-412 371 -447 148 0
198 -124 438 60 0
14 -452 408 458 0
-81 -230 486 7 0
250 -97 73 -48 0
-65 366 -449 -35 0
-428 -231 366 339 0
146 228 -28 -196 0
10 -385 -286 343 0
-114 -96 202 -140 0
1 238 13 329 0
251 -474 442 -467 0
-364 -1 442 211 0
-141 331 -169 -151 0
-429 -369 28 277 0
29 337 102 43 0
108 -82 -178 -212 0
16 -266 -290 -210 0
-465 -334 210 63 0
280 -287 351 476 0
-311 -236 206 139 0
-438 -278 -87 7 0
28 224 -348 309 0
-39 -385 -174 437 0
-401 -494 124 497 0
162 249 -442 306 0
-140 -65 -101 52 0
88 -152 481 251 0
-445 -8 6 427 0
-300 155 -184 193 0
72 457 141 -151 0
447 262 -94 53 0
299 -306 -45 -270 0
308 389 -352 68 0
-38 258 -187 409 0
364 296 -292 224 0
94 53 -149 154 0
-340 -182 225 -445 0
457 -89 127 46 0
401 -439 -195 -465 0
-485 -275 166 69 0
-130 103 323 316 0
-235 465 -290 -209 0
-178 37 -244 -152 0
94 -167 -114 227 0
-346 -40 73 -483 0
148 -212 -424 447 0
-431 -238 -398 464 0
146 -404 414 395 0
-187 177 -249 248 0
258 -35 106 -164 0
220 -70 -99 -359 0
384 -161 122 269 0
423 -146 -295 -99 0
-448 198 -199 -388 0
161 207 -333 -300 0
-238 204 -379 -84 0
-149 -340 -118 154 0
-410 -100 293 22 0
-496 129 -317 8 0
180 272 -362 -426 0
-213 -479 349 450 0
-284 -48 -173 -451 0
51 106 -273 446 0
450 -87 293 20 0
-484 145 -11 318 0
3 -248 -443 -184 0
214 170 112 338 0
-500 -325 485 -179 0
-334 4 -254 -193 0
-19 11 -150 174 0
277 332 -178 -300 0
-183 -229 294 97 0
337 298 -343 151 0
-12 -38 -107 497 0
422 485 365 -293 0
291 -208 -155 251 0
-287 108 348 99 0
216 255 -378 -439 0
-405 114 -40 -65 0
288 -216 430 359 0
433 -396 -53 345 0
491 -496 379 348 0
69 224 143 146 0
186 -491 -1 484 0
290 -277 30 174 0
-433 271 227 -454 0
-259 467 464 -300 0
-256 344 177 351 0
-34 -74 -311 -47 0
3 -91 -277 -261 0
470 322 452 -280 0
-380 -488 3 -424 0
-409 155 -124 -492 0
-18 394 47 -272 0
170 58 -240 128 0
94 -238 -361 400 0
316 -208 -230 -89 0
423 422 -406 150 0
-180 -84 418 -104 0
362 -483 -352 -79 0
-436 417 68 -23 0
425 431 232 -442 0
-83 -337 206 -470 0
-373 -308 40 298 0
185 19 -4 251 0
-14 26 50 409 0
-171 141 -334 -5 0
-5 -475 117 181 0
-192 -10 463 -364 0
356 -38 304 204 0
477 -249 -227 93 0
-391 3 433 -298 0
273 -82 406 119 0
-345 -432 -213 79 0
176 117 -351 -156 0
204 -379 -270 43 0
-485 -134 -159 -338 0
-171 58 -18 -100 0
249 391 49 302 0
-315 444 -141 -331 0
-172 -479 -255 390 0
-488 -307 -104 348 0
-497 9 419 340 0
422 464 -17 302 0
401 -342 -393 256 0
-91 455 374 -11 0
429 294 -437 -71 0
-52 354 -345 -61 0
395 -406 -210 -155 0
-407 -351 284 452 0
303 -136 -490 7 0
39 24 287 -366 0
-64 -353 -408 -231 0
103 -460 303 459 0
-363 -450 147 -339 0
-166 267 199 297 0
400 -214 152 -363 0
-408 239 153 159 0
10 239 -419 -179 0
-496 -369 262 -390 0
399 206 74 -369 0
-145 -135 29 -259 0
166 244 -27 -223 0
414 333 326 489 0
348 -312 -180 323 0
-192 -390 302 -426 0
-206 344 422 418 0
407 100 -277 -354 0
93 439 59 477 0
-392 488 -69 -40 0
81 -148 -415 474 0
407 -472 -151 456 0
156 -327 -406 269 0
-84 354 5 222 0
493 104 -297 96 0
-457 273 452 334 0
-159 -24 -144 225 0
162 28 -327 -240 0
-365 -368 437 29 0
-270 -176 -360 328 0
102 -482 303 44 0
88 57 -63 319 0
-483 89 -234 -335 0
-6 497 -67 -482 0
-78 -217 450 333 0
-455 -371 -219 210 0
132 -79 219 -200 0
303 -338 -331 444 0
493 445 -279 -30 0
184 292 148 -345 0
-346 -42 426 316 0
170 38 -442 155 0
298 -14 433 331 0
104 283 99 -248 0
-447 141 -91 -97 0
-244 -83 -257 213 0
-424 375 377 113 0
123 417 -473 445 0
-244 109 -191 145 0
426 296 399 -328 0
-460 -397 365 -85 0
22 388 -108 403 0
464 77 42 -289 0
-451 124 69 80 0
-51 382 112 371 0
-305 -107 193 137 0
196 -126 39 -54 0
312 -158 209 331 0
268 -476 -188 -495 0
139 61 -94 14 0
-163 -232 178 57 0
-241 -218 -431 248 0
486 -32 -59 30 0
-49 331 -409 151 0
392 -408 -119 -177 0
-450 -26 356 105 0
-392 129 485 21 0
237 -248 -359 -123 0
225 59 49 237 0
89 -61 -104 -385 0
-311 391 226 235 0
165 -274 -466 -486 0
24 78 165 -328 0
-158 -41 312 227 0
-149 -126 337 446 0
-141 -289 378 -249 0
-260 -423 152 -477 0
-50 300 100 311 0
-352 -290 -18 241 0
161 -124 -442 490 0
-207 -337 -370 77 0
452 178 -357 92 0
357 -343 -283 -177 0
434 -390 13 -257 0
290 457 -62 -16 0
-42 -234 -11 -224 0
-166 141 -133 189 0
473 -146 -393 -389 0
-318 50 406 88 0
-76 16 176 -79 0
-284 -444 -161 -8 0
-467 -166 277 452 0
-397 76 86 -327 0
440 -299 61 -56 0
-237 -263 -150 -427 0
497 446 131 101 0
191 279 351 -86 0
283 -181 -90 58 0
-371 336 -64 -296 0
51 199 -192 156 0
-122 119 -435 136 0
461 68 -138 31 0
-132 -314 57 -258 0
-428 59 -193 -438 0
-317 -479 17 -285 0
-238 -366 403 -321 0
-73 -126 -79 -367 0
264 172 -12 -433 0
-331 -154 -57 143 0
145 -409 -329 -306 0
-414 425 359 -277 0
-294 -141 443 60 0
-172 178 -479 335 0
21 437 343 -107 0
364 267 134 -12 0
-438 -435 -308 -350 0
-89 184 -311 -112 0
-354 -406 -64 -310 0
295 -60 -325 152 0
-257 282 147 145 0
189 -259 260 -24 0
178 -457 -448 -80 0
-433 -440 -188 -158 0
119 -257 202 -374 0
326 -450 -405 379 0
164 241 6 -467 0
367 -111 476 119 0
-427 379 128 429 0
154 -88 408 325 0
-191 -433 -377 -469 0
-177 -307 202 379 0
-255 -99 -346 -187 0
449 -415 69 -293 0
-105 135 -245 -113 0
-173 273 377 -385 0
65 157 -301 491 0
459 288 -188 457 0
-466 -421 -487 -280 0
208 -392 198 -177 0
33 -342 -105 -303 0
79 -136 354 -194 0
-406 -161 -227 380 0
398 -459 -46 251 0
285 -249 198 420 0
-85 416 -79 379 0
-353 237 -401 408 0
163 55 -450 -75 0
-490 263 -317 -354 0
401 442 -176 162 0
-162 -205 -348 -99 0
-54 157 410 -36 0
118 223 -385 229 0
46 76 -279 413 0
126 -479 -67 -202 0
352 -485 -184 228 0
112 182 -312 -488 0
88 158 -390 -191 0
-202 437 326 -85 0
492 455 315 -89 0
-355 -382 493 397 0
403 412 -497 -358 0
235 -155 194 -254 0
-141 -210 -275 -453 0
-207 18 -362 -14 0
-36 -430 168 -283 0
342 92 313 -413 0
423 471 212 366 0
-240 220 59 340 0
-245 -199 120 244 0
-202 -51 317 -370 0
-438 -75 143 146 0
-3 -349 -268 -169 0
-70 30 -345 -145 0
-122 412 -165 271 0
-144 -220 -440 332 0
183 303 -401 159 0
-172 -101 93 -86 0
260 325 370 43 0
-301 -216 -302 -428 0
-87 -199 -83 296 0
-341 178 400 -439 0
-395 77 481 14 0
-444 423 -127 -286 0
-103 51 -323 -107 0
300 482 -33 194 0
-481 188 -311 -175 0
-286 -361 -206 419 0
-87 -209 -498 -417 0
-49 468 -267 -63 0
-452 66 146 34 0
-159 372 -251 -10 0
9 -65 -25 213 0
417 386 93 115 0
287 317 475 269 0
-50 -399 -176 356 0
-6 146 -16 -300 0
-164 -50 -236 17 0
-482 -219 332 -478 0
60 -126 -478 291 0
204 107 16 -448 0
133 -208 -316 -185 0
180 -6 -7 136 0
190 -380 -326 -470 0
-90 86 49 -325 0
-407 263 -339 -79 0
-296 -422 -136 489 0
121 209 -338 -71 0
-67 -454 -84 -478 0
-62 -301 -21 -161 0
346 231 335 270 0
320 -208 -241 70 0
-19 368 97 -364 0
343 -194 -331 384 0
16 -448 -442 223 0
326 479 10 26 0
-111 -175 -459 494 0
-73 -372 203 23 0
-166 183 -1 -360 0
317 8 -443 124 0
