c Large 3-SAT formula for GPU testing
c 1000 variables, 4300 clauses (ratio: 4.3)
p cnf 1000 4300
-382 167 600 0
-2 -909 952 0
349 202 -890 0
392 -332 114 0
742 -462 -441 0
569 -800 161 0
361 -617 353 0
387 971 35 0
912 817 503 0
855 734 -649 0
-729 731 -681 0
564 927 753 0
-965 950 -200 0
-163 -258 441 0
246 -410 -585 0
135 370 -557 0
-281 494 -2 0
-59 313 -935 0
520 113 -593 0
-997 244 173 0
-384 -434 803 0
-288 -390 -38 0
455 256 160 0
-982 783 473 0
403 636 971 0
-927 -157 -638 0
607 190 -163 0
-942 -991 899 0
-347 -976 -703 0
543 216 -23 0
-810 -350 -137 0
-479 451 373 0
709 -432 -465 0
-421 -369 854 0
-436 -167 528 0
218 475 801 0
490 885 175 0
-763 -624 -614 0
94 -907 818 0
-506 523 919 0
826 -383 -607 0
-415 413 -782 0
-9 -992 642 0
-86 395 584 0
-190 -336 873 0
-671 153 -136 0
33 -333 -262 0
-541 401 132 0
-893 490 456 0
590 5 -720 0
-721 328 289 0
317 451 150 0
-466 -989 -794 0
-94 -944 -564 0
932 -574 -43 0
390 311 732 0
892 332 477 0
-754 -46 -127 0
-19 -929 408 0
891 -169 304 0
-617 -309 560 0
-858 74 860 0
626 -718 744 0
-707 -786 -751 0
667 57 -413 0
172 837 -448 0
-762 636 844 0
-28 -662 -622 0
-128 -166 422 0
342 525 -796 0
655 -593 -9 0
46 -522 68 0
813 119 541 0
86 -596 562 0
241 -993 741 0
-233 -263 865 0
591 -988 651 0
-714 -956 -539 0
395 882 936 0
-663 -693 -178 0
-514 435 431 0
349 -857 850 0
-801 687 306 0
594 -433 49 0
-269 -830 894 0
-558 -552 324 0
-876 -12 297 0
383 -420 749 0
121 -239 -534 0
-606 -987 -586 0
173 848 -823 0
610 274 -109 0
-698 420 -908 0
-819 847 563 0
-586 -716 986 0
950 -525 -386 0
732 12 525 0
-524 -303 -788 0
-28 488 -491 0
-123 -789 -427 0
-850 -647 -36 0
835 851 36 0
-378 587 -177 0
-869 -64 -649 0
-851 -435 -645 0
-927 101 -878 0
190 675 -691 0
-881 -37 286 0
-407 617 982 0
820 412 903 0
442 -361 412 0
-580 596 -154 0
-84 4 954 0
-374 -464 430 0
-270 486 -130 0
-575 -153 -262 0
132 -408 590 0
342 350 612 0
71 359 -252 0
-737 -782 550 0
401 -147 64 0
-39 -900 85 0
199 -29 836 0
-931 695 -297 0
-510 317 337 0
110 -33 -609 0
-196 -491 -696 0
-658 475 -56 0
464 50 799 0
45 632 -650 0
-400 894 223 0
-211 159 132 0
140 644 -606 0
-185 869 184 0
288 779 -446 0
-359 -848 578 0
785 370 -643 0
-987 -839 -685 0
-195 96 587 0
364 96 417 0
-433 893 -679 0
572 -585 478 0
-949 261 -589 0
-315 123 -703 0
877 155 -443 0
501 505 -444 0
-380 155 652 0
-75 77 -641 0
-322 673 -405 0
-40 -462 -125 0
679 -193 -103 0
-895 -621 -292 0
-838 289 747 0
-968 -177 246 0
-172 -660 -554 0
737 -875 -25 0
-704 450 580 0
941 588 -622 0
911 939 -673 0
142 -732 -295 0
628 386 683 0
-426 581 392 0
-210 -293 392 0
-491 61 221 0
-847 938 307 0
-57 -935 791 0
-695 -346 -332 0
-755 -517 -225 0
463 -394 687 0
518 -425 474 0
-398 767 49 0
723 -105 11 0
203 -106 -169 0
-720 -283 -499 0
-905 153 -162 0
645 -358 -308 0
87 -439 -180 0
-77 109 817 0
-141 728 270 0
-282 920 -648 0
48 982 58 0
658 755 -873 0
865 -2 -736 0
745 777 31 0
447 -85 -247 0
-4 -804 -433 0
171 -905 -697 0
-684 -230 584 0
17 348 552 0
57 554 232 0
-169 128 736 0
-978 756 423 0
-888 241 -474 0
-507 -672 -221 0
892 -496 980 0
-852 227 -317 0
-384 233 326 0
-830 728 -874 0
12 995 -647 0
-960 223 -416 0
531 535 198 0
297 -671 -55 0
113 21 237 0
-780 -570 677 0
441 -18 428 0
475 -650 -159 0
-339 -147 -15 0
-507 -251 -212 0
-578 801 196 0
-982 -122 634 0
887 123 649 0
-499 209 873 0
-14 -267 366 0
400 -49 934 0
935 -906 312 0
551 -35 836 0
-648 782 758 0
964 597 -568 0
-546 -667 -490 0
297 864 678 0
198 664 750 0
594 -384 120 0
-178 -706 300 0
-10 -265 -458 0
846 -534 -309 0
491 -177 -929 0
-959 -750 -762 0
702 428 532 0
777 289 -390 0
-856 654 -596 0
-915 -205 -572 0
934 -640 384 0
-88 -44 464 0
-568 755 42 0
677 -643 -345 0
21 -941 305 0
218 -958 873 0
-142 545 112 0
677 -23 805 0
434 -555 637 0
-687 -590 766 0
-235 868 -569 0
901 547 -998 0
924 -180 -534 0
-930 813 555 0
526 192 892 0
536 615 -916 0
-927 169 175 0
57 -319 -763 0
132 435 147 0
-134 -504 -351 0
-876 -522 -111 0
133 -426 794 0
-728 694 743 0
-97 729 347 0
-357 522 887 0
-961 -565 -314 0
-956 27 -218 0
-673 968 -851 0
843 -189 -533 0
662 -575 991 0
-428 406 -578 0
635 -829 -466 0
72 156 635 0
-787 -215 742 0
-454 815 446 0
876 -497 -279 0
731 -307 52 0
208 835 40 0
343 137 809 0
-461 -784 760 0
-687 -677 620 0
658 354 -604 0
586 -290 -14 0
817 934 -367 0
295 587 -377 0
323 -400 -390 0
304 9 293 0
438 -714 -867 0
338 -479 754 0
963 388 -214 0
-958 -607 -418 0
796 222 -678 0
806 426 -147 0
-528 98 783 0
-723 -433 -520 0
-271 380 415 0
870 292 654 0
615 948 698 0
-501 -6 -660 0
308 -29 653 0
-561 454 640 0
635 -586 -372 0
804 -306 885 0
886 87 -55 0
287 917 657 0
309 844 -507 0
-5 -152 -986 0
-308 -497 -916 0
-464 113 -629 0
-928 -554 -324 0
427 84 187 0
197 -29 905 0
-491 497 245 0
951 -327 68 0
-981 866 598 0
687 372 771 0
790 -520 788 0
376 -489 806 0
376 265 -421 0
-103 911 70 0
471 -330 -32 0
-634 726 462 0
-813 -400 616 0
82 -636 305 0
-499 957 788 0
221 635 162 0
858 410 -401 0
219 -51 787 0
633 -654 702 0
52 -852 745 0
383 -253 -852 0
393 -678 -326 0
-362 -764 312 0
737 506 -201 0
453 563 -324 0
343 -69 582 0
-674 -504 -84 0
-709 -156 -267 0
690 796 -243 0
-125 805 217 0
-914 -185 -716 0
-263 -321 915 0
196 846 -9 0
-609 -479 -383 0
-185 -672 114 0
-641 91 -266 0
567 208 -158 0
261 -977 423 0
541 183 -980 0
-797 945 862 0
-287 -488 -123 0
-456 107 749 0
783 -565 -606 0
238 -885 -102 0
-909 100 657 0
792 339 -26 0
743 494 -319 0
629 344 815 0
-633 -672 -326 0
-346 755 -846 0
297 -822 372 0
640 -192 -638 0
-448 346 -490 0
-991 -390 239 0
-764 -750 236 0
-686 760 477 0
726 -853 -487 0
-930 -473 -462 0
-398 472 296 0
-217 -410 -88 0
28 -776 412 0
-776 984 487 0
891 265 72 0
-327 633 441 0
-266 925 -387 0
492 -276 -236 0
-809 -406 995 0
-449 810 596 0
502 -327 -727 0
454 -538 -136 0
-824 -293 18 0
-434 766 -509 0
768 806 74 0
-903 593 494 0
-131 981 -924 0
129 674 -559 0
-168 -339 467 0
-161 -326 -585 0
253 -548 -25 0
-922 407 443 0
-358 -698 227 0
132 -107 -70 0
269 -497 -423 0
334 31 -793 0
579 328 607 0
529 827 -362 0
-435 -495 -680 0
-586 63 -939 0
947 455 -342 0
-648 -95 -318 0
-932 586 310 0
-585 527 -967 0
-953 -554 -394 0
130 262 289 0
588 562 594 0
629 674 815 0
909 -227 509 0
-203 274 -618 0
903 -342 797 0
-904 486 -552 0
393 81 563 0
-352 426 824 0
-980 -851 492 0
-962 -613 -841 0
242 24 629 0
-671 365 434 0
-741 649 799 0
-964 -446 396 0
286 -240 -934 0
-569 898 -998 0
577 592 -606 0
14 133 933 0
415 728 940 0
-82 792 314 0
878 -554 -431 0
32 484 -943 0
192 557 -555 0
74 -704 -175 0
287 -434 -776 0
-179 -795 -978 0
416 -470 187 0
979 595 773 0
213 944 -485 0
893 157 194 0
282 700 35 0
-155 357 699 0
-830 185 -854 0
112 918 -985 0
-316 -153 -582 0
506 -390 -316 0
-20 41 760 0
-565 -453 773 0
434 146 190 0
818 939 959 0
882 965 117 0
-510 272 -904 0
365 581 -285 0
-440 -768 404 0
-635 561 -930 0
-824 338 -459 0
-675 -811 650 0
-865 -605 355 0
575 745 72 0
578 363 37 0
-281 991 147 0
-156 948 -817 0
-255 607 317 0
-551 -257 -895 0
829 -319 644 0
297 165 233 0
-745 -887 -934 0
-146 -182 -263 0
879 742 382 0
-37 426 643 0
-216 646 -770 0
600 -243 594 0
564 -565 392 0
-234 115 339 0
-401 -625 215 0
-277 955 -954 0
-374 -784 -564 0
566 -542 -983 0
-345 -518 104 0
-871 -714 -476 0
-306 132 -279 0
457 -765 -695 0
535 112 166 0
-22 283 278 0
-342 525 -718 0
-741 296 214 0
448 222 -85 0
846 -756 -424 0
22 -328 733 0
-824 716 -982 0
824 -469 -298 0
-916 222 -409 0
360 416 592 0
-929 -959 -521 0
39 -141 143 0
223 427 817 0
55 190 -958 0
119 -713 240 0
-428 337 128 0
753 544 968 0
-117 -408 534 0
536 951 -880 0
301 564 556 0
991 -320 -683 0
-693 167 994 0
286 -475 -847 0
440 -710 -771 0
-296 868 968 0
262 28 372 0
-704 -216 860 0
345 -925 -89 0
-188 831 112 0
-441 216 747 0
-271 75 -544 0
917 862 997 0
691 940 661 0
-850 -473 -322 0
-225 515 468 0
222 812 468 0
-335 -255 -89 0
-129 838 -65 0
-661 30 1000 0
-847 -222 781 0
548 854 -55 0
-249 327 -658 0
763 -368 -161 0
-102 182 -321 0
-168 682 -503 0
543 168 11 0
251 306 -929 0
-631 -882 -56 0
-184 -277 -455 0
-702 -981 -371 0
688 144 -532 0
436 904 620 0
737 304 -326 0
460 -492 729 0
-861 199 -644 0
362 -592 -817 0
15 -274 402 0
-567 386 234 0
184 783 821 0
-334 -348 -835 0
-530 406 502 0
-719 -421 107 0
683 -93 813 0
234 -134 -243 0
-113 965 -395 0
-918 162 955 0
664 -136 -978 0
116 718 -637 0
820 -472 -503 0
396 646 526 0
284 680 -889 0
-512 245 773 0
916 -191 -218 0
-146 569 299 0
-22 518 -660 0
623 -280 -450 0
-96 511 714 0
40 446 -32 0
-268 512 930 0
245 -630 -414 0
-639 141 731 0
-523 -347 -230 0
118 -700 -756 0
696 -450 985 0
456 -578 428 0
988 -172 -777 0
488 -620 702 0
-125 736 -989 0
-281 462 -566 0
907 699 917 0
655 229 779 0
-770 276 -519 0
520 -234 -289 0
133 825 -363 0
-821 51 -86 0
-203 -900 -505 0
-577 -182 352 0
766 262 -27 0
-727 -959 37 0
376 759 394 0
610 -235 -857 0
-141 -721 296 0
-344 -841 -98 0
10 862 529 0
-960 -798 -997 0
-56 81 8 0
-543 99 -170 0
113 -449 451 0
3 477 -286 0
687 -351 -990 0
714 180 -706 0
375 -146 27 0
949 565 -661 0
-777 -29 715 0
370 719 41 0
427 488 615 0
327 393 921 0
-606 -322 -139 0
551 -783 982 0
965 -992 -100 0
697 447 -191 0
-379 659 -934 0
-230 -592 -768 0
-530 376 425 0
-570 971 -10 0
-514 -810 678 0
37 -670 616 0
61 699 6 0
137 543 -320 0
-169 66 80 0
-170 -391 -690 0
-751 -671 -264 0
-94 -491 -57 0
-330 -314 539 0
-571 -674 -508 0
-557 -269 331 0
-817 -901 -93 0
-456 893 857 0
-539 -284 530 0
647 -292 -856 0
566 988 737 0
-96 -869 950 0
-665 447 -488 0
956 822 -880 0
696 139 90 0
494 -663 -99 0
-533 -97 404 0
539 468 116 0
731 -173 28 0
-211 -551 -923 0
613 -237 911 0
-322 -835 -373 0
-278 -147 -751 0
-6 -623 -114 0
-244 -729 -421 0
656 982 223 0
-506 414 -675 0
-178 782 215 0
-463 -930 -16 0
645 879 982 0
541 -389 495 0
-434 226 -542 0
382 -485 -466 0
-709 -177 267 0
-243 -975 -979 0
48 156 8 0
-938 -833 790 0
-840 922 -680 0
244 -707 2 0
-256 -48 670 0
-464 -487 -109 0
730 979 -137 0
272 -471 -538 0
82 990 -491 0
908 -739 1 0
794 -618 879 0
-63 801 44 0
-304 895 -766 0
291 138 599 0
483 -61 475 0
756 701 772 0
-916 528 489 0
119 785 -403 0
-410 -934 763 0
260 570 -869 0
-892 808 845 0
792 -558 -977 0
-964 -416 759 0
324 -704 -909 0
-906 -709 63 0
-716 119 -863 0
967 -77 -373 0
-86 145 -390 0
-980 -524 660 0
659 956 558 0
-13 -475 -858 0
-675 -611 217 0
-335 976 931 0
790 -109 134 0
478 -175 429 0
-986 -119 -923 0
193 194 690 0
-778 526 -662 0
-491 -396 -315 0
42 703 130 0
744 -293 -18 0
-760 -318 652 0
395 739 -558 0
533 998 763 0
402 895 -468 0
-768 115 -22 0
977 -594 -61 0
731 -143 467 0
-783 -308 -479 0
844 -900 -374 0
-13 -363 490 0
-215 886 -407 0
666 -298 -745 0
-972 503 862 0
-844 -489 -523 0
-505 454 391 0
-676 -466 641 0
707 -184 -711 0
-812 758 -573 0
135 825 -855 0
524 -600 180 0
646 49 899 0
520 -223 -363 0
-70 -902 166 0
183 -92 -898 0
275 931 -693 0
-452 803 -540 0
488 -515 491 0
245 283 -292 0
451 -879 -98 0
491 -179 482 0
-18 86 106 0
-449 721 998 0
-98 422 284 0
-731 -664 -207 0
478 678 797 0
310 -22 -370 0
-218 361 126 0
-205 708 -211 0
478 427 -126 0
683 -554 -899 0
186 507 -450 0
208 237 229 0
700 794 -435 0
894 447 -547 0
601 328 -164 0
-96 474 699 0
95 -949 860 0
-907 533 381 0
-333 486 -467 0
-747 284 886 0
-912 418 -252 0
898 -820 -807 0
230 -472 566 0
368 518 879 0
-80 997 -866 0
-838 -779 736 0
389 -61 752 0
876 -911 648 0
-64 -864 712 0
124 953 -466 0
-176 684 -979 0
-855 530 -133 0
-940 938 726 0
359 186 496 0
438 -552 -12 0
605 774 551 0
125 25 873 0
504 897 -986 0
896 -789 457 0
-793 97 -650 0
-767 -18 250 0
-775 4 -288 0
-640 -749 852 0
-196 -259 -302 0
-318 -95 -729 0
904 425 -112 0
-803 188 304 0
758 381 556 0
721 -40 389 0
404 735 -973 0
-652 -840 -256 0
673 939 -189 0
-786 446 -188 0
104 644 -459 0
32 875 749 0
-64 916 -55 0
701 424 -115 0
-631 98 -213 0
-822 -59 202 0
-478 -943 379 0
344 -349 -220 0
-512 89 751 0
-840 250 287 0
-722 294 917 0
-740 774 839 0
11 255 -234 0
862 503 201 0
-87 -815 -452 0
586 -827 -590 0
637 45 -896 0
-638 -392 697 0
-391 -183 -951 0
818 -604 161 0
-221 690 -332 0
-765 -270 -827 0
-155 -731 216 0
-474 825 368 0
855 843 -459 0
178 -105 447 0
-525 970 -837 0
524 719 -877 0
965 -17 -419 0
-910 562 -288 0
-83 843 -255 0
997 -595 951 0
226 -724 342 0
382 -24 484 0
762 385 -220 0
119 568 -716 0
797 -440 434 0
420 177 130 0
417 -729 996 0
617 954 -953 0
151 392 966 0
-940 497 706 0
-594 -588 -188 0
885 -44 36 0
-655 112 790 0
-816 -471 362 0
567 -380 -949 0
-701 662 -754 0
699 500 715 0
72 160 -922 0
-995 694 315 0
824 -941 -451 0
-737 -91 -34 0
-152 668 -238 0
-941 801 58 0
285 -37 349 0
349 -248 -491 0
-150 231 483 0
-403 743 197 0
-185 -261 597 0
116 -165 300 0
-907 660 -188 0
941 -374 598 0
-161 -207 -168 0
365 479 44 0
231 -259 439 0
-422 -332 -567 0
685 -333 885 0
-355 -345 315 0
549 -18 -141 0
386 137 -13 0
-375 -924 -700 0
-929 -764 329 0
-971 -4 -213 0
-831 -275 -855 0
607 999 -714 0
-260 724 742 0
579 -795 947 0
178 452 -515 0
752 897 435 0
-151 663 69 0
944 -383 17 0
669 790 673 0
-905 989 729 0
-338 886 843 0
-924 489 680 0
520 -524 -261 0
-723 309 -130 0
-905 -354 90 0
898 790 -453 0
-927 -572 -378 0
-387 -98 193 0
96 -851 -593 0
620 -88 202 0
29 -625 911 0
472 995 262 0
-990 -517 -891 0
608 469 -373 0
445 299 962 0
-397 678 824 0
-961 736 -952 0
-216 511 152 0
41 426 -280 0
-538 906 850 0
73 -878 985 0
-219 -383 873 0
21 993 -811 0
-971 862 652 0
153 536 -659 0
525 390 -952 0
855 -416 -336 0
460 200 -995 0
8 59 -712 0
505 -228 -141 0
289 809 -488 0
255 -813 -768 0
-966 -15 408 0
-547 106 -926 0
-768 376 950 0
660 297 -164 0
-912 652 -916 0
-399 -774 -92 0
-933 -283 -304 0
842 966 -165 0
-570 967 852 0
-275 -460 117 0
-704 847 -517 0
-306 941 840 0
-171 704 867 0
850 705 -268 0
-498 -247 -333 0
452 -947 959 0
-724 -378 603 0
-114 -444 -227 0
-217 -708 499 0
412 -303 -896 0
958 -82 -64 0
-298 165 -832 0
932 -911 -159 0
356 370 -881 0
-186 526 782 0
20 -476 266 0
428 -386 132 0
583 116 210 0
15 -776 435 0
149 -475 611 0
178 -538 809 0
-634 745 -726 0
-569 751 -913 0
-762 123 739 0
291 -89 706 0
-395 -24 -854 0
-383 625 870 0
449 18 556 0
-188 -773 246 0
-311 -983 -201 0
-961 -573 -64 0
82 707 -142 0
6 804 707 0
647 635 -998 0
-596 -451 929 0
-669 689 -234 0
679 -376 935 0
-253 -922 -810 0
847 -888 -122 0
-145 -867 -530 0
-930 126 179 0
690 -755 -207 0
-22 939 904 0
-621 -491 -829 0
634 224 -663 0
-793 291 729 0
-668 -177 630 0
410 -262 -687 0
697 736 -556 0
-447 146 -216 0
-727 229 20 0
654 -822 976 0
-791 623 229 0
-345 162 -25 0
-469 -48 -35 0
-183 -998 -826 0
834 96 -230 0
380 -756 -681 0
589 -883 905 0
-707 800 122 0
-801 -44 -810 0
290 316 869 0
-331 -815 840 0
418 -234 993 0
-564 -530 -32 0
772 -413 -355 0
-344 247 -220 0
639 978 721 0
578 99 -440 0
574 -397 -613 0
-876 -115 417 0
57 -823 945 0
-225 -113 -20 0
-590 -870 -381 0
241 -172 708 0
-429 16 -664 0
704 -441 -813 0
771 -999 141 0
-926 125 887 0
-897 829 417 0
-822 158 -794 0
22 -333 -547 0
216 3 560 0
465 869 987 0
-248 -449 246 0
146 955 -397 0
263 -904 415 0
-706 481 577 0
-175 -755 900 0
-934 849 628 0
-19 -420 750 0
565 -409 -499 0
-75 -725 177 0
208 286 328 0
137 870 173 0
-555 859 -604 0
-105 -473 -120 0
-296 316 589 0
986 -812 229 0
802 469 -26 0
-403 230 -642 0
411 644 -46 0
-220 -963 -727 0
491 537 -425 0
-534 919 957 0
225 862 -834 0
-438 215 -627 0
-209 340 -360 0
257 -954 -750 0
-934 -421 -170 0
-313 -593 63 0
-872 458 920 0
-648 -25 -120 0
296 -224 162 0
-779 160 850 0
126 -607 -902 0
464 -74 -195 0
-872 988 -17 0
636 834 -247 0
717 439 -893 0
969 334 -947 0
-227 778 468 0
-549 496 -415 0
-614 -106 -509 0
-242 543 67 0
-266 578 284 0
-669 217 -795 0
355 686 -878 0
-895 -292 412 0
260 644 -933 0
-595 -351 -983 0
329 -822 282 0
-582 395 712 0
71 -553 740 0
-10 -932 -427 0
-669 936 -912 0
-837 937 515 0
644 175 528 0
-35 -88 -596 0
-976 -65 410 0
-102 -163 -365 0
-522 459 150 0
108 272 -645 0
161 384 649 0
-6 -287 -228 0
-637 485 -789 0
-236 -372 -125 0
560 356 -244 0
-852 -9 -180 0
591 726 -517 0
679 -506 -739 0
-846 -653 -686 0
-86 -407 -544 0
-882 313 -124 0
526 752 93 0
-585 -657 -171 0
689 625 -912 0
-744 938 441 0
-56 464 -852 0
-618 -531 544 0
-685 -890 -294 0
152 -916 296 0
531 -450 550 0
-368 -347 397 0
-318 954 -934 0
13 -749 49 0
-515 -40 -255 0
-445 757 901 0
-698 -587 318 0
-781 121 -385 0
-188 -145 -803 0
816 640 -364 0
706 -552 88 0
-828 -737 -100 0
967 336 534 0
71 980 906 0
-264 -769 -332 0
267 816 -319 0
890 447 92 0
-189 -551 -858 0
-25 -531 -449 0
-895 858 378 0
-523 -668 -64 0
266 -46 -311 0
900 -163 218 0
815 -336 927 0
-582 -169 437 0
932 -184 81 0
-944 -924 872 0
-769 -201 315 0
135 -122 153 0
-816 350 463 0
-203 -194 973 0
-33 677 -659 0
395 -670 -252 0
410 223 290 0
-26 -772 -430 0
-811 -252 295 0
-206 6 745 0
908 -734 -462 0
-652 -136 832 0
268 439 666 0
-327 -195 755 0
793 -648 -182 0
925 807 -659 0
531 927 657 0
781 -973 898 0
284 -637 -142 0
74 -135 987 0
-381 523 -210 0
-572 464 570 0
-275 -902 644 0
706 -267 -659 0
-390 -325 797 0
818 777 337 0
-80 193 -700 0
-845 713 584 0
889 917 -737 0
5 30 42 0
437 765 59 0
-903 -295 -142 0
-596 810 901 0
761 292 891 0
77 947 -882 0
830 -469 -576 0
-451 570 -777 0
-288 -480 313 0
-242 -723 799 0
-108 -963 -311 0
-789 212 -300 0
424 975 37 0
-559 -334 235 0
-60 101 735 0
-36 -553 -790 0
989 -204 397 0
453 175 -243 0
-162 537 -282 0
77 68 122 0
-96 -916 -956 0
-478 -706 -218 0
-62 -652 -65 0
-488 -821 -42 0
-415 116 187 0
-612 -460 770 0
-363 -498 -701 0
350 -809 230 0
883 177 45 0
318 -743 303 0
11 -765 638 0
308 -760 -133 0
763 544 -303 0
-915 -82 -803 0
311 -938 739 0
-319 -864 870 0
482 599 -966 0
603 -385 -613 0
484 800 831 0
475 1000 -740 0
-897 -748 577 0
167 993 -266 0
811 530 353 0
-355 -163 450 0
767 750 -368 0
431 571 -817 0
-167 -837 926 0
393 -900 -93 0
-448 -655 -482 0
-877 89 928 0
-426 869 -950 0
-271 613 -244 0
280 600 -296 0
380 -136 117 0
879 -197 -216 0
48 -571 -563 0
32 469 -300 0
-902 223 163 0
-805 914 292 0
-971 -856 -933 0
-650 496 309 0
-500 302 -157 0
836 777 -380 0
-377 744 133 0
709 -434 69 0
25 -129 -858 0
928 481 -988 0
-644 -528 731 0
885 -644 -348 0
96 -3 -89 0
188 -383 -828 0
-108 -51 713 0
-773 -765 -409 0
781 -681 -735 0
471 195 337 0
-460 43 -851 0
-343 -740 -877 0
838 -400 -35 0
88 919 546 0
937 -316 -852 0
717 12 257 0
-316 34 240 0
-213 399 15 0
246 -77 -838 0
-207 -730 859 0
337 645 -469 0
381 -504 -867 0
-492 326 -157 0
745 -933 -238 0
312 -464 -213 0
821 -161 -506 0
302 494 128 0
-222 989 647 0
259 208 758 0
-30 -424 373 0
887 -628 -590 0
492 -968 149 0
875 938 285 0
901 853 -145 0
-491 -846 -133 0
-129 445 -105 0
816 -979 720 0
588 83 481 0
666 -184 902 0
-773 -78 -452 0
797 -128 414 0
-474 612 -15 0
-573 -333 -179 0
-28 502 -744 0
869 470 552 0
654 394 -534 0
-406 391 -587 0
979 917 69 0
-445 -93 651 0
-759 -879 487 0
-848 -472 -658 0
546 672 -861 0
-977 -945 834 0
605 307 -406 0
265 124 807 0
-681 -292 699 0
643 951 -712 0
-331 605 -604 0
969 125 275 0
-738 865 66 0
801 969 439 0
915 -712 -976 0
125 439 891 0
743 447 939 0
-586 -257 -103 0
388 -895 373 0
273 404 -282 0
445 -735 -500 0
-809 -435 267 0
321 152 978 0
-730 -983 268 0
722 941 609 0
-307 970 314 0
296 -793 811 0
-78 34 -402 0
717 -77 -13 0
300 -720 826 0
-436 992 -319 0
432 887 794 0
414 615 780 0
884 -292 256 0
638 185 746 0
50 -489 988 0
69 157 -665 0
-641 308 810 0
851 -234 696 0
-686 376 918 0
-39 913 979 0
-993 -257 -264 0
-662 -915 800 0
225 537 -863 0
-986 -242 -139 0
6 -744 289 0
-643 390 189 0
974 -556 -443 0
362 660 680 0
198 948 38 0
-720 341 612 0
-248 940 -408 0
-56 -633 728 0
277 182 921 0
-687 466 -62 0
-811 -74 971 0
-851 675 576 0
333 -20 973 0
-668 -572 -623 0
452 -40 -221 0
-716 -84 -303 0
154 978 -486 0
-380 725 -113 0
-753 674 614 0
442 -981 -395 0
456 -521 -557 0
-553 620 833 0
300 -765 640 0
-395 944 -462 0
-476 -904 248 0
494 -910 -63 0
404 84 -647 0
-998 928 -856 0
-418 618 410 0
845 -514 -980 0
-948 -916 673 0
824 908 -71 0
353 480 -632 0
562 -215 -731 0
919 255 562 0
919 -323 -885 0
-982 -480 640 0
-194 727 -432 0
-616 -89 -275 0
381 526 -791 0
-384 -248 294 0
-471 406 -636 0
916 -637 -766 0
698 62 -70 0
-566 386 -251 0
230 325 -604 0
455 511 248 0
-831 975 247 0
763 -80 -437 0
41 244 560 0
-890 -926 -614 0
-504 663 219 0
694 -198 -141 0
-759 -154 -386 0
519 928 720 0
-192 -129 -898 0
943 -410 -360 0
-83 -528 -506 0
-262 -716 -73 0
542 36 402 0
440 127 277 0
467 918 669 0
-831 594 -864 0
749 -943 79 0
122 -853 183 0
-870 201 250 0
-452 23 -879 0
870 616 660 0
-879 598 938 0
517 279 721 0
-537 -496 662 0
-925 648 973 0
555 -703 236 0
-111 91 -25 0
-686 104 813 0
-96 556 701 0
-7 365 -789 0
709 -911 -486 0
4 -659 -14 0
-666 423 257 0
963 690 -597 0
-732 725 -666 0
598 -450 -643 0
-452 409 793 0
-298 78 -97 0
-463 -380 321 0
-929 -77 457 0
-472 964 237 0
194 -542 929 0
680 705 168 0
-906 513 -185 0
120 733 79 0
-911 918 -539 0
-858 -215 482 0
-856 846 -773 0
287 24 58 0
808 325 -733 0
-386 -213 -97 0
531 -106 964 0
-20 -863 -22 0
-822 605 -702 0
6 741 305 0
812 931 496 0
-471 -22 909 0
962 -184 385 0
958 579 -124 0
701 -117 -795 0
-481 -119 -554 0
-764 305 641 0
470 353 -999 0
273 -254 -937 0
231 406 394 0
-626 -584 141 0
496 -393 116 0
-317 339 -156 0
-680 549 -232 0
-701 -961 -606 0
-584 163 -776 0
-465 192 -945 0
32 -437 960 0
653 -679 -362 0
496 -725 -164 0
49 -805 -942 0
-147 -939 -808 0
-390 817 548 0
-431 -821 319 0
693 590 -521 0
598 731 326 0
-407 -882 168 0
-147 25 -282 0
734 -568 -86 0
-848 -800 39 0
-311 134 613 0
-361 -596 913 0
760 112 735 0
864 -673 -916 0
-710 -474 -496 0
643 -804 790 0
260 838 -36 0
-669 808 -748 0
-826 -305 824 0
732 989 577 0
-721 733 -30 0
-727 -902 450 0
151 938 -538 0
302 -855 -612 0
-995 822 931 0
699 -597 -202 0
-76 834 9 0
132 857 -806 0
107 798 -113 0
-539 -141 515 0
86 332 71 0
244 817 -643 0
389 321 -26 0
487 82 866 0
837 370 -403 0
303 -540 882 0
313 -78 -971 0
-855 892 777 0
-698 334 719 0
568 460 580 0
-615 -99 154 0
426 -296 752 0
-463 621 -743 0
519 -944 -146 0
886 -707 271 0
230 338 42 0
835 -318 477 0
-662 -398 308 0
-807 32 421 0
5 -79 512 0
-202 966 -544 0
-681 895 -318 0
456 296 -425 0
-420 -543 -776 0
587 690 -236 0
-106 -221 -750 0
-814 418 -330 0
855 326 -894 0
169 703 358 0
472 877 -190 0
701 437 -440 0
-337 -46 -101 0
-745 -68 707 0
-249 -443 902 0
95 -900 -254 0
269 -668 -829 0
126 428 -530 0
-172 275 444 0
-635 804 -131 0
-459 -788 371 0
936 9 -422 0
514 -731 64 0
-824 469 -262 0
-792 225 515 0
560 438 625 0
-293 998 -456 0
803 -564 317 0
-179 -349 -520 0
-143 -177 135 0
-919 -874 979 0
411 299 -711 0
-184 599 -281 0
-134 -152 -372 0
-840 -485 -134 0
801 593 535 0
98 -181 -89 0
21 888 18 0
-725 -1000 488 0
691 530 -347 0
-541 -724 -896 0
-829 715 221 0
-813 876 928 0
618 922 874 0
-618 -189 -704 0
-157 790 -639 0
-29 802 -342 0
-369 -310 -368 0
938 768 -179 0
729 316 125 0
377 -408 -700 0
-790 -710 296 0
180 -474 -520 0
864 -897 -76 0
341 -121 61 0
131 6 -752 0
184 -445 -957 0
-245 270 143 0
-190 29 -682 0
444 -371 726 0
207 916 -266 0
736 405 339 0
17 735 80 0
169 -741 394 0
-936 498 490 0
-151 480 -561 0
-283 14 -180 0
290 213 -758 0
260 887 -132 0
625 855 -994 0
-115 920 -68 0
114 609 87 0
988 152 -863 0
741 -455 575 0
679 -358 -912 0
-828 -58 790 0
-664 -201 -318 0
870 763 -381 0
370 893 473 0
782 -73 7 0
-780 473 -114 0
438 -44 918 0
8 -935 339 0
249 197 -675 0
397 -99 236 0
-265 -19 -123 0
952 -739 503 0
666 138 654 0
-15 234 911 0
-877 960 -567 0
292 590 -270 0
-892 245 -595 0
638 -705 47 0
709 192 -367 0
-479 148 -642 0
848 -312 457 0
-818 502 266 0
-232 881 101 0
905 -245 -532 0
-346 322 291 0
267 -659 -65 0
-244 300 -517 0
985 -476 -627 0
-846 733 548 0
-158 -229 751 0
350 87 937 0
-170 -408 -944 0
805 884 808 0
-368 973 -664 0
-865 -136 320 0
-594 -466 -105 0
-701 404 44 0
-124 -240 -775 0
-470 -456 918 0
-472 256 446 0
968 -531 603 0
502 -164 614 0
934 -500 989 0
316 -762 771 0
240 -226 613 0
528 122 -647 0
-989 386 -648 0
-37 82 821 0
-837 -546 -134 0
730 -173 -599 0
48 -479 181 0
209 -978 933 0
-45 -986 -199 0
298 712 -656 0
-493 -781 45 0
242 -617 369 0
468 -122 519 0
531 -372 -250 0
-272 -872 2 0
-689 579 970 0
-793 -109 -896 0
-458 659 108 0
958 -667 -293 0
-989 617 322 0
-388 -478 327 0
219 -856 695 0
70 -598 62 0
-483 341 -311 0
620 -515 -189 0
-769 -359 789 0
-982 -282 -654 0
-273 -260 -201 0
763 331 -481 0
279 -26 -552 0
-954 -320 -722 0
238 -590 165 0
570 477 -6 0
-974 -51 -453 0
-42 -405 -144 0
-162 551 680 0
-837 916 -755 0
359 -491 -513 0
632 -977 -947 0
467 -552 400 0
-992 306 -452 0
364 -460 -283 0
-769 -338 703 0
249 795 -896 0
-242 -782 -756 0
862 -436 -365 0
451 -413 -843 0
-956 -654 -192 0
-699 -550 -553 0
892 -980 101 0
602 -140 965 0
-773 -4 -67 0
-882 -825 -826 0
241 176 944 0
-414 -557 -586 0
-458 -543 -100 0
73 -139 -485 0
-470 90 -979 0
-316 53 -688 0
-385 -948 501 0
-476 -300 -942 0
727 -690 717 0
-957 7 470 0
32 -264 171 0
325 -679 -112 0
336 477 -772 0
617 367 -15 0
-685 -682 292 0
-280 -361 674 0
-433 -704 675 0
577 674 -777 0
-183 -293 734 0
93 647 601 0
473 476 -242 0
-917 -83 602 0
981 561 -105 0
641 -825 338 0
837 -136 7 0
714 791 -56 0
-436 -941 -268 0
-958 527 -944 0
-839 708 152 0
-437 741 -54 0
-185 237 -531 0
2 -757 332 0
702 -603 -600 0
483 545 167 0
991 773 928 0
-628 -98 -172 0
-535 799 -681 0
505 894 861 0
249 736 -685 0
829 101 -7 0
-303 612 244 0
-830 419 -911 0
-888 -605 976 0
-366 691 -412 0
541 -532 912 0
282 -530 45 0
-347 -272 -254 0
-215 332 -36 0
265 837 754 0
-535 733 -557 0
-670 417 -642 0
-525 262 -963 0
-47 908 897 0
-513 -22 -969 0
-364 -64 835 0
515 -23 -783 0
-217 942 -410 0
868 -372 -870 0
700 -556 -520 0
920 660 -679 0
139 -593 780 0
811 774 -652 0
-140 -879 351 0
438 -461 264 0
247 -532 778 0
-418 16 536 0
447 228 564 0
333 -993 -795 0
-934 247 858 0
-412 -979 -135 0
256 -986 -547 0
-812 -487 -227 0
430 -594 90 0
32 -375 618 0
-628 402 875 0
-618 -586 -364 0
-139 60 452 0
-300 352 54 0
712 872 -951 0
-738 -995 672 0
-486 767 26 0
-636 853 -521 0
-333 -52 -27 0
-532 294 724 0
-904 941 409 0
125 -252 926 0
614 -1 -554 0
84 -137 104 0
-297 37 804 0
755 177 955 0
902 -88 -663 0
79 -575 -631 0
-421 70 -500 0
127 -971 -569 0
-819 491 -205 0
-267 -629 484 0
-149 845 -723 0
1 737 852 0
-769 781 -941 0
-246 -670 -182 0
610 -944 -556 0
470 -243 -59 0
432 -640 122 0
333 -663 174 0
560 -882 216 0
-965 -934 658 0
-229 -564 526 0
421 -118 -881 0
-729 681 -154 0
-773 -48 42 0
-297 189 -127 0
975 238 -18 0
651 841 644 0
457 930 -613 0
-494 484 -213 0
-501 -482 562 0
137 -311 540 0
-965 535 -37 0
931 998 -5 0
691 232 -577 0
673 -293 881 0
359 661 -408 0
-723 -492 -830 0
-304 381 -831 0
-349 484 867 0
-165 176 -289 0
314 -304 668 0
-214 -87 -649 0
-129 -481 143 0
273 16 -91 0
-729 302 -732 0
-5 717 -504 0
457 -501 868 0
-407 -912 -396 0
-761 806 648 0
-431 -732 118 0
-386 917 -554 0
-830 -564 686 0
735 405 -91 0
-65 -667 -273 0
380 -713 93 0
-935 754 304 0
-156 -612 -58 0
-175 496 -862 0
-874 -429 508 0
-327 -62 989 0
-683 180 -737 0
905 848 514 0
742 -419 232 0
-611 -194 -121 0
-851 -386 32 0
892 -98 944 0
-305 -417 -481 0
519 603 -376 0
277 -333 -191 0
-711 439 759 0
-511 528 760 0
-563 157 -291 0
-298 -559 614 0
335 226 -475 0
-321 731 159 0
-849 451 901 0
-789 327 -833 0
-738 -414 -121 0
851 5 964 0
-361 -715 -956 0
-1000 -714 -188 0
-476 351 557 0
-452 458 -230 0
-223 -388 -591 0
580 -465 -435 0
-110 -642 -166 0
-205 -649 817 0
-784 241 -165 0
944 489 783 0
730 -469 -961 0
34 -283 230 0
-500 46 456 0
-114 -864 189 0
11 -229 -703 0
-816 -464 -173 0
257 696 217 0
-267 -658 321 0
-275 -160 -724 0
-545 769 70 0
426 431 350 0
281 120 -411 0
-625 175 48 0
439 -125 83 0
252 967 739 0
687 -284 -767 0
65 614 -868 0
-617 -9 -328 0
-564 -903 -520 0
373 548 26 0
405 -499 191 0
-579 -214 771 0
623 184 -265 0
-207 -421 -742 0
571 -558 390 0
-328 536 45 0
-374 -310 -810 0
537 776 -644 0
590 -323 -865 0
-649 -447 -339 0
961 -446 155 0
528 677 679 0
652 746 74 0
-903 -691 808 0
511 616 677 0
-540 697 993 0
523 534 902 0
64 -915 -186 0
505 331 101 0
-341 326 535 0
-355 937 -791 0
-148 885 195 0
886 -864 -32 0
-794 -172 -660 0
726 -572 876 0
373 -353 212 0
330 -514 574 0
949 -560 237 0
-651 399 -671 0
-94 -587 -854 0
74 -502 -750 0
70 -942 -523 0
-220 332 533 0
107 -966 880 0
556 792 964 0
823 332 -277 0
721 -825 835 0
-499 212 -808 0
-29 943 190 0
527 339 -594 0
920 786 -671 0
-787 -479 -229 0
501 990 -83 0
-961 57 -391 0
-563 -293 -615 0
-581 -278 -937 0
-869 182 907 0
963 -204 189 0
186 333 -494 0
860 755 -570 0
514 838 -408 0
426 376 -896 0
324 992 488 0
-797 -794 876 0
160 970 897 0
2 -803 -146 0
636 115 -328 0
-206 182 -468 0
830 44 -500 0
61 -526 -109 0
-612 -92 -627 0
-551 714 72 0
-528 -851 621 0
-547 -254 18 0
-438 735 -916 0
-307 -911 -30 0
475 -24 157 0
-457 491 221 0
-49 -344 629 0
-638 -607 -39 0
575 -33 -90 0
-843 496 714 0
15 -183 -628 0
-866 -444 67 0
936 -898 -15 0
-396 -786 -238 0
885 869 559 0
-843 -46 -371 0
-770 714 -329 0
212 690 22 0
-228 -245 213 0
324 58 -299 0
685 257 783 0
899 447 932 0
-700 -647 -733 0
687 -940 -163 0
-790 856 -140 0
368 429 -378 0
-830 890 461 0
-321 147 227 0
786 653 794 0
264 -948 -557 0
-873 941 133 0
984 834 314 0
533 -762 -403 0
274 509 -67 0
-724 -774 720 0
-695 -498 -897 0
47 -498 -234 0
-373 50 286 0
-627 327 213 0
-415 -318 -278 0
-356 119 -536 0
-226 314 352 0
-892 792 84 0
157 204 -840 0
132 437 -568 0
-111 -357 373 0
378 671 575 0
86 -51 -239 0
530 352 90 0
-94 155 -749 0
-317 132 136 0
-717 557 74 0
-586 -441 -694 0
-634 -411 -951 0
468 449 683 0
-535 -285 372 0
-383 -504 885 0
-250 -893 720 0
839 683 151 0
827 99 -695 0
-222 919 -697 0
950 -270 73 0
622 323 413 0
559 496 76 0
270 -929 -89 0
-86 -965 604 0
-701 -359 -515 0
134 234 88 0
-573 785 -519 0
410 -677 -86 0
349 -268 932 0
-930 -66 -803 0
-189 657 -328 0
-521 751 -618 0
192 -570 672 0
-336 -468 -621 0
-944 908 517 0
99 935 814 0
-544 23 123 0
768 201 -31 0
-284 -960 940 0
-455 -546 -141 0
-839 -705 -78 0
-706 869 771 0
537 216 -873 0
608 -320 365 0
966 392 -885 0
-951 -330 -870 0
-401 443 267 0
-939 -305 588 0
-419 738 -873 0
20 903 -744 0
-589 -765 190 0
-545 762 481 0
809 748 91 0
-807 -845 -313 0
-402 -1000 378 0
153 36 160 0
-612 -225 -152 0
284 -287 -911 0
-102 -501 -802 0
-831 -265 -80 0
435 557 142 0
-126 -888 -128 0
-566 -383 -128 0
257 961 -479 0
-623 422 -585 0
141 -380 -912 0
52 892 226 0
-712 476 934 0
267 131 -532 0
-323 1 -160 0
-538 523 353 0
8 362 356 0
754 412 -293 0
-49 431 900 0
23 -359 832 0
-423 -508 920 0
-892 988 -235 0
871 -59 -180 0
915 242 391 0
-890 128 816 0
-587 -309 -275 0
947 -249 -76 0
415 -17 -368 0
787 -366 -881 0
763 810 103 0
522 -715 602 0
-523 -465 853 0
-693 349 351 0
696 204 513 0
-264 -159 124 0
-678 -773 512 0
-122 888 -244 0
-369 499 -461 0
-374 568 -213 0
-300 149 907 0
290 -795 162 0
-423 772 -239 0
-607 -297 602 0
967 728 110 0
-89 463 -465 0
318 999 359 0
-288 -985 969 0
-962 -865 676 0
-456 919 258 0
254 -416 -257 0
913 69 -581 0
-94 -954 778 0
-683 -390 745 0
239 -634 -65 0
179 -365 295 0
-7 -951 -398 0
396 976 999 0
317 -302 -657 0
-399 601 -235 0
-430 851 -14 0
-400 810 375 0
637 -931 -68 0
-24 206 -293 0
903 855 -544 0
919 232 214 0
644 795 859 0
-632 795 -199 0
524 -392 963 0
182 140 -691 0
-620 584 317 0
70 728 -893 0
128 436 975 0
-717 559 -139 0
711 93 -585 0
161 558 -996 0
-88 -393 -317 0
286 266 889 0
874 -360 -930 0
-571 656 -594 0
803 -953 126 0
846 -912 -29 0
-909 874 -365 0
843 -841 944 0
-696 134 18 0
29 -947 -933 0
870 593 -479 0
-757 383 429 0
96 -228 195 0
-320 455 -27 0
119 -611 -532 0
-179 835 -268 0
-588 -298 832 0
597 -68 976 0
-123 477 874 0
360 587 -36 0
755 -276 -843 0
-521 -448 58 0
-203 431 -7 0
-889 690 977 0
368 682 -317 0
-294 -334 845 0
179 -193 -299 0
725 163 164 0
594 628 -982 0
263 -212 -689 0
-614 490 -518 0
445 662 -562 0
-382 -12 -250 0
124 -816 -981 0
-366 -348 527 0
-583 327 -157 0
-745 -836 268 0
-631 -29 -554 0
733 302 -684 0
3 -412 415 0
583 -957 -188 0
133 15 -393 0
362 637 -679 0
-358 -207 -162 0
-479 247 455 0
-274 525 -322 0
932 181 -255 0
133 777 65 0
-416 -331 -670 0
-237 -630 -550 0
-743 745 367 0
332 349 386 0
418 384 469 0
326 672 -627 0
543 750 315 0
73 -646 -375 0
-128 773 -836 0
390 -429 -206 0
59 874 372 0
981 833 461 0
-644 143 509 0
231 743 361 0
-81 -134 771 0
116 861 316 0
630 649 594 0
362 204 -722 0
-790 -669 -980 0
914 741 651 0
-909 844 -616 0
-380 396 -629 0
855 -113 360 0
-465 -249 -228 0
479 36 838 0
-282 679 -192 0
-177 -856 89 0
-310 806 -141 0
920 772 -489 0
-441 -82 -620 0
-316 -993 -303 0
-63 651 810 0
374 -644 225 0
-340 970 243 0
-932 783 332 0
402 447 586 0
892 830 -975 0
104 -183 128 0
997 424 -25 0
-151 -212 -146 0
323 -367 -165 0
-140 684 -732 0
-139 -451 -390 0
62 -647 -276 0
959 -813 -283 0
-285 337 789 0
-852 952 762 0
-145 -448 656 0
615 -419 918 0
413 351 -543 0
-252 323 -724 0
466 127 -605 0
-463 959 953 0
41 -462 -468 0
831 -410 -595 0
-387 991 618 0
144 -301 -29 0
761 672 -937 0
120 597 158 0
-653 607 -219 0
360 -767 -76 0
901 -169 -260 0
821 -401 -54 0
-104 950 849 0
-285 748 -777 0
-229 830 -665 0
-971 -695 -562 0
-166 559 131 0
-444 911 -403 0
713 423 -298 0
-542 -810 -772 0
104 861 -79 0
540 -482 -992 0
473 831 -824 0
-179 -493 393 0
-798 -152 623 0
213 -621 848 0
394 -179 -91 0
-633 80 -849 0
-537 219 -396 0
708 -881 171 0
359 -641 -989 0
634 299 -258 0
388 325 142 0
-947 -110 552 0
107 -14 -620 0
992 616 -982 0
929 -934 -774 0
468 -305 -840 0
746 793 -803 0
338 216 -835 0
-311 -694 136 0
-380 -829 -159 0
496 984 12 0
146 -246 -560 0
897 678 604 0
290 855 231 0
298 745 -593 0
216 658 -827 0
320 -598 -487 0
451 988 457 0
-501 371 -730 0
-871 -978 -949 0
-337 535 -720 0
-652 -896 -866 0
-453 99 115 0
850 -649 652 0
-661 124 -321 0
722 507 -383 0
549 -327 -815 0
52 200 957 0
-786 -758 217 0
-979 -806 -716 0
-931 844 -227 0
-81 553 845 0
-81 663 103 0
-430 338 115 0
-775 500 -237 0
-188 807 -747 0
12 678 -536 0
-686 -317 -590 0
855 898 -760 0
-62 153 -80 0
881 258 819 0
174 545 -756 0
-385 -79 -157 0
874 923 546 0
-879 736 -598 0
193 606 954 0
159 -838 -14 0
-216 -659 1 0
819 815 87 0
-957 -599 22 0
-741 680 843 0
529 715 120 0
-895 779 -80 0
401 -74 -454 0
677 -410 404 0
181 503 -545 0
-322 -589 -351 0
164 608 -771 0
-826 242 143 0
-498 226 -142 0
-905 -325 -54 0
198 -211 111 0
745 874 -690 0
748 -845 -368 0
-453 -362 141 0
460 903 -686 0
-1 -230 -151 0
-858 746 -110 0
-262 -466 747 0
-131 762 -196 0
669 -839 247 0
407 -582 -845 0
448 348 -501 0
-272 -939 -825 0
-56 498 6 0
637 -151 526 0
-430 873 289 0
-410 -74 -842 0
704 -290 694 0
112 179 772 0
702 803 45 0
720 794 -285 0
450 -540 -570 0
445 451 69 0
-997 896 -317 0
149 -525 -245 0
263 951 377 0
844 -780 -326 0
-899 -818 -805 0
-958 496 866 0
532 108 497 0
246 986 298 0
-557 403 -149 0
-700 -20 920 0
989 -760 -777 0
-670 -778 723 0
-115 663 12 0
-29 968 981 0
-998 254 111 0
-673 -643 -331 0
761 429 629 0
528 -303 398 0
-57 650 -493 0
-850 586 804 0
780 6 -990 0
785 -930 923 0
160 198 652 0
-61 558 -188 0
248 167 713 0
-97 -355 935 0
-947 885 -257 0
258 -645 228 0
122 -81 7 0
-145 -372 28 0
-264 -163 -148 0
15 849 525 0
604 905 388 0
-953 370 846 0
-583 436 389 0
699 -26 -905 0
-772 477 470 0
133 239 -384 0
180 421 -977 0
-939 150 182 0
-400 -845 -104 0
851 558 967 0
-995 525 772 0
-941 -462 630 0
-974 528 236 0
-708 932 -571 0
-54 600 338 0
811 -444 151 0
270 191 646 0
-813 -186 22 0
63 695 57 0
-545 311 -54 0
-640 5 69 0
202 -443 350 0
-128 433 -590 0
194 -505 672 0
501 -38 651 0
-714 -425 -383 0
755 -199 422 0
154 -852 -223 0
295 -717 541 0
-653 -272 454 0
-410 -248 -252 0
773 609 -324 0
-390 -269 -474 0
-593 -402 -265 0
747 -199 556 0
147 703 156 0
9 612 -178 0
96 -424 813 0
638 -292 218 0
828 216 373 0
-603 -701 880 0
811 8 912 0
-554 -603 -167 0
796 36 -867 0
-497 -428 -650 0
938 -805 -391 0
459 751 -204 0
835 87 796 0
-657 -719 801 0
-586 -232 -34 0
-290 -80 -333 0
235 -599 -616 0
-209 -521 969 0
-986 932 -564 0
573 597 -663 0
645 -624 -369 0
-647 497 -581 0
199 435 -841 0
-661 -781 247 0
-244 -35 -465 0
-884 -195 146 0
421 -266 -820 0
73 286 -457 0
990 -473 242 0
-401 283 742 0
-637 704 650 0
-127 -175 473 0
-847 661 541 0
-987 -965 -36 0
92 -15 -65 0
-124 71 176 0
907 -870 860 0
127 -14 -648 0
492 -448 -445 0
934 -138 317 0
-837 -456 440 0
-245 -441 -287 0
944 -863 -463 0
-116 94 472 0
-878 226 -194 0
558 783 -592 0
362 243 198 0
-488 -338 -840 0
-983 999 904 0
-647 555 587 0
140 879 -305 0
-849 -561 749 0
-646 71 552 0
644 692 -778 0
935 471 -256 0
-378 976 -96 0
581 -846 -9 0
332 -831 117 0
-688 -831 289 0
637 446 -12 0
610 -568 -349 0
-125 -776 223 0
280 114 851 0
850 -262 205 0
-16 -3 -121 0
215 498 1 0
-779 -741 516 0
437 106 56 0
909 -213 338 0
995 -432 471 0
-871 860 -659 0
-185 553 -199 0
879 -171 -318 0
-452 815 -735 0
-979 5 413 0
494 817 -46 0
-274 -28 762 0
368 -885 -740 0
-639 162 -435 0
217 260 38 0
86 -658 103 0
-869 -624 689 0
-212 -568 -650 0
150 -444 533 0
-83 -988 -998 0
-598 -929 -112 0
402 -191 68 0
751 218 130 0
686 24 -271 0
510 843 635 0
451 -821 -502 0
5 203 252 0
-67 690 185 0
-545 348 377 0
569 795 189 0
-245 839 542 0
66 -597 -499 0
-769 -954 -61 0
475 -162 -909 0
-52 -354 304 0
843 -898 -529 0
-138 406 -332 0
747 -741 281 0
462 775 -461 0
-392 -195 264 0
97 -445 210 0
797 -837 275 0
896 -542 487 0
221 -371 869 0
994 548 -231 0
113 985 -892 0
-34 446 334 0
-240 -2 480 0
128 -422 337 0
-311 403 612 0
33 322 753 0
146 551 -460 0
321 -69 -403 0
-138 500 -717 0
-732 -656 604 0
-115 -924 210 0
97 -476 864 0
-541 -63 506 0
-777 -667 660 0
-827 348 895 0
-416 -563 183 0
-257 139 -419 0
133 57 -671 0
690 -142 -283 0
-518 239 -406 0
-417 -877 -207 0
-441 -679 -600 0
-932 143 58 0
-172 -90 460 0
983 365 -997 0
136 -725 -138 0
267 933 257 0
107 -953 -429 0
78 -740 -592 0
-434 -881 615 0
968 -908 33 0
-746 -550 -719 0
-204 497 649 0
160 336 -304 0
223 562 773 0
630 382 -700 0
634 -85 91 0
-380 -978 -810 0
796 -209 12 0
-36 -526 766 0
-778 615 -4 0
-867 -991 -491 0
-164 787 666 0
-833 236 850 0
-686 809 127 0
993 380 936 0
708 917 -363 0
369 782 766 0
284 -408 -306 0
-926 -176 519 0
-318 987 -939 0
-782 38 932 0
362 914 723 0
991 34 -171 0
846 296 -203 0
-255 -818 -463 0
631 -104 -660 0
714 776 -796 0
197 -544 -184 0
-636 118 -10 0
-372 727 -1 0
-186 636 498 0
933 229 469 0
-575 -770 763 0
-759 46 -638 0
-251 -311 582 0
507 18 784 0
-528 -256 439 0
307 70 -284 0
-670 695 666 0
-690 478 280 0
-181 804 150 0
-774 -494 807 0
-262 -560 -907 0
984 488 27 0
30 -146 751 0
-272 -124 116 0
-281 -167 803 0
-526 -742 -198 0
-410 -845 -982 0
-638 -752 -446 0
-478 -141 -954 0
127 772 778 0
-122 633 729 0
-180 176 -907 0
625 47 377 0
-521 908 -972 0
803 1 767 0
333 925 -777 0
-274 -275 -106 0
271 917 624 0
243 -285 151 0
-101 693 -165 0
-125 887 771 0
-648 188 146 0
153 -526 -97 0
369 -458 669 0
-745 288 814 0
-263 -421 -542 0
609 -478 -756 0
205 679 -482 0
-883 -327 -707 0
940 -39 663 0
-354 757 -973 0
-803 -23 -238 0
-413 -614 514 0
882 347 -891 0
-608 -776 -321 0
417 -512 192 0
724 338 844 0
522 -61 -805 0
456 -300 863 0
-615 215 -28 0
809 399 550 0
-51 -983 929 0
825 -762 -753 0
-940 16 9 0
-237 865 29 0
28 -215 -995 0
-169 -830 454 0
597 95 559 0
-209 371 715 0
832 -957 -566 0
345 641 19 0
-62 467 -49 0
-135 -16 -572 0
723 989 -848 0
842 -174 860 0
57 -128 439 0
-57 787 39 0
691 702 -854 0
-853 512 -880 0
798 -26 951 0
-363 -350 -126 0
228 169 155 0
398 875 -310 0
-714 630 654 0
14 702 543 0
-300 384 -125 0
364 51 605 0
-596 -846 182 0
566 452 730 0
141 -647 -975 0
-548 495 -206 0
35 125 -120 0
-594 -513 -666 0
719 1 -406 0
-653 387 -942 0
-721 533 -787 0
-253 492 478 0
-309 295 -918 0
236 -968 -794 0
-450 -839 -266 0
-473 731 -681 0
98 505 -298 0
16 747 -736 0
300 -243 -961 0
-578 -441 610 0
92 -726 254 0
41 372 -116 0
-405 -126 -247 0
440 838 -875 0
447 -597 -939 0
399 -882 885 0
-773 -98 710 0
-690 -704 392 0
764 -769 -49 0
656 -22 393 0
139 888 347 0
385 367 487 0
291 -246 -540 0
-306 53 -730 0
950 -968 -789 0
327 387 -965 0
-415 -225 738 0
589 -713 925 0
635 -42 968 0
984 -980 447 0
-681 -140 -62 0
509 744 901 0
-844 882 312 0
300 -126 -274 0
-171 -208 990 0
-28 -939 -558 0
-740 -51 750 0
550 -490 522 0
-284 -369 305 0
380 291 127 0
225 -816 -102 0
-90 -74 -130 0
448 -99 200 0
-522 -416 -239 0
-47 -459 -632 0
-300 536 829 0
-224 -67 597 0
742 -823 427 0
-151 837 -879 0
98 960 -472 0
-117 361 -431 0
-351 185 2 0
-960 229 -853 0
-514 482 401 0
-486 842 688 0
638 642 91 0
406 616 -789 0
-778 -648 -554 0
-971 450 949 0
-818 720 -736 0
663 207 -826 0
-730 900 716 0
151 620 -565 0
-292 155 965 0
505 932 -144 0
837 -438 -40 0
88 -915 -172 0
598 725 169 0
-619 691 -407 0
28 550 -336 0
-165 -667 -550 0
-73 -133 -694 0
-439 164 -45 0
-536 138 847 0
-373 996 856 0
572 84 -443 0
386 -828 -900 0
323 175 71 0
-889 868 -714 0
219 324 170 0
-684 147 -288 0
866 418 852 0
-133 -676 -862 0
-958 -424 -114 0
979 -464 722 0
783 -989 891 0
-292 67 123 0
-364 61 730 0
-986 -128 -202 0
-403 44 136 0
-354 906 262 0
-235 163 -987 0
-187 -168 -722 0
-401 861 -311 0
-80 654 -764 0
-854 -440 -2 0
58 -105 -377 0
-657 -919 21 0
-679 340 -751 0
501 123 649 0
925 51 -512 0
-760 -2 442 0
203 840 -749 0
166 752 -365 0
-65 -212 -538 0
274 -298 -444 0
-867 36 474 0
-322 276 -887 0
461 377 520 0
661 -521 85 0
-373 -74 -88 0
694 453 768 0
665 668 693 0
378 -341 -119 0
883 -398 -41 0
685 -683 780 0
967 616 239 0
-90 647 -162 0
-702 996 -985 0
895 -995 945 0
761 859 652 0
-900 75 -757 0
-837 -609 29 0
507 788 33 0
387 752 21 0
-426 -155 -278 0
-17 792 988 0
-561 512 -704 0
-341 142 -932 0
551 47 55 0
671 -955 151 0
212 -877 -71 0
-471 172 334 0
-214 -979 797 0
-72 201 862 0
80 643 -656 0
275 -43 -667 0
249 173 -163 0
215 -563 -277 0
672 -797 831 0
59 -400 -228 0
202 -333 -743 0
-316 -750 -434 0
-64 150 -587 0
-735 36 -950 0
-933 67 984 0
98 -634 -682 0
-821 -450 -214 0
-776 379 499 0
983 -162 -387 0
-964 -166 -405 0
-86 80 -125 0
582 -808 179 0
891 615 -522 0
612 975 -59 0
913 -950 -696 0
775 -111 465 0
34 -109 -117 0
863 618 907 0
-507 633 28 0
809 228 170 0
-469 -301 -992 0
233 333 -781 0
367 413 -866 0
-496 -144 -809 0
-684 773 967 0
365 240 726 0
-495 564 -243 0
-837 -90 -921 0
-509 -261 -580 0
97 -142 778 0
159 -347 987 0
451 728 -304 0
270 -378 127 0
335 469 -915 0
59 507 820 0
-494 461 260 0
309 798 64 0
523 503 150 0
487 -74 626 0
-420 912 -90 0
-129 81 807 0
-165 816 -45 0
754 -744 -170 0
988 347 583 0
974 -515 -401 0
-156 126 -936 0
-24 -296 -656 0
-95 -612 -458 0
-146 -612 -515 0
-742 -158 -880 0
-436 -176 -354 0
212 -451 -836 0
75 -754 -402 0
-723 511 -747 0
-246 -157 988 0
763 -512 527 0
-271 -575 -686 0
-773 -86 -237 0
-275 390 561 0
-107 274 -594 0
-447 -709 -933 0
-624 -173 -627 0
500 -297 700 0
302 -293 137 0
75 193 -558 0
166 24 -335 0
-573 255 22 0
773 752 -840 0
-503 623 472 0
534 130 -488 0
148 905 -858 0
-627 -555 -580 0
-285 -283 466 0
9 -576 120 0
-144 336 128 0
-500 -84 -43 0
-329 -705 309 0
-684 978 -76 0
-95 -213 -529 0
-468 130 464 0
-389 922 -15 0
921 -394 -187 0
-7 873 189 0
-656 266 3 0
425 -52 -62 0
361 -960 -326 0
768 431 -527 0
558 -209 -913 0
838 832 -407 0
209 628 -971 0
219 950 -347 0
913 391 -955 0
580 967 -398 0
-967 -855 239 0
-53 -49 -398 0
857 -499 567 0
-812 808 313 0
-187 417 255 0
837 -509 351 0
-376 747 -162 0
-568 213 -671 0
382 -928 178 0
-326 419 -222 0
-299 801 321 0
-232 228 -69 0
-122 192 421 0
-201 308 536 0
547 -747 805 0
-343 227 974 0
-572 223 -509 0
349 84 -990 0
-527 -7 -364 0
736 -179 -476 0
-768 -867 -960 0
751 -404 340 0
-473 390 -695 0
-395 50 519 0
-942 684 322 0
-389 -308 -859 0
-18 68 -991 0
-567 -381 -558 0
-504 -695 573 0
-7 143 550 0
716 842 -986 0
347 -818 609 0
-494 218 736 0
100 -296 -406 0
-588 979 564 0
87 -324 -489 0
-490 -214 -650 0
288 -645 664 0
739 249 -257 0
332 -175 691 0
826 156 844 0
-139 231 -101 0
-551 -218 162 0
-21 -513 -909 0
-645 -332 953 0
321 -762 -875 0
476 151 -73 0
-328 365 302 0
-235 -977 530 0
-827 434 -31 0
436 -31 579 0
-479 864 44 0
-517 869 64 0
-330 -546 -426 0
21 508 -442 0
-974 405 211 0
-143 -615 -757 0
2 -692 -65 0
-922 -277 -884 0
807 -366 676 0
853 -921 -58 0
-474 -632 -776 0
727 166 324 0
-485 -655 900 0
755 441 339 0
-199 401 -687 0
-233 -892 736 0
211 836 394 0
-580 350 -367 0
-830 791 -523 0
-236 -587 -914 0
-483 717 -89 0
601 -903 427 0
233 116 730 0
405 -598 269 0
-113 946 969 0
-667 -961 -430 0
-282 990 651 0
502 42 -317 0
704 678 -581 0
582 632 343 0
891 -529 -652 0
747 -744 938 0
68 111 -977 0
511 938 -553 0
-925 30 484 0
-922 -90 116 0
-192 739 748 0
-4 -127 -515 0
-301 241 -927 0
198 -204 -365 0
464 980 -856 0
-517 -443 444 0
-667 931 534 0
837 796 -906 0
745 682 319 0
537 238 -644 0
-270 343 -680 0
-75 -319 -114 0
-842 -967 980 0
958 -276 458 0
721 624 -857 0
-838 -45 -570 0
-63 826 -693 0
935 730 269 0
-408 611 497 0
894 -456 253 0
-654 -24 -125 0
-992 856 -178 0
744 477 508 0
796 897 563 0
322 622 628 0
-264 255 862 0
-233 -38 -428 0
-461 -908 -755 0
-50 -433 66 0
717 -871 688 0
707 90 924 0
741 895 496 0
-410 668 506 0
-670 -925 704 0
184 -842 210 0
-337 -975 -737 0
-809 -700 229 0
-717 32 178 0
554 186 365 0
491 205 830 0
790 -348 -386 0
-490 23 198 0
554 126 392 0
-219 828 -396 0
536 -57 -431 0
-997 114 390 0
-37 -813 -854 0
-217 -68 -647 0
-380 470 741 0
406 -443 957 0
550 77 -70 0
439 98 808 0
-137 -894 -714 0
-790 864 915 0
-156 855 -337 0
-279 -937 677 0
517 -575 -127 0
-68 -719 545 0
423 177 441 0
-390 -985 880 0
-126 -893 693 0
-857 939 -173 0
-487 -52 57 0
-4 -810 595 0
-810 -617 -574 0
-897 -543 661 0
649 -587 596 0
-270 -857 -452 0
794 254 -371 0
325 352 -198 0
-918 -243 570 0
-302 -454 -778 0
173 48 301 0
-406 24 -788 0
252 875 -585 0
657 -974 152 0
239 -25 306 0
663 -981 -874 0
392 957 -423 0
-286 -244 -441 0
-355 -821 -703 0
387 340 144 0
949 245 73 0
-329 899 -824 0
-107 671 -218 0
945 654 421 0
-119 -366 -638 0
-348 -236 261 0
-420 857 142 0
-369 -666 103 0
113 -974 -779 0
701 -807 -726 0
-227 -827 255 0
-24 301 213 0
-539 234 -781 0
-973 350 814 0
959 328 37 0
-810 238 651 0
972 -35 440 0
349 -432 641 0
274 -247 -123 0
-527 -712 -436 0
-787 603 -366 0
-229 170 -903 0
-298 -102 -325 0
-840 342 -831 0
-458 -31 -111 0
-756 -321 649 0
165 863 -16 0
-476 117 -569 0
-741 459 224 0
-252 -357 342 0
-29 84 -625 0
400 555 856 0
966 691 416 0
887 409 791 0
-26 -179 -640 0
973 735 -901 0
-474 376 -629 0
-106 257 501 0
-66 -653 -448 0
-12 -701 -305 0
381 -560 408 0
-638 -476 -160 0
-504 302 296 0
700 -760 691 0
729 -967 493 0
-808 683 -391 0
939 -936 172 0
5 -152 952 0
-506 490 -129 0
423 -570 444 0
490 533 395 0
-661 -926 213 0
-39 -545 -375 0
70 -623 526 0
-472 -707 -410 0
-624 -529 351 0
-588 -48 939 0
559 -91 981 0
-677 336 709 0
-90 -107 269 0
-247 -512 128 0
-580 982 853 0
220 353 929 0
-537 693 -546 0
157 -454 -547 0
973 -584 -109 0
115 543 -222 0
-425 760 -481 0
615 129 -105 0
500 -73 -574 0
-165 -163 -509 0
629 599 578 0
-150 -108 -22 0
818 -212 501 0
-123 913 -330 0
-645 -884 -6 0
260 909 -821 0
897 -204 -870 0
480 -450 -142 0
-353 -488 987 0
-698 -229 437 0
-708 -412 -442 0
911 -640 502 0
402 778 -297 0
904 297 271 0
-963 594 915 0
454 -943 -785 0
-222 57 716 0
-355 -91 603 0
-610 162 -432 0
-807 -837 268 0
-431 730 313 0
-48 635 443 0
622 -241 968 0
-669 996 -815 0
701 916 -723 0
642 -69 -217 0
-143 744 -301 0
735 291 -773 0
306 -782 -163 0
17 928 316 0
498 645 -47 0
318 -887 772 0
423 -88 553 0
-508 181 469 0
618 -127 177 0
-784 936 -359 0
182 -278 303 0
250 54 -233 0
-937 940 86 0
-495 -524 404 0
-886 661 660 0
272 -121 -551 0
750 -825 182 0
485 -963 162 0
-87 769 839 0
-639 25 -645 0
448 286 459 0
877 -609 -63 0
27 -243 -688 0
647 -977 -64 0
534 -855 -973 0
940 -104 -290 0
-974 -418 -805 0
-630 211 156 0
158 765 -36 0
822 622 -458 0
28 -623 -173 0
290 -836 577 0
829 724 -820 0
-336 -171 897 0
74 85 109 0
464 -818 365 0
304 485 2 0
163 985 -33 0
441 -416 -726 0
-742 -227 -960 0
365 916 379 0
316 35 151 0
-101 -948 18 0
-967 153 671 0
-721 960 478 0
-44 -29 -881 0
919 -901 -592 0
-979 480 998 0
627 -919 457 0
-619 -981 -296 0
90 -232 -391 0
-512 557 500 0
-718 983 567 0
256 568 -350 0
-502 -105 946 0
432 801 484 0
863 595 -573 0
298 219 -874 0
200 -39 -584 0
-556 854 -512 0
956 -944 926 0
347 -387 967 0
-773 -943 1000 0
-116 193 -627 0
873 -619 -901 0
-611 -387 -862 0
-648 378 -981 0
-549 269 -207 0
630 339 727 0
-749 -954 202 0
-938 -637 -573 0
185 -201 -266 0
854 -872 -82 0
-198 684 881 0
-947 -861 17 0
-879 -606 346 0
-779 49 -327 0
531 680 -388 0
842 -400 -236 0
68 -239 456 0
-983 693 -967 0
-261 234 -558 0
-242 -856 -849 0
-897 -974 -242 0
442 245 -821 0
-110 801 -785 0
711 973 -500 0
161 -105 -191 0
121 308 -17 0
220 806 -462 0
-581 -669 -97 0
-835 -510 290 0
-552 -866 -19 0
567 -310 -327 0
-577 -307 -829 0
285 114 -95 0
-398 -810 454 0
856 -720 -224 0
384 210 509 0
465 -79 -829 0
516 412 -656 0
-768 -145 434 0
-236 -883 -512 0
286 950 695 0
-447 82 -88 0
973 197 -441 0
762 -715 584 0
-213 -477 -206 0
963 -850 -510 0
-797 85 -617 0
-248 749 116 0
900 -183 -794 0
-816 -605 -96 0
-935 251 -471 0
-486 974 -772 0
981 -848 -223 0
287 957 -86 0
-395 546 -569 0
-913 -365 -323 0
-639 614 520 0
-647 574 -416 0
147 786 -690 0
-96 688 -326 0
884 581 -261 0
-162 208 -658 0
977 66 -550 0
-945 -220 -188 0
726 968 -817 0
-24 697 125 0
-802 995 -855 0
-326 -504 -973 0
368 -632 -754 0
-504 889 -690 0
759 -3 332 0
-3 369 -467 0
627 -657 -344 0
-968 769 -464 0
-852 136 -814 0
-358 37 476 0
-273 425 -274 0
-336 -789 440 0
-83 -942 779 0
-144 1000 -164 0
-980 233 694 0
220 540 35 0
-153 60 6 0
-915 -358 224 0
-997 761 -763 0
751 765 291 0
669 -767 218 0
467 -746 332 0
870 -549 264 0
403 373 -683 0
774 394 700 0
300 -611 61 0
167 195 -211 0
-45 412 195 0
-92 -22 -821 0
-789 971 -893 0
-349 898 -388 0
-98 -523 808 0
892 -449 504 0
-683 180 -967 0
7 -157 -708 0
841 -536 -196 0
-428 -43 -657 0
846 -888 -399 0
311 -49 -161 0
-301 217 -785 0
45 -669 -628 0
-850 -999 -69 0
806 600 51 0
-563 461 51 0
809 61 -939 0
932 -165 -652 0
800 268 -225 0
898 840 242 0
253 367 -544 0
11 901 -491 0
-540 959 -39 0
900 769 316 0
-37 450 657 0
508 -902 -558 0
-842 -405 446 0
157 -224 139 0
518 477 398 0
56 -902 791 0
-569 -932 758 0
721 -224 -266 0
-602 688 -457 0
585 948 743 0
-377 538 -374 0
661 -956 915 0
872 -658 854 0
820 -381 160 0
-379 -79 855 0
869 504 650 0
-250 -94 850 0
562 -933 447 0
964 -355 -745 0
-960 736 303 0
-644 645 253 0
265 601 -964 0
453 -122 -419 0
-915 -211 31 0
45 493 400 0
389 798 195 0
-258 985 200 0
-748 -345 -154 0
236 -244 -893 0
-499 -721 -401 0
-976 -660 744 0
672 -360 987 0
698 -552 365 0
943 -396 -344 0
-973 -697 -818 0
798 -613 -500 0
585 728 743 0
524 243 -894 0
-278 -536 102 0
858 778 148 0
-282 -69 -664 0
-976 -759 696 0
235 592 -893 0
370 -923 -38 0
234 978 22 0
176 444 -736 0
-631 273 515 0
-448 776 695 0
-755 -154 -459 0
-410 -92 933 0
74 -81 320 0
-842 -104 657 0
839 -593 -773 0
-146 -144 -33 0
650 -350 -751 0
960 -837 -306 0
-947 320 72 0
-881 -8 31 0
551 -437 -693 0
298 -573 -817 0
-710 868 131 0
-368 -154 -803 0
-77 -125 782 0
-720 390 -874 0
-750 -382 -253 0
816 639 -438 0
560 -722 471 0
-203 -428 935 0
-331 701 -992 0
-432 934 16 0
103 760 -377 0
-421 13 -228 0
764 -92 331 0
944 286 732 0
245 -534 292 0
-590 -783 861 0
644 -720 -452 0
-728 -117 -10 0
647 -120 -986 0
896 -555 666 0
942 450 3 0
-732 458 584 0
-757 234 -376 0
7 539 808 0
-586 317 623 0
892 709 -423 0
-13 565 -177 0
315 383 919 0
-122 224 -728 0
-650 913 120 0
-419 442 831 0
628 -773 601 0
-547 224 785 0
685 -982 -807 0
-634 -537 -886 0
-262 173 833 0
31 -188 329 0
196 -259 -493 0
-382 621 914 0
314 -428 -714 0
-512 96 -559 0
347 -180 701 0
443 -374 -579 0
847 772 -199 0
229 918 -123 0
385 -733 -355 0
-4 -763 -736 0
-862 -507 -715 0
744 -428 591 0
-787 671 -536 0
948 -464 680 0
155 826 16 0
-58 711 109 0
845 9 371 0
-168 -766 938 0
-192 595 -574 0
-341 426 123 0
-861 -869 25 0
-978 933 56 0
-44 144 -89 0
-523 -272 -871 0
362 567 149 0
86 -741 -187 0
-708 -175 643 0
288 -6 -900 0
-438 -990 210 0
923 992 -465 0
590 496 -45 0
-342 475 -250 0
169 118 -870 0
-346 -358 -994 0
-240 -687 236 0
513 729 346 0
340 -451 -339 0
-64 -900 427 0
-402 689 587 0
800 -886 -174 0
745 177 -163 0
657 -816 -743 0
845 77 509 0
-653 -494 -435 0
974 873 -552 0
462 -215 -731 0
796 -552 534 0
582 -181 -762 0
-848 -122 589 0
-234 518 -528 0
773 -900 -873 0
318 -739 -46 0
671 755 593 0
-637 -725 -41 0
826 605 -102 0
471 -436 676 0
882 -239 -995 0
-756 78 141 0
926 244 -721 0
413 426 331 0
-629 674 716 0
-714 -746 -19 0
-948 -298 -675 0
204 -503 344 0
700 644 655 0
866 -553 -447 0
-335 -659 -404 0
-745 -787 -768 0
689 431 667 0
948 440 249 0
465 754 65 0
-754 -18 -272 0
666 -98 -790 0
149 103 -882 0
698 -381 -222 0
691 -70 142 0
-438 907 -671 0
588 -153 258 0
-184 -385 533 0
-357 -928 -996 0
386 764 -798 0
675 417 125 0
-839 -763 243 0
74 796 -540 0
-177 704 -482 0
-913 -545 140 0
-554 -735 343 0
-975 -953 -623 0
698 322 -433 0
-353 987 -453 0
-591 -73 221 0
-377 524 -645 0
-421 522 279 0
55 700 -654 0
-405 347 -57 0
-399 -991 -791 0
-812 -601 154 0
-425 -604 904 0
223 -448 732 0
-439 732 756 0
760 424 160 0
-975 -785 -111 0
298 -655 877 0
790 879 -264 0
943 -765 877 0
-171 717 88 0
219 509 -970 0
-10 224 726 0
96 905 -673 0
-629 -564 -357 0
356 -701 -221 0
-843 158 -860 0
468 -938 823 0
-808 -329 -887 0
554 -696 752 0
970 293 -880 0
-43 308 -804 0
-85 -896 558 0
-185 454 63 0
-251 -666 707 0
720 744 509 0
-169 860 552 0
-412 -125 925 0
-418 -274 -25 0
295 808 27 0
-470 521 366 0
458 636 222 0
-331 -784 -928 0
924 335 -664 0
701 338 319 0
-247 226 -865 0
209 -282 441 0
33 -5 141 0
215 492 375 0
-292 245 755 0
-667 955 -68 0
-546 579 122 0
-93 166 -623 0
962 -267 -715 0
-13 -778 -434 0
-477 -571 510 0
-388 -108 118 0
-200 596 -591 0
-750 -151 211 0
-960 -975 -485 0
-637 -398 964 0
717 249 -846 0
-267 -624 -100 0
574 -710 -684 0
473 178 580 0
-269 -129 279 0
-322 -222 -543 0
508 325 -356 0
-878 954 1 0
-462 664 124 0
-273 796 216 0
-662 90 -859 0
-474 522 906 0
-537 144 250 0
105 -762 -310 0
343 781 -759 0
991 244 -220 0
-675 -760 411 0
442 104 860 0
-356 -102 -780 0
-197 523 153 0
-366 569 -609 0
-401 546 372 0
-331 -270 -853 0
240 -319 61 0
-799 -749 295 0
-730 845 -45 0
957 -36 431 0
-486 -506 -910 0
-748 -862 -406 0
-438 -720 -29 0
707 698 -552 0
-597 703 -447 0
-835 748 -54 0
385 -522 -883 0
985 759 698 0
183 -225 -147 0
-3 674 -867 0
-596 -828 191 0
-889 -809 447 0
371 658 8 0
-287 -999 373 0
509 570 193 0
298 -488 685 0
-426 481 -213 0
22 -482 708 0
-718 -536 710 0
988 -887 996 0
-953 -469 557 0
-658 -929 443 0
-221 754 733 0
-381 298 -79 0
307 -18 192 0
936 -582 -900 0
117 -989 -466 0
855 985 -734 0
-888 793 -279 0
455 597 -880 0
-800 456 960 0
983 -465 561 0
-875 -751 141 0
-756 777 -288 0
-604 -704 -136 0
990 597 -511 0
-669 -319 914 0
-868 162 -742 0
-290 -585 -177 0
126 -112 -955 0
-577 -815 738 0
318 -879 -253 0
-618 -88 849 0
397 274 399 0
-374 -389 404 0
816 976 -984 0
507 735 -602 0
724 -1 -741 0
551 -997 -781 0
720 -50 817 0
-414 576 619 0
931 40 539 0
-607 -596 512 0
-737 125 638 0
685 -438 -640 0
-659 -319 184 0
658 875 -171 0
-121 146 -967 0
632 -42 -401 0
740 -333 -486 0
-77 363 958 0
-470 985 -11 0
397 -161 -980 0
-398 -863 -883 0
-17 -616 186 0
139 708 437 0
755 706 -182 0
858 -630 46 0
844 403 -672 0
256 654 -281 0
-503 -415 -829 0
-243 645 396 0
14 34 294 0
973 485 -524 0
413 -407 -764 0
497 491 892 0
-820 -810 -621 0
2 -429 725 0
-861 -497 260 0
-357 -405 934 0
998 490 -219 0
-156 317 -575 0
450 -243 270 0
340 -495 831 0
-873 -152 -580 0
-12 379 86 0
-654 -133 383 0
695 -277 172 0
-492 -897 738 0
-991 375 85 0
-842 95 385 0
-761 -564 513 0
-740 -148 23 0
152 409 129 0
-603 924 -219 0
-937 569 767 0
396 577 812 0
-155 840 -489 0
266 977 -418 0
416 901 -198 0
-817 159 469 0
-279 -453 -270 0
683 151 -186 0
-909 216 -770 0
-65 -85 35 0
573 937 -380 0
-285 900 -837 0
-656 -733 45 0
838 763 -367 0
-187 237 440 0
45 -863 75 0
914 669 -772 0
-970 -333 621 0
-416 -116 -672 0
-34 -161 434 0
786 -679 158 0
-110 121 455 0
-426 -845 -53 0
-339 -531 -577 0
-390 -745 704 0
80 -517 768 0
-803 132 548 0
206 750 419 0
43 -998 -522 0
760 -826 -19 0
-361 299 -573 0
-523 79 113 0
470 -421 711 0
-508 385 45 0
993 730 -890 0
707 -240 379 0
75 918 372 0
938 -909 413 0
714 675 730 0
-645 355 889 0
-966 -325 -833 0
-937 -921 100 0
741 185 -439 0
-801 -693 -802 0
-134 -644 755 0
-913 -469 687 0
156 -832 -662 0
-627 436 -958 0
938 -11 -122 0
-391 -301 681 0
330 79 404 0
317 127 -360 0
-944 -956 665 0
75 679 -973 0
-109 -492 279 0
-850 87 -520 0
-936 -127 -941 0
269 -959 999 0
-772 -885 84 0
255 -904 815 0
39 -294 325 0
348 83 187 0
852 718 833 0
417 -109 367 0
-135 -975 -782 0
-845 -135 155 0
-113 697 -806 0
-350 22 501 0
267 -181 -723 0
853 343 61 0
-866 406 -604 0
111 -744 904 0
-896 -734 993 0
-671 -922 -467 0
-446 -256 478 0
-959 -198 783 0
-666 432 802 0
328 -572 120 0
-127 254 -445 0
-913 756 -205 0
-194 -52 -147 0
-302 -806 382 0
-422 362 -951 0
185 -847 684 0
369 472 -854 0
714 -244 690 0
-817 430 -162 0
-111 -145 399 0
-371 131 733 0
-757 998 485 0
591 86 -243 0
901 121 91 0
394 247 867 0
-119 302 867 0
-383 -916 -954 0
-464 -858 179 0
-421 -885 -423 0
759 53 136 0
555 -786 -513 0
961 -782 345 0
-107 344 419 0
715 -664 438 0
-671 -315 -214 0
4 -862 463 0
-674 -630 684 0
-962 -579 534 0
67 -255 -610 0
-699 460 209 0
-933 -801 -593 0
866 24 -753 0
227 333 481 0
399 -384 -262 0
676 698 955 0
-709 897 293 0
943 657 51 0
-207 200 -647 0
170 -315 792 0
-291 -369 615 0
-116 -911 -547 0
-817 600 54 0
282 -763 -813 0
73 -214 484 0
851 -433 -10 0
523 534 223 0
439 56 -968 0
-255 -386 -71 0
64 836 -128 0
272 196 21 0
-225 694 -599 0
486 -964 -424 0
68 -627 479 0
926 -242 431 0
565 -675 186 0
-354 -936 20 0
-938 -272 -756 0
-783 22 -41 0
926 -484 77 0
30 -486 764 0
-892 -478 115 0
-54 906 375 0
169 184 -831 0
-325 -270 526 0
-773 214 -26 0
711 -667 -526 0
725 650 -786 0
677 962 -389 0
699 -704 244 0
170 -162 83 0
-246 -804 481 0
-575 -589 -21 0
142 460 43 0
812 -831 40 0
568 -171 -263 0
-306 -182 -603 0
781 -505 780 0
810 368 700 0
81 621 243 0
704 -876 210 0
177 -498 -388 0
962 181 148 0
-998 801 -144 0
25 -162 -754 0
-2 754 -137 0
957 -968 979 0
176 -483 800 0
687 429 969 0
16 -47 -765 0
-174 -120 854 0
590 271 182 0
510 982 -96 0
159 830 550 0
688 -803 -453 0
981 102 178 0
-386 -922 998 0
-787 -41 485 0
906 790 545 0
-228 -999 -786 0
-737 -920 -195 0
668 -214 946 0
303 -242 -346 0
1 -684 291 0
-625 397 -251 0
292 285 414 0
-828 -310 919 0
-450 167 199 0
-754 449 -856 0
397 -433 246 0
-957 -372 -267 0
-437 -879 596 0
-555 688 -80 0
-879 -881 751 0
-112 497 86 0
983 531 7 0
-498 198 -31 0
-664 -240 -813 0
764 698 192 0
-369 -910 -230 0
-308 556 -713 0
-288 588 -969 0
-645 -978 -303 0
-979 -97 859 0
-857 -492 268 0
-472 527 484 0
418 343 -844 0
532 945 -664 0
-28 464 48 0
443 614 -818 0
-229 822 469 0
-994 603 885 0
-694 36 -728 0
1 271 158 0
-469 -784 471 0
-62 -584 -441 0
142 -432 863 0
188 255 194 0
667 985 -43 0
936 805 944 0
188 -643 -573 0
308 -432 262 0
-740 752 -359 0
259 -158 -964 0
224 -647 946 0
822 472 -928 0
-586 18 -474 0
816 -52 -95 0
570 892 -510 0
-255 -268 -448 0
895 -357 47 0
697 205 -637 0
-711 894 131 0
747 466 767 0
300 771 -472 0
378 95 912 0
-859 745 137 0
-807 889 -409 0
843 625 -889 0
956 -205 187 0
355 -876 611 0
-655 -775 883 0
973 705 -25 0
-942 -964 -577 0
318 -233 547 0
-966 124 -105 0
201 -308 -545 0
-24 500 -206 0
508 -783 847 0
-637 431 496 0
-480 573 600 0
-367 -467 24 0
403 -764 -574 0
-432 -173 601 0
977 707 609 0
-563 -525 97 0
176 -293 237 0
159 -631 -995 0
785 669 277 0
-508 -593 -101 0
-285 -623 657 0
-474 256 896 0
599 -222 10 0
-481 -933 -617 0
879 411 724 0
-264 -834 -822 0
955 29 -523 0
873 -499 240 0
-516 950 -321 0
731 270 277 0
22 604 -105 0
-368 827 96 0
891 274 -45 0
362 -900 -636 0
980 -104 431 0
-706 -994 941 0
-64 471 510 0
-826 228 790 0
-960 -527 -295 0
190 457 80 0
-834 33 137 0
633 930 485 0
803 793 742 0
737 -619 881 0
3 -817 177 0
-341 -393 141 0
-592 -416 225 0
-242 996 -565 0
864 631 698 0
-281 579 375 0
942 -420 122 0
642 -873 -131 0
48 -626 -222 0
-398 755 -789 0
279 -989 -998 0
-981 -281 -880 0
956 271 420 0
-128 -662 423 0
666 329 -770 0
164 -231 -20 0
724 -566 226 0
-829 -583 -948 0
-999 758 -558 0
980 -2 -483 0
734 -852 -202 0
-101 453 -480 0
891 79 632 0
62 -413 248 0
-900 74 825 0
-35 -647 -475 0
426 859 663 0
312 -462 429 0
399 -653 -148 0
530 830 -924 0
-545 -742 510 0
566 449 517 0
-811 -204 476 0
-481 854 83 0
-32 43 928 0
-920 735 -500 0
322 945 504 0
-79 577 106 0
986 771 -375 0
-729 -276 987 0
-191 -67 637 0
-887 -700 -177 0
-985 391 241 0
-169 734 -218 0
-592 412 -209 0
-434 -578 -898 0
-563 227 975 0
923 463 366 0
892 361 967 0
-664 904 -82 0
288 -156 -112 0
991 135 695 0
-128 -292 36 0
580 361 -334 0
-673 979 -21 0
834 -693 -638 0
324 928 127 0
-836 744 -944 0
736 -120 -521 0
-514 -553 717 0
-115 -366 -340 0
-765 970 999 0
934 -373 -650 0
-691 119 -860 0
388 205 923 0
-789 -9 282 0
-102 -433 475 0
-756 978 687 0
220 722 449 0
-39 -677 -748 0
872 -594 791 0
599 867 743 0
575 -468 480 0
-189 -307 -723 0
880 -948 -59 0
-748 -419 -470 0
472 -884 847 0
-384 -563 338 0
-926 -125 -486 0
-387 -888 330 0
-935 953 572 0
-454 -32 621 0
181 -580 787 0
511 800 568 0
454 -933 -186 0
134 334 76 0
163 402 929 0
-852 149 -491 0
81 -552 -331 0
485 -41 243 0
-430 371 756 0
-420 936 492 0
-418 -617 467 0
694 427 -725 0
980 164 -972 0
234 -537 171 0
642 -394 789 0
956 -979 -721 0
764 166 878 0
312 -764 144 0
-148 -857 601 0
-152 -106 340 0
-642 781 -554 0
100 97 -985 0
628 939 -541 0
-583 -48 553 0
219 -604 -211 0
720 -706 817 0
816 -926 190 0
987 -539 431 0
895 446 625 0
-248 366 -234 0
-207 215 655 0
705 -156 -179 0
-714 -676 -361 0
-454 -971 -389 0
463 336 -810 0
591 558 646 0
766 526 137 0
-218 -289 291 0
-619 755 -500 0
554 -353 571 0
658 -888 702 0
-832 326 -262 0
152 778 630 0
-944 -245 -873 0
-757 341 690 0
506 -920 -878 0
345 277 -948 0
-617 -895 576 0
955 177 477 0
502 5 482 0
791 591 528 0
929 -901 -416 0
947 -243 684 0
-830 -870 344 0
-520 249 502 0
-152 -82 890 0
-406 -899 -917 0
751 701 273 0
-746 -638 69 0
679 -95 538 0
960 493 643 0
567 180 -419 0
725 713 310 0
342 -433 -862 0
819 870 206 0
877 -632 -540 0
824 887 -243 0
188 755 -588 0
-804 410 -159 0
762 -685 593 0
729 455 470 0
-933 -811 832 0
-375 -888 142 0
-845 555 241 0
231 276 956 0
-187 -808 -167 0
287 224 -301 0
335 -19 391 0
124 962 650 0
191 -827 -422 0
802 -81 -13 0
-653 -230 -890 0
729 -138 -872 0
-870 153 -668 0
928 203 230 0
-334 729 366 0
-806 390 -275 0
159 -298 -911 0
544 377 -553 0
499 348 652 0
723 157 -510 0
-583 -846 304 0
511 497 186 0
-190 -481 977 0
647 103 -988 0
-425 925 719 0
110 160 83 0
62 107 -507 0
995 -479 816 0
891 -260 452 0
-73 250 -176 0
-629 491 183 0
667 239 436 0
-395 775 -877 0
32 394 -919 0
640 -840 -510 0
-424 539 -65 0
-947 878 391 0
-437 322 -569 0
619 101 171 0
198 922 -183 0
974 969 -77 0
338 95 366 0
-895 174 -90 0
802 -934 -902 0
-443 35 -607 0
821 -735 -57 0
-112 437 -636 0
-794 -545 399 0
635 734 -255 0
-615 -290 -281 0
840 781 -284 0
-245 -923 -969 0
200 -523 -784 0
-395 -971 -224 0
142 -495 -823 0
-171 300 834 0
-725 -998 -889 0
-425 794 -464 0
688 -65 945 0
608 -145 -330 0
330 -65 -365 0
125 -954 315 0
-633 -4 -320 0
-498 -35 113 0
307 644 825 0
-702 573 -268 0
632 837 651 0
642 -632 -872 0
931 609 -645 0
-142 971 767 0
114 -174 -214 0
408 790 -297 0
-828 -338 441 0
36 331 541 0
-822 364 -389 0
-909 947 311 0
-850 -869 855 0
-52 84 264 0
550 -864 250 0
-459 24 -300 0
717 -869 -103 0
440 657 618 0
647 748 129 0
-1000 915 635 0
-50 782 313 0
-227 663 -453 0
528 463 -211 0
-716 -99 200 0
-772 172 -255 0
621 125 702 0
377 -989 -811 0
-833 -600 413 0
-477 15 -465 0
154 -86 -639 0
-834 -930 654 0
-380 -535 599 0
-236 359 -636 0
-882 607 424 0
-190 552 653 0
-841 -356 -317 0
-893 -73 472 0
-496 272 -574 0
410 -950 618 0
-897 67 954 0
79 42 -15 0
-236 945 977 0
-975 -951 375 0
25 471 982 0
519 -962 -211 0
289 -477 -611 0
581 844 295 0
679 -480 661 0
448 322 -10 0
-756 717 -123 0
491 -532 -679 0
-993 -131 -598 0
-433 -261 -352 0
-109 -484 831 0
-881 392 -761 0
497 -216 520 0
488 -136 -380 0
969 814 -757 0
-341 -882 -607 0
236 -625 -676 0
338 906 -737 0
225 -77 -355 0
355 246 -858 0
134 -474 438 0
217 -443 -988 0
977 550 -714 0
-132 814 781 0
357 336 54 0
-900 -948 -327 0
-67 -876 -978 0
-589 -718 -29 0
-207 -205 -200 0
704 -674 -499 0
848 -79 356 0
-524 -885 795 0
-480 -189 392 0
-58 -359 213 0
298 -150 -661 0
774 126 804 0
449 134 -852 0
126 364 844 0
319 88 -21 0
-24 375 207 0
-501 91 965 0
-436 291 956 0
-29 315 45 0
263 895 -42 0
513 -157 103 0
657 722 877 0
-907 -943 954 0
235 193 884 0
-294 490 271 0
20 817 465 0
544 -911 -906 0
-377 -289 67 0
900 -869 495 0
323 260 -561 0
889 7 -969 0
-758 -627 -396 0
85 -900 674 0
593 -201 -343 0
446 -480 -916 0
-146 -502 -147 0
-548 400 -100 0
13 794 -117 0
352 -659 435 0
416 711 -389 0
-506 -668 -228 0
-281 -117 84 0
-463 198 795 0
860 602 296 0
-514 413 -239 0
236 -732 -318 0
332 146 -764 0
693 -920 -684 0
-977 -854 -394 0
-455 -478 -444 0
789 89 -448 0
271 699 238 0
100 -462 -142 0
305 -260 -406 0
696 -785 -768 0
753 614 -322 0
296 -428 -873 0
690 375 307 0
-819 682 -307 0
-335 -858 468 0
915 480 -826 0
888 294 451 0
-170 557 -167 0
-22 377 -965 0
-447 988 370 0
-271 -647 -209 0
340 -20 -292 0
756 -608 200 0
-397 335 -968 0
514 993 665 0
658 357 -683 0
297 891 167 0
798 661 663 0
114 613 467 0
672 471 -717 0
-580 -961 638 0
-724 686 -347 0
-475 -582 448 0
395 337 659 0
-422 484 913 0
858 673 -12 0
-458 -732 58 0
-42 -582 -132 0
-803 -208 -889 0
-860 -143 -852 0
-890 221 -647 0
465 790 -609 0
-188 -469 -366 0
-416 941 -363 0
-468 820 395 0
568 192 -382 0
950 363 -549 0
841 435 925 0
-420 891 -897 0
272 -232 -746 0
-118 -119 271 0
418 143 139 0
-674 659 -906 0
408 611 -42 0
-917 136 439 0
-588 -982 489 0
-370 -724 -786 0
8 -862 577 0
409 -507 -464 0
284 -724 90 0
324 -941 229 0
-238 593 425 0
892 -847 468 0
306 388 -834 0
45 604 -587 0
927 -748 -728 0
651 888 -479 0
-105 595 567 0
-716 836 -177 0
157 925 -96 0
954 336 -707 0
583 -627 619 0
-174 931 -255 0
-146 777 255 0
