c Large 3-SAT formula for GPU testing
c 4000 variables, 17200 clauses (ratio: 4.3)
p cnf 4000 17200
2344 1072 2667 0
-3682 -2954 -2194 0
3949 -1685 -1950 0
1324 -3288 -1358 0
-161 3611 2091 0
-682 906 -2462 0
-2812 293 395 0
-479 -2170 1296 0
-2799 -1900 848 0
2214 -1614 -1195 0
-1557 -908 562 0
-1968 262 325 0
-3942 -3348 514 0
-2219 -254 3186 0
2156 1374 -2950 0
430 1273 1605 0
-902 3096 -2670 0
2789 -2606 -2713 0
-1452 3393 -1457 0
-2889 3009 -1983 0
3839 -2390 3287 0
-224 -2347 -3346 0
1108 -1649 3764 0
-3458 -1772 -1644 0
1786 3938 1276 0
-3561 2267 79 0
-2394 -1445 974 0
2656 -2117 -2073 0
-1733 -947 -3664 0
-96 1436 1042 0
-2887 78 -2190 0
641 2456 1183 0
1429 2372 3613 0
315 1111 -1232 0
3633 -2773 1636 0
3666 -2738 3030 0
-1987 -37 -3497 0
-264 -3187 3687 0
-2633 1457 -2808 0
2207 -2717 -3051 0
3859 3356 -1907 0
2437 -2926 -17 0
-1658 1925 -1418 0
156 1777 -2296 0
-3098 2508 3396 0
1856 -3014 -2050 0
3707 790 -3753 0
977 -699 2945 0
813 3041 -2899 0
-1843 3202 -363 0
-464 1813 1297 0
3901 -1936 3733 0
1848 79 -3408 0
-266 2991 -1961 0
-2503 885 1917 0
2436 -2675 1046 0
1418 -3520 -2475 0
3999 210 1197 0
-1734 1940 -2306 0
3361 -3550 -2314 0
2742 1948 1712 0
968 3876 1050 0
-2458 1743 -1355 0
-1798 -3792 -1600 0
-2140 2644 1901 0
3076 1011 883 0
2247 -3854 3458 0
1331 3574 -57 0
549 -2876 1244 0
-937 2009 -1202 0
-3728 -1314 -1201 0
-574 2635 3330 0
1281 726 -2257 0
-3808 2895 -380 0
3212 348 -344 0
-3526 2336 3842 0
-1749 -469 -3456 0
1242 2718 3208 0
-2620 653 -1324 0
510 -624 -2328 0
66 -3276 -746 0
3454 1165 -2307 0
498 -619 -69 0
353 -2407 -3821 0
-2964 -2293 2666 0
3384 2529 3314 0
-974 -1614 1979 0
-911 3742 1134 0
-376 -2735 441 0
-3175 -1184 -3291 0
2498 2576 3992 0
2346 2250 2857 0
3817 399 -2187 0
1725 3947 943 0
3294 1015 -3678 0
253 -748 2145 0
-1768 -1319 -2574 0
3840 544 3848 0
-3612 -317 3227 0
3893 -3488 -2495 0
-3432 -2536 1437 0
-1823 -2882 -1059 0
-612 -1463 547 0
1960 -132 637 0
-826 -2144 -3748 0
1343 -1030 47 0
-828 1534 1762 0
1477 -113 -651 0
2108 -2952 -1494 0
3837 -1563 -2735 0
-2121 -2358 -1514 0
-1344 -3910 2134 0
-1480 1521 2440 0
-1214 -841 -1955 0
457 -2631 2832 0
1882 2209 1721 0
143 -1358 1858 0
-1175 2308 -2148 0
1615 3209 1435 0
-1340 -878 974 0
2790 3100 -3899 0
2658 -2565 2535 0
-376 -2969 265 0
-288 -3961 -2117 0
-3302 941 -1445 0
-3407 2841 -310 0
891 718 2574 0
1798 -1771 2370 0
2500 720 -1105 0
-2777 -3877 -3175 0
-2910 2907 22 0
1789 -3280 6 0
1579 683 2879 0
769 -2008 2277 0
2182 363 892 0
2967 2041 -938 0
1667 737 -3702 0
-3133 1350 -633 0
-1046 -2744 -2773 0
1723 -3392 1917 0
3946 -2716 -2104 0
1747 1850 -1067 0
3483 -687 -2593 0
-863 3265 2082 0
-3426 -3534 -2119 0
-455 -1919 -3938 0
2971 3752 -3896 0
-1269 746 1931 0
-3530 585 -2117 0
3034 -2707 -3402 0
-769 -713 1283 0
3768 -2116 -2515 0
-3481 1380 3636 0
992 718 1328 0
-1979 -1441 -1946 0
-830 -1125 -3370 0
-2511 702 2402 0
-476 3254 3948 0
-2581 -130 337 0
3141 476 -2817 0
-1420 1451 1828 0
527 3675 3421 0
685 116 1881 0
-3865 2554 3787 0
1080 -445 40 0
-1635 2407 2149 0
1289 -3200 -3684 0
-184 3975 -1026 0
-1375 -1963 1728 0
-1249 -392 3342 0
3235 -3483 2627 0
644 979 -2470 0
-1720 3431 -3932 0
3572 2288 1104 0
3687 -3176 3731 0
-3720 2497 2406 0
1392 3371 -535 0
-1134 3326 3583 0
-1264 -2490 1415 0
-3520 -2503 2795 0
-3216 -1589 2633 0
964 -2812 -1848 0
1912 -500 -18 0
-1723 -1931 -598 0
2901 1455 -2771 0
-2500 -3000 3730 0
1860 -250 3610 0
-480 3491 -2166 0
252 -3206 -2372 0
-1622 2427 1722 0
756 792 1208 0
2862 3297 76 0
3518 -2430 -1513 0
3637 -2102 -68 0
-919 -433 3229 0
3902 -2887 1308 0
2966 892 -570 0
-1098 3845 -2616 0
-1100 -848 -3599 0
-3979 -3203 514 0
2678 406 -2775 0
-3318 2434 3623 0
-1364 3742 -3558 0
3373 636 685 0
1217 3170 -1718 0
-3163 2354 -258 0
-1498 3571 -1773 0
1886 1031 2043 0
-3934 2521 -478 0
-2937 -1028 -156 0
-1277 1281 3913 0
-804 2474 3333 0
-2220 -1744 3565 0
-1697 822 2660 0
-2614 -2046 -409 0
2020 -2684 2009 0
-532 -1773 -3737 0
2657 -2687 1014 0
-1108 -546 3944 0
2127 1561 2863 0
-3453 524 -1501 0
523 -2434 3984 0
-1040 -744 3032 0
-1379 -1245 -1853 0
-3917 -1549 -958 0
296 -2902 682 0
1251 -3466 3494 0
-1159 1424 -2514 0
-3169 -671 94 0
3779 538 919 0
-2402 -440 3255 0
-1917 -3557 -627 0
-561 -2279 -2889 0
2783 -259 406 0
-240 2561 -2816 0
588 1170 1062 0
3971 1500 -2763 0
2431 3226 1711 0
-2273 2181 -3260 0
3063 3330 2887 0
-1614 -215 2035 0
558 126 138 0
-1481 2252 1619 0
-592 -3557 -271 0
3311 1681 2726 0
2316 2068 899 0
-2751 1486 -1893 0
3511 996 -3716 0
1404 3650 676 0
2339 421 646 0
-1643 1812 3641 0
-2499 1215 3891 0
-2248 -1886 2776 0
-3277 1679 -2396 0
-595 -2776 2429 0
1203 370 -1137 0
3462 -3158 829 0
-2 -342 2986 0
-3208 -1279 3260 0
1242 1667 -2701 0
126 -841 -2786 0
2980 -1458 -196 0
2587 3689 -153 0
1048 -3752 -342 0
-3762 3272 680 0
2819 -3934 -3225 0
-2388 -3616 -1563 0
3096 -814 -569 0
3210 1778 -1627 0
-628 -652 120 0
1212 2889 -2978 0
415 -1475 3539 0
1599 1292 -1074 0
-337 -2649 -812 0
1827 -38 -685 0
-2577 -2550 -3219 0
2889 -3497 -3132 0
2366 87 2680 0
-1302 -2050 2784 0
1811 -3272 -235 0
-3256 -1728 -3782 0
-3602 2985 2524 0
-1133 -2601 -3653 0
-1609 2530 2531 0
2920 2160 -3421 0
2834 2424 -3261 0
-3148 841 920 0
2864 -2135 -752 0
3870 -1873 -515 0
2572 1663 -3071 0
-2050 -1461 742 0
917 -3866 3570 0
3362 -1099 1494 0
-158 3243 -2720 0
2847 -862 -3872 0
-1433 -3702 2700 0
1473 -4 2621 0
-3210 -2536 -3097 0
3801 2314 -880 0
-242 -3737 -2861 0
-1857 -2052 -1250 0
1066 -2869 473 0
-1801 -3279 3399 0
-123 3447 -173 0
2154 2680 -2334 0
2503 -3922 -595 0
2821 -1806 -1618 0
3768 -528 -3285 0
2196 -386 2335 0
-501 -2281 -2976 0
3578 -3057 -1280 0
703 3291 -848 0
2111 -2293 210 0
-3485 -3413 3378 0
-2372 647 -224 0
3184 -2242 -294 0
-3843 -379 641 0
3758 -1717 718 0
378 -2909 -330 0
-3581 3252 3951 0
-1513 571 1209 0
-2088 2275 1756 0
3576 3470 -3454 0
-2937 3270 65 0
1461 2133 -445 0
1326 -3365 -3698 0
-2381 -3905 3635 0
-3457 369 2916 0
-2636 3950 3163 0
3825 -2411 -3099 0
-2243 -462 -3931 0
1591 1215 -115 0
1111 -1492 2584 0
-1070 -3697 3643 0
421 -2427 -34 0
-876 -1319 -3183 0
1778 531 905 0
974 3136 1600 0
2937 -3185 -3735 0
-1786 3758 -3462 0
-1190 -3813 374 0
1688 -3488 3346 0
-2350 573 2875 0
1933 -2194 3740 0
-1030 -3953 -1678 0
1465 1672 -3328 0
-1089 1812 -1759 0
1908 3297 2939 0
-2174 -143 -738 0
3521 -2290 2773 0
-3934 1433 2098 0
3887 2514 217 0
-1913 3293 997 0
-824 2560 1672 0
1677 1087 551 0
1893 532 206 0
1552 -568 678 0
3468 -1305 434 0
2128 184 1824 0
-3131 1467 3925 0
-3787 -3668 -1110 0
2333 -380 2216 0
1835 -615 2373 0
1178 2382 -3700 0
1914 -3913 1858 0
2158 -19 1670 0
-3255 1756 -2637 0
-1584 -802 3453 0
-2220 -2872 600 0
-313 -99 -3110 0
-141 3175 965 0
2942 2232 -1804 0
1301 -2170 2428 0
-852 -30 2704 0
-2215 -1621 -79 0
3680 2032 -1500 0
2253 -2211 1855 0
-906 3865 2211 0
3668 3447 3238 0
3445 -1129 -1908 0
2783 2441 3158 0
-2886 3458 -2289 0
-1332 827 1262 0
1142 3755 -3404 0
1776 -1406 -873 0
3167 -2476 -958 0
-3765 -3925 -1915 0
-833 -2509 -2839 0
1749 -3692 -3383 0
2982 386 1015 0
-271 -3578 -125 0
2970 3613 739 0
-2324 26 -35 0
3982 8 2418 0
1091 -2718 99 0
-3315 681 2885 0
3352 2068 -1830 0
2395 3777 -3938 0
-2909 -3087 1651 0
-770 -1880 -3003 0
-3212 -3554 2894 0
603 -3179 1695 0
2444 -2749 3514 0
-2156 1158 -1310 0
-2768 -1618 -1153 0
928 -23 2717 0
3437 3889 576 0
-565 3551 695 0
-2731 -3662 1597 0
-3762 217 1492 0
-313 2062 -2681 0
806 -3945 3633 0
-3700 -1075 -3971 0
3143 2456 -2188 0
-3593 1776 2545 0
822 -3847 519 0
-3968 -1897 3002 0
133 2738 -2593 0
-882 1928 -1049 0
3562 -1233 3405 0
2166 3548 -603 0
-1008 2478 3970 0
-3219 -3456 3176 0
-2663 1233 -3367 0
-3427 -2683 -3369 0
2836 3167 1250 0
-858 2736 886 0
-144 -1497 3573 0
-1285 2929 2046 0
909 2059 2453 0
-1575 -476 -2670 0
2084 -1742 3410 0
3462 3300 2596 0
2933 694 -3548 0
-1092 -2953 1846 0
-2464 -1539 -1784 0
-3857 -858 596 0
1911 1065 -587 0
-3367 3307 -1015 0
1067 -1053 3173 0
-1136 -1208 -2555 0
988 -2379 3961 0
2861 1534 -1325 0
3658 -359 2135 0
-2751 3046 663 0
-3161 2905 616 0
3326 2234 -2688 0
370 3027 -118 0
2899 -2341 -995 0
3249 2215 201 0
2804 3740 -1224 0
-768 2968 -3923 0
3302 1167 -3698 0
-944 -3192 3406 0
-1594 -3412 928 0
1383 -100 1130 0
2656 -2647 51 0
3373 1345 -1448 0
-872 1322 -1099 0
-2975 -582 -102 0
1446 -3015 1760 0
-2121 1735 1799 0
787 -1704 -2802 0
2516 534 -3099 0
-1897 207 1973 0
-3671 -2375 3203 0
1619 -1395 3977 0
3614 3046 905 0
3043 2616 -2559 0
2957 -782 -3518 0
-3156 -66 -2285 0
-2975 1022 3462 0
3659 -2984 -3029 0
1923 1308 1456 0
-3253 2001 1343 0
296 911 2682 0
-3 -1105 -2028 0
-387 1174 -2742 0
3047 -1351 -2599 0
2954 -2797 463 0
-2959 903 -1074 0
2193 -167 -750 0
-1247 -757 3837 0
-1593 2128 372 0
803 -3707 3841 0
2912 3626 -1766 0
-1978 -3605 -2071 0
-1747 -3594 1229 0
2982 -2965 -694 0
-3987 3917 3762 0
-703 872 1269 0
3220 3435 1343 0
-208 -3249 1302 0
-907 -2838 -1037 0
3291 1057 -3771 0
2744 -2601 -2565 0
-2562 -2676 -570 0
-2959 2184 885 0
-3615 -1689 -2344 0
811 -1647 -3532 0
-3546 -1112 -748 0
-864 1172 -585 0
-2882 -3928 -3645 0
-2428 -114 3435 0
2981 -1397 244 0
-918 -1902 -3147 0
3677 1067 513 0
-1980 3746 2175 0
791 556 -3235 0
-3621 798 -784 0
2085 1563 992 0
1781 -2712 -3494 0
200 -324 -3084 0
163 1382 1381 0
1324 360 700 0
1661 -2756 -3480 0
3334 -208 -2945 0
2321 767 -1110 0
-465 -3958 -1068 0
2787 -3758 3368 0
3954 -608 3257 0
3893 -3119 -1024 0
2421 344 1932 0
1645 -2281 1136 0
-563 3103 -1645 0
2049 1811 -2646 0
942 -1203 -3834 0
-2653 -2249 -1760 0
-1791 -1381 3175 0
1285 3422 -2876 0
-3324 -1527 1392 0
-3170 -3352 65 0
2265 2795 -560 0
-1240 2087 3477 0
-3827 -1079 682 0
-1773 -1052 -2642 0
3629 -3537 3979 0
943 -1916 -3714 0
-775 -634 1413 0
2727 -3785 724 0
3583 3039 -1087 0
-3613 -129 -2148 0
-3833 2079 1033 0
2427 559 -2110 0
-2252 3414 1279 0
3649 747 1650 0
3988 2819 -1030 0
3247 -3979 348 0
3598 -118 -3397 0
-3985 3638 -1670 0
-3320 2428 -2107 0
-3067 607 -901 0
-3622 980 -1488 0
-1388 -85 816 0
3744 -3788 328 0
2316 1781 -139 0
1121 1784 2480 0
-2340 -2040 1960 0
-2751 999 -797 0
2146 1419 -788 0
3163 -669 -2585 0
-469 3837 -1162 0
-3349 2624 -2351 0
2739 33 -845 0
-1347 3163 3623 0
-2515 -3162 -2286 0
1093 633 1006 0
-3926 2767 1728 0
-2670 -2759 -900 0
-463 -1104 -2388 0
-753 -1468 1631 0
-3361 3122 -1504 0
935 -994 -3241 0
2277 3620 -2819 0
-1765 2062 -1187 0
-3665 3703 407 0
-3685 496 1713 0
-3129 -610 2116 0
3782 3465 -3331 0
-2496 -2577 3651 0
3648 540 -3129 0
-1809 -3975 495 0
-3096 -43 -3938 0
-3116 -3927 -1247 0
1166 -945 -440 0
2089 -422 2577 0
3514 2509 2078 0
1960 -1702 -405 0
-3294 638 -3457 0
-3618 -2939 1644 0
-536 3894 -713 0
-3013 -3081 -218 0
-1774 -2827 3708 0
3150 3563 2256 0
1057 1702 -2828 0
1419 2959 1360 0
-2727 2449 -1176 0
-1349 817 3120 0
-3363 56 -1067 0
-3188 -1368 3318 0
2009 -3515 -652 0
2085 -3433 1492 0
-1817 -449 679 0
-222 -2230 -2119 0
1542 -3140 100 0
632 1669 -2598 0
2997 2318 3511 0
-1658 -275 1584 0
1778 1697 -2435 0
-3098 -3234 2617 0
3962 211 1895 0
3636 3683 1984 0
-1855 -1007 418 0
1274 -3709 -1269 0
2139 906 2116 0
-567 1478 128 0
3365 -1614 1652 0
-948 -2060 3302 0
1309 2177 638 0
2324 -1007 231 0
-2165 496 508 0
-2318 -395 -1497 0
-2191 3316 2105 0
3312 -529 -367 0
-3848 -3611 -2870 0
-444 -984 1030 0
1303 2698 -1768 0
3643 -1500 -3280 0
-2768 -2693 -3882 0
2480 757 -3090 0
-3067 1697 -2587 0
605 -1974 -1165 0
1213 -1025 3757 0
-2017 -3677 2678 0
-1969 -2553 2765 0
3518 2150 -279 0
-1231 3231 -3994 0
-106 -143 1506 0
-680 1711 287 0
673 2014 -1551 0
-1731 831 136 0
3147 -1801 2711 0
3556 2472 -655 0
-3606 -1052 -21 0
2154 614 2816 0
-61 -3494 -2684 0
-1122 -2181 -3598 0
2283 1253 3907 0
3397 -2921 -3948 0
-951 309 -590 0
-2739 1637 3948 0
-2808 496 602 0
-3413 -2508 -224 0
-2272 -1498 -223 0
-1005 -2458 1698 0
3172 1122 533 0
1476 -86 -3364 0
-2463 -3227 -3861 0
-1678 3281 2641 0
-184 1525 2684 0
-3751 -1438 3848 0
-1437 -1282 1161 0
3270 1983 1506 0
-3277 -2701 -1040 0
350 -1776 582 0
-3128 2386 1935 0
223 1730 -3840 0
3183 -2206 1117 0
1962 1431 -1706 0
1623 -2139 -2995 0
105 770 -3855 0
-16 -2352 -3744 0
2923 972 875 0
-2347 3219 -772 0
-2653 -795 -3388 0
1571 3472 531 0
-3041 -1084 -394 0
-2560 3647 402 0
2244 3234 1243 0
-2015 -3672 -1228 0
-1296 -2191 -896 0
-3835 -2787 -3007 0
2132 -2451 -2378 0
3590 823 -3072 0
1935 -3616 -521 0
2986 -3180 3416 0
-3951 -2833 -1900 0
-3658 -1101 -1754 0
3989 -1459 3301 0
972 -2909 2719 0
-2249 2255 802 0
-2812 -726 761 0
1261 -671 80 0
-3882 1556 -835 0
-1101 799 3906 0
2702 -1814 -2390 0
-2606 -3015 1634 0
-1405 1933 2274 0
-570 -2836 15 0
-59 -2182 548 0
-1414 -2641 3735 0
-3791 -1984 -2660 0
-1045 1959 796 0
-1287 3213 -3312 0
-3956 2793 -2477 0
3631 -668 3409 0
2877 -3605 2972 0
-1289 -2685 -2108 0
-3474 2073 3922 0
-462 2321 -263 0
-3364 -3490 488 0
985 -902 -605 0
3000 2667 3964 0
2064 3629 1027 0
-2142 3664 3610 0
-3984 -2837 723 0
-3483 -1937 -22 0
-504 -338 714 0
-2338 -261 -2058 0
699 2922 -3462 0
1269 -2181 3836 0
2504 3450 1407 0
-1597 2351 804 0
-2630 2899 1574 0
1045 556 3115 0
2679 -893 1863 0
3557 3253 -3291 0
229 -1638 1729 0
-1652 -28 283 0
3039 308 -1950 0
-1476 1993 -2758 0
-1842 -1691 -461 0
3701 3023 -192 0
-8 2638 -2613 0
-2480 -2736 2520 0
-100 -3110 716 0
1825 -3637 24 0
-3903 -3180 2676 0
-2656 791 3216 0
1464 -1146 292 0
3555 -3539 3455 0
-680 -348 2142 0
1107 559 -2754 0
-2157 -2815 -2618 0
282 2641 3872 0
3503 -440 576 0
2777 -3518 1948 0
-2717 -2902 -2376 0
-2052 -125 -583 0
3084 -1652 -909 0
-3892 3016 3507 0
-1013 2228 -169 0
-1841 -3642 -2476 0
-2278 -366 -1375 0
2267 501 -2693 0
-3335 -3418 219 0
-318 3196 -960 0
-3470 -1793 3895 0
3535 2672 3290 0
1330 -222 -482 0
1348 2807 -2706 0
3190 -3294 2130 0
159 -557 945 0
898 -3095 -85 0
2211 2455 -1487 0
3055 901 1473 0
705 -3021 1539 0
790 -2405 -3785 0
-94 897 -466 0
-3993 2876 -2428 0
-1229 -2034 639 0
-2112 -1906 -2235 0
-3786 790 -567 0
2002 -2394 -927 0
1985 -648 -3527 0
-781 -3672 2934 0
783 -1832 417 0
868 -3419 2821 0
-3386 -870 2247 0
-221 3274 2550 0
-84 -2120 3840 0
-889 -3315 1437 0
2528 1283 3236 0
-2592 -1314 -2467 0
3424 -3361 1293 0
-20 2007 -3852 0
-3372 3757 -2041 0
-1654 -718 -1702 0
-1907 -1213 -3777 0
-435 -3477 -3899 0
-129 -1820 1885 0
1594 -1953 2119 0
1911 -3662 280 0
604 -3308 2842 0
3995 413 -1660 0
274 3169 -2046 0
3294 -1549 -802 0
-1191 3597 -1561 0
2352 3198 -3596 0
684 2459 -128 0
1701 -3735 -3945 0
1619 -2426 3083 0
2185 2678 -3702 0
-3024 -2211 -635 0
-3537 -2630 2677 0
-3260 -68 1524 0
-735 3690 1660 0
2196 -19 -1070 0
2157 907 -1551 0
-1553 2277 3660 0
2359 -250 2135 0
-448 -2705 2946 0
-3826 -3528 -3136 0
3514 1245 3395 0
200 -2299 187 0
-3965 -3872 3628 0
-3641 -1936 -3799 0
1244 -3879 -1451 0
886 -1151 3170 0
2300 129 3950 0
1109 1588 -955 0
-650 -2357 -3783 0
3474 339 2474 0
2941 -3129 -3597 0
620 -2906 -3422 0
1313 2870 1694 0
1397 1458 -2074 0
3645 -3156 3166 0
1448 -658 -1980 0
1612 -1798 3163 0
-3104 -2727 2355 0
-855 1641 -475 0
-3569 -3122 -3889 0
-1444 -3441 1321 0
1721 1790 -261 0
-242 -1052 1527 0
2902 -1717 232 0
1741 -3526 -1914 0
3896 -1553 -1696 0
1115 448 1102 0
-3325 939 1646 0
2008 -2090 -1054 0
-2055 1288 217 0
1433 -1396 -1632 0
-671 -3317 -2686 0
1739 2154 1145 0
-2760 -1292 -2887 0
-2153 -2644 -2703 0
-265 1888 1265 0
-2070 1640 1516 0
1829 -1791 -3235 0
600 -2760 -617 0
891 2135 -1674 0
-2789 -2000 -697 0
2477 -2410 -1435 0
1239 3953 -3094 0
3290 1901 1346 0
600 201 -48 0
-663 815 316 0
-3755 -3486 -553 0
3518 -2997 -2411 0
-1845 -1788 -3045 0
-3947 -2455 -3649 0
-501 -1535 1903 0
-3102 -2312 3506 0
-3408 3613 -695 0
3871 -3839 2293 0
-3433 -172 1899 0
-727 821 -1074 0
-2371 -2373 2182 0
3395 -2461 3620 0
3669 2587 -523 0
3715 -2487 303 0
905 -2300 -507 0
-1709 3967 -3272 0
-3305 2631 2783 0
-1294 -118 2428 0
-1220 -367 3432 0
-2577 609 3880 0
3646 352 -3128 0
-1374 -1840 2534 0
-2446 -3933 -2448 0
-385 1083 191 0
2884 1291 -2329 0
-421 -1009 -2142 0
665 439 -3123 0
1983 -2773 2947 0
1579 -2947 -3055 0
-3072 -1202 244 0
-2223 -2249 580 0
-90 -3757 1785 0
3843 3198 -3782 0
-1591 3376 3013 0
2402 -582 -2748 0
-704 3933 1985 0
242 2088 993 0
1433 990 -1228 0
-3767 3298 1599 0
2447 -2138 -3715 0
-550 -1983 1082 0
206 1316 2195 0
-1649 -1744 -3922 0
-2805 3968 -1132 0
-3717 3370 1196 0
-561 3079 1122 0
-363 418 -3627 0
391 3017 2018 0
415 -1771 -3591 0
-1303 -3663 -519 0
-2520 -852 -2936 0
2142 -3103 -1597 0
-3154 3839 -470 0
-594 -1270 -3255 0
-724 3395 -155 0
-364 -3070 43 0
1931 -1097 1885 0
2993 235 -1521 0
1281 1563 490 0
2206 -289 -2212 0
1784 2415 -3601 0
-586 -3604 -82 0
1868 2091 3252 0
-1558 2611 -2711 0
-3424 3833 2964 0
-627 2628 2138 0
-718 -55 1861 0
665 1646 -3024 0
-2970 147 -1125 0
308 2303 -2279 0
3421 3174 -2237 0
-3378 2923 -1969 0
-3817 1094 3063 0
2678 -2257 -2469 0
3062 2400 -2271 0
3879 -1253 3153 0
1325 -590 3461 0
-1351 -3960 3121 0
-2319 -283 1125 0
-1526 903 -328 0
-3064 2913 -1614 0
2942 -3134 -1922 0
2442 -2986 1751 0
-3534 -2908 2801 0
2142 -425 -2821 0
-1976 -1817 -1883 0
337 311 1252 0
2340 3914 -615 0
-586 -2859 1199 0
860 2917 -48 0
942 -3412 -3197 0
3661 3207 244 0
1818 -3179 338 0
-2932 -3718 2781 0
-3396 3874 1249 0
-2296 -1101 -1782 0
1918 655 -1610 0
261 -2560 1669 0
2791 1352 -1695 0
-2155 -3049 -1169 0
-2586 -1031 -746 0
840 -2613 1716 0
-1568 -241 -2779 0
327 -2862 -3212 0
689 2651 931 0
1537 -16 -274 0
3385 437 -3434 0
1382 3950 2369 0
2471 -2998 2868 0
555 141 1431 0
-3284 3780 1489 0
2252 -1216 -987 0
-3343 -2634 -1526 0
-2917 649 -3674 0
-3774 1626 -2635 0
-3060 -1554 1593 0
142 -1224 3022 0
-3789 -3077 -3391 0
1700 -2474 -3550 0
2653 1504 -2303 0
-2037 822 3208 0
3701 -2932 3200 0
428 3682 -3742 0
3870 2883 -519 0
-1121 -3171 427 0
3496 -2097 -3968 0
799 -2614 1496 0
-3719 -1180 751 0
479 3821 -3820 0
-1474 -1414 -2321 0
3753 2497 -335 0
-3249 2250 3805 0
2617 537 54 0
2408 1258 -2393 0
-1622 1300 -117 0
-408 1979 -3390 0
-2130 -1209 -1292 0
2674 -2074 -3383 0
2747 -1099 -2174 0
-1945 -1469 -2147 0
3915 2286 -3812 0
370 -3057 -1888 0
-2302 1635 -1381 0
3006 3734 1524 0
-1617 -2261 -1050 0
1825 -3402 1009 0
1689 -2675 884 0
-432 69 1162 0
3321 3567 -1214 0
-417 -2543 3238 0
-724 2600 1619 0
-3721 -3351 2573 0
2327 -2916 533 0
-183 1573 2603 0
-2830 -958 -1507 0
-1775 -2538 -3793 0
-3194 1420 3530 0
1902 -1140 -3479 0
322 -1607 1279 0
-2606 -725 -1162 0
1101 3521 582 0
2051 1315 -3083 0
1650 2869 -367 0
2823 2510 -232 0
-2955 650 -2323 0
3041 -2836 1078 0
585 2717 -135 0
2727 -446 -993 0
-1426 662 -3661 0
-175 3656 2947 0
596 -396 3891 0
-317 -3168 681 0
235 -3607 -1608 0
-1025 1801 -3195 0
-13 -2893 3861 0
1140 2392 2837 0
911 1300 -1801 0
997 -868 -1840 0
3991 -3209 391 0
-2638 861 -3377 0
1150 -3198 2060 0
587 3204 3898 0
-3917 2167 3206 0
2802 1424 -3839 0
-1540 -1861 245 0
3929 -570 -3612 0
-1533 -470 -2779 0
-2685 3523 2670 0
302 2739 3099 0
-1439 -1523 1977 0
2268 1943 444 0
-517 -625 2381 0
3204 1921 1762 0
664 -3026 56 0
-3466 3710 2313 0
-275 -86 614 0
-902 1656 -3098 0
285 2527 252 0
-3611 -1632 849 0
1112 2646 -899 0
541 -1286 -3551 0
2125 -2494 -371 0
43 106 3453 0
1388 1436 -3832 0
-2957 -3000 342 0
-3693 2998 -2513 0
-3791 -2883 803 0
378 -994 -68 0
-3868 1484 1792 0
3283 -1256 2702 0
-1573 -3957 -461 0
2511 -3009 2919 0
91 -2856 573 0
2303 3389 1892 0
-2843 -2287 378 0
-1832 -878 -1164 0
-1709 -3018 -171 0
2344 -3774 -809 0
1328 3484 2196 0
2140 2020 -3029 0
1760 540 2188 0
-2281 68 -3025 0
106 2655 -1258 0
-1405 -2034 -1284 0
-3236 -1247 -1172 0
-865 2401 2272 0
1315 1930 2786 0
220 3755 -2588 0
1663 2215 3829 0
2736 -2722 -2734 0
1351 -2184 -2004 0
597 1328 582 0
-3204 -3531 2476 0
1095 -451 -1327 0
899 -504 -3352 0
2060 2687 -3511 0
1182 1942 841 0
3721 -39 -3074 0
-1272 1730 2763 0
3876 2954 1989 0
233 -330 3827 0
-3360 2918 -2157 0
-1545 3750 -825 0
-3836 2944 3588 0
693 1689 3072 0
3343 488 -446 0
3583 -1615 2572 0
-1829 36 284 0
-2900 2930 2063 0
740 -1612 -432 0
1406 2970 -1829 0
824 3080 -3154 0
-1555 -964 2264 0
-568 -939 1815 0
-3775 1067 -3361 0
-1306 -3913 -2010 0
-3491 247 1708 0
2156 -1692 -299 0
817 -148 -577 0
3239 -3218 1185 0
-3082 -2410 2856 0
230 3608 526 0
-1006 3379 -700 0
-3132 3320 712 0
710 -2468 3805 0
-1911 3789 -803 0
-3776 1595 265 0
562 3264 992 0
-1941 2739 1096 0
3829 1051 -1603 0
-3172 1285 3521 0
-2573 -2366 -2303 0
21 3248 3428 0
-3884 -3326 -1917 0
-2775 3618 2340 0
954 2461 -2925 0
-1543 3243 -121 0
-421 -3142 2920 0
3104 -3276 -1881 0
-1744 3440 -3229 0
-2592 2223 213 0
3151 -337 1169 0
397 -3371 2579 0
3120 -400 3477 0
1901 -365 -3583 0
-1639 -837 -3047 0
1757 -2026 2492 0
510 2245 -2734 0
-3124 2673 2143 0
-2034 1482 2990 0
3022 -1135 2608 0
-1932 917 1358 0
-1465 -2759 1802 0
-2999 -1008 -2210 0
1289 3832 -3975 0
-2418 499 3273 0
917 1407 -3198 0
3547 -1963 816 0
1437 -2916 -831 0
-2153 437 1805 0
-2773 2979 -1304 0
3762 2577 -783 0
1761 2137 3444 0
1721 -3036 688 0
1784 28 -2364 0
2079 -3211 -3483 0
-777 1263 -3040 0
-2701 3326 1187 0
3187 -1834 -660 0
-1186 1147 467 0
3165 -3190 3263 0
-3927 -347 -2070 0
1743 1324 -2189 0
2513 377 -1061 0
-772 340 926 0
-744 2433 3082 0
3320 3119 1805 0
1205 -2776 3192 0
-941 -1524 -1713 0
-3570 976 -1989 0
-1995 801 -3866 0
-1000 -696 -2481 0
-3945 2353 2672 0
2939 -1019 3498 0
-3893 3671 1188 0
179 -1913 3744 0
-3681 -627 2371 0
3931 2852 1513 0
-2512 -3787 -1185 0
-2479 2930 -3231 0
-2014 -2508 688 0
-3384 -3153 -3387 0
-1102 -1171 -371 0
3889 2004 -331 0
185 1812 2448 0
1705 -1780 -789 0
607 -337 2951 0
-1161 -2467 -2865 0
-3817 1786 3831 0
3511 470 -605 0
1872 -664 2275 0
3333 -2615 696 0
-3787 -3118 -932 0
3703 -2953 2050 0
3588 3442 -510 0
-440 2758 193 0
1357 -909 3002 0
3011 -1227 -388 0
560 2021 3101 0
897 1564 -549 0
1092 -24 2557 0
-3416 1792 -2490 0
3353 -2608 -2368 0
1706 2812 -1244 0
2861 1576 -2973 0
863 600 1794 0
-571 2794 -3209 0
-720 -1647 3463 0
2354 3607 -131 0
-766 654 3476 0
-1254 1850 -1838 0
2134 3308 -2917 0
1584 -1648 -144 0
-1588 -3 -910 0
2110 -1909 2933 0
3909 -2979 -2068 0
2496 3078 1492 0
-1747 -3060 416 0
3312 1228 983 0
1522 -2048 -3289 0
2349 -3281 1652 0
-2616 2599 -3892 0
-1413 501 896 0
3296 -462 3216 0
-2288 3232 -3962 0
-3866 -1490 2985 0
1679 -3891 1285 0
1727 1200 2311 0
3907 3404 1478 0
2613 -1575 3485 0
-1286 -178 111 0
-34 -1574 -223 0
-3199 1852 -1759 0
-1460 3912 -96 0
3793 -590 1123 0
-2668 -353 -732 0
446 3256 -544 0
3036 -2186 400 0
1969 -3190 2088 0
-2155 -560 -734 0
-2660 -3310 1293 0
-421 -2604 -3352 0
1089 1590 3113 0
-2950 -1117 2168 0
1090 -2563 3127 0
-2284 -1714 2981 0
1901 -2927 -1117 0
-3383 -156 3118 0
-2064 -691 1980 0
3013 1966 3049 0
-497 -1001 -2399 0
2196 -1156 -1448 0
-2844 3087 -3397 0
2351 3933 99 0
1635 -2427 -2442 0
3396 854 -3270 0
-2513 -2749 -414 0
-1137 1180 3500 0
1228 3296 -3791 0
-30 -2156 3920 0
-2170 -1065 -2581 0
3516 -2140 -3589 0
-3092 1728 -3989 0
-1768 3449 -3158 0
-2058 -1150 1240 0
-3990 1848 -1570 0
-2245 1422 -2653 0
2257 -2911 -2155 0
2622 3448 -2527 0
1015 -1720 2364 0
3999 -3244 3943 0
2878 -2931 4000 0
1600 1235 -2774 0
-2494 -2390 -536 0
516 -2140 -2828 0
2347 -119 3134 0
3752 -3243 3202 0
3436 3948 -172 0
621 335 282 0
-1179 1665 651 0
2285 644 -3142 0
2387 -2955 -1081 0
-3089 2590 3749 0
-133 804 608 0
-3815 444 3354 0
3704 742 1873 0
-1383 3490 1369 0
-534 1800 1656 0
-1973 1060 3916 0
-3137 -2819 -3482 0
-1868 -1591 -2618 0
-2030 3383 2890 0
-641 421 -2732 0
-1317 -662 3870 0
1264 -2752 -537 0
-1642 -1325 1748 0
-844 728 -2517 0
-2560 -2944 475 0
-2365 30 -1310 0
-611 476 2950 0
-3400 3053 1883 0
824 3610 -3700 0
3043 2445 -1134 0
2375 -470 -3183 0
-225 627 -2317 0
-1177 1430 337 0
-3202 2849 2601 0
995 2548 -3885 0
1594 -1825 811 0
-3726 -3454 1180 0
3207 -2035 -1386 0
-293 -1742 253 0
2515 1516 -406 0
-2038 3054 -2638 0
684 -3124 1617 0
-297 1618 -1788 0
-2952 -1538 827 0
1352 1037 -1853 0
-2204 925 -2370 0
1146 -1827 -2757 0
-877 -3369 1951 0
-280 -2133 999 0
256 479 -3678 0
-359 -1070 1882 0
2005 3371 2202 0
557 1317 -1285 0
-2164 -603 740 0
858 1812 -2744 0
-1814 3598 3402 0
-617 763 3354 0
-2023 2760 -965 0
-1691 -200 -2856 0
-1622 -2117 -2158 0
1893 2697 2168 0
-3709 2745 -3199 0
-1198 424 3166 0
3959 1634 3607 0
345 158 -1182 0
-3501 -3003 1030 0
297 -3107 -2463 0
-672 -2598 2201 0
-901 -2173 2134 0
3449 -542 -1527 0
896 4000 -3189 0
-2762 -3581 1484 0
1682 2225 3300 0
-1799 -982 3174 0
169 3069 3595 0
-1265 1559 -1779 0
-1315 -2058 1383 0
1282 930 -1949 0
-1403 3955 -218 0
-1229 393 1352 0
-3553 2181 3288 0
3420 2280 -1371 0
-3782 -3697 2614 0
-699 -1379 -590 0
2907 -1428 1924 0
-2482 -980 1301 0
-559 -482 3399 0
-539 -854 1082 0
361 -2959 -3395 0
2542 -620 962 0
-170 -465 -266 0
-2606 -2208 2122 0
-846 906 -3434 0
2866 2803 -3983 0
2106 -3890 685 0
-1354 -3736 -3851 0
3309 -2148 3090 0
-2310 -2672 -3284 0
3505 2615 1476 0
-3739 3170 711 0
496 -1597 -3 0
-344 -355 -1260 0
-219 1506 -3275 0
1066 -2229 -3900 0
2119 -641 769 0
-1197 -3826 -2009 0
2864 -480 182 0
-963 1046 3619 0
2179 222 -1348 0
1192 -891 -1749 0
1320 -3465 -1757 0
-2395 42 281 0
2150 -584 2865 0
2661 -2761 350 0
1053 3721 -1055 0
1901 -1708 -2811 0
-1245 -1906 -2273 0
449 -1282 -2958 0
1432 3640 -2984 0
2654 -3577 -3165 0
2404 277 -923 0
2554 3968 -2294 0
679 -1328 2206 0
-1239 -1486 -2097 0
-3227 340 765 0
3833 3219 -3798 0
-2109 1809 3566 0
3407 2800 1670 0
697 1627 3058 0
1768 607 434 0
-3374 -3461 2475 0
1603 -3610 -1761 0
-454 1697 3855 0
-2848 -1645 340 0
-3625 882 3426 0
-1657 2076 -633 0
3846 669 2015 0
1601 -1021 -3722 0
-1034 -2680 -2791 0
-3939 -232 3403 0
-3743 1690 -786 0
2643 -92 3332 0
-3018 1880 -3049 0
3133 3666 901 0
-3720 -605 -2470 0
-2263 -2881 -3426 0
-3718 -3635 3472 0
2944 2717 -3321 0
-1477 2509 -1853 0
397 -3721 -994 0
3481 -1148 -1140 0
-3550 -1046 744 0
2494 383 -3446 0
111 -1204 249 0
524 -94 975 0
1513 -35 2914 0
3447 -1158 -1293 0
616 -3838 -984 0
1719 2778 2991 0
-3312 -1530 -1573 0
-499 79 -3603 0
-2803 754 3585 0
-3137 3491 -3939 0
-731 -740 -318 0
-1646 -62 -2744 0
2252 -1304 1029 0
334 -1418 2044 0
-3090 -3598 1191 0
-677 124 2317 0
985 3419 -1215 0
-1457 3740 -1949 0
3817 3787 -1124 0
-2780 246 -2393 0
3918 -1559 3304 0
-3024 272 -3756 0
2318 -731 1392 0
2642 1943 -1975 0
359 155 2871 0
-835 879 2001 0
787 3665 3837 0
-3298 1293 -2255 0
-3026 2010 -1540 0
-2611 2829 -99 0
-2901 -1454 933 0
-2057 960 1576 0
-388 2848 1158 0
-3798 -2534 2312 0
1878 -896 -850 0
3004 40 1224 0
-3311 747 28 0
-3626 1164 990 0
-3793 -2333 2151 0
147 -2514 1686 0
-1962 2139 -728 0
-2269 -548 1205 0
-218 3702 3813 0
2168 3454 -667 0
3860 -2855 3034 0
3456 2656 -221 0
-713 1466 980 0
-3106 -1921 2027 0
-151 2476 3129 0
1912 235 2969 0
1852 -3930 123 0
299 -1867 -2670 0
-1003 3045 306 0
154 1323 -1758 0
-3454 -3995 1247 0
-3137 -485 605 0
-1608 3439 -1486 0
-1264 2870 -3732 0
-3935 -2567 -809 0
-1065 -1440 -2615 0
-579 -1561 -2328 0
3114 -3523 2405 0
-3510 -667 -3463 0
1883 -1018 2693 0
1609 -2311 -1964 0
-781 178 -2002 0
-3177 577 1922 0
157 -337 -3277 0
-3706 -1131 -2009 0
3765 1496 3770 0
2122 2493 -1148 0
1358 -3653 240 0
-2311 1592 -1504 0
122 2334 3505 0
291 1432 -1448 0
-70 570 -510 0
-1670 -2226 -2018 0
454 -1380 -2595 0
-1517 -3981 -2270 0
-3905 2324 8 0
-3556 -2465 -313 0
3974 -672 -3284 0
-3290 -1732 1873 0
3735 1111 33 0
779 2589 -2321 0
-3562 3761 1326 0
2315 3785 2702 0
-2941 -1951 151 0
2500 1462 -43 0
3547 -3664 1196 0
3689 1759 876 0
818 1394 -2521 0
1610 -845 -1346 0
-1488 -265 -3245 0
-2226 -2324 -3533 0
-680 3669 -1092 0
-1247 -2852 1164 0
3160 -59 -2556 0
3037 1343 3253 0
-2639 -950 -379 0
2742 3547 3491 0
1541 238 1814 0
-2897 -1899 -2579 0
1085 -2919 3595 0
-985 -836 -1349 0
1110 -197 -624 0
-1480 2799 3882 0
423 2153 2163 0
987 3606 1628 0
3471 -69 -881 0
315 3583 -404 0
1303 2096 -2826 0
2815 -3992 827 0
221 3173 -1740 0
2111 1351 -2043 0
-1714 1628 -2882 0
-3215 2614 2143 0
-1127 -3721 -3220 0
215 -3412 -3806 0
2703 -1865 -1346 0
3713 -1561 3240 0
2614 -759 -2665 0
2970 3526 3069 0
2787 612 -215 0
397 -1676 -193 0
1192 -1453 -3997 0
3901 -3150 -1333 0
-348 758 -323 0
2300 3905 -3760 0
3757 186 -508 0
3582 240 741 0
-3666 -2867 -1038 0
-1118 -2757 -1983 0
-3018 3569 1479 0
-3745 -2982 -1304 0
3950 -2253 2436 0
3556 -2778 -3143 0
2405 1043 -3383 0
3931 -1413 3777 0
-633 2300 -2573 0
2722 2173 337 0
-1936 655 2279 0
-3049 2961 -143 0
2553 -1968 829 0
-1656 -3364 797 0
2806 3695 2343 0
3157 441 -2468 0
-2459 -1235 -2758 0
-292 -3487 3706 0
-2600 3044 1339 0
-184 -1958 3001 0
343 3416 -3765 0
176 -2268 1425 0
-1600 -2433 575 0
-2253 -3322 1745 0
1320 1830 -1427 0
-3186 -1565 2889 0
-1137 823 1321 0
-1373 -1631 -1166 0
2233 2049 -2416 0
-923 -286 -305 0
215 -2175 -995 0
544 -3353 1163 0
2746 2361 -3953 0
-2437 -944 1235 0
-1087 -10 -1590 0
1133 -1598 3310 0
-360 3081 -990 0
773 1367 604 0
-1490 3717 879 0
-1764 731 3654 0
3163 -3545 -1810 0
3293 2663 -3034 0
3651 -3755 -1746 0
-289 -2607 455 0
-2812 -3246 330 0
797 2148 -3721 0
2424 2842 -1787 0
-1196 2537 1574 0
2835 346 3409 0
3329 3416 3031 0
-2456 2256 2360 0
478 3414 3733 0
-3756 262 3933 0
-2993 2718 -2499 0
2833 -799 3097 0
-2433 -2202 -561 0
-2943 1895 -3809 0
1503 -2106 1920 0
-2848 1522 -1498 0
1285 1054 509 0
-1099 -2277 -2970 0
-514 -2885 -3383 0
-784 3930 -3610 0
-2293 2448 -1641 0
-2925 966 -3705 0
-229 -627 1507 0
595 -1788 -2576 0
-979 -2418 2744 0
1438 1760 -593 0
-1255 3561 -3659 0
-3366 -919 1329 0
3473 -1609 27 0
2356 637 2913 0
-1425 -3942 325 0
-2473 -1356 246 0
2209 -3457 -1379 0
1845 -809 1313 0
-1303 1610 -2096 0
203 -751 2814 0
3975 983 793 0
-881 3207 -596 0
-1735 2779 1943 0
-2089 272 74 0
395 -2198 661 0
2872 -3352 -2795 0
2337 -1703 -2836 0
2270 3805 -532 0
-365 -3650 3844 0
-2844 -1953 -2386 0
-555 -1770 -731 0
2323 -2036 756 0
-397 -3361 2410 0
934 3058 114 0
-2789 878 -1316 0
3932 3197 -3210 0
3934 1170 -3002 0
-3707 -2371 -2506 0
304 -1651 -177 0
-1618 -2778 1259 0
-3750 3459 1550 0
-3696 -3975 -1819 0
683 -1706 -202 0
-1697 -1819 3401 0
1334 76 3475 0
-2777 3788 3414 0
1854 3179 3619 0
-1996 1918 1924 0
45 -832 -666 0
-1050 -2813 -3862 0
-2914 1439 199 0
2294 2921 933 0
-3796 -2930 -426 0
486 -2385 828 0
-1605 2380 -2117 0
-1459 2416 -1093 0
1570 1211 -1027 0
3370 566 455 0
1994 406 -3732 0
-993 2071 970 0
2007 3649 394 0
609 -966 1568 0
-1802 -1349 -96 0
-2866 -3236 -714 0
3353 2529 -2578 0
1420 1640 3370 0
-63 703 -3051 0
1758 -1950 1699 0
-257 -1890 -3590 0
-3902 -2436 785 0
892 1377 -2767 0
-1029 -1657 -1517 0
2815 1735 455 0
-412 -3058 1151 0
-3636 1395 -2035 0
-484 1568 1390 0
-3322 -2015 2458 0
3395 -688 -3209 0
3641 -1532 3312 0
-735 -1684 2985 0
-1996 1628 2556 0
-1660 3762 -2128 0
218 2611 -3046 0
-1102 -520 -1870 0
3195 2764 1571 0
266 3951 3469 0
3349 -1777 1876 0
-807 2987 182 0
3154 -2702 -3126 0
912 -429 1694 0
-1898 1959 -3358 0
755 -3914 -901 0
2624 1474 1691 0
495 -3959 -694 0
1085 -878 2805 0
2628 -60 309 0
2887 -2279 3065 0
3687 683 2372 0
307 -3351 -2382 0
1839 3413 -2503 0
3975 -2714 -688 0
-689 776 3139 0
1854 2072 -2416 0
3955 -119 -1 0
-2581 2437 1640 0
2803 3356 -62 0
-895 600 -1758 0
247 -3423 3392 0
121 -508 -2305 0
-1336 -2278 -1014 0
1765 -3965 -1403 0
3685 734 -3518 0
-1909 -1677 -704 0
3282 552 -3568 0
-2017 -1475 -1600 0
835 -1388 -2201 0
1165 -3197 2113 0
-1717 2776 -402 0
-2351 -947 -3830 0
-2599 421 1644 0
-1037 2893 3868 0
3417 1723 -1593 0
1239 -3544 -3130 0
-1163 -3344 -2313 0
1634 -1317 1030 0
-1484 179 493 0
-1366 -2285 1550 0
3628 912 -826 0
715 2877 2923 0
-2099 -562 3142 0
1697 3029 3207 0
58 -3149 2869 0
114 -1191 3092 0
449 -446 2259 0
-2399 -113 3378 0
-2168 -3117 1332 0
537 2510 3315 0
486 -3555 918 0
1017 856 -2291 0
-1338 1470 -1116 0
2292 59 608 0
-164 1551 1718 0
-1493 1877 -2099 0
-3363 607 -459 0
704 3046 -3929 0
2471 917 2140 0
3578 1844 -287 0
-107 1715 -794 0
-3798 1511 -2408 0
3790 2735 -2837 0
405 343 2343 0
-630 -3847 3215 0
2001 -3068 1177 0
1217 -3556 -269 0
2627 -286 -2542 0
2130 912 2170 0
698 2958 -1480 0
993 -1500 2560 0
1846 3567 2938 0
3359 -2702 -1914 0
-834 -413 -361 0
869 -1620 -789 0
-3801 3662 1679 0
33 3887 1258 0
227 3104 1959 0
-3687 2626 1947 0
708 2775 -3332 0
3777 760 -3842 0
-873 -1585 -2821 0
1644 -595 -3847 0
-3319 3506 3388 0
-3589 -953 -118 0
-3406 -3316 30 0
2252 2098 3941 0
3991 3437 2098 0
2634 2414 -1367 0
1605 3689 537 0
-2278 2596 -2529 0
3097 1635 2690 0
3017 -2384 297 0
-3763 -148 2227 0
2234 3796 -3202 0
462 301 3147 0
-2313 3401 -2365 0
481 -3379 1193 0
-2672 -3338 -671 0
2088 -1075 1566 0
3844 -2641 -2621 0
1745 -3503 -1642 0
-1164 3571 -1479 0
-139 -3971 -1208 0
2257 -204 -2797 0
-182 -3683 2766 0
-2974 356 2197 0
-3508 -1081 -3111 0
3142 2615 -3532 0
1363 -2406 3246 0
1862 -2143 -2002 0
-1410 1972 581 0
-3679 -2921 -2810 0
496 -3702 -2429 0
-3269 -67 -2015 0
1436 -1710 54 0
3530 3420 2314 0
-252 -1840 3143 0
2740 1202 -3541 0
3378 2379 -2462 0
-880 174 -792 0
-1372 -1690 2021 0
2503 -910 -2447 0
-1925 -663 3292 0
-1790 -2753 1042 0
-177 -2407 2055 0
-2744 -3473 -1476 0
2424 -1542 2400 0
968 3633 2256 0
548 3619 818 0
1714 1484 1538 0
-2880 -1433 -3018 0
-1303 -3133 3680 0
1152 -2854 2721 0
2792 1498 -1434 0
1946 717 3008 0
-2138 -3396 434 0
775 -1502 -3328 0
-3178 2742 -892 0
-551 2381 2231 0
-3373 2153 -3661 0
1453 165 2715 0
-1495 201 -2256 0
-564 226 -2933 0
2628 2171 2929 0
383 2334 -3760 0
3841 -3475 73 0
-3552 64 937 0
3934 -3195 -2366 0
-1687 2824 -1598 0
-2043 -618 2458 0
2901 -508 1974 0
-2075 -558 -285 0
-3033 1994 3819 0
319 -1131 3958 0
-3234 2470 -3573 0
-904 1110 -1714 0
3702 2487 3650 0
445 -9 -724 0
-2345 2832 -874 0
220 2149 -1394 0
-390 3169 3068 0
-1700 -341 3620 0
590 3957 -1105 0
1386 -3530 -3199 0
48 -3482 -2334 0
-3513 3271 3573 0
-2779 -965 213 0
472 3412 842 0
-3261 1662 2733 0
1848 2278 -2474 0
10 925 -3968 0
-68 3265 -1407 0
-3441 -2154 3766 0
2308 961 -587 0
-1928 -2885 -570 0
2750 -3229 -2818 0
3044 3225 -2951 0
2217 -312 124 0
2663 2785 -1364 0
1880 967 662 0
74 225 -185 0
-1565 -3658 1848 0
2303 1898 -3016 0
664 189 1459 0
-3241 -1338 -3805 0
1538 2333 1785 0
-747 -2897 -1839 0
3823 885 -1124 0
-182 -796 2695 0
2956 1635 2775 0
-995 2692 -3139 0
3023 -3323 -3649 0
-3933 -2868 1627 0
-471 3466 -775 0
-2274 -2682 -1268 0
2304 -3550 3978 0
2101 786 -3575 0
3344 -872 -1537 0
-3631 -878 2596 0
2392 2482 -2220 0
37 -1229 -2206 0
1019 -2172 -3539 0
2395 -3660 3200 0
2583 956 -3421 0
-1212 2132 -428 0
1306 3840 -1913 0
-44 1707 956 0
-877 1236 -3040 0
-3852 -3557 3659 0
-1722 1088 1830 0
2826 -564 1298 0
-1249 2336 -1331 0
-35 -3151 1365 0
-3303 3396 3074 0
-1285 -1582 -2563 0
-946 2507 -1469 0
1391 3972 311 0
-112 200 -3433 0
-3066 3129 -2309 0
1378 1768 -3879 0
-1855 3623 3313 0
-3461 3898 -308 0
-1950 3814 198 0
3604 941 421 0
-24 3248 3867 0
-565 -544 -333 0
-2907 -1167 -2052 0
320 -1498 -1938 0
-1233 3731 -1582 0
1676 -101 3852 0
2180 1015 -2696 0
-2794 2206 -2306 0
-3681 -251 -1640 0
1806 -2347 -1984 0
2402 -2414 3692 0
3511 -152 -600 0
-957 3003 -1466 0
-289 1207 -2763 0
3716 3442 -1091 0
-1908 -2092 1185 0
1966 3766 3174 0
-1017 -3935 -605 0
2724 2977 1752 0
1756 -3206 -230 0
664 -2478 3404 0
-3656 -2945 -339 0
2780 -3953 1476 0
-183 52 -2008 0
994 2484 2428 0
2785 1577 1910 0
-717 3128 -3975 0
-3619 -2686 -833 0
1349 -1626 -3536 0
-2251 -2035 -2939 0
-2284 -715 1099 0
3126 -1705 735 0
2334 -2533 -2754 0
3516 -1692 -2207 0
-2545 -2783 1628 0
-1281 778 -1668 0
-3892 -2407 3201 0
1612 -1580 3014 0
-1477 3665 -2684 0
362 -3934 -1071 0
-588 -544 2482 0
-52 2190 1608 0
169 1945 -1813 0
-54 2382 1677 0
2888 -3492 -1047 0
3299 694 -2502 0
2986 -87 2805 0
-698 -2574 -158 0
-1185 3650 983 0
366 2549 783 0
1874 -2509 618 0
3103 -2769 -1176 0
-270 86 -3674 0
-3681 3070 3013 0
1321 2746 3117 0
2168 1276 -664 0
-2125 -3025 -2303 0
-3668 1887 -2103 0
2529 1281 -1028 0
592 2096 1206 0
2854 -2248 2810 0
-3888 3040 3393 0
-972 -1870 2709 0
2163 3663 -1659 0
-2066 2046 1863 0
-642 -3446 1585 0
2003 1468 572 0
-1008 3112 -467 0
-695 1288 -3092 0
-107 -3760 -3847 0
-2016 -523 -3828 0
-1317 3817 -2272 0
-1791 3992 649 0
-3428 3323 -3681 0
-1422 161 -2944 0
517 3545 454 0
-2940 -3150 -2219 0
-2323 2508 -2308 0
2729 260 -794 0
1124 -1005 -1560 0
3823 -3562 -2201 0
-2960 2310 -2381 0
-1609 3788 -175 0
1852 1 3172 0
1808 1632 -1902 0
1002 3200 -3292 0
-2853 -1741 -3136 0
3632 3523 3432 0
998 2797 1209 0
1256 3336 1827 0
-221 -3030 -1 0
1806 -611 -1842 0
-2715 -554 3652 0
87 752 3268 0
1325 1542 -1606 0
-2993 -1578 -2766 0
403 -1554 -1375 0
1405 -712 -295 0
-3523 -3675 131 0
-3446 1458 2919 0
-3666 127 1405 0
3664 -1012 -1066 0
3794 589 136 0
-1258 -2996 -2731 0
983 -3387 -758 0
395 -1272 2921 0
1231 2820 840 0
-155 994 1529 0
2669 3784 -3519 0
-1261 -1122 -213 0
-197 -1065 -1909 0
-1931 -2408 924 0
2381 3195 2495 0
-1717 697 1671 0
-1189 185 -1685 0
-3544 -1266 2852 0
2377 -1348 570 0
637 -113 -1735 0
-2046 -2506 -58 0
-3234 -174 -3926 0
347 -279 1877 0
218 2202 -3297 0
3069 2817 -2321 0
963 3544 2595 0
-1663 2417 1554 0
330 2064 2134 0
-481 590 3310 0
-755 -907 -2330 0
-742 -3004 395 0
2218 3632 3104 0
-1061 -3684 266 0
-3301 1594 2707 0
-79 -2191 -2352 0
-3823 -3139 525 0
2061 1179 -3776 0
-1943 -1908 -201 0
-3208 3038 1299 0
-2830 -1028 3138 0
3334 2276 -3718 0
3990 21 -29 0
-197 1633 210 0
335 575 -3808 0
-165 -2724 3769 0
-1826 -766 -536 0
-917 -824 366 0
-1443 -2218 3902 0
960 1031 755 0
1420 3488 710 0
2652 -439 303 0
-1341 3802 -2140 0
-2346 247 -1303 0
3131 3540 -1587 0
369 -3402 168 0
-2795 -1153 2297 0
2595 2536 3338 0
1166 -1145 -897 0
-357 -1609 -389 0
3931 1792 1607 0
1966 2225 2753 0
3390 3417 1563 0
3609 1086 865 0
229 -3319 -201 0
-3337 -2068 2346 0
3124 1309 -683 0
-2763 1019 -2284 0
-2894 3569 -423 0
-1120 -1368 -2017 0
2931 218 -188 0
292 -650 -2452 0
2995 2375 -1077 0
2752 -3611 -604 0
740 -2075 -1679 0
3459 -3351 -1386 0
2050 -465 -1181 0
3799 -62 559 0
2251 -1670 -1246 0
-46 -2070 2991 0
1167 3340 -3006 0
-2803 1102 -2388 0
3403 903 210 0
-1005 2231 -3216 0
-3813 1830 -1702 0
-374 -1835 -3368 0
-666 -2990 -589 0
3414 -3758 -3029 0
-88 1651 -3326 0
-2993 -1816 -1659 0
-3338 3548 2334 0
2653 2265 -3120 0
1971 3420 -1534 0
943 676 2939 0
-1440 2549 -2244 0
-769 1766 284 0
27 946 942 0
2276 3261 -326 0
-2168 2242 2387 0
3913 -1601 -3117 0
-3259 1858 2220 0
-1072 -1227 -3651 0
-3114 2377 -696 0
-224 -3639 3867 0
-2130 608 6 0
-1176 -1467 -24 0
-2631 2156 824 0
-2026 -50 3492 0
1687 2608 626 0
-1497 -3518 493 0
-2312 -387 2530 0
-1125 772 3008 0
3119 1481 1024 0
-666 -3054 3798 0
532 -3283 322 0
-2531 -2881 -2254 0
982 669 -3791 0
3748 115 2605 0
470 -3706 -150 0
512 -729 -1988 0
2423 -3459 3468 0
-2326 -2317 -3017 0
-2054 -2636 -3305 0
-933 -3043 2727 0
3241 1892 -1756 0
-1832 -3333 401 0
2988 2495 -336 0
2122 3947 2028 0
2796 -2281 -3772 0
-2404 903 -2740 0
1529 2545 3550 0
-1851 1781 3690 0
2507 -353 2047 0
2581 1057 1150 0
3635 -3168 3778 0
1715 111 -1033 0
-648 -1256 3068 0
-1930 -1948 -3961 0
-3521 -1165 -1169 0
-732 2507 -1878 0
-2381 1600 -1727 0
-2023 2749 -1093 0
32 3939 -745 0
2169 -888 1534 0
-3793 2767 1679 0
3391 917 881 0
-1310 2431 -3935 0
-2968 3038 2584 0
-2405 2284 -1758 0
3232 -2648 -656 0
-2411 -1752 1850 0
-3308 -1875 -3919 0
2765 3804 -3386 0
107 2250 439 0
-674 2538 -3134 0
2879 3399 -1889 0
2647 1161 284 0
-2518 3055 -924 0
-138 -2097 2641 0
327 1155 -461 0
-1708 3174 -2004 0
3781 -3546 -3098 0
-187 -2755 2208 0
3485 1031 -2314 0
-1711 3589 3722 0
1683 1133 -3659 0
1123 -2081 2658 0
-265 2701 -1486 0
-1346 -2303 -299 0
-3203 1209 1846 0
-386 3936 -969 0
-1338 -2657 -3025 0
3318 -925 2112 0
-2405 3066 -1798 0
1709 3701 -330 0
-2400 -3554 -2038 0
-3365 804 -3054 0
-3826 -661 -1650 0
1657 -1073 -3827 0
3095 -122 -2417 0
-274 3190 2365 0
2390 1487 1863 0
19 -2581 3510 0
3781 2736 -1486 0
-68 2425 2079 0
-3030 -471 -2089 0
-3516 3067 3251 0
3892 608 2654 0
-1532 564 3180 0
-3375 3900 3984 0
-288 2053 3087 0
-805 -3369 2980 0
2187 -1760 954 0
-3958 730 -3285 0
-3861 -2265 -323 0
2114 -439 2351 0
3261 -53 3578 0
-1110 -1281 -2690 0
-1268 -1961 3594 0
765 -2598 3500 0
1061 -2141 -3669 0
1494 -1645 2454 0
1438 -396 2646 0
21 -3409 -2912 0
-3708 -447 3609 0
-1798 -93 -1096 0
-648 690 42 0
3972 1900 -3746 0
2309 263 -1959 0
-533 1003 -1717 0
311 -2158 -508 0
1779 -2118 1906 0
-1261 1211 -2319 0
1805 -1359 -2050 0
1520 -3211 1568 0
2783 1700 1217 0
-2120 -1048 2839 0
214 2249 3206 0
2825 -11 -60 0
-162 450 3195 0
3118 1146 -327 0
138 1468 110 0
1896 3552 1633 0
-3792 -645 -9 0
2968 150 1627 0
3634 -570 -2959 0
-3220 1119 -3227 0
-2302 2864 -3478 0
2913 -3582 955 0
2992 961 -2516 0
3134 2835 425 0
-1044 150 3752 0
3540 2621 2613 0
1061 -2208 -3159 0
1929 -3886 1372 0
-1621 -3560 -990 0
3493 1630 567 0
-3583 2465 -3676 0
-19 -107 412 0
-3341 -162 -1879 0
-2749 3952 1842 0
-2204 3282 -1404 0
2553 2720 973 0
-2134 3454 1654 0
2553 -2996 -879 0
-2036 3593 3058 0
-928 -728 -3666 0
3434 -2561 -3470 0
-1523 3031 2342 0
-2232 1077 383 0
-332 2712 2407 0
-2456 -448 -1507 0
-215 -2296 1630 0
439 -3479 -123 0
2472 -2353 3545 0
-3898 -3639 -3874 0
-775 -1945 337 0
-3186 1336 3231 0
1643 -1830 2742 0
560 -2722 3055 0
-3974 1755 -2077 0
-610 1717 2775 0
-3805 -3145 -3525 0
-277 330 3808 0
218 -1775 -1721 0
1001 2035 2410 0
-2076 -2951 -217 0
-156 3427 -3536 0
740 -106 -3858 0
-2251 -1444 -2955 0
-2511 -3038 3569 0
-179 -1322 -3777 0
-3134 -2137 -1061 0
3693 1944 -1916 0
-749 713 1111 0
68 -1551 1209 0
1755 2406 -3288 0
1352 2245 517 0
-3004 3842 -374 0
-282 -88 208 0
67 323 1095 0
-3475 -1078 26 0
1088 3042 -1008 0
3171 -1069 3480 0
198 -3433 -1394 0
-97 2913 3259 0
-2237 -103 3645 0
2752 1858 1723 0
-792 1895 3417 0
832 -1238 -3445 0
-2947 827 1203 0
-1447 -2553 -1237 0
1739 -952 -1015 0
-325 3615 -3968 0
79 -1983 2995 0
-2180 -460 1938 0
-2058 -2265 2211 0
-780 -2820 -3947 0
-3734 2057 -1102 0
3427 -3320 -834 0
3268 898 -3137 0
2030 -3367 -3721 0
551 3731 -3128 0
-541 -457 3841 0
-3860 949 -1825 0
1355 3934 -3234 0
-1822 -3617 -3284 0
3936 -3451 -863 0
1465 -251 1611 0
-2659 1956 -1534 0
670 -2813 -3726 0
848 -410 490 0
-2157 1741 63 0
3199 -2001 -3461 0
-314 -3536 886 0
3485 2006 -246 0
-3259 -1870 331 0
-1141 3178 -2193 0
-872 -1136 -3086 0
1683 3946 1819 0
2154 -1042 3681 0
1237 -3870 -1546 0
-3287 3756 -2657 0
-461 -769 1988 0
-1625 1623 -3396 0
2184 -3450 1274 0
-970 -1631 -1961 0
-1590 -3553 -876 0
-2499 2050 -1086 0
1536 1845 -447 0
-2346 -676 -3263 0
-3067 1987 -920 0
-128 -1550 795 0
3998 1928 2816 0
738 3591 -217 0
1410 3745 3382 0
-3308 3732 1504 0
389 -898 658 0
3726 -1381 3562 0
-2864 -3275 200 0
3583 -1866 249 0
-1275 -488 1874 0
-497 1059 -900 0
165 1893 -1875 0
-3801 -2978 -2089 0
2266 -2843 1026 0
2877 -956 2768 0
1802 -1773 1761 0
-755 -3798 2036 0
73 1289 -1309 0
3256 -3871 -598 0
1882 -3993 -491 0
3075 2593 3876 0
-808 -3625 -3965 0
-3827 2090 -2644 0
-1410 1525 -3020 0
-1996 -1339 -3311 0
2081 1582 1101 0
3625 1628 1685 0
-2207 147 -3509 0
-767 -3549 208 0
1159 1992 2315 0
191 1432 -327 0
-2511 684 -2820 0
1052 2359 2908 0
3110 -3531 1364 0
791 970 -117 0
3639 61 3664 0
-2168 -2231 -3693 0
1028 -3714 -1918 0
-1806 -2521 1291 0
3079 2159 -983 0
676 1613 1963 0
3454 2142 1656 0
3089 -2175 1532 0
-781 -3652 2728 0
-1119 3395 -504 0
-1958 103 -1520 0
-1421 -3392 3168 0
-291 -1739 252 0
-24 -573 1020 0
101 -2664 -72 0
-3144 3415 -2503 0
-1476 3303 1046 0
-236 1897 -3782 0
-2751 414 -3561 0
2121 3439 946 0
2774 -437 -2171 0
2740 -827 1377 0
2354 826 1791 0
-3884 -2689 562 0
-3024 -1402 308 0
-796 -2231 3776 0
-3170 -1409 -1213 0
-112 2025 -1334 0
1778 -1715 1176 0
410 2017 -3835 0
-324 -411 2617 0
1525 -2984 -1072 0
1737 -237 -2847 0
-454 -423 -1122 0
1445 -409 -3467 0
-587 -3869 -2909 0
3567 -3002 -3254 0
2488 -797 883 0
-1333 2971 2091 0
-1149 185 3323 0
2128 -154 -2554 0
3565 -387 -1256 0
-156 -1461 -3783 0
3532 -1645 3919 0
1828 -3816 -2712 0
1635 -2589 2958 0
-3841 -634 1895 0
1576 2927 860 0
-3547 -775 -480 0
2551 -504 1224 0
3580 -434 -281 0
-1343 271 2411 0
-1459 3236 -3577 0
1431 -1536 -1956 0
3014 1520 -2252 0
1972 -1349 61 0
-839 -672 3972 0
1516 -1183 -3141 0
3511 655 2857 0
1893 -1570 3867 0
-1838 -2349 2355 0
-2166 -2366 528 0
3022 2539 634 0
3516 2972 800 0
1864 1858 -3054 0
3279 3420 2534 0
40 -3196 381 0
852 -2281 -3772 0
-2625 -2545 -1907 0
1949 -2684 -2897 0
1384 993 498 0
466 -1375 -3150 0
159 -1784 -3693 0
-3735 -3400 -3978 0
-2245 3966 2909 0
2012 3369 1114 0
-3687 -1794 1809 0
-341 3554 -942 0
83 -2631 471 0
2581 2911 -3953 0
404 -760 703 0
462 -2765 -1523 0
-23 2050 2412 0
3814 -2602 3206 0
2308 2870 -3295 0
1154 -2514 -3697 0
349 355 251 0
-2760 -961 -2241 0
-1961 -1826 1584 0
-3357 759 -797 0
-530 3903 -3459 0
-2739 436 -1514 0
-644 1045 1548 0
-686 3787 -2520 0
-3441 2158 3456 0
3992 2328 -3647 0
868 -2435 2273 0
-1874 -2712 -3606 0
2987 -87 1063 0
-3125 2694 201 0
-3812 -3552 3685 0
1508 -1888 -715 0
2757 -546 3355 0
-2394 1380 3579 0
3479 -3360 686 0
-2995 -2208 -2111 0
-3608 -3252 2748 0
1763 -1565 -2724 0
1848 1933 1588 0
-233 -3395 3151 0
2233 3939 -72 0
-3995 3027 -407 0
916 1670 -447 0
480 2674 3264 0
-2531 -3213 2201 0
1777 318 1380 0
2907 11 -3263 0
-971 -666 -3815 0
2563 2693 -1334 0
835 1707 -952 0
2787 3420 -2365 0
-683 3025 1906 0
-2266 1944 2471 0
-2066 -1348 526 0
276 -1891 377 0
3288 2539 326 0
-3000 3762 -498 0
3015 -2060 3898 0
-3865 -1036 -1985 0
2959 3212 19 0
-89 207 -3904 0
401 -2640 -2553 0
-3207 2585 545 0
2447 -3382 -1237 0
736 -772 1204 0
3227 705 -3736 0
-527 -1237 -3090 0
-2670 831 -1796 0
-300 3125 71 0
-2485 -2086 -3670 0
713 -1488 2580 0
-815 -2783 -1865 0
3704 3627 1797 0
3289 -1201 204 0
-174 3189 2583 0
3861 -3101 -1808 0
1748 -2266 2382 0
-3704 -2998 726 0
2807 -3505 1336 0
2067 1908 -1040 0
1445 2203 -3839 0
1741 -90 2506 0
-1485 -1110 880 0
-372 -3207 -3747 0
-861 -523 -958 0
-3893 3390 -2342 0
3453 2810 -1200 0
-3253 1761 -2012 0
-2414 1320 -2351 0
-2722 580 -1885 0
-1836 -2820 -3938 0
1722 1829 423 0
-446 -795 102 0
661 -2840 -600 0
3204 998 -3315 0
-1774 3688 505 0
-1395 3553 2656 0
859 3002 -3209 0
3138 1917 -2237 0
1208 1282 3373 0
844 464 2770 0
126 3162 458 0
2489 -1810 2956 0
-2379 -2571 -2606 0
-1400 -1377 2456 0
-902 -2146 -1450 0
-3501 3350 1637 0
2647 3351 1615 0
458 3950 3160 0
922 419 -3901 0
366 -2105 2812 0
-1534 2759 -1422 0
-964 3974 1481 0
675 -2705 1131 0
-124 -1790 846 0
3227 -1084 -1847 0
-2584 407 2274 0
2350 -1679 2453 0
-292 1807 -3505 0
143 -651 -3002 0
2730 3147 -2499 0
-2641 1801 -2745 0
3512 3568 -543 0
-1049 1036 -2627 0
-2730 -2911 2885 0
-2895 985 -414 0
2008 -142 1908 0
-3111 -3607 -3657 0
-177 -885 2192 0
-3111 -1595 -1272 0
-3094 3898 3192 0
2506 3062 865 0
1239 -3689 132 0
2597 -2350 2869 0
-3307 -2048 -2055 0
2569 1450 2484 0
3402 389 -1787 0
-3394 1277 -2096 0
182 -1028 -401 0
-2129 -3323 2491 0
-1000 -2791 729 0
2108 -3416 225 0
57 3721 -3261 0
2131 -1221 -1516 0
-167 736 -2805 0
-238 3344 -1413 0
-3041 2561 -3792 0
-3825 896 385 0
-3162 1362 1424 0
1541 458 -2010 0
309 -3721 1420 0
462 2789 -3645 0
-21 1464 -3321 0
-2222 -1386 1797 0
-335 -3448 2103 0
-1450 2167 -404 0
1203 3948 -1894 0
3589 3541 1944 0
3488 -3686 -1003 0
-2239 -188 2213 0
-1853 -2928 381 0
2497 -239 -3714 0
-1160 1020 -658 0
3554 -2142 3447 0
-3605 3960 -1535 0
1015 -418 -1954 0
-1337 3537 3917 0
1112 3908 2527 0
-2338 -1505 1847 0
2384 2515 1493 0
-201 -2920 -919 0
-644 -918 -3282 0
3884 2482 1589 0
1859 -585 -3489 0
-1880 -2386 -3385 0
-3104 -1800 3134 0
-104 -3277 -3524 0
46 -3567 -3964 0
-3635 1733 1081 0
3212 -2100 -274 0
3222 -1624 -77 0
-2452 -3093 -2272 0
1168 -449 -1346 0
107 2840 462 0
241 -918 1784 0
2874 -731 3345 0
-626 -1186 286 0
2052 757 -3517 0
-3972 2461 2352 0
2423 3133 -300 0
2300 3922 -2339 0
430 3103 762 0
-176 -3311 -3494 0
-2679 -1468 -2874 0
-520 754 -2674 0
775 3526 2676 0
-79 -2875 -2467 0
1306 -2657 -1234 0
-3003 2760 -2944 0
-3082 -1914 -956 0
-3458 -3992 -1431 0
90 -248 2493 0
2762 719 -3931 0
146 3878 -800 0
268 -1149 2797 0
3207 2338 -488 0
1245 3125 3425 0
1393 41 -343 0
-2792 3979 1513 0
2228 15 -1953 0
3988 2051 1908 0
389 1151 -3792 0
-1513 3162 1915 0
2953 75 786 0
2285 492 1011 0
-3288 -444 -3136 0
-3419 364 839 0
-633 3367 172 0
-433 3128 -2083 0
1583 1236 3711 0
501 3803 2272 0
3909 3797 -3128 0
3644 -1046 -2034 0
2594 -3563 1485 0
-460 -3042 1281 0
3574 34 -138 0
-657 38 258 0
-1304 2800 -246 0
-984 -2814 -3780 0
-844 1176 2676 0
-1119 3892 -1607 0
-959 177 484 0
1102 2691 -3038 0
2572 -380 -3622 0
3027 1483 3854 0
2826 2415 2442 0
-1295 -370 1260 0
-1749 -3335 1331 0
-1320 -470 3928 0
-394 1823 -3282 0
2335 -3829 814 0
-1608 -1700 3932 0
627 901 1929 0
3160 1672 -3633 0
-3146 640 1052 0
3376 -1873 959 0
-466 2419 3842 0
-1820 -1392 902 0
-2472 3869 3498 0
76 3813 -2274 0
-906 -2030 -54 0
2987 -2182 -1929 0
-2651 -1558 844 0
-3732 -2809 631 0
508 -424 -948 0
2016 1337 1318 0
-828 -3704 -529 0
162 3982 202 0
-988 1583 -3866 0
35 838 3221 0
3380 -3495 -3472 0
3678 -3768 2721 0
1477 2288 -1742 0
-3830 -3911 -1134 0
737 -605 2224 0
2914 -4 -1092 0
3797 -3469 2054 0
-2578 -854 887 0
-1441 -35 -2958 0
3947 -3737 -88 0
-2833 -1569 -1320 0
789 -1764 3971 0
1894 1315 720 0
823 2511 1665 0
1437 3553 662 0
2404 -3794 -2187 0
-1488 -2130 342 0
1066 3178 104 0
2289 -889 2564 0
3700 3655 3015 0
-197 79 1080 0
3208 483 -2066 0
2548 -849 3471 0
-2207 -1802 1680 0
2005 2249 3965 0
2171 -1990 -3584 0
2398 2904 -3271 0
917 2045 -220 0
-1525 -2035 -2445 0
-284 2811 1674 0
-132 -1034 -2324 0
-3651 -1231 -3726 0
-218 -2722 2216 0
2567 -2351 -907 0
-2931 -2483 1116 0
1748 2439 -1516 0
-427 354 1571 0
2184 2265 -898 0
-1734 2739 1124 0
-1810 1846 -2397 0
2728 -3899 -3855 0
2045 -1334 1115 0
-1782 2452 -1349 0
3630 -3186 1786 0
3012 212 -1065 0
-318 1508 -3541 0
3386 -61 3241 0
176 3524 3933 0
-2207 -3088 1958 0
2266 -185 847 0
3273 2345 -3789 0
2498 -504 -1396 0
-1545 800 2909 0
2604 -2843 -67 0
2170 -2172 -3521 0
2964 3266 1467 0
-1454 711 -1608 0
-3337 -212 3945 0
2666 -2583 -1867 0
3331 -980 3901 0
2516 2292 3082 0
-3482 2069 908 0
406 265 -3532 0
1816 945 -2756 0
-2893 1624 -3940 0
1535 -2530 -1954 0
1008 532 -2924 0
877 1866 3420 0
-2557 2980 -2467 0
1777 -2803 -1596 0
-3832 210 -2413 0
90 -1235 -2486 0
-1591 -2591 -2150 0
2670 -2009 3180 0
-534 -1125 696 0
427 -2022 -1760 0
-1987 -1933 1947 0
2920 1735 -3452 0
2000 2381 -3096 0
2182 3667 867 0
-1083 -323 -2067 0
-188 -163 1937 0
185 -260 -1036 0
2234 1573 2893 0
3370 329 438 0
-22 -3933 -421 0
-1762 -1991 -2824 0
-3766 1471 -2706 0
-654 -3463 1629 0
1624 -1179 -897 0
1698 429 1017 0
3752 -3371 -1625 0
-3603 3483 697 0
295 -70 -2242 0
3585 52 3291 0
3030 -1423 2196 0
-1864 3946 878 0
1560 1631 -3892 0
-942 1095 -1793 0
974 3949 -2663 0
-3327 -3973 1042 0
3344 -3233 -2355 0
3905 -3804 -1929 0
-2283 500 1780 0
2103 -3055 -838 0
-3336 2443 -1363 0
3452 -239 824 0
33 -3014 -3580 0
-918 3694 -1531 0
659 -3316 3053 0
-2815 -1993 110 0
-3520 -2370 -2515 0
3971 -3183 -1767 0
-1413 2684 -1592 0
2041 -3832 -2623 0
3215 -2919 2370 0
-13 -3300 1752 0
-3742 2129 -3373 0
1372 -187 -138 0
-2985 -3879 3761 0
1581 2777 -2163 0
1694 1787 2546 0
-1857 2676 -1470 0
-73 -1471 929 0
-1106 1841 2514 0
1037 -562 -2090 0
-981 -876 -1506 0
-1107 1296 -2932 0
2965 -2098 -2168 0
443 322 -3471 0
2216 2139 1567 0
-3982 1787 -3924 0
324 1646 3010 0
3555 3532 -2183 0
-441 -799 -2391 0
-1958 3798 3396 0
-625 2926 -3706 0
-1675 -3691 -3115 0
907 1383 -1685 0
517 -1204 3118 0
-2649 229 352 0
-49 3798 -2213 0
-2421 -1141 -2992 0
-466 2188 -2247 0
-2483 -3957 3798 0
-1434 1327 2987 0
1587 2209 -2887 0
3061 -1186 -2051 0
-1384 -2313 -601 0
1089 1016 -2847 0
970 3112 -3164 0
-1279 3266 -3300 0
2573 -2506 2133 0
1270 2495 -739 0
-52 1945 -888 0
1795 1428 2390 0
1839 -3000 3099 0
-3798 -650 3734 0
-617 3729 2034 0
-2073 -1778 853 0
375 2771 2532 0
3916 -2316 445 0
1683 3104 1380 0
1656 3672 -2010 0
2553 2858 2977 0
3268 -3955 -1137 0
-546 -2213 -3101 0
747 -2884 -290 0
-700 1998 3356 0
-1419 -3513 -1569 0
1534 -2542 -469 0
-2757 -1889 3748 0
-2444 -1466 -2243 0
-1919 -1688 -81 0
344 2385 2760 0
758 163 3890 0
953 581 -3233 0
2091 1598 1796 0
-1195 -1396 1603 0
3735 1249 665 0
1016 907 -1830 0
1907 -1195 2292 0
-15 3466 919 0
-1080 2175 -3539 0
3120 2082 -2339 0
-1021 -3747 3287 0
1843 1089 -1803 0
1761 3706 -574 0
-688 -2521 3271 0
1838 2839 1662 0
-3274 2337 1389 0
-3 293 3250 0
2363 -3239 -268 0
1760 2442 3800 0
-3108 -2780 1747 0
-1502 3729 -69 0
2824 2170 1383 0
3238 -3340 1774 0
-2814 2047 -414 0
1966 3456 -1716 0
-3524 -2321 -3440 0
3036 -1347 -3353 0
-3603 613 1652 0
-2582 3360 1423 0
3967 3350 -2224 0
-653 3918 2747 0
3712 -1414 423 0
-2813 -227 2198 0
-3498 -2217 2636 0
786 -2587 1889 0
-3588 411 -1483 0
-2615 2073 -1529 0
2459 -3371 -663 0
-803 2158 2373 0
1808 -2185 1444 0
631 2852 -3658 0
-3001 -211 84 0
-1339 -1552 2453 0
190 -855 2546 0
3668 3126 3995 0
2232 -2053 -1321 0
1083 -1319 -197 0
-2265 -2608 -1294 0
1128 1021 -2760 0
-471 -3399 -1195 0
-2317 -3939 3011 0
-664 1228 -2520 0
-1867 -3112 3514 0
464 526 -362 0
2922 -2164 -200 0
-1590 -3015 1835 0
-3792 108 2643 0
3853 -1208 1039 0
257 -2960 3643 0
-1416 882 -3658 0
1597 2534 -3109 0
1550 -2492 2353 0
-3213 -1497 -1145 0
-1596 -3789 3889 0
-2579 -3870 -3090 0
2887 -2668 -1799 0
-504 3062 1270 0
624 1729 -1578 0
3558 -1240 -2562 0
-2279 2632 -2226 0
1921 1557 -1299 0
-574 3224 233 0
2193 -3552 -1557 0
-472 163 -2474 0
-1372 -1173 -3434 0
2265 -452 -1042 0
-3078 -3076 2522 0
291 -3905 -2163 0
1671 -2602 -401 0
-3458 -1416 -3824 0
-2090 2364 -258 0
2531 2736 2099 0
-2413 344 753 0
-3605 2496 -446 0
655 1044 135 0
175 -1322 -3183 0
3250 3026 -2609 0
179 -2714 3614 0
3195 -3372 1895 0
436 -578 2973 0
532 3604 687 0
-381 -1364 -1955 0
1930 93 820 0
-3415 874 -2602 0
3831 3983 -2656 0
-413 -3821 154 0
3032 3782 3545 0
-3930 1187 1723 0
2202 -3411 520 0
2016 -2044 -2321 0
2016 -2046 -2440 0
3083 -3934 -3234 0
2446 -3507 -2028 0
-452 -2194 -1840 0
874 3282 2656 0
408 258 3491 0
-3591 1053 2355 0
-342 2425 2002 0
1286 -3521 697 0
-459 3554 -1187 0
2206 -1236 1754 0
909 -3409 2136 0
-3569 -3417 -1786 0
-1391 -3366 -398 0
-3723 -81 1124 0
2740 2668 -3655 0
-3 -1226 886 0
-1766 -1629 -3260 0
-1826 1379 -3495 0
-3317 -1612 -205 0
-1873 2455 3932 0
3175 3442 1347 0
1244 -3524 1524 0
3885 -1548 -1387 0
1857 1875 2531 0
2978 -2824 -3111 0
1427 -3555 -341 0
2009 519 -1362 0
1955 741 2442 0
3099 -1875 3904 0
3835 2614 711 0
2218 30 -3628 0
2078 -3869 918 0
-2356 -456 1165 0
239 3251 -1535 0
-1042 2240 -3412 0
1227 -1990 -1412 0
-1636 2161 -2446 0
1493 -2149 2884 0
-2561 2334 2479 0
-2078 3090 2148 0
396 -859 -712 0
1743 -1423 -1862 0
-281 3301 2067 0
-390 -333 3277 0
-2623 -950 2832 0
-3793 3646 -3807 0
3650 1890 -2820 0
1004 -3645 672 0
-439 1473 3207 0
-371 -167 1093 0
-339 -797 -2793 0
603 2475 -2889 0
693 2230 1787 0
1235 3464 1318 0
-3184 -14 -2958 0
3208 2904 -2070 0
-3563 -3866 2359 0
722 3852 2976 0
-2234 2543 -1878 0
3852 2037 3954 0
-628 1463 1047 0
-2758 666 -3329 0
574 -1149 3619 0
566 -123 1851 0
-1921 -1008 -342 0
2796 836 -355 0
3405 -1676 -2433 0
3685 1469 2153 0
-1507 1119 310 0
-1309 2207 101 0
-2436 -885 -402 0
-3972 -2988 -33 0
3056 -2623 3747 0
1790 -2352 -3388 0
-1272 1889 -2968 0
-1232 3949 2535 0
-707 -2881 -752 0
3647 3185 -2046 0
-3629 3034 642 0
-2975 555 2308 0
-2524 3704 -3751 0
1653 -1865 -1210 0
1166 1669 1399 0
-1096 3508 2392 0
-2375 2278 -123 0
-1645 -3075 -2483 0
-2526 546 395 0
227 -3148 -2510 0
-3423 -1794 -1313 0
147 3262 -3042 0
3710 -667 2575 0
2481 3524 -717 0
-3448 1885 1703 0
-3071 -724 933 0
-3340 1259 941 0
426 -1985 699 0
3355 3776 1360 0
-694 2973 -3497 0
573 77 -1783 0
-2108 -1178 3619 0
-1151 -2089 -1540 0
-2130 1198 380 0
977 -2406 -1715 0
1976 -827 -464 0
-2781 -3485 827 0
-3992 2469 3172 0
2716 3882 3815 0
-3128 -2419 1268 0
2251 -878 -2707 0
-1714 3210 -3634 0
3881 -1392 -3509 0
1471 -3740 1976 0
-77 2729 742 0
3895 -3281 102 0
-1746 -1160 1693 0
36 3720 -3987 0
-565 888 2494 0
-1337 -82 -2308 0
-3327 -1862 -409 0
174 -3704 -2004 0
3684 -678 259 0
-1767 2755 2018 0
-1858 959 1076 0
-2599 -1479 2521 0
-3903 -1739 1752 0
1486 1409 3200 0
-3154 -271 2698 0
425 -2939 -3199 0
-2904 -2687 -1559 0
25 -2411 -631 0
2446 2259 -3523 0
961 3740 3201 0
-8 1231 2586 0
637 -2130 -2291 0
2889 -3738 3481 0
-2160 -1677 -1217 0
2906 -1177 271 0
-1742 2065 2914 0
2703 -3027 3841 0
954 2891 -1829 0
3125 3382 -3928 0
3671 1457 -1785 0
-3860 2069 2034 0
-3125 -2794 3664 0
3414 -2543 -1491 0
1890 608 -2722 0
-1974 -1411 -410 0
3698 2244 316 0
2738 2132 3732 0
-3432 1061 1623 0
1055 1430 2355 0
-1088 242 -1774 0
-2959 3805 3349 0
2844 -977 3991 0
1150 3080 -1721 0
-1899 -3466 -3765 0
1750 607 25 0
-1464 2982 -1539 0
3396 -2105 -1306 0
971 3588 -593 0
-1281 2233 1307 0
3422 3114 3118 0
2893 -2430 -809 0
-1377 -1984 219 0
-1773 -3510 3383 0
-1758 183 -1379 0
-27 3140 -3713 0
108 1028 -1735 0
2006 -1400 1793 0
1169 420 -3257 0
-2161 785 2956 0
3513 -271 2194 0
-2302 -1041 -1879 0
335 -3185 -490 0
1262 -2235 -3560 0
1770 -503 3399 0
-55 -1330 118 0
-3022 -1829 2662 0
1199 1523 3632 0
-2419 3783 -938 0
1463 3857 78 0
3955 -2439 560 0
-1515 -1940 -2573 0
-2620 928 535 0
3236 3593 -711 0
-3057 -2995 -1040 0
-3528 125 680 0
3145 -2856 -1081 0
742 3718 -3807 0
-473 -1494 1186 0
-3282 869 -1036 0
-3370 2029 1220 0
1732 -439 3282 0
-2988 1917 1191 0
323 -3417 1186 0
-2692 -3374 2520 0
-1349 -629 2709 0
-3116 1190 1008 0
2260 237 -1476 0
-863 1997 3554 0
-928 649 -1174 0
-835 -1644 -1318 0
-2863 -1959 -1338 0
958 -1406 1921 0
3109 1418 -2701 0
-464 710 -2611 0
-662 1437 -156 0
1461 -1748 2151 0
-835 -3291 -1157 0
-775 2179 1102 0
-3302 -285 -3601 0
3271 -2355 -2753 0
-1871 1753 3633 0
-3138 -2034 2962 0
3598 1612 -616 0
1373 -3546 638 0
-838 975 -2794 0
-2088 -1455 -3777 0
-3332 -1614 -1429 0
71 557 882 0
1692 -373 -3177 0
-3531 3131 3621 0
-2851 108 3938 0
2754 -4000 -1637 0
-520 677 2559 0
45 3069 -3581 0
3558 -78 -1320 0
3210 2207 -1885 0
-712 -888 1384 0
2766 1070 -1947 0
-743 3795 946 0
-3823 -2504 1523 0
-2940 2116 -2206 0
-2842 -240 2137 0
1333 3536 -3236 0
-3105 -1061 2429 0
3900 -425 -1889 0
1343 2606 3044 0
3063 -1737 -1448 0
-2604 3313 -445 0
-3113 1879 -3610 0
918 18 -589 0
1589 -70 -485 0
1586 -2867 -1542 0
-3787 3015 345 0
2561 3875 -1108 0
-3542 1335 243 0
1641 2675 2558 0
1044 -3112 -232 0
-1046 -3239 3609 0
2434 2057 -2965 0
3730 973 -3279 0
2400 -1664 2296 0
-3083 -2701 -344 0
3882 1791 -2315 0
-980 2326 -3609 0
3795 2266 -2962 0
-2421 -895 -3460 0
124 267 -3430 0
2555 890 409 0
210 -1683 -2088 0
-2880 -52 2879 0
-2581 327 -3736 0
-232 615 2088 0
2588 1513 1735 0
158 625 3348 0
3438 3120 -3856 0
-805 1947 -2805 0
-2919 3029 -2327 0
-575 -1116 1361 0
-2240 2412 -271 0
886 812 -1592 0
2864 44 1707 0
-33 1460 3346 0
2523 -640 -117 0
-2938 -838 1275 0
1260 3816 -3155 0
-3731 -363 3148 0
14 1830 2896 0
952 632 190 0
-1047 -1218 3990 0
-271 -546 2802 0
2726 -2516 -400 0
3764 -69 1962 0
-1338 -3359 -1194 0
-2552 -3688 -3959 0
3427 -1293 -3423 0
1413 -3563 -3037 0
-3564 -1721 1922 0
498 -2344 -867 0
729 -2726 -1245 0
1195 2306 -793 0
-1374 776 -185 0
-3682 -1118 -489 0
1061 3682 2376 0
-3622 -1130 -2255 0
3950 3640 -1645 0
183 -3278 -2535 0
2273 3458 1359 0
2053 -2121 685 0
3820 -2328 3641 0
-2744 -3906 236 0
-1133 -3594 -3367 0
-3416 -3975 -1432 0
3733 1096 -863 0
-25 -1268 127 0
-1663 2341 -3999 0
-3720 -3243 -2545 0
3644 -3830 3637 0
957 2286 3333 0
3330 -1207 -1043 0
1607 3453 1559 0
-2003 3109 -896 0
-381 -2838 -4 0
-1179 -144 564 0
-3129 -3314 -1279 0
-3475 -2076 -1438 0
3850 2052 -3226 0
-27 -3967 -3343 0
3371 3606 2908 0
-1990 2031 3408 0
-1176 -3719 -1709 0
-1907 985 106 0
-2412 -2046 1306 0
1177 2693 -3550 0
1945 -3789 3192 0
-1412 2651 -2210 0
2006 -610 -717 0
-3654 -2149 2948 0
-3206 1316 1872 0
-1572 -615 -401 0
-3969 -2456 2881 0
614 -390 -202 0
-663 -3455 1270 0
-840 -2824 1162 0
-1330 -1108 -2324 0
267 2603 666 0
267 -637 -1222 0
-551 -939 3757 0
1032 -2370 3816 0
647 -333 1358 0
-1990 2785 -1209 0
3384 -1538 3050 0
-2117 -876 -2167 0
-2659 2053 3374 0
3263 2298 119 0
-3551 -726 -3704 0
-1493 -2701 -261 0
1985 1387 -559 0
2818 -3701 -671 0
-2943 1978 -3813 0
2012 332 3858 0
-3675 -953 2197 0
-3148 1602 -3440 0
1572 -2491 -3169 0
-289 2287 843 0
-3381 2669 148 0
-2523 1481 -2097 0
1888 1857 -754 0
450 -3130 2152 0
-1877 1972 -1168 0
2416 -3421 3894 0
543 12 -3169 0
3295 -2832 -2636 0
-1788 -981 862 0
3722 -656 3655 0
1939 2522 -3812 0
-458 -200 -3035 0
-1414 -1650 -1035 0
-321 1922 3161 0
-2779 -923 -2702 0
3598 930 -2912 0
-1460 795 -1747 0
2031 -39 697 0
2377 1223 -1664 0
-1082 -3120 -3808 0
-3604 -2861 -2568 0
-906 -1814 -574 0
2561 3624 -3182 0
2575 2906 -1141 0
3318 -2976 2541 0
-1350 195 3376 0
1502 -30 -3985 0
1099 -2614 -2812 0
-2530 1668 2387 0
2563 3774 3169 0
3265 3958 165 0
2259 -2668 -2163 0
-798 -199 2142 0
-1242 1878 -1676 0
-1366 857 2227 0
1115 3126 -2275 0
-2991 -630 -3530 0
-208 -3055 -3538 0
-2641 -673 3126 0
-933 -3761 650 0
3317 -3473 3011 0
1467 3470 -170 0
2470 -781 2814 0
-2830 -1082 48 0
-2874 -1742 3058 0
-1651 -2539 1056 0
-1037 -913 230 0
-1375 3938 1739 0
-992 -1130 -148 0
3885 2805 284 0
1597 -2126 3552 0
-3615 3757 -693 0
1493 -1244 1783 0
-2013 1013 2084 0
1931 2697 -224 0
1370 -3095 2035 0
-864 2749 3936 0
-1582 -3272 -556 0
-3028 3959 -420 0
-3176 -1258 3417 0
-1632 -1542 -3880 0
48 382 3945 0
-2217 -3682 2418 0
1341 756 1785 0
3493 3409 2935 0
-829 3775 -1180 0
-125 -85 -1269 0
-1297 1616 -426 0
3418 728 3658 0
1223 -943 -3085 0
-1483 -3567 2206 0
3624 -3652 -3709 0
-1716 -3808 -2940 0
555 -1641 -1573 0
3710 -3478 -2064 0
-926 -1234 -483 0
-3853 3505 -1259 0
-3799 2066 793 0
-2188 321 -216 0
-2503 2895 977 0
-549 -1463 1018 0
-2290 -3799 -2815 0
3389 589 3899 0
-424 -3369 3089 0
-2832 -1392 2787 0
-2723 -3697 3775 0
2387 -1207 -3935 0
2921 -3040 1313 0
-852 -256 2597 0
3960 -473 2633 0
-3895 1326 -215 0
2281 -1624 1026 0
-1182 -3465 -1636 0
1148 -1111 3654 0
1057 -2154 -3778 0
-3512 3435 54 0
282 -367 -2333 0
1616 2691 -316 0
1221 3477 -2280 0
2252 -3207 -1130 0
-2994 -297 -3439 0
-3538 3577 -3046 0
783 -2929 -1749 0
-2764 124 1621 0
-3946 607 -3729 0
-1169 1156 -947 0
74 2827 908 0
-1546 1535 3909 0
-3967 3241 -2806 0
-3344 -2963 1720 0
-3312 -2796 -2140 0
-1590 1987 2034 0
-1917 -322 885 0
-1370 3936 -3663 0
2384 1076 -3181 0
3791 2935 -3636 0
-3029 1864 1251 0
-607 -1786 658 0
-660 -1768 -1104 0
296 -3011 -2821 0
3461 1023 39 0
2850 -1850 -3365 0
750 1458 -681 0
-1047 3888 290 0
-3584 -860 1123 0
2915 -824 -2757 0
-757 1837 -1665 0
3035 2207 -3054 0
694 2005 3558 0
-2457 3189 -559 0
-290 2210 3927 0
1473 3289 393 0
1200 -1733 -1183 0
-905 2672 -3262 0
1122 -2024 -3908 0
-603 -1738 2664 0
-3627 -3484 830 0
-2792 3121 1830 0
617 -3967 2676 0
-3018 1963 112 0
-1173 3571 -2608 0
700 2772 1747 0
891 -447 -3004 0
2306 2875 1766 0
-2221 -205 2585 0
-2746 2521 3120 0
2002 3297 3240 0
1376 3287 431 0
-1345 -3022 -731 0
3965 -974 1324 0
187 1442 -2636 0
1963 -1465 2251 0
-57 2623 785 0
1743 1237 833 0
3458 3528 -1587 0
-209 2897 3969 0
-3939 3554 3384 0
-2860 -1559 -3337 0
-1478 2900 2449 0
-365 -3130 -2450 0
-3328 1103 1372 0
-2532 726 -188 0
-3306 -1070 -2591 0
274 -3260 -273 0
-69 -1307 3802 0
3429 2893 1271 0
3876 -527 1834 0
1104 -362 3997 0
3315 3870 -2956 0
-2819 3765 -869 0
-219 -3843 3640 0
-1630 1612 -1126 0
1313 3242 907 0
286 1146 -3297 0
3025 891 -555 0
1829 -123 -504 0
1551 3860 1239 0
-1370 -2589 121 0
-3152 2883 1293 0
-3494 -1124 1860 0
-2100 -3186 3782 0
-1031 -2054 1018 0
-3601 -3728 123 0
-55 2048 2214 0
-2248 1876 -709 0
1085 3208 220 0
3290 3346 2780 0
612 -3695 -1459 0
810 -1938 -1561 0
317 3501 2299 0
-1381 1639 -561 0
-232 -911 3424 0
2816 3449 -1481 0
1572 -182 -393 0
2246 3843 -2486 0
-56 2303 689 0
-1819 1053 1121 0
1219 1870 -1284 0
1821 1319 -578 0
-541 170 1440 0
-3888 -3294 2938 0
-377 -3097 -2788 0
1208 2991 -3497 0
2973 1442 682 0
3243 -3783 -1024 0
-606 -1158 201 0
2255 -747 -1473 0
-306 -205 3203 0
-3422 942 -3637 0
3361 1802 -1016 0
1758 -3520 -3724 0
3878 163 3371 0
1886 -534 636 0
-585 -1322 3913 0
122 3216 -37 0
-746 -3574 -1887 0
-543 -2742 2584 0
2044 -2428 -3595 0
-2836 -3867 1091 0
-1770 -1542 1278 0
-2790 -3657 -2613 0
317 -2329 2404 0
-443 2157 -1450 0
-1438 1678 -669 0
-3196 -1339 2138 0
-1512 -3577 784 0
-1006 -3060 -169 0
-177 435 441 0
2692 2992 -3625 0
3274 -661 -1129 0
2022 -1022 3014 0
3763 205 -1788 0
-3262 -3029 2404 0
-1573 -3005 -3162 0
936 -3572 3123 0
-742 3963 -1935 0
2238 744 -3476 0
3937 3881 -1130 0
621 -1182 -2382 0
2732 -3329 1167 0
578 -76 85 0
-3059 170 -3433 0
25 3356 811 0
-2519 -1338 1924 0
1514 2309 3600 0
1985 2320 2422 0
-1631 339 -908 0
847 151 -530 0
-1502 1815 1312 0
3602 -93 2392 0
2705 601 -1033 0
152 1057 -1746 0
-3410 -1481 -3121 0
1165 -3961 3233 0
1365 -2079 2765 0
2638 3446 -617 0
2655 247 -2772 0
-3297 2499 -910 0
1534 2977 -2521 0
-3588 -962 -1016 0
985 1564 1702 0
877 3467 2046 0
-3583 1384 168 0
1340 183 -280 0
2986 -1137 -1086 0
3890 3203 1023 0
705 -2717 -136 0
-512 3129 1523 0
-3844 2695 3911 0
2214 3753 3180 0
3748 -982 499 0
1294 3984 -1732 0
-560 -3397 449 0
1322 3364 3513 0
1049 1209 3011 0
2239 2878 -3316 0
-835 -1847 -453 0
3482 -1104 2407 0
3428 -1200 2586 0
445 -1958 1246 0
-33 3358 1092 0
3004 -3565 1424 0
-221 -801 -2646 0
2290 3252 -3356 0
2863 1234 216 0
160 -2005 -2713 0
2083 -2908 2817 0
-3645 -2794 -3579 0
-3433 -1849 1457 0
-25 -458 2501 0
-1141 -728 3511 0
-3477 -1687 -2417 0
2925 1611 -244 0
-1064 -2988 -1102 0
3117 3964 2350 0
-1670 2132 1634 0
-1297 -2450 -132 0
-1011 1753 -3371 0
1923 -1525 3168 0
-3798 1145 1580 0
1245 -1758 3317 0
-744 -2138 -1617 0
-1042 331 -3703 0
3008 -2202 -3043 0
-3921 1805 -569 0
-633 -3686 322 0
-1381 -2886 -2307 0
-3248 3658 -1965 0
63 3674 -1975 0
785 501 -3134 0
2410 -2581 1809 0
-279 2346 377 0
-3858 2508 -3877 0
-2333 -2649 1281 0
3752 3330 -3914 0
1860 -3967 139 0
462 128 -1898 0
574 3506 1827 0
3712 109 -449 0
-85 -89 2406 0
-720 -2456 -1375 0
-532 -2668 3021 0
2330 -3484 3200 0
-443 -1839 439 0
3004 1286 -967 0
3384 3372 3564 0
2005 -749 -1235 0
562 -1876 2256 0
-2583 -3898 2046 0
-2550 -762 -1105 0
-2299 349 172 0
1240 3357 301 0
-2114 1792 3925 0
-2277 -3197 -1400 0
2992 959 2958 0
3266 -1980 3584 0
-3621 -1682 321 0
2000 -1342 -425 0
-1009 -3050 -1863 0
2901 2026 1182 0
-3601 -3636 3775 0
1128 -2306 -3213 0
921 -1882 -1080 0
-1943 3682 3442 0
732 3526 1436 0
-2572 -1188 1595 0
3446 942 3951 0
-748 -1884 208 0
3170 3251 -2362 0
2888 869 -1286 0
2508 2028 -1176 0
-3410 -2629 2815 0
360 -1014 687 0
-833 -828 2044 0
1843 -3624 -3368 0
1216 3042 -70 0
153 72 1119 0
2393 168 -1873 0
-3110 -348 1506 0
-3567 1534 746 0
-1120 -1729 2782 0
2232 1611 197 0
1096 2993 2143 0
-829 -249 -1898 0
-1631 2100 -1552 0
-863 -3888 3387 0
-2736 2054 -3879 0
2296 -2729 2559 0
-751 3025 -859 0
-900 1065 -2043 0
3045 -3954 -2004 0
829 -1239 3265 0
-3991 -2718 3934 0
3169 1865 1861 0
2964 -3377 -687 0
1831 3872 383 0
-684 2660 848 0
683 -2710 929 0
3563 1085 2077 0
3197 3275 1525 0
-1530 3047 -3461 0
-1428 -842 1191 0
3879 716 -250 0
-625 -2415 3554 0
3128 2761 -156 0
1798 3193 -681 0
-1716 2062 362 0
2239 -2178 -3928 0
-612 -1116 1554 0
2304 -2809 2330 0
3355 -36 1543 0
-320 -663 -2048 0
302 -1851 -3726 0
2638 2714 -3551 0
1528 1604 2868 0
762 1815 2542 0
563 -249 -2218 0
234 -3431 -800 0
3663 -980 2313 0
2355 1246 2021 0
1084 -88 -1949 0
2960 3373 1486 0
220 -1988 1994 0
-614 -1142 1436 0
-1526 -319 2482 0
-3794 1843 3499 0
2643 -246 -443 0
-1594 999 -2802 0
-1794 2916 -1551 0
-2800 2868 -969 0
2138 -1080 -2375 0
2378 717 474 0
-1903 3072 2629 0
-615 3250 3229 0
2374 -1042 1030 0
471 -2818 -2518 0
3433 -1066 -1386 0
-2374 1847 -1012 0
668 3294 943 0
2150 3333 1705 0
2281 -3031 -2482 0
1048 2826 208 0
-1637 -3426 -2313 0
1531 -177 -2806 0
-169 2969 3064 0
1612 3181 664 0
3758 -1193 3412 0
-3702 -3309 -36 0
-3752 1772 -815 0
2910 140 -2175 0
3461 3016 1150 0
3650 2889 -173 0
2611 2022 912 0
1793 -3887 2509 0
-704 1563 609 0
3061 2310 -2857 0
993 -888 608 0
-3662 1015 -1568 0
-1991 -1231 2761 0
-3867 3329 3230 0
3336 2111 1051 0
-1867 3257 -975 0
2828 3447 132 0
893 3636 3556 0
3341 1963 -3295 0
-3865 3487 3548 0
2754 3751 3861 0
-2318 -867 697 0
562 -2837 -3117 0
196 -2246 480 0
-3285 2236 2062 0
-1596 1263 -630 0
3841 -1468 -992 0
-1446 -1801 -858 0
3499 1205 -2689 0
1200 -3402 2026 0
471 123 214 0
924 -30 181 0
3885 -3109 2896 0
792 -1966 2986 0
-1153 496 105 0
-1311 -1341 -3771 0
567 -1401 -2892 0
483 -3419 -3633 0
-794 -3033 193 0
-1623 1600 -3949 0
-844 -2839 1437 0
3136 -1195 -1814 0
468 432 -1113 0
3329 -3006 -1905 0
1212 -68 351 0
-3009 2567 -16 0
3134 -1627 1242 0
-881 -3927 -1215 0
3903 -3335 -2753 0
-2371 684 -2906 0
-667 -81 -360 0
-445 -1717 2044 0
2252 -1283 -1063 0
-2895 3893 -1568 0
-1144 2173 3270 0
2579 -937 -3754 0
2429 -1016 -1733 0
1250 298 -1456 0
3058 2593 -3312 0
3438 1153 -3144 0
2098 2451 -383 0
-744 -2489 1638 0
-3259 1808 -516 0
854 3826 -1940 0
-269 -1928 2563 0
-207 3346 1313 0
-1365 -3242 -1203 0
-3176 -900 1428 0
-3663 916 1546 0
1234 3395 -1518 0
-2765 1748 -2535 0
3668 -2206 3888 0
884 -3307 -121 0
1816 -2193 2584 0
2817 1663 1468 0
-3133 -879 1587 0
-2320 -678 -2312 0
3835 -2658 3727 0
-275 2734 2646 0
3672 1456 3624 0
3145 3934 -287 0
-2752 -1848 3866 0
439 2156 -1400 0
1600 3942 1297 0
-545 -3387 3264 0
-3427 1444 -511 0
-1429 -1991 1027 0
1719 2346 -2273 0
-3909 1362 3618 0
-591 -3891 -3233 0
479 2609 -3726 0
3826 -1729 997 0
-1152 -543 -1104 0
-1514 1473 -3632 0
-3080 1927 1442 0
1878 1084 -3445 0
-1157 -2468 -3589 0
-2888 1080 217 0
1397 -1688 2366 0
2041 -2991 106 0
2612 2628 1185 0
-2083 -1445 1219 0
-2907 -989 2965 0
3513 -3402 3406 0
413 -827 1977 0
638 -2846 -234 0
730 -2024 830 0
-367 1255 2987 0
1495 -3638 -3275 0
3975 3417 -3354 0
1555 2347 782 0
42 -2871 2830 0
-3880 -3208 -1663 0
1231 3093 2535 0
505 2517 -996 0
3111 -469 -3841 0
3904 2914 -1965 0
-1369 115 2385 0
-1926 1455 2198 0
-1720 1615 1038 0
-2879 1662 -2243 0
-2331 -1596 -2938 0
-2381 1963 1551 0
186 1261 -2699 0
-3392 -7 -1862 0
-3706 231 2482 0
-1132 -2164 3775 0
-3650 2602 1299 0
3808 714 -363 0
-3614 399 -2841 0
461 -3585 3409 0
344 1424 -150 0
2886 -1335 186 0
2285 -3109 -1579 0
-375 -4000 120 0
3028 -530 1682 0
80 -3354 1237 0
1103 -1706 142 0
1531 1859 -3834 0
-2749 3651 -1698 0
-3238 3916 -1346 0
-2611 1797 258 0
-915 -3860 -1445 0
1320 -2592 2550 0
343 -2430 -259 0
-227 -2889 -3353 0
-169 1866 -1618 0
-2352 1482 -3504 0
-3411 557 -3384 0
3928 269 -1706 0
-2112 1923 3944 0
460 2752 3977 0
-1299 2774 3244 0
-3785 -1607 867 0
2797 -705 2412 0
2516 1944 -2196 0
-2942 72 2400 0
-1676 1079 -236 0
3676 -489 1289 0
3335 2961 -3172 0
93 -2378 -3337 0
-3420 3120 2274 0
992 -954 -418 0
3808 -1185 -1788 0
1273 2198 -819 0
2697 -2996 2620 0
2257 -1747 3528 0
3310 -1299 -2413 0
1352 -1534 2191 0
-2388 3489 -2679 0
3144 -1414 1637 0
-1241 1087 2396 0
-3349 -2258 3956 0
2506 3718 2014 0
3997 -939 401 0
-2523 3457 -3131 0
3917 -419 -213 0
793 714 -999 0
365 -818 1667 0
-3898 3393 -47 0
2162 -3562 3398 0
3650 2616 2477 0
-2523 -3914 -3476 0
-2970 1713 3272 0
-2690 -3893 -2447 0
-705 -1246 -3692 0
1841 -2317 -3968 0
3243 2602 2468 0
-589 2388 2792 0
-1807 -2731 -2182 0
1543 2495 -248 0
928 2790 -995 0
-2155 -872 -981 0
-1125 3095 -1345 0
-949 747 110 0
-1409 3507 1150 0
-3516 943 2228 0
1916 -1664 -1943 0
2288 209 -1949 0
2343 -396 2352 0
-638 -1890 -3265 0
2151 -1295 2176 0
1868 558 -2230 0
976 -3685 -2313 0
3669 72 1840 0
728 -2118 -2608 0
-3596 1292 -2360 0
2300 -742 881 0
2807 2946 2335 0
-2043 3533 1834 0
-830 -327 2322 0
3353 2318 2130 0
-620 -1064 2698 0
3906 201 -98 0
3181 -2300 3080 0
-3467 -2188 -1043 0
3606 -1183 3877 0
-1275 -2286 2457 0
-611 -1128 3279 0
-1119 -2258 3125 0
-1874 279 -1575 0
-196 1741 -153 0
456 2044 758 0
2925 -2796 2788 0
3105 809 3945 0
2425 -696 -1533 0
3487 -533 -2246 0
-3735 2351 2299 0
1815 3968 1626 0
-3093 -1482 3663 0
-2079 -2878 -2152 0
1336 -1640 1373 0
-1650 -1530 -1573 0
1246 55 3252 0
3116 -3164 -1177 0
-1091 -789 -871 0
1883 574 3718 0
-3883 1154 -396 0
1372 3063 1701 0
-880 -2604 2486 0
458 -2297 2635 0
3798 -2201 -2545 0
-3942 -1932 3672 0
86 -1159 -3675 0
-1127 1005 -1874 0
-2466 390 -2044 0
-1208 3148 3321 0
-3303 -601 -3400 0
3386 2181 -2351 0
-2867 3039 1994 0
641 -3224 -3245 0
2932 -3940 -3721 0
1869 -3544 2610 0
-599 2716 -364 0
1755 1174 3891 0
-1365 2255 -1728 0
1315 -3293 -847 0
3963 2175 73 0
3339 -2661 620 0
-1092 -3764 -2680 0
332 1415 -3930 0
1427 -2346 -3040 0
-3247 3385 -2009 0
3912 1912 -1796 0
-2861 867 1928 0
3231 -482 1963 0
-1159 -1244 21 0
-1368 2316 1936 0
-1620 -3735 596 0
-1437 -2020 2790 0
3377 3772 2511 0
1433 -1373 2107 0
-822 -1497 1611 0
-2617 -2494 -922 0
3258 3277 -851 0
-1105 -2862 -3859 0
1663 -3330 3386 0
-892 -2720 -2602 0
-380 -473 -2656 0
-2921 -2028 1683 0
-1922 3562 1963 0
2533 -298 -2630 0
417 -3694 3656 0
-1999 3424 -3151 0
2107 -3245 358 0
2103 -77 2628 0
-2750 -1153 -2994 0
682 -3804 -2622 0
830 1259 1926 0
-3962 -1922 -3223 0
3900 -1698 1560 0
-2530 408 2277 0
3541 -1116 -1311 0
-1167 842 -3731 0
-2668 -292 -718 0
-1629 -2648 1195 0
-1430 29 -3462 0
-1482 1188 -278 0
-162 -858 617 0
707 -1136 -3852 0
-1636 -1874 3540 0
-617 -1290 -1561 0
2773 231 3513 0
3601 -460 3552 0
2731 -3217 3837 0
3030 -3120 -3586 0
1055 3805 -2446 0
1 3373 534 0
1815 -2501 -687 0
-159 3975 -2557 0
-1106 1255 742 0
-3626 -1919 -176 0
-1754 -2838 2313 0
720 635 -2700 0
795 3662 3585 0
-168 -2799 -3115 0
-3477 1692 2488 0
-1053 1181 -2991 0
3959 -2012 626 0
-384 -573 2122 0
3257 -2915 -3982 0
-857 1307 -3053 0
2123 -745 980 0
-3367 658 -3839 0
2609 -1034 -1405 0
1648 982 -1662 0
-3437 2617 -3806 0
-78 2731 -3282 0
-1570 1424 -1559 0
3210 -3396 -138 0
3557 1323 1612 0
2972 -1571 -915 0
-1225 2512 -1535 0
1164 3293 1624 0
-3839 -3695 -3181 0
886 -1285 2040 0
148 1646 3349 0
681 -294 -1370 0
-485 441 -857 0
119 -564 209 0
-3453 -1826 -2864 0
949 2752 -1734 0
2986 -1496 1879 0
2580 -2131 -262 0
2430 -2826 3120 0
1996 -2593 1099 0
434 -3642 2722 0
-1438 -3801 2922 0
-3797 -2356 -1607 0
1920 675 -2948 0
-2760 -1771 -2665 0
-2534 3670 -72 0
3932 -2422 -1667 0
1053 3789 1602 0
-3645 -86 -2054 0
2426 3296 2042 0
2316 -3878 -1706 0
-3303 2491 -2825 0
685 1990 1126 0
284 3242 3946 0
-1716 -2352 2382 0
844 2179 -3667 0
2575 2218 -812 0
-2603 -1751 1559 0
1745 3556 2165 0
1198 -3855 1603 0
2877 1478 3138 0
788 3576 -1160 0
-653 3746 30 0
3592 982 -3429 0
-2257 -760 1527 0
627 3109 -3804 0
-2337 -2112 -3517 0
2361 3115 2273 0
1975 -511 257 0
3410 3640 -191 0
-1148 -634 -2464 0
3565 2100 -802 0
99 2162 -3730 0
-3965 -1544 -2691 0
-879 3474 2322 0
2130 -1039 295 0
-3752 1623 -1656 0
-3564 3021 -3660 0
-2255 3279 -2703 0
-3536 747 2210 0
-2920 -311 -3196 0
-2765 10 1511 0
-2856 -2360 47 0
2021 -2345 -2963 0
3802 -2652 3096 0
-2024 -572 514 0
-3132 -3232 739 0
-2942 -1934 506 0
3294 1756 -2105 0
1142 3348 -2780 0
1524 969 420 0
-224 -2705 -3890 0
3596 -2048 1385 0
-1624 213 -206 0
2594 2819 2641 0
-2295 -793 -3539 0
-1229 1818 1088 0
3318 3848 -2608 0
-3021 -568 -2406 0
3847 -919 -597 0
-1125 1771 -3892 0
1939 -2470 1223 0
-388 -3116 3289 0
1326 3483 -2457 0
-3517 -2662 -3415 0
-634 1166 -2507 0
-2780 2825 1535 0
1084 -1094 61 0
-3775 -560 3857 0
3068 -234 -2325 0
3300 2785 -3437 0
1344 1428 -726 0
-2142 -1257 93 0
1769 -641 -3284 0
169 3833 130 0
715 -142 -3152 0
2928 3745 3614 0
-3409 -2351 -1995 0
3921 -2585 -1470 0
-613 -1225 -598 0
-367 359 -2667 0
-3684 1633 2351 0
1029 3473 1332 0
2225 -2978 357 0
-2479 -3496 2220 0
1147 1165 1071 0
-1255 -2693 2187 0
-1264 1622 1748 0
1718 -2676 -2209 0
2491 -1359 -1432 0
-1708 -1876 2424 0
-88 -1998 1283 0
-630 1016 848 0
3710 678 3971 0
2565 2589 -571 0
-3236 -2085 3669 0
-2484 -3482 641 0
-2584 -3951 3002 0
1420 -3702 -2270 0
-577 -647 3038 0
-3311 424 2994 0
-3866 -3919 -1320 0
-2917 -1552 -2412 0
-2992 -3590 1920 0
2357 2629 3006 0
-3195 567 3482 0
3527 -1172 -3401 0
1111 -3287 1177 0
-3017 1928 -208 0
1159 3308 3147 0
2242 1036 1187 0
2020 3054 -2110 0
513 2940 1147 0
-849 -2213 -3911 0
-85 -3354 1319 0
-3591 -2225 -3611 0
-918 858 -789 0
2543 -1339 -2846 0
159 546 -2951 0
-2107 -2578 -669 0
-270 2825 -1311 0
2551 -2303 -1063 0
-1553 -3964 -2334 0
-552 573 3013 0
1632 2214 2018 0
-1576 -2899 90 0
-3638 -1378 711 0
1191 921 3547 0
2372 -2612 -2731 0
1992 2996 -1214 0
271 18 3459 0
-1421 -3119 -3143 0
-860 119 3074 0
-3916 -532 -1616 0
2488 3040 177 0
3366 -1269 -3190 0
-2626 -1271 1133 0
1649 867 -2119 0
-3890 -2009 954 0
-649 -2679 -1695 0
327 -1998 3760 0
1286 2350 -2764 0
-972 305 2111 0
1166 3598 424 0
-2967 3847 3362 0
195 2052 2654 0
-3976 -2153 -900 0
2619 21 -1692 0
3 1105 81 0
-3412 1420 -1017 0
-1947 3926 -999 0
232 -3276 -3920 0
1315 -1415 -2887 0
2411 -2554 965 0
-1932 -2498 2348 0
-3057 -2231 -2094 0
2214 803 -661 0
733 -1108 3285 0
3614 -2735 1776 0
3325 1099 -3719 0
-1705 549 3529 0
3107 239 2971 0
2966 -3388 -3234 0
-2280 -353 1333 0
2331 2230 -374 0
1343 3717 -1869 0
2640 2870 1431 0
669 3183 299 0
1473 1387 -747 0
1716 2356 -2317 0
855 -3304 -110 0
-2470 196 -2276 0
876 2057 1558 0
-907 -1543 -3303 0
-1459 -3686 -514 0
683 1666 2782 0
-1443 -3023 3279 0
2629 -3607 2707 0
1597 -2458 2260 0
-2508 -2638 -2994 0
-1267 -730 2339 0
-1455 687 -2318 0
-854 -103 -3749 0
3434 3960 2618 0
-3265 -743 2960 0
-2464 1601 252 0
1336 3723 3495 0
-2738 519 1107 0
209 -1450 323 0
524 -3116 3463 0
-2931 -179 -204 0
-3099 -937 1384 0
-2711 1701 -2544 0
2179 757 719 0
1395 3874 -380 0
2977 -2461 651 0
-224 -986 288 0
2550 2674 949 0
-3355 -507 -3828 0
-2085 862 -3188 0
-1177 3009 508 0
-3029 2623 -754 0
-1119 280 987 0
961 -1281 214 0
-3332 3863 3400 0
3815 988 3806 0
3014 -3063 458 0
-3525 -3825 -76 0
-3886 -1784 2231 0
3236 -416 -1414 0
-571 2585 -322 0
3972 -3174 3869 0
3430 1461 -2369 0
-3411 852 2880 0
-1529 733 3105 0
-164 2544 3528 0
-2129 -1854 -1643 0
3101 1475 2526 0
416 -748 320 0
2925 2792 -3247 0
217 2252 1514 0
-2380 -2288 174 0
-967 -1570 2423 0
-2924 3078 975 0
-1472 963 -642 0
88 2474 -3870 0
1672 68 3159 0
-1737 -1167 -21 0
1825 -1024 -408 0
-46 3309 -2898 0
2681 901 -61 0
-1769 -2832 -2403 0
3249 -1244 -974 0
1923 1595 -1992 0
1845 3465 -1140 0
3851 2861 3350 0
-1828 3036 2252 0
-1922 -3538 -2595 0
-1249 -447 -223 0
-2264 2017 -577 0
-1999 -2072 -3383 0
-1681 -965 2769 0
498 -260 -954 0
-3943 867 -251 0
-2557 1918 1691 0
-1693 3581 -206 0
3246 2845 -2279 0
2064 3705 3993 0
3427 -2503 1780 0
-2418 -2622 -3388 0
2395 732 -2067 0
1414 -3537 -3760 0
629 2195 -1407 0
-2458 -652 2146 0
-1805 -3569 -2407 0
-1732 334 -3491 0
832 -3269 1511 0
3707 -2610 3159 0
-293 1597 1283 0
105 -3752 1330 0
-3095 -1288 2267 0
2355 1330 -2895 0
2429 -810 -2061 0
-316 -547 3532 0
-304 1675 3583 0
3372 484 3584 0
-1088 -2507 956 0
-2962 -2932 1810 0
2357 3945 -2044 0
-1975 3623 -3565 0
-1021 3370 -1864 0
3523 -2387 -377 0
-1956 -1917 -118 0
3981 -3344 -1289 0
569 1612 321 0
2311 -3626 3539 0
-3120 3417 -3877 0
3110 2599 2975 0
-1091 -3482 989 0
-2577 -2368 3348 0
-3504 3978 3667 0
2586 -2387 560 0
3618 -3718 2583 0
-1779 1360 -1393 0
-1786 -3580 22 0
-432 749 2833 0
-826 -2451 2305 0
-654 -788 -2346 0
2026 -1721 -1717 0
500 239 2682 0
-2742 -3420 3484 0
1358 -2215 1339 0
1558 -1051 -2609 0
3013 -3150 -470 0
-1814 -1873 3691 0
1632 -3288 -24 0
-15 68 -3210 0
3690 3978 3409 0
-3102 -1974 -2401 0
-1068 -1561 3548 0
490 -484 -748 0
3632 504 -1940 0
3174 -2507 -3948 0
-1652 -843 2101 0
-2358 -3751 -2551 0
1586 -3813 506 0
-3997 -196 376 0
-3413 1755 -188 0
-926 -3865 -1589 0
-2902 -2451 1689 0
-2052 2308 246 0
-826 1545 3098 0
-2745 -647 1408 0
620 -3209 -2213 0
2142 -1204 -2703 0
445 3222 3858 0
-1234 -647 1168 0
-226 -3253 -1465 0
1765 1264 31 0
-1962 3891 -2720 0
2939 894 1686 0
3138 293 1246 0
3862 3203 -1528 0
-2799 3126 2623 0
2398 -2247 1042 0
-2238 -1173 3327 0
-2394 2307 -2466 0
-731 1335 3951 0
1438 1351 3977 0
2221 1992 -2948 0
3763 -1443 2017 0
3817 2414 3717 0
-3152 -3516 -1984 0
-1069 -1096 -513 0
1393 3734 619 0
-2059 3688 -2425 0
-515 2448 -1811 0
3193 3401 -3593 0
2337 -3557 -3583 0
119 1062 3062 0
2927 3495 -226 0
576 -89 -64 0
-3183 1337 229 0
419 -3378 -3736 0
-278 -3261 -216 0
307 3229 -1784 0
3725 -893 -2842 0
-1738 -2682 3889 0
112 -1595 -760 0
810 -1739 3371 0
-1017 -3507 -2318 0
-967 1604 -2411 0
3498 -3856 -210 0
-1606 -3705 -29 0
-3619 -2105 -1168 0
-534 2090 -2780 0
-2191 449 2704 0
-1790 3863 2761 0
1199 287 -2682 0
-3204 -2298 1687 0
-2600 -2512 -1459 0
-2963 -920 -2628 0
2043 3619 1532 0
3736 -581 3654 0
1313 1971 -236 0
-2338 795 3770 0
-2323 3007 -3141 0
-3861 -3033 -966 0
-2163 -2721 -3124 0
-606 -2944 1564 0
2714 -1921 83 0
3052 -329 -1183 0
1670 -700 -1195 0
1493 1236 2082 0
2025 1063 1188 0
-371 1583 2375 0
3376 -229 -1183 0
2989 1031 -2755 0
-522 768 3521 0
-2285 -1915 3691 0
-2837 1472 3163 0
-499 245 792 0
1182 3096 1938 0
3229 2563 1591 0
3594 1603 -3366 0
2092 -3771 -1752 0
-1580 2395 2338 0
3229 -676 -2295 0
3500 3277 -1537 0
1308 34 1952 0
-2946 2251 309 0
3168 2984 -3851 0
1600 -505 1254 0
1411 -1126 -2478 0
3721 -3855 2048 0
1867 567 -1130 0
1250 -1215 2641 0
170 -1038 -1622 0
3948 -1274 3119 0
2609 3504 -3675 0
-75 -3935 -3037 0
-3946 203 2376 0
-3822 3963 2788 0
-3453 -428 1762 0
-2614 -888 474 0
-947 3305 1285 0
2753 -2491 -3768 0
165 -1899 -2492 0
2785 1658 -3752 0
-293 -909 -2427 0
2450 -1828 1392 0
-3534 284 -1314 0
-2196 -3824 2339 0
-3537 2060 3876 0
-2051 -3219 907 0
-2350 2163 3187 0
3575 -2387 2994 0
-1647 1476 -3086 0
-674 -1760 1057 0
-1279 -2576 -1531 0
3268 3933 419 0
-3446 -232 2246 0
872 1350 1631 0
-2867 -2666 -3029 0
3574 838 -769 0
638 -3311 -2280 0
-3320 -1878 551 0
-2369 -3584 999 0
-2135 1459 675 0
2086 -2202 2669 0
-3030 -2769 -2119 0
-2431 -1640 -1690 0
2335 1702 -2240 0
1319 75 520 0
1278 3369 -3885 0
2301 -2592 403 0
1158 -77 377 0
-3529 2237 -3712 0
1893 -2729 -1997 0
3341 924 -1546 0
-153 -3894 -2009 0
-821 -1471 3028 0
-2955 -3473 53 0
-1197 3937 2069 0
-3796 -450 -2399 0
1691 2396 -1513 0
-3789 -2839 -1268 0
-2210 -3878 -1396 0
246 270 3265 0
-2452 675 -2334 0
2450 577 -3624 0
-388 749 -3618 0
-3074 -2103 669 0
1083 2295 -2055 0
-2715 -2460 1868 0
2938 -3341 515 0
-3879 -1686 -3994 0
508 -1522 2171 0
2035 3591 3378 0
192 894 3441 0
3710 105 -1684 0
2572 2162 3368 0
-1865 1970 -3280 0
3699 -2548 -1500 0
428 -2254 -2409 0
3109 -1535 -1015 0
3867 -959 -1454 0
466 -2429 -735 0
-191 1958 548 0
540 -1453 576 0
-3100 -792 -3421 0
-360 -638 1410 0
-489 -2908 -2481 0
3603 -3406 1305 0
1322 -2525 -2933 0
1068 1612 -1534 0
-3525 824 -2703 0
3277 -1469 -3307 0
-642 -3083 -426 0
2006 -3521 -197 0
2846 3671 1456 0
-3996 2082 -3586 0
-3405 930 3812 0
-499 2186 1776 0
2108 -770 -458 0
2640 2334 -234 0
-2993 -3245 -440 0
-3141 104 -966 0
1710 -3789 3921 0
-2105 -853 -2410 0
3094 1718 -3911 0
-2149 -3906 -749 0
-82 -2053 346 0
1305 1785 -883 0
-808 1007 -2666 0
-3325 -719 2840 0
-3985 -3428 353 0
1393 2574 -1135 0
3544 -562 905 0
-3323 1658 -3511 0
-2008 -2301 1832 0
-699 2959 2648 0
1221 -985 3897 0
-2609 -1450 2020 0
-3101 -1494 1281 0
2771 -642 -1609 0
3540 1482 469 0
789 -2757 -3010 0
635 -81 -846 0
-273 -1527 2156 0
-120 -2256 285 0
218 2005 464 0
-3415 930 1432 0
-3431 -231 3511 0
1318 -2336 -1937 0
782 -3296 -2132 0
-2316 1637 -3653 0
2093 1727 -1434 0
1430 -1191 -3014 0
1654 -670 3950 0
2216 -261 1243 0
-2538 -1949 529 0
-2680 -3548 138 0
-61 -3577 -1927 0
-1744 -985 3494 0
-3934 -1824 2980 0
2905 -2439 -1658 0
3674 3480 -3558 0
2061 3523 383 0
2482 988 -1309 0
386 1867 -1472 0
2733 1662 -130 0
-1105 -3225 475 0
1483 -1263 -1242 0
-155 -153 -659 0
-511 3630 -499 0
-2961 -3575 3147 0
-2104 -613 3584 0
2752 -1357 38 0
922 -124 -2403 0
2552 -3232 -2791 0
3275 104 -2223 0
-520 -195 -2888 0
-2262 -3052 -2468 0
3479 -2045 140 0
-1536 -1427 -2881 0
-2406 3525 3879 0
2508 1527 -3438 0
1639 561 81 0
-2907 -1918 -3704 0
-1762 -3464 2435 0
1414 -2791 3198 0
1432 2092 -3166 0
-1219 -2554 -2293 0
3461 -110 -3184 0
-2124 162 3929 0
2095 2277 2352 0
2859 1845 1701 0
786 1854 1619 0
-3790 -1769 2796 0
13 -2673 -3874 0
-3988 -82 921 0
457 -3017 364 0
-3605 502 -3902 0
-2149 2105 2745 0
-3374 2772 3371 0
1112 234 -470 0
-518 2089 24 0
3734 840 2477 0
3480 2988 -1665 0
1191 965 -777 0
3883 -1444 -1021 0
2224 -2736 3077 0
1354 703 1298 0
-1742 -3361 -3606 0
-3731 -3334 2977 0
3249 -3424 -84 0
-1672 1342 -2553 0
-3843 2336 -2234 0
3282 -500 2788 0
2541 2492 -855 0
-3620 735 -1525 0
1655 -1165 3818 0
-303 -722 2400 0
2021 2649 1976 0
3146 -1844 -2629 0
3075 2347 -128 0
401 1427 1706 0
-3887 1601 -10 0
1637 -740 -1669 0
-323 -2332 -398 0
-2063 2129 -492 0
587 3951 2969 0
831 1725 -2935 0
-1043 80 1030 0
-785 741 1662 0
-3753 -3353 -1097 0
2051 -3392 2188 0
2126 433 3392 0
3926 -2796 -732 0
-1708 -3399 3085 0
-3440 2229 -274 0
2114 -240 948 0
203 -3000 2006 0
3156 -1363 -106 0
3420 594 -2136 0
1636 -2084 381 0
382 -1095 2807 0
3392 188 157 0
3949 -1307 2466 0
3950 -969 -3394 0
-153 -1451 -835 0
-3503 3768 384 0
-90 3646 -2003 0
-732 -1935 -3759 0
2655 -160 -711 0
-3025 -2313 -1057 0
302 -3805 1000 0
-699 -2265 3025 0
-1502 3932 817 0
-2112 -464 -3080 0
2784 -148 1034 0
3810 -761 856 0
-1915 -1015 -362 0
252 2922 2723 0
-1589 -2100 1111 0
-3909 -3296 3564 0
884 2651 -2943 0
-1024 83 3319 0
-951 -3063 -778 0
-3971 -3437 3403 0
-3000 -1937 -2733 0
628 -2603 -2324 0
3056 457 920 0
607 2765 -3940 0
343 2323 -2361 0
1332 -1502 -2435 0
-1747 -3339 -2219 0
3685 -555 -2386 0
-289 2203 -288 0
3781 -503 -2218 0
906 -2565 -294 0
1902 3908 2191 0
-1323 465 -2048 0
-1229 -1654 -2765 0
-1957 -884 2961 0
2334 -3883 -91 0
2600 2279 302 0
-1775 -695 -2102 0
251 -1814 3296 0
2768 2303 3063 0
-3002 2818 2013 0
-20 514 -1477 0
3866 2855 1903 0
-2129 1370 3530 0
-2418 -396 278 0
-3110 440 2147 0
3282 -3021 -3860 0
-2379 342 2230 0
-1893 1233 2561 0
1003 3965 487 0
3845 -3180 -3764 0
470 -1165 -1300 0
-1854 2676 -3246 0
3530 -2408 2790 0
-2854 -2780 -1141 0
2336 -2120 88 0
2693 974 185 0
349 3925 93 0
-2316 3165 -295 0
3291 2166 25 0
412 1674 1807 0
-2520 -2949 -1331 0
3859 3811 3836 0
-2469 2098 -942 0
-1444 1942 -865 0
2422 3138 2997 0
-350 -213 2308 0
1412 -211 3125 0
2454 -1379 -1397 0
-2244 266 1113 0
283 3172 -2918 0
-2862 955 1333 0
2218 -2162 -3938 0
-2678 443 -2032 0
2174 156 697 0
2490 3631 2076 0
-1270 510 1374 0
2963 1215 2874 0
1076 -3004 159 0
-2667 2104 -3717 0
2336 -942 -1027 0
226 -2955 2469 0
-2354 1482 -1050 0
2421 -2898 1798 0
-3364 2014 -2597 0
2821 -3410 1993 0
-2403 -1698 -2371 0
2571 2931 -3015 0
3060 2556 3525 0
2921 -1732 -1120 0
-2069 -2834 1912 0
-1204 3450 3785 0
2571 -3345 -1966 0
-657 -3122 -65 0
-3931 2424 -718 0
-1616 -1609 3293 0
-1560 -2844 3022 0
2267 3710 -973 0
-1626 -785 -616 0
-2726 1406 -1016 0
-811 1726 1074 0
-826 3977 -2388 0
-1845 -3711 -316 0
3105 -2930 -1147 0
-2700 -3113 -3498 0
1830 -3688 -1735 0
3234 3602 3495 0
1345 2364 2652 0
3447 1454 -2150 0
-539 2579 -1027 0
-229 2840 -1988 0
-1597 370 -3951 0
2990 1095 -1451 0
-3942 -1771 -1097 0
686 -858 2156 0
1707 751 -2464 0
-3887 3023 -51 0
1643 -879 -3906 0
1685 1115 -3531 0
-3834 684 3439 0
3726 -1886 -1217 0
1483 1971 -2152 0
474 26 2399 0
-231 -3532 2325 0
421 2707 1408 0
3480 -65 -1343 0
48 3273 2968 0
2756 3903 -3026 0
-2780 3665 -1479 0
710 3527 2538 0
-1411 -3426 -2958 0
-2292 -2965 2764 0
3220 2067 -752 0
-1315 -1869 -1969 0
-1730 -2972 -268 0
-2364 2639 -308 0
-2768 -2176 3404 0
2186 432 -811 0
1282 946 2747 0
6 2947 -1119 0
3633 3849 3376 0
577 -332 -1572 0
2880 3438 -3645 0
-2042 2239 -2533 0
-2198 -2361 -2229 0
2587 -505 3125 0
-2183 -2031 -3426 0
-3418 -690 -1453 0
-2292 2767 -3223 0
-1316 -718 -3288 0
-1808 2542 -2561 0
1469 2139 1891 0
-1942 1528 -1988 0
-91 3675 -1205 0
-436 -1040 -1111 0
-2317 -3992 1008 0
-1439 2 3067 0
-1839 1161 -1255 0
-3525 -1582 -403 0
-2495 3797 -326 0
-2423 3282 -561 0
2244 -981 -2736 0
-1047 -905 -3598 0
3818 -732 2530 0
1290 993 -975 0
-1106 791 3960 0
227 3270 -2001 0
-1078 970 2813 0
2355 2235 -1899 0
1496 3154 3596 0
-1153 -3422 -3620 0
631 1729 3568 0
-1408 3755 934 0
722 -209 754 0
-546 -2712 -928 0
-2099 1709 -2105 0
1678 3604 -3738 0
-3238 -2754 2194 0
903 -3988 -1706 0
-2060 2564 1972 0
3661 722 3027 0
-3518 1159 -904 0
-1324 -1410 -3023 0
188 666 736 0
1903 2506 -3681 0
-1241 -1925 -79 0
2796 3037 -3754 0
3182 -3966 1264 0
1454 -301 -2167 0
3834 762 787 0
-3818 1835 3111 0
1603 -3173 2220 0
2821 2787 2548 0
-2483 1048 -2189 0
1286 -3449 3679 0
-2330 -3038 1277 0
3349 -204 -2360 0
545 -1079 -855 0
-1505 -684 2358 0
-2597 -502 2888 0
-3057 -709 455 0
1023 -2639 1155 0
-2391 -1614 303 0
-1964 -2141 -2494 0
2379 1578 288 0
-2378 -1709 3739 0
-707 3696 -694 0
-2833 -3667 978 0
65 3567 1768 0
-1871 -1356 526 0
-2261 -2296 -1317 0
446 -1009 3759 0
2004 -1119 -1806 0
323 549 1374 0
-1550 -3780 2347 0
1884 -1365 1462 0
-2851 1896 -3493 0
-241 -1264 3008 0
850 2080 1211 0
-2004 1055 -2297 0
1759 -2342 76 0
-3718 654 3613 0
1150 -1978 -3219 0
-464 -3851 3315 0
394 2933 -3885 0
-1918 1641 -1754 0
-903 -2523 -2151 0
3499 3194 -3172 0
3134 -3925 1798 0
-464 -796 1293 0
-2997 -750 -1695 0
3680 1818 2819 0
-1635 915 2 0
-3767 1290 3035 0
-1200 3005 711 0
-1369 3679 -2513 0
3848 -1959 1465 0
3723 -2445 2540 0
-3285 115 -2193 0
-123 -217 -1533 0
-885 -949 734 0
1911 2171 3823 0
2636 -3317 1998 0
2586 -3218 -2565 0
1506 -2762 2653 0
-1049 -160 -987 0
-3715 2251 3516 0
1045 -3022 -838 0
-1070 -3059 696 0
-3130 1975 -57 0
-297 2552 -1983 0
1423 734 2032 0
3839 1551 3078 0
-236 3924 -3861 0
-1460 234 2 0
-2473 565 1541 0
2238 1070 -1765 0
443 3953 -2728 0
2227 69 -3081 0
-607 -352 303 0
814 -651 -2540 0
-2442 -1023 1717 0
-704 3022 -2361 0
1584 1415 -925 0
-3373 -2389 -3120 0
-1777 -428 -2845 0
2035 563 -1188 0
-2491 -2679 3215 0
2062 -1033 -3780 0
3424 2271 -3860 0
2273 2821 -861 0
1133 3552 3738 0
3288 1377 1816 0
-2867 2436 -376 0
2354 357 -1565 0
2372 -3626 -1865 0
3581 262 600 0
-3470 -350 -855 0
-495 308 3936 0
3643 -2720 -426 0
-2399 -798 -2111 0
-1819 -1409 2521 0
3206 1792 1895 0
3021 1876 3263 0
-762 1022 2583 0
3963 -2558 -2350 0
-2942 400 2363 0
3983 618 2388 0
2610 -3360 -1182 0
-2576 -2736 2391 0
-2685 2456 1599 0
1827 1374 649 0
-3624 933 -3322 0
-3076 -1372 2858 0
-3539 -3342 2891 0
1084 1899 -1995 0
3848 1227 -2217 0
-3174 -3004 -3371 0
-3504 -164 -1917 0
1679 777 2772 0
250 2234 -2722 0
-384 3352 -1859 0
1034 2899 2465 0
-3342 3959 2204 0
-3937 -158 910 0
-135 -145 -2 0
3067 1050 -1092 0
420 -3136 1120 0
1475 1179 3110 0
213 580 -1590 0
1214 -3056 2889 0
3775 3688 -515 0
512 -3428 -2183 0
2738 2697 -1242 0
696 2074 -3341 0
-728 -2685 -2363 0
2770 -3877 -3530 0
-3172 -2523 -1160 0
743 -349 -1269 0
458 906 -2866 0
-1269 3869 2995 0
3716 3946 -3635 0
-1046 2715 2807 0
-2369 -3625 -2710 0
3884 2810 1228 0
-3265 -2576 -2162 0
-2252 3627 2593 0
1365 -3475 -3211 0
306 -89 -2415 0
3216 1565 -3369 0
903 1104 653 0
3593 789 2707 0
-2968 1859 -99 0
3851 378 -1491 0
-1046 -1480 830 0
-2887 -3520 2520 0
-2291 2753 3677 0
-3551 616 3557 0
-3284 -3583 2875 0
2987 2507 -2257 0
-1544 1637 -2770 0
1699 -2504 2228 0
-2679 -2929 -3425 0
2410 136 -1592 0
-2814 2763 305 0
-553 2147 -3750 0
-1171 2498 -2897 0
-42 -1501 -2293 0
-3759 -2862 -2163 0
-2111 3496 -1125 0
3669 -2139 1089 0
397 1982 -1464 0
3523 -2193 99 0
-1945 -3201 -2199 0
-3619 1942 -3039 0
2646 2108 2480 0
-3284 234 1980 0
3700 1616 667 0
392 2085 -2575 0
-1984 -3501 -2337 0
-3738 -2999 -2471 0
-2497 2965 -3206 0
3465 923 3701 0
-2311 2829 -1370 0
1923 -257 -3696 0
-1013 3601 -2686 0
-3204 3037 -341 0
845 -827 -1044 0
2685 1780 2079 0
1750 1278 220 0
649 -2342 -3572 0
2566 -697 3270 0
-3785 -149 747 0
3140 3142 -419 0
1277 1475 -3628 0
2286 2538 -366 0
-3754 -1293 -1367 0
-1880 -1998 2499 0
2009 368 -3365 0
3817 1362 2829 0
2223 1678 -3785 0
3517 2826 -1016 0
1977 1668 1099 0
674 732 1997 0
2847 1155 704 0
2197 -591 2370 0
2353 -2451 -3249 0
-3241 2784 -2908 0
-3519 1507 -2160 0
2090 -630 154 0
887 1473 -3920 0
1486 3213 -72 0
-3973 61 2223 0
2748 254 2071 0
1124 1267 -3731 0
-290 685 -144 0
-1737 3041 -3410 0
-130 2787 1586 0
3739 1946 -2529 0
1810 -3193 3426 0
-3862 456 -2378 0
-1065 2014 3581 0
2404 3035 2852 0
-2713 1146 48 0
3151 3108 627 0
1243 -2633 -1394 0
-1364 -311 -3857 0
185 -2301 -1158 0
3642 2587 -992 0
-1615 -789 -2751 0
2652 -1273 1984 0
3953 -216 2760 0
3864 -2925 -3859 0
223 3561 1841 0
-1880 1531 -3344 0
-3207 -454 2221 0
-3985 1343 3392 0
233 -1975 -2182 0
3308 2764 1513 0
2788 2944 -988 0
254 -480 425 0
1187 3930 -3779 0
604 3035 -2698 0
3450 3899 -2370 0
-2560 1278 1937 0
2371 -333 3907 0
3261 2145 2884 0
-3135 -2242 -1157 0
2873 6 2268 0
-599 -2879 -654 0
518 -3603 857 0
2631 -3766 3475 0
2120 -2700 1379 0
2979 -3252 3829 0
-1312 -3459 1592 0
-892 2696 281 0
-3163 2690 -2460 0
1652 3886 -652 0
-3665 3340 -3985 0
-3926 -1579 -2953 0
-1106 16 -225 0
-2378 -643 3661 0
774 -1538 3020 0
-2571 1946 -3719 0
-1630 -1303 2125 0
3803 -2956 -1103 0
-639 2734 707 0
-3961 2983 -275 0
-2809 -3339 -3529 0
-3538 -2601 -137 0
-732 -1114 3114 0
-222 671 713 0
-3888 -2017 2388 0
-3467 -1260 1562 0
3043 -1959 670 0
2704 3566 3302 0
-2604 3374 1048 0
-489 836 3738 0
3133 -91 -1387 0
-2571 876 375 0
2339 2811 497 0
-233 -3303 3455 0
-1612 -467 672 0
1162 1847 2291 0
3774 -1174 -1466 0
389 -2133 -3784 0
2225 -2389 3075 0
3442 523 -1005 0
-2813 3401 1322 0
2820 -3244 963 0
3081 3386 -676 0
1242 -2111 3255 0
3433 863 -372 0
579 2731 1345 0
492 -1319 -105 0
2267 -1951 3413 0
174 2256 -3101 0
3240 -3623 3282 0
19 3914 2214 0
3265 2004 1451 0
-3360 724 1146 0
683 2232 3726 0
-3419 2025 2105 0
-819 2837 -2105 0
3591 3245 -2375 0
-2516 -300 3008 0
-1249 3890 -1232 0
3607 2340 -1441 0
2606 2207 2617 0
-966 -2935 3170 0
1616 2719 2135 0
-151 818 1677 0
-702 -1486 -771 0
3851 2791 2374 0
-494 3576 3821 0
-2084 1700 -406 0
-1057 33 3784 0
-1378 -2948 -522 0
-900 -2370 -713 0
3166 604 -2887 0
3483 -2617 -3375 0
-2884 805 -2380 0
2103 3174 -2940 0
-245 3106 -204 0
3872 -2912 1443 0
-1908 -450 -1682 0
-3630 -1777 -2189 0
3255 21 1130 0
1400 419 -2728 0
1268 -1756 2527 0
-845 -2006 1324 0
-175 -533 -2137 0
2350 -3947 1280 0
3539 -1839 -3489 0
2033 595 -803 0
-1744 -2770 -1007 0
37 -1415 -2877 0
430 -2160 -3001 0
3066 1040 910 0
-1907 -2219 2597 0
-2242 1899 1702 0
2168 -1947 -3184 0
1351 -192 1686 0
2993 75 -1804 0
-1845 -3542 -3614 0
91 -3614 -1574 0
-978 -2195 -306 0
-2151 3095 -1772 0
2918 -1115 621 0
-1406 -1294 2352 0
-2465 -1900 2581 0
1848 -781 -896 0
962 3250 2639 0
2479 3141 -3840 0
2784 2881 -3460 0
-1758 -77 212 0
3174 3255 2603 0
-2288 2344 -1307 0
3408 -1519 -1685 0
589 -3076 2581 0
3027 2473 -595 0
-1470 -1277 1736 0
3394 3258 -2747 0
-1765 2675 -1568 0
1052 -987 -2096 0
1597 -1070 -2325 0
2589 -1064 -2989 0
-3269 1077 3957 0
-2981 474 -2780 0
448 -1821 75 0
-3710 -814 -1489 0
71 -3097 1287 0
-3826 -3383 -2030 0
-3605 3327 -1207 0
2572 -2663 1145 0
-291 3851 2916 0
-2402 -3299 517 0
-637 -2727 -3198 0
1226 -2998 -2837 0
-3577 1873 -348 0
-3072 -1785 3795 0
1423 -3007 -1472 0
-1370 -2055 231 0
606 -2175 1354 0
2805 2783 -1513 0
-3866 -3036 1471 0
-845 -2628 -3035 0
2337 -2668 1402 0
-1064 58 -144 0
-3011 -2417 14 0
3171 -1705 -1000 0
-832 -3495 2394 0
532 403 2002 0
532 3120 2003 0
-1112 -3652 -1563 0
3631 1130 -1867 0
3584 2002 2866 0
-1179 -408 -2408 0
1194 -90 756 0
-1172 -3009 1753 0
3999 -2059 -1295 0
43 -3164 -1709 0
-2318 -1249 -238 0
-955 858 -249 0
3896 -3551 -139 0
-3617 2506 -3537 0
-2015 1393 -2787 0
-3355 -3210 -2531 0
-2480 1972 3523 0
-2982 1717 2902 0
655 -79 3069 0
1957 -1477 821 0
-2795 481 3506 0
2429 -2286 898 0
-3369 -2149 -908 0
56 3913 -1725 0
-2239 3788 751 0
-1527 -3300 -2137 0
2793 765 448 0
968 553 1901 0
-1931 3145 -131 0
-3085 1221 3669 0
-3223 229 3949 0
1656 -3327 1048 0
-291 1869 3378 0
-789 2836 -3510 0
-582 693 -3917 0
-3978 -2478 2565 0
-1017 -1790 -3304 0
-1265 -1662 -1202 0
2518 -1147 3861 0
-2359 -1124 2712 0
872 3389 2621 0
1143 -741 1126 0
816 3296 2780 0
-3927 2759 3850 0
-108 2458 3136 0
-3223 -619 -3580 0
3682 -2611 3791 0
-1433 -3614 771 0
-956 3244 1416 0
2119 -3811 3587 0
-481 -2373 1962 0
-2488 -3170 2203 0
2472 1857 -3518 0
2805 -3633 3411 0
1675 -3044 3806 0
-633 -3654 2332 0
2369 806 3762 0
1248 -2148 2332 0
1144 1393 748 0
-181 -3460 -2870 0
-659 1722 -2202 0
-2273 3997 3211 0
3729 688 -1279 0
-1332 1889 -3454 0
2500 -2443 1641 0
-1138 885 -368 0
-3980 2546 2270 0
-1595 -674 180 0
-2294 3744 -3962 0
-549 888 -2952 0
3509 1582 115 0
-2028 -1536 -3641 0
-716 -3827 -2398 0
-189 104 -2279 0
2218 -2261 -2512 0
-403 -494 -2461 0
-1960 1701 372 0
3889 -2909 -799 0
-963 546 -3646 0
-720 -209 -297 0
355 271 -909 0
-292 1216 -3741 0
-3091 271 1161 0
-3292 -1149 1755 0
760 2521 3510 0
2820 1460 -3415 0
-1704 2329 -654 0
-3536 -2100 1600 0
-3573 -3870 -2477 0
289 1403 -3920 0
-2321 3311 3999 0
2021 1695 -3183 0
-3191 -2546 -1663 0
-262 -3751 148 0
1928 459 -1722 0
-3104 -454 2257 0
305 3560 3445 0
-383 2596 -3691 0
-964 -756 -3010 0
-2658 -2961 1053 0
191 2601 -2067 0
3369 1375 2676 0
2379 -188 -1268 0
-1001 2444 -971 0
-3386 254 -3847 0
729 -1109 3263 0
1916 2279 1063 0
16 -425 2802 0
-3274 3563 2141 0
-2251 -1210 -2549 0
579 25 3355 0
1977 1822 -648 0
2819 1437 -2646 0
-2387 -46 943 0
1283 3278 -2049 0
-3992 -212 2433 0
188 128 3396 0
3579 -3996 724 0
1987 288 -2299 0
2955 3521 3968 0
3215 -67 1861 0
2370 -3044 -633 0
-1125 -1233 3854 0
-2008 -1447 -2256 0
3783 3267 3382 0
763 -1697 1252 0
1410 -307 2740 0
3411 -1223 -2038 0
2845 2561 -942 0
-504 640 12 0
-3744 1932 2514 0
-1502 -3774 3120 0
1942 994 1431 0
-2934 -1145 2065 0
-3957 2051 -1656 0
-197 -1277 -1987 0
1533 2108 -2714 0
-418 -3968 -3275 0
1633 1361 3387 0
3029 -2212 -1244 0
-3916 2187 552 0
-3312 -1823 -1762 0
-3680 -351 1742 0
-1239 -446 1100 0
1576 1268 1982 0
3791 -313 -2960 0
-2543 2640 463 0
-3028 1991 -1190 0
-2478 1046 3999 0
2727 -3076 2819 0
1699 -3343 818 0
1016 567 3841 0
3962 193 2891 0
-948 2003 -821 0
3778 1149 3486 0
-2120 -2315 1416 0
3488 -3366 -1540 0
1069 680 -1093 0
1955 -1302 -1639 0
3821 398 -3824 0
-2033 -1655 -2545 0
-3972 2967 3128 0
-3349 853 -1273 0
2181 1817 -1920 0
-3008 3205 1866 0
-3023 1634 -232 0
3394 -1450 -1013 0
-2275 3084 -1300 0
3014 -565 -94 0
-1543 1001 -1047 0
3561 2217 3589 0
-3712 3723 2277 0
1412 -2531 1360 0
1808 -3402 1344 0
-587 -2119 -1372 0
-23 1422 2194 0
-1723 1569 3398 0
-3373 2031 2545 0
3915 -1831 1431 0
3170 -178 182 0
-1432 -1598 -766 0
-2777 962 -480 0
2296 2271 -387 0
2931 -249 -1756 0
2059 2028 -365 0
-862 1659 424 0
-3238 -186 1049 0
3716 2548 199 0
3381 -2211 1139 0
-3958 554 1962 0
3934 -3077 -3202 0
2002 -2107 275 0
285 -1597 -2680 0
1286 2441 -2453 0
-3144 1310 3586 0
2557 409 1492 0
998 572 1964 0
3253 637 3698 0
-3634 2234 -2807 0
3023 2404 2094 0
389 459 -453 0
-132 2853 -265 0
2283 -1431 3777 0
-3566 -926 2336 0
-3608 -3240 -610 0
-3261 -3191 -2587 0
3713 -3221 -3876 0
947 2389 -3056 0
-3450 -3422 -3677 0
1236 542 484 0
3899 2863 1308 0
-2932 3147 -881 0
-3899 80 -1025 0
-2297 1953 2728 0
1602 3950 31 0
-2347 -2381 1013 0
-2887 -2528 570 0
-581 55 3461 0
2551 2664 81 0
3015 -3281 704 0
3006 -2900 -3780 0
-3007 2987 -609 0
-1585 -504 -378 0
-3621 458 -3875 0
-1846 -3275 -2309 0
-2297 -413 2805 0
2997 -3391 -2176 0
-3873 887 604 0
-1172 3320 258 0
3264 -2133 -797 0
-1417 1825 -3821 0
1795 207 1526 0
-2633 -1885 38 0
573 -2061 3840 0
-3504 -540 597 0
-3127 -403 590 0
1981 768 2885 0
-2 1203 -2522 0
-1232 320 -1425 0
1970 -3991 3908 0
-906 -1031 -793 0
-1997 3594 -711 0
3725 -3743 -2769 0
-388 -3304 -3649 0
3865 1912 181 0
-2467 353 3876 0
-3120 395 -3219 0
2046 -590 3099 0
-1717 -92 -1740 0
391 674 3276 0
302 1842 3764 0
1380 654 1232 0
1808 1911 -917 0
-682 3755 -1225 0
329 -679 -2660 0
3341 2896 -1374 0
2974 3230 3628 0
177 -2981 -1642 0
-2106 -645 253 0
827 892 -1361 0
1056 519 -3173 0
459 2773 -3051 0
1498 771 -1093 0
3288 -3986 -1776 0
2826 2611 1379 0
-392 1716 3106 0
1262 -625 -3355 0
-2660 2432 -762 0
-3993 -2584 -3791 0
162 -3708 -3106 0
-2993 -2307 -368 0
1208 -1767 2794 0
3983 -2868 -2436 0
1971 -1320 255 0
3027 -464 122 0
2437 3732 2466 0
-1341 2978 -3498 0
345 -498 -2328 0
2445 3622 -3027 0
-1142 -2828 -2313 0
2815 3723 2705 0
-2385 -3443 -1911 0
2751 -1496 -271 0
3111 125 -218 0
2065 -3633 -2965 0
-694 -1161 2314 0
-3957 1930 -2322 0
2010 1174 -461 0
-2851 823 -2944 0
-1161 3021 -948 0
-3833 3304 -2056 0
-1941 -2064 -2724 0
-2818 3596 -223 0
-3512 -153 1543 0
-3774 -2799 -2730 0
-2320 -2785 1896 0
-1057 -1415 458 0
-2024 2203 1146 0
2749 1834 -3383 0
-3647 -2442 -489 0
3147 -2024 -1817 0
-1281 772 3216 0
1188 635 -1538 0
1942 3991 3671 0
-704 -351 1176 0
-2284 545 2658 0
-3412 2118 -1515 0
3909 -963 870 0
-2522 -2432 -1929 0
1723 3104 1109 0
3167 -1633 2953 0
1261 -3614 -3368 0
2048 -3772 3608 0
-3209 -3460 2178 0
3080 824 1298 0
1039 182 3661 0
-2764 -507 -3375 0
-210 -2068 1917 0
2297 1880 -2952 0
2075 105 -658 0
-1737 2296 1392 0
145 3375 -67 0
3442 -3889 -2483 0
-1383 -819 1213 0
-1766 -2723 3622 0
1242 3023 -56 0
-823 2075 1168 0
-3613 -107 -3051 0
-2145 3038 676 0
-1080 809 890 0
-11 -3621 -3489 0
-1309 265 1708 0
-3622 -402 2868 0
-3870 -2866 -1959 0
-1270 3039 21 0
3786 -264 -974 0
3402 1691 -3030 0
-3062 2944 -406 0
-3153 2398 476 0
-1478 -176 2902 0
-2831 2753 -446 0
-3960 2041 -969 0
-437 1879 2294 0
-1856 -2503 -3424 0
1889 -1299 -368 0
2918 231 -3395 0
2137 2935 -2077 0
-2833 1230 -1134 0
-562 -636 -1013 0
-2704 -125 3989 0
711 -2696 1482 0
2253 3493 1496 0
2922 1301 -3304 0
-1699 -960 1958 0
-1443 -2395 3959 0
2220 90 1721 0
-1553 -3071 469 0
-2387 -496 -3905 0
-2251 -3410 -745 0
-2040 -1005 1290 0
-2259 -3465 -1157 0
194 -3772 -2711 0
-169 -2436 -904 0
1461 -3912 3684 0
3811 482 -1415 0
-568 -93 -2411 0
2267 -626 -1050 0
-3248 3333 1827 0
-1401 1183 2813 0
-3280 -2287 1707 0
-3910 3615 -2951 0
-2574 -3936 -2776 0
3307 -1807 319 0
-401 3103 2603 0
1969 -82 2912 0
-3086 -3756 -1522 0
2221 230 3364 0
-1251 -2575 -1438 0
2049 -157 2675 0
-2953 3372 -1425 0
604 3748 -1827 0
-939 564 -3497 0
-1175 -3642 3175 0
271 -2494 -137 0
-3839 -3619 -3054 0
468 -2093 -387 0
-1897 1291 914 0
-1978 -1883 -2170 0
-2191 2389 -2393 0
-2539 1155 -2175 0
2408 3365 3936 0
967 1627 3556 0
-58 -1306 597 0
-602 -871 -3176 0
3821 2555 1217 0
-1229 -3652 2866 0
-446 -3829 -2434 0
2049 -2873 3789 0
-3256 2321 -3936 0
3871 -1764 -3323 0
3720 -3956 -772 0
-1537 1222 -2498 0
-80 -1844 1502 0
-3093 2886 2297 0
-3738 3406 230 0
-988 -302 1864 0
-1257 1052 3249 0
-1114 -1974 2337 0
682 584 770 0
-3776 1286 -1045 0
762 -806 -2678 0
-1480 -3485 -1926 0
-2660 -265 3817 0
-248 -1100 -1064 0
2687 3220 282 0
1146 -1398 1157 0
1172 -1681 -1722 0
422 -1562 -2157 0
694 3851 2150 0
2676 -2257 -1818 0
-2054 2309 -1922 0
-3615 -3067 -1317 0
1771 -1093 2148 0
-13 3044 20 0
-135 1992 -1702 0
-1428 2319 2560 0
-258 3459 -2681 0
547 -1228 249 0
1785 1373 1055 0
-1464 -556 2521 0
-3243 -3800 -829 0
-989 -1712 -3596 0
1539 -588 -2557 0
-1157 2097 -1523 0
1840 -3807 -3647 0
171 937 -158 0
-3085 -2998 1993 0
-111 -1904 -1622 0
2574 1848 3112 0
1082 3158 -1745 0
-860 -2259 3865 0
315 -484 1561 0
465 -3898 3027 0
259 -845 -1806 0
-608 -27 -523 0
-2446 -2717 -2919 0
203 -811 -1791 0
-3596 674 -907 0
-1562 143 -950 0
-1941 -213 2693 0
972 3412 1592 0
2332 756 3678 0
-2380 -3734 -2913 0
3453 2340 -345 0
3162 -682 3457 0
1543 2013 -2308 0
138 2140 -1768 0
-3469 1047 -2111 0
722 -2026 -3672 0
3909 175 2336 0
-141 -3611 -1084 0
2580 1076 1952 0
-446 -2196 -3423 0
1662 2189 -3258 0
-2809 -3649 -2390 0
2124 -2070 2319 0
674 942 -68 0
3632 -428 -722 0
-2752 2811 3279 0
1186 929 1031 0
-3802 -236 -3175 0
2603 -2027 -2391 0
2057 3845 3455 0
-1170 3406 494 0
2409 -1797 -571 0
-650 3771 -2864 0
-2919 -847 -603 0
306 3014 1057 0
1275 -944 2348 0
-3266 1979 -700 0
-858 3107 2305 0
-1310 1590 3729 0
646 -2057 -2710 0
3017 -2583 3390 0
-637 1512 329 0
-91 -1254 2968 0
-122 1438 2320 0
2445 2071 3324 0
3322 3933 -880 0
-957 726 -1460 0
-3265 -1646 -3329 0
-3707 723 -47 0
2101 321 751 0
-1071 1483 3171 0
-3125 701 -1421 0
2483 -2663 -1235 0
3426 -3351 713 0
3606 -794 2593 0
-3710 -2632 -2980 0
443 2290 2807 0
2987 243 -2839 0
83 -3047 1242 0
865 -954 1795 0
2945 2486 -2007 0
656 3556 3704 0
41 -1536 2495 0
-422 -1974 3560 0
1810 3739 2247 0
370 1898 -311 0
2459 -147 -1926 0
346 -3941 762 0
3001 -1655 -1172 0
3029 -1657 -2679 0
3290 -3729 -861 0
2894 3234 334 0
-2162 1084 -1118 0
-2746 3920 973 0
2582 861 -2978 0
1254 3341 2313 0
-1289 -3706 1337 0
2472 2289 3687 0
-1026 -2795 3607 0
1386 2475 -3336 0
1654 3431 -251 0
1932 3957 -1740 0
-1458 -622 3835 0
1126 1792 -972 0
-3435 2183 -3820 0
1700 1520 2816 0
1908 -2265 -3925 0
-2531 870 -2791 0
1622 -3672 -1375 0
2624 2077 1025 0
-1178 1391 2551 0
-165 325 -2403 0
2623 -119 587 0
2401 1075 1980 0
-3596 1005 3527 0
-910 -1930 1065 0
3997 -312 955 0
-3472 152 -594 0
-3701 -645 -2078 0
848 3942 1603 0
-3228 2282 137 0
539 -3161 3814 0
2911 2238 -124 0
-1928 -3795 -3564 0
184 -1423 -1953 0
2456 -3868 3109 0
1663 -3955 -3338 0
3348 -1956 2517 0
3017 -3149 680 0
2431 503 -3537 0
3672 -30 -746 0
-2637 -638 -3121 0
-1486 -3725 1855 0
3837 2094 -957 0
-2641 -627 -509 0
-1861 -3271 -846 0
-3127 -2088 -2040 0
3667 2957 298 0
531 3246 3962 0
-1177 -1674 -3009 0
-2155 -49 3368 0
3286 1478 -91 0
898 -1788 -419 0
1643 3253 -3848 0
775 3268 61 0
803 3431 2151 0
1513 3340 2334 0
1185 727 1824 0
-3461 1020 -1888 0
3657 -2253 843 0
-246 1301 1070 0
-3259 80 -3772 0
-3667 2592 471 0
1701 -574 1580 0
-161 -724 2823 0
-2665 -1876 1298 0
-1131 2194 -3442 0
-3357 1884 3806 0
-2220 2102 3129 0
-1713 -3197 586 0
2843 3870 -1728 0
820 -2562 -1610 0
-4 3170 2260 0
-2208 3399 -415 0
3379 -612 3968 0
-653 -2312 3913 0
3669 1913 2503 0
2519 1609 -1494 0
-2638 614 2439 0
-2846 2885 367 0
2085 -1153 -3906 0
-2697 -3450 3052 0
-1973 -131 -2681 0
3919 -1559 -829 0
-986 3201 1601 0
-1687 2564 3626 0
-1255 -592 -3082 0
3385 -3779 3432 0
-2289 -3673 -2130 0
403 -1020 1363 0
-3418 1487 3780 0
3363 1529 -3622 0
1435 -2584 2260 0
-642 -2053 -1494 0
940 -1478 2712 0
373 1256 -1445 0
-689 -3553 -144 0
3777 -2025 2300 0
-562 3846 1765 0
-2543 3187 295 0
-1904 29 -97 0
1232 -3968 -938 0
1869 2556 1596 0
-3625 375 -1796 0
1443 -2697 568 0
-1138 -3733 -1999 0
-1748 -2274 -440 0
-279 -3314 1450 0
1583 -2048 780 0
578 503 3827 0
1026 2598 1511 0
-2983 -2879 -1879 0
-3046 -3987 2292 0
-1508 2626 2100 0
-1293 -2871 2792 0
1758 -3331 399 0
2140 -631 3768 0
-3919 1282 -3346 0
-1692 2594 -2193 0
3972 2596 3280 0
-3252 3951 3375 0
-3562 1473 1062 0
-3988 2069 -3991 0
3059 -843 2375 0
1562 2378 1589 0
1416 -2763 1160 0
-2274 2947 760 0
1595 3971 -282 0
519 642 -3714 0
-3657 1457 -1018 0
-2599 501 -824 0
2451 3904 -1709 0
-1497 -3074 -519 0
-3557 3037 -2773 0
-16 -3464 2849 0
-3647 2617 -2905 0
3299 -2223 2950 0
3841 1171 1884 0
-3712 -2041 2286 0
-3853 -529 -377 0
-1134 1077 1446 0
-2388 -1676 -3749 0
-3405 -3190 2994 0
-1390 1144 -929 0
-3145 3849 67 0
1018 3515 -2510 0
-993 -2819 3213 0
3308 3747 -1788 0
-2340 725 475 0
-3727 -746 -66 0
-1826 2707 -2252 0
-1706 -2379 -2927 0
-590 -1341 -2074 0
-3727 1011 -200 0
2552 2332 -3065 0
1911 -425 924 0
-225 -1106 3718 0
-3016 -771 -1274 0
-67 -3218 1465 0
-3559 -2242 408 0
3554 1951 -2763 0
-3589 3385 -2609 0
1066 -3314 -3333 0
1515 3238 752 0
-3053 -1291 3020 0
1329 3032 -2754 0
2779 2949 534 0
3001 -3188 3098 0
-384 647 1402 0
-366 -3133 -1612 0
2274 2406 2722 0
782 1480 -3951 0
-1517 3208 -3512 0
-588 -948 1667 0
2678 -291 -2344 0
2014 -2379 -2453 0
2227 1266 1635 0
-3623 -424 -2586 0
3720 -2451 -2041 0
-1409 -3841 3409 0
-2021 2793 -1242 0
-925 -1525 978 0
-2002 -2158 -3716 0
1736 152 -1162 0
-2954 -2816 219 0
-3605 -3354 2069 0
2571 -475 -2535 0
-872 3094 1371 0
-2251 -3800 2762 0
3916 -2420 3670 0
1732 1493 3050 0
-1592 -3395 -3229 0
-870 1434 -755 0
3694 -3856 -2234 0
325 1525 1147 0
2419 -2096 1203 0
-640 -2126 409 0
-1408 -3385 -2378 0
1942 358 3698 0
2287 335 -1054 0
344 803 713 0
-2145 634 2841 0
2763 2797 3591 0
-2549 810 -3424 0
3620 -3490 -2841 0
-724 3059 -2778 0
49 -3799 823 0
3415 368 2980 0
72 2331 -1397 0
-1000 1478 2717 0
452 -3029 -2713 0
2068 -1619 -3219 0
-775 260 -3314 0
-1622 -3025 -2283 0
289 3709 1723 0
1539 -1518 3809 0
2075 -3503 867 0
3839 1510 -10 0
399 -984 -3019 0
3695 1611 3701 0
-1388 1663 2183 0
-3509 1521 2151 0
-1181 384 1516 0
2914 -1256 761 0
1249 -1169 760 0
-2483 728 2880 0
381 -84 3633 0
1482 -2477 -1507 0
-615 361 -3603 0
-3167 -2063 -377 0
3421 3001 1977 0
3225 2062 1117 0
386 211 -2950 0
1934 796 369 0
2500 -3847 1331 0
-2579 -1898 1742 0
-368 -1504 -2610 0
621 -3193 865 0
475 -2499 -258 0
3472 1555 -1948 0
-3773 -1896 1181 0
-1311 -2922 -1807 0
-3808 -3803 -3040 0
23 344 -2972 0
2423 -1204 -3251 0
1545 -2657 3203 0
2015 -2667 3257 0
-2377 1007 2921 0
-1041 2882 -3848 0
-2898 310 -2824 0
-2106 1712 -3359 0
-2582 2618 345 0
2517 839 -2905 0
-619 1841 1349 0
-2121 -412 1518 0
-2673 2749 366 0
-1932 -288 3306 0
3626 -509 2320 0
-1256 3998 -1989 0
3307 -3894 495 0
2105 1930 -1034 0
1794 558 -368 0
378 -3287 187 0
3505 -3828 -2703 0
-1947 1323 -2129 0
2315 -3323 -568 0
3485 -2260 3274 0
1133 -683 1743 0
-3044 -3515 -2117 0
49 3504 -3848 0
-1970 -1228 -3277 0
-2865 -699 694 0
3119 -3996 -1756 0
-1890 -2652 1995 0
-3650 -1950 1832 0
1754 -2036 1727 0
-2068 -698 -2337 0
450 2052 -2529 0
2744 -1628 -1544 0
-3709 1186 -1152 0
232 -1669 3663 0
3343 2101 2489 0
-1660 -1716 3909 0
-2508 -75 3034 0
-2374 2717 611 0
2814 -202 601 0
-3260 613 -2989 0
1175 63 3439 0
684 264 978 0
3330 -3621 1984 0
-2756 -1816 2021 0
2548 -1126 -2520 0
3878 451 87 0
1380 2428 -1450 0
158 1011 -1331 0
2502 2119 2602 0
-1281 1573 989 0
1845 2528 1072 0
-196 -420 1746 0
938 1990 -64 0
-360 -1273 754 0
-1533 -3391 -3277 0
-833 200 3672 0
-3845 1154 1533 0
-40 -1235 161 0
65 891 3666 0
1566 -3678 2212 0
2052 -2494 1434 0
3261 -2264 2304 0
-3955 36 908 0
2174 2540 -3640 0
-1067 597 -1146 0
2787 -3215 -2427 0
1836 2578 2349 0
2792 1658 1371 0
3150 404 -2773 0
565 247 12 0
3647 928 -1068 0
-2800 4000 2333 0
1798 -1950 3093 0
561 -3758 -2657 0
2108 616 3629 0
-351 -264 1593 0
-1699 -1089 -1405 0
-1291 1257 -2570 0
3214 -3033 -3692 0
1052 -964 -3408 0
1896 2806 -39 0
-3297 3101 3346 0
-2438 2158 1340 0
-392 1611 1343 0
1577 -3446 -2338 0
3132 2215 -336 0
992 2497 536 0
-363 -1539 -3772 0
-930 -1435 2327 0
621 -2569 2847 0
-2762 -2091 1595 0
2246 2881 -3508 0
-3447 2668 -3708 0
-3235 1701 163 0
124 -3690 351 0
307 -832 499 0
-1885 -800 143 0
-2053 -2379 -3661 0
-2025 3704 1903 0
-663 -1267 1075 0
1568 1058 2322 0
2804 2521 -2651 0
1094 -2218 -2941 0
3983 1853 599 0
-1577 604 1352 0
3739 -1269 1075 0
1840 3562 3747 0
1219 -3317 202 0
-1527 3821 -322 0
-2901 -262 3708 0
-3148 -3621 700 0
-3438 -1797 -2897 0
1913 -1054 -1200 0
-3848 366 -654 0
-3533 -2884 43 0
-1377 -491 1935 0
2468 3607 214 0
-2995 3680 904 0
-432 -3067 2776 0
-246 -1766 -3612 0
-2324 2442 -3449 0
-462 -1186 1738 0
1643 -375 -3175 0
-2268 -964 397 0
582 45 -2464 0
308 -396 -775 0
-1731 -2892 2535 0
1786 -3653 -3637 0
-2591 -3307 2634 0
3214 862 3856 0
299 -3492 -305 0
2383 421 -3818 0
554 1172 -3740 0
-2006 -1751 -1189 0
1103 812 3425 0
2728 3364 2848 0
-3624 -1783 2022 0
1538 1257 1871 0
3013 2014 148 0
-102 -928 985 0
740 2682 1476 0
2628 -2719 -3836 0
3919 -527 15 0
611 377 -3577 0
2277 -2574 488 0
-294 -1791 3640 0
2969 -2563 2957 0
859 -3654 -3141 0
-3818 -399 2067 0
2938 755 -895 0
3201 3411 1581 0
2619 2477 -2206 0
3325 805 -3163 0
2185 3266 83 0
1035 963 2884 0
-2129 -1210 3781 0
1524 377 -3008 0
2800 -2820 1915 0
308 3715 -775 0
-781 1130 31 0
-38 -655 3357 0
3702 2192 -2001 0
-823 489 2899 0
614 -2296 -1254 0
2815 -3172 585 0
1171 -824 -2079 0
3498 779 1356 0
-694 1761 2228 0
-2395 2715 -1251 0
899 91 320 0
-1836 -1885 -1873 0
-688 -1738 -654 0
2928 804 -2265 0
-3474 -2002 -1402 0
-95 1780 -1947 0
125 -2283 147 0
-1032 3492 -1091 0
1305 -135 2057 0
3288 -1644 -909 0
-261 -238 2729 0
274 -1239 -3255 0
694 -2905 23 0
-2378 -633 3377 0
199 3264 3067 0
1704 -2457 1916 0
2181 2163 2763 0
-834 1528 2660 0
-2796 -1909 2923 0
727 3863 -2548 0
1661 -521 -3482 0
1552 -226 -3311 0
-2348 3328 -3618 0
-1248 -2231 307 0
2594 3379 1619 0
-3265 -1332 -3449 0
-2978 -243 3587 0
-2221 898 3875 0
3469 3888 -3319 0
-483 2500 2975 0
-3626 -1556 -2638 0
3380 -3583 -1224 0
-1130 -279 -2248 0
-334 -1767 3740 0
1009 -1270 2581 0
1514 -997 -675 0
1720 3663 3113 0
925 165 1882 0
-2976 -1891 -3530 0
533 -1092 2117 0
-1663 -2888 474 0
-1748 885 -3728 0
546 1635 -2700 0
3803 -1657 -3410 0
-2758 -1457 -3705 0
3428 -1119 1676 0
3765 2885 -1122 0
1747 3452 -3624 0
1549 1540 -3008 0
-1044 -3329 1972 0
-2916 2936 923 0
-3216 -1279 -1426 0
3116 2788 -3957 0
-629 -2031 3521 0
3834 -1397 -2818 0
-1912 -2043 -2032 0
-544 -2679 -2919 0
907 -2650 2295 0
-2489 1881 -2 0
881 2495 -1022 0
-549 1697 3879 0
-2158 -1071 -3261 0
-2190 3654 -2448 0
2237 2373 3862 0
-2267 3780 1614 0
-3561 -2565 -383 0
-3974 2782 -610 0
-1580 1065 -622 0
-2327 -2284 2459 0
-111 3434 -1125 0
-3514 1363 2474 0
-3085 3493 2691 0
-1055 -2828 2598 0
-407 -307 2122 0
2326 -646 2025 0
-3982 -2225 -2667 0
570 3104 739 0
2663 -1703 -3889 0
-1 -986 -183 0
260 -2145 3105 0
365 950 -619 0
2030 1488 1843 0
2918 -1089 -3759 0
1831 -696 3787 0
-1807 -3157 286 0
384 -1780 -1284 0
2786 -988 -3365 0
-1970 1422 -3147 0
-2237 2436 -424 0
1157 -1702 -1726 0
3912 374 898 0
-2703 1156 -1915 0
3115 -36 -3847 0
-2186 1277 -690 0
2940 2839 651 0
1909 -1658 -1011 0
44 -3645 2529 0
-3586 2624 465 0
-196 467 886 0
1003 960 2742 0
1199 -2857 -745 0
480 -2553 -1723 0
592 484 2035 0
-1908 3030 -1489 0
-3081 -1490 497 0
2882 -2480 1714 0
-3520 2776 127 0
336 3643 3154 0
-2693 -3947 2624 0
-63 2330 -1342 0
-3700 1576 -3828 0
2498 -2166 2818 0
1540 -3215 -2729 0
-1769 2135 -1608 0
1088 3911 -2706 0
-3062 3868 3742 0
3576 -2015 -2784 0
-842 1015 1093 0
-2087 1312 3309 0
903 3944 263 0
-3060 1498 3039 0
-1814 -1623 -2608 0
1187 -3385 1773 0
2370 -1342 -2578 0
-2877 -2647 2515 0
-3020 3629 3491 0
-595 3109 -3480 0
-3886 -2567 523 0
1253 -1425 -2539 0
-3606 997 2384 0
271 -3596 2193 0
154 -2645 256 0
-1505 -1863 -3545 0
3387 3449 -1997 0
-1399 1455 -1420 0
-2370 647 648 0
-2113 3372 192 0
595 -2405 2113 0
-2596 -1542 -2844 0
-3809 1795 -103 0
1938 3702 -1553 0
3227 -550 -1034 0
-2670 -1059 2096 0
756 -2604 -1686 0
3719 1409 3259 0
3244 -1323 -722 0
461 -3229 2124 0
2687 -528 350 0
-71 2857 1191 0
-2428 -185 1819 0
-2638 -257 2377 0
-110 2088 -934 0
3757 -2725 -3793 0
1683 2699 2340 0
1589 -1053 2948 0
-1128 474 -653 0
-1577 3443 405 0
1679 1323 -1739 0
49 -1092 844 0
2819 -1032 -2869 0
1560 1362 849 0
-3186 1182 2405 0
293 3291 1931 0
-2051 -333 -3520 0
3459 3955 2778 0
940 -1319 1189 0
-2299 3974 -2268 0
-3225 3013 2618 0
-502 1585 3971 0
1694 2479 3993 0
3098 3948 772 0
-871 -878 3023 0
3631 422 -2695 0
2449 731 3498 0
2601 1479 3641 0
-3933 2350 -3127 0
3744 3040 -2217 0
657 -2201 2687 0
3513 754 -3965 0
-85 1490 -2258 0
-635 -1110 -2621 0
1594 843 -3699 0
511 1975 -3016 0
3690 -418 -3262 0
1705 -1344 497 0
-3190 2503 -3407 0
-80 -3037 -1988 0
-3792 3442 3660 0
-319 -2347 -390 0
845 719 -1507 0
-2607 3372 -3111 0
1090 -1437 3657 0
3680 2783 -1882 0
-1472 3492 3634 0
2925 -2085 2184 0
610 3930 -2753 0
2930 2464 1913 0
2852 -3804 -1506 0
898 -3099 3740 0
1299 816 -834 0
3549 546 -1627 0
2984 -2530 1092 0
2603 -1682 -293 0
-2912 2655 3073 0
2659 3290 1317 0
1839 314 -774 0
1404 3413 -1859 0
827 -3059 -2844 0
-2217 2679 1691 0
-1725 -2025 -1021 0
3054 -3560 1296 0
-2278 505 -953 0
-2794 -2285 1078 0
-3940 1051 1503 0
2776 3205 1204 0
-1617 3899 -2533 0
2286 3006 -1090 0
1988 -2033 -3918 0
-239 -998 -2929 0
2018 -2395 2387 0
-3835 -1823 -1115 0
526 -3134 -1015 0
2986 -2501 -3931 0
901 3301 3229 0
3657 -1010 -2402 0
182 3290 -3919 0
-1532 1059 -242 0
2937 -2343 -1492 0
-1025 2528 -1569 0
-1099 -1879 -3864 0
2907 -2327 -646 0
1447 -3879 455 0
3915 -1882 1671 0
1688 -790 -1826 0
2309 3375 -3054 0
-3220 -501 2447 0
102 -1570 1842 0
-660 -3671 2396 0
-3799 -948 -73 0
3523 2891 -3107 0
-2493 494 -2501 0
-3726 -2665 1276 0
2075 -466 3284 0
-2339 3757 249 0
920 3106 -551 0
-2384 3395 -1776 0
-2512 -1611 -2286 0
-2666 2731 2076 0
396 1229 -3153 0
-2436 3930 642 0
699 3459 1769 0
-3325 -2118 -3904 0
2322 2435 3353 0
189 3947 -2989 0
3888 -1925 1318 0
-3681 -3164 -735 0
1285 1098 -2136 0
3269 1835 -649 0
576 960 32 0
839 372 -3246 0
-2810 3044 869 0
-2870 -3185 -1537 0
3786 -1373 196 0
245 -1619 -1347 0
3447 -1408 -1930 0
-3430 3869 -2222 0
452 -3019 -485 0
1103 1627 -2591 0
2091 3692 3876 0
-2424 2018 -3507 0
-982 -2626 3834 0
-584 3740 -3330 0
-3875 -491 -896 0
-3528 3590 3166 0
604 815 -1563 0
-1764 1481 590 0
3390 -3298 598 0
-2261 -3366 2251 0
-1581 433 -2443 0
1356 -1913 1323 0
-3133 -3840 3201 0
1751 2788 -2636 0
-373 -367 2155 0
1481 -1747 -422 0
722 -2892 3624 0
512 1424 -1714 0
1408 1310 -2820 0
1267 1932 -2146 0
3393 -25 3946 0
3869 -3471 -1186 0
-3750 -3231 -47 0
3261 -653 -343 0
2209 102 -1658 0
-305 2773 -3777 0
-3766 3546 -1385 0
3964 -3996 -3465 0
2593 2664 -2488 0
3442 210 3589 0
3672 64 -728 0
1142 -3260 3389 0
-1391 3775 1213 0
919 -3103 3238 0
113 3300 -171 0
2496 428 2128 0
-3109 828 -1396 0
3540 -1374 1908 0
-46 248 -861 0
-3230 -617 3120 0
-2718 3545 1127 0
3541 -2377 1175 0
-697 2671 -3066 0
-2266 925 -2527 0
1466 -671 -86 0
456 3281 1969 0
3934 1746 -72 0
3517 -2577 -3038 0
1171 2691 -1092 0
-1793 -1592 3019 0
-1987 3826 2586 0
402 2183 -3914 0
917 782 -3519 0
2077 -266 2182 0
2582 3536 3910 0
-2441 85 -29 0
268 -1540 -2344 0
-3444 -443 -1862 0
2474 -2261 3037 0
1279 -504 -2816 0
1480 1143 -2007 0
982 -3511 893 0
-3270 18 1617 0
-3417 -2350 3382 0
1602 -1002 -342 0
-652 3768 3767 0
-3595 -2423 -3930 0
1080 -1560 1618 0
-3767 -1269 534 0
-320 3075 -1158 0
1421 544 -2253 0
453 2968 -2069 0
3244 1947 1207 0
-2824 1267 -2655 0
3419 1585 3573 0
-24 2493 -2595 0
-3738 -2783 -3546 0
-368 -2518 3390 0
3858 -359 -3814 0
-492 3488 1900 0
3192 3806 190 0
-672 -1455 676 0
-1827 -3810 -950 0
2189 -354 493 0
-1054 -2243 674 0
-1042 2556 278 0
91 354 -2514 0
986 1985 -3231 0
-3266 -3257 823 0
-299 -3653 -2634 0
-1106 3331 -3237 0
1560 -963 391 0
-3410 -2233 -2690 0
2137 -1655 -2142 0
313 3101 -955 0
1849 1960 2635 0
1690 -2378 906 0
-972 -2447 -2671 0
-2880 326 -3672 0
2363 -1082 -1526 0
236 1000 207 0
2893 3780 2407 0
561 1410 -1055 0
1362 -3594 -1343 0
2285 3752 -2636 0
3863 639 -1423 0
-1752 -3941 460 0
1034 934 1539 0
2511 2664 3296 0
349 2754 -361 0
1239 -3116 3453 0
-2980 -1096 -1666 0
-2055 3704 -1822 0
-3366 160 -3940 0
-2120 -248 2981 0
2289 1942 -218 0
2832 -3170 793 0
972 3277 -814 0
1150 -3753 2313 0
-2435 842 2218 0
-1820 -1690 -3475 0
-3701 1576 -1678 0
-2540 -2598 -2861 0
3045 -401 2656 0
1185 1285 475 0
3218 3012 -797 0
-448 1341 1179 0
-2007 291 3823 0
-2667 -3381 -3119 0
-659 1797 -148 0
-851 3349 -3985 0
-2214 4000 1836 0
-2631 -2852 527 0
-3857 1087 -2469 0
-436 828 610 0
3446 3885 3576 0
-2243 252 -289 0
1318 -3973 -3470 0
2507 3182 1414 0
-1418 -439 1560 0
-589 2286 -2167 0
-1249 -2950 978 0
-1775 -3365 848 0
-1717 -2136 -1923 0
-3904 770 1675 0
1886 793 -2040 0
3733 473 -1309 0
-2813 -3818 919 0
3314 590 913 0
-2941 -3659 -3322 0
1184 -3844 1505 0
3607 3448 2232 0
3757 -3001 3447 0
-1764 1665 572 0
2509 -1656 -3884 0
2041 -2675 1596 0
617 1418 628 0
2845 -1326 880 0
-2052 -3431 -1876 0
1054 -1759 504 0
1826 -1599 2622 0
3224 -3675 2467 0
611 -853 3223 0
-3359 3048 -1843 0
-427 -1189 3976 0
-538 1987 -395 0
642 2718 -400 0
-2846 -2295 653 0
-584 -1287 2373 0
3210 3417 1766 0
1490 -2696 -1547 0
2652 2014 -1651 0
-3406 -2702 -1736 0
3370 -2942 3041 0
1416 -2590 -2248 0
-564 1634 -1216 0
-3885 1897 -2918 0
-1578 -1906 -45 0
297 -213 1271 0
-1305 1082 -310 0
-2466 -3713 3922 0
1999 -3584 -813 0
634 -1005 1821 0
3282 2787 -1862 0
1380 -2404 1450 0
-3525 2506 3445 0
1554 -1536 2649 0
-93 1598 -2673 0
43 -1396 -130 0
1392 1466 389 0
1168 -2926 -844 0
2286 2868 -2619 0
1037 1769 311 0
-419 1600 -2152 0
1253 628 2979 0
-3990 -871 -3091 0
3776 3197 1958 0
2349 3 1943 0
3486 3334 790 0
1628 -2274 -1431 0
3496 1846 -923 0
-2494 -3228 -3465 0
2962 1278 509 0
-2758 -1234 1731 0
-3288 -1169 -1581 0
-1287 -1048 -3419 0
-543 -913 2145 0
-3253 -846 -602 0
3803 2515 -1678 0
-748 1928 -2033 0
3931 -25 732 0
-2657 -1081 3167 0
-2268 -2234 -3537 0
-3924 380 1000 0
-2526 -433 2509 0
-1905 3488 -1470 0
3950 2312 -934 0
2174 1872 -569 0
-2056 -3945 -1578 0
-232 -2256 1940 0
-695 2159 2438 0
-321 698 -2121 0
1525 2246 -1208 0
-2474 -3717 665 0
-1066 1710 -3628 0
-882 3923 3891 0
2885 -3260 2617 0
2245 -3316 -2312 0
1138 733 346 0
2812 -275 -895 0
-3595 106 -1828 0
3271 -3110 -1583 0
-3680 990 1427 0
2061 -530 2315 0
-2855 861 -3170 0
2705 -1876 -432 0
950 -322 -724 0
1691 -493 2296 0
1989 1711 1958 0
3627 1269 2636 0
961 -791 2096 0
2734 757 1066 0
711 3602 2082 0
-2553 -2076 2803 0
1763 -1752 3073 0
-3944 -1307 -1449 0
-3228 657 -3357 0
3774 3185 3585 0
2035 1298 -477 0
-3393 496 -2012 0
-1957 -1176 -3701 0
-3277 -1300 -495 0
298 3110 -2670 0
-3031 1031 700 0
-2900 -2153 -1347 0
2171 1783 -1504 0
3585 3008 -869 0
1160 3104 -2024 0
2659 -835 945 0
-331 3325 3963 0
-40 -3751 785 0
2923 3548 -1778 0
-3562 -883 190 0
1524 -2507 575 0
-1649 2175 905 0
3816 -3517 3048 0
-1278 -3522 -321 0
-3626 611 -2658 0
1137 -3352 -3662 0
-3666 1610 2523 0
3723 3075 -2051 0
1547 3113 3763 0
-253 -1300 -3733 0
296 3461 3393 0
395 -456 2923 0
2618 -2649 -3752 0
2794 2684 -1705 0
-1251 1043 2424 0
3109 -275 3701 0
-3006 -2787 -2733 0
-2565 -3580 2136 0
1841 1399 -1394 0
1952 28 -2334 0
-1446 -1927 -3420 0
2374 -1451 1148 0
-3347 -3333 2260 0
653 590 -2475 0
2387 -1608 1350 0
-237 3205 212 0
-1052 894 857 0
1742 2058 1142 0
-2688 3802 -113 0
1137 138 1124 0
3902 2718 369 0
1642 -540 1927 0
-2140 -3650 -1826 0
864 -2971 3828 0
-1666 -3285 1675 0
3821 3592 -661 0
579 947 -459 0
-1728 2513 -2885 0
3062 -2764 2795 0
3646 -688 49 0
-1241 2135 -2689 0
2954 461 -698 0
1887 1239 -3383 0
-2881 -3190 2472 0
3306 -704 3778 0
-2183 -886 2465 0
-3925 -2859 -1839 0
1538 3340 3313 0
-2110 678 931 0
3559 -3025 -1008 0
-2327 3868 -3818 0
2869 3882 3431 0
1981 3477 974 0
289 -2117 1310 0
3780 -3894 1866 0
785 1204 -2384 0
-986 -3482 -2287 0
2821 -1120 -978 0
-1623 3857 79 0
1856 -149 930 0
826 -3201 -3918 0
3835 -3912 1763 0
3382 -2131 -2397 0
3341 -1301 2572 0
-2423 -1207 310 0
-1697 544 -3447 0
221 -3894 1843 0
-1664 -1633 3091 0
-2545 -1312 -3005 0
-1064 422 -3461 0
3842 1060 -2065 0
1090 -3848 2484 0
-3383 -1514 3479 0
-297 340 -667 0
-2946 2270 3754 0
-1618 606 -2941 0
1212 -2743 -2280 0
-326 -3384 3899 0
3108 -3464 2971 0
-2933 1767 2033 0
-1588 -852 -258 0
-3198 -1984 337 0
3286 -3333 -2913 0
-345 2041 1244 0
-3031 -2355 -696 0
-3653 -3813 -3357 0
-2666 3903 88 0
496 1270 3057 0
-1711 -685 3775 0
1157 3136 -3864 0
-2252 -2362 -743 0
-2367 -1119 2307 0
-3699 1971 950 0
-165 3021 2668 0
-1556 -2544 669 0
177 -648 -168 0
-571 -2424 3064 0
2311 -174 3699 0
593 -1913 -2900 0
2867 -3950 924 0
2477 2212 -2067 0
2193 2134 110 0
-1237 -3320 3857 0
-2647 -1708 -3003 0
2721 -209 2852 0
677 -435 -1437 0
1599 -793 -3391 0
2581 -584 -2151 0
-2313 3592 957 0
-1898 -3622 -3177 0
1263 354 871 0
582 -75 -752 0
1513 -2187 -195 0
-3657 3273 10 0
741 998 -2964 0
-608 1593 721 0
1933 -1484 1235 0
125 -2399 -2857 0
3689 -942 -3000 0
-2191 -2737 2818 0
-885 -899 923 0
-772 3058 3043 0
1740 2029 3379 0
-2288 3833 -2572 0
689 2173 -2396 0
-3404 -949 -3421 0
-469 1376 -1313 0
19 9 -2936 0
-1526 3207 -1101 0
-3151 904 -1272 0
-3875 -388 336 0
1262 -2793 -3230 0
-2949 3330 1065 0
3991 -2239 -2687 0
1749 -2111 1423 0
-3595 -3554 -3368 0
1368 -2407 962 0
2099 3658 937 0
-493 -1605 3839 0
21 -142 -1141 0
-3596 1801 1425 0
1297 -3622 3783 0
-1595 -2188 774 0
-3625 -2854 565 0
-728 1642 1243 0
3609 2718 -2142 0
-465 -417 3436 0
-947 -2626 -575 0
-2964 2351 844 0
1651 3347 -2193 0
2132 1112 -1529 0
2816 1184 -159 0
765 3242 3485 0
-2916 2149 -105 0
-2679 3764 -2162 0
-3709 -364 -3382 0
-3886 1316 2912 0
235 867 -989 0
-3079 3006 -2465 0
1673 3364 -894 0
-2294 -759 257 0
3411 -3150 -2441 0
-1572 1650 2532 0
-2135 3384 768 0
1762 3313 3551 0
112 -1840 447 0
2175 1556 -1938 0
2661 -921 -3944 0
2096 717 -3400 0
-3403 3427 -2807 0
-2087 -2444 904 0
-2241 -3641 -3839 0
2678 -3671 1970 0
419 3259 -1147 0
2001 3583 -3284 0
3706 -1245 325 0
-1339 2374 1957 0
-2573 1350 -1479 0
545 3053 -816 0
3298 419 -3130 0
3535 2320 2127 0
-591 1595 782 0
-606 -3095 -2417 0
-2168 -524 -1277 0
2571 -1270 -2389 0
-1068 1783 -1073 0
-3643 2687 3409 0
-1979 1068 -3070 0
3932 -1641 1965 0
645 3724 -2362 0
-3032 2937 -3051 0
-856 1173 -3099 0
-1724 2026 555 0
-3254 -3359 -3561 0
-1454 -3230 -2633 0
-817 -3124 -289 0
-649 -961 2417 0
-868 962 -821 0
-1507 1371 -2938 0
1743 2998 -1896 0
-3974 -2828 2663 0
3109 2426 -905 0
2309 2672 -2642 0
-3018 -3691 -1032 0
288 -3711 -867 0
1914 2643 -327 0
260 305 3811 0
-494 3410 -2943 0
251 660 3630 0
-9 -3513 -1415 0
-432 171 -3042 0
-1620 -3164 1689 0
-1326 -662 -1186 0
-892 -905 -2820 0
-3067 -3364 329 0
-2949 -1289 -838 0
3082 1732 452 0
-887 1125 450 0
3855 2705 -3949 0
1030 7 3753 0
1748 506 3564 0
-3823 1168 -251 0
-3808 -1073 -2903 0
-3956 1309 1273 0
293 -2518 -2505 0
-2218 509 738 0
-3238 -3262 2142 0
3673 -2071 -760 0
743 1382 -1783 0
-2202 3160 -2993 0
-1564 -1897 971 0
-2160 -3282 -1457 0
-230 -349 -3295 0
-1037 3262 1720 0
-991 940 -2467 0
-1631 -308 995 0
1295 -1812 300 0
2923 3613 2739 0
-2135 -1000 -3465 0
2781 -3932 -481 0
718 -38 -1147 0
-126 -3596 3795 0
-950 -3060 -3196 0
409 -2410 -1711 0
3498 -1028 -1363 0
-2003 1421 34 0
-3685 3539 3953 0
-440 -535 -538 0
-1476 -3960 -1943 0
-1145 964 1345 0
2964 -604 -3935 0
2602 1970 2952 0
1630 1232 -250 0
-1906 -3397 1806 0
3919 -12 -1400 0
1379 2081 3872 0
-2609 -2681 3069 0
2340 -3935 -1277 0
1586 -2237 1476 0
2801 2660 -490 0
-2841 367 2784 0
1450 14 3548 0
-3503 -2383 3536 0
-1233 3172 -767 0
2502 -3791 -2509 0
-1350 3587 -1872 0
-768 388 -1884 0
-3776 -2538 556 0
-3833 -1113 1537 0
2366 -1325 -115 0
1862 -588 -333 0
2274 -875 -3784 0
711 2571 -865 0
3218 1183 -840 0
2165 3046 328 0
1771 2817 733 0
356 649 -1184 0
3453 2431 2471 0
814 3683 -1612 0
1667 -813 -3708 0
1422 -3913 -1526 0
3171 843 -3433 0
2833 -503 3884 0
2722 -890 234 0
-2975 -3163 3752 0
-3606 41 -376 0
-1732 521 71 0
1940 2890 -3556 0
930 1676 1482 0
3918 3616 3412 0
314 821 -3532 0
-3810 -1415 177 0
-931 -3731 -1022 0
-3111 1119 -1684 0
-2370 -1525 -1106 0
2936 -3295 -3460 0
-629 -823 132 0
193 3788 -3193 0
1989 2745 3677 0
3045 -3898 2088 0
2584 -1868 2801 0
-841 -862 1885 0
-3816 -620 913 0
64 -3637 595 0
-802 -3984 702 0
-1429 2598 1922 0
1776 -3365 2939 0
-2618 3609 1936 0
2861 1334 2070 0
-1751 1563 2661 0
-757 1433 773 0
2501 -2156 1641 0
-540 1831 3837 0
3923 -294 -2181 0
2246 -3191 2538 0
2286 1020 213 0
650 3481 2528 0
1018 960 3630 0
2076 -3473 -746 0
2326 2760 2439 0
-251 3047 -3612 0
-984 -2299 -2582 0
-1797 1730 2330 0
-2827 -1912 1095 0
2943 3020 -3445 0
2709 2088 -1494 0
-824 3554 3760 0
886 246 122 0
-3207 3206 -2230 0
507 3069 2975 0
-2579 941 -534 0
271 3695 -3650 0
1225 -2052 -920 0
567 -1616 -1588 0
3324 1533 -188 0
-483 -1423 319 0
1905 -2715 2360 0
3807 -937 -2029 0
-1043 1670 -2867 0
-1834 -3360 1285 0
-1161 -2318 3547 0
-750 1809 -3227 0
-21 883 -1297 0
1876 3427 3799 0
-3315 3012 1254 0
707 3045 -28 0
3674 2854 1745 0
-3388 3948 1348 0
-916 -3320 -2758 0
2573 4000 -185 0
1272 1637 -1773 0
398 2731 2042 0
-2597 3266 2010 0
-2182 -1904 -3127 0
-2061 -1035 2957 0
-3686 3960 1916 0
-3969 -2807 3272 0
-728 159 -3605 0
-1770 -2155 -2755 0
-2274 829 268 0
3804 63 3392 0
3390 3505 -1330 0
2858 1775 -3933 0
-1377 3857 -2573 0
1978 -336 2215 0
791 2416 -3984 0
94 -3636 -1307 0
2547 -3172 2524 0
3193 585 3276 0
554 636 -2090 0
3677 585 2982 0
-3870 -386 2050 0
1604 -1428 1539 0
344 2091 1251 0
-2023 -865 -1688 0
3438 161 2634 0
-3448 1904 3538 0
-3584 2308 -467 0
538 3538 836 0
-2412 -1894 -2671 0
525 -3455 1972 0
103 2123 1091 0
-1344 2567 1343 0
-931 3707 1566 0
-798 -3444 -3598 0
2681 -3070 2442 0
1549 -1904 3875 0
-2451 -3940 -3844 0
-721 -2785 -2058 0
771 -2251 1340 0
3986 1721 220 0
-2357 1022 3334 0
750 2212 -2634 0
2915 -2167 -3204 0
195 -3720 1773 0
-1847 -3851 2823 0
925 1932 1006 0
2346 -3304 3192 0
1046 -130 1325 0
-1589 -1045 2560 0
3792 2768 -1799 0
3461 827 1988 0
1954 -994 2023 0
-558 3182 -177 0
-2478 -3586 -1069 0
-1112 -1990 -1874 0
1200 -1858 2749 0
-2497 2503 -760 0
-1803 -2538 -1313 0
-2018 655 2247 0
-3871 -3848 -3943 0
-572 3494 -1370 0
1198 861 3943 0
498 -2044 -3635 0
749 -3356 -1640 0
-3366 1782 -535 0
-3409 -3760 3633 0
-1526 3922 3287 0
2493 1890 -2103 0
-3363 -3709 -1421 0
-2432 1759 2851 0
192 -1260 -2794 0
226 2909 -92 0
-3466 -1959 -973 0
-326 3677 861 0
-3327 138 3793 0
32 -1308 244 0
3413 -3299 3309 0
2397 -106 -1352 0
2423 680 -2558 0
2290 -3312 -3034 0
-1903 3470 482 0
3673 2661 -931 0
-1953 -1870 803 0
-2700 1440 3987 0
-738 -1914 781 0
-24 380 720 0
3181 779 -2954 0
-2450 1849 1799 0
249 -1823 -3125 0
1207 -3846 -2213 0
1565 -2926 -526 0
-705 -1895 3735 0
76 -1655 -969 0
3669 -3142 -819 0
-1102 3183 1041 0
-2391 3106 636 0
-2681 1875 2347 0
3366 -9 -2774 0
1870 -2420 -2967 0
-3643 -206 1696 0
-1480 -2315 1584 0
3545 612 2244 0
-2775 -3753 2219 0
-3899 -1390 -1796 0
-3220 3762 2438 0
3260 -1098 -3517 0
712 727 -678 0
-282 -1230 -334 0
1609 758 392 0
323 223 -1608 0
1098 -1821 1942 0
-3858 1313 -387 0
40 -208 295 0
1680 2971 -3463 0
1649 -2677 -1104 0
-214 -955 -2636 0
-694 1815 -1330 0
-2616 -3104 -2411 0
3086 -715 3023 0
3908 -932 2767 0
-853 -3394 -2390 0
2546 -1834 -2585 0
516 2205 695 0
3712 3128 3769 0
-2109 1033 -2228 0
945 -341 240 0
686 -3345 -3561 0
-673 1297 -636 0
-3201 81 1514 0
1273 928 1192 0
3054 3006 -1742 0
352 82 3321 0
1755 2823 2555 0
-237 481 3177 0
1563 1471 1645 0
-1237 2449 1363 0
-2722 -3467 3567 0
445 3831 3933 0
2938 -1032 1486 0
104 -552 -429 0
-1753 2732 778 0
-1307 -314 375 0
2567 -3667 -685 0
3035 763 -3596 0
-1868 3324 1240 0
-3450 1415 3543 0
-1538 2514 2519 0
-1972 2332 -551 0
-3526 3008 -1376 0
3840 -3457 -2965 0
1815 2429 1055 0
-1191 11 -19 0
1344 -2687 -2952 0
-501 -3017 1119 0
3300 1840 -2417 0
-3261 -2183 1587 0
-158 -1516 -1549 0
-1966 2509 -1735 0
2606 -1060 -3228 0
-556 337 -1361 0
-3923 3703 1352 0
-2647 -2666 -2830 0
1061 2169 3800 0
-2997 3806 -2162 0
949 1913 -2740 0
-3966 551 -1400 0
1367 3676 -331 0
618 765 -1979 0
-648 3149 -2059 0
-1929 -3443 -227 0
-239 -3128 3487 0
1495 2454 1860 0
-368 -3909 1838 0
603 307 1622 0
3303 -2823 825 0
-938 3899 -753 0
1227 3433 3190 0
3985 -1652 -710 0
-3905 3809 2285 0
-2172 1041 -560 0
-3269 -162 3153 0
-758 -3178 -3270 0
-698 687 3129 0
-3935 88 3572 0
1481 848 776 0
2628 -2941 278 0
1070 -2543 2655 0
-306 2797 -2078 0
-830 -1691 -1428 0
-2395 -1989 -2411 0
-660 -3541 603 0
1081 1367 -2742 0
2560 2114 -836 0
-2956 2036 -2755 0
-246 -3532 -1379 0
-12 -3995 904 0
-1427 3269 590 0
1866 -461 2759 0
-550 -1757 1456 0
-2749 2544 1227 0
2197 3768 -3520 0
1949 2585 -1249 0
-365 500 -905 0
1268 1995 -2755 0
-403 1671 3629 0
-3161 -3556 -1767 0
1058 -306 -915 0
-3178 -2787 2109 0
-2144 2523 -856 0
3616 -1191 -1529 0
-3745 -1082 1344 0
-322 1784 3589 0
-8 -3545 -3111 0
2575 1121 -3560 0
-3078 56 -2392 0
619 -3046 -1879 0
-3246 -1357 3520 0
189 3958 -721 0
-1503 550 1989 0
-2822 -1699 -1103 0
2177 787 1057 0
2737 -2284 1424 0
-2632 -655 -2816 0
596 779 -3718 0
2323 -3253 -3169 0
1652 -681 710 0
1262 3986 3864 0
-1333 1004 3944 0
3412 -1586 -2020 0
1167 2414 -573 0
-162 -1430 -2889 0
-3510 2381 -907 0
1785 -3566 1556 0
49 62 -1480 0
-1309 -2908 3091 0
-1396 -3371 1958 0
1426 1887 995 0
904 183 773 0
-1414 -21 -3387 0
531 -552 -3460 0
-3405 3607 1899 0
-968 -499 -496 0
-2971 -2491 -2173 0
-2394 -1281 1153 0
1225 -1939 557 0
-1338 1903 -1864 0
-498 -973 2964 0
-2796 3555 -3850 0
-2365 -55 911 0
-602 -43 3907 0
-2196 2429 -3678 0
-3743 3926 3616 0
2446 -2618 79 0
3185 -1143 -3330 0
-2300 552 -3102 0
-3464 -1183 -3060 0
-736 3865 -432 0
1305 1962 734 0
-1025 2237 -2604 0
-587 1058 2154 0
-3943 -1421 589 0
1038 -2233 1023 0
-2420 -3705 1458 0
2616 -3059 251 0
-1169 2481 1705 0
168 -3566 340 0
-3646 3812 -1757 0
-2587 3694 1101 0
-182 866 -3573 0
969 -930 -2532 0
1877 -2393 3832 0
2636 -78 -810 0
2198 3488 -3777 0
-2455 3971 1253 0
-1682 -698 -1046 0
1454 811 821 0
-2993 3839 3481 0
3887 -1408 633 0
1982 -165 -2428 0
-3834 3214 1440 0
-1216 334 48 0
1671 -3787 -2655 0
-1006 1053 -598 0
-739 -2631 3837 0
3537 148 817 0
-782 469 -311 0
-1004 3617 3215 0
-1711 3688 -3210 0
2471 2946 6 0
3647 -1751 982 0
-2020 -3194 -1139 0
3788 -3267 834 0
-1748 1717 -854 0
1293 3512 2674 0
2657 1561 1522 0
-3390 -2574 383 0
3665 -3906 139 0
3028 -1968 -1054 0
-2773 1064 -2032 0
876 1396 62 0
-3559 267 3951 0
-3682 2983 3511 0
454 2081 884 0
576 -963 -2247 0
1066 -1391 -3137 0
-360 -3536 -1632 0
2086 2578 4000 0
-592 622 -289 0
2751 176 -833 0
-3821 -1795 1132 0
-3735 -1798 -760 0
-19 2070 -780 0
-425 1677 1174 0
-2069 1252 -1510 0
3239 256 2008 0
3019 2400 -595 0
-3937 -3271 573 0
-2159 1191 337 0
-906 3009 3447 0
-292 1635 -677 0
-3732 1182 3296 0
2910 2941 -1388 0
-2576 2170 67 0
1284 1426 953 0
-1598 3777 -450 0
-2065 1249 -2703 0
2906 -1610 3096 0
-428 -1419 2544 0
1613 675 664 0
-766 315 -3890 0
-1375 -3398 3781 0
1291 -2073 -3671 0
1547 1614 2708 0
407 -2887 -960 0
-3542 -2669 3750 0
207 -3729 3043 0
-2471 -2318 682 0
-3023 -3866 1316 0
2364 1418 -2969 0
-1880 2522 212 0
3007 3758 257 0
-2466 2105 -2208 0
-3448 2758 -3813 0
328 -3587 -2700 0
-1672 682 -2674 0
2192 -2202 3952 0
742 -3301 703 0
969 -1529 -638 0
245 3297 -2734 0
1288 2312 -2466 0
-2520 -438 637 0
-3111 -2408 -3060 0
-1391 45 2474 0
2469 3338 2611 0
-3580 1344 -346 0
-2445 2285 -3813 0
936 -3510 1676 0
-2287 1414 3991 0
2732 -862 3631 0
-2481 1468 -1821 0
199 -3225 3256 0
3878 1375 -2225 0
1971 2193 1559 0
-2941 3509 3921 0
-395 667 1666 0
-2972 3388 3707 0
1535 -450 1036 0
-3447 1201 1507 0
-3767 2687 1073 0
246 2927 3329 0
-3885 -3614 1317 0
1151 1504 -3835 0
3670 3503 -2477 0
-3585 2437 -1561 0
-3232 -2054 1769 0
-1198 1062 716 0
-2775 3765 -3459 0
-2984 -1206 -2492 0
2749 -2086 -1995 0
744 -2276 3845 0
-435 -3083 -3233 0
-8 -84 2596 0
-1119 -2429 2654 0
-2854 2566 -1245 0
1382 -3516 -1154 0
997 -614 3404 0
1150 -897 -1483 0
1647 -2452 3695 0
2867 -2930 -1253 0
-2736 2699 3539 0
369 -925 -2960 0
-2332 1729 3438 0
-2299 -3838 410 0
1223 -1273 2759 0
-1734 1121 1204 0
-191 2222 1143 0
-2444 2537 -2195 0
644 1924 128 0
1090 1392 -3821 0
740 -2156 -480 0
-1105 -3051 1387 0
-195 -1639 1197 0
1501 -3697 -1387 0
-1208 1060 2809 0
1544 3757 2409 0
1045 -3202 -281 0
-2330 1282 1763 0
-2138 2307 -1079 0
-2430 3937 1505 0
-3075 -2331 -1842 0
-2286 559 -1832 0
2465 -2317 -2540 0
2451 -753 3611 0
55 1608 -419 0
2150 -1095 546 0
-2621 2927 -1503 0
-3125 2204 -1731 0
579 -3321 -357 0
-1945 -2937 -1720 0
-2333 -2044 1181 0
1908 3 3980 0
-1976 284 2305 0
3262 -1656 -113 0
-529 349 -3391 0
3328 -1482 -3760 0
769 2804 -761 0
1099 -857 -3342 0
-1396 -1136 -1779 0
-3761 -3620 -939 0
-3160 -3996 3218 0
-1900 -1286 -2462 0
630 2408 1370 0
420 3628 2944 0
-249 2430 387 0
877 -3414 -1897 0
-2263 -1327 -2952 0
-3807 2443 -3810 0
2085 989 -3392 0
2262 -1636 2118 0
1338 782 -852 0
-2198 1053 -167 0
-311 2392 -3209 0
1719 429 2312 0
-575 18 3685 0
-2704 3694 2648 0
-2910 -480 3724 0
-2020 1528 -2771 0
3622 3390 2714 0
-557 -2485 -937 0
-2256 2907 -3868 0
-3634 3031 -899 0
334 2403 2784 0
-2282 -2225 398 0
-977 3078 -2608 0
1414 589 -3383 0
-529 -1007 -1667 0
-3193 -2081 -3492 0
-134 -1587 -2136 0
2323 446 2488 0
-2200 -840 1556 0
-1258 1919 -2697 0
-1931 1162 1374 0
26 -281 3083 0
2825 -1437 59 0
-1979 -972 -2625 0
-1770 1945 3131 0
150 -1966 647 0
-3933 -3326 3531 0
3891 -2518 -3381 0
-3472 1576 -2950 0
3088 3465 2693 0
2969 -679 871 0
-3067 -3945 -90 0
3581 -1439 3959 0
3907 -372 2780 0
3874 2668 -3498 0
583 -3841 -481 0
-3484 1818 2707 0
-851 3354 -1361 0
115 -1005 447 0
2315 3674 3540 0
1009 -2861 -3393 0
-3153 -3028 -1202 0
3399 -1544 3598 0
-986 -2208 -1791 0
-1574 -3776 -1832 0
3079 -1261 2518 0
2091 -3049 1147 0
1585 3267 1799 0
234 55 3176 0
-3279 -145 -1902 0
-3185 -1070 -2823 0
-1588 -1259 3124 0
-3236 3347 -1211 0
691 -497 1992 0
2414 2904 -3168 0
3885 2244 3150 0
2059 2081 -2172 0
-3023 -3552 3299 0
1896 915 1169 0
-3240 -3347 3876 0
-3845 251 18 0
-1531 1644 -3395 0
-1759 527 -3396 0
-3762 -1672 3843 0
3632 -184 -1837 0
2767 -1916 1022 0
-3404 2651 584 0
-1018 -363 1709 0
3210 -1155 -505 0
3014 1553 2446 0
160 -578 821 0
1228 -3008 -1252 0
2349 -10 -862 0
-1724 1726 3341 0
-85 2285 -3334 0
-3089 -589 1273 0
-1591 2890 1031 0
3959 -2628 3938 0
2224 -2503 3058 0
1928 -3813 -1439 0
2005 18 -2577 0
-1542 3058 3130 0
1490 -3557 3700 0
-1676 -584 3747 0
-1524 1565 -278 0
-2287 3313 1543 0
3588 868 898 0
1838 -3284 -700 0
-837 -3526 -3885 0
-1728 644 -1828 0
880 1221 3592 0
359 1101 -2640 0
-2789 2325 3337 0
-2032 2060 1427 0
-1416 -3471 2340 0
166 3255 3941 0
982 -1976 -2251 0
2633 1239 803 0
-1364 398 1717 0
2289 441 2759 0
-3670 1479 2701 0
1489 652 -2066 0
139 -2341 1990 0
-2005 3909 -3272 0
1865 -3398 -41 0
-2904 -1906 3996 0
1107 3802 -592 0
2273 1688 -632 0
-695 910 -700 0
-1653 2 -3644 0
-1732 1512 -1898 0
-660 546 3031 0
2260 2333 1026 0
-1127 -286 -2897 0
1819 3762 -2755 0
1370 -582 3970 0
3278 -2053 -3512 0
-3809 1047 -620 0
-1103 561 -2980 0
-3910 210 4 0
-1054 1523 1262 0
-1237 -1765 2156 0
3566 -2830 1389 0
1903 -2055 3254 0
855 -2788 2189 0
2010 -1957 3909 0
2696 -1461 2999 0
2183 -982 1220 0
-1208 -2623 -961 0
-988 3534 -3556 0
813 -506 -3670 0
2507 -3476 856 0
-1781 -2931 -2645 0
572 2952 3541 0
-969 -3993 -2316 0
-1698 -2935 2037 0
-2179 -570 -2156 0
1030 -3641 1578 0
-1149 525 2367 0
299 1576 3744 0
-2198 2744 1685 0
-1820 -2012 3119 0
2587 -2256 -2185 0
-1013 2877 1787 0
2065 -332 -2118 0
-624 -509 3285 0
-896 1627 3375 0
-2441 2276 3576 0
2751 -2687 1531 0
2272 -2176 3185 0
2549 1712 -141 0
-1075 -1433 107 0
-2651 -3917 1758 0
2977 -382 -1917 0
-238 3244 -3257 0
-555 625 1793 0
-920 -3585 1701 0
-1039 -1815 1503 0
69 3792 2652 0
-2406 1786 2649 0
-513 2007 616 0
-999 -291 -2569 0
1634 2138 -1242 0
3922 4000 -3071 0
2255 -2119 -1166 0
2933 -3568 -264 0
1240 -907 1494 0
3544 2020 -2551 0
3453 1604 3654 0
-3110 -2519 -3033 0
2023 455 -738 0
3758 3247 1226 0
-3629 -2763 -2952 0
3018 333 -3414 0
820 -3283 4000 0
-3406 -1882 -2017 0
248 -2771 1670 0
-459 3649 1081 0
-3067 3108 -1299 0
2032 1455 1259 0
-1139 -500 836 0
298 1942 90 0
-2878 -2173 -1667 0
3589 -3932 3983 0
556 1411 -3835 0
-788 3158 2986 0
3535 2668 -83 0
-3776 3204 -950 0
2342 -1736 -801 0
-307 -2307 -3281 0
-1006 -1804 -2337 0
678 -2045 2723 0
-2893 2404 2589 0
-2295 63 255 0
3079 -727 3106 0
-2416 3018 2983 0
3818 3829 -1702 0
-3292 -3226 1695 0
-1627 -1517 -1598 0
813 -1279 290 0
1506 -1245 1995 0
-2010 731 -287 0
1521 -672 -2706 0
-1028 -1860 575 0
-2554 -3928 55 0
-1319 -412 2211 0
179 2027 3975 0
1180 -796 1631 0
-2453 -3098 -852 0
1378 -1098 3640 0
-2174 1161 635 0
-804 2843 3051 0
-2993 -3834 2602 0
621 3210 212 0
-1566 -3118 2084 0
-3267 666 -2864 0
-3628 -1994 -3627 0
-2888 614 3968 0
3266 -3749 -668 0
-1367 3758 903 0
-856 -1431 -1129 0
-2107 -542 -2957 0
232 3377 1311 0
-225 -3387 -931 0
2406 1219 2746 0
3724 2327 -286 0
-1255 3113 3900 0
-1038 3131 2340 0
-3742 -2863 3110 0
3272 1439 -2331 0
63 -1592 -3072 0
3954 -3903 -3414 0
-1294 3811 -283 0
-1526 2269 -3915 0
-3745 -2011 1889 0
2970 2585 -3875 0
3495 -1850 -1592 0
3093 3881 3705 0
1645 -622 2957 0
2777 -397 -3930 0
-3926 2104 -3812 0
1270 3123 621 0
2122 3010 -1883 0
-388 -905 1490 0
-3224 -249 2053 0
1412 -3770 1880 0
-34 2012 -3161 0
6 -3505 -2168 0
1506 2572 3534 0
-2592 2777 2980 0
-3476 -3878 -2935 0
426 2864 2145 0
1344 -261 -1700 0
-655 1325 1308 0
3308 -3084 611 0
-1917 -1207 1501 0
1754 -3999 -1288 0
-1998 -54 -1434 0
-991 2686 -1547 0
-1366 729 1027 0
-3715 -2954 1877 0
2370 1956 1833 0
-3160 -1978 1425 0
-126 -5 -393 0
-821 -1779 -1916 0
-2620 -2350 -3079 0
2551 -1448 754 0
2277 3815 -1103 0
-5 -227 -1742 0
-1481 -1367 -2621 0
685 1066 2322 0
667 -1775 358 0
-979 1148 -568 0
-2683 -639 -3816 0
2773 -173 -2572 0
-573 -2837 -847 0
-3848 -1732 -3322 0
2287 787 1349 0
2203 -2085 -1132 0
1282 1368 -3958 0
-3426 563 2259 0
799 -1705 -57 0
-481 2904 -1754 0
-1680 -3780 -2278 0
-3453 494 -1184 0
2793 -134 1303 0
-797 -3197 1686 0
246 2140 -2902 0
-3265 -3251 -722 0
772 3764 -1931 0
735 37 654 0
-3074 -364 -2973 0
-2542 2552 3499 0
-2820 -4 -577 0
1924 2214 -2884 0
-905 1640 -1050 0
-3672 341 -1975 0
2851 3364 -880 0
-3497 415 -3793 0
3304 1726 1719 0
2870 3298 -3895 0
2567 3402 -2851 0
2774 -2132 -3130 0
-645 -339 -3793 0
-2716 -2364 400 0
-3538 -2239 -269 0
941 3138 -1046 0
3247 -2101 2069 0
-933 -2668 -2139 0
-3154 -1017 -3868 0
2604 3292 3294 0
1058 3832 -1549 0
-2710 -932 1571 0
-281 3497 -2018 0
3502 -2079 -1840 0
-1318 -2878 -767 0
-453 1477 -3578 0
-1892 -2459 -676 0
2321 -3392 3533 0
-1070 -2610 3630 0
-1575 -2621 -2020 0
-2680 2656 2643 0
-3697 -1157 -3167 0
276 1904 -3843 0
-3939 1864 -1629 0
-340 239 1743 0
1033 3027 -1698 0
-2817 -2202 -3604 0
-161 1824 3999 0
-654 2698 -3931 0
-1364 -851 -1639 0
-3704 -1284 -2037 0
-3626 -2289 3775 0
3271 2883 1326 0
2176 1927 402 0
3557 3542 -1412 0
2994 -539 -1185 0
3241 1418 -3792 0
1739 -3950 -571 0
-2738 3914 -2973 0
-2506 -1285 2449 0
-686 -1301 -130 0
-1784 -387 2896 0
3600 -1521 2759 0
3352 -2909 3875 0
425 -2168 1494 0
1250 -2271 737 0
717 -1555 3781 0
-2756 -2609 -1521 0
-3363 -3843 -3903 0
-1409 636 2241 0
-996 -1568 -3691 0
3569 2718 -2960 0
3067 -3350 -1722 0
3618 -3684 -3815 0
-3895 -963 3389 0
-1450 1278 3313 0
-1034 -254 1246 0
-1946 -146 -893 0
-3811 2529 3596 0
-3529 -3277 -2021 0
3581 3448 2815 0
1500 2718 613 0
-1984 -1478 3523 0
309 -2617 3780 0
-2829 2789 2802 0
-2015 3912 2912 0
-1210 -1208 2844 0
-3303 3376 -1784 0
3183 2711 -907 0
-2671 -3489 -2395 0
-2347 -2178 3197 0
-3428 2117 -1893 0
1407 -679 3103 0
-2087 -1055 -803 0
-2004 379 924 0
-2918 1789 3005 0
-678 1970 -2440 0
2957 1750 -3440 0
698 -1169 974 0
1121 -3922 1525 0
2525 -3182 -1868 0
1982 3145 -3999 0
2762 -3594 2415 0
1440 2700 2704 0
528 3781 -1040 0
117 -1088 -2074 0
-1189 -2078 -1890 0
3530 365 -3561 0
2847 -1533 2842 0
-229 322 -576 0
2509 -1774 -1856 0
228 2390 1932 0
2151 -2666 -3385 0
-1185 -703 -3253 0
3939 740 2324 0
3974 -2556 3612 0
-2530 2150 -3126 0
-1200 -1770 2733 0
757 -2496 678 0
-3817 303 -3799 0
2547 412 1982 0
-1647 -2428 -505 0
1567 433 -1685 0
-2471 -2840 809 0
2851 645 3496 0
-488 1548 -3727 0
2518 -2494 -3410 0
3349 -440 16 0
3579 -2499 3510 0
-944 -2641 226 0
238 396 -3038 0
-3715 3524 -3479 0
801 -2867 -1537 0
-567 -2052 1640 0
670 -1596 -363 0
1640 -1239 3010 0
3758 -2892 -3874 0
-1689 -3288 -300 0
-3888 -3514 1886 0
-1470 1686 817 0
-601 -625 -437 0
-2647 264 1243 0
3303 -3015 2060 0
569 -3396 2238 0
3474 -2247 889 0
-3014 -3538 2281 0
-1766 -967 1921 0
-131 -223 353 0
-2270 2135 3118 0
3079 1598 -3535 0
-746 -3002 -966 0
2797 -2829 -2999 0
2677 3895 2729 0
3329 1834 -791 0
279 705 1976 0
-610 2721 -2256 0
-2506 -1086 -616 0
2898 -2385 3839 0
1671 1081 2631 0
2461 613 -275 0
-2709 420 328 0
-2217 169 2624 0
-3920 -2330 -2216 0
-3834 2164 -2126 0
1496 3651 2980 0
827 1886 3794 0
3448 1272 52 0
-3714 3015 -929 0
-855 663 -2795 0
-2292 3885 -2699 0
-1749 -1264 3669 0
3959 -2729 -1726 0
-3416 -965 -1658 0
178 -3433 2951 0
1455 -1057 -1362 0
1804 2817 3501 0
2457 -1196 2701 0
2688 -2296 1864 0
1041 2186 1463 0
-3659 3809 -1455 0
-481 330 -3259 0
-1637 1564 -1203 0
-1927 2880 -3319 0
84 -3665 1788 0
-1403 -2119 -3667 0
1615 -3014 3868 0
-3881 6 2898 0
-1413 -1998 -1370 0
3166 1942 1201 0
2311 3513 -3811 0
984 637 -1220 0
-744 1340 2253 0
3547 3973 -857 0
782 -3505 -3992 0
1878 -1622 -868 0
-616 1761 -2204 0
-2943 -1347 -2153 0
1352 3113 465 0
-1332 1843 -3314 0
3291 -1987 873 0
705 -3685 2401 0
796 1957 2385 0
2205 -1157 -3659 0
-1902 1293 2338 0
2438 -1865 3522 0
3198 2153 -3512 0
-111 3406 1410 0
-1085 -2433 -2945 0
-2307 2642 -3417 0
-1248 3559 1475 0
1345 -2273 1349 0
-261 -2200 2271 0
-1841 -491 1782 0
3838 3219 3743 0
1079 -1665 3933 0
1042 883 -1643 0
-589 -855 -1128 0
-1535 2235 3666 0
1395 3527 -787 0
896 -2517 -2217 0
-1491 -2793 -2512 0
1494 -1880 -3909 0
1863 -1020 3491 0
-2345 2871 1318 0
2546 -3542 240 0
657 -2879 3138 0
-2823 -3789 2804 0
1031 -286 1323 0
1222 41 -3357 0
166 -1484 2821 0
185 -1342 -1525 0
-2339 -2289 767 0
-1873 2396 400 0
403 2679 -660 0
2993 805 -2691 0
-1315 -3111 2289 0
2188 -1144 -2156 0
2371 -757 -1080 0
-1439 3370 225 0
-1070 -412 3297 0
-395 1223 835 0
-1863 -469 1906 0
3696 1113 358 0
-1225 -729 -2466 0
-1044 1785 -1944 0
-2120 3590 -2783 0
2857 2134 -1670 0
-2634 -3478 -2961 0
-1809 2769 3686 0
672 1030 2443 0
-41 -2942 -140 0
3227 660 -2863 0
-2560 411 2241 0
-3285 -2562 600 0
3612 -881 -3505 0
3364 992 -2360 0
-3734 3605 1373 0
-3513 -302 145 0
351 930 2070 0
-3127 -2342 -3816 0
-3928 3372 1260 0
-2793 -3458 -1236 0
-3987 1965 -2960 0
-66 -3043 378 0
3880 -2347 -1252 0
-1625 414 3632 0
155 103 -85 0
-2894 3021 -1051 0
-2162 3995 718 0
-16 -3342 3243 0
-2922 301 -3231 0
-1335 914 3567 0
-672 -3559 816 0
2908 -2791 -3528 0
355 3534 -485 0
-3075 -3663 799 0
1932 2740 3998 0
2179 -2701 2124 0
-682 1873 143 0
-859 -865 -889 0
3534 3519 -357 0
2807 -3379 866 0
2129 -2095 -2264 0
-950 -2806 -1789 0
1963 -2934 -186 0
-3875 3258 3306 0
533 1592 -792 0
311 -2485 -2494 0
1627 2349 218 0
3773 3608 2334 0
2672 593 -1531 0
-1091 2661 -1981 0
3269 -619 3426 0
-2785 363 -54 0
-106 -3893 -3040 0
-3105 -1014 -2977 0
2592 -471 -3082 0
-3477 -2775 -1816 0
-1519 1263 2475 0
9 3227 -3942 0
3917 -777 2560 0
1904 1957 888 0
-3136 9 3081 0
3858 3408 1507 0
-1135 3821 -551 0
-3478 -695 -3449 0
2244 -608 3870 0
3859 2243 -3218 0
102 -1013 -508 0
216 3550 -1916 0
-3311 362 2720 0
2085 642 2012 0
1902 -2833 -1763 0
-654 -1888 -570 0
-366 3888 -1746 0
-543 3256 3112 0
3283 -2086 1368 0
2317 1322 271 0
2327 -3068 -610 0
3391 303 -3125 0
2481 -3667 -1353 0
2762 -1085 -2561 0
-3955 -298 930 0
-2094 2245 -1498 0
-2749 -931 908 0
-3516 3026 249 0
-1517 -1573 -2021 0
-2574 1385 2192 0
1041 1572 1442 0
-2309 -597 -819 0
1661 -3094 -1890 0
-930 341 -2978 0
-564 -3455 2392 0
-3973 -1221 -3974 0
3657 -1811 738 0
-3556 3708 1877 0
-2368 3747 -3968 0
-2281 3791 1751 0
3054 -3837 -3912 0
-3463 3638 -1012 0
11 -944 2633 0
-2143 -1880 420 0
1863 -851 -2291 0
-2942 -187 3753 0
3040 -745 176 0
2115 2517 317 0
2508 1916 -1987 0
534 3914 596 0
-2044 -2100 2420 0
-1696 484 1902 0
-2989 58 3577 0
831 2450 -536 0
-647 133 -149 0
-1168 3428 -900 0
3007 685 -490 0
-1207 -2110 -333 0
3140 -3646 -1125 0
938 -2551 3837 0
2336 1100 3036 0
959 3447 -3980 0
-2938 2974 -723 0
-3695 186 -173 0
-2781 -1069 1762 0
3264 3687 -1115 0
3163 3030 480 0
-1847 2013 1037 0
2719 3600 3376 0
-3980 -1737 3798 0
-2104 2872 926 0
1344 3514 226 0
1421 -442 3413 0
-1567 940 2595 0
3931 -1524 -2130 0
-1351 212 -1385 0
-593 2296 423 0
1489 -266 -516 0
-1338 -246 2794 0
3055 1179 -3133 0
385 -483 2187 0
1175 -3083 3025 0
-2107 -1780 -1359 0
-2445 -1237 3999 0
582 -516 -601 0
1707 -1468 1171 0
-1590 -1776 2205 0
-1252 -1469 3514 0
1586 -1420 2790 0
-174 -344 -1211 0
-3824 -1240 1765 0
1946 1097 1916 0
-1509 -8 -2297 0
-198 942 576 0
953 -2220 -2699 0
1407 -1380 330 0
-2314 1851 -1069 0
-1357 408 -216 0
-2922 909 -873 0
-222 470 2543 0
1821 29 2060 0
-2043 -3179 -2207 0
3519 1208 3681 0
3863 -2898 -295 0
3354 1978 -1418 0
-588 3397 -3124 0
2252 1704 -2906 0
3528 -2904 2459 0
-3485 -3324 -3106 0
890 3245 1377 0
-428 2434 3224 0
-1740 467 3313 0
1850 1923 1713 0
3943 2566 747 0
2826 3743 3821 0
189 -3483 3282 0
3358 2988 -1247 0
2502 735 -2760 0
2131 -192 -3111 0
1125 -780 55 0
2873 -3467 2330 0
3505 1295 -1156 0
3288 -3037 -2912 0
-1183 1231 3953 0
-2493 2594 356 0
-2001 3819 1088 0
-3234 1985 -3503 0
-3122 -714 268 0
1905 3095 2766 0
1949 -2709 -1584 0
-551 3058 1919 0
493 2070 1289 0
-2149 1684 -2741 0
1720 -1571 -3882 0
360 209 856 0
-2130 -2846 -1289 0
-2916 3546 -754 0
-1897 866 -121 0
2332 -2434 -1962 0
-1732 403 3608 0
-3784 2441 -571 0
3181 -1050 2725 0
3054 208 3877 0
-3703 -3486 724 0
2354 -928 -3331 0
639 1839 -334 0
-1295 -1891 713 0
94 1080 -3249 0
39 1113 -383 0
3763 -1352 2639 0
-63 -3366 -2087 0
-466 2969 3620 0
-1554 -38 -428 0
-306 752 26 0
-2265 551 3992 0
-892 -3693 3882 0
-2526 103 3745 0
1973 1659 -3237 0
-1910 -277 -1006 0
938 -1602 889 0
2089 2372 1141 0
-2099 -1283 179 0
3721 -2060 738 0
2962 -49 3306 0
-460 -3465 -616 0
-3389 -3590 -1215 0
-771 -2674 -394 0
-69 -3228 -823 0
2039 -743 -3359 0
782 -1876 3335 0
-1852 -3373 3554 0
-1605 3171 2110 0
-3918 510 1684 0
-934 3912 788 0
-1765 206 -1237 0
-442 -1787 201 0
-1971 1908 3090 0
-2269 -1785 -1842 0
3868 -585 3096 0
-3518 -991 166 0
-2286 2607 1245 0
3920 -1870 -2025 0
-862 -2971 -2621 0
-2579 681 475 0
632 -937 3867 0
-2591 2084 -3039 0
-2606 153 3894 0
-145 2426 -665 0
-719 3714 1855 0
2678 -3397 2599 0
-1724 -1430 -1523 0
-2217 -2241 3966 0
-3369 -2028 -1388 0
3319 -32 694 0
2521 1357 2454 0
-1857 -2189 -997 0
3797 452 -1659 0
-3138 -1955 1430 0
-2691 1553 1245 0
-2655 -839 -2797 0
3334 953 -412 0
-923 1890 3683 0
2154 1029 2669 0
3973 -3281 48 0
595 1491 2397 0
1405 -1026 521 0
-994 -1846 3772 0
2454 152 -2700 0
-624 2937 -1549 0
-2198 1074 -476 0
1349 3750 -2238 0
-411 3223 -635 0
-642 -471 -1227 0
-3443 2674 -1432 0
1864 1084 3608 0
2562 2630 -739 0
1341 1978 3877 0
-84 -1049 2843 0
2578 -1868 -966 0
3702 -2868 -1693 0
3672 -2629 -3514 0
-1882 628 -2496 0
1765 1485 -1808 0
-1395 1559 1832 0
-1680 -2327 1060 0
247 2700 -3752 0
-3447 2626 -1366 0
1836 649 2734 0
3911 2963 -1058 0
-952 -2288 -3454 0
1294 596 506 0
2550 3358 3357 0
-1253 2226 -3786 0
-1023 -2637 -2379 0
-1044 -420 -3203 0
-2260 -1331 2160 0
-1279 1039 811 0
2033 1009 -599 0
-3495 -2381 -496 0
-3281 3807 1377 0
-517 -3155 3570 0
2977 555 -2578 0
-1552 -1188 3400 0
1515 2916 -1552 0
1028 -3930 543 0
-2570 -2415 202 0
164 -2921 1760 0
851 -3081 -3835 0
3128 -3848 -3907 0
-1549 2233 576 0
-2461 1617 844 0
1257 3888 3247 0
1470 -674 3807 0
3800 2097 -3304 0
-1636 3473 -3141 0
3973 899 3349 0
2265 1830 -1801 0
-536 99 -1405 0
278 971 1594 0
-3350 -2688 3321 0
-2677 2860 -3446 0
3513 3152 -1721 0
-2516 -2015 2774 0
-727 -3094 -1819 0
2313 -3210 -1235 0
2883 -2978 2627 0
-2852 -3869 3306 0
3952 3451 -3843 0
-1666 -3329 -574 0
3034 2628 -194 0
-3669 -2206 1909 0
684 -1314 3019 0
-3233 3780 272 0
1734 1466 -2799 0
-2049 2045 -3588 0
-984 -1730 3486 0
125 -3517 -699 0
2653 1157 1576 0
-1196 774 -2103 0
1058 -2759 -133 0
3527 3201 -628 0
-602 3557 -122 0
200 2697 -1063 0
2886 -2124 -2854 0
-494 2990 -3864 0
-119 -3928 -1276 0
816 984 -544 0
3146 1865 1507 0
2680 -191 1242 0
3369 -1495 282 0
-1385 -2201 3141 0
-1007 1209 2931 0
-590 -111 1970 0
-3726 -3770 -2066 0
884 1777 1475 0
573 3472 -2857 0
1514 -2583 986 0
1066 -3920 -1305 0
-1964 -930 -3029 0
-1482 2069 -3160 0
2158 1309 3854 0
-1819 -2409 1373 0
2615 -1959 1268 0
1959 -321 2452 0
-3917 255 -1530 0
-3038 3421 -1219 0
3232 3537 3571 0
1993 347 3726 0
1756 -1543 1297 0
2381 3120 -189 0
-3399 -227 321 0
-1255 1387 -913 0
436 -3687 -3966 0
2746 -2552 2606 0
1941 -2870 -881 0
2561 -1569 1966 0
1244 790 2372 0
-1750 -436 -410 0
-1803 806 -859 0
-117 2840 -3277 0
3185 1156 221 0
2759 -437 1657 0
55 3477 2782 0
636 2077 -2473 0
-3661 -3020 1274 0
2056 1055 853 0
1313 -3282 236 0
-2471 3031 3660 0
-3869 -1981 264 0
824 1921 -575 0
3453 -2150 -188 0
-3509 2254 -3832 0
42 1120 227 0
3249 841 -561 0
-3031 530 -2087 0
2561 1392 -1272 0
-3452 677 -2693 0
3499 1831 1938 0
3920 644 -1441 0
-1984 -712 108 0
-3170 -885 1805 0
562 -3533 1084 0
-1857 -1964 -1324 0
-1573 3747 1239 0
123 -770 -515 0
3843 3494 3073 0
1035 -3755 3932 0
548 -2866 3960 0
1549 778 1064 0
3612 2719 -3834 0
3307 -2659 3183 0
-3116 443 -2405 0
59 3945 111 0
-3685 1169 590 0
2497 347 -630 0
-3194 -3607 1174 0
-3409 3178 1319 0
-3258 56 1873 0
1972 1091 313 0
2460 -1259 -1659 0
-3428 630 2186 0
-2908 941 -1909 0
784 -447 -670 0
-2813 1774 170 0
3821 -2696 -2964 0
372 1589 2679 0
-101 -2998 3642 0
-1776 3467 3798 0
1873 3459 3181 0
3474 1496 1832 0
961 -2595 -2634 0
-1447 1907 -2769 0
-1371 3073 117 0
367 -2819 -1971 0
3327 2044 2163 0
-872 -3569 2012 0
1087 -2022 1088 0
-1265 -2463 837 0
-376 510 -717 0
2711 -3308 767 0
948 -3557 -3671 0
1090 3209 -2552 0
2019 3031 656 0
-366 618 -1011 0
-2142 -3027 3975 0
-3401 3303 2852 0
2656 -1708 1655 0
1364 2267 3753 0
-759 2392 -2365 0
598 674 -2255 0
2903 -2348 -1685 0
947 -1600 -3877 0
1384 -138 -1644 0
3513 -1867 -3256 0
230 -2397 -541 0
1500 290 -1082 0
718 -924 -423 0
2292 3056 -2940 0
775 -101 -208 0
-1880 700 -3701 0
1549 473 715 0
-1984 3249 -943 0
3850 -356 -838 0
428 -1794 3527 0
-2384 3827 -1090 0
2973 743 -3969 0
3017 1219 2681 0
1220 -3613 1504 0
-72 -1433 229 0
-381 2980 1527 0
3349 -1425 3675 0
-912 -2129 2916 0
-1279 218 3258 0
628 -1130 502 0
-1367 -2404 -40 0
4000 -3622 1716 0
1592 2860 -2395 0
-3945 3301 -1874 0
3098 615 1226 0
239 -3906 3035 0
-2711 -2923 1050 0
210 -3128 -167 0
-3444 -2513 2496 0
2309 -892 -672 0
3084 3155 -1366 0
-302 1582 2685 0
3112 1566 -2248 0
382 120 -3908 0
3691 -3601 -2457 0
3962 -468 3564 0
-1069 -173 1075 0
-418 41 1188 0
3448 -3802 -627 0
-593 3865 2424 0
-2866 3775 -620 0
1047 -1684 3415 0
1725 -2902 -2774 0
706 3427 -472 0
-484 -1025 1412 0
-2856 -721 2601 0
-2409 -2603 -671 0
189 -3569 2116 0
-2964 1593 -324 0
3425 1541 -1924 0
-3592 879 -528 0
2709 2915 2067 0
1363 3374 702 0
783 581 -2677 0
3227 -2819 468 0
1403 2465 -132 0
2927 -2294 2861 0
426 -2264 3167 0
-1532 -1275 3560 0
221 -3975 2772 0
-23 -3132 3408 0
2108 2555 2060 0
-2536 3231 -2085 0
3564 3626 -3275 0
-1621 -3572 3824 0
-3595 -3667 -2226 0
-3053 -1856 2405 0
2718 3644 3913 0
-1541 1192 -1098 0
1971 3059 -3876 0
-1768 -224 -867 0
209 122 -154 0
-116 701 -395 0
-3635 -1937 -2133 0
-1424 -2144 -1920 0
-1287 3213 2483 0
-1881 2481 270 0
-706 2639 -806 0
-3008 -3880 -1687 0
-3485 2748 2118 0
-2872 -2611 -1590 0
2488 -293 -1005 0
2165 132 1402 0
-3291 3735 -3637 0
-2461 1562 2799 0
-3032 3101 -3250 0
-3692 2644 1045 0
-1514 -1982 1564 0
1789 923 -2204 0
-625 -1775 -1154 0
2439 2799 1968 0
2534 1356 3047 0
3219 -1134 1480 0
2572 -2390 3313 0
-852 -1337 -414 0
429 2808 196 0
809 2304 2744 0
1656 -1448 -2076 0
-2865 -1007 -2992 0
-1814 -1509 -1014 0
-3067 -3887 -1941 0
-344 2566 1125 0
-2155 -3914 181 0
-1144 1256 682 0
169 2083 3659 0
-1027 -3752 -2799 0
-2037 -1540 154 0
-272 -3558 -1220 0
-1783 -2636 -3420 0
-50 -3230 -1779 0
-3812 -341 266 0
3485 1476 3385 0
-1171 -2851 2206 0
-3505 865 1524 0
-2182 -1840 -3933 0
1542 -2827 2806 0
-3054 2370 3582 0
-190 3219 1134 0
-2339 3019 1646 0
975 3547 -2585 0
3396 290 -2612 0
1787 40 3631 0
-848 430 -3511 0
3103 -152 -1637 0
-1932 334 -1019 0
-285 -917 459 0
-2977 -3051 2536 0
-1447 1408 -1995 0
3142 226 -1499 0
-2991 -1217 864 0
2817 -1725 -2437 0
-3766 1473 535 0
2205 755 1221 0
3705 3041 760 0
-744 -3272 -3668 0
-964 -1790 1384 0
-3293 3263 -3486 0
-3537 -1106 -3450 0
-2156 971 1793 0
760 2988 -3960 0
329 -2972 -729 0
-1882 3521 3420 0
-2580 152 3529 0
2752 2227 3047 0
-3855 2936 1742 0
-2274 -2135 905 0
-712 2216 2333 0
1826 1918 3130 0
1771 -2683 -1380 0
2608 -693 1262 0
-2931 -3787 2207 0
-1011 32 2808 0
-3161 2558 1225 0
3821 1478 -87 0
-3515 -2958 1745 0
505 -3511 329 0
-589 2850 2758 0
-812 -3740 3573 0
202 -3904 -2720 0
2622 -1454 -2225 0
-2763 -2369 -1637 0
-1591 2661 2530 0
570 -2393 -2681 0
-1111 -963 -208 0
-3699 -3527 -3238 0
-2723 -3492 -2996 0
911 508 -2346 0
1267 3615 -1051 0
-1722 1642 2151 0
1014 -1090 -3878 0
2699 -128 730 0
-866 3788 -2078 0
-1935 -1781 -3144 0
-547 -3177 -1590 0
3253 1928 1749 0
1771 2176 -1690 0
-1482 2723 2357 0
1517 -3071 -3350 0
-3473 -262 -451 0
3255 3542 -653 0
-1286 -3219 1513 0
2890 2701 476 0
-1184 -2947 1931 0
1184 1085 -1786 0
3744 -3877 1348 0
-2823 -211 -2710 0
3826 3287 3783 0
742 -3240 3668 0
-2413 1227 -2764 0
-3135 -3417 1982 0
73 -743 358 0
2715 651 -1300 0
346 -21 -1480 0
3857 3845 2168 0
-449 520 -732 0
-3429 3423 2441 0
2691 1690 2227 0
1306 -526 2251 0
1267 49 1114 0
-750 -3917 -812 0
2342 71 -805 0
-2705 -3160 3696 0
-1106 3814 -376 0
-3618 -3401 1968 0
677 -565 1619 0
-2906 3291 -862 0
-1881 1338 1969 0
-357 2527 1117 0
1823 698 394 0
1096 2129 2694 0
-616 -2654 3695 0
1247 1439 -2236 0
-1559 3505 -3181 0
2208 960 -3450 0
1230 -444 3000 0
3092 2581 2768 0
1815 -1084 3171 0
3422 -3334 1362 0
-3293 -2389 -760 0
2434 838 3520 0
-2011 3782 2798 0
542 -3730 -3408 0
-1210 -2226 -2001 0
-1542 3651 2167 0
3755 -1335 -2316 0
-2144 3496 3410 0
1633 -1885 1320 0
1973 -903 550 0
1218 42 3140 0
-1423 -2123 1222 0
-967 -2729 -872 0
-3096 3613 1847 0
-563 2808 1981 0
-2636 647 3781 0
2756 -3309 995 0
3659 3173 -1132 0
198 -164 -1125 0
2069 184 3530 0
1651 3946 -1351 0
2173 919 -2857 0
-580 -2657 -1846 0
3850 2765 -3543 0
-2676 -1218 1752 0
-818 -2308 -1807 0
-717 -2586 -3849 0
-1600 -1180 1004 0
-2605 1507 3858 0
1782 -3007 -3943 0
384 3551 2890 0
-485 3803 -1686 0
3521 -3895 -3162 0
536 910 3925 0
13 3046 -2610 0
-3647 1846 2249 0
3748 -1912 -835 0
2442 2834 -2015 0
1639 791 -895 0
-3320 584 -3155 0
2720 646 539 0
-1077 2796 2781 0
2670 -1358 -3577 0
-1170 -3257 -1685 0
2891 -1853 -1355 0
-2999 -2344 -1725 0
-323 -3673 3592 0
3736 -3011 -3204 0
3437 -1805 -2624 0
-1852 -3023 2324 0
1873 -1070 2574 0
1356 3881 3704 0
-2300 939 2640 0
-1171 3110 335 0
1593 -3877 46 0
-2952 -3646 -1225 0
-3733 1097 916 0
-2776 -1814 2 0
2113 2281 2824 0
-593 -1338 2752 0
-658 2590 -184 0
551 -2289 1503 0
2433 560 2933 0
-517 2805 -1743 0
70 3123 3949 0
3203 -2260 1089 0
2054 -118 967 0
-355 827 1838 0
1819 2380 1158 0
-2359 36 -3066 0
1095 2630 2547 0
3055 -3544 -2432 0
-2985 -1684 2775 0
-2455 729 -2495 0
1756 150 2769 0
-3585 3547 2376 0
-1174 -2705 2968 0
1844 -246 -777 0
3584 -3476 2162 0
2987 2797 -631 0
1039 405 -3942 0
2797 -3017 -612 0
1378 2484 -1199 0
-2524 1659 -3052 0
79 3743 -3717 0
902 -160 -1957 0
-1617 -219 -2616 0
99 -191 -2456 0
1669 -1248 -1411 0
-2784 1897 -2901 0
1808 -3991 -635 0
-3866 3429 -2040 0
3828 1419 -3553 0
67 764 3818 0
-64 -678 -1300 0
1238 -2684 -424 0
-1733 -1271 -203 0
-1629 -2311 3938 0
2641 -1379 152 0
3348 -548 -917 0
1755 -65 -1300 0
3946 -1425 -1220 0
-3919 2014 -522 0
-1792 3750 983 0
2751 108 643 0
3283 2358 -1882 0
2047 3014 3995 0
-3043 -3263 -2199 0
-2225 221 179 0
-1269 -3106 -1740 0
-3481 -535 -3337 0
-371 2426 -2594 0
-2002 -2750 2171 0
-3175 615 -504 0
88 2758 -2907 0
1657 3898 -3512 0
1108 367 3261 0
-277 3736 -2324 0
2176 2115 -2539 0
3643 3548 -486 0
2198 -3842 -1903 0
-950 -1041 -2430 0
-1144 -3807 -1912 0
2178 3072 -1894 0
2971 3872 464 0
-1267 1924 419 0
900 -436 -3353 0
-3626 -1921 -926 0
3387 -1943 -458 0
-672 -1665 993 0
-2369 -1832 -2060 0
-716 -3927 973 0
2827 -3899 -958 0
3720 1468 2512 0
3883 -641 3974 0
-659 -2844 83 0
-3659 259 -3259 0
1201 -3637 -584 0
-2363 -2195 -2416 0
676 1892 -3450 0
-694 -3699 -1426 0
2821 -397 2508 0
-1288 -3259 -3804 0
398 3964 -1716 0
-918 -3172 2155 0
1709 -172 3265 0
322 -74 440 0
-3768 -2651 146 0
-3871 -389 1051 0
-2221 -772 -3274 0
-2539 -502 480 0
-3670 781 -3026 0
-2341 -881 -1070 0
-1791 -2651 -642 0
1405 -3706 3768 0
2748 -3508 -3424 0
2754 1680 3815 0
-1090 404 -1501 0
-873 460 1122 0
-2146 -3521 3402 0
126 -2717 1321 0
-2901 2185 -593 0
-2831 -2557 2403 0
2003 -567 2776 0
-2744 3438 -1630 0
-778 5 -1889 0
404 -222 3672 0
-3182 2947 -3958 0
2928 -2420 -731 0
-1150 2878 -739 0
-3684 959 -1763 0
3407 493 2163 0
-2112 998 -2187 0
2789 -2665 -500 0
-416 -612 1798 0
-1064 937 -2032 0
3795 847 2660 0
873 1154 1976 0
-3122 3251 -1405 0
2168 949 -636 0
1425 3172 -415 0
-933 -3020 -730 0
2747 -3712 -877 0
865 -3641 -1024 0
829 3049 -573 0
-1801 -3168 -2832 0
-3640 172 2572 0
3149 -893 -875 0
3088 1477 -1099 0
-393 3593 -3107 0
-1673 -409 3461 0
419 1348 -898 0
-1333 -232 -1467 0
-1465 1134 -2378 0
1470 -3984 -1701 0
2940 3801 3819 0
3972 -2620 -168 0
227 1870 -2967 0
-3473 2090 -934 0
20 -2729 -2432 0
3580 1175 -2641 0
3025 -3670 1626 0
1508 -154 -1926 0
-1204 -828 3002 0
50 -1145 -3236 0
-866 -3482 -3702 0
-740 -2496 1013 0
1922 2130 3056 0
2861 -1795 584 0
-3412 -3408 3752 0
2613 804 538 0
-1328 -1822 -2811 0
49 1648 61 0
-3591 3603 -2018 0
-50 -3183 -3201 0
-1230 -599 2015 0
672 -305 -306 0
-149 280 1713 0
-280 -2278 2430 0
2406 -1111 -473 0
-3149 788 2729 0
4 -51 -1333 0
-3178 -1698 -3032 0
-2173 1704 1052 0
2752 1471 -3216 0
-80 -2541 -293 0
-3690 953 2164 0
2485 -3423 2907 0
-468 -3268 -2739 0
-2497 -646 3296 0
2689 -1115 -676 0
3822 2403 2273 0
-1862 -3402 -524 0
-2035 2136 -3737 0
3199 486 3021 0
-2754 290 -250 0
-1117 -1565 -2505 0
2130 3065 -1763 0
-454 1689 3949 0
465 3490 1581 0
-372 -2630 -1639 0
-2184 1994 -1000 0
-1327 1811 -442 0
3550 2706 -1111 0
2293 725 -3454 0
3197 -1954 -3543 0
-3432 -1942 -2575 0
-627 3287 3818 0
3318 3152 -3410 0
2382 3366 2535 0
1647 -3334 -750 0
-584 -3712 -590 0
320 -3593 -1653 0
-2790 3314 2037 0
-2410 -2367 -2405 0
1222 1566 3616 0
-2459 -3756 -2332 0
-325 2011 -468 0
3168 3513 2542 0
-2356 2490 258 0
852 -273 -3821 0
1043 2750 -1516 0
-225 3707 -3477 0
-2433 -1963 -1788 0
1854 988 -3996 0
-2583 -186 -3004 0
1070 -1734 43 0
2577 3845 759 0
-1853 1835 2667 0
-3968 -3487 3109 0
-173 -1265 208 0
-3630 -3252 -2661 0
1880 829 2987 0
-1169 -499 -885 0
-3357 -1378 -3371 0
-1828 2611 843 0
1624 -2613 328 0
3392 750 3512 0
3792 2420 2194 0
3417 2556 -864 0
-219 -3495 -978 0
-1665 -2181 -3003 0
462 2871 -862 0
-1119 -2379 3498 0
-2168 -2125 262 0
2216 2056 350 0
-287 -1301 -329 0
-3021 538 2634 0
1513 -3183 -2336 0
909 -3375 873 0
3047 -3377 -469 0
-2475 -2159 699 0
1200 1895 -694 0
-3188 608 -2699 0
1292 -3931 3101 0
3973 1244 2319 0
1735 -3772 -2841 0
246 1183 2362 0
-2866 -31 80 0
283 2003 2590 0
1749 -2938 -2095 0
-3818 -3458 -607 0
-3903 -3286 3497 0
-3037 3659 311 0
2009 2813 -3421 0
1294 -3333 -1810 0
-3278 571 1455 0
3669 -866 -3807 0
3642 499 2416 0
-62 1974 -3050 0
2568 -1351 -2723 0
2806 2793 2585 0
1182 -2284 -3140 0
-1079 286 -1521 0
157 -2051 -2515 0
-1464 -2574 3398 0
1110 -1293 -1920 0
875 2528 2063 0
-2036 -127 -2235 0
-1961 -1684 -77 0
-3940 -3220 2685 0
-133 -3676 -1634 0
3713 1418 -2897 0
2784 1943 8 0
3462 -3800 3828 0
145 -1084 2191 0
-2323 -2879 -3835 0
3440 -2893 2372 0
2101 2130 2166 0
1599 -265 1414 0
-1192 3214 2995 0
-3828 2408 -524 0
-2857 1554 -2345 0
-2858 3205 415 0
3180 982 -1584 0
-1261 1794 -1086 0
-780 2181 -1990 0
854 3821 3711 0
2720 2122 -43 0
380 -2783 3144 0
1619 3972 3370 0
3980 -943 -218 0
-2313 -35 2414 0
-1887 -1409 3363 0
123 -3390 -3535 0
-710 1190 2771 0
-2323 -3685 3048 0
-259 93 -2910 0
-214 591 -904 0
-2790 -2202 3337 0
-1092 -3836 -3512 0
1446 3908 -1012 0
-3201 3590 -1211 0
-3523 3928 981 0
-1897 -1495 -29 0
-237 -2743 1140 0
-3456 3099 1962 0
-929 -957 -2366 0
2549 3496 -268 0
-3769 1591 -214 0
1726 -2556 -3484 0
-3376 2044 -1595 0
-1217 -658 -3007 0
-3105 1081 -3980 0
2175 1593 3463 0
-3352 2115 -1743 0
3118 2679 -1566 0
1017 2939 299 0
-3068 1573 -1811 0
-171 2329 -1573 0
149 377 -560 0
3343 1960 3200 0
-1790 -1292 -830 0
-2987 1835 -1915 0
969 3592 -95 0
2232 3402 235 0
-2692 3204 -2468 0
265 -1480 -3813 0
-2643 -2291 -768 0
-358 1669 -225 0
3561 315 3697 0
-3340 3675 -829 0
-1731 -2160 2444 0
2064 -2729 3493 0
3821 166 -117 0
2231 149 -1955 0
-3000 983 -1221 0
-30 -283 556 0
490 -74 -565 0
-2041 2279 144 0
21 1286 -3399 0
714 1750 808 0
2580 579 -3620 0
2874 1081 -1532 0
36 -2419 2947 0
-978 -2841 1350 0
-3593 -3062 3308 0
-1501 -1557 1530 0
-688 3717 -2341 0
404 3646 3788 0
-882 -1163 -3739 0
3188 2641 2039 0
3258 -3833 -3788 0
1947 1329 1854 0
1890 2018 -3811 0
1976 1839 -2762 0
662 -3847 -1801 0
-3180 173 1822 0
2512 2028 -555 0
-3443 -1888 -1144 0
-2264 2490 247 0
3132 -3486 3471 0
414 72 -1611 0
2092 -16 -300 0
-83 1385 3657 0
-889 3464 -3528 0
2385 -2214 495 0
2792 3386 2113 0
-713 1902 -1757 0
3755 3054 -287 0
-1482 -1101 2267 0
662 -2520 -2529 0
-2787 -3645 -3150 0
-1258 3807 190 0
-2406 -1816 1181 0
1523 -3821 -3314 0
1282 1610 -2285 0
-2426 -1855 -2110 0
-917 576 1648 0
432 -2522 -458 0
-972 2614 -411 0
-2322 -2138 2858 0
2317 2242 -920 0
-1968 2313 3483 0
-1922 3046 1057 0
-3154 -1016 402 0
2308 -3406 1253 0
-2526 2774 2206 0
-1384 -39 1728 0
3991 -1806 135 0
1570 -3904 -3224 0
1543 -1069 -3873 0
3735 -2416 1205 0
-761 -2022 3653 0
1454 -1700 -1745 0
3511 805 -3760 0
-1549 2368 3971 0
-695 1278 -2348 0
-1018 -819 -3841 0
2429 -3581 -2304 0
1888 -79 1408 0
-3930 573 519 0
-1181 -3043 2983 0
-507 -3168 2016 0
3832 3791 32 0
2207 -3527 1654 0
-3513 -1782 1054 0
-3530 -2687 3075 0
-319 -2609 2644 0
1789 3636 45 0
2203 824 2322 0
-1975 2761 -1237 0
2892 222 -2515 0
3888 -3667 -2051 0
-2848 624 -822 0
-1202 2159 1615 0
1671 -3354 -1813 0
2078 -3329 -1342 0
-3144 -3680 -3709 0
-1088 3489 -2885 0
-2558 -3882 1671 0
-1697 -2126 1512 0
-1139 -3912 362 0
1470 3053 145 0
1698 -470 951 0
-754 -1461 -1348 0
-948 -888 -1434 0
-1588 1001 748 0
3121 -770 -3737 0
2915 596 531 0
-3345 -3874 -3571 0
961 -2127 2612 0
-2699 -296 3239 0
-1289 1905 64 0
3254 397 -3161 0
-1312 -3785 3795 0
3494 -3222 -2650 0
1499 3885 3443 0
3567 134 -3363 0
357 -3861 -2594 0
-2303 2715 1652 0
-2121 1819 -1451 0
-1967 1922 2999 0
3213 1473 -1593 0
3612 -3729 -1424 0
2454 -3738 338 0
-2869 -1608 644 0
3182 3939 -3059 0
2405 2610 867 0
3835 3530 -2843 0
2795 2953 -832 0
-1695 176 779 0
1065 622 -3923 0
1261 -1317 -3938 0
-3602 -400 -1234 0
875 3839 -2220 0
-663 1905 1859 0
-2180 -1399 291 0
-2228 2872 414 0
3927 -93 -1889 0
234 1087 -3512 0
-1654 -3042 3325 0
-3841 -1145 -3438 0
3822 -124 603 0
3039 -1703 -1540 0
2753 240 -2312 0
-1740 931 2195 0
-3550 -1249 -85 0
-3681 -1112 -3752 0
-2279 3632 -2845 0
-1783 1504 -1210 0
-1269 1057 -3440 0
-2238 3204 2448 0
-2878 -3996 -757 0
10 988 8 0
480 -3223 -90 0
-3410 -884 -717 0
1631 3180 2205 0
588 1573 108 0
2820 1713 3360 0
-1244 -713 -2879 0
-1015 -3469 3494 0
-559 -3369 -1072 0
-728 -311 406 0
1347 -2551 -965 0
-2356 103 2830 0
-906 2165 -1879 0
-2938 -2779 -131 0
2151 1867 1356 0
1872 -1844 1606 0
972 -2514 2032 0
1825 1378 -2910 0
770 261 3148 0
-908 -2591 344 0
-2377 -2424 -858 0
2603 219 892 0
3719 -2620 -1152 0
-1340 1341 2109 0
-1003 3947 -2965 0
2595 2414 -1991 0
-3311 -3528 -2777 0
-686 1142 -3121 0
3802 764 -3346 0
-503 3230 1090 0
-1480 -479 2895 0
-1203 2731 3948 0
-1059 718 2069 0
-2054 91 3512 0
-106 3074 495 0
831 191 -3590 0
-1141 2835 2352 0
-2422 -2584 3597 0
2476 -871 2141 0
-2625 -3685 -2745 0
3020 -1840 2533 0
-579 -1773 -3582 0
-2495 2469 1387 0
3013 906 2640 0
-3588 2105 -3770 0
2853 1201 3164 0
-3329 -1559 -1360 0
-1533 3995 1579 0
-3501 -1979 3099 0
3860 3478 221 0
-2630 787 -279 0
-3401 1904 3716 0
-828 -877 -2908 0
1978 871 -1670 0
1854 -3792 -1529 0
85 -2309 -2051 0
-1686 3141 -351 0
-3203 163 3017 0
-1565 325 -205 0
2474 -1578 -2279 0
-3899 3368 2528 0
2207 -2682 1194 0
879 -3244 1065 0
325 -1033 423 0
3417 3027 -2938 0
-3652 -2884 -1646 0
-3486 2163 -3261 0
-3986 -263 417 0
-2947 1207 36 0
2046 -252 -722 0
672 2802 2720 0
-1710 450 -3756 0
1911 -419 -3547 0
-1491 2702 1742 0
-1322 2163 -2167 0
2150 2228 3012 0
2098 -1787 2133 0
-317 38 -2172 0
-2419 -2103 -2164 0
1414 -534 -2888 0
-3513 -3866 -1038 0
-3796 -677 -2598 0
1253 -3678 -1648 0
616 1296 -128 0
-224 1013 -2440 0
-1844 2788 -851 0
781 86 3023 0
970 -760 1571 0
541 -3257 210 0
1376 2068 745 0
-1541 -2506 2644 0
799 1571 1423 0
-2536 2697 33 0
-3277 -625 1686 0
245 -3987 550 0
1191 274 3577 0
1753 -1878 898 0
-2527 1546 3862 0
-3340 -2083 3483 0
-262 160 -2227 0
2635 -3902 3510 0
-3865 -2444 -3516 0
3726 769 -878 0
446 -2344 -1752 0
-3962 -2591 -825 0
3940 -3342 649 0
-2484 2906 -3913 0
1794 -3514 3674 0
2019 -3372 -283 0
903 3197 2111 0
1775 -3174 2296 0
316 3879 583 0
-3672 99 1098 0
2811 945 1164 0
-3193 2682 3471 0
1602 -3514 -120 0
-3056 3691 2757 0
154 -531 -2375 0
3170 1998 227 0
1561 2199 3131 0
2907 2272 351 0
1391 416 540 0
-3455 -2665 -2015 0
224 967 2254 0
3361 -540 -2282 0
3937 -1377 1519 0
-2149 -1642 106 0
955 -1189 175 0
-183 3777 -1966 0
3987 3663 -208 0
2168 -526 -1316 0
3527 428 -805 0
445 -759 -1648 0
3903 3080 -92 0
-3757 335 -3826 0
-1849 1855 -3366 0
3128 1025 3967 0
2129 1308 -195 0
3897 3249 -181 0
-2633 -1649 -1401 0
-1650 -901 -693 0
3104 -2407 -2802 0
1027 613 -1244 0
2525 -3761 -1450 0
1165 -2912 -1242 0
-3648 1393 1415 0
2086 -3810 -2790 0
-2764 2869 636 0
2259 1647 -2555 0
1742 3311 -2980 0
3446 3253 783 0
316 987 2654 0
-2209 -2457 3529 0
-460 2363 38 0
3722 338 1579 0
-152 -3144 -1200 0
2546 -853 1836 0
-1866 550 3520 0
-1264 3550 -817 0
-3475 3046 1985 0
1948 -1880 632 0
1827 3250 -1291 0
-727 -3956 -3748 0
3499 -467 1492 0
-382 -2693 -1424 0
3065 2440 -3711 0
-927 2865 711 0
3441 1233 3953 0
2656 3432 3104 0
2144 -446 -857 0
-375 -2835 236 0
-3666 909 -2049 0
2322 3997 57 0
3956 -2120 -1672 0
-395 3122 1926 0
-875 207 131 0
-3099 -756 -1428 0
-1240 275 1506 0
-2237 -807 3194 0
1204 -2594 3920 0
-2051 -2856 3011 0
-464 -1153 -1952 0
3138 -3615 2537 0
2509 -2727 -815 0
1368 2866 -2096 0
1235 -1348 3260 0
2645 2622 1731 0
1048 -1737 -2350 0
-3084 -2265 3533 0
1476 -709 -3540 0
3471 -3887 3503 0
-1364 -3133 224 0
-760 -582 -293 0
2714 2124 -1273 0
2886 -3034 -2399 0
2600 -2936 2903 0
466 -1574 1141 0
2187 1679 2196 0
-1837 -3147 -1225 0
95 1912 -3780 0
-1334 3680 -3520 0
3670 570 -1331 0
-2147 3263 574 0
1089 -1706 3742 0
641 632 -2833 0
3806 1247 -1557 0
1631 -2150 3626 0
3104 -3470 -582 0
76 -1599 3081 0
1547 -1637 -1861 0
-324 2300 2896 0
-3488 -505 2649 0
1201 1730 -341 0
-619 3207 3294 0
3124 -747 42 0
-3008 -2256 20 0
-504 2033 3538 0
3820 -3337 -2280 0
-428 3089 1523 0
3933 -832 104 0
2148 2051 -1739 0
841 -1618 -1912 0
-333 -2716 2665 0
-329 424 -356 0
-985 3560 -1234 0
-2366 1199 -1709 0
-3581 1715 1752 0
3625 -3279 2186 0
1306 -2675 2552 0
-829 3936 -68 0
-2160 3576 -1036 0
2893 -2595 -2221 0
-852 -1334 -2651 0
2925 -3205 -3959 0
-2634 3346 -124 0
-961 -2498 302 0
-2229 2953 44 0
842 -845 -1350 0
2566 2889 -1000 0
2871 1114 964 0
2674 2499 2586 0
1454 425 -1616 0
429 -3205 -417 0
430 3843 -2779 0
3707 2108 1872 0
3308 481 -89 0
3814 379 -3551 0
3526 -3794 3291 0
-927 1319 -1846 0
2453 -939 2425 0
-3995 -2303 955 0
-1990 667 3823 0
2563 -220 3995 0
-3704 -214 -1075 0
-1336 1206 485 0
2761 -3199 -269 0
-296 1681 236 0
3372 335 -3221 0
2011 -629 2149 0
2730 -2684 -1065 0
-171 -3821 301 0
3200 1971 3339 0
719 -1845 -3604 0
703 -2827 -2525 0
-1227 1173 -3004 0
-3663 3560 846 0
-2681 -757 -1193 0
-1396 -3923 1545 0
2535 2781 1514 0
-1069 1910 -1816 0
3017 -1949 -3971 0
851 640 3650 0
-3573 -2882 3398 0
370 1038 -2549 0
2273 -835 3278 0
2620 2421 -712 0
-1490 3818 -2211 0
1312 -1677 3618 0
1078 1790 3355 0
3536 -1997 3912 0
-2644 1986 3897 0
1078 1547 -744 0
1794 -3317 -3728 0
-3470 -2916 -1417 0
-948 2248 3895 0
-1144 530 -698 0
-43 3171 1484 0
-3667 2185 -2439 0
2707 -405 -3832 0
304 -2413 1903 0
-2750 2805 2910 0
1940 2933 -1383 0
3457 -1310 -1620 0
-2648 -3104 407 0
3976 -822 2599 0
259 -300 -545 0
2475 2405 -1397 0
3735 1606 11 0
-2807 -2414 2035 0
585 -3988 -3424 0
-1912 -2426 -247 0
1580 1604 539 0
-36 -465 -3271 0
1878 739 3811 0
2232 -1545 -640 0
-204 296 2939 0
695 433 -2188 0
-2640 -216 -3117 0
1219 2884 2394 0
429 -3132 1906 0
-144 -3022 -980 0
-729 -2807 -271 0
-3530 1715 -2029 0
3239 3427 3959 0
-752 -2249 1319 0
-1342 1514 -2074 0
518 -3191 410 0
-424 -3074 3534 0
-2993 1957 -104 0
3552 -3159 -2993 0
843 1803 -3314 0
-1322 1033 -742 0
-3301 3036 -3879 0
-1981 -1748 3859 0
429 -2313 1103 0
2559 -2792 2262 0
-708 2766 -2556 0
-807 -3271 174 0
-1685 -1357 -3540 0
324 -2490 3734 0
2633 -2797 -339 0
3419 -3088 -2247 0
-552 1998 1312 0
823 3638 3155 0
3325 -871 -947 0
2663 -1481 -3348 0
-419 644 1203 0
-2835 -3753 3990 0
1240 -3728 -2519 0
-3446 3913 -956 0
-2900 1199 -1784 0
-2212 -2344 2132 0
1763 -573 -2007 0
485 -1500 3418 0
230 -302 -1129 0
290 -3594 1822 0
773 2881 2261 0
3305 -1207 -2559 0
2421 2689 -374 0
-2549 3056 2007 0
58 -1232 -2303 0
2272 -2953 -1617 0
-674 -3482 1493 0
1403 -1767 -1595 0
1409 1044 698 0
-1250 -1393 -2114 0
3146 -1024 2754 0
-863 -2275 -1305 0
1280 -768 2544 0
1265 3557 590 0
-3060 -42 1209 0
1553 -638 3119 0
-1842 -744 3747 0
3148 -1711 777 0
-1336 -2845 -3658 0
1858 -1955 2226 0
-2173 2097 -2397 0
755 3411 -1761 0
3428 -319 3997 0
3805 -207 -3637 0
1299 1077 3371 0
3060 -699 -2827 0
-3215 1317 537 0
-1175 268 1429 0
887 -3753 -708 0
1056 -2920 706 0
-3786 -2929 3814 0
-1755 2554 1253 0
2512 702 -1572 0
1643 2901 304 0
-3605 -3358 -957 0
-3313 -2723 -3441 0
1004 -867 -3179 0
193 -3145 -505 0
1595 -3522 -1792 0
-2172 -743 3062 0
1374 1948 3300 0
-2308 1335 -453 0
2828 -687 3486 0
3429 -1887 3051 0
-2921 -209 2335 0
-2603 2574 -411 0
-3065 -1476 2610 0
2338 -1362 2662 0
-381 3243 2492 0
3758 -52 -46 0
3339 3591 -3074 0
2176 469 1956 0
2419 2350 1303 0
1534 -1281 1878 0
-3910 405 -446 0
-1020 -403 1614 0
-769 1769 3988 0
-1111 1696 -3783 0
458 1273 3234 0
3985 2093 -1970 0
3322 3728 2574 0
1474 2658 -1576 0
-2829 -3032 1258 0
-2618 3820 -2311 0
1233 3049 1105 0
3070 1857 -1916 0
-2463 3701 -571 0
221 2685 739 0
1779 1694 107 0
3921 -3385 3042 0
3773 -1422 -2412 0
-3313 -3766 834 0
-3662 427 -3523 0
-3902 679 -3096 0
829 3874 2041 0
-995 3586 -3769 0
-404 1896 -631 0
-3148 1730 -684 0
879 -1873 -749 0
-468 279 1741 0
921 -1286 1853 0
-637 -510 690 0
3651 3276 -2434 0
-1139 -64 -1264 0
326 -1199 2846 0
711 -101 1238 0
3087 -1131 417 0
1730 -2244 2915 0
-2492 2675 2408 0
2720 1105 530 0
745 -2443 2462 0
-3196 -2338 -1282 0
-3369 387 3563 0
2832 756 -282 0
-638 2129 3906 0
441 3341 -3728 0
-3327 1128 -948 0
1902 2216 -2079 0
1409 -3113 1969 0
3090 -1327 1264 0
-367 -3937 -998 0
2582 -1405 -3016 0
3015 -2373 -3345 0
275 -3187 1333 0
-917 1616 2728 0
-1528 -3115 -3236 0
-3557 -3464 -784 0
-122 985 817 0
224 -1499 -3559 0
1887 -3361 -3117 0
-795 -3020 -3610 0
-2699 -3603 -2883 0
3604 2032 -2493 0
882 -522 -3061 0
409 -247 -1930 0
-1531 -3628 -1989 0
-3779 512 3624 0
-3023 1740 -58 0
3519 -798 1845 0
-309 -286 -3568 0
2851 794 3457 0
176 -3640 2928 0
3815 -3816 2358 0
-1249 -853 1829 0
-1407 141 2884 0
-599 -781 2311 0
-87 -3889 3330 0
2704 2713 1657 0
3789 1196 -390 0
-1594 -3816 479 0
-332 1053 1419 0
-310 -1270 -1486 0
-662 -1120 -1730 0
1880 3012 -1079 0
290 -2667 500 0
-3210 -431 -3876 0
-1747 -675 2796 0
-1804 2052 1395 0
1258 -2393 3598 0
-2404 2773 2659 0
-2455 3789 -1719 0
-276 697 3475 0
2748 -3705 -2600 0
-1796 -90 -2320 0
-2748 1891 -334 0
3486 2182 503 0
-651 -2924 1016 0
602 2057 3455 0
-2866 -78 1110 0
352 3782 -2053 0
-3326 -2349 -3773 0
3057 3084 1405 0
-1040 -2063 -2802 0
-2897 -2482 2784 0
-2858 3415 -181 0
3566 -2226 -3059 0
1497 -305 -10 0
3597 -3909 -65 0
1779 -3622 152 0
3186 -3327 -1259 0
3547 382 -3437 0
3205 -2810 -2105 0
3103 -71 -1217 0
-2555 2461 1185 0
-2026 2601 -2962 0
1702 1430 1866 0
1808 3796 -3373 0
-44 -1960 1963 0
848 2799 162 0
-835 3178 3296 0
533 1413 -2365 0
3052 -3276 -2394 0
-3312 -761 2996 0
1476 -1949 -763 0
3569 720 -1191 0
-3904 -593 63 0
-2255 -1146 -1745 0
2179 2384 3125 0
2300 1341 -2096 0
2165 -662 -409 0
-1929 -647 -141 0
-2855 -1135 -2661 0
-1044 -1805 -1806 0
1364 -1103 2761 0
2510 -3640 -3799 0
-889 2858 2875 0
-3789 2791 230 0
-1428 3998 -1981 0
-37 -348 -1644 0
-3518 -1470 3148 0
3158 2543 2418 0
-289 3752 3816 0
-3151 -324 1716 0
2233 304 -1297 0
1865 -1025 1842 0
-3730 -3309 835 0
-3604 -3882 -2174 0
2890 2517 -3012 0
2912 -2271 3476 0
3883 2902 3604 0
-3870 -2746 69 0
3032 -250 3494 0
13 -2146 2182 0
1648 3844 3558 0
2052 2070 -1988 0
160 -2262 -1138 0
-610 -616 195 0
3364 -1053 -3849 0
795 -1612 2849 0
-1796 -717 1656 0
-408 2113 1361 0
-1710 -236 -2294 0
-2085 2888 2895 0
2541 -1524 -2933 0
-2011 -1655 -3837 0
-151 493 -3236 0
-430 1478 -1979 0
2081 -343 -3910 0
-500 -810 2077 0
1771 128 -2250 0
948 1525 -2357 0
3495 -224 3553 0
3572 -3547 -1647 0
493 -818 -718 0
980 362 3002 0
2123 3977 1727 0
-2439 1792 793 0
2027 3195 985 0
2534 -643 3976 0
2837 306 -2052 0
-1252 412 3333 0
3961 -1109 -26 0
2689 -3723 1630 0
1853 1507 -1260 0
-817 288 -2740 0
1432 3882 3249 0
-3306 -624 -1790 0
761 2420 -2566 0
1570 -1038 244 0
2567 1171 81 0
1998 1797 2676 0
916 3313 -3633 0
-1988 -1750 -1011 0
-3732 812 -2877 0
385 -3228 -3906 0
-2034 1499 -663 0
1182 2739 3288 0
30 1443 -3251 0
2028 -3598 -3086 0
2352 671 373 0
2482 -2009 2120 0
-1659 1119 3526 0
1199 3767 546 0
3776 -1494 -3391 0
-25 -2089 858 0
-3669 1277 -433 0
88 -1174 1228 0
-1608 3167 -963 0
1585 2976 -1799 0
-1291 2217 -2230 0
-3334 1731 2143 0
2238 2236 -2860 0
3683 1224 3946 0
1883 -3695 -3409 0
978 -1215 -2108 0
1020 -3882 2385 0
-2702 1819 -2971 0
275 1662 -2293 0
-3122 -3804 2590 0
1386 -2180 3030 0
3122 3308 1126 0
-265 1673 -2118 0
2920 454 3173 0
2690 2990 -2531 0
-866 1890 20 0
-1709 3150 -2988 0
1184 -1444 -2970 0
-742 3060 861 0
3918 324 -3502 0
-3566 1395 1999 0
-1610 3796 3169 0
772 3213 -865 0
2084 -2268 1363 0
-2785 3371 -3659 0
-530 -3625 -2904 0
-504 -2969 1949 0
1616 476 -3699 0
3043 652 -2406 0
944 -659 -3043 0
3525 -2355 1524 0
-1111 2960 -1355 0
-2902 376 1801 0
-722 -2072 3037 0
2844 1422 -3912 0
3183 2818 227 0
-3193 -3848 -2781 0
-3534 605 -1754 0
-1113 164 -619 0
-3123 2482 -2271 0
-406 -3610 -522 0
-349 1772 -743 0
-2086 -1623 -3661 0
-3435 1032 1766 0
2506 -3784 -486 0
-592 -69 2117 0
3403 2906 -630 0
1422 3664 3598 0
-3033 2644 -1163 0
-691 -755 -1891 0
3602 -2582 2892 0
1507 2562 1177 0
-1837 1791 2407 0
3932 -2317 -273 0
-553 -1162 1605 0
-1879 3768 242 0
-1116 -1338 3681 0
1544 -1283 1081 0
-3874 -3402 -2416 0
-2516 -3850 3953 0
1590 3367 -3840 0
1353 328 -2858 0
-354 -3761 -1206 0
2050 -3137 -2729 0
-3951 -2468 -2039 0
-3573 -1397 1770 0
1827 2940 -1178 0
-3679 3907 2597 0
-1713 795 -661 0
-2239 2730 481 0
3696 -3743 2134 0
3110 3908 440 0
3227 -1336 -2104 0
-1840 -1496 -2230 0
37 883 -1786 0
-1989 -1267 -126 0
-3880 2017 2892 0
537 1228 3235 0
-3958 -2579 1383 0
-3131 2749 -434 0
-3518 3228 -225 0
-3455 248 2425 0
3296 3690 3796 0
2011 1167 3341 0
-2778 -3238 -1973 0
-3422 -3569 -370 0
2965 2262 -114 0
2681 2097 1655 0
-609 -1239 -1994 0
-3324 1617 3616 0
3450 -3085 -2308 0
-3567 -1790 -358 0
3285 -3454 -1015 0
-1806 2636 -1864 0
-1103 -1412 3624 0
-2464 1194 -3680 0
2978 2011 -2218 0
1804 2845 -1893 0
344 3936 -2871 0
3171 3237 857 0
2749 3289 -236 0
-742 329 -711 0
276 1898 -2680 0
2814 -3832 376 0
-2393 -385 218 0
-3748 1695 3559 0
-449 -1220 241 0
235 -2266 583 0
2886 -3247 -2036 0
1425 751 3828 0
1340 -1457 2769 0
3476 2976 3265 0
-2988 1575 -2933 0
-960 -3183 717 0
2076 -2171 3496 0
-2413 3254 1123 0
-3702 -75 -3992 0
3176 1269 2536 0
274 -2259 233 0
1821 1599 -3574 0
515 2472 150 0
-2425 -1938 -1492 0
25 2312 1051 0
-2149 -2740 3339 0
-41 -1892 -1077 0
-84 3463 -2634 0
1938 -1516 1078 0
2839 -598 -204 0
1101 1222 953 0
2924 871 -2904 0
2285 -262 2227 0
-1213 -3863 2716 0
-2382 -1828 1630 0
2137 -2908 -3668 0
3922 3858 -3970 0
3314 -3885 2156 0
468 250 2797 0
-3036 -346 -1566 0
-1010 -821 -2323 0
-3560 -306 -2204 0
-1854 -2866 -3641 0
1815 1214 335 0
1710 -1706 -1432 0
-3740 -3753 1085 0
3557 -2932 57 0
3493 3225 462 0
2921 3276 -688 0
-1568 3126 1480 0
3939 2375 3696 0
3390 2501 -3591 0
-2624 -2112 404 0
-1927 -3310 -3189 0
-433 -3771 1999 0
-785 -3569 2957 0
3284 -1595 842 0
431 562 1052 0
-3262 99 -2776 0
2813 2100 1675 0
-1981 -142 2804 0
-3962 -2185 1506 0
-347 1851 -340 0
3624 -3831 3617 0
1970 3596 -2480 0
1878 108 2125 0
-735 646 570 0
1231 -474 -831 0
237 1245 -3907 0
-3655 218 3726 0
-506 -2561 1459 0
-3289 -2553 2052 0
1859 310 -3218 0
-3954 2826 -1914 0
-882 -2810 3741 0
3046 601 -92 0
2172 3711 3003 0
-3266 2301 2549 0
3766 494 2272 0
-1571 1640 1585 0
-3111 -917 -1384 0
-1896 -2052 1289 0
3201 -296 -434 0
-3962 2047 2374 0
3960 -556 -2359 0
2111 -2963 1703 0
-23 -1374 -781 0
238 -23 -813 0
-5 -2702 -30 0
2007 1678 2162 0
1691 -3136 -2265 0
-1819 1772 -114 0
2170 -3958 60 0
-3401 -1530 2775 0
-882 -1406 -3179 0
-3565 -3952 693 0
-686 -3170 1783 0
1048 3093 -313 0
-3978 2810 -657 0
-3832 2898 334 0
-3228 2057 -1283 0
3613 -2797 2010 0
2393 3945 131 0
3094 -529 -3969 0
-3662 -2191 -1191 0
406 -2240 -703 0
2153 2276 -1227 0
-3712 -805 -3239 0
-1679 3984 8 0
1528 3035 2845 0
-1483 1304 -3002 0
-1955 812 -441 0
2485 -3589 -1920 0
3588 -1772 1593 0
-2330 3194 -2665 0
447 2034 -2071 0
-1779 -3992 1018 0
-1135 3779 2970 0
3808 -2105 2220 0
1535 923 423 0
3873 -484 -2057 0
1190 3678 -2062 0
-660 3915 -3997 0
2437 3273 1669 0
2833 200 -2132 0
1859 -2449 1625 0
1179 -530 -2904 0
12 -355 -2377 0
-3599 1294 2171 0
325 -2296 -571 0
1434 -1460 -1099 0
31 -1534 3416 0
-3033 -212 -2548 0
49 -700 3968 0
-1167 2960 1031 0
2910 -1023 -3934 0
1946 -2633 -3918 0
49 -3158 -294 0
-2772 -1124 1404 0
1841 -201 -3485 0
-3688 -2976 -3859 0
436 -1008 -866 0
-1349 -3991 2365 0
1901 639 -3233 0
3759 -1908 3959 0
912 -1130 2717 0
-1854 -3946 1124 0
-2271 2961 2544 0
1708 3123 1802 0
-3182 -1109 -3530 0
-950 2800 2556 0
3457 3716 -2472 0
-2964 136 -2377 0
2984 -2428 1338 0
3691 -3921 -3785 0
-2287 -3339 2547 0
-2041 482 -3777 0
-1551 3808 -1947 0
-2795 1158 2965 0
2765 3209 970 0
-1578 -602 -3315 0
-1081 -3512 -2068 0
196 -1974 -3696 0
-190 -3810 -3699 0
1285 -1523 -2072 0
-3251 -2141 1240 0
11 709 3335 0
-974 -1332 -723 0
1826 2727 960 0
1445 1162 -614 0
-3667 -2890 -3232 0
1927 -2231 2587 0
56 -2775 3979 0
-543 -1403 1463 0
3977 -929 1002 0
3000 -640 1636 0
-3301 -1529 1329 0
-1663 3874 -3772 0
-3659 -2062 -3889 0
-1213 2089 -2285 0
478 -2018 -3473 0
-136 -2655 1942 0
-146 1950 747 0
459 -1099 -2532 0
826 -747 2409 0
-2579 -1687 3377 0
1426 -2383 2403 0
-191 1270 -3929 0
-1339 -2116 -2024 0
-329 -2749 -3923 0
-1426 1015 -1697 0
-3268 -937 800 0
452 3585 -1397 0
-2539 -1399 -2938 0
-364 -2072 -3652 0
-1949 -1347 3626 0
1481 3823 3819 0
2353 -1824 -3990 0
2028 -1912 1099 0
355 405 3765 0
-79 1854 -1336 0
-2763 2064 -2764 0
-1904 -1027 -240 0
1378 -731 -1409 0
2132 -3493 -251 0
-1776 -1550 1646 0
1361 2376 2520 0
2074 1142 754 0
-1994 -2684 994 0
-824 18 -3986 0
1713 2202 -2059 0
-302 -1278 2203 0
-3292 -806 -11 0
-3727 46 635 0
-2558 34 94 0
3391 322 3610 0
340 94 261 0
-688 -3363 1504 0
252 3615 2242 0
-2887 3170 1415 0
2719 -202 -3943 0
163 -1293 -3368 0
-217 1571 -2861 0
3940 -665 -2929 0
-3606 -3488 3590 0
-2603 -2183 -2307 0
714 -528 158 0
2477 -1139 -2593 0
3880 445 3761 0
1375 -3907 1724 0
237 -1820 2028 0
3060 3413 2875 0
-1491 -3610 -3149 0
-58 -493 1419 0
388 1254 -3383 0
-2811 -2638 -320 0
2935 268 3224 0
-1239 3742 -3441 0
-2585 1920 3350 0
1897 -1083 782 0
-3537 1952 2806 0
-3598 3265 -3146 0
1377 -2772 -235 0
-1285 -337 3531 0
-902 -2443 -1661 0
-598 1668 -3131 0
1776 -2925 3685 0
-2012 766 -1347 0
848 2323 2593 0
1244 -3101 2867 0
-1874 -734 -3696 0
1112 -3312 -3098 0
2918 1219 1120 0
2153 -3255 2714 0
-1103 -1032 1384 0
2675 -2026 -2442 0
2893 928 55 0
-923 -1000 -2321 0
-2658 -3441 2626 0
3055 -2511 -1600 0
-3071 -2206 1404 0
2636 -1751 -1370 0
143 3253 -932 0
3707 1192 2463 0
2459 1385 -246 0
-157 913 -798 0
1902 2622 369 0
493 -2132 3498 0
2895 -3603 503 0
2128 -347 -3750 0
-3873 -3438 -3279 0
692 1378 898 0
-978 -2863 -3690 0
-1441 -443 2930 0
-2923 -3797 2960 0
2831 -3194 1052 0
-704 1739 3933 0
3997 171 2653 0
1369 -3131 -355 0
878 649 -2351 0
-2678 3182 1159 0
2093 904 3666 0
-3796 -2003 -2245 0
-743 882 -1090 0
-1314 2992 1127 0
371 -2167 -2315 0
3699 16 -3510 0
-2871 -2382 3103 0
1069 2997 -1482 0
-2630 -3448 3866 0
149 -3220 -1710 0
-1788 -2572 693 0
-1302 -2533 -690 0
-271 -3732 2793 0
-2618 -2240 -475 0
3861 -1506 -828 0
79 -2323 -405 0
-3127 1475 2590 0
1184 2152 -3551 0
782 -2446 -3855 0
-2966 3867 -1597 0
-1918 -1272 -731 0
-2153 -1426 -2661 0
1856 -2171 2960 0
-2054 2135 1037 0
3979 -206 1950 0
-3647 3093 -3963 0
3924 1396 -1340 0
-2730 2483 2915 0
1536 -2190 -3360 0
1083 1885 -703 0
1074 2824 -1902 0
-2187 2433 3516 0
3998 -3909 -945 0
-1798 565 2217 0
-257 -3725 824 0
3464 -857 535 0
-657 2040 -3977 0
1643 -2578 1403 0
-2015 977 -1542 0
-1765 1033 -800 0
-3791 119 2062 0
3910 -898 -3092 0
-854 -800 -3258 0
-1185 48 -1959 0
2519 2168 -2999 0
-920 3648 -3529 0
1392 1284 -1566 0
1991 -3959 2104 0
1414 3639 -2013 0
-1343 -347 -2434 0
-290 3161 2394 0
-122 1864 2261 0
-1730 -1918 3071 0
224 -275 2768 0
1899 851 -3096 0
734 2535 3033 0
-3237 -3650 -3501 0
2977 -632 -2555 0
1694 2780 -3878 0
407 3352 -2987 0
-3515 -2257 442 0
733 -3576 906 0
-1470 3816 1639 0
-1139 -1714 -2004 0
-1862 -1972 -3510 0
-3081 2911 -3658 0
-5 455 -2442 0
-2612 -618 2683 0
2588 3578 3724 0
2999 -985 117 0
2847 -3242 3166 0
-2058 2033 -1235 0
-2542 -3828 337 0
-3859 -168 -3020 0
-3171 1354 -3293 0
-3876 -173 1046 0
-997 273 2328 0
3503 -464 -3722 0
302 319 -1615 0
-799 -528 1607 0
3740 -3065 -1317 0
439 -2692 -74 0
1289 2181 1741 0
1759 1830 1981 0
-2533 -1685 3794 0
-3259 -695 3494 0
-3570 3079 -69 0
-1525 1265 2484 0
-915 1914 -3419 0
1090 631 -1191 0
-1758 -1875 -3822 0
1085 2820 268 0
-1972 2076 1435 0
3561 1880 2218 0
640 -897 -1819 0
-2103 2580 -2836 0
-447 -1053 -3761 0
18 -3526 1268 0
-3299 -3522 2562 0
-1248 1642 3815 0
-2247 3283 -1896 0
1864 -1820 2651 0
-619 2721 -1434 0
-2719 -305 2406 0
-3241 1297 -3437 0
2281 391 1860 0
-2094 610 -1006 0
-3927 3223 583 0
3612 -1510 -3333 0
-1523 2275 -3452 0
-1141 -2109 -3717 0
-809 2354 -3937 0
-3967 3828 -2027 0
1724 -1456 -1581 0
-1352 3045 -1665 0
998 3868 392 0
3685 -330 -1714 0
2810 1207 -509 0
1659 1279 -914 0
-2013 1115 3618 0
-172 1815 -3488 0
-1184 3190 3352 0
-3190 3005 -1969 0
-578 -2042 1418 0
2405 2726 -2342 0
-1779 -3294 -2049 0
-2861 -205 1466 0
-1123 -3277 2537 0
1179 3669 -1062 0
238 -2353 1025 0
-2818 2504 3947 0
-2743 462 -3687 0
1720 3064 2989 0
13 3903 -3004 0
3829 1166 -2076 0
696 -2778 947 0
3097 1470 1382 0
3904 -987 -1534 0
-122 3977 -349 0
-1064 1110 -1478 0
-3637 -145 -2772 0
-605 1880 1863 0
2345 -188 3468 0
2463 -901 2989 0
11 -1987 3798 0
3776 -1418 -850 0
-3496 1544 3770 0
3386 3831 2062 0
1047 471 -605 0
3804 2189 -1034 0
-1526 462 -2749 0
3437 -3228 -3864 0
2705 2736 2651 0
1928 -2602 -3134 0
1916 -199 -3308 0
-2549 -3178 -1991 0
-1770 -1957 -721 0
1614 -2381 73 0
333 -3725 -2298 0
2977 2996 2733 0
-922 548 -544 0
-681 -1491 -3981 0
3010 -1849 -3079 0
-1766 -2864 -3725 0
-2944 -640 3453 0
2851 805 3898 0
-3461 -2598 273 0
556 3066 -382 0
1255 -1040 -1353 0
-3254 -1931 -2219 0
-2255 3498 -625 0
-3062 3605 -2891 0
1941 466 -1212 0
-2903 3541 -3180 0
-1277 3309 389 0
1638 875 -527 0
-2149 -3681 -3372 0
1148 -902 -186 0
-2445 -2048 2193 0
1590 509 2952 0
2733 1536 1630 0
2245 1082 -828 0
2746 -1364 -2941 0
-439 961 -1144 0
-387 -3825 1513 0
-3179 1895 1969 0
3486 -2639 -1542 0
-1791 694 2420 0
-361 3799 2505 0
-2346 128 619 0
2013 207 -88 0
629 3179 -1642 0
-2783 3226 -2185 0
-2738 -3027 1500 0
1459 -2863 2591 0
-3630 2533 -1094 0
-2987 1117 274 0
3704 3174 1528 0
1636 -2323 1356 0
-121 -2319 1701 0
-2460 613 289 0
-2064 3203 -171 0
-2031 646 1924 0
-3037 -1636 -2344 0
3781 -3462 -3130 0
-3002 -3213 655 0
3973 -3291 -3483 0
-906 3797 -3807 0
30 1704 -61 0
-2766 -1411 -371 0
3102 -3993 -3652 0
-2416 1115 -1518 0
-3451 3881 11 0
3126 -437 1402 0
1161 -177 -1557 0
-2166 -702 -3297 0
404 -345 2449 0
-2586 -3362 2518 0
-3319 -1193 498 0
-3281 -3054 1221 0
2035 -5 14 0
31 -2565 -823 0
362 -2864 844 0
-2904 2187 2074 0
-83 -1578 2376 0
1485 -1633 129 0
-3698 3601 -744 0
-884 -2112 2445 0
3025 -2609 -1821 0
-3363 1511 2901 0
-3464 2531 2198 0
3301 -3166 2625 0
3602 3936 3109 0
-202 1578 3497 0
-2375 561 -3400 0
1539 -3720 193 0
-1906 -733 -3930 0
-3174 -3633 2138 0
-1844 -1443 2633 0
3819 2638 -1409 0
2889 -1766 -2478 0
3927 841 -1741 0
930 1665 3979 0
3987 -977 3933 0
-1928 -2509 2570 0
1600 -1451 3020 0
-772 2674 -3664 0
-2729 -1536 -3851 0
3823 -98 291 0
994 -201 2910 0
-3859 -1814 -345 0
-972 2783 724 0
-1541 -3222 2805 0
-2650 -2657 -836 0
1991 -720 -3380 0
-2978 1531 -3403 0
1163 880 -1903 0
-2592 1876 -2804 0
1585 -1492 3157 0
-339 -1987 -754 0
-3393 -1213 1876 0
2704 -3826 3398 0
3510 -2685 428 0
-1640 -1713 -2545 0
2883 1517 252 0
2569 -2280 -1861 0
-130 2954 -1883 0
1567 3380 1233 0
-3977 3961 -1011 0
2963 -586 326 0
-2034 -1974 3900 0
3698 2734 3710 0
-18 2248 -1605 0
388 3808 2884 0
-448 -30 3740 0
-332 2321 -217 0
1692 3293 -2334 0
-42 -3831 -341 0
-2511 -884 2263 0
2984 2872 3841 0
-594 -2923 3035 0
134 -304 -2577 0
-1840 869 -676 0
-3366 -2640 -2893 0
-333 3156 3901 0
2474 530 -2392 0
3810 -330 1458 0
3264 -2658 -3600 0
3586 3310 -3071 0
-1989 -3887 486 0
-3359 -1928 -2142 0
-65 407 3067 0
-2913 -2769 1271 0
722 -2253 1934 0
-2281 -2640 3099 0
2295 -3846 3919 0
-777 -1415 1990 0
-884 -577 -3552 0
-3505 2587 3651 0
-3179 -1411 -3020 0
2383 3086 -1959 0
39 -3249 3071 0
-2573 2897 -2317 0
-3180 765 -124 0
3802 -3875 -2768 0
-3578 -1576 28 0
1989 3339 3786 0
-3174 -2531 954 0
1657 294 -722 0
-2018 -3363 -478 0
-3307 -747 -713 0
2638 -1055 -345 0
-163 -2363 -1490 0
3612 1706 -3016 0
2054 -2804 942 0
1671 3938 -3260 0
3737 -2381 2311 0
-1432 2952 3120 0
376 1089 -1469 0
-499 472 -3876 0
-3665 369 1755 0
1865 694 -2028 0
1760 2950 -514 0
1820 -3545 -3602 0
-1035 -3578 2737 0
-2589 1266 -3237 0
740 -2457 2685 0
1946 -311 -585 0
308 -2965 -1584 0
2275 -3943 2966 0
-1568 -3380 3542 0
1227 -2710 -2965 0
-1682 -369 601 0
11 -2689 -2909 0
-3846 -3596 3226 0
-248 3164 -769 0
1828 -3204 1790 0
2962 -1751 -3693 0
685 3500 3311 0
-1777 -3982 2726 0
3420 1682 -1360 0
848 633 -151 0
2558 -2785 -2347 0
-3825 2142 -2426 0
-843 700 -2101 0
-3510 1057 -1518 0
-3027 -3610 3135 0
571 -3449 -347 0
521 -2259 -1440 0
504 2812 3174 0
-141 -2668 2274 0
3224 333 3890 0
82 2993 1852 0
2646 3612 1116 0
2994 -992 -128 0
2425 -1117 1188 0
1764 3231 -396 0
3342 1206 -862 0
1626 -1007 -2987 0
-3732 1925 -2726 0
-1267 1517 577 0
3643 -3866 -1609 0
-2631 -3055 279 0
3720 -281 -687 0
-2518 818 2163 0
-2452 -1424 -632 0
380 3125 -3762 0
1755 -1519 -3912 0
1270 2670 -1083 0
-1168 -3764 1415 0
2418 -1173 213 0
-830 1040 -3178 0
2465 3048 -1942 0
-1523 -1403 3287 0
-3809 3545 1944 0
-2987 -653 1886 0
-894 1599 1155 0
2806 3657 -1062 0
1364 -3846 682 0
-112 -3242 1431 0
-3411 -1334 1515 0
2931 -1938 -1008 0
-3985 -1213 1203 0
1909 -3516 -3447 0
1221 -2294 -1749 0
1530 938 3589 0
1688 -3829 3108 0
2485 3727 -2861 0
1524 3501 -1050 0
3809 2339 -3627 0
-177 1168 1691 0
-2009 3631 1161 0
-2840 -3985 54 0
-3455 -2092 -2227 0
-209 -2070 -2090 0
-1935 -12 -376 0
-144 -3825 -3640 0
-483 3886 -1120 0
3027 -2665 1025 0
-586 -393 2265 0
2760 2011 -2212 0
499 2277 -2489 0
-3285 -962 2197 0
-393 3109 -189 0
-3145 -3282 2755 0
1315 -2287 -3691 0
1978 -1427 -3043 0
2223 3932 242 0
-2464 1491 2839 0
-315 868 -3279 0
-789 1789 1896 0
-3325 -2969 3727 0
882 -888 2581 0
2659 2611 -1938 0
3820 -192 3664 0
465 -2999 1254 0
-1207 -3149 -2608 0
-3663 1720 2210 0
-983 3664 -828 0
727 -3666 -3475 0
2264 3614 1039 0
-3178 1514 -515 0
-2829 -2842 -2766 0
-3623 -2961 -2278 0
-2054 -1362 -922 0
2535 -1696 -3513 0
3703 3605 -2577 0
-2928 -1134 2709 0
1191 -3213 1817 0
-1467 2899 3590 0
-3775 -1383 -3400 0
1576 -3867 -2350 0
1313 2486 -1761 0
1458 1991 1489 0
-2259 -887 -3198 0
3486 -2727 -429 0
-2479 -1379 2285 0
-388 3744 -1312 0
2784 -2178 742 0
2649 679 -3560 0
-1545 3692 2178 0
-492 -2552 389 0
2974 -2150 -1111 0
-3609 370 3714 0
-2384 1535 694 0
3472 -2190 2889 0
-728 -307 -3644 0
1902 1794 2441 0
-376 -2112 -2299 0
258 -356 -1133 0
1502 1183 2549 0
-2851 -656 -2143 0
508 652 1727 0
2885 1151 3947 0
3205 -2912 -2482 0
-2524 67 -539 0
2618 864 -1358 0
-1099 3236 -3249 0
-3325 2540 -3006 0
-14 2357 1805 0
1994 -2207 -3535 0
809 -3465 2127 0
-2577 632 -576 0
871 -1376 3013 0
-582 3728 2437 0
1598 -1253 1913 0
2125 -2671 80 0
-3860 577 -1523 0
-2830 3561 2106 0
-1331 -1568 -3842 0
836 1242 3665 0
-89 -1242 1017 0
-2950 -941 -3009 0
-2437 3217 -1026 0
-1709 1884 -2213 0
2938 3162 3614 0
1261 -1550 -2950 0
-433 1637 1503 0
-1256 -1436 -1832 0
-1056 368 2611 0
27 3282 -2388 0
2645 -2363 1954 0
3072 1968 735 0
-683 864 2639 0
-2898 -3227 -1442 0
-3521 1187 -1618 0
1262 512 2216 0
-3250 -763 1899 0
-1210 3560 -930 0
3016 -799 -3789 0
1967 -662 3706 0
93 1 -3565 0
1794 -5 -2613 0
3106 3338 3918 0
2611 1119 1771 0
-367 -3337 -455 0
-2052 3845 -1732 0
3777 -2426 -2026 0
-2426 -1740 1958 0
-2826 2785 -830 0
2776 3339 2023 0
-3810 1663 -3533 0
-2679 -3317 -73 0
-925 -1366 2960 0
-1270 -1876 2860 0
443 -3510 -2950 0
-1480 3930 1427 0
-3011 3462 3667 0
-3678 -3044 -2416 0
-1039 3059 -3051 0
-816 3520 3771 0
1934 -3304 -3212 0
-2541 74 -1633 0
14 2661 -2742 0
-2938 -566 -2493 0
1590 -1084 2354 0
-1135 192 3342 0
-1092 -622 -3578 0
2321 3073 -2136 0
-2378 -1488 3935 0
1067 -853 -3844 0
-1929 1677 991 0
-1368 -2710 -2148 0
-2165 2050 3486 0
2575 722 1838 0
3111 2478 1838 0
796 -3858 1760 0
-1565 -710 -1469 0
2813 765 918 0
-3278 3083 663 0
-2480 -1293 14 0
-1921 2789 -2231 0
-3587 199 2092 0
3475 -3731 3368 0
3386 -2402 -2042 0
-1446 2262 416 0
331 2022 428 0
3246 2061 -3182 0
1447 -1957 -3631 0
2533 -1907 460 0
406 1812 -3244 0
-1795 -194 -1176 0
-1934 -276 -1322 0
3417 -2875 -1238 0
2917 3419 -1895 0
-629 -1504 -3620 0
-252 -1779 2995 0
1073 816 -2469 0
-3615 -27 -2657 0
500 619 -2486 0
-2163 2462 -2629 0
-3897 2550 3644 0
2925 -3485 -132 0
1129 -3945 3174 0
2353 -1614 -646 0
-2973 1476 903 0
-823 1727 3712 0
-704 1188 344 0
-554 -2086 1163 0
155 -1523 -3990 0
1429 -3097 -3378 0
1856 1559 -1168 0
-1325 -3142 -1122 0
-217 -3376 950 0
3796 3164 3805 0
2041 2816 -1163 0
3437 2465 2217 0
365 -791 -1636 0
1376 -3375 3735 0
501 -906 -1959 0
-2955 -3361 -3526 0
3196 2800 2408 0
-2085 198 -3247 0
-3280 2971 2353 0
3459 1398 2087 0
3636 3735 -1375 0
-1491 3544 513 0
253 -1582 2555 0
147 -3338 -1908 0
-3366 778 730 0
744 116 -1460 0
-3731 -755 461 0
-426 -73 3868 0
-2825 -386 -3463 0
-1829 1754 1299 0
-2132 1049 2190 0
-1328 -2802 -3357 0
1243 -150 3841 0
-3478 637 -11 0
-1152 -24 971 0
2600 -453 2892 0
3310 -3659 2291 0
1916 -15 -32 0
-3203 -2420 3334 0
3338 1911 -2425 0
1860 -3488 -2148 0
2728 -2398 -3690 0
-1364 3580 2752 0
467 -837 -2766 0
3257 209 3841 0
-2291 666 -529 0
-3201 21 -2702 0
176 -2671 -3638 0
-3441 2534 -349 0
-2012 -1328 -826 0
205 -916 1353 0
2629 1402 -1551 0
-3981 -1462 2839 0
-112 -3203 -2025 0
-1198 -2207 -3286 0
2605 3380 3975 0
-821 790 3121 0
-3615 764 3758 0
1214 611 -2588 0
3747 1102 1220 0
-2052 -3647 2744 0
-1674 1320 2809 0
724 -532 -950 0
1479 -2935 -3156 0
3534 -65 2386 0
-254 -284 -3191 0
2135 2194 -2432 0
-777 1163 -3545 0
-201 3345 2187 0
864 -3523 2402 0
-2259 -2717 534 0
-1230 2644 -1455 0
3399 -3742 -20 0
199 -3865 2135 0
-2480 3752 -2506 0
722 -2578 3694 0
-1125 -3888 -3343 0
-1282 1182 3632 0
-3126 -65 -2580 0
-3250 -66 3245 0
-3189 -1564 2946 0
-2321 3609 -70 0
-1759 1847 -2906 0
2208 -2090 -2680 0
-1987 -1795 155 0
2651 2140 -1210 0
-870 -273 1249 0
-621 -1387 2380 0
1444 -77 3997 0
-1373 -2429 3718 0
-3250 -1030 -856 0
2910 3007 3294 0
-3417 890 2792 0
500 -1579 3154 0
1658 2058 2019 0
2291 51 -1122 0
-2320 -1665 3524 0
707 716 -266 0
-2704 -19 1334 0
2560 3641 1841 0
-3245 1192 2280 0
-1235 3582 3482 0
421 -595 1649 0
-1856 -536 -3034 0
-1003 -2422 274 0
1702 -908 3544 0
-2725 -2699 -2044 0
-455 2838 2263 0
3494 1778 1258 0
662 -2135 2193 0
-3848 2290 -2 0
-777 -714 3519 0
3514 1416 734 0
-2604 -3278 956 0
-2267 2835 -2143 0
2740 3167 783 0
-2329 3754 116 0
1327 2909 862 0
1686 3243 1664 0
2698 1740 3884 0
2889 -2945 -1344 0
555 -505 1627 0
1377 1396 192 0
-3416 -126 721 0
3160 -2967 -1386 0
-416 -739 2078 0
-3109 389 -1062 0
1230 875 -247 0
2837 3366 -2593 0
1243 -191 -1784 0
3911 3027 -1003 0
-3487 2005 -3166 0
-3782 -419 -1732 0
-2416 -3056 -775 0
-3862 3728 -3631 0
1071 -422 675 0
-3565 1521 1294 0
154 -2147 3717 0
-3404 1492 2377 0
-3693 3352 944 0
1512 3318 -1696 0
2561 -2885 -2206 0
3705 -2026 -3086 0
-1389 3879 -1591 0
-1841 932 -1729 0
-1545 -2109 1936 0
102 -1771 3836 0
750 2692 -2889 0
-3128 -745 1379 0
1707 -3544 -1550 0
3828 3656 -3183 0
1549 3380 -1016 0
-2582 -3583 -2624 0
2864 -714 -735 0
639 -3824 185 0
2167 -3935 1899 0
-1992 1439 532 0
1939 2901 -2030 0
-3753 2013 1744 0
-3190 1362 3801 0
20 -855 -3254 0
3897 -295 3473 0
-382 1432 -2387 0
1496 -3314 299 0
2144 -2259 1336 0
2920 -2635 644 0
-733 -1598 -215 0
803 -3486 2300 0
-1378 -1050 -542 0
-2132 -2850 -2365 0
-2163 -1576 -3344 0
-3869 2734 462 0
-2507 831 -2896 0
1643 -3737 -3170 0
-3168 -453 928 0
-1755 -768 -2306 0
-1808 -3663 3232 0
3520 -2349 3765 0
1678 1158 -862 0
-1027 -2839 -3997 0
2242 182 -2319 0
-2996 -2481 -1011 0
-3175 2573 -2205 0
-3263 -2306 2664 0
-454 -158 -3604 0
2728 -1661 469 0
-1264 3876 2220 0
942 405 -2753 0
-2424 1080 -3189 0
1509 -1399 -317 0
-2682 1787 -865 0
-44 -868 -743 0
2878 -3794 3184 0
-1474 -1553 1847 0
-2963 -1296 1101 0
2298 2416 1620 0
341 2066 -23 0
-62 -2063 -1880 0
2882 -1406 -3145 0
636 2074 -653 0
962 3532 -850 0
2084 -200 -2252 0
655 3797 1557 0
3583 -2238 -1849 0
1436 684 -417 0
1801 -246 675 0
1713 70 3701 0
2289 -2587 1135 0
2587 2242 3063 0
55 1248 -2687 0
-2085 -3410 3148 0
-1891 -877 786 0
-2367 -296 -2682 0
513 1793 -2547 0
2000 -1769 1291 0
3004 -2689 2330 0
-1811 -3546 -974 0
2702 -3031 -2965 0
-391 -2285 -2931 0
1593 -1848 -3941 0
-1501 -2071 -2276 0
1451 -2824 -56 0
1396 3117 -824 0
-1125 3320 -1377 0
-752 -2985 -1354 0
-571 -341 -1601 0
-2501 1441 2487 0
-1183 3016 -2736 0
2189 1047 3704 0
2281 815 -72 0
-2509 1870 105 0
1121 591 -2763 0
-315 -2851 3090 0
3600 -2089 432 0
14 3701 2309 0
-339 3515 -2974 0
15 -3655 -1236 0
-2040 -3295 -2998 0
2424 1171 -3043 0
2903 -1723 -1808 0
-1895 790 -2973 0
-3753 2347 2276 0
-1165 -272 3252 0
1505 1123 2648 0
3401 3150 1862 0
3568 3864 -210 0
2820 -3766 -820 0
3771 -1499 918 0
222 1308 2570 0
1943 -2507 -466 0
47 -1259 -2207 0
-1782 1223 1895 0
521 599 -347 0
2968 1041 -1719 0
3270 338 453 0
-2147 2568 -3107 0
2322 3666 -737 0
1044 1030 1712 0
2330 32 -400 0
-1900 3055 2310 0
-2499 -1387 -965 0
2565 1147 2263 0
3393 1202 3753 0
3491 -3723 3117 0
363 2079 3840 0
-2356 1628 3096 0
-2953 3179 -3292 0
980 -852 -1749 0
2793 3429 1830 0
-718 3489 3782 0
1903 2909 -3676 0
1988 -2521 3083 0
-2795 3079 206 0
-3444 -3223 3812 0
-2300 -3830 -2339 0
612 1659 2867 0
1550 1374 -3163 0
131 1218 1042 0
419 726 555 0
-2550 2632 -692 0
3423 2640 1785 0
-2114 -1890 -3408 0
-2937 2359 2792 0
3950 -2964 -1996 0
-33 -3288 -1242 0
-1978 3850 2632 0
2390 -2449 2335 0
934 -1586 -607 0
1907 1726 1702 0
3280 1549 2733 0
3585 -2222 2297 0
-2165 3963 -1020 0
1193 2658 -1684 0
-264 455 -3610 0
1420 -3404 -783 0
-998 -2459 3654 0
-2835 -1372 -3217 0
3344 -2654 -3610 0
3798 639 2718 0
-3773 -252 -1568 0
-2208 -1453 -583 0
-467 -634 -1035 0
2174 1082 866 0
3461 -2147 -1949 0
439 -662 -1433 0
3607 3782 -2253 0
-649 2054 2813 0
1947 3416 3354 0
3252 -419 -1889 0
2677 -1252 3360 0
-3114 -648 2643 0
-3550 2367 -171 0
3579 1883 -625 0
-3679 3563 -1397 0
-428 2704 206 0
-2612 -1904 -3235 0
3158 -3455 653 0
-1297 -3735 -1868 0
-3619 1977 3962 0
-2403 -2879 -257 0
109 -3176 555 0
3936 2912 -1156 0
-1877 -3502 2523 0
-3842 -1070 2396 0
-3224 527 -659 0
-2468 -2259 -577 0
3495 888 -2037 0
684 -3024 3945 0
-3542 -1510 417 0
-1015 3827 2236 0
-3083 -710 -3181 0
1731 -3511 1 0
-2611 2584 -472 0
-3587 -3513 1140 0
1954 -3823 3227 0
1388 -714 870 0
3160 -3718 -483 0
1691 2401 3032 0
2392 -454 -2952 0
-2457 3604 -3050 0
-3820 -254 -1850 0
3524 684 2804 0
-2378 258 -324 0
1324 2844 -1143 0
-3377 1528 -3580 0
2233 -1249 -3412 0
-3480 -3624 3935 0
-1235 -2680 2546 0
3372 3220 369 0
3487 -3669 413 0
2372 2921 3117 0
2354 -2130 -114 0
-2378 479 -2547 0
-401 1953 -42 0
3552 3598 534 0
-2229 -819 3395 0
-3595 -1554 531 0
-1439 -2103 1479 0
-1268 2896 822 0
883 2788 336 0
703 162 82 0
3184 3655 696 0
-1983 3149 -950 0
-87 -59 715 0
-1119 1893 53 0
-342 3469 -45 0
-493 -647 2465 0
2961 3404 1297 0
1664 3964 3605 0
3958 578 -2571 0
-2148 226 865 0
2826 2063 -254 0
-3637 -1595 294 0
-2123 2947 -3364 0
2108 808 -1428 0
-3930 -972 1129 0
-127 -1966 2466 0
3278 2118 1513 0
-3507 3429 -806 0
-2651 -1528 -3917 0
-98 -3969 3003 0
3457 -2453 2551 0
938 -1103 3328 0
-2206 -455 893 0
2192 -3445 -2335 0
-1092 -2930 3713 0
3986 2198 -795 0
1234 2901 3268 0
-3920 -2091 -1765 0
813 -919 1713 0
1043 1546 -3056 0
382 -1535 -2611 0
-1445 3361 -256 0
1864 1873 1558 0
-3497 1949 1801 0
1033 -1297 -42 0
1978 -612 -2771 0
-2275 1188 -845 0
3 -1649 -3177 0
-3205 1098 -3778 0
-601 -1257 -1095 0
-102 2646 -584 0
1131 -2547 -1522 0
-3315 3844 2910 0
-3337 -3669 -2211 0
-1498 -258 3745 0
-1064 -2056 -2597 0
3329 213 683 0
2978 -1531 -3007 0
-1805 -2397 -217 0
-1833 -3977 3113 0
-2987 -1594 -67 0
1491 1889 3341 0
-1302 -2665 -358 0
-1590 -253 -1498 0
1344 273 -3220 0
277 3987 -3151 0
1972 -2677 -2605 0
156 -2971 696 0
3367 -2141 2115 0
-3505 3142 -1547 0
-773 2310 -375 0
-3412 -735 3741 0
410 45 -2566 0
3650 1876 -627 0
3167 -426 2660 0
-3291 1570 719 0
1011 -1414 -2772 0
-2629 -1618 155 0
703 1067 2638 0
1119 3123 -471 0
1824 2400 169 0
3707 -2957 -3571 0
-703 345 -3905 0
-3098 3278 632 0
-2593 2834 -1334 0
-1624 -1632 1375 0
423 1965 -2858 0
-3820 3482 45 0
3991 1345 3192 0
3856 3990 -2410 0
-1533 -3657 -1551 0
-1131 -298 3286 0
-3837 -1494 1151 0
1503 1055 -3709 0
528 -2159 -75 0
-1502 1837 -3279 0
-2607 -1747 17 0
-408 -3259 -190 0
2987 136 3899 0
3207 2977 2512 0
776 -3592 -3687 0
1296 -875 -1509 0
-909 3534 -608 0
997 718 2755 0
-1852 -337 788 0
80 -2129 1633 0
2213 -3315 1920 0
-3378 -2874 -90 0
-374 -2663 123 0
-108 911 -2673 0
-3554 -1423 -1306 0
2175 2875 -3440 0
-1054 -3543 222 0
3210 1971 -2192 0
1798 1026 -1710 0
2726 -2975 936 0
2013 -1161 -2148 0
3864 1141 3440 0
-1922 1796 2695 0
3231 2938 -1297 0
-3428 -3857 -1675 0
-2846 1912 2418 0
2725 3457 -3828 0
77 -395 -3013 0
1529 3562 -431 0
-2004 3748 2466 0
3247 -2511 214 0
-1975 1991 -2709 0
1244 1636 -2403 0
-396 -2264 1538 0
-1611 518 -3283 0
546 -1535 -2891 0
-2445 1693 -54 0
2167 2684 -1655 0
2299 -3561 1818 0
-496 3377 -2557 0
96 2007 -2569 0
1784 353 -2761 0
-3567 1750 -1183 0
-2446 1304 -2864 0
-3081 -3728 2291 0
-2149 -2675 1285 0
-3985 2129 2653 0
-657 866 1740 0
-1903 -1930 -596 0
-3136 -3983 -2390 0
3968 -1361 -1208 0
-772 -2096 926 0
-445 -976 2305 0
-3460 3972 -2817 0
1276 -3143 1330 0
2607 872 1380 0
-3181 1776 1948 0
3619 122 -1476 0
980 2634 -829 0
3345 382 3387 0
-929 -891 2074 0
2783 -121 -3707 0
3020 -1719 -1885 0
-3261 2784 1483 0
2767 14 2591 0
-2860 871 100 0
-559 100 -3628 0
2777 2276 -3243 0
-3889 -1746 566 0
1710 -2455 2940 0
1506 3791 3909 0
-2025 -1589 -59 0
-1209 351 3648 0
-852 -2467 -119 0
685 -1726 3790 0
432 -1256 895 0
3856 723 3264 0
2186 1704 -2081 0
-2507 2025 -3659 0
-3723 -1032 2632 0
3626 2734 -817 0
2675 -395 -2348 0
355 374 -2609 0
3016 836 -2639 0
795 2001 2170 0
1582 -3839 3810 0
632 1232 -1254 0
-667 -3559 -3915 0
-2937 2570 -274 0
-3653 3425 -751 0
123 1060 1624 0
-646 321 -1265 0
-3023 -360 -338 0
148 257 189 0
-2988 -2912 1610 0
-2813 75 3913 0
2743 500 -3530 0
-121 1473 -265 0
198 -743 -333 0
-1436 -1088 61 0
3387 -3478 2824 0
-885 -2932 3911 0
3069 511 2057 0
3774 -3856 -432 0
3401 3726 2296 0
3495 -1011 2787 0
-1234 1644 -146 0
-3624 -2409 1065 0
1298 1999 3122 0
-3025 -3035 -1674 0
665 3502 -2641 0
1486 -1082 -1469 0
2284 -456 -49 0
-401 -854 3494 0
-1639 1069 3522 0
1883 2038 934 0
-312 1645 3779 0
2570 3470 3842 0
-286 -3473 1430 0
-2371 -3905 -1348 0
1125 -235 1688 0
-1477 3199 1359 0
-2255 -3732 -1295 0
1661 -1538 3366 0
-1456 -1399 -2378 0
-974 -1677 -235 0
3641 3266 -2779 0
3371 -1027 -14 0
3200 1222 3230 0
2783 -3421 2011 0
-3155 -2584 -511 0
1500 -3360 3923 0
-84 -362 3089 0
227 2588 3753 0
991 -1274 -1124 0
-2857 -2550 3693 0
-179 -1396 -1215 0
136 -2389 2507 0
-2953 1529 -3074 0
3987 -2166 2480 0
415 -2276 360 0
3156 -619 -1009 0
-2753 -496 1362 0
-1221 711 -373 0
-3905 2091 -1943 0
-1385 -2237 360 0
771 -1164 -1941 0
1250 926 -2543 0
1150 1403 -2843 0
3198 -1534 -51 0
-567 -2096 -3012 0
-1125 1343 -756 0
3530 3507 1515 0
1739 751 1246 0
1114 -76 2436 0
1951 -777 -1840 0
-2331 3723 2111 0
1276 -2967 -1128 0
-1301 3141 -558 0
-907 -2573 -78 0
-3670 3199 769 0
126 -3900 451 0
-3073 -1397 -1442 0
1931 -3874 -3864 0
-764 436 1840 0
1745 2929 -1046 0
-1974 -1720 2402 0
2442 1008 774 0
-892 -3271 2056 0
3466 1089 2122 0
-113 2662 1076 0
-3163 1716 -1928 0
-2932 2695 2675 0
3985 -2488 -2350 0
1177 -2529 -77 0
-3919 -272 -1400 0
-3295 3943 -1370 0
3848 -3880 1115 0
3491 722 3249 0
-575 -1966 -1560 0
3601 516 -1322 0
722 2743 -665 0
-805 -1648 -2439 0
2558 -1699 -1108 0
-2794 -1851 3904 0
-3870 -638 -3859 0
-1677 2329 -245 0
-3014 -2563 -3580 0
-1223 1545 -1841 0
2402 2412 3286 0
-1014 -2094 -1226 0
-855 1894 -2150 0
-1261 -945 600 0
-418 -3073 3935 0
-586 595 3701 0
1682 -706 -221 0
720 3562 -1328 0
3096 3310 976 0
899 -1376 -2809 0
-688 2003 -1724 0
-2786 -3810 -1897 0
-17 1541 -1448 0
-921 -1402 287 0
3852 1083 2145 0
1052 -974 2625 0
-3814 765 -2559 0
236 -2885 -648 0
-2468 -3518 707 0
-3720 -3071 1742 0
3828 865 -1281 0
3060 272 -7 0
-1687 2392 1799 0
-2225 1498 -1743 0
2966 -3521 2 0
2856 3567 -730 0
-362 -733 3858 0
-483 2327 -2419 0
3583 -3978 -1810 0
2992 1916 955 0
-1383 -3407 303 0
3125 3035 3633 0
-3229 -3843 3490 0
-735 -3768 -3550 0
3068 1793 -3111 0
-1306 1317 -1002 0
2084 -206 -3154 0
3460 888 -1068 0
-716 -1850 -804 0
87 1075 1246 0
1821 2230 -2535 0
2862 -3960 -1923 0
-1486 -3265 768 0
278 -1844 2780 0
2403 3571 -2126 0
-299 830 -3823 0
2287 423 -3865 0
-1806 -580 -2667 0
-717 -369 -3810 0
-1679 -1494 592 0
-816 2785 3972 0
173 -389 -188 0
2920 -299 1487 0
-1589 3111 -2076 0
36 1483 -3061 0
578 86 320 0
-1073 -2655 1417 0
-1635 -2055 676 0
774 1722 -1546 0
-1281 1572 -653 0
-2506 -630 3215 0
-366 1916 -2942 0
1936 51 723 0
846 -3607 3957 0
1238 -3038 -1819 0
-653 3746 2846 0
2691 -130 2807 0
-3616 -401 -970 0
3212 2699 2785 0
-3231 825 -465 0
-3889 1259 268 0
1518 -3601 -492 0
2325 -2363 -1679 0
3255 -1713 -2181 0
522 -2476 1357 0
-2707 2822 866 0
2162 585 1933 0
1219 -3185 3356 0
1982 -2120 -1734 0
-2179 1702 -3469 0
2580 1 3435 0
1426 -782 1498 0
2101 -741 2915 0
-403 -1785 3941 0
-104 1295 2049 0
-3210 -709 1015 0
1382 52 1021 0
-3555 -2467 -3747 0
2476 3249 -1882 0
1999 2248 118 0
-1371 620 3920 0
3700 2101 -1273 0
84 1061 -3203 0
1767 3266 2488 0
-1720 2337 -1666 0
-863 1692 2305 0
2467 420 231 0
-1116 -577 -3821 0
1731 3465 -595 0
-1191 -370 393 0
3714 -2531 3191 0
1702 882 -2549 0
-630 2479 -1030 0
208 1021 -1658 0
-1309 854 -830 0
-270 2482 1519 0
672 -3424 -3221 0
2061 2145 3285 0
3123 3278 2104 0
3972 3097 1737 0
3229 3436 3727 0
-3730 1026 -1627 0
1454 2113 2601 0
-1712 -1090 -1811 0
1111 -1669 3410 0
3369 -1064 2600 0
3284 2296 647 0
1245 1188 1302 0
1889 220 -1614 0
283 -3306 -319 0
2664 -2948 -2331 0
3586 -2778 2507 0
1644 523 -3582 0
615 3832 -2799 0
-1633 -1952 -2068 0
1315 -2011 -2988 0
-2261 -3037 1528 0
-2791 1132 -2486 0
3996 646 -1797 0
2284 -3579 1060 0
-1647 -633 1762 0
3054 -1877 2254 0
3857 3667 -1346 0
2346 528 -144 0
-3417 -2656 2435 0
-850 2982 -1455 0
-1923 1259 1705 0
-1969 3570 -629 0
-495 357 3482 0
217 -120 -1433 0
1213 3979 -3737 0
1713 -1347 387 0
-3745 3033 -3408 0
-662 -1429 1813 0
-130 892 277 0
-2136 -1502 365 0
-2712 -1695 -1350 0
3160 1609 -412 0
2403 359 2543 0
-2800 373 -116 0
1658 -734 1587 0
-2297 2601 -1802 0
-1821 1211 -1474 0
3200 2365 -1518 0
3285 -2439 -935 0
-989 -1866 1152 0
-841 3685 -3773 0
180 -3366 -2219 0
483 -3894 -854 0
-3944 -3935 -2262 0
2014 613 -978 0
1627 650 -3594 0
2355 2765 1811 0
-2616 -2006 3479 0
-1189 -710 -3844 0
2829 -950 3236 0
2587 -1594 -3465 0
2639 1118 -3623 0
3436 2513 767 0
3349 -3577 -1751 0
-3579 3400 -800 0
-2513 -3702 3550 0
2032 -25 -1782 0
-2943 -122 3769 0
-1630 513 -769 0
1954 613 716 0
-1968 1344 2772 0
1805 -980 -3835 0
3199 3120 -3591 0
-3432 -2727 963 0
1706 -765 -2015 0
-683 439 3173 0
-2110 -1574 277 0
2503 -2957 -1136 0
-2306 2112 -1729 0
170 -2208 954 0
1901 -1648 3791 0
-1537 -3614 -51 0
333 -3299 -138 0
-1597 2406 1129 0
-2737 1191 -185 0
-3056 558 -3447 0
-1935 -2349 -2302 0
-788 1951 3635 0
414 2216 -3095 0
-297 3906 -2584 0
2238 -2100 3401 0
2772 3003 -1544 0
-3655 558 1907 0
512 -2030 890 0
2561 2960 2185 0
267 2172 1353 0
3316 3958 3194 0
-1287 -3639 -2034 0
3910 -2173 -1804 0
-1745 -2032 -2686 0
546 3561 1233 0
-527 2245 912 0
626 894 -2861 0
-3448 -2284 -3290 0
-776 1534 3096 0
3285 -959 -3992 0
2491 956 -3963 0
-632 1683 -3930 0
836 -3575 -3028 0
3564 750 -3631 0
-2526 -1077 -3778 0
441 -952 -3934 0
-3889 -2735 3250 0
-1705 2027 -1091 0
271 -3165 2751 0
-2364 3900 1877 0
-1039 1213 1479 0
-1072 -3669 1910 0
-456 659 3333 0
1083 172 -455 0
-3363 -694 -3764 0
3883 3619 -1731 0
1376 681 -2387 0
1121 -3540 -2059 0
2589 1059 119 0
580 1891 -1972 0
-3619 1243 -2797 0
2844 -3267 864 0
2765 -585 1966 0
811 -567 1801 0
3507 -2773 -862 0
-111 531 -1076 0
2734 2888 1957 0
-153 -2748 3029 0
-496 770 -3938 0
2714 -2804 -3140 0
1602 2083 1338 0
2510 3078 968 0
-664 -3949 1442 0
706 3617 -1435 0
1921 -3990 -3619 0
-1231 3612 2541 0
-2969 -765 -2535 0
-3401 -1865 2188 0
-3522 -3062 -1676 0
352 1966 -24 0
2835 -2215 -787 0
-3894 2599 3955 0
-3435 1323 1262 0
-2788 -1748 2210 0
-3832 -1104 25 0
-3104 3206 1917 0
-331 358 2584 0
-1992 1568 3203 0
-730 -2288 -3755 0
902 609 3170 0
3124 -2161 -1166 0
314 -766 71 0
1022 -2124 1663 0
2787 93 1793 0
1375 -3755 915 0
2806 -2753 -890 0
2335 -459 1316 0
-159 -1889 3567 0
35 466 840 0
-2704 730 1368 0
3046 -2636 561 0
2224 1216 -340 0
1194 3255 5 0
-3036 -1291 3963 0
-281 2928 -3723 0
532 3974 -2978 0
1465 -3885 -3720 0
2616 -1779 -1200 0
-1873 -133 855 0
-2411 1571 1247 0
624 -2378 1787 0
3702 2355 -3829 0
-1910 696 148 0
491 -1376 -3917 0
-364 1146 -3800 0
871 -3274 3362 0
1649 3679 -1848 0
-1810 -2835 -3532 0
-774 2455 3440 0
-3480 3503 -45 0
-2511 3349 -161 0
832 -1955 111 0
-1001 2129 2387 0
-3609 857 2053 0
-1876 -2189 589 0
3317 3914 -641 0
1150 -1472 803 0
3891 -621 -3549 0
1518 2097 1923 0
-686 3382 -1474 0
2600 -1156 -3767 0
-3990 -757 2280 0
-1953 -586 -2261 0
256 -1485 -2504 0
-2653 2469 -3990 0
2990 315 832 0
1724 333 -1621 0
138 -836 -469 0
1436 1303 3093 0
-3036 -1041 3930 0
2980 -2860 920 0
476 2375 -607 0
3331 -394 1750 0
-3055 -2199 -734 0
2927 -3801 -2525 0
2038 706 -2077 0
-654 715 -1154 0
1747 -343 -635 0
3197 2406 -147 0
2138 -3616 3048 0
222 3497 -1178 0
-44 3166 -850 0
-2213 3333 1431 0
-1255 53 -995 0
1474 -1996 3190 0
-3700 -2420 797 0
-2120 3874 1934 0
2316 -1339 -2150 0
1705 3589 -3165 0
-2659 -1950 -2300 0
-2444 -1378 -3998 0
677 -897 -2328 0
-1300 3659 -3967 0
472 -3802 337 0
-2073 -2581 -2602 0
328 144 2511 0
-1154 -2472 2029 0
2202 -3023 -1692 0
2262 3667 2177 0
-1026 1603 -3646 0
1479 3789 -1034 0
2636 3668 1806 0
-2703 -324 -492 0
1416 -242 -2197 0
676 -2723 16 0
257 3972 -2528 0
3620 307 -2561 0
2503 198 -3440 0
1992 -3202 -1981 0
-2918 1448 752 0
-3472 -1133 3911 0
2485 170 2801 0
3283 1837 -2977 0
1224 -190 2716 0
-800 3960 -719 0
1024 2806 -2397 0
-3079 -385 -2334 0
-1465 -3288 873 0
-416 2769 3379 0
2840 -1524 1593 0
2310 -1320 3771 0
-2159 -2523 -2025 0
-1317 -3549 3494 0
-3372 -2087 1989 0
1995 -2991 -1588 0
-2682 -1208 3384 0
-97 -1888 1126 0
-570 -211 -2643 0
-3537 -1608 845 0
759 -331 764 0
-3401 -2976 3050 0
998 2563 3669 0
-3730 -1274 -411 0
2118 -3414 3467 0
915 -2288 -3402 0
-2815 -3624 -2090 0
-2575 -873 2586 0
-3484 -2589 -886 0
504 2177 -3295 0
1236 -633 268 0
496 3044 1990 0
-1525 881 2039 0
3092 -133 2950 0
2797 466 2447 0
75 506 3894 0
-3647 2640 -3611 0
2544 2563 703 0
-615 -2797 1913 0
-2017 1361 2167 0
2681 2107 -2950 0
211 -690 3573 0
3099 1081 -3394 0
-1428 2516 353 0
3808 879 3281 0
2767 -3299 3640 0
1343 -2440 -3332 0
3121 -3043 1422 0
-2855 3946 3908 0
-870 3206 -3897 0
-2264 274 1396 0
886 -1013 804 0
-1320 2953 2279 0
2541 -194 3474 0
-1767 -241 -2549 0
3847 -2234 -1495 0
-3634 -3876 -886 0
1755 605 -427 0
-1403 1436 -222 0
1245 -1000 -2956 0
945 -3794 -1313 0
1760 -3217 -678 0
3724 -430 -3400 0
3996 -1110 -3917 0
-2058 3803 2234 0
-1296 -1454 -693 0
-2191 -3057 848 0
3242 1601 1225 0
710 2959 -815 0
2739 3528 1132 0
2405 1143 -1209 0
-2516 -3794 -2194 0
-2519 2036 -2154 0
1973 3723 385 0
3706 2012 -1423 0
1540 -1442 -2376 0
-2161 -999 -687 0
3907 3208 1590 0
-2392 -1246 657 0
-1306 3932 3057 0
1040 1798 1332 0
-2489 -1810 796 0
3824 1772 -1701 0
-1192 -3240 -1614 0
319 -2243 2708 0
-858 -2996 -1721 0
-1212 -2290 1060 0
2181 3467 2140 0
641 -65 -3570 0
-3992 3633 1010 0
3955 -1374 129 0
1480 1114 3369 0
1349 1646 -1414 0
-350 -1261 1810 0
2730 557 227 0
-2178 1457 -1031 0
-292 3649 3237 0
3316 -3359 3171 0
-769 -2464 -2118 0
1878 -3770 -549 0
3872 -2690 1438 0
-239 -761 2563 0
1014 3501 -1890 0
3169 -3573 -2660 0
3488 -716 -2574 0
-412 -385 -1257 0
-3139 3656 -277 0
-1408 -727 -917 0
2425 -3231 2750 0
-3767 707 -58 0
-1553 -264 2871 0
-3559 -638 -241 0
126 318 -1144 0
-2957 -75 2526 0
-3660 -2622 3574 0
3285 2366 -1002 0
309 -1310 2769 0
-1954 -2673 2225 0
-1255 -1974 2128 0
-85 3916 3752 0
-455 -1791 672 0
2244 -1127 1817 0
-2912 -901 -319 0
2805 2832 3123 0
-794 3592 2209 0
1849 -3087 1531 0
336 2489 3457 0
-353 3147 2924 0
1822 2490 2480 0
-2314 -991 2749 0
-1412 2308 2738 0
1394 -28 -2362 0
-3679 -2275 -1623 0
-2984 -361 2915 0
2849 -1618 -931 0
862 -710 -1884 0
2131 3039 -764 0
3661 2184 2904 0
-3289 -2770 3230 0
-1972 -1570 -553 0
2141 -3608 -2503 0
-3287 3750 -2845 0
1898 1366 1018 0
-1356 -3002 -2989 0
-3205 1742 2274 0
-3188 115 170 0
-1053 123 66 0
-1155 -3994 -3824 0
-1571 -3269 2353 0
-2567 -1799 695 0
-3507 -1533 -1619 0
-3460 433 1372 0
-2343 260 -853 0
-738 2481 -3623 0
-2206 -1229 -2033 0
1953 -1558 3886 0
1086 -3259 1287 0
-1542 397 -3222 0
-34 -729 -3053 0
-3238 2085 1477 0
2499 2817 1018 0
-2679 -3379 2362 0
-1881 2126 -2957 0
122 266 173 0
1732 691 -3143 0
-3498 2579 1231 0
-3560 -1903 -2743 0
-3825 -2077 -3054 0
-1109 3177 -1054 0
954 -2692 153 0
-1690 360 -3097 0
-668 -307 2007 0
3682 951 -3860 0
3004 2782 2345 0
-3319 -977 1630 0
1947 2738 2368 0
3418 -3298 -3426 0
-3958 3726 853 0
2475 -2584 -1547 0
-1978 786 -3669 0
2627 -3407 -398 0
-2519 -2355 -2588 0
3147 -1010 2150 0
3711 2252 2328 0
-1339 3284 2790 0
1916 -2253 -3966 0
2804 -1864 3595 0
1254 424 -1910 0
-1334 -277 748 0
-854 -3001 591 0
-837 1336 -1235 0
-2076 901 1798 0
-1119 -3292 -1597 0
3213 1177 -2870 0
1721 336 -3902 0
-3423 1769 2914 0
-1840 2649 1571 0
-591 3205 -3821 0
844 685 -3256 0
106 2160 -3646 0
3284 2465 -2407 0
-1473 -2298 1653 0
-3751 2231 -3307 0
-853 -984 1774 0
-612 -1195 -3367 0
-340 -2968 2182 0
-2718 3469 -2376 0
-3545 -1160 346 0
-3031 3989 -1313 0
-1133 1515 2514 0
-2892 -2193 -1504 0
40 2297 -2363 0
-2719 -873 1325 0
-3331 -1565 2033 0
1971 -2248 -2628 0
1165 -1303 2851 0
-1965 3475 3327 0
-1765 554 -3016 0
2100 2778 -2923 0
50 2197 1480 0
-1720 -676 3081 0
1840 -3125 3154 0
-1467 848 3207 0
-2276 835 -2034 0
2419 -728 3528 0
-2760 979 -3907 0
809 -1113 -2250 0
1264 -2009 3407 0
-2352 -218 2220 0
-1063 2 -2838 0
587 3222 48 0
3874 -3761 2585 0
2869 3944 -3477 0
2380 920 3977 0
-2364 1942 -1222 0
-170 -1537 -2956 0
3612 364 3228 0
2881 3313 2488 0
835 -1987 16 0
-3272 2179 2859 0
-487 3396 -2268 0
-3166 -1910 -2135 0
2726 137 3182 0
-1885 -347 -2571 0
-941 1738 -2378 0
-3056 -1130 2958 0
-2666 -1755 -46 0
-2830 -3128 3143 0
-1015 -2964 -1351 0
422 -2652 1378 0
-1291 2604 1663 0
3715 704 3767 0
-2560 2954 -1358 0
2135 -456 1708 0
1514 -2186 1923 0
-1713 2742 3066 0
3665 2115 -815 0
2801 3011 2961 0
1611 1652 -1844 0
2384 -2476 -458 0
1920 -2283 1409 0
-3720 -995 640 0
-237 1621 2955 0
84 231 1270 0
-2972 -3571 953 0
2819 2344 -3499 0
-1094 -2118 1638 0
-2959 976 2520 0
-1194 1174 -3441 0
1980 -753 342 0
1439 -96 654 0
-3177 -2174 -3571 0
-3670 2054 1348 0
1699 -1078 1660 0
-3246 -523 -2692 0
1696 517 193 0
1884 -3734 2910 0
-3940 -3624 -1546 0
3908 -1860 -243 0
-2497 -2302 -1820 0
-2446 -1446 97 0
-753 2710 -1183 0
2493 -2631 -1374 0
2924 449 1958 0
-2678 761 841 0
487 -3062 -1308 0
-1057 3061 -3477 0
2656 3404 1479 0
2678 -1685 1777 0
-3761 -1118 -416 0
-3567 -1013 -304 0
-2695 -68 1558 0
3405 -1863 -2239 0
-484 -1099 509 0
2875 2651 1373 0
2848 -2851 -2824 0
1975 3187 -1276 0
504 2453 3241 0
-2083 -363 2705 0
3778 -1429 2866 0
-1636 -2263 -1463 0
-3777 -1346 1984 0
-1200 -1711 -639 0
1934 -1381 2458 0
-3069 -553 2323 0
-15 -404 1522 0
-546 -1598 -3626 0
407 3858 1588 0
-750 648 -951 0
-250 1892 744 0
-2920 2817 981 0
-2261 2094 2979 0
1431 2769 3361 0
-792 -1147 441 0
-818 -1494 978 0
-2556 -443 -1393 0
-965 526 -3338 0
1614 2114 -1136 0
-3631 -537 989 0
-3839 -3127 -1886 0
2632 -2330 -788 0
-2424 -1332 -1345 0
-1083 -1160 503 0
1890 -182 -3689 0
-2102 -1312 -1120 0
2479 3092 967 0
1539 587 -1268 0
1271 907 -999 0
-103 -1612 -2204 0
3650 3538 2037 0
-1302 -1117 -2354 0
1219 1752 -325 0
909 -1890 3103 0
2411 3064 -2492 0
2541 -3977 -2026 0
-2382 255 666 0
-1356 1353 -3858 0
-3708 1136 -1741 0
-2141 362 -3571 0
204 3668 2222 0
-3980 -513 -197 0
-1852 -2684 3866 0
625 2331 1110 0
1783 -3002 118 0
-1591 1893 -3422 0
714 17 -3030 0
-2649 -702 -1017 0
3811 3102 -1577 0
1187 2627 -3257 0
-1202 -2655 3128 0
-2250 2220 2867 0
-810 2334 -384 0
2293 -2273 -137 0
47 -2593 -1614 0
3696 -269 2995 0
463 297 1609 0
911 2529 2768 0
-568 -1620 1494 0
1130 -3179 -1762 0
812 -1371 -1977 0
3097 -2844 1052 0
1617 3629 2495 0
84 346 -2019 0
-3752 2699 -2826 0
-2244 -1628 -2738 0
1063 -367 2372 0
-883 -3643 1896 0
-999 -1725 2444 0
1415 -3029 -308 0
-3460 2225 -635 0
1807 -1113 2523 0
3988 -1211 2726 0
638 -559 3739 0
-442 2497 -1764 0
-2862 -3518 2421 0
2979 3222 -3779 0
-3141 477 3626 0
-2392 -1818 1287 0
-2695 -3942 2333 0
-2512 896 -412 0
-3281 -260 -3116 0
-2623 -172 3394 0
754 -1828 -2414 0
-1807 -2839 -1263 0
-3259 3916 -1741 0
156 962 3309 0
-1090 2850 3656 0
3291 2681 -71 0
332 1897 851 0
-1223 388 -3260 0
2401 -490 1332 0
-1145 913 -3950 0
-1201 1013 668 0
3342 2302 837 0
-694 -3091 2388 0
-3874 3164 1174 0
-2248 1290 -1811 0
884 -1228 2616 0
1171 1043 -2459 0
3243 -988 -1565 0
2919 1682 -2902 0
-2775 766 -2744 0
2918 -1356 -1908 0
-2625 -1251 867 0
-1035 -1869 -2348 0
3392 -3611 2437 0
-1611 3495 3667 0
3041 -97 -2212 0
-3642 -2960 156 0
3668 1854 1791 0
239 1960 2154 0
3092 1608 2908 0
2526 -590 1675 0
3917 3415 2297 0
1973 -3254 149 0
2535 554 1361 0
-508 -2567 -1423 0
3090 1118 -70 0
3463 2584 -1831 0
-387 3933 -1834 0
3569 -3591 -3340 0
3004 -1571 1081 0
3438 -1770 -2017 0
3294 -1933 295 0
2223 2201 1563 0
-291 -3515 -459 0
-2370 40 -1172 0
-141 373 1852 0
1048 1545 -2777 0
-1962 2965 1471 0
-858 -1288 2165 0
-1986 2177 -3214 0
-918 1105 -692 0
-3389 156 2140 0
434 320 -2453 0
-1466 -1294 -3211 0
-85 -3180 -2105 0
2074 -1452 2444 0
-3616 3217 -1295 0
-2722 -3106 3483 0
-1502 365 -1019 0
-1989 -84 -2992 0
3507 -3541 -2987 0
579 94 3169 0
-3569 1612 -1839 0
-4000 -69 -3772 0
-985 2603 3771 0
-2186 2652 -2591 0
-3549 1592 2293 0
-1244 -182 936 0
-2548 3649 422 0
3536 -1438 -2646 0
790 1550 618 0
-2574 3101 721 0
3236 2346 -1942 0
407 3675 103 0
3968 2539 -1561 0
414 3744 -555 0
-586 257 -1161 0
-1197 -2666 3709 0
-1725 -52 2517 0
-1175 -255 228 0
-301 2436 1550 0
2100 679 1898 0
1339 1385 -1158 0
-459 2896 -1854 0
1015 1314 -2747 0
2334 -1068 3345 0
-812 -2007 417 0
3929 129 860 0
-1318 -3364 1397 0
-3831 -1590 -2332 0
2710 -984 -122 0
-1837 -240 -2923 0
-3184 -1047 -3322 0
-3401 3884 -1674 0
-3172 -2032 1450 0
1972 -1126 1108 0
-3490 2108 1651 0
-3323 3082 3874 0
-1922 1006 2696 0
1050 -563 1113 0
-3721 -3031 2341 0
3269 2953 1135 0
-500 -3582 -253 0
3118 -2654 -3544 0
-3018 3711 -3736 0
-3848 2401 -1300 0
-738 -566 -3284 0
-3589 -3166 3983 0
3949 -322 2427 0
1184 1432 -1113 0
686 844 3177 0
3706 3102 3011 0
2156 2419 -30 0
516 -2547 -1246 0
3060 3770 -2446 0
58 3047 -2137 0
1304 -1329 -731 0
1278 3971 195 0
3843 503 -401 0
-2480 -3256 1421 0
697 -990 818 0
2544 127 -3245 0
1693 -3367 -1813 0
-2016 2376 -1254 0
2324 3869 759 0
-3838 -2780 1249 0
-1790 3160 -1140 0
-1097 -2023 -3899 0
1284 3531 154 0
-1104 1547 -2108 0
940 -785 1017 0
-2792 2664 1386 0
-2400 -591 785 0
1333 1115 -1336 0
1336 -1190 269 0
1484 -3354 -1376 0
2796 -1251 650 0
-3959 -2109 491 0
305 -784 2414 0
-198 3773 -3643 0
3616 -2416 -1603 0
2285 -3106 3812 0
-838 3536 -2247 0
-2663 -2154 3714 0
-2447 2258 1487 0
8 -640 -719 0
-2355 2082 -2215 0
318 -1657 251 0
3108 -2333 -679 0
1995 -3116 3948 0
-345 -1890 2721 0
1813 -936 -17 0
-2090 -2135 -2011 0
549 -5 788 0
887 -2477 3177 0
-932 -1912 -1083 0
1918 -2202 3990 0
-2122 1707 3428 0
-1032 1095 -1265 0
3092 2046 3471 0
361 -1046 -317 0
2536 2389 -1670 0
1445 -3162 -2934 0
154 715 376 0
-3926 -1713 3002 0
-2950 408 -1408 0
3659 1505 358 0
-3071 -3104 3975 0
-2028 -2235 -1240 0
-3731 -736 -739 0
-792 765 -65 0
1490 725 -3511 0
-1949 2890 3711 0
-613 3989 -3407 0
2348 -3337 -1645 0
-3220 1613 2250 0
-362 -256 2615 0
3892 -3075 -1801 0
757 289 -476 0
-3409 -1975 -2452 0
3547 -3311 -1226 0
1628 -975 1966 0
3839 1635 138 0
-3297 -833 -3055 0
-1514 -3029 -3258 0
-3153 1553 -3249 0
-740 2220 2727 0
2974 -3319 3316 0
-783 -3747 1034 0
-1066 -3217 -305 0
-3241 -1388 1080 0
-1054 -938 -3271 0
-2647 -3587 2230 0
1819 1210 -2621 0
2757 2027 -195 0
1455 -1588 -3720 0
3189 271 -2309 0
3939 -3420 3842 0
4000 246 2969 0
3426 -2081 -3854 0
-866 -128 3333 0
227 -3904 2188 0
-3296 -774 -614 0
1481 -2416 148 0
-29 -1194 -933 0
-994 1536 513 0
10 -3555 1407 0
2590 -2960 -2168 0
3799 1512 -3410 0
2368 2439 -2377 0
3327 2180 -3428 0
1182 -3747 -2165 0
2729 -2026 -22 0
-602 -683 1807 0
-1925 -3467 -1920 0
3918 1976 -1195 0
-3097 1116 1042 0
1670 -3236 645 0
1058 -1870 -2990 0
-1477 -2831 -698 0
-2305 -381 2148 0
3927 2141 206 0
2954 -2366 -3867 0
1716 2912 -3105 0
518 2536 -3486 0
-879 1264 341 0
3436 261 -2168 0
2373 -3338 79 0
1404 -892 2405 0
447 2470 798 0
-484 3067 -162 0
-3260 -2891 -604 0
-2475 -2756 -2398 0
-920 2040 3062 0
2207 -3328 -3529 0
-3390 1113 2264 0
301 568 -2031 0
3960 1805 1536 0
-1583 -959 2875 0
1809 907 1371 0
-2414 165 -1032 0
3300 -1938 2813 0
212 -3278 3231 0
-3652 1516 -3149 0
1882 -277 -2742 0
-3471 -113 -300 0
-1444 -1933 -403 0
2724 733 3556 0
3817 2271 -775 0
-72 3 -58 0
-2035 2406 2646 0
2130 1111 3601 0
-1986 -3350 1268 0
-1039 541 -1450 0
-3493 -3808 -1508 0
-2193 1511 -926 0
-2233 296 -3302 0
1267 620 744 0
-1317 1092 324 0
-1297 -3718 304 0
937 -2385 -1956 0
-2959 3102 2407 0
2550 3561 1337 0
-462 3865 -108 0
-3363 2533 -241 0
796 -3917 -958 0
695 1709 -2426 0
-1195 -2082 -2271 0
-3927 696 -3953 0
1920 312 3564 0
-3308 254 381 0
1863 2991 -1287 0
430 119 -3037 0
-1689 -2141 996 0
3401 2877 -72 0
1884 -482 -3730 0
3405 -1070 -3611 0
-628 3423 3158 0
2192 3623 866 0
-687 -2087 738 0
2096 326 2134 0
-179 654 -1968 0
-3857 -2892 1065 0
3060 1216 -3195 0
2410 3265 140 0
-1465 1066 -3895 0
-1150 2434 -2131 0
233 -1209 -3902 0
3651 -1859 3730 0
-511 720 1866 0
-52 -578 -3783 0
-580 -3829 690 0
1816 -566 1495 0
-1809 3496 1232 0
-1197 -3506 -1968 0
1106 -1760 -2186 0
693 2659 -3681 0
3258 -2082 925 0
-666 2535 2558 0
2836 1644 3710 0
-595 -3276 2675 0
2253 1128 -1283 0
1792 -2588 512 0
-2343 705 2897 0
-1229 1055 1106 0
3109 2679 269 0
-2567 -1900 -1574 0
-2535 -2026 2343 0
-844 186 -2362 0
720 60 2227 0
2221 -2137 29 0
1860 -1605 -2226 0
3385 -3952 177 0
-1196 -835 -1958 0
-3429 -1494 -3504 0
-418 -2875 886 0
-1863 -648 -2921 0
98 -1188 -3827 0
-748 1133 -1853 0
1339 -2216 -3728 0
-352 3785 -3440 0
-1705 -1392 850 0
-3698 -1461 2981 0
3438 1416 505 0
-2350 -531 -1586 0
-704 2620 2094 0
3050 -1084 -3503 0
-977 897 -1820 0
3013 452 3870 0
-2428 -548 -1257 0
-720 -2502 462 0
-1782 -2522 1745 0
3596 998 -1143 0
2306 3153 -3211 0
-2104 1938 -2011 0
-3716 2603 -3934 0
439 2095 1252 0
-2004 -977 2658 0
2493 -5 -3737 0
-1196 -904 -3113 0
-1628 1234 -1859 0
3425 -209 1274 0
-941 -3260 3080 0
3975 -3811 -1991 0
-3409 1727 -3517 0
-1746 3237 -356 0
2118 1816 1249 0
1334 -801 -1381 0
-2001 290 2361 0
-1401 2658 2032 0
-3037 -2887 -1196 0
-2233 -3382 3596 0
-591 -2818 626 0
-1125 1416 2063 0
1166 118 -2685 0
930 1396 -471 0
498 3147 -1118 0
-2880 1899 -3690 0
1954 2636 -786 0
3080 -3243 2201 0
1203 1569 293 0
-3366 3199 -2308 0
1305 735 1913 0
-3336 -3304 2372 0
1160 -340 2602 0
2514 2593 -496 0
-3811 1402 1045 0
1196 2595 -2706 0
3143 -2224 -3113 0
1461 -3026 1094 0
-124 3497 -290 0
-483 3587 1740 0
-1660 -274 -3179 0
3532 -1056 2485 0
2302 301 -930 0
-1927 -2407 -1027 0
719 3785 2267 0
3764 2184 1812 0
-2177 48 -1543 0
1642 3826 -1177 0
1611 -2249 171 0
-1248 -2592 -1357 0
1309 3870 -3938 0
-413 -1061 975 0
194 952 3963 0
3931 671 3831 0
432 1514 -1754 0
-1575 -1161 -843 0
3510 -628 2925 0
-3937 142 -1941 0
536 -1397 606 0
-3456 -2801 -3202 0
-3348 3530 1092 0
-287 3348 678 0
918 -3386 1692 0
1285 153 -1749 0
1834 -2450 1739 0
-49 2511 -701 0
3389 -2850 1469 0
1242 3594 2790 0
2413 1282 -2097 0
189 -2294 2855 0
1072 373 -985 0
-74 279 2347 0
-841 65 -2031 0
1091 -3230 -2763 0
-3672 -3725 2770 0
923 -1605 768 0
1878 -3398 -50 0
3997 -1226 -1741 0
-3621 -2331 2888 0
-1342 -2664 -1965 0
-1559 -3344 883 0
3148 -562 1484 0
3300 -2988 2459 0
-2029 3583 -1346 0
85 -1595 3622 0
-463 -2887 586 0
1724 3536 2497 0
443 -3284 -2144 0
1898 -2094 -3125 0
-3235 2358 -815 0
-3630 -2576 656 0
774 -2400 3578 0
2099 -3172 -3310 0
-1171 1893 2110 0
-115 3041 -3301 0
-2865 -1354 -128 0
-1336 -746 2214 0
2555 2917 -53 0
865 2605 -3572 0
3556 2312 -2067 0
-3899 -3446 637 0
1423 2854 2142 0
-2504 -3642 1108 0
-2740 -373 -521 0
-1857 -3557 3788 0
156 -1230 960 0
-1669 3215 2749 0
2078 -2613 -323 0
-780 -128 -2805 0
-2558 -3141 -1732 0
-1011 -403 -251 0
124 3190 307 0
2838 -171 -3198 0
-2180 -948 -2426 0
-726 -3789 307 0
-1453 -413 2317 0
1189 -861 -2006 0
-507 934 -1460 0
-3362 2094 1622 0
381 2527 3830 0
-1480 -2089 -2561 0
-959 -1734 3928 0
1249 -3650 -759 0
3903 3914 -1473 0
3483 -3011 -1272 0
-1123 -3291 -1470 0
-2806 3740 -322 0
-3612 3176 -523 0
-1017 886 -1883 0
1065 -419 -2910 0
3237 3582 -1043 0
1906 -3020 -3862 0
-3865 3202 678 0
1333 -652 1295 0
-2268 -3244 1252 0
57 -2330 -666 0
2900 -1667 -2061 0
-1692 1401 -994 0
401 -2829 3266 0
-2510 259 3392 0
1592 -1044 -1596 0
3814 -1400 2269 0
3271 -93 -18 0
3562 -2827 1398 0
3302 795 -3845 0
3817 -2814 -499 0
-3351 3221 3636 0
603 3035 -146 0
560 1995 3085 0
3300 -2004 1761 0
-499 -2819 3498 0
2862 -3830 1553 0
-3763 3996 -2241 0
3577 1094 -1487 0
2984 2312 1092 0
3509 -319 -2689 0
-2936 3705 1242 0
3315 675 3346 0
-3354 1211 3270 0
-1310 381 -841 0
-2488 -2123 2620 0
-531 2006 -1436 0
-2512 -773 941 0
-1379 1346 3486 0
3510 419 -3082 0
2859 3416 -1327 0
3349 -956 -2122 0
2717 -2824 2254 0
3779 -1208 1617 0
3979 -3386 -1679 0
-1385 -3899 2700 0
-2883 -3474 1438 0
880 3205 -1194 0
2207 -1878 -3359 0
-2952 -1994 75 0
-1050 -836 -3526 0
-3370 -2478 194 0
2443 -645 1427 0
3907 -3755 -2215 0
479 -1549 3772 0
3726 364 -3139 0
180 -1752 454 0
-3053 -1302 3032 0
1450 2312 -1501 0
-898 -2480 2932 0
-2742 -2452 2736 0
1009 -3033 1723 0
2430 2435 1928 0
2132 -1900 -143 0
440 3318 -2764 0
-600 2484 1730 0
-3835 -2669 1274 0
977 -686 -3738 0
864 -2724 2948 0
-170 -28 -3906 0
1252 2625 3986 0
3922 135 -513 0
-918 1124 1441 0
3881 1881 -1934 0
-1960 1106 3040 0
-3712 -482 -3850 0
-1826 -2751 -353 0
1107 2215 870 0
151 -288 -3763 0
1307 1055 2674 0
-296 -477 -2802 0
1502 -3626 2926 0
-3317 157 893 0
-3091 1647 2185 0
-1423 -1921 -1819 0
1995 -1558 1359 0
157 660 -3754 0
-299 3430 3009 0
-2023 2599 1172 0
3904 -490 706 0
-3158 34 2555 0
580 324 455 0
713 2952 -66 0
3303 -2384 -2585 0
2084 77 1453 0
-3171 -678 -1429 0
-2880 -1268 218 0
-1379 -3442 -2993 0
930 2515 -1262 0
3969 872 -105 0
21 -3393 -1319 0
-2095 -2356 -2153 0
3388 -1833 -1966 0
-119 -362 1865 0
2658 1191 1963 0
1336 -2740 1541 0
-2353 -3843 -2952 0
-660 798 -1365 0
-3966 777 -1036 0
729 2752 -2195 0
3643 -3821 -1099 0
85 1598 -2973 0
-1998 392 1749 0
584 -3170 3102 0
3147 -1619 442 0
-3818 -1757 -2139 0
1414 -776 2295 0
-1093 3677 2176 0
485 -236 1946 0
-1190 317 3929 0
-998 122 993 0
2817 -3091 3214 0
221 334 3713 0
-2779 1480 2980 0
-719 -1004 2035 0
370 -3362 -2709 0
3749 -3198 -3218 0
-3266 -3311 -2947 0
-3775 -1380 1685 0
3550 -2104 -3593 0
-1717 3333 563 0
1724 884 -2217 0
3228 -3924 2490 0
-2133 -52 974 0
-1971 -2475 -1231 0
3565 -3520 3139 0
-542 809 2893 0
1214 -1051 -688 0
620 -3370 -3173 0
642 -1072 3575 0
-415 2285 17 0
-1260 1182 1086 0
370 499 546 0
1828 -1630 -1978 0
116 -2968 2707 0
327 -3864 -3075 0
-2023 -3251 3998 0
1530 634 2289 0
-1852 304 1867 0
18 -1034 1564 0
-2702 1798 -3602 0
-1752 -3078 -3148 0
-1759 -3574 2221 0
1591 -857 3674 0
-2347 1758 -3362 0
-721 3398 -3581 0
1773 -843 3483 0
3886 2704 -2683 0
-3381 -2308 -1357 0
-1137 3149 2453 0
2086 -21 -983 0
-93 -1959 1695 0
1890 568 -460 0
3557 1644 841 0
3253 -3257 -2903 0
3183 -784 712 0
3415 167 2577 0
1808 3346 1622 0
3783 -3246 1851 0
2424 1737 -3189 0
3955 1940 -1024 0
1143 -1963 -3681 0
-1765 3397 3730 0
-928 2657 -2502 0
-206 3862 -3965 0
-775 3875 3508 0
-1733 -899 372 0
-2559 809 -1343 0
-1400 1928 -1351 0
-1728 706 -3560 0
2655 1440 -881 0
925 3647 1566 0
-3155 -24 -3412 0
-3127 1765 -601 0
3010 549 3080 0
1327 1603 3221 0
724 1 -2221 0
-3962 -160 -1045 0
-1339 -1362 3128 0
-2081 -1820 3812 0
-182 -3124 -370 0
68 493 -643 0
2327 2787 -2900 0
-596 -1363 -1798 0
686 -2870 3092 0
414 -3863 -3046 0
-2056 918 -2975 0
532 3330 1480 0
-1077 -1099 -585 0
-3851 1779 2143 0
-1513 696 -1586 0
-3895 -3256 -817 0
-1165 8 1137 0
2155 2900 353 0
-224 106 382 0
2894 2226 -1685 0
17 2724 -1049 0
-3444 -1065 2439 0
-3842 -3992 2120 0
2199 -29 -145 0
1011 978 3053 0
1567 -433 -2586 0
-2866 -719 -2843 0
-1279 -2629 3662 0
3620 -2589 -1116 0
-3727 -1194 2433 0
3319 -3908 -3734 0
911 781 -2767 0
-2043 1345 1226 0
2661 3154 3546 0
3592 3170 2060 0
640 1075 -499 0
444 -3738 -2687 0
-2001 -3713 3619 0
-2723 389 3772 0
1604 1160 568 0
-1111 -166 3405 0
1636 2545 -2954 0
662 -537 -1072 0
-1773 1207 2327 0
487 2016 3118 0
1824 -2330 2408 0
1822 -410 416 0
264 2458 -172 0
-1378 3244 -67 0
941 -3810 2066 0
1076 -3163 3254 0
-2355 385 3438 0
116 -1016 -2439 0
-2483 -3531 -492 0
-258 -1485 2700 0
1041 634 -1972 0
597 -1612 -3746 0
-84 -1387 -66 0
-925 -1931 1093 0
-3775 -2600 -1538 0
743 -3995 -575 0
-1742 -2468 1459 0
1671 3263 1714 0
-2311 1501 -3099 0
3066 -1194 795 0
-3288 687 2952 0
1968 -329 2111 0
2179 -2356 -1514 0
856 -2822 -3448 0
3111 -1193 3220 0
1252 -1904 3675 0
356 253 -1454 0
3231 -3229 -2735 0
3595 -3549 -2678 0
529 -1739 -2472 0
-569 -291 -1264 0
2115 -2584 -2387 0
732 3202 652 0
-987 -1292 1130 0
3042 -1286 -1805 0
1071 2023 1944 0
1545 1938 2972 0
3451 2414 2137 0
3702 -947 -208 0
-1719 -3925 -3205 0
-2065 -477 -2917 0
-3725 597 2671 0
-3980 -609 -2257 0
-683 -2042 948 0
2757 2751 -2167 0
-353 2095 1831 0
-2851 -2090 -438 0
2843 3078 -1328 0
-1318 2743 3644 0
2931 -183 1583 0
1772 -3703 -1678 0
-2426 -3608 502 0
-3390 -1895 -838 0
406 -2321 -1050 0
2719 3520 -1388 0
3746 3024 -1218 0
-3425 -2042 640 0
3059 2047 -2059 0
-2292 1172 56 0
-2587 -3401 20 0
-404 3567 3674 0
418 3773 -1731 0
-1569 3380 -3890 0
-3098 1032 3594 0
1454 -270 -3476 0
-2118 2501 -652 0
-3690 3291 -319 0
560 3683 1748 0
1332 -1462 -1286 0
364 -2091 -473 0
3210 -1505 -1861 0
625 -1611 -3554 0
2289 954 -3859 0
-2940 -1746 618 0
3194 949 2026 0
-2846 -187 782 0
855 2288 1719 0
-2238 31 1613 0
3372 1833 1472 0
-2572 -2042 -3997 0
-112 3859 1531 0
729 -1759 -3640 0
706 2441 -2199 0
-3370 -1371 99 0
3812 2867 -3963 0
578 2599 -321 0
3776 987 684 0
672 858 2711 0
-2169 765 1852 0
-2465 -2806 -750 0
-2088 -2980 -1203 0
-3195 -3002 -1018 0
-2797 -3963 2768 0
-1553 -1949 2532 0
-524 -1997 -3674 0
398 -3782 2639 0
2285 -1132 -1170 0
1484 -2757 69 0
-2040 -709 2781 0
1790 768 -2838 0
1878 927 683 0
-2633 -3190 -803 0
-19 3072 3944 0
-64 -3611 -3873 0
975 321 3096 0
232 -18 3239 0
3625 811 558 0
1954 -1470 -1071 0
784 3527 349 0
1804 -3614 -2802 0
-1306 3431 -725 0
-1264 -3823 -638 0
507 -456 -540 0
-3701 -1032 -1074 0
375 3079 2737 0
2456 -2952 -3219 0
2681 511 1955 0
-1975 3125 1018 0
604 -216 2416 0
-1641 -1834 1605 0
3539 2978 1848 0
-2267 221 -3493 0
915 -3616 3971 0
3269 -401 -1819 0
3409 -1055 -356 0
2586 638 -37 0
-838 2224 -995 0
-1978 168 -1383 0
-3513 425 -3662 0
395 3550 2615 0
383 -3972 -1351 0
36 -2313 -3340 0
1088 -239 -2411 0
-281 3366 -3936 0
-382 -1476 3462 0
3675 -1379 -3696 0
-3768 79 2010 0
-70 -2233 2018 0
-483 -2285 3630 0
1246 -3714 -1140 0
433 -1451 1766 0
-1537 3165 3879 0
2980 1289 1690 0
2393 133 -3449 0
-731 3928 3703 0
3220 690 -3070 0
2884 -274 1814 0
1821 3009 -229 0
-3871 2252 -514 0
-2561 1398 2992 0
633 2267 2596 0
759 -3814 1388 0
1905 -2365 -1976 0
-3103 -3709 -10 0
1804 3170 2285 0
-2213 2899 -3825 0
2493 -2536 -3451 0
-899 -3773 1588 0
262 3537 1966 0
-1104 -3080 -1754 0
2740 -888 -658 0
-2979 2032 2717 0
2124 -2684 1182 0
2584 3157 -3856 0
-649 -1860 3302 0
125 2349 2734 0
-2222 -1441 2527 0
3107 -1287 -3368 0
3331 1230 -892 0
2126 -3553 711 0
2477 -1913 477 0
571 2794 2941 0
820 -850 -1091 0
701 2537 -2737 0
-3101 -3864 -1753 0
-1857 3930 2104 0
-1114 -3017 91 0
-1438 3938 -3750 0
3442 -631 -2139 0
2093 1911 -2575 0
-991 -848 1757 0
2417 1918 -3013 0
2821 -2792 2179 0
-969 119 2381 0
-2418 2305 -2431 0
3490 -3591 735 0
-1834 -3406 2851 0
-3615 3296 3427 0
2697 2979 2960 0
-333 -1214 1620 0
223 3544 -1376 0
-2806 1944 -1065 0
-371 -2281 -1832 0
-20 -457 -3880 0
-2912 -471 2968 0
-3641 2327 -2732 0
-3917 114 -3035 0
-1210 -2522 -1166 0
209 -3102 3499 0
-378 2058 -1148 0
518 -2760 -2902 0
334 3647 2590 0
-1550 -40 1158 0
2892 -989 -3260 0
-3219 -1022 -3615 0
1405 1206 -899 0
-2203 -988 2372 0
3138 -3362 -1490 0
2976 -3159 925 0
-1596 -2978 -2804 0
-3045 104 2633 0
1049 -3933 3812 0
465 499 -2730 0
3592 674 3213 0
1386 -969 1032 0
1975 -649 -2383 0
1821 -224 -2696 0
-1895 -3225 2009 0
-896 -400 3067 0
3401 1905 -621 0
-678 2844 1079 0
376 -2868 82 0
-1099 411 1998 0
-2109 2655 -3939 0
-3028 1823 436 0
-2130 -3767 526 0
2282 -3336 -3394 0
-3013 -28 1443 0
2746 -3566 -3452 0
-1254 1148 -1866 0
787 -69 -3222 0
-1760 39 639 0
-1954 -3552 2908 0
-1170 3878 -1732 0
707 -1335 -3276 0
3843 -1499 3117 0
1021 2032 -1255 0
573 -3071 1726 0
1455 -3362 548 0
3860 -3817 2271 0
1112 3311 -3466 0
3650 -2384 -1727 0
-283 2352 -3615 0
-2886 -189 -2743 0
-3076 -1667 -1033 0
2567 -3097 3267 0
-1152 -3650 1305 0
3563 -147 -1240 0
2985 -3165 2767 0
404 182 1888 0
-2113 2864 2960 0
3303 3796 1479 0
-3091 -1600 -2417 0
3779 -425 3471 0
-3959 3374 -3074 0
-2051 2960 -1272 0
1617 3603 3343 0
-689 2992 -3767 0
2595 298 1171 0
1326 -1381 243 0
2531 1641 -347 0
1883 32 2131 0
-3668 1346 395 0
-1495 547 3085 0
-203 1321 2249 0
-36 -724 -2666 0
-1529 -1471 -2695 0
-3584 -1176 -3723 0
1295 871 -829 0
-3364 2787 676 0
-1443 2540 1224 0
-2955 3063 2724 0
-1529 -1261 1916 0
-752 2449 1310 0
-3967 2784 -2685 0
162 532 -2227 0
2893 -1193 3138 0
917 -1601 3371 0
1183 -519 -1767 0
3168 3483 -1139 0
3818 -421 -3712 0
-3484 -959 2614 0
-1052 -3813 -1507 0
3434 3950 -1933 0
3706 -1797 38 0
943 -837 -682 0
-1368 3671 1931 0
-1990 -456 965 0
-2704 2215 -1423 0
-3129 633 683 0
-266 2522 839 0
-3187 -1438 1786 0
3946 315 1988 0
76 -1209 811 0
-543 -213 1049 0
-282 2969 -2542 0
-3774 1422 -3093 0
-2562 2895 -2772 0
-2109 1465 291 0
55 855 -1156 0
3587 3823 1099 0
-2709 3454 2406 0
-2141 -2398 1461 0
602 -2332 -1409 0
626 620 -2422 0
2863 360 -1533 0
1640 -1094 247 0
-848 -516 3795 0
-400 -3792 529 0
227 -243 -2367 0
1124 422 -202 0
-265 -2478 2207 0
-2646 -3825 -1828 0
1695 2527 -1671 0
2576 -3607 -2147 0
-2788 -1175 1796 0
1503 1624 2640 0
3474 3836 -860 0
-2774 -3561 2765 0
3158 -3836 -3096 0
-2540 -285 3194 0
-3194 2138 194 0
2822 2065 -3652 0
2249 -2989 -3607 0
3937 -3517 1933 0
-379 3947 -2550 0
2392 181 1392 0
-1681 -1855 1120 0
-3924 -3173 3732 0
763 1909 3560 0
-554 2145 -3620 0
995 3044 -90 0
-2714 -2261 -2746 0
611 323 2043 0
2646 -699 -3764 0
-2678 -1196 3778 0
2088 -2226 -327 0
2990 -2039 299 0
-2193 3638 1721 0
-664 -2998 -1911 0
3285 -2844 -3810 0
-378 -3579 1852 0
-1324 -1713 -3625 0
-2279 -3862 250 0
1987 3597 1880 0
-3715 1984 -673 0
1772 2378 -3359 0
-2583 2616 3990 0
-1521 602 -2411 0
260 2703 3615 0
-1791 -2750 -1717 0
-597 2323 2057 0
-3337 -2059 2923 0
2371 417 -1289 0
-3746 3338 2401 0
-545 489 -1560 0
-840 -1747 -2154 0
1685 3901 2670 0
-1145 -652 1444 0
-3631 -3228 -3359 0
-1578 -2517 -3177 0
-3588 -3745 -2541 0
2515 2008 -1748 0
3161 3087 3259 0
-944 -1823 2518 0
819 2529 1005 0
-1226 -716 3566 0
2731 1768 2827 0
-5 -2144 -2315 0
3957 -3952 307 0
-2698 601 -916 0
1915 -1317 -3411 0
-70 -1801 1237 0
-929 1022 -738 0
-1737 3578 3489 0
223 1347 -943 0
669 -3360 2036 0
-631 -2674 625 0
-1174 1338 536 0
-2671 2519 -2106 0
1330 1358 -322 0
-770 -412 -3160 0
-2594 -1052 1259 0
-3630 -938 3438 0
1991 3984 2396 0
-2828 -1810 708 0
-1485 3771 1064 0
-2560 -1510 -1543 0
1258 -117 1252 0
-250 1696 -1467 0
-635 2461 3672 0
-3847 1668 1138 0
2002 3361 885 0
3485 2927 -2275 0
-103 -2183 786 0
276 -2819 3540 0
1429 1507 2483 0
3976 3690 3851 0
-2957 2366 3144 0
-3823 -3046 2834 0
-2885 -1835 1886 0
1409 -2346 -1448 0
1030 3132 1762 0
1239 -187 3368 0
3918 2265 1261 0
-3675 -3026 -502 0
-867 3766 498 0
2400 -1419 1240 0
-1678 3236 1638 0
-3995 -2261 1186 0
-3943 430 -3068 0
70 1542 -466 0
1420 -2797 -47 0
1767 -1561 2480 0
3093 1713 2863 0
-3269 -3736 862 0
-32 -306 -1105 0
3997 -1937 2455 0
-1425 1887 130 0
2786 -2121 2632 0
711 -45 -1471 0
-386 2261 -2788 0
1637 1057 3092 0
3869 905 -948 0
-1539 -441 -290 0
560 -3321 96 0
-2845 2599 1100 0
-1257 -263 -1341 0
1825 -1026 -1076 0
-2480 1327 3699 0
1750 -2696 1563 0
-857 2848 -2067 0
-2134 -3659 -934 0
3147 -3932 3291 0
961 -444 3577 0
-2946 591 2304 0
461 3849 -1231 0
-303 2863 -3458 0
847 -1766 3104 0
-3859 -384 2594 0
-2996 896 -852 0
478 -3379 1456 0
2675 3876 2401 0
3936 2397 1384 0
-1223 -1060 -9 0
772 -1479 3260 0
3107 -1297 177 0
1258 -2283 2643 0
-2475 1505 -3700 0
887 2604 -1147 0
-1496 -1537 -3211 0
3938 -3134 1728 0
-2759 3240 -1858 0
1597 -2571 -3784 0
-2978 -1854 2241 0
-1696 3462 1791 0
-2140 178 843 0
1832 2870 3985 0
-487 466 3972 0
2132 -1324 212 0
3149 -2492 -476 0
-2422 1612 -420 0
1277 -1413 3563 0
1755 888 1817 0
-2099 318 -312 0
-1479 -1624 1688 0
1319 -2304 522 0
3984 408 -2262 0
-3459 -3082 2391 0
3593 3203 -1906 0
-676 -3426 -808 0
2417 2826 1646 0
-3898 3255 3997 0
835 1191 45 0
3786 -1244 2583 0
-3739 3063 3056 0
816 -2281 3493 0
1460 -2027 -1092 0
1248 1797 106 0
-3584 -1583 -126 0
2114 -3457 -2010 0
-2161 2121 3486 0
-3128 -2746 -2337 0
3665 1491 -2281 0
-146 -2039 -430 0
175 1467 1861 0
-2050 -2708 -2090 0
2339 -2006 -451 0
2981 -2924 1546 0
-435 3789 -691 0
1322 -3525 -2508 0
-2841 3754 3236 0
1708 712 606 0
-3416 -2888 -3919 0
2322 -2898 1616 0
-1372 -186 -3456 0
-101 3470 1658 0
2941 -2940 -701 0
3460 -3999 -1813 0
-1655 -3398 -1721 0
-2118 1268 2232 0
-3824 -2984 2206 0
2434 -2322 -1040 0
3319 2420 -3974 0
-914 -2380 3978 0
-188 -3982 -381 0
676 -3044 -2405 0
3601 2760 -3584 0
-3066 42 2534 0
2768 -1303 -2809 0
782 2913 -2878 0
2358 -2098 -3668 0
1314 2677 2421 0
-256 2224 -2927 0
-2602 -1619 2088 0
3965 747 3383 0
3288 -3406 39 0
-3342 -1293 2415 0
-1458 -2824 1632 0
3290 -1274 -3593 0
-2004 -1588 1 0
-546 -3756 1725 0
2922 3004 -3238 0
3055 3950 246 0
2262 1110 -854 0
-3668 -2568 2704 0
267 1346 3846 0
-2764 -1045 1114 0
-2166 2655 -782 0
-1801 3575 3347 0
-2909 3759 1916 0
-2226 487 -2427 0
93 3651 1980 0
2030 -2852 851 0
2219 2325 380 0
2779 -1457 -2404 0
2706 2330 3875 0
-2096 -2715 1220 0
544 2707 -105 0
-159 -1661 -557 0
1215 -3146 -2694 0
-2745 3451 -3091 0
1604 2310 3571 0
-186 2298 -3728 0
3892 -2465 -2132 0
3776 2611 -895 0
3725 1359 -1549 0
-1666 -2291 2303 0
588 1168 1799 0
-1389 362 3399 0
2217 3665 -2796 0
3205 -3753 -2938 0
-1272 -2462 -3254 0
3447 2614 -2051 0
-333 2881 2974 0
2644 355 -2326 0
2692 2018 -1660 0
-1111 3954 -2878 0
-2912 -2707 1595 0
1307 1614 -3227 0
2017 -3095 529 0
1238 -2936 3232 0
-108 -408 3331 0
1039 -3368 -2773 0
-3698 -1412 3580 0
-83 2021 2249 0
-707 -2189 3198 0
1549 1289 -146 0
513 3213 -3299 0
-1673 2807 -1344 0
2577 -2425 1347 0
-1016 1522 -1859 0
1939 640 -3957 0
3021 213 126 0
2510 -1181 -298 0
-613 -2504 -1356 0
3313 -150 1809 0
160 3858 -282 0
-1551 -2390 -2109 0
-2085 3918 -1573 0
3021 -1481 -3029 0
2226 2916 2233 0
68 -597 2660 0
-1062 1837 -1312 0
-952 2836 3146 0
-1290 2026 -1151 0
54 3475 -1281 0
2081 2841 -2900 0
476 -844 2203 0
3612 -3730 -470 0
-3931 1122 -1577 0
-1419 964 -2246 0
764 -2290 148 0
3390 -1566 -3965 0
2656 1701 -430 0
2807 617 1233 0
3093 1842 -1916 0
-2339 3638 -2964 0
3061 2669 3752 0
3906 2689 -3903 0
1738 -1184 2412 0
714 -2298 2254 0
-44 3487 1241 0
-1867 2994 -1286 0
2851 -3335 -718 0
-580 -2752 3786 0
-949 2409 828 0
1646 1399 -1786 0
-2386 -745 -1223 0
-3539 1576 3122 0
2058 -465 842 0
3843 1700 2166 0
-485 474 -1570 0
3679 2584 1424 0
1556 667 -3865 0
-2775 2717 -1987 0
-2168 3340 2576 0
-1739 2340 -1504 0
790 606 1572 0
-1975 661 -171 0
-1400 -727 -489 0
3228 -989 1403 0
-1754 -3221 -816 0
-970 3563 328 0
1206 3914 3922 0
798 3225 -270 0
-3154 3560 -1722 0
3939 1240 -1128 0
-2591 -921 1593 0
255 2137 3790 0
29 1994 -3783 0
-276 -2419 -443 0
2798 -539 -1147 0
3822 -72 -2119 0
-2304 -378 19 0
1718 3579 -178 0
-2431 839 2753 0
-2680 -2109 -2933 0
2888 2649 3451 0
-2245 318 1692 0
1500 1002 26 0
-1807 1249 267 0
1937 2651 -835 0
95 -1003 -1296 0
-574 -3417 -2663 0
2652 3908 1496 0
1786 1510 2279 0
2033 -1961 2973 0
1445 2491 -861 0
1341 621 -1745 0
-802 1126 -3698 0
-585 852 1745 0
2071 -2486 -555 0
2912 -1242 -2118 0
1090 -2699 1539 0
3592 -340 2782 0
2518 340 1731 0
3497 -3634 3549 0
3015 1119 893 0
-2800 122 -159 0
-1793 -1330 1566 0
-745 -3190 -692 0
-756 475 603 0
1709 820 2095 0
-1749 3916 -1509 0
1573 373 -3080 0
1793 2918 -3815 0
2927 3786 469 0
-993 -3716 1718 0
-3938 3548 1133 0
803 3080 3103 0
-1742 951 -2609 0
242 1101 41 0
2639 2896 2687 0
2649 674 979 0
1087 -51 -3895 0
-2725 -2204 1797 0
954 100 -3654 0
908 2973 -955 0
-509 2791 -2041 0
-3677 3878 697 0
-1557 -838 3274 0
-79 2868 -3439 0
-3412 -1513 2423 0
-1229 2370 -3385 0
491 3335 1620 0
2745 1695 -220 0
753 2107 840 0
-1867 3092 -60 0
-804 1119 -75 0
632 1156 -2904 0
-2 -1956 2196 0
1569 -2037 3474 0
941 -96 -2715 0
3382 895 511 0
-2937 69 -539 0
-3782 1256 -1004 0
-1927 -1398 3305 0
1572 -1224 -1799 0
-1226 1727 -1745 0
2034 -2773 -2478 0
3476 -1190 -2469 0
1984 1433 -3504 0
-3446 327 -3716 0
-571 -3273 -3543 0
3259 3881 3600 0
-3501 -1710 -3199 0
-848 -3190 -718 0
391 746 -443 0
3568 -1442 -943 0
-2727 284 1260 0
1944 -265 409 0
-1751 -160 -1789 0
-1647 3868 735 0
-3531 -59 2671 0
2431 -1872 -1897 0
515 -2166 -3729 0
450 3279 -1001 0
2245 3312 3477 0
3305 -458 3890 0
998 -3869 2243 0
-3055 367 3073 0
3736 -884 2507 0
611 936 -3670 0
-1505 -2351 1449 0
-716 140 1565 0
-3549 -2963 -434 0
-3097 2989 -1647 0
506 2235 -504 0
1473 -3076 3426 0
145 -3812 -2474 0
3684 -3776 3138 0
2900 3612 -834 0
2947 600 3107 0
-1097 2489 1739 0
-3549 -3433 2930 0
3191 2971 618 0
-1410 -2818 300 0
-1683 3388 2576 0
286 -3925 -2284 0
-3794 -2622 -3019 0
85 -289 -2261 0
2242 540 2313 0
2080 2924 571 0
-153 -2021 2997 0
-1724 3674 -1526 0
-362 2295 2911 0
1891 3506 -746 0
1804 376 1387 0
-3794 264 -45 0
2771 1342 -2267 0
3441 -1757 3629 0
2592 -591 3287 0
-535 3421 987 0
-1046 -502 2974 0
1445 3307 -3314 0
3035 339 -2750 0
-1217 -1119 -1372 0
2212 2236 -2534 0
1517 -3147 -90 0
715 3622 -524 0
597 2834 1626 0
2685 961 -430 0
3226 -768 3085 0
-411 1817 -2714 0
2475 -2976 3227 0
-2002 666 1432 0
-2336 1448 2928 0
-1112 3355 -3136 0
-1678 -1637 76 0
-2359 -283 -1836 0
-1511 2937 -2860 0
1774 -1364 2219 0
-874 -3753 -1775 0
3461 3229 -1960 0
-2213 3395 -787 0
-3632 365 -22 0
2709 -866 492 0
2578 2232 -3007 0
4 2770 -1590 0
-2327 -3178 -1550 0
3319 1071 -3463 0
-2729 2947 3879 0
199 -1251 -3023 0
3248 1360 955 0
-2296 -2561 1984 0
54 3916 251 0
-3329 -856 3291 0
2183 -1367 3233 0
3367 -3907 -1076 0
99 -886 -3600 0
-3437 -986 2793 0
-3538 2015 -3940 0
3691 -3537 -3400 0
1302 -1392 2856 0
-264 1516 -279 0
2355 735 -240 0
2795 -1525 -1824 0
-1118 2545 248 0
-3230 -3731 -525 0
-391 1297 117 0
1389 394 -3300 0
-2799 -3441 -1456 0
-2609 1298 -3231 0
-3560 -3974 -1038 0
3465 2857 3401 0
-2849 -1422 2954 0
-2009 3101 -1621 0
-2485 -1796 -657 0
479 -3615 1419 0
1001 1595 1250 0
1274 -544 -2288 0
2447 3525 171 0
768 2799 802 0
1665 -737 -2166 0
-801 3944 -3010 0
-3668 -2223 -1448 0
730 2316 3604 0
1337 2946 -3953 0
1275 1923 2414 0
-1143 -2108 -2841 0
3921 -2121 2873 0
3384 2340 950 0
2238 3502 1758 0
-3173 -2343 -2806 0
-1523 -1417 -3821 0
3266 916 2851 0
3763 -2828 -3211 0
-2912 -566 -770 0
3708 406 -1334 0
-1583 2883 2767 0
-2030 840 -3201 0
-1227 -3964 -3526 0
-2108 -3891 -1644 0
301 -1507 954 0
-1366 -3629 3829 0
87 -579 2750 0
-990 -1140 70 0
-361 -326 3593 0
-1541 1215 -2846 0
1225 3802 -317 0
2482 702 1298 0
-3013 -3120 3331 0
2989 2271 -642 0
-370 -1452 3850 0
697 -1166 -1511 0
-334 3512 -637 0
3061 2124 3057 0
-3533 1281 -2339 0
2378 2514 -1559 0
2614 -657 -34 0
3754 3451 1980 0
2285 3105 1232 0
-3483 -2213 -427 0
1528 -1845 1821 0
-2337 720 -2483 0
1641 -3159 -1017 0
-279 2034 3295 0
253 -3646 -749 0
3489 811 2381 0
2855 -1675 3240 0
1403 -1893 2422 0
-1318 -3358 2998 0
-1338 3883 1036 0
-2262 -543 -2225 0
2672 -1438 1697 0
3935 2390 3495 0
-452 -3735 -3384 0
1323 64 3289 0
1474 2450 3167 0
-2705 -654 1047 0
-1464 1918 -242 0
-902 119 -122 0
3169 3231 2209 0
1228 -1622 126 0
3601 810 -522 0
-3385 2005 -3420 0
3709 -537 2919 0
-2904 3581 -3808 0
-2492 -71 -2926 0
3329 1498 443 0
755 -980 -678 0
843 -2017 207 0
3016 -24 -1427 0
136 2937 -1749 0
3158 -1971 -2253 0
-1566 2165 -2996 0
1752 -955 -2069 0
476 738 -2308 0
2748 -1065 -1083 0
775 -247 1698 0
1002 3574 3358 0
3175 -2932 515 0
628 2593 -3183 0
3780 2782 -210 0
1055 -2551 -3833 0
-1370 3517 -3820 0
2446 -1848 3832 0
2038 3234 2735 0
2692 180 -3446 0
-968 1636 3638 0
-2178 -3600 -2623 0
-1061 2394 635 0
-3414 2280 -340 0
-1561 3436 -3511 0
1243 3687 -2361 0
-493 2799 951 0
-2987 -136 1036 0
-2093 -1585 -3058 0
2586 -1136 2331 0
1345 -2742 3241 0
1331 -329 -2130 0
2054 -2256 3990 0
1110 1422 1041 0
-1664 190 1036 0
468 -3360 -1376 0
2894 3157 1786 0
1921 -1162 -1806 0
-897 2858 1108 0
-3989 -3321 -1461 0
3038 -2337 3761 0
-928 -44 2190 0
331 812 1466 0
-1423 -1719 -2136 0
-2072 655 2657 0
547 -2765 3710 0
1308 -2967 949 0
-360 1529 2893 0
-1067 -1613 -2187 0
-2005 -2459 394 0
3984 3762 65 0
1523 2680 -841 0
-1674 3660 -3926 0
3817 2680 1455 0
-1115 1457 -2625 0
-1733 -2017 2712 0
2533 2032 -230 0
-2439 710 3185 0
1770 -1233 -2561 0
3955 3699 3037 0
-3350 349 3210 0
1830 -3507 2566 0
1891 -2254 -2510 0
-496 558 3881 0
72 -2627 -541 0
-3863 -251 923 0
-1984 -3565 3440 0
-1193 -365 -3443 0
-2774 1940 139 0
3580 1487 3081 0
-1819 3261 -2730 0
-1830 1397 -3108 0
853 1235 -150 0
-2616 2174 1429 0
-3996 -3626 370 0
2316 2210 1245 0
-1065 -3819 1149 0
104 -1588 1331 0
-1126 -1764 2827 0
1186 -2193 3893 0
2806 -2203 -1093 0
-3898 -3570 -2958 0
-835 -2713 2312 0
-1732 -1465 1986 0
656 -3353 -1769 0
-1254 752 3061 0
1849 2679 474 0
3291 1847 3217 0
3095 2773 -518 0
-2690 2021 1423 0
-2465 3510 2152 0
1548 -2354 -1378 0
-365 2934 -3310 0
-1264 1238 -865 0
3850 2980 2569 0
1521 3561 3235 0
-2740 -3924 -492 0
1697 3596 -923 0
3324 -1041 373 0
-1002 -656 2607 0
1112 -2224 -979 0
3630 3302 2084 0
406 2021 1860 0
1013 332 1392 0
2224 551 -2467 0
491 -1270 -1267 0
2753 -535 -2580 0
545 -959 -1049 0
3912 1816 -3525 0
-140 -871 2523 0
3338 -1605 233 0
-2895 200 -340 0
1800 2194 3015 0
2443 2155 -2718 0
-3732 3435 3879 0
2973 3095 359 0
-1161 3359 -1686 0
1674 -1939 -1602 0
3632 -1819 -204 0
2564 190 -307 0
-261 288 2136 0
2956 3044 1545 0
2042 2869 -2816 0
3885 1072 -3837 0
247 -697 841 0
-3444 2777 488 0
-2657 -3006 640 0
1977 449 3202 0
-982 -1354 -2258 0
3480 1500 484 0
-2020 -2396 -1018 0
385 -1633 1494 0
1903 650 -1478 0
1016 1393 -1866 0
-2515 -3904 2295 0
-2349 304 1995 0
-467 -1431 160 0
3689 -3370 -2936 0
3589 -1915 1350 0
686 2122 2707 0
3621 555 3996 0
2414 2297 3049 0
-3709 1281 1845 0
-854 1687 3928 0
-82 -937 -1236 0
-3612 -2723 1185 0
-2094 854 2729 0
-1789 -2515 75 0
3819 -1401 876 0
1 1243 -1926 0
-3348 1226 2927 0
3028 1292 -2738 0
3945 751 -3518 0
-1860 1387 1001 0
-56 -1678 -2036 0
2842 1572 -3415 0
-2700 1634 3054 0
3080 563 3340 0
1123 -2170 1358 0
501 1729 -1591 0
2733 -2815 -3714 0
2214 -2042 3233 0
451 -1920 2014 0
-3453 2546 3766 0
-1206 3836 787 0
424 2790 -1594 0
-3963 2846 3387 0
3029 -495 -3150 0
985 -3757 -1588 0
-3088 885 2293 0
3650 1080 -2851 0
-1378 -1760 -1581 0
1455 3884 -3704 0
2055 -45 170 0
-1293 3309 -1698 0
-3871 1655 -1978 0
3105 1665 -2056 0
1329 -172 1040 0
3728 -2046 103 0
-2841 170 195 0
3709 -2263 -3512 0
1019 3315 2703 0
-2677 2049 209 0
-2299 -3913 3954 0
2603 -3207 -2614 0
-1480 2007 -391 0
-3256 1950 -414 0
1304 1301 -369 0
2387 2086 -399 0
3011 2942 -1591 0
1772 453 2160 0
-366 -506 3636 0
-3111 696 -1372 0
-698 -492 787 0
-812 -2893 2771 0
2845 2858 -1570 0
-2612 1693 1484 0
1200 3094 -2430 0
2214 -1768 -2114 0
-433 -2021 51 0
-2901 1798 -877 0
479 502 1995 0
-3088 2044 1013 0
3751 1954 -2063 0
498 3763 -2581 0
-2140 762 -2659 0
2834 -124 3909 0
160 3608 -3919 0
-3074 1339 402 0
-3694 -2663 3656 0
504 1370 -3717 0
3655 -313 -3242 0
-339 500 1940 0
759 1391 2034 0
-26 -530 3207 0
2993 -291 1331 0
-454 3766 2814 0
2276 -1921 -1615 0
302 -3666 -3029 0
-1748 3254 -3416 0
-647 -3783 -2197 0
-1858 -3756 -3913 0
1885 -49 451 0
-347 519 -1673 0
-2861 -2529 1309 0
-521 3945 -2393 0
-3666 -2140 227 0
255 -3339 -261 0
3776 -432 2475 0
-965 1125 -1498 0
3889 -3161 2648 0
-853 1550 3661 0
2811 3745 3553 0
3834 3577 -3591 0
2653 -1327 3295 0
-1682 -801 -3140 0
3965 -2767 1832 0
-3650 941 3455 0
-446 -2771 3811 0
-135 3803 1888 0
-1910 2867 3188 0
-1448 -3396 -533 0
-1414 -693 -2075 0
2340 -2945 2595 0
931 2565 -2292 0
742 -1784 -2852 0
-557 -1516 2008 0
239 -2600 3932 0
-2424 -3790 -3216 0
-764 312 3691 0
2865 -2650 2186 0
2149 1749 -444 0
-504 -893 1550 0
123 -1037 -2428 0
-905 732 -388 0
2823 -771 -2385 0
-828 -1600 1348 0
-1583 268 2733 0
-557 -2116 3615 0
3959 -368 112 0
-1103 -3847 2141 0
-3461 3884 -942 0
-95 304 -522 0
-2132 3649 3774 0
2219 331 2535 0
-190 -2323 -3836 0
2710 -738 -3602 0
807 3565 1127 0
-915 -1036 -2917 0
1016 2906 -643 0
3218 -273 -1603 0
2320 2972 -759 0
-3732 2444 1021 0
2833 3018 -3228 0
-162 -1092 2184 0
2115 -1218 3402 0
-3458 277 2221 0
-189 -2146 -50 0
-1535 1422 -2997 0
-3797 33 2946 0
-3198 -2227 -3456 0
-1677 -1850 2774 0
-2670 -3267 2399 0
-1344 3816 82 0
1458 -300 -1892 0
-3187 2376 -3888 0
-3947 3833 1153 0
-13 -178 1882 0
-1781 -1956 3204 0
604 -331 1091 0
-3904 -1613 3192 0
-1452 1785 787 0
-1784 2246 3106 0
-3732 -1384 3746 0
-2197 3030 -522 0
-2683 3676 735 0
-3285 -747 -861 0
221 -994 -1697 0
1255 1268 -1794 0
-447 2889 -3084 0
1346 -571 -2523 0
1662 -1573 488 0
-1570 -3563 4000 0
-583 -2549 -2279 0
1896 -2 627 0
-2575 -3657 -3803 0
-1545 -215 1894 0
-1604 2391 -2178 0
-2112 -1963 -2382 0
2135 -3645 -3250 0
1879 -469 544 0
658 2394 1492 0
3519 -2500 -3190 0
3704 1601 3154 0
-230 2183 -918 0
-1259 -2331 2099 0
-2900 -1920 -3191 0
-870 -1422 -455 0
2871 -3620 3953 0
-3831 -3596 699 0
659 -2944 1561 0
-3378 156 3575 0
-3127 -3178 111 0
1497 -2083 130 0
660 -3588 -264 0
-1123 -26 3680 0
-3495 1972 2839 0
-2025 -2956 -190 0
3740 3787 798 0
1062 -242 -17 0
-1792 259 3522 0
1051 -972 -2368 0
3794 -1194 -541 0
-2224 791 2878 0
609 3789 -1544 0
1338 1547 2574 0
-3858 1688 -3361 0
-1312 388 2109 0
1059 -3454 1785 0
667 -3920 3299 0
-1574 -2114 3428 0
-405 771 2663 0
-716 990 -2977 0
2166 690 -1195 0
1940 -621 3301 0
1146 -351 -3128 0
-1765 -3010 862 0
1027 -313 -1237 0
570 -50 3859 0
-3863 3440 -1683 0
-2120 3553 -2865 0
-2926 1177 -648 0
-2967 1661 -2348 0
-1447 -3731 -2890 0
2967 -1003 -1709 0
1058 312 1389 0
1194 -1958 -2744 0
1325 -3172 -1460 0
-3339 -1872 -3470 0
2497 -2990 -2981 0
2999 -573 1635 0
3764 3875 -1466 0
3850 -1928 915 0
-3738 829 3397 0
1182 -1432 -1624 0
77 -3043 -158 0
-1208 3133 -473 0
2245 2867 780 0
2717 3251 -999 0
352 2335 2679 0
-3224 2389 -1028 0
-2440 -2095 2470 0
-1806 3720 2820 0
1293 601 220 0
-3368 497 -2100 0
-3958 877 -1272 0
-307 -1239 -2838 0
-3175 332 -2862 0
2779 2198 -3432 0
1396 292 3479 0
-967 3863 817 0
-1396 -1666 3717 0
-1179 -2915 920 0
507 -3183 590 0
886 1347 3838 0
2743 -460 -1311 0
3922 -2682 3256 0
-3426 1436 -2402 0
-1820 -3444 3902 0
-1925 -653 2085 0
-414 1772 1224 0
-637 -3643 -487 0
1912 3957 -1657 0
3806 2011 -1349 0
-86 3978 2723 0
3021 -1634 -973 0
1047 -2526 -1772 0
-1493 -346 -2486 0
-3316 2471 3532 0
-562 -2639 -2337 0
3296 -923 2117 0
-406 -977 -3240 0
-3158 2314 3074 0
2864 -2026 -2617 0
1341 -1311 -676 0
-2296 2513 -612 0
-1842 85 1413 0
-2440 -1707 1717 0
-704 -1902 -650 0
-2111 2228 -223 0
3346 328 -3164 0
274 1962 2385 0
3240 273 2186 0
-1896 2246 2573 0
1117 2536 -3055 0
3388 3733 11 0
-3560 -313 2195 0
-2473 -3793 2409 0
-2843 522 1694 0
-3433 -690 -1503 0
-872 1474 -549 0
-3035 -225 1107 0
-523 1188 1399 0
-1367 967 -3208 0
3935 2416 2910 0
3754 1808 915 0
-2910 2676 535 0
1610 2228 974 0
-969 -829 -456 0
2371 3892 -1785 0
-3941 -640 178 0
3098 3849 -3135 0
463 -2848 250 0
1923 1580 -2351 0
840 1456 -1123 0
-3819 3898 -2981 0
545 -2120 3530 0
1571 -3539 1676 0
-2456 -1249 1101 0
-3558 1079 3906 0
138 3427 -965 0
-2097 -3311 2240 0
2950 985 310 0
-3461 3323 3132 0
-3459 3813 3944 0
-1211 -3333 2069 0
-3333 -2897 1371 0
-1308 2060 -2634 0
-142 -1905 732 0
1952 2774 572 0
-1383 -2873 -2553 0
1438 346 -760 0
-532 -3256 -3852 0
1449 649 658 0
-988 -66 -2616 0
2194 3611 -3486 0
2379 2503 -53 0
1631 2074 2010 0
-2399 1273 540 0
2274 1535 -1023 0
-879 2542 1473 0
-2037 -795 -881 0
3015 -3113 2593 0
306 1350 -2308 0
-1995 -1326 -620 0
1048 -799 -1720 0
2773 1726 -1045 0
928 2187 1068 0
2574 -3680 1789 0
-3377 -1397 862 0
-652 2362 1378 0
-1755 -2773 2586 0
1316 1715 -3085 0
-571 3162 2921 0
-1606 1460 1277 0
-277 2087 467 0
2278 2127 -3752 0
2884 102 -1474 0
-3837 2101 2710 0
2729 -3558 -2571 0
-971 -52 1322 0
1437 -429 -1302 0
2420 2959 -1186 0
2399 2816 741 0
1480 -1569 -2423 0
2151 -2698 -2701 0
3137 -3516 2387 0
-1196 1191 -11 0
-483 -2375 1470 0
968 -552 -787 0
624 -2389 -2883 0
697 -152 2614 0
-333 3932 1308 0
3547 570 -2085 0
856 207 2715 0
3204 3862 -862 0
1905 2676 14 0
3250 2121 -2011 0
-997 -1626 1291 0
3253 -1444 2775 0
3059 -760 -1323 0
1677 764 -852 0
2375 -2373 -2923 0
3622 -3613 2521 0
-2436 3397 -148 0
677 -3732 -2959 0
960 427 856 0
-2845 1074 -2014 0
-2049 -48 1159 0
2261 3195 -3075 0
1605 -802 3424 0
-3205 917 3809 0
-2377 -1579 770 0
-2602 -289 -1619 0
-541 1144 -2515 0
218 -2451 1532 0
2174 -1315 3489 0
1805 1072 -1651 0
713 -1446 430 0
3245 1955 -3491 0
-2695 -1211 -3898 0
283 -2270 3330 0
3363 -223 1461 0
2344 3441 -1840 0
2711 1516 639 0
-3939 1875 3342 0
3773 -3918 -3879 0
1979 3816 -231 0
756 444 712 0
1062 3709 -3755 0
-1345 -1010 -874 0
-2182 533 -579 0
2066 176 -895 0
-3582 -2537 2488 0
-716 805 3994 0
-807 -1789 3959 0
3457 -2517 -1193 0
1292 2741 -1310 0
3300 -484 3991 0
2252 3872 -781 0
-1704 -2805 -3458 0
3653 -2783 330 0
374 2860 -1953 0
-2619 343 3951 0
-1512 808 3403 0
-879 -583 679 0
632 -1015 -3557 0
-372 3786 2948 0
-3910 -710 -364 0
-723 -2991 -2801 0
3119 -2533 -885 0
1600 -3458 -2731 0
-626 2466 3178 0
10 -3263 2793 0
-1040 238 -2732 0
875 -1802 -3291 0
-101 -149 3987 0
-229 -415 -302 0
-1506 831 3429 0
2453 -492 -3457 0
-3958 -285 -3037 0
-2927 -1514 2191 0
2696 1152 -1479 0
3477 -3065 674 0
-3369 -3278 3364 0
-39 -3903 43 0
3542 -1666 3079 0
1874 -3625 1265 0
-873 2723 2356 0
-3900 -1457 2854 0
125 1450 165 0
-261 -3072 -378 0
2219 19 3094 0
1835 -617 1200 0
-2405 2666 385 0
-203 -3654 -3121 0
1954 1924 -2701 0
-1632 2477 -2149 0
3666 2403 3783 0
-1944 -3728 -3531 0
354 1161 -921 0
-3170 -3258 -3045 0
-3713 196 -3825 0
-2165 2040 -2907 0
184 250 -267 0
-2175 3599 -2986 0
-3477 3337 2038 0
-1274 -421 510 0
1999 1266 3402 0
-322 -924 -1033 0
2116 3187 1421 0
-3408 3840 -338 0
3917 -235 3518 0
2999 -2127 -1770 0
-3908 1863 976 0
1521 -670 1944 0
-3815 -3323 -137 0
-2166 3676 -286 0
-2354 3855 -1008 0
-436 1064 -3776 0
-3182 673 -3874 0
3104 -851 -67 0
-1294 -2233 3883 0
-146 3391 -3620 0
-2096 -1199 -845 0
-1214 1632 -3494 0
-722 -3959 3228 0
241 3756 -2590 0
-3312 -253 3050 0
-2561 1434 -280 0
-1814 398 -2313 0
2179 3711 1287 0
-3710 -2128 -640 0
888 3577 531 0
1728 3216 -1227 0
-607 -2334 1965 0
1588 3523 -3007 0
2396 -2311 3992 0
-3403 2597 -1408 0
2620 -2470 -1765 0
122 325 -3403 0
-1593 -1884 -875 0
2676 -2494 2226 0
-2612 164 -2812 0
2268 3741 304 0
-2525 2134 -527 0
1718 -1963 119 0
791 -1121 1254 0
-1040 1715 3807 0
-2738 -3566 -1317 0
-264 2723 -1262 0
3987 -1631 -1686 0
2262 1092 -3618 0
-2811 -790 -1991 0
2525 -2484 -2057 0
-3021 -2822 550 0
-554 -2403 1758 0
413 -3669 1326 0
-1507 -3497 -2067 0
-1068 -2188 -1815 0
3937 1699 -1756 0
1773 1992 -3600 0
-27 -3933 -2578 0
-610 2138 972 0
248 2114 708 0
-2553 -3181 2250 0
3629 3336 907 0
2461 2687 -1522 0
138 1 -1937 0
-303 2023 3356 0
-2199 2704 -1485 0
-2388 3968 -1305 0
446 -3195 -460 0
2197 -3173 1745 0
951 2141 561 0
-741 -1672 1758 0
-1384 -464 2850 0
-3518 -1322 3899 0
-114 -3996 -1178 0
3091 471 1870 0
-3311 2262 -3383 0
-3245 1157 -2981 0
-51 -1839 -2504 0
-960 3423 2382 0
1191 -2948 -744 0
-909 -850 1057 0
-3732 -3406 1346 0
1131 3702 2633 0
3857 -45 -318 0
-1604 -766 3232 0
3342 1008 506 0
-2246 -1747 -934 0
-661 2347 3112 0
96 -3963 -2549 0
1771 3576 2823 0
2855 3707 1261 0
2131 -1812 -1725 0
1305 -2982 347 0
-1279 -2564 273 0
3001 -1887 3753 0
-468 3197 3751 0
801 656 2921 0
638 1906 -1307 0
-3175 -1190 1192 0
1129 -3324 759 0
-285 972 -2965 0
-313 -1726 -2415 0
-2415 -1825 -1326 0
1722 -439 -538 0
-1766 3471 -1178 0
-807 -2211 3539 0
2930 2584 1491 0
-3728 2730 74 0
-490 -260 2824 0
781 303 -2353 0
-3916 -181 3058 0
206 3497 1479 0
-2543 -3376 -2442 0
1674 659 705 0
-1855 -1395 -3247 0
-255 3891 3079 0
-3649 3795 3819 0
-3207 1633 753 0
1361 813 2874 0
2928 -565 2358 0
-488 -2580 -1178 0
2060 2633 -1953 0
2345 1528 -2753 0
-2578 -483 1939 0
-3991 338 -698 0
3386 1859 -3794 0
-1246 -269 -2167 0
236 3250 -2447 0
1468 -3618 434 0
701 -739 -732 0
1549 -3643 1071 0
-1299 2352 3746 0
3589 596 2588 0
196 -136 -3824 0
3234 1061 275 0
-1007 -3818 -3948 0
1053 379 -51 0
3991 3354 2968 0
2329 -2215 -2143 0
3022 2984 3776 0
-1168 1936 2375 0
-2685 555 -3940 0
-1751 -1703 2752 0
1452 1293 -2706 0
-638 -468 696 0
-3411 148 -1845 0
-404 3902 -2590 0
-3419 -710 -3569 0
-3712 3797 -1673 0
609 3777 -2160 0
3458 3444 1983 0
2033 -1293 -1063 0
824 -3343 2238 0
-222 2875 2778 0
-2970 827 -2994 0
-3247 482 -3558 0
-72 -3557 -157 0
-3846 854 -38 0
-2636 -2188 1608 0
1070 259 -2784 0
-104 2669 -769 0
2966 1784 38 0
3093 3309 -1284 0
-2895 -2109 -3431 0
-2606 3969 -325 0
3008 3363 -682 0
2433 -2586 1731 0
782 -1336 3387 0
-3274 -1675 -3970 0
-2280 -2796 -2016 0
3184 176 3994 0
-2627 3929 70 0
1531 3744 2853 0
2459 714 2333 0
-2520 830 -2638 0
224 3543 3937 0
-3804 -3566 -305 0
-2687 -3658 3445 0
-203 -1531 -2249 0
-2118 -1906 393 0
358 2025 3877 0
-2823 -526 -1744 0
3161 3631 -2129 0
-2420 2487 -2721 0
184 3554 2378 0
3377 3442 196 0
-2689 -2537 -1745 0
-2760 9 3608 0
620 -2227 -1470 0
1175 -998 2882 0
494 2075 3570 0
322 -3757 -1203 0
-1380 -3962 274 0
2541 3450 118 0
3244 -3129 3745 0
-860 -3861 -3817 0
489 3356 2362 0
-2145 -3492 -2828 0
-2270 -3204 -3898 0
3241 3047 3967 0
-2971 2713 -1734 0
-205 3887 -2748 0
-2745 3717 419 0
-842 2432 2740 0
453 936 618 0
3830 2734 1676 0
3872 775 1392 0
864 3199 -3666 0
-3195 -798 2742 0
2621 -1287 -2432 0
1869 1126 2282 0
-3137 -146 108 0
644 -54 -3688 0
1974 2049 2970 0
2052 1955 2652 0
-100 3713 -1176 0
584 1787 1913 0
-3130 -2645 1294 0
-2966 932 -2016 0
-459 -3347 1392 0
-179 3348 2472 0
-807 937 -1901 0
335 -1220 -882 0
3299 2891 1919 0
2500 520 -604 0
-3249 851 311 0
-914 26 2716 0
3705 2096 1059 0
-3754 -1715 250 0
1309 -3408 887 0
-2959 1477 768 0
-1115 702 -2553 0
256 -1894 -3514 0
-355 2081 111 0
1771 -429 -3728 0
1163 94 -3010 0
3857 -10 419 0
-1182 -1164 315 0
-571 1120 2773 0
-2535 -3240 656 0
3594 3471 3337 0
-3897 2444 1882 0
2821 -3078 -1957 0
-3663 -250 766 0
-2039 -3068 -2115 0
575 2176 -1346 0
2578 1044 1590 0
58 -1653 2049 0
-1700 -2968 -3565 0
-18 3469 -1653 0
-1434 3349 -1040 0
-968 -1033 -2625 0
907 -92 -503 0
-895 -2787 -1 0
-2626 3175 -2153 0
-870 -3124 -3490 0
3424 -112 -808 0
576 3331 2102 0
-3491 -1481 -1540 0
1754 88 -3523 0
-2597 -462 -1498 0
4 -440 861 0
3931 1537 1182 0
3121 2800 1917 0
1390 2967 586 0
-3442 -3294 3191 0
2619 -504 -2322 0
498 2027 -288 0
3766 1796 -179 0
3833 -748 -1393 0
1148 -1652 801 0
1106 293 2099 0
-1236 1403 -285 0
-1151 -216 3291 0
1619 -3708 -505 0
-1145 3244 -1192 0
-721 -2696 790 0
1774 3876 -1050 0
1955 624 3332 0
-2469 3343 -1181 0
1181 1252 -1145 0
-3852 487 3284 0
-3954 -3628 -26 0
-2693 -1507 3470 0
277 1102 -2459 0
206 -3935 851 0
-354 -3737 3001 0
-547 1720 -1622 0
-3301 1546 1959 0
-1478 1647 -718 0
-1713 -2565 -3178 0
-2336 3725 -2996 0
-1135 -2196 -370 0
-3846 -768 1853 0
892 -1682 2125 0
2486 -769 -740 0
1101 2050 -138 0
-1583 108 -1404 0
-1862 2098 -2864 0
-2668 -3180 -2091 0
-1544 -1619 3726 0
-3078 1110 -2203 0
299 696 63 0
3036 -3059 -2993 0
1851 2531 435 0
-2797 -1128 3213 0
-3378 -1108 1118 0
358 -3800 3502 0
812 -1933 1968 0
-1705 -104 2243 0
-2082 408 2554 0
282 -2619 -2436 0
2057 -2734 2290 0
-3628 -2485 -3263 0
-3862 1304 -971 0
1169 3978 1001 0
-2853 2759 -648 0
-2861 2478 2778 0
-826 2999 -1577 0
2289 253 3621 0
1668 415 3666 0
1751 1920 1900 0
-3791 -87 -378 0
198 -2523 453 0
-2646 -3244 977 0
1843 -128 40 0
-141 3863 3842 0
1074 -1606 628 0
2089 -3569 101 0
518 -3783 2669 0
1454 3923 1339 0
3988 972 2616 0
3003 -1037 1646 0
-2890 -2363 -3767 0
-2073 -44 2452 0
1284 537 3735 0
3107 351 -3117 0
-3180 -2062 -52 0
2683 -2004 3455 0
1591 2566 1791 0
268 -676 3599 0
2784 3194 669 0
-2211 -373 -807 0
886 3027 2221 0
-3402 -2823 -3599 0
3271 3234 -3979 0
-3816 1261 -231 0
-1696 -1849 584 0
2643 1920 404 0
1825 1540 -1290 0
110 3135 1195 0
1713 2180 -3682 0
3935 -1697 -3532 0
2814 3213 1778 0
1979 -957 2182 0
1948 -63 10 0
2088 2740 -1317 0
-2585 -3588 -964 0
1090 -1532 452 0
-250 1709 3431 0
214 -3492 -2098 0
-3856 668 2989 0
-2586 -1160 3800 0
-1901 -823 -931 0
-1999 -3226 1189 0
569 -3803 -2603 0
-2545 -2884 412 0
460 -198 394 0
-243 369 -225 0
-1208 3992 3135 0
2548 -338 -183 0
-2297 -3709 -2774 0
-1734 -1867 3136 0
1377 3156 195 0
-2494 -2275 3030 0
3046 -2835 -3684 0
40 1589 -3034 0
-1500 2633 2525 0
927 2579 -3653 0
-3809 -1606 505 0
3678 3970 -1587 0
2136 1844 2672 0
-3271 -513 1468 0
3750 -3067 3015 0
3601 1848 -1518 0
1145 -3532 -2297 0
1602 1998 3782 0
-876 2546 65 0
-2614 1293 -2862 0
1635 2678 -785 0
-3146 2034 -2572 0
-1602 3174 -2249 0
-2778 -3954 -1151 0
-1025 1359 -877 0
-2086 3992 3858 0
1333 2890 3995 0
3462 2952 -651 0
-3518 -1835 -3620 0
-1741 3400 2237 0
-2806 -3744 2783 0
1477 2525 -2790 0
-2319 728 -1252 0
2051 -2144 1509 0
-391 -3604 -2261 0
-2214 -258 913 0
-1414 1363 1004 0
2956 1920 105 0
-2069 3052 -3645 0
2131 -2057 1560 0
-2284 -2338 1538 0
-3133 -2671 -1069 0
3849 -113 2534 0
-1073 3936 -3207 0
-1091 -2146 -497 0
372 2399 -522 0
2685 2321 -3137 0
3077 -3166 -3229 0
-270 2328 -1254 0
1534 1689 -2686 0
1897 351 -2756 0
1882 -2492 -179 0
-3234 -2313 2057 0
2242 -1874 2851 0
-390 -2216 -192 0
-236 -1030 2667 0
-592 -1004 2585 0
2149 2506 -1627 0
-1526 -1589 2568 0
-3593 3083 2162 0
-3546 -3279 1522 0
1974 817 -1563 0
-197 -124 1720 0
-3572 3628 -1464 0
2868 2608 -3227 0
-2397 -339 1007 0
849 78 161 0
-2345 1385 -205 0
404 3041 -1383 0
2530 3309 2557 0
-3140 1327 -2547 0
-1616 -3450 2020 0
-3967 3028 1236 0
2773 -2087 -1034 0
-1396 2118 1522 0
-2343 2000 1731 0
239 -3034 -1251 0
-1782 3947 3408 0
326 3539 -470 0
-3059 3585 -3621 0
-379 -127 -2559 0
1005 -1554 2203 0
131 2002 2689 0
-1007 -2228 -837 0
1527 247 -2173 0
1904 2425 2539 0
-392 -3793 1181 0
-3681 2843 503 0
-3695 -3101 2032 0
3160 -2919 1908 0
-1717 -1236 1312 0
954 -3167 1815 0
1172 -2031 -2406 0
-536 -2121 -3573 0
1506 3684 -3729 0
-1673 643 -2444 0
-1070 -2497 -1975 0
-1594 -1879 2186 0
-1412 -3951 -3905 0
3387 -211 -3802 0
-465 -1092 1123 0
393 267 -3416 0
-3321 -1323 -586 0
1907 -108 -2527 0
659 -3854 -514 0
3280 -1951 2844 0
1356 2639 1905 0
-1958 1963 2702 0
1569 -3738 2510 0
-3449 -2269 -394 0
3680 3863 -2755 0
-3315 -2773 -3519 0
-1061 -835 -431 0
-3429 1998 -462 0
-1809 -2720 -3360 0
2544 2015 -3528 0
-1427 -175 -3780 0
-977 -2871 1780 0
-450 -2864 3363 0
3658 1249 -1350 0
2133 3210 -1966 0
2128 1586 3350 0
-853 -1133 1622 0
-2249 447 -664 0
-382 1508 137 0
-1561 1481 2436 0
-1594 3431 -2286 0
1456 -2262 3871 0
3407 2292 225 0
3776 -1311 1895 0
-1313 2369 -735 0
2135 -2361 -53 0
3926 996 -3850 0
-313 -2134 -3112 0
-2327 1605 -351 0
-2846 895 -1058 0
2101 -2078 -2685 0
623 375 -1988 0
2554 1342 -180 0
3765 2124 1145 0
1142 -2802 -1948 0
-2057 3834 2109 0
2220 3804 426 0
-516 3202 -2448 0
2810 -653 2968 0
-2550 3367 841 0
1442 -910 -714 0
-2839 -2402 3379 0
-310 3658 -3491 0
-2405 3353 -93 0
3069 -3120 2945 0
-1360 3340 2234 0
-2095 -1317 1494 0
2321 -3896 -1715 0
-2335 3513 716 0
-674 -1503 -304 0
2337 -167 2795 0
-2721 -956 -1821 0
-3017 7 2100 0
696 -1287 -1965 0
818 -1320 1364 0
771 -258 -346 0
-2288 2778 -2843 0
-50 3506 -845 0
-2971 -675 2580 0
911 -3466 -121 0
-2020 -621 3995 0
-1031 -3283 -135 0
-376 -3840 473 0
3113 -3075 3515 0
-2042 579 -1488 0
-3487 2273 1439 0
2948 2535 3624 0
141 2430 2321 0
-2155 2171 -2542 0
-177 616 -3897 0
-1723 417 -507 0
-2622 -2500 620 0
-2008 -1838 1011 0
1995 202 1226 0
1407 -1202 1797 0
2044 3407 -1839 0
1977 -1868 476 0
711 -3025 1188 0
-2735 -2072 2560 0
-3504 1325 -737 0
2738 -2757 -2007 0
-746 -455 639 0
-1057 -3747 -3394 0
507 7 416 0
568 1428 -1422 0
-1142 784 -3195 0
-1064 -1348 -1748 0
2682 -740 -593 0
3708 -2302 -1599 0
-3660 -3039 -227 0
-683 2697 -2613 0
1162 -1145 63 0
-2572 -1871 3585 0
-3963 -2328 1567 0
1629 -517 1198 0
-884 -640 -3117 0
-3162 3732 -482 0
-3082 -299 2715 0
-1297 3179 1648 0
2444 2777 -1001 0
-3649 1036 -1779 0
1529 3903 496 0
-2029 219 -3095 0
389 221 2001 0
-1567 3892 1634 0
2216 157 -141 0
-2180 -3104 637 0
-2895 -2585 3357 0
-142 -3663 2880 0
-1060 -3333 2959 0
1086 -804 1141 0
196 2935 -2828 0
2348 -2846 -2436 0
-3531 -1582 3985 0
-2912 3044 -2801 0
-2854 -1886 3590 0
-81 -3816 3435 0
-517 -793 -2182 0
-1425 3011 -279 0
2387 3561 970 0
-1992 719 -2906 0
-1476 -1389 -2745 0
2786 158 -1957 0
-3194 3800 -1209 0
-1641 -1370 1044 0
-1974 250 -1994 0
946 -2303 -333 0
-1942 3883 -643 0
-1323 -1777 3001 0
-2127 1413 -810 0
-602 881 1319 0
2563 1166 -1447 0
-2773 -1740 2139 0
-1679 2349 471 0
-3457 187 2979 0
-1856 747 3308 0
-912 -3660 2474 0
-3680 3640 -3868 0
-3048 -3885 -3264 0
3377 1297 2353 0
-18 -3616 -3735 0
2707 -3872 -2084 0
307 3967 -3033 0
162 -1788 977 0
1317 -2101 -470 0
-924 -184 -1420 0
786 -2892 -2231 0
-1590 1522 -3791 0
-527 716 -2395 0
-491 -2143 -3740 0
-2506 -3391 -2980 0
2614 -3850 -3595 0
-1306 2632 2683 0
1944 -2000 -1627 0
1157 -1690 -1599 0
615 -3157 916 0
-1871 3810 2749 0
1277 -3638 2486 0
1721 -2469 3080 0
1527 1322 -1941 0
1860 3862 -8 0
2946 1975 2472 0
1038 -234 832 0
-3724 1086 3258 0
-3899 164 -3728 0
1009 -3197 3459 0
-357 -3212 1361 0
-747 648 -3739 0
-1474 2643 -59 0
-3851 2211 -3286 0
-2250 -621 2174 0
-1538 3443 -3630 0
-2221 -3553 979 0
751 -1976 1151 0
1964 -349 -3883 0
-2724 -602 -1977 0
-910 -2530 -2486 0
-2557 2858 -1870 0
1847 3096 2100 0
1944 -2163 369 0
1757 2138 3559 0
-725 -983 2427 0
1642 3935 1199 0
-3386 1409 3848 0
-3834 3547 -2643 0
3234 941 -2294 0
2610 3412 2806 0
72 -550 -3909 0
2984 782 -200 0
3580 -1038 -3157 0
-3610 1400 -241 0
-20 -747 -1459 0
943 1146 -2770 0
-1149 3971 -829 0
2998 -132 -900 0
3699 3242 -38 0
1868 2876 1667 0
-2060 -442 1473 0
2405 2233 -1919 0
1326 -2350 1426 0
3 1352 1575 0
2752 3850 -123 0
-3188 -1032 -219 0
-3413 3959 1538 0
3621 -3820 969 0
3337 -908 367 0
775 -3502 3024 0
-2968 -3358 3103 0
-2046 295 -2394 0
2916 -1273 1162 0
-2121 357 2360 0
-415 -1809 34 0
-259 -3069 -3696 0
-2908 2906 -2720 0
-1353 -465 -3130 0
-2441 -1531 -993 0
-310 -3834 -624 0
-613 -3485 1625 0
3501 -3278 -3487 0
-1020 3049 -2665 0
3913 717 3061 0
-1895 -1364 -3549 0
-1818 -1586 -3757 0
971 922 -2808 0
5 2572 355 0
1273 -3122 290 0
108 3060 -1599 0
-2546 3808 -2962 0
-1697 -710 -3624 0
1191 -728 1394 0
3093 1740 1790 0
1923 -2375 -1070 0
111 -1253 -1154 0
2671 -2495 -3010 0
-185 338 -977 0
3958 1322 -2575 0
1482 2813 -1202 0
674 -2646 -331 0
1666 3042 -1977 0
-2538 2985 -1134 0
3877 2339 638 0
1389 -2853 -1178 0
-3932 1153 -275 0
1572 -2256 2159 0
-1343 -3850 965 0
-3282 -3046 2108 0
1023 -890 1643 0
-2454 -291 396 0
-1953 3715 3315 0
778 -316 -2148 0
-484 54 635 0
-3356 2039 2387 0
3346 80 -780 0
-2168 289 -484 0
3024 2855 3837 0
-3238 1247 2885 0
-9 -1523 146 0
888 159 731 0
-3535 947 1355 0
-623 2807 1194 0
2566 -1916 -1268 0
1185 3077 -956 0
-876 -3900 2733 0
385 880 2842 0
-3945 -2841 1906 0
1730 -321 -3359 0
2859 -1826 2405 0
-2177 1088 3528 0
1610 832 -2924 0
-2309 3102 1555 0
3050 925 2422 0
-2265 3349 2535 0
-2059 -3258 -2573 0
1187 -990 -3220 0
-417 2149 -2018 0
-3543 3231 3277 0
2554 -654 -1292 0
-2116 529 -3558 0
721 -856 182 0
-3166 -2671 -806 0
2162 42 -2920 0
1328 -3077 -3944 0
-3880 -208 2115 0
2292 -967 3868 0
-2571 -2585 -2667 0
-1211 -2348 -3501 0
19 1144 -2077 0
78 3210 -1303 0
3547 -721 -194 0
-2877 817 1132 0
-3078 -2490 3010 0
-3110 2296 2675 0
1311 -3114 2027 0
-13 -1649 -3301 0
861 3518 3076 0
-3765 -2279 -313 0
-726 1369 1958 0
-443 -662 -1332 0
-1082 3063 1998 0
-171 3547 2887 0
1725 -1429 -2561 0
3564 -3918 3942 0
-531 279 3166 0
3831 3986 -404 0
555 -1293 3753 0
1152 593 -2722 0
3683 3610 3741 0
-964 -2602 2514 0
-2951 -1814 -4 0
-1613 2430 -1234 0
-3242 -994 -3674 0
2380 -2915 -2089 0
2050 -2220 -3355 0
3851 -3550 -2818 0
662 -1182 -433 0
3239 -3047 -2891 0
-1606 1471 3125 0
-2105 1390 1103 0
-3038 -492 1568 0
155 839 -2879 0
3695 1808 3014 0
2885 -3387 -2883 0
-273 -3900 -1819 0
-1228 1621 -3966 0
356 -2967 1473 0
2740 -3312 -3200 0
1327 -2943 2513 0
-3020 -3369 -2700 0
-3271 -2873 1919 0
803 89 1772 0
-3137 2577 3300 0
1679 1032 -1313 0
-20 1680 -3829 0
22 -2858 281 0
3024 -2693 -1065 0
-3556 -814 1294 0
307 3963 3472 0
-2305 -1754 -2033 0
651 3967 2698 0
148 -3867 -756 0
1196 -3649 -2101 0
3767 2981 1433 0
1650 3950 -3709 0
-2832 3688 -2615 0
2247 -2110 3338 0
1821 2761 -3049 0
1461 2311 -2735 0
-3672 1782 -2351 0
-2134 -2519 -3245 0
1985 -1489 3010 0
722 3896 -1506 0
1422 2144 1733 0
1728 2709 3143 0
986 3637 2140 0
-1710 -474 209 0
272 835 -379 0
668 833 -2951 0
-1449 -1496 -3989 0
-2760 -1492 -3210 0
-1244 -2755 1303 0
-3612 1025 3847 0
-627 2342 1888 0
2984 -986 2553 0
2575 550 -498 0
568 -3306 -1033 0
1124 -3777 -451 0
2728 -2812 3966 0
-2880 -710 3938 0
3101 -2014 2029 0
618 1619 3614 0
-264 3366 -3364 0
3610 2492 -210 0
3183 344 314 0
3253 3714 3098 0
-469 1066 1448 0
-2079 -1126 -1814 0
791 -2239 -3094 0
545 -2126 -2697 0
139 -2696 -2546 0
-215 3597 -2594 0
-1533 2922 -710 0
2819 3465 -3876 0
3740 2161 -2046 0
-1455 3067 3321 0
-3403 -2701 -2795 0
3389 2062 3262 0
-3058 -2361 -1012 0
-1798 -1184 343 0
-264 -3943 -2804 0
-2442 -129 852 0
-1166 -3316 1650 0
-3782 -2438 -2350 0
-3229 720 -2991 0
-1388 -2689 -1811 0
-2499 2038 -1749 0
-3420 1912 -129 0
2819 828 3305 0
-3845 1943 -2062 0
778 3747 3102 0
-3823 1016 -3866 0
-1672 -3501 2259 0
-1877 3597 2222 0
2470 3689 -1231 0
-586 2593 -3025 0
3192 -1013 188 0
684 1306 -3867 0
598 359 2248 0
632 -1494 -1270 0
-2765 -1747 1611 0
-634 324 -3455 0
-1241 -2744 3314 0
2454 3639 1502 0
1518 3764 -19 0
-2518 -1999 -312 0
2793 534 3641 0
-1558 -3752 103 0
2761 652 2241 0
-3057 94 -3096 0
476 -2433 2244 0
-659 -700 2489 0
-28 -2150 3106 0
-3353 -2893 -616 0
-1015 3304 3154 0
-1114 176 222 0
-48 2040 1950 0
-3138 -1245 2761 0
410 -1751 -1311 0
-2119 2607 2109 0
3417 2727 2636 0
-176 -2412 3977 0
2734 3851 -3114 0
-3602 2088 1269 0
3467 3153 3688 0
-2558 1346 2689 0
-3911 -1035 3688 0
-106 2807 627 0
-148 -2620 1997 0
-2099 -3123 -1263 0
3561 1417 1778 0
-791 -1964 -2872 0
-3220 -227 2021 0
922 2960 -1988 0
3906 -2500 -2738 0
3561 -3110 2505 0
-1488 -3459 593 0
830 -1371 1029 0
1312 388 2515 0
-3651 2271 3111 0
1958 -1086 -3602 0
-1158 -3432 440 0
2540 -3557 1147 0
-1700 3345 -832 0
-2280 354 1715 0
3714 3478 1609 0
1130 -985 -3666 0
-2524 3456 569 0
3484 -709 -2575 0
-3767 645 -2772 0
-2044 -324 -3163 0
2346 913 -2045 0
-2730 -653 1404 0
-1676 -527 322 0
-2496 1886 -592 0
-2241 -2674 -3554 0
3767 1490 2507 0
-967 -912 -948 0
-3885 740 -1068 0
-2272 -181 3728 0
3134 3294 -3394 0
2990 -264 429 0
-1002 3026 122 0
-3473 -854 -245 0
-1605 3043 3404 0
-3235 3804 1835 0
-1717 -1357 -3304 0
3800 -470 -1815 0
-52 -1531 -1737 0
2910 -3547 2339 0
104 1132 2749 0
1962 -3686 -1950 0
949 1763 376 0
-3213 -2668 -2398 0
-543 648 -2096 0
-3322 -3017 -1817 0
298 2358 -2051 0
1347 3679 -2535 0
-1379 -3306 -2912 0
74 3859 2140 0
-143 3735 3095 0
1142 580 3646 0
1079 745 -3386 0
252 3395 -2058 0
-82 -3750 1863 0
-1863 -1101 1214 0
-449 -255 -1373 0
3361 -3773 -36 0
1694 -1066 -3164 0
-633 822 2147 0
-3696 1782 -3854 0
1115 3281 -3618 0
2263 2713 -2237 0
-3341 570 -2814 0
-3284 3893 503 0
-2174 2289 2053 0
2970 12 -3828 0
-1410 925 2122 0
-3512 2640 654 0
3091 -15 3930 0
-3465 -1274 3301 0
-2517 1043 2492 0
407 3794 3382 0
-3716 -2293 126 0
-42 -3762 -2010 0
1109 -3952 2342 0
1256 -1006 425 0
-1017 3472 479 0
-1327 2622 -104 0
-2233 -2533 576 0
3677 -2376 2728 0
1492 541 -3924 0
206 3254 2141 0
-322 3917 -3935 0
-813 -1631 2699 0
3073 -1505 1390 0
-2137 -2202 -3136 0
2080 -837 1824 0
2953 -3058 -212 0
-345 1233 -787 0
-1043 -3728 1885 0
-2255 3041 883 0
968 -3956 695 0
-1259 2957 -718 0
1308 -3381 2636 0
2067 -638 314 0
-2563 -353 1623 0
1708 1098 -602 0
698 3960 -288 0
2474 2277 -2404 0
-408 -872 2313 0
2664 -1913 570 0
388 1877 -863 0
-3686 -1445 1368 0
2703 3872 1757 0
215 -280 -2107 0
-3873 -3706 -716 0
3632 -1258 -3960 0
-3602 3885 3289 0
141 -3494 -867 0
2317 -1610 -1411 0
1195 2320 -3514 0
1349 3380 -2623 0
-2193 -1512 -1352 0
-157 3919 277 0
-2736 646 2923 0
-2600 -2250 2449 0
1741 3863 -512 0
-579 -3428 1603 0
-3149 -3055 -489 0
-2288 -2960 959 0
3281 2184 -2182 0
-2420 -3967 2296 0
-1538 1436 149 0
-2107 3226 1918 0
953 1819 3209 0
2371 233 2516 0
2978 -1968 3957 0
-149 885 -533 0
2597 1301 -3448 0
982 2090 1977 0
3777 -3938 -1400 0
-1576 1837 -1976 0
-1693 3939 3231 0
-113 -133 -1606 0
-1089 3857 -1560 0
-1850 2690 1839 0
3 307 -36 0
-3504 3212 741 0
2277 2297 377 0
1403 3250 2055 0
-1776 -342 265 0
-1940 3309 -3420 0
2814 1963 731 0
280 -931 -1955 0
-1990 1502 -435 0
3583 -2522 -408 0
-3663 3594 -518 0
-2844 -339 787 0
547 2142 3117 0
1527 1364 768 0
-1056 3922 3368 0
-3876 1601 -3763 0
-3896 2814 1842 0
-695 16 -1831 0
3084 895 -840 0
-2997 -1297 820 0
3433 -474 -1544 0
-3469 988 2932 0
-2156 652 1163 0
3951 3634 -2959 0
-2563 -76 -698 0
-220 -732 -457 0
-531 -2656 2801 0
-1001 -3807 3839 0
3672 -3830 -2540 0
3320 -3525 -1248 0
509 -2681 2220 0
-2792 2969 -1476 0
-2104 -2781 -636 0
2481 2484 3119 0
2698 -598 -255 0
-3622 -3887 -86 0
148 1034 3070 0
-136 658 -2578 0
-828 1451 -409 0
597 -1345 3029 0
2935 -849 -3979 0
-2311 -3723 3580 0
2757 -1576 2792 0
-547 -2288 328 0
-902 606 -1 0
1900 3818 3774 0
1594 -1227 1993 0
3458 3383 683 0
820 -3968 -2224 0
-3272 -3121 1760 0
113 -1872 1108 0
3789 -1714 -1618 0
-376 -2436 -238 0
2759 2757 -3491 0
-3170 -3604 -1428 0
1591 1416 -1368 0
309 2348 -2720 0
214 3652 -3827 0
-3484 -3695 1302 0
-2433 -2152 -2946 0
-2134 1921 559 0
2646 3940 -3103 0
1481 -1675 1531 0
1114 -507 1397 0
-3822 -202 2120 0
168 -1871 -1139 0
2615 -1787 -2092 0
1686 -2480 -2572 0
2856 -666 -3744 0
3690 642 3665 0
777 686 -1248 0
-2099 3325 -2102 0
-1224 809 -790 0
3669 -541 -3727 0
-2603 3877 -930 0
-2714 -3022 1824 0
1292 -3851 -480 0
-1240 1357 -3886 0
-3842 -2035 -1592 0
-1896 -3880 -3330 0
2229 -1758 -975 0
-3383 3736 -1685 0
-280 -1288 332 0
1675 -3622 3004 0
-424 2029 -2309 0
3618 1917 85 0
-2339 -1962 1183 0
3522 285 722 0
1877 1415 3488 0
-1536 -1622 -1180 0
1690 -2009 -2669 0
-1472 -3763 481 0
341 -3011 -1248 0
433 2434 2059 0
-995 1557 -312 0
-3995 177 -436 0
2824 -3287 -3304 0
-2625 -2184 86 0
-84 528 -369 0
-332 2430 -2594 0
-2637 -1977 -403 0
-3325 2164 -2894 0
882 16 3139 0
-3590 3319 2827 0
1832 2571 -1685 0
-3430 -366 -1382 0
-3252 1322 983 0
-2906 -3261 3407 0
662 -2327 -3405 0
-2926 -1630 3386 0
764 -1766 -3355 0
2914 2793 -2998 0
3077 941 1470 0
768 1346 -2672 0
1078 -2272 3406 0
-208 -1720 3519 0
3465 -2661 -3914 0
-3404 -176 -234 0
2174 2134 1166 0
-26 42 -2430 0
2896 -765 -199 0
2812 601 198 0
-3365 2153 -1265 0
-2932 -637 2027 0
2662 -3769 -2346 0
2616 -744 468 0
-236 -2833 2936 0
330 3488 2335 0
576 -148 3215 0
-705 1822 -3677 0
-329 1390 -2812 0
1090 2991 -471 0
434 1373 2704 0
-904 -1597 -2427 0
-3954 -1266 -3901 0
2668 -3709 -1575 0
-874 -1201 -1085 0
-217 1278 -1775 0
-242 3641 -1596 0
2753 93 -3787 0
2009 2282 1824 0
-2142 -781 3605 0
-2930 682 -851 0
-2685 269 -3441 0
-3300 -2857 -1945 0
-2695 3932 3530 0
2932 3764 -2006 0
-201 3868 3887 0
2840 -1031 3740 0
3721 -1006 45 0
919 1418 852 0
-160 -2243 -121 0
2898 625 985 0
-3035 -996 -3646 0
-3542 2599 1707 0
2667 1191 -2992 0
-1362 2050 1729 0
-2474 -433 -3751 0
548 1864 -2200 0
-2934 -2682 3524 0
-2583 -1862 -3129 0
-1679 -1249 3139 0
784 3388 2973 0
-2110 1914 1953 0
236 2430 3178 0
2591 -1658 1083 0
-132 -3019 1980 0
1173 -1218 -3656 0
2424 -330 2100 0
1454 -3056 2261 0
3750 3401 -3243 0
-2429 -577 -3432 0
-1129 162 -1068 0
-625 -1033 1586 0
-1006 -2881 1813 0
3262 2338 3652 0
-1331 2369 -1567 0
2193 -1700 -1479 0
-60 2827 -1442 0
690 -2082 2099 0
1670 -2193 -1877 0
800 -1116 713 0
1212 3154 2396 0
-3161 1042 2923 0
1571 2970 -1470 0
2068 1011 -466 0
-2636 -544 2103 0
-1755 -3300 -2525 0
-2076 -2476 -3994 0
2818 3120 -3992 0
-1250 -1541 3478 0
2180 3207 -3518 0
1423 -3547 -1792 0
-739 -3694 -352 0
2478 345 -2160 0
-1903 2073 1462 0
-2861 -3505 3630 0
-590 -3205 1947 0
898 -1751 -1875 0
834 -234 2950 0
2910 -3576 -3305 0
55 -3751 906 0
-1368 -167 -2896 0
1860 1334 1551 0
-726 96 -2298 0
-3647 790 -1556 0
1659 1437 1466 0
1515 24 2722 0
-2836 2383 -178 0
-911 521 541 0
3045 -1585 -3676 0
-3448 -617 1185 0
-3452 1078 2963 0
-1016 -1257 -1609 0
3060 -3797 1349 0
-1085 -2662 1003 0
-3897 -2179 2415 0
-1864 -2850 2937 0
-857 2050 557 0
3883 2593 408 0
1520 3340 1957 0
2970 597 -2808 0
499 -1561 934 0
1499 -3513 -2330 0
246 -893 -3711 0
-3376 436 -413 0
547 -3698 -1911 0
389 -465 -2016 0
2413 1802 1934 0
3842 -256 1733 0
-1356 -1606 -3129 0
2313 -3392 -2241 0
419 -2791 -1803 0
942 1019 -3920 0
2686 -1778 -315 0
3600 -754 1421 0
3482 3909 1006 0
681 3554 3579 0
-2802 1190 1462 0
2972 2406 3553 0
-488 -2442 -2554 0
2342 -1984 2816 0
-1890 280 -2204 0
1837 -1779 -2974 0
495 -2206 -2004 0
-47 3926 -3769 0
1394 667 -1752 0
-1805 1252 1126 0
3536 -3953 -731 0
-2590 -3297 1516 0
-2780 -2894 346 0
1659 -1215 -2723 0
1237 1092 -1717 0
-3182 1629 2519 0
-3476 -3901 1131 0
-2802 3647 -1291 0
1532 252 3518 0
1594 -426 3879 0
3708 1503 2332 0
124 -1551 3966 0
-3290 -3236 -3410 0
3710 -27 2357 0
-2288 1827 1715 0
-3790 -3034 167 0
632 -3848 3993 0
3941 598 -2189 0
-2988 71 -3406 0
-3046 3457 3245 0
-1959 3685 2892 0
683 2903 -3022 0
-3554 -1471 -3827 0
250 -3098 -269 0
1188 -1134 542 0
3236 -483 -1334 0
3601 -1138 -533 0
3270 375 -1251 0
480 -2979 3815 0
-2700 -1936 3603 0
-2191 -393 -3834 0
657 905 -1061 0
3467 -1491 -628 0
2190 -2685 987 0
2167 -1129 2957 0
1472 -3087 3252 0
-3416 -1396 -1841 0
-3412 -958 -924 0
3695 307 -1622 0
2308 1042 -1261 0
-1142 -224 -149 0
3048 7 1578 0
-2915 3563 -3800 0
549 -2430 -530 0
-2401 1593 -2622 0
-2434 -1824 -737 0
3253 560 -2970 0
1802 1177 -3951 0
3387 3535 1392 0
3930 -1651 204 0
1282 1473 -2124 0
-2125 1543 -2381 0
-675 2824 -3372 0
3158 -2041 354 0
1862 -3547 2128 0
1412 57 3106 0
3178 -643 3170 0
-31 3024 1164 0
2326 2833 -2292 0
1900 -1017 2900 0
1181 -1825 1439 0
3418 3814 2673 0
2236 -2889 2722 0
3669 -3212 132 0
420 161 1125 0
-3441 569 2764 0
2008 -3811 582 0
-1015 462 -1806 0
2338 -3603 -256 0
-3302 -2339 148 0
2863 -3597 1423 0
2792 2303 98 0
-2613 2557 -3831 0
3241 1115 -1223 0
-3087 62 491 0
295 -34 -3457 0
-3671 3951 882 0
3734 3682 -1701 0
3706 -356 56 0
991 2070 3182 0
-2330 -3380 -3080 0
-310 341 -1585 0
-3306 3487 -957 0
1349 3890 1139 0
1551 1770 -2272 0
-531 -2398 -2992 0
614 1599 -118 0
-2720 -1600 -462 0
-3908 1859 -132 0
34 3130 -462 0
-3103 -2097 2738 0
-3611 -2207 2740 0
-2984 1558 1428 0
756 -561 -3242 0
2285 1834 -58 0
-2043 315 -1780 0
937 1840 1771 0
2131 3818 3700 0
-478 3574 -755 0
-127 3283 3876 0
-2105 -2739 3516 0
2009 -3075 -1201 0
2689 -3183 -3182 0
1134 1211 -566 0
2045 -279 -236 0
1217 3066 699 0
-207 -3930 3677 0
216 -1925 808 0
-3566 2566 -1155 0
-2199 2468 -3775 0
756 2776 -2513 0
3125 -1518 -488 0
1749 3146 1975 0
-3577 2414 2951 0
861 2146 372 0
-1466 -2804 1092 0
-736 3370 -2261 0
1722 3242 -2888 0
1893 -1076 -2970 0
-156 -3085 -926 0
-1984 -3669 2036 0
-1818 -1969 -3220 0
-2651 1305 393 0
-3986 -1549 -1255 0
-819 -1139 2853 0
1509 -285 -2601 0
3037 2368 38 0
-2398 3058 -2132 0
767 458 3498 0
-951 271 820 0
-2598 1327 -3512 0
-839 1948 -2576 0
-3796 3490 1118 0
667 -3466 3162 0
2393 -945 -1973 0
1451 -2671 -2485 0
-562 2523 3360 0
147 1852 -1276 0
2619 -1849 -1761 0
2549 -2530 -1373 0
-3932 3904 -2805 0
2511 -2474 -3403 0
-2542 -1220 3386 0
-847 602 3020 0
1979 -1696 -853 0
3917 1576 -3208 0
162 -1979 910 0
228 -1764 3713 0
2063 1736 3688 0
-3243 902 -525 0
-2895 2659 -3602 0
2315 -409 1406 0
3708 1268 -1327 0
2824 -2922 -3955 0
-3634 935 2802 0
740 2964 1007 0
99 1899 1497 0
2440 354 779 0
1312 3 3562 0
-54 -3157 570 0
-720 -3276 -3979 0
-814 3918 -2798 0
3129 -1757 3197 0
3096 -971 2771 0
2012 1896 -3335 0
-1698 3995 -3803 0
1222 2902 -1297 0
2040 -885 -2646 0
931 3355 -2970 0
-2174 -1231 2743 0
57 3554 -1454 0
2041 3110 2089 0
-2128 3245 -2401 0
1931 2160 -3644 0
-2617 -1582 3776 0
724 3343 -1204 0
335 1200 -568 0
-1502 1674 343 0
-970 -3888 -1020 0
830 -1928 590 0
-3050 1180 408 0
-3585 1120 -3544 0
211 -3006 3444 0
-706 -3565 -837 0
-3237 -2522 -2561 0
1964 -3511 233 0
-3876 1824 2460 0
-3353 -3537 -2050 0
-616 -1760 -234 0
-1543 2843 3150 0
-2518 3887 196 0
-2041 3530 -2485 0
295 -3677 3943 0
2354 2191 -53 0
2090 287 -607 0
-694 3656 10 0
2644 1955 3718 0
-479 3267 1018 0
354 -3967 -3973 0
-184 3745 -149 0
-3438 3476 -1688 0
967 -3473 -3469 0
420 -2280 -1964 0
871 -896 2391 0
-902 1564 757 0
-3178 -1607 1890 0
-2483 -925 -1163 0
-1868 -1118 2387 0
-781 2458 -1742 0
-186 -286 -2896 0
-201 -3937 3117 0
1001 471 1937 0
-1096 -2085 3164 0
168 345 -1445 0
-3308 2091 -1374 0
-1577 -2980 -686 0
3630 -1068 1953 0
-3206 1627 -1562 0
-3167 -1419 1063 0
3679 -1803 -2369 0
2507 2536 -2 0
-1042 1439 2085 0
1163 26 2166 0
-2156 3419 -2127 0
-1499 -3035 1857 0
3865 2455 1971 0
-576 -888 1014 0
-3845 -872 -2439 0
-3028 2519 2110 0
64 1492 -313 0
-1742 2990 1338 0
-1445 2897 -2308 0
3001 3731 -889 0
-950 2036 -2422 0
663 -852 -2974 0
3352 2365 57 0
2816 -84 5 0
2278 -106 -3084 0
-2791 3614 40 0
2731 -2228 1259 0
3229 -2721 3751 0
3757 -642 1594 0
393 -3481 -973 0
2527 -1745 -411 0
-919 2500 817 0
-1540 -3343 -863 0
39 199 -3441 0
2106 -3327 1160 0
-1341 3570 984 0
-2822 -3047 3717 0
-2043 -884 -2391 0
1428 2681 2266 0
631 425 1343 0
3081 -412 3790 0
3286 1622 3302 0
2537 -1214 1929 0
1355 1067 -753 0
2804 143 -2377 0
-3197 3527 -3383 0
-3828 -1977 114 0
573 2539 -2348 0
3310 1214 29 0
-1316 -3109 -2467 0
-1925 -1700 -2152 0
-3043 2134 807 0
1684 -2008 -3454 0
-724 1941 2912 0
2966 382 3098 0
-3658 -3125 126 0
-3587 -2682 758 0
-1820 -491 1124 0
879 2253 1984 0
2963 -1799 3300 0
2665 429 858 0
441 2079 -150 0
3075 2021 -2154 0
-2725 652 -1325 0
3196 1590 2125 0
-2249 3757 1524 0
-2475 -2729 -1202 0
-906 1679 3136 0
2089 1299 536 0
-969 -182 915 0
-1002 -2548 -1096 0
-358 -1985 684 0
-3979 -3110 2306 0
-3784 -93 1095 0
-3200 -1611 -2867 0
-2924 -351 1282 0
3241 2438 -2727 0
1423 -856 -1564 0
521 -3914 -397 0
3474 1075 2856 0
2415 2063 -3571 0
-1281 138 -2240 0
-2675 2887 2100 0
-3414 1621 3486 0
2175 1978 -88 0
1006 164 2037 0
3559 -448 1963 0
1775 3868 -735 0
-194 3083 -1127 0
2017 -3308 2947 0
-1273 2536 3486 0
523 -3426 2115 0
282 -2423 -3037 0
-599 -555 -470 0
1283 2601 -692 0
-3529 3893 3888 0
3152 955 269 0
2703 2179 -1039 0
3594 -1711 -3767 0
1551 -3279 -1656 0
-411 -3608 -3098 0
461 -240 -1844 0
505 -292 -2732 0
-386 -1619 -1194 0
-2445 -1387 -3277 0
-3525 3085 1275 0
3583 -3411 -384 0
-1804 -1981 1545 0
2768 -1169 2871 0
1627 1052 1605 0
1657 530 -2353 0
-3123 -1525 -698 0
-3237 -1566 -28 0
-1185 3455 -2667 0
876 2596 -265 0
-1220 382 -76 0
-2785 782 -3065 0
1485 -1989 -42 0
-327 -3767 1285 0
-1124 193 -2107 0
2236 3153 -3958 0
-2703 -3337 -579 0
-2668 -2356 1755 0
2874 -3047 215 0
3173 1059 -1817 0
2348 1585 -2634 0
1523 -2376 2910 0
2940 3061 132 0
500 1529 -1920 0
953 2168 1122 0
2493 941 -2538 0
2327 2766 -1494 0
-1581 -2644 -38 0
982 305 -2881 0
-3430 -1264 338 0
3158 2199 -2970 0
-824 433 -2382 0
2814 1843 -3190 0
-749 -1395 3507 0
1432 -952 425 0
1388 -3303 -133 0
-2697 -2333 -727 0
1337 -2446 -917 0
-91 -1280 -443 0
-1152 972 -1229 0
2306 136 -2869 0
3012 -2204 -1742 0
85 2172 -331 0
3269 -1322 3354 0
810 -1397 -3173 0
3014 674 1718 0
-3899 2511 2981 0
-2630 3281 2154 0
-1721 220 -3631 0
-2574 -2531 -121 0
-2229 -1806 1155 0
2248 2909 1527 0
1817 2122 3648 0
-2361 -3538 3794 0
1998 987 -1831 0
3358 634 -3313 0
-3268 -3844 -1611 0
1957 2334 -2802 0
3514 1656 417 0
1568 -870 -3267 0
-3823 -3859 3897 0
2665 -3905 3458 0
-3012 3849 -353 0
-859 2314 3717 0
2118 -3597 2605 0
2947 197 -1588 0
-411 -2089 2099 0
-2076 656 2496 0
-2633 3518 -2115 0
-3297 -849 3031 0
-3911 956 1432 0
53 -2783 -3622 0
509 1486 3908 0
28 -3724 -1394 0
726 3977 3986 0
-2705 -2273 290 0
762 -2188 -3353 0
-591 -2344 -1479 0
-2388 802 -3298 0
2383 847 -121 0
763 3612 -1212 0
-1068 3059 2412 0
-1867 2009 1024 0
2485 -1533 -1935 0
-2143 3050 -3303 0
1669 3804 179 0
245 1162 988 0
-771 816 48 0
-2757 -2241 3191 0
2044 1903 1697 0
-329 1575 2964 0
-1398 -1602 1113 0
-3616 726 -133 0
1906 2159 -365 0
-3382 3153 3922 0
3785 952 3317 0
3772 -384 -2208 0
-1299 -75 2392 0
2158 -1834 3199 0
3778 -253 1541 0
-3360 610 -693 0
-3243 2143 769 0
-3691 -3387 2895 0
1237 584 729 0
909 2047 1996 0
-896 436 2447 0
-188 536 -2144 0
-1118 -3882 2501 0
3437 -3297 2539 0
-2383 -114 -2473 0
-2698 1412 916 0
3174 17 1694 0
-901 1979 -3312 0
-777 -2745 132 0
1432 -900 2783 0
-3290 2625 2670 0
-1458 1820 681 0
-383 -3268 -2630 0
3435 1158 -813 0
1617 1770 1433 0
2831 2393 895 0
-149 3804 2115 0
1024 -2897 646 0
-1406 -266 -969 0
-1580 1636 1777 0
245 -2559 665 0
-3687 -1601 1547 0
1939 2376 1586 0
-136 -3697 1866 0
-1832 -368 316 0
568 2323 -533 0
1796 -942 2159 0
466 3147 2961 0
3963 -3516 -1681 0
3697 2542 -3087 0
-1144 -3875 2114 0
-2448 2671 -1115 0
3217 -2002 3494 0
1109 2663 2842 0
-1626 -3902 -470 0
-2905 9 -1603 0
-1001 -1376 -1723 0
1739 -3784 2845 0
1142 916 -742 0
666 -1605 -2737 0
-2384 3082 -2389 0
-2190 2768 -77 0
-1526 3992 -2891 0
-3516 -2508 1917 0
-1284 1300 1885 0
-2551 -3376 -1878 0
-2292 2368 2055 0
-3118 -394 2415 0
-3561 3030 -473 0
-1271 -1265 -2271 0
-2321 3129 -1002 0
3588 -1369 425 0
-2020 2890 -3515 0
-1006 -3830 -3378 0
423 -2668 3098 0
484 2631 1984 0
-2394 -50 -3127 0
2391 3333 -2275 0
2307 -1176 -1244 0
-2693 1169 -3151 0
-2658 3016 -1276 0
19 1633 -1439 0
-617 -3213 900 0
-2467 -3390 2538 0
927 2416 1380 0
-844 -1508 29 0
-3833 139 -2165 0
1913 3728 3239 0
-3880 -2506 -2994 0
-3443 -61 199 0
2809 1832 268 0
-2705 -977 1693 0
3209 -2046 -206 0
1129 899 -3293 0
-2693 712 -7 0
-877 1476 -1468 0
2307 -3254 -2798 0
45 1842 2017 0
898 3060 1109 0
-1988 1634 2765 0
-3034 -2696 2638 0
3917 2664 -2576 0
3897 -578 -1378 0
2144 -3625 1538 0
-227 -1224 571 0
-1483 3401 181 0
2203 -1665 -1189 0
-888 2770 -3953 0
-422 3299 83 0
2134 1286 2002 0
1400 -184 -14 0
-180 3573 277 0
-2961 3975 -2640 0
1305 -1042 30 0
-102 2624 3016 0
-3269 -2514 1310 0
75 -2335 -1456 0
3753 -370 823 0
-178 1223 -2229 0
-3801 1938 -1076 0
-2497 2411 2621 0
929 -59 -568 0
492 1286 -990 0
1377 -2136 -1766 0
450 1311 342 0
716 -1070 702 0
3581 -1375 -2117 0
2439 -595 -1938 0
1337 -2912 -1774 0
3699 2931 -1234 0
3646 -635 1221 0
-3711 3360 -2577 0
1124 -3596 960 0
-1977 815 239 0
1760 2102 2736 0
-2476 -65 815 0
3165 2920 -3598 0
-1959 -3657 1571 0
217 -2510 -423 0
587 -1970 3021 0
-2031 1996 -2377 0
-964 591 2121 0
-3644 -1138 -747 0
1383 -323 -1993 0
-1457 1103 2840 0
2798 466 -376 0
2312 667 -3537 0
-335 -1444 2853 0
1831 -836 -671 0
2915 -1805 -502 0
3816 1652 1177 0
2587 -3706 -970 0
1199 -3989 945 0
-3904 -2214 2932 0
2238 -2750 3717 0
-85 2240 -2441 0
1252 3428 3429 0
332 -3276 -2653 0
1650 -3721 535 0
2813 -2472 464 0
2222 1256 -632 0
-3117 2240 -1463 0
2021 -905 2303 0
-3358 1388 2961 0
-2390 777 2976 0
-2956 1708 2370 0
-2607 3675 28 0
-1547 1799 3807 0
2798 -3725 -5 0
3093 3638 -2750 0
280 -1954 -3435 0
1811 1630 -816 0
3864 -1453 -754 0
-2173 932 -732 0
2141 1063 -1667 0
-3511 -3869 -2467 0
957 929 -2672 0
3651 3663 2471 0
-2568 2007 -1077 0
2866 -1959 -3778 0
2212 -3964 677 0
-2226 -3105 -1416 0
-1727 -605 -1801 0
-3772 393 -1950 0
2544 -3479 517 0
1867 -358 2788 0
-3259 2635 -1709 0
3006 -3381 3467 0
2523 168 -2556 0
-1762 1567 1459 0
-577 -2551 1656 0
1567 -2779 2033 0
3970 3585 1014 0
2034 3738 2314 0
-580 -1647 -1157 0
-3058 -1874 2867 0
3141 -1352 -577 0
3770 -1180 -1754 0
119 706 -3106 0
-1386 -2636 1712 0
-3296 -128 2640 0
-1685 -2595 633 0
-387 360 -2070 0
2195 1904 -2389 0
-3347 -37 -1331 0
2064 -1178 -74 0
808 -3050 177 0
1503 78 -3685 0
3935 -3036 -3835 0
3964 -1337 1602 0
-3461 -153 3102 0
-21 1482 -2818 0
-1793 -2677 683 0
2869 2915 -1443 0
-1619 820 -1393 0
863 2120 -775 0
-671 -1558 3204 0
1361 -3788 3355 0
3028 -3299 -3732 0
798 3337 3477 0
3904 3170 -2135 0
3696 400 738 0
-3567 -804 2548 0
2335 -1072 2568 0
-3711 -524 2803 0
2507 -1265 -1362 0
1853 683 -1413 0
288 3081 2254 0
-3063 -3373 248 0
3127 -3401 3047 0
-3229 3568 1605 0
2467 -1423 -607 0
-3943 -3072 -3314 0
61 1689 1838 0
2788 -162 999 0
-624 -2345 289 0
545 -1279 -2339 0
-425 2358 178 0
1097 306 -661 0
1307 3773 -373 0
-479 -2588 3516 0
-183 -384 -3575 0
-985 -19 2702 0
-3142 3764 3206 0
1570 -2799 1401 0
-490 -2898 1033 0
3833 -2693 3315 0
1786 -3355 -1460 0
-1047 -1860 -446 0
1911 1983 2484 0
-3620 1457 -1608 0
313 -581 3434 0
-3678 -3696 -3299 0
536 -2164 3125 0
-2908 1195 -2272 0
2485 -684 3910 0
225 382 -2178 0
3870 661 -940 0
3675 -3567 -3790 0
33 251 -3035 0
-1751 1749 -1165 0
-2798 -3511 -3469 0
-2923 -2292 -3828 0
460 717 1997 0
-3235 207 2653 0
-1847 1063 1465 0
3623 975 -2616 0
349 -3249 2547 0
3592 -493 1155 0
2061 3573 -1841 0
-3277 1746 2829 0
286 1826 -897 0
291 621 -236 0
2880 3886 -3507 0
-3394 92 -3997 0
-2705 3546 -2565 0
3197 378 3903 0
3796 2641 3184 0
-1618 2929 1936 0
672 56 635 0
3377 -3928 67 0
-2491 -3395 -1032 0
-3499 -580 -83 0
-3833 -1398 565 0
1935 -1175 74 0
-2976 -1130 -2077 0
-3679 2231 2826 0
-1934 3047 -1894 0
-2615 515 -1328 0
-1222 2146 2628 0
2481 2322 -1808 0
-3586 -269 1667 0
1579 -540 -2082 0
-1195 -2068 211 0
3603 1193 1164 0
1871 3517 3788 0
2919 -1077 641 0
-3368 654 405 0
-1888 -208 -1174 0
340 -1533 -1700 0
2339 -2112 -3446 0
-3020 -2356 1362 0
-826 3423 -125 0
1045 3708 3949 0
-367 -3211 1844 0
-652 1928 -3534 0
-894 -2994 -823 0
1547 2262 -3268 0
-2524 -1759 -2852 0
-1864 -2617 -1869 0
736 -3812 3997 0
-3069 -3405 3028 0
2289 -866 1113 0
785 497 1498 0
-2409 -3207 2551 0
3274 2542 -1732 0
-1034 -1765 -2667 0
-2651 3096 -756 0
1024 -559 -2005 0
420 2677 2444 0
3785 1606 3636 0
-2424 2259 -2243 0
901 -799 -2493 0
-579 -3210 2361 0
890 -80 309 0
2534 1381 1614 0
2679 62 -3856 0
-3220 825 -2848 0
3794 -1725 -2419 0
1758 2909 -3231 0
3697 3616 -3702 0
759 -3446 -1401 0
-2091 -1247 -3661 0
3574 -3295 2245 0
-2971 -579 -1394 0
-3913 -3464 1482 0
3275 1228 -3018 0
-3714 3502 3303 0
3534 3239 -1023 0
-728 -1022 -3672 0
-820 80 -3107 0
1817 103 2559 0
-1865 2332 -3118 0
3675 -2117 3931 0
2400 -3658 -3849 0
1871 -362 3777 0
-267 -2080 -3480 0
1582 -2472 1309 0
-2104 738 -188 0
1914 -1751 1254 0
2822 874 -2770 0
-1011 -3729 -2803 0
1701 -3618 1066 0
-1132 3994 372 0
801 905 -1446 0
1262 -1782 -587 0
-1107 3634 -1786 0
-2911 -2801 1998 0
3797 2547 -57 0
-2197 3857 41 0
2618 1771 2449 0
2997 -2057 607 0
341 236 1920 0
-1316 2311 520 0
-2064 -332 -1930 0
1065 -629 3152 0
-1037 2571 3632 0
-1764 -167 -3509 0
-1896 -2628 2525 0
2144 3406 -867 0
547 -1485 -3698 0
1791 1424 -1398 0
-2126 -450 -313 0
3435 765 2752 0
3451 -547 3952 0
-3027 -175 -3389 0
-1445 -2255 2969 0
3942 -227 -1838 0
2667 -603 1034 0
-3229 -1103 2053 0
-828 -237 -2433 0
-71 -3007 2823 0
-73 2399 -2842 0
3844 -2300 -3655 0
3901 3700 -3415 0
2872 -3273 1597 0
-3223 1004 -2356 0
1008 460 -3032 0
-1633 753 -2390 0
161 -889 -682 0
603 1506 -1833 0
2659 159 3128 0
-3508 -2053 2988 0
1484 -1672 -2492 0
-638 -2618 551 0
-672 -783 -1287 0
724 979 -323 0
2241 2591 -308 0
3589 -2169 15 0
-1823 3842 -2337 0
715 3005 -3135 0
-3357 -3312 -3837 0
-1010 -2848 2894 0
2805 -276 1316 0
1128 3091 -1108 0
303 28 1596 0
-3856 -3799 884 0
253 -62 624 0
-632 -207 1965 0
-1204 -1526 1087 0
-3503 -2102 720 0
1610 -1725 -2315 0
-1460 1898 1625 0
3391 2075 561 0
3073 -1818 829 0
3561 -1524 -1480 0
614 3356 3233 0
-3319 -97 3572 0
-874 2060 -938 0
-1059 -1223 -234 0
3328 1334 -903 0
-1974 -719 1815 0
1718 3089 -367 0
3653 -2807 3228 0
3767 -1011 -1843 0
579 -3570 1568 0
-332 -179 3401 0
3974 1065 1827 0
3557 -1928 467 0
-3632 -1199 -3616 0
2272 -3887 -3098 0
1558 -2565 -2878 0
-3538 711 -3821 0
1009 -517 3607 0
-2568 580 -2970 0
937 3878 -1913 0
-2686 -567 2514 0
3833 3289 222 0
-2130 -2993 -1065 0
-1529 -3915 1430 0
353 -1664 1391 0
-1237 -1577 81 0
3484 -851 36 0
3124 1339 242 0
1593 -3255 3466 0
3676 -3635 -1230 0
1576 3134 -3210 0
-3657 1678 3585 0
-974 2159 892 0
3823 1309 -1657 0
2278 -951 -107 0
-1179 2406 -861 0
1701 1303 1523 0
2972 -3172 -3071 0
3392 982 -3087 0
1248 -37 3377 0
-2491 3235 720 0
2229 -2278 2592 0
-3093 1134 -1313 0
-695 2346 3011 0
3910 1500 874 0
-3839 -2111 1042 0
404 653 -871 0
-3390 1515 -2100 0
-2923 -1611 -129 0
3617 -3336 1741 0
783 3553 3578 0
3547 173 -411 0
2879 1942 3955 0
-1200 1048 -978 0
1229 1469 2342 0
-2861 -1503 1362 0
2225 2053 -3934 0
1506 -2023 21 0
144 1079 1028 0
-2396 2854 -70 0
-3328 1786 1985 0
799 -1054 3811 0
-3693 -373 -1833 0
550 -3588 1948 0
2438 -86 -213 0
2456 -3563 -1660 0
3575 2972 181 0
-687 -1052 -1927 0
-38 -307 -291 0
-3202 -2176 -3056 0
315 -3264 3887 0
-1443 2306 3222 0
-792 3933 783 0
-3418 2382 -2275 0
-1586 663 1151 0
2163 -3580 2219 0
3730 1774 -2995 0
-3505 -990 -2656 0
3834 3600 -2784 0
-2908 2112 1396 0
-2576 -2538 2639 0
-3043 3419 -3829 0
-458 -3958 2109 0
-35 -3427 -2699 0
-1186 -2327 2651 0
2078 3989 2230 0
3424 2253 3834 0
-13 -2144 134 0
-3418 1142 2019 0
3691 1960 -40 0
-2874 1411 2556 0
159 -1715 -70 0
-151 1395 -2389 0
3461 -2729 2695 0
-1854 3531 -314 0
-1783 549 3283 0
-2398 -2082 -1205 0
-226 -3119 -2234 0
-2567 313 93 0
2173 -1008 516 0
-87 -27 -2423 0
2604 -71 -506 0
1870 -357 1218 0
-137 -3343 -887 0
3329 -3038 -107 0
-714 -2333 3089 0
-1454 -3270 -3317 0
3583 -1444 160 0
3283 3610 2340 0
1701 2900 3734 0
1740 -2304 1903 0
3567 3831 2693 0
-2574 -1849 1801 0
3816 1793 -200 0
976 2970 507 0
-601 1639 -2286 0
-1064 1138 -780 0
-1873 -3879 -1386 0
792 1202 -3672 0
2150 1852 3960 0
-2620 1543 -3097 0
-1202 172 1505 0
-3110 2367 320 0
3262 -1520 -696 0
-157 -3339 -3155 0
-2299 -698 1832 0
794 1733 -269 0
-2084 2580 -2525 0
-2419 1730 171 0
-3905 100 -3143 0
647 -1332 526 0
-2128 -72 2893 0
3894 298 3156 0
1531 2557 -2154 0
3304 -3934 -527 0
-326 3513 603 0
178 -1322 3536 0
-2633 1314 835 0
1140 -213 1662 0
3434 3903 -1074 0
-1984 3430 3454 0
-3453 -2045 -509 0
-2687 -1008 -2074 0
-2828 -3073 3248 0
2518 1243 -3857 0
-1631 3811 -1982 0
-3650 607 3893 0
-3224 -3020 -3149 0
-448 2013 535 0
507 33 -1662 0
-511 1207 -452 0
-2634 628 1920 0
-1952 190 -2747 0
427 598 -251 0
-2407 1542 -1800 0
-1855 -2469 -917 0
2020 2124 1517 0
-3242 -2661 -1789 0
-2341 -1184 -3684 0
2039 3777 3490 0
1309 1718 -384 0
809 -1698 3398 0
-861 1421 -1359 0
-720 -1333 2540 0
-677 884 3149 0
-3578 1565 2430 0
131 2607 2962 0
3700 3082 -1064 0
-877 293 -1531 0
3396 -42 726 0
1766 -2007 3399 0
1629 -1271 -2283 0
-1041 -3170 12 0
-705 2964 2552 0
-79 3134 -1935 0
-3285 3195 350 0
-3054 651 -3880 0
-1972 -3701 -2072 0
1985 1270 3159 0
1867 -116 3467 0
-2078 -3403 702 0
-1700 -968 -3079 0
3314 2339 2305 0
3050 -333 3622 0
-1662 -1609 -2592 0
-2826 -3377 -3786 0
964 2092 1214 0
2624 329 -3328 0
-3961 1330 1214 0
2994 -3652 -1647 0
-2890 2415 2168 0
-2977 -1107 -1838 0
-675 -2905 -1490 0
-267 1812 593 0
2896 32 -1807 0
423 3456 -3345 0
509 2894 3810 0
-1 3443 -801 0
1564 3151 3341 0
1563 3274 3196 0
913 2483 -3322 0
-2524 -3653 3122 0
1246 -3394 -2746 0
-1277 1275 -1721 0
-511 2551 -3558 0
1701 -2007 -2088 0
-3187 -320 -34 0
1409 -2389 36 0
-1988 -2198 2271 0
3526 323 -2995 0
-547 3266 -3223 0
1249 -1527 2369 0
3247 1370 2280 0
-3231 -2005 -264 0
1371 -24 -3305 0
-974 3086 2845 0
889 1719 3908 0
-1522 3812 1734 0
-1116 2898 1460 0
-1742 -583 1201 0
-2600 2015 3403 0
887 1116 2413 0
-3528 3399 -2217 0
2896 -3295 -2498 0
1357 -2796 -725 0
3758 -121 -3210 0
-1414 -3823 468 0
471 -2930 1750 0
1820 706 2386 0
-677 -2727 2975 0
-3071 2743 -720 0
398 488 1950 0
-279 -681 2214 0
1063 -1151 -417 0
-351 1561 -3695 0
-302 -907 -2041 0
2498 -819 1762 0
3610 -1905 -3916 0
800 1000 486 0
-994 -681 -972 0
202 3766 3903 0
3653 -291 1724 0
945 3739 -2547 0
2680 -26 -2087 0
-1038 -1078 -443 0
-3956 2333 811 0
-1859 3408 -1478 0
-993 -567 3471 0
-1806 -588 -3438 0
-2482 -3909 -1071 0
552 -2528 -680 0
-1217 -193 -542 0
-2874 2120 -3475 0
3377 3588 -1329 0
3703 -1365 843 0
-93 -99 1320 0
657 31 -2554 0
-1699 -554 -2777 0
-2048 415 3848 0
2717 806 -2595 0
-2635 2393 600 0
937 2469 -931 0
-2354 999 379 0
-2701 3202 -1083 0
3612 -2570 2433 0
527 2593 178 0
2628 993 -2581 0
-2390 1257 227 0
1590 1884 -1484 0
-54 3162 632 0
-837 -1005 1968 0
-2286 -3325 -1616 0
-3499 -3347 1963 0
-439 2606 2744 0
2654 -3161 -2053 0
-1492 -3311 -3094 0
-79 1048 2997 0
1278 -1454 -240 0
335 1484 -3413 0
-2427 -952 3321 0
-1024 -2222 -179 0
2376 -2584 -624 0
3215 -1151 717 0
221 818 813 0
-3746 3856 2025 0
-1340 -390 2989 0
-1953 -3844 -1898 0
385 3544 399 0
-2858 -3860 -3871 0
2448 -1987 -4 0
-2071 -3213 3290 0
3752 3895 -3601 0
-726 1332 2938 0
3105 2698 -2503 0
-2730 3581 944 0
3928 294 3330 0
287 3247 -364 0
-1316 -2246 440 0
-3492 2787 636 0
-1735 2780 3503 0
-3329 493 762 0
-2480 -833 -2236 0
-2806 1218 -2489 0
-1020 2917 -910 0
-2832 274 1979 0
-2162 -3881 3714 0
2885 2278 -2249 0
-945 2174 -880 0
3438 -2563 418 0
-76 -2209 2334 0
-3440 -2830 2125 0
-3300 898 -1431 0
-125 -3484 -2006 0
3588 -456 -3785 0
1640 -62 2476 0
-89 -3159 3402 0
2578 468 961 0
2695 -1198 2183 0
-3952 -1362 2130 0
768 -3628 -2560 0
-3916 -2296 3290 0
811 2217 -2330 0
1448 270 3387 0
3779 3227 -1758 0
3715 2416 2266 0
3398 -520 -252 0
1151 -1893 763 0
3700 -3413 -2192 0
3134 2906 -3689 0
-2443 -363 -2661 0
-3393 291 -2209 0
-113 427 3118 0
2734 -3850 -2954 0
-3432 2496 2650 0
316 2387 798 0
-353 -3313 3518 0
-2851 -1580 -1559 0
3380 3166 -1719 0
677 1114 2684 0
-3713 663 492 0
-2682 -2822 -657 0
1220 1130 1593 0
3909 2968 2098 0
-3657 3319 3174 0
-2787 824 720 0
3361 2903 -3215 0
1429 -687 2323 0
-3399 3922 -3987 0
2807 1337 -3581 0
-1739 -349 1907 0
-3453 1708 338 0
-570 -1076 3892 0
-534 -1251 -3261 0
-21 3169 570 0
-1122 -1940 -3733 0
-2487 -1020 -2037 0
1682 2816 2292 0
2533 -1317 3742 0
-3960 -818 -1434 0
-1261 3825 121 0
579 -3925 -3504 0
314 241 1558 0
2820 -2821 -1082 0
1088 1918 -2918 0
-310 -3272 -1439 0
-1858 -491 -3268 0
-3613 -2280 -2168 0
-1362 2177 -3713 0
-2317 -840 3273 0
-3437 1352 -3223 0
3727 3845 -191 0
-23 -3137 828 0
3726 -1249 -1169 0
3642 -1898 2298 0
2823 3705 -2647 0
-3308 27 3979 0
1524 -604 -2610 0
459 -84 -3375 0
1385 -996 -2283 0
-316 -1565 -3521 0
-947 1214 2551 0
1099 2043 -2591 0
-2227 -1518 2699 0
-3112 3305 -2487 0
2539 -1837 1848 0
2243 3290 -122 0
-502 243 -1217 0
2478 444 110 0
1614 2731 -1351 0
3170 -2824 1561 0
2405 -3856 2073 0
3207 -2809 419 0
-1639 2263 -3209 0
-1658 1909 168 0
-703 655 790 0
946 -1943 -363 0
-3633 3702 -2179 0
1529 174 2858 0
2214 1158 1799 0
2901 2162 -3241 0
2198 1573 3741 0
-1787 -2222 -1954 0
2605 -3133 -1104 0
-3892 -3262 824 0
-3913 1518 2853 0
2447 2954 3567 0
-1314 2129 -2837 0
2263 7 33 0
2912 3314 -1723 0
-1347 -2047 -1337 0
2504 3296 1737 0
-1934 -3093 -3882 0
-578 538 616 0
2713 -3750 -293 0
694 -7 -2421 0
2615 -3048 -2811 0
-1657 -589 465 0
-2834 -158 -3682 0
2895 1443 981 0
3763 -235 -2773 0
-1076 -3759 -2615 0
3619 1000 324 0
1098 -3444 3559 0
-2580 1425 1845 0
1025 -2134 148 0
-589 892 -256 0
-476 3269 -2079 0
1588 -794 -562 0
-1068 1202 -2629 0
-112 3606 -1418 0
-3094 2569 -1909 0
2070 -1597 390 0
1584 -720 -2362 0
-70 -3550 1728 0
-580 3002 -2601 0
-2940 858 3966 0
3920 984 1031 0
-3084 -2108 1592 0
-1317 1436 2636 0
-850 -3570 1696 0
-3216 -2199 3683 0
3654 -1863 -457 0
-1960 -3338 -1708 0
-3819 532 3504 0
-871 2502 2211 0
-3359 2910 -3302 0
1340 609 -2989 0
3896 -10 1557 0
3838 644 802 0
2065 3261 -3117 0
-979 3052 1551 0
-453 639 423 0
-2010 79 -98 0
2839 1014 -2512 0
568 2177 -3765 0
2674 -1977 2109 0
-1533 -3286 2516 0
1433 -1892 3579 0
-3664 -1593 -2558 0
-2665 -3867 -2772 0
3633 -2932 3654 0
-3629 575 3542 0
-3226 -3329 2723 0
924 -2766 -834 0
333 2813 -771 0
1109 434 -3733 0
1218 3159 3369 0
1616 2118 -175 0
-2768 -1400 -3807 0
-489 -2650 1525 0
3529 -3673 -3130 0
2843 1686 -2986 0
-3584 -1975 3355 0
488 1452 1566 0
-3576 -2091 3045 0
-3662 3254 -3449 0
-1320 2178 -1326 0
-3412 1640 -2911 0
-2235 -2988 141 0
-382 -2649 -3868 0
-451 3571 1987 0
2938 -406 -2725 0
-2911 3535 2115 0
1731 -2328 -3453 0
-862 1864 3641 0
790 726 -2119 0
2551 2918 -2397 0
-2202 1541 -1125 0
88 504 -1127 0
-1161 -1733 -3508 0
-996 1862 1379 0
3576 680 3888 0
1038 -2481 644 0
-281 1139 -3520 0
2381 -2315 335 0
-2203 894 -2722 0
-2393 1727 2170 0
528 -3728 267 0
-3461 3051 2692 0
3699 990 619 0
-2082 -282 1854 0
2405 534 298 0
-1093 968 1674 0
608 -3361 588 0
-1761 870 -3675 0
299 2496 179 0
-3197 -3823 1349 0
-2189 -3974 429 0
979 -2415 3101 0
2620 1337 -940 0
3012 -737 -3232 0
-3973 -2050 864 0
355 -3358 1409 0
2350 143 -1671 0
-3775 1413 -632 0
-2731 -2429 -2243 0
-2107 3638 -3513 0
926 -3736 -1545 0
3992 -823 -2333 0
-3365 -1570 -2507 0
-2162 1893 2554 0
146 -1182 2350 0
436 -166 217 0
1350 1459 -169 0
-3377 -2459 2632 0
3447 -1647 310 0
1007 -1388 -3017 0
1928 1683 -2445 0
879 3827 2126 0
-501 -1133 3989 0
2229 -2891 858 0
-3152 3834 -2206 0
-1808 -3077 2980 0
1448 1613 -1570 0
1238 1469 -1165 0
-2823 3256 -932 0
-3511 -730 -580 0
-1408 3230 2317 0
1741 -2843 1596 0
661 -1848 380 0
2049 2744 -2631 0
2293 1741 -1664 0
-2589 -2047 1483 0
1677 -2115 -1768 0
-1993 -1218 -889 0
1022 -400 937 0
-198 -1141 2151 0
3845 -1100 -2745 0
3467 -336 -3781 0
-2702 520 -1915 0
-386 303 -1083 0
-558 2116 438 0
-104 3518 -2857 0
-294 -2753 488 0
-3796 -2787 49 0
3232 3363 544 0
-3977 6 -1805 0
-503 2167 1009 0
2420 -67 -17 0
-115 -2390 976 0
-1558 -2418 -3348 0
2747 631 -2896 0
316 -2243 -685 0
-3631 -3477 -2858 0
-2918 2583 3491 0
-3742 3912 -2567 0
979 3172 -1194 0
1001 1824 -3942 0
-3189 1211 -2274 0
-2820 -2727 3909 0
-687 -1752 -3145 0
-3196 614 -606 0
-591 -408 -1400 0
-3050 822 1358 0
-2960 -2678 -1396 0
-1508 887 3623 0
-3225 -3100 -1992 0
-2683 -2829 1189 0
-1554 2652 1400 0
-2600 3228 -3382 0
1889 1011 3639 0
3857 1064 -95 0
1693 -3419 819 0
3893 -3771 1937 0
-2152 383 374 0
-2016 2906 -3073 0
3171 -848 754 0
3610 -1379 -1806 0
-27 3989 2386 0
2807 -1812 358 0
2305 1546 739 0
3112 -3674 -3143 0
-2814 2760 -547 0
-2910 -3317 -2187 0
-1093 1278 -3137 0
2542 593 -3109 0
-1676 -2099 -2749 0
555 -1771 -370 0
-3143 -3826 -2277 0
-1089 765 3736 0
-784 -554 -1961 0
480 -1626 2718 0
2696 2648 -3392 0
1515 738 -2037 0
-3512 -379 985 0
-2379 -873 3720 0
511 -2389 -2594 0
-422 -3799 3892 0
3956 -160 470 0
3041 -3137 103 0
-3075 -2019 -2639 0
-2940 3985 -3787 0
866 -272 3822 0
420 -3969 477 0
2284 647 854 0
-2773 -1207 -1630 0
-951 648 3726 0
82 659 -2464 0
-1896 -71 -124 0
844 -2607 3423 0
-370 -2331 -3895 0
3683 887 766 0
-25 1624 3546 0
693 -3898 -3337 0
3367 -2473 867 0
766 1302 911 0
1122 3693 -1972 0
272 -25 -1316 0
-3356 1334 3569 0
3072 -1873 2871 0
942 -1301 1266 0
2717 3395 -421 0
713 2083 -1504 0
-2462 1705 -975 0
247 -2661 1478 0
-1946 1793 3697 0
-696 1634 -3552 0
1428 991 1065 0
-2960 -3654 2986 0
-1380 -2497 2908 0
-921 -3529 935 0
1504 87 -2633 0
-627 -3605 -1291 0
1034 -532 -2365 0
-741 -1672 1941 0
1851 -622 -180 0
359 -880 680 0
-264 -796 -2486 0
-2464 -1368 -1954 0
2028 -779 2283 0
3419 -3775 -3368 0
-2284 2096 1671 0
-2490 -3106 1106 0
2495 -840 -1223 0
-1619 -1766 594 0
1085 1412 -1201 0
249 -403 487 0
-696 -1137 -2895 0
3626 -132 -3285 0
3351 -2647 1802 0
51 -2265 1138 0
-1528 -3141 -398 0
-966 1548 3529 0
2754 -1447 1319 0
-2215 782 3983 0
-1903 -1788 1938 0
2022 2050 3932 0
-1066 -3431 741 0
-974 1327 -1543 0
-1409 3211 -695 0
-2007 -1824 2161 0
3289 1630 -1901 0
1346 -3130 1030 0
1940 3061 2205 0
-2780 1299 -815 0
924 3677 -3025 0
-2386 586 2217 0
-3560 -1033 -1595 0
3343 599 -167 0
-2825 1576 3503 0
2518 -3000 -560 0
-1362 745 826 0
-956 2930 -2243 0
-515 3881 3319 0
-1395 -1879 -2619 0
-1990 -2979 3289 0
2140 -3627 1480 0
1322 -911 3590 0
3692 3 1898 0
2645 -2181 -2733 0
-2599 967 -3195 0
-132 -883 -982 0
3759 -3085 1156 0
-1929 -3957 1047 0
3511 609 1803 0
-1459 2159 -2899 0
2619 -47 -1737 0
1833 -3617 2806 0
-1169 1522 -3944 0
-2127 3435 3113 0
-2460 -199 2705 0
1425 -2840 1687 0
364 -3403 1831 0
1422 -3484 3094 0
-480 3394 3763 0
-3361 2721 -3627 0
1000 -2984 -1251 0
-3338 1479 844 0
1728 1229 -3975 0
788 -695 -2976 0
1776 -613 -3417 0
218 -2859 2079 0
-2176 -2953 -2414 0
2240 -2953 -3054 0
-3084 1362 -3701 0
-517 2994 3704 0
3045 2305 -2991 0
-1767 228 67 0
1406 2463 -3020 0
270 3880 -1740 0
-1107 3299 -2383 0
3755 14 2134 0
3784 668 1665 0
2200 2078 3143 0
-421 -1768 -2534 0
-2313 1287 -359 0
-72 -3894 2363 0
2186 2280 -2888 0
354 -2495 417 0
-1449 3282 304 0
1754 2705 2695 0
-2862 -1196 -2017 0
-1984 -1667 3278 0
-3739 -1963 -965 0
151 -3231 -3998 0
-1270 -1131 2366 0
240 3823 -157 0
