c Large 3-SAT formula for GPU testing
c 3000 variables, 12900 clauses (ratio: 4.3)
p cnf 3000 12900
1641 1984 447 0
-180 -539 312 0
-1922 2443 -1375 0
767 742 -2274 0
-1773 2223 -667 0
2025 -951 -2257 0
-2519 -1112 1547 0
2462 1070 2608 0
837 1371 -1849 0
-2128 5 1142 0
-2774 -2975 -1718 0
1379 2504 1878 0
-2022 -2353 -1064 0
-1902 1235 749 0
-1537 2406 -2835 0
-2241 -1228 136 0
1275 152 -2418 0
-2879 -403 -1888 0
391 356 2854 0
1429 1482 -2397 0
1147 -694 2862 0
2113 2607 -753 0
214 -449 -1260 0
1266 217 -303 0
-2352 -646 2758 0
-1444 2053 -483 0
2419 -909 622 0
-2223 -1887 -229 0
-1912 1832 1161 0
2077 -1830 2385 0
2834 2880 -593 0
-577 -2964 -1878 0
483 -502 -2670 0
-1963 2153 -685 0
-1226 -2376 -1920 0
1159 503 -2160 0
-108 1880 1442 0
-1441 553 1891 0
-2323 1742 -8 0
1439 -2025 2045 0
-1255 -2479 -2812 0
-1973 1562 2659 0
1113 2750 1824 0
-217 1001 -1313 0
-2563 -2130 -2065 0
-1320 -2222 1620 0
-640 -359 1129 0
-519 887 2426 0
-2393 1375 -625 0
-1051 -2768 -2900 0
-2644 1356 1704 0
-1897 2514 -648 0
2031 -2225 81 0
2843 1963 2855 0
-2330 2128 1034 0
-402 1207 885 0
-1897 -824 -706 0
860 -1009 -2744 0
-2743 -666 -2965 0
535 2366 -1244 0
951 1240 -1016 0
-488 -211 -1313 0
1028 -906 -1941 0
-1996 -903 537 0
1111 1469 2737 0
2978 -1436 2851 0
-2531 -795 -427 0
2314 -1752 -2578 0
-1964 -425 310 0
-614 -519 528 0
-1670 1518 -2793 0
-379 -2730 -1942 0
1129 -2453 -96 0
1104 -1222 -332 0
-1484 -2490 -597 0
311 1795 -914 0
2860 -2387 -2466 0
-1694 -1456 1397 0
-412 -1995 -1693 0
1705 710 1804 0
868 -299 2375 0
-1032 -492 2839 0
941 724 -233 0
1276 -1812 -264 0
1081 1004 63 0
1950 -86 2985 0
266 -1922 -1426 0
-1552 1866 -2321 0
2596 -2156 2577 0
626 -2927 15 0
-1687 -293 -2318 0
2834 -2646 -192 0
29 -2634 -2671 0
-2879 -2364 -387 0
-1105 -2320 2447 0
-2995 1400 -1816 0
-2494 72 2113 0
2046 -1000 -467 0
690 -2994 396 0
2119 1429 -973 0
-444 -1959 -149 0
2521 2395 -1638 0
-600 10 -2535 0
1773 -2545 -2725 0
1853 -1760 1259 0
1024 2946 2079 0
-2847 1602 -413 0
606 2781 337 0
704 1617 -1765 0
864 2491 -1815 0
1295 -2454 1690 0
-2835 -1087 2935 0
2353 -623 2334 0
-563 -41 32 0
-1530 -1347 1583 0
1879 -2070 -2059 0
-1464 -2512 387 0
496 1302 730 0
1240 899 616 0
-2275 1976 -1632 0
926 -2806 -1077 0
-712 -853 2438 0
258 -2679 1328 0
1247 2592 -1212 0
-520 -1201 853 0
103 1194 -503 0
785 651 -2178 0
2841 247 2438 0
-1269 1720 2058 0
999 2446 1535 0
1485 -2430 -2785 0
1703 1531 -1176 0
-1630 -700 -1953 0
2952 -1800 -1355 0
-1768 -1138 -1078 0
461 277 1129 0
1262 1036 -230 0
-1199 2172 -2979 0
2642 -2757 1125 0
-1455 -1418 970 0
704 -1021 -1567 0
-1947 -2053 -2682 0
2897 921 417 0
2841 -2186 -408 0
-78 165 -2225 0
-2662 -2945 -2331 0
-2162 2077 619 0
-1744 -874 1265 0
-924 1301 -675 0
-1564 1420 1362 0
-2297 2900 -1099 0
2256 -637 881 0
-2406 -519 -1806 0
-2494 1227 -2276 0
2766 -26 -2174 0
-700 450 -153 0
-2133 2779 -1013 0
1170 559 -47 0
2962 -1376 -196 0
2941 -1112 2640 0
-1036 -2303 2632 0
-2934 469 1582 0
938 -1812 -1391 0
-120 -510 -517 0
899 -1413 220 0
1054 -565 227 0
920 -610 2662 0
2925 -2521 -1086 0
1726 -1258 -980 0
295 -20 -1809 0
991 -2808 155 0
2267 2112 -393 0
-1956 2639 871 0
-1294 1447 -926 0
-2644 -659 -2352 0
-1175 -2772 2501 0
1988 209 2941 0
-2294 1616 -849 0
-2968 -1396 2171 0
2242 1905 2273 0
-2146 1791 1017 0
-707 -1991 756 0
2214 -1463 1351 0
1304 -565 2396 0
-2730 -2999 -1602 0
1561 1664 1228 0
1761 1065 -1361 0
-344 403 2279 0
1113 1724 339 0
-463 2755 1694 0
-2443 -230 -165 0
-103 -1319 25 0
1420 2174 -2014 0
357 2205 294 0
-2462 2724 2927 0
-340 -1280 561 0
-167 -1388 857 0
2564 2165 -1966 0
2413 -2325 68 0
-344 1583 236 0
-498 1862 -820 0
-1964 1126 -2012 0
-553 1658 -382 0
-52 2885 -1395 0
-1309 -628 -2409 0
852 -1807 2793 0
1258 2177 1679 0
-946 2348 796 0
1136 197 994 0
751 1467 1379 0
-2437 16 1511 0
-719 -1227 -1008 0
-1841 -536 2458 0
-2260 -1243 1625 0
-2783 1388 -1383 0
-2261 -2754 341 0
-1597 190 137 0
2343 2716 -313 0
2625 2507 -2295 0
842 2608 266 0
1976 -2340 2489 0
2729 -2988 897 0
2676 564 -1899 0
838 -1889 1266 0
2369 1342 -2962 0
-629 -651 1230 0
2764 36 -1126 0
-1082 -2184 2855 0
-1111 -2658 -1121 0
1849 -1956 2224 0
408 1409 -1964 0
2546 732 955 0
1979 214 -2109 0
-428 2968 -1353 0
2295 -2352 2821 0
-2562 -225 1351 0
-83 -2956 -472 0
-595 2133 -2026 0
1733 2303 -1555 0
-1042 -580 -2850 0
150 486 2116 0
948 -1323 1728 0
-635 -1666 1711 0
-359 -395 2803 0
1517 2433 1320 0
-2374 -660 -1139 0
-128 1569 -291 0
1977 -218 -2422 0
1217 -1114 -1652 0
-702 902 -681 0
20 -1304 203 0
1080 2395 -2129 0
2935 -1867 -1376 0
2870 -832 -2433 0
-1624 1460 453 0
-202 -2594 869 0
1332 -1659 -2069 0
-1164 1549 2101 0
-2906 695 2407 0
630 -539 11 0
-1654 975 2284 0
-301 -2272 -1198 0
-836 -2335 1277 0
-1078 818 2685 0
1724 -1290 2246 0
278 264 -1225 0
1622 1175 1889 0
-409 -1144 -1233 0
-1419 -2712 2747 0
-2245 -343 -2785 0
-918 -2666 -2733 0
686 2401 -988 0
2542 1893 -408 0
-276 -837 1275 0
-556 1256 1541 0
-2418 -1343 -1816 0
1879 218 2717 0
-1762 -209 1204 0
-2073 -398 2255 0
-2438 1082 -767 0
2870 -2252 2789 0
1806 -2197 2859 0
-1614 -2518 1925 0
40 -1566 -1132 0
328 -711 323 0
2709 2234 -2100 0
1846 2895 2403 0
-23 -1200 -1846 0
375 2352 556 0
-23 2772 877 0
-2762 260 -1589 0
-2348 518 -2042 0
-1389 -1471 -2095 0
-1365 -1291 -310 0
-626 -7 -86 0
545 521 1760 0
-1753 330 763 0
372 700 -1683 0
400 -2015 -2609 0
-2657 1855 -2006 0
473 2611 -2224 0
453 -588 -530 0
325 -259 -2417 0
-1658 -2248 2548 0
-1486 2872 -2399 0
356 -1469 1510 0
325 1096 2761 0
-1164 397 769 0
-1546 -2767 287 0
1849 -2404 1398 0
2944 2470 -2785 0
898 -2844 -1693 0
-24 354 1551 0
-247 1756 1977 0
726 -1047 -1944 0
-1024 -2606 58 0
-760 1027 454 0
1546 -1681 616 0
505 -2149 -1730 0
-2966 1650 1843 0
-279 990 1471 0
650 2613 -1821 0
2694 -2856 -2131 0
-2082 -1120 2651 0
2240 -2953 -2441 0
1080 -2381 -2049 0
2407 -400 -820 0
-975 -2892 -2969 0
662 2269 -1408 0
-1058 57 131 0
2817 1295 -980 0
-2958 -2074 2410 0
2690 967 -821 0
1368 -2783 -1832 0
420 -2133 411 0
258 574 818 0
-1283 638 -2927 0
2309 2874 -851 0
582 152 1961 0
-1414 2095 -2166 0
2096 567 2799 0
1965 -2603 2350 0
-855 -1027 1793 0
-2895 -1071 -2409 0
1505 -1955 -2862 0
-2292 1844 622 0
-1640 1894 428 0
-3000 970 -2530 0
-2864 1309 260 0
-21 -1567 2157 0
707 2111 -2282 0
-1648 1258 -2243 0
2405 1226 -1748 0
1073 -2386 -279 0
-892 1514 -718 0
1380 -1517 217 0
-306 -2728 2578 0
949 -2557 -2542 0
-2031 690 2150 0
829 -1940 533 0
2547 1598 -1869 0
-931 1056 -338 0
-2906 -1129 2656 0
494 1586 -219 0
1018 -754 -1844 0
210 2841 -1457 0
1046 -38 1084 0
-2704 766 2969 0
2859 -1944 2606 0
406 1444 -1577 0
2269 682 2037 0
1242 1381 -2028 0
331 -2738 2117 0
-2762 817 -2239 0
1135 -2160 1940 0
-1184 -1083 1283 0
2425 -1037 2706 0
1374 -1310 -1623 0
-2399 -553 -2147 0
-290 -657 974 0
1761 -1175 1300 0
2121 -541 -1473 0
-1371 -2532 -2336 0
-904 312 303 0
2709 560 2646 0
-432 2871 -727 0
-2701 -774 -2145 0
2032 -1814 1241 0
-2824 1163 1862 0
-775 -2392 1428 0
-1757 241 191 0
-1207 -1129 423 0
1888 609 -867 0
532 -308 47 0
1237 -2386 -20 0
1970 -1365 980 0
-215 -2253 -653 0
196 -1422 952 0
1218 -1380 558 0
1447 -1560 -1297 0
-2824 -1261 -2279 0
-728 441 211 0
1136 -1458 -329 0
-893 777 -2745 0
1423 1644 2567 0
536 1201 2209 0
670 -2017 2687 0
-2130 2848 -995 0
1489 -278 343 0
2760 -627 1377 0
2901 2567 444 0
1780 -542 2376 0
-1898 -1936 -1084 0
791 -2952 2869 0
-362 2257 1838 0
-2469 -528 -603 0
-388 -2200 2179 0
507 965 -2284 0
-1690 1055 942 0
-544 52 1782 0
-259 -2481 536 0
2259 -1506 -618 0
-2092 -1046 -871 0
-2338 -2181 1431 0
374 -1705 -2212 0
-2994 2946 1777 0
667 -2394 2513 0
2368 2673 2032 0
1807 2790 1081 0
-2244 -2153 691 0
-1824 -1305 -2611 0
1750 -2840 650 0
-1221 1807 199 0
-526 -2576 2577 0
-131 -1996 2788 0
2936 387 614 0
1081 2553 1781 0
-962 -2434 1528 0
-1431 -2015 1604 0
1900 2522 966 0
1082 2588 2171 0
-1615 797 1326 0
2736 1143 2949 0
87 400 -2228 0
2573 292 685 0
2322 -1379 2282 0
1297 -1817 -45 0
-2621 626 1754 0
-1579 -1565 -2102 0
-1565 1023 905 0
1788 2568 -2528 0
-2085 -1347 -794 0
2388 -18 -2381 0
465 2769 2817 0
-1578 352 1563 0
-519 368 2906 0
676 1476 1043 0
2400 1097 2260 0
2984 -1541 221 0
2798 2412 -2800 0
1757 550 859 0
2847 1738 -2042 0
1907 907 720 0
-2339 -1667 -1640 0
94 1398 1388 0
1372 1750 325 0
-2857 -2055 -53 0
-1495 2992 1559 0
692 -2875 2625 0
-2992 2427 -386 0
-267 1444 -2653 0
-1377 -489 1534 0
-1366 420 -2274 0
903 -2508 2578 0
-2312 1183 999 0
2554 4 -480 0
151 -2840 -2171 0
800 -674 1545 0
1943 -393 -315 0
-540 2973 2244 0
-2725 599 -2223 0
396 -788 2344 0
2710 -1423 -1646 0
-2593 788 -596 0
-1836 1996 502 0
-530 1044 2251 0
-1801 -1248 -748 0
-2625 -1362 522 0
2007 1482 -1628 0
2366 -492 889 0
-1363 -380 2179 0
-889 -2349 1002 0
1742 -2647 1452 0
-2285 -1057 -2619 0
2669 1049 -242 0
18 -895 470 0
1835 -646 500 0
733 -346 1712 0
-2701 -20 222 0
1358 2380 -321 0
-1283 1203 -2818 0
-210 247 -1438 0
1835 1040 961 0
-2209 -431 -1819 0
-505 -2142 1509 0
-1281 -176 2176 0
1268 -1279 1707 0
-1026 -2325 -691 0
-507 701 -1744 0
1365 -2457 862 0
-1591 -1362 2020 0
-1294 -2953 -1575 0
-399 -2605 -2354 0
21 2177 191 0
2186 -926 1426 0
-1585 -991 -1329 0
2524 -2768 898 0
-983 -1814 2822 0
1731 1976 -2857 0
-1756 206 -1983 0
-1734 -1688 2965 0
962 -316 -2033 0
2166 1099 1877 0
-137 -1761 -1035 0
-451 2171 -2275 0
1931 -2411 -1892 0
1286 -289 2556 0
1499 1747 -2360 0
-2593 754 2990 0
-2622 -190 -2380 0
-2269 2126 1801 0
1126 420 -2722 0
-2761 2277 1900 0
2256 506 -1442 0
-2987 -1188 -542 0
2373 -2553 -1339 0
-999 -172 -952 0
-2737 206 -1657 0
-2601 -448 2718 0
175 -2581 2406 0
2709 1244 -664 0
778 -487 2398 0
-821 -1912 -921 0
869 307 -1867 0
703 -2477 2665 0
2481 -2830 -2348 0
1529 2983 -2263 0
1703 1953 -2884 0
8 4 1178 0
-2216 127 -2115 0
2530 -1740 -1230 0
646 2138 -1093 0
1764 -2406 -2749 0
1452 -1285 1003 0
-1363 -2178 1120 0
-2020 -2687 -482 0
-2904 -1444 1777 0
-1021 -1462 -1688 0
968 -194 2276 0
-1963 -1055 -215 0
-1408 -2533 -800 0
2777 -2515 1430 0
2096 488 -1673 0
-1020 2819 62 0
-924 -915 -1193 0
-94 2299 -1945 0
-150 -1950 -1083 0
2806 -2960 -603 0
-2254 -15 68 0
372 -2498 1173 0
-1816 2196 2359 0
1469 -2685 -2964 0
1885 2350 2640 0
2110 1120 2084 0
-854 1172 -2706 0
-2021 -1110 34 0
1252 984 1105 0
1955 -2591 -1423 0
-749 1358 -2204 0
1619 -1519 -942 0
-1282 -2403 -2973 0
2950 -1272 2036 0
-2436 2701 863 0
-442 494 1467 0
-1971 -2818 1440 0
-2127 -1241 -1452 0
1380 2215 -2274 0
-717 632 15 0
946 252 -851 0
-1181 -2385 -2626 0
2235 515 -1780 0
2338 -1274 -2955 0
2464 1051 1164 0
979 -445 2118 0
2196 1428 244 0
-2244 -343 1839 0
-1626 -1923 -1665 0
-2510 393 -2491 0
-1190 -1856 1337 0
1104 965 2176 0
2352 2547 -565 0
1022 -550 2015 0
-1353 2287 -2413 0
1510 -2852 -1225 0
594 2381 -1908 0
-623 1012 -948 0
-2402 1243 1719 0
1854 -1362 -782 0
2026 1408 -10 0
1267 -2931 328 0
2801 -1085 -1192 0
-2225 1917 -2830 0
-1469 2891 -2974 0
-1134 1768 -1842 0
-1000 858 -1118 0
960 -2449 410 0
-1214 1810 941 0
-312 1317 947 0
1527 -1696 1288 0
-1609 1803 1955 0
2976 362 -905 0
203 -2298 -1817 0
-296 -2717 -256 0
-2856 -627 -2163 0
-2663 -1752 2693 0
574 -1501 -1219 0
286 -1776 -563 0
2284 2404 -1566 0
874 -442 -2365 0
-2543 -99 1651 0
394 -1419 724 0
-2507 -220 1796 0
424 1120 -995 0
1424 1343 -2265 0
889 2060 1646 0
-2415 2913 614 0
2859 -2097 2392 0
-2956 777 -824 0
-43 -1489 -1883 0
516 -529 1757 0
-1538 -822 658 0
501 -2333 -687 0
2430 87 -2161 0
2164 -783 -301 0
-1095 -1946 -1159 0
1085 590 1016 0
-44 -1919 -2361 0
552 -2374 -1107 0
-1499 -1741 -1388 0
1457 1048 1479 0
1605 -374 -2995 0
-1607 -680 -2899 0
-1639 -715 163 0
2710 -1933 -1113 0
1796 -2191 -142 0
-103 1539 2546 0
1462 2074 5 0
-2669 -744 2615 0
1678 -1141 2982 0
-527 557 2620 0
-2899 1476 1913 0
-1733 1329 -1993 0
-1920 -1139 2555 0
2482 1691 -2699 0
-2933 -2965 -2119 0
-362 2433 82 0
815 2648 -2457 0
45 -1978 618 0
-2249 1088 132 0
-2219 1739 1165 0
2692 1699 -2836 0
232 -1607 -772 0
1676 -2284 -100 0
-436 2725 -564 0
2168 -2501 -1449 0
-802 643 -2679 0
-664 -585 -36 0
-1036 2951 2432 0
-2072 2161 -640 0
-2981 -65 2738 0
2091 -233 -1794 0
-2203 -391 2186 0
-1008 2800 -2799 0
1288 -1858 2994 0
1306 803 -2811 0
970 -83 -2154 0
988 -2366 -809 0
2319 1621 -1401 0
-2549 1254 2093 0
-636 -2862 1942 0
2348 488 -2065 0
1062 898 -816 0
728 1777 -418 0
-304 -2179 1697 0
2874 -1783 674 0
-1987 1961 129 0
1761 -2737 2025 0
2006 -521 -2865 0
75 535 -2471 0
-1426 -1466 2780 0
-1780 2004 1756 0
897 -553 1965 0
-601 -650 855 0
-1280 -964 1966 0
-683 2807 -1804 0
2790 -2034 -1972 0
-420 -394 -1403 0
1095 1173 -1390 0
48 1857 395 0
26 -98 353 0
7 1094 -2403 0
-1579 2812 -2139 0
-2030 -2638 661 0
1064 2687 -2756 0
744 405 616 0
2079 589 1019 0
-475 561 -2729 0
-1879 1992 2675 0
-1705 454 -1750 0
-83 211 -739 0
-650 169 756 0
-996 2270 -2468 0
1441 -2835 -323 0
287 -2210 -1278 0
429 -2837 -143 0
2208 -1001 1965 0
-300 2699 624 0
2473 -904 -883 0
-926 -2615 -1552 0
526 148 -1008 0
-743 -484 2334 0
1534 -13 -1476 0
2824 -2884 2334 0
1852 -125 -882 0
-1111 1035 -2114 0
-1113 -2000 -2754 0
1039 585 -2806 0
-1185 -1942 367 0
-549 2919 -2428 0
-2663 -2930 2442 0
2112 797 -2141 0
995 382 -2409 0
1628 -267 1723 0
-774 -885 2491 0
-2275 2696 -2355 0
-2464 1240 -703 0
405 -1564 -1156 0
-2659 808 1929 0
538 -1600 2964 0
-2942 -1936 2805 0
693 -896 -1880 0
-200 2570 209 0
-1063 1337 309 0
847 -1907 -2539 0
-800 1320 -432 0
-1090 379 -1834 0
2706 -1546 -1137 0
-921 1510 2578 0
2872 507 -419 0
2277 2102 1526 0
2076 917 1906 0
-424 409 -2660 0
796 -2973 2067 0
1017 -2923 1415 0
2507 -577 45 0
-612 -1217 1643 0
-2243 -2828 984 0
105 2034 2902 0
469 -931 -2063 0
2035 172 -495 0
1971 2574 1043 0
1123 1585 177 0
-1995 -1491 -117 0
-2244 -140 1602 0
-458 2511 -1884 0
1225 2331 259 0
-2538 -2286 1218 0
855 1105 -1880 0
1574 -407 -2042 0
1612 -2992 -1244 0
-1840 -1546 -1222 0
1814 -1408 568 0
992 1649 -1101 0
1804 2483 567 0
101 -1306 -2375 0
-1697 -2141 -2364 0
2258 1483 159 0
-2997 707 1044 0
2161 -1480 -1324 0
1602 -2225 343 0
1174 1868 2801 0
-952 -2763 -1979 0
831 2356 -2228 0
775 -521 -1591 0
298 1614 -2761 0
-828 -1811 -538 0
-656 -194 942 0
2846 -2131 2819 0
-1664 2283 -2138 0
1626 1930 -2878 0
-2391 2792 -203 0
-2371 -2196 -2233 0
-1852 1998 -2797 0
-2195 1086 2291 0
921 -1556 -1314 0
2128 1481 207 0
-2625 2003 569 0
268 -942 -2957 0
-1990 -2578 1331 0
-1966 -2126 -1103 0
2060 2377 1262 0
672 2180 -1217 0
1333 -1596 2555 0
-2335 -2299 -2454 0
-1631 -740 2364 0
-1031 -24 2288 0
79 -1674 -992 0
1691 1148 -811 0
-1936 -1612 -69 0
179 1680 1747 0
2390 -756 -993 0
1163 -2874 -2374 0
2782 -666 -2562 0
2087 -1051 -1585 0
-2871 -1439 -2294 0
-1728 1955 -1222 0
1975 -1312 420 0
2440 -1395 -869 0
-1979 2801 2433 0
1927 1691 -933 0
1311 474 1106 0
1288 667 1837 0
2272 -2317 -1091 0
-2365 -925 -206 0
1774 288 -2815 0
1648 2213 1635 0
2557 2597 2372 0
377 2542 -876 0
152 1944 989 0
741 1672 -2596 0
-2567 2121 -2996 0
-1569 610 954 0
371 642 -528 0
785 -2448 554 0
-2670 2210 -190 0
-910 2101 -663 0
-1756 -2021 20 0
35 2127 -256 0
2441 563 2656 0
-1716 -1167 1122 0
-2540 -132 -2357 0
-1088 -2084 2232 0
2029 429 586 0
415 -2793 1390 0
-2768 1144 827 0
1499 2117 -2225 0
-145 2524 2207 0
-2146 -1911 -1274 0
-98 -646 -2359 0
-2497 1179 2585 0
-72 1562 -1953 0
-2192 895 -1773 0
466 442 568 0
-2910 -2553 754 0
1572 883 -945 0
-497 568 -559 0
-517 -1615 2817 0
-1923 1287 2722 0
23 2665 509 0
2734 -2633 -1475 0
2026 -2665 -2865 0
195 1828 1413 0
-2482 -2186 -2740 0
-1324 -2261 -558 0
1371 1408 2944 0
-778 1668 -2698 0
1319 -679 -2381 0
-752 -753 1357 0
374 -2945 -584 0
852 -778 1447 0
-2280 2785 -822 0
927 -1455 2777 0
2589 1044 1035 0
632 -125 2270 0
-2470 -2802 -2464 0
1051 -668 -1548 0
-1655 27 -1841 0
307 1341 -271 0
-1495 -2932 13 0
-405 366 -2815 0
-947 -2377 1004 0
-1515 1333 -2165 0
2046 -2030 -373 0
456 -725 1879 0
-1046 1115 1695 0
-1469 -886 41 0
97 -493 -462 0
508 861 2033 0
1366 800 1285 0
2237 1060 -1572 0
2145 -748 -1939 0
2905 -799 -2807 0
-100 2855 -2523 0
2852 248 912 0
555 -144 505 0
1661 981 -806 0
-435 -817 2826 0
2967 89 -2007 0
2475 -169 1944 0
-67 -2998 1633 0
2688 52 -378 0
-2589 700 -854 0
330 903 -1129 0
2437 -1449 1559 0
-1601 2854 2851 0
-2342 1686 988 0
-1053 -2336 2246 0
2250 -564 2284 0
-2259 -2026 -2625 0
369 -1769 1297 0
-812 2481 -2096 0
165 -2562 830 0
518 208 2344 0
-2000 -2640 119 0
-1677 150 2213 0
463 2999 2112 0
-2153 -1795 -2868 0
1221 -1581 -2570 0
-2994 2349 -65 0
2331 2047 2281 0
574 -1293 1985 0
2286 -2360 1793 0
-1230 2366 1648 0
-1098 -2269 101 0
2429 -1483 -940 0
1049 -570 46 0
2122 13 462 0
-2544 -2921 -140 0
2072 1649 -677 0
-45 -651 2507 0
1552 -1817 -1046 0
-1474 -1138 2070 0
1012 1864 1309 0
919 -367 -2378 0
-1047 2792 309 0
-57 1915 2643 0
-1314 657 95 0
-986 -103 125 0
1578 2141 1186 0
983 -507 -815 0
-1969 -2521 -336 0
-879 -1506 803 0
2099 -1784 1409 0
-2322 1933 -257 0
-1962 -2287 1792 0
-378 -2932 1865 0
2979 -2999 -2172 0
2471 2328 2837 0
1905 64 -1816 0
-1184 -1368 -2981 0
-2058 -470 -2455 0
472 2799 799 0
-1675 2589 -1754 0
-2441 943 1657 0
-2044 740 2164 0
-1865 -2851 -2423 0
-1064 248 2950 0
-2987 75 2957 0
2218 -746 -1406 0
1168 -2626 2378 0
2951 -1439 -2613 0
-2181 -77 1573 0
-2590 1002 -202 0
-137 -988 1497 0
1207 2075 -254 0
1989 2706 2876 0
-145 2865 -1619 0
-1851 -2882 -200 0
-1172 -2846 970 0
-2755 81 2507 0
-1504 -576 579 0
-434 1789 2566 0
1292 1275 -2189 0
-1614 -132 2271 0
2518 2698 906 0
2836 1197 1771 0
2872 1307 2330 0
-2991 1570 2121 0
2280 5 812 0
2916 -56 1872 0
2728 -598 -329 0
1882 611 -1954 0
-740 -2463 1797 0
-2674 -1167 256 0
-60 -2671 2049 0
2124 -843 1289 0
-2908 -1808 1377 0
-1314 2770 1427 0
-143 -571 -2703 0
839 -729 -786 0
1607 214 896 0
663 -639 560 0
-1257 1795 1655 0
-551 -709 898 0
2016 -2291 2226 0
615 216 -2234 0
-1503 468 -1088 0
740 -1764 -1161 0
1118 -1976 2836 0
-1511 -864 1824 0
990 -1766 2945 0
-2666 -924 2535 0
-1204 2802 -1445 0
-2368 -2561 1194 0
-453 2664 -1176 0
375 1057 -555 0
1930 2819 -2012 0
1661 -546 985 0
-2842 370 2983 0
2709 -1907 2329 0
-1610 2283 2650 0
-1185 625 1705 0
-2683 251 -560 0
2843 -132 1191 0
-1845 2938 -1342 0
959 -1322 177 0
1882 952 -728 0
-2667 -1311 1111 0
-2460 2213 -517 0
-814 -1062 -1165 0
2292 2610 -2386 0
-2426 896 2608 0
1588 -2172 1469 0
-1279 -1126 1686 0
-2503 438 2663 0
2990 -1003 -2308 0
2012 -2879 -2334 0
-2757 -548 -2837 0
2488 2684 620 0
2172 1081 -793 0
594 -171 1663 0
1384 -1912 -2790 0
903 883 -2807 0
-636 2830 2417 0
-2904 1381 1263 0
183 2846 -1654 0
-2170 -2079 -2107 0
-2483 2854 -522 0
-1222 2574 -1200 0
2552 1345 2998 0
472 1332 -2116 0
-2997 2182 -2973 0
-754 -2334 2654 0
563 823 -1119 0
-697 660 49 0
971 385 -1163 0
-1979 -1818 2087 0
-1984 -2207 -1977 0
-2843 596 -2940 0
-297 1766 2700 0
-1466 -1386 -1808 0
-664 1380 1674 0
-19 1257 1142 0
1182 1534 2839 0
1147 -356 -2462 0
1919 -1628 502 0
2217 605 -1357 0
219 2764 -581 0
383 -1209 -2999 0
-591 -2402 -2809 0
1187 -47 1517 0
-1236 -733 -139 0
1302 -1893 -1985 0
-470 223 2836 0
-1774 1339 -1849 0
-1510 -1744 208 0
-1391 2062 2134 0
-123 -2593 -1920 0
2628 851 2145 0
-1421 -314 1911 0
-669 -1005 1585 0
-1374 1278 -1615 0
21 2434 1024 0
-835 1945 2708 0
2849 -1817 -2667 0
560 1896 240 0
1799 -510 -1870 0
577 -1912 -2884 0
220 286 -643 0
-2321 2529 2115 0
-2924 -2379 -2478 0
1200 1499 1234 0
-2267 -790 277 0
2238 83 -1205 0
-1089 -979 -1775 0
-2223 -2681 1234 0
-2912 567 -1397 0
1265 42 -615 0
-2346 2380 1914 0
-1588 1331 2576 0
1279 1718 -1558 0
-1306 1386 1788 0
341 2982 10 0
-2338 2608 1991 0
478 -2907 1920 0
-1023 -2121 1371 0
-245 1148 1830 0
2476 -968 1936 0
1012 -1804 -2125 0
-697 51 997 0
-568 -236 -2009 0
1765 546 387 0
2928 -2832 -2297 0
-1729 -2126 -189 0
-2231 1370 -2400 0
-1569 1357 125 0
1743 -732 1132 0
434 525 -2708 0
-1107 2575 761 0
-2251 835 -321 0
-2261 1882 2017 0
2226 1966 2202 0
-2288 -1902 -1901 0
-48 -2954 -375 0
-24 -1255 -1337 0
-608 1941 -2202 0
-444 2928 2048 0
-809 -2380 -2947 0
2945 -2662 -1973 0
2763 2622 -650 0
573 1435 -2466 0
-2895 -862 83 0
-589 368 -1123 0
-2191 947 1280 0
2975 -1346 -642 0
1236 -2458 349 0
2825 1121 2848 0
2947 2402 -395 0
-2267 2001 2399 0
-2915 -253 -2357 0
1648 -1649 -1966 0
-1880 -1840 2139 0
651 1177 297 0
-2693 -1524 586 0
-168 -1278 505 0
1543 2978 1681 0
-1642 2853 2319 0
-94 -2065 -1465 0
2613 -2468 -274 0
-2901 -1487 -2755 0
2583 353 2488 0
-319 1717 2530 0
1394 -408 1418 0
160 -456 824 0
957 -1958 -2282 0
1890 2276 2988 0
-531 -1833 256 0
1825 -1758 2527 0
981 1789 1601 0
2683 2979 377 0
2277 -1804 -1588 0
1257 2631 -1417 0
-687 1631 735 0
306 151 -2139 0
213 1392 510 0
-2120 -548 1549 0
2715 1773 2604 0
647 172 161 0
2507 -1294 1496 0
745 2107 -2985 0
291 1021 -1349 0
-2325 -1062 123 0
-2421 2549 -1549 0
1232 -1344 -650 0
2026 1433 2253 0
1402 -1948 2963 0
1232 -2568 2059 0
723 819 -2331 0
-1589 -1063 -219 0
1261 -414 -375 0
-1885 -1850 1080 0
-2073 -369 2023 0
1937 748 2346 0
-1057 2936 -2196 0
1975 -1066 -342 0
-2493 -300 -1257 0
-685 -320 -468 0
2743 2339 2311 0
2932 1231 -875 0
2707 1548 76 0
2680 2810 1384 0
1044 -635 -921 0
-1487 2021 248 0
-519 893 -2337 0
624 -854 1309 0
1781 692 2788 0
-4 1951 172 0
832 -1485 2760 0
1107 -1704 1767 0
241 -2562 1737 0
1648 -1566 -1940 0
-746 218 53 0
16 -877 -2974 0
-250 -614 2103 0
114 -1557 659 0
-1545 -1197 2043 0
95 2118 2509 0
1210 1380 -2611 0
-441 -2396 1088 0
1357 -451 489 0
2745 -1962 2675 0
2518 2146 2523 0
-1522 2900 1242 0
-76 -607 792 0
-1004 630 -1776 0
1491 2926 -265 0
-1629 -2529 1659 0
999 -2810 269 0
1921 -2288 -359 0
973 1107 -1962 0
-699 -582 -453 0
2931 946 -2567 0
2651 -1912 -1943 0
-2774 1658 594 0
637 2175 -518 0
847 -958 2897 0
606 2829 754 0
1885 918 2589 0
-2243 298 -2237 0
1384 1408 -1755 0
2562 -103 664 0
-516 1582 1253 0
2829 -571 2453 0
-1027 1318 -591 0
-2331 2696 -1693 0
-53 -2629 69 0
-523 2900 745 0
693 -2808 -1439 0
1794 1493 2701 0
2912 504 594 0
-1199 -1994 2285 0
-1794 -2931 -216 0
-1587 283 -1214 0
877 2909 -2159 0
-2337 -2401 -2707 0
224 2873 -2372 0
826 -2765 -2041 0
2270 -1368 -112 0
2482 -2849 1301 0
-2328 -969 1732 0
-1842 -907 755 0
-1535 663 1386 0
-2139 1130 1670 0
-2816 -2360 -391 0
1924 2038 -1362 0
193 -958 -378 0
-2032 2251 1648 0
2807 2329 -1390 0
2831 -1187 -1080 0
2555 -2124 -220 0
2568 -1348 -2213 0
1985 -2560 -62 0
-1699 1233 -2026 0
1771 2946 2159 0
1683 1366 -367 0
-692 -2446 898 0
2827 -553 105 0
70 222 -2798 0
-1814 -2316 1185 0
167 -2236 -559 0
1298 -2711 1980 0
-1660 -450 1175 0
1744 -1493 2597 0
-1825 1071 2449 0
552 -2824 -2010 0
-1133 -2451 -1321 0
745 -1637 -425 0
-982 -2285 -2682 0
2618 177 1883 0
-987 -236 1398 0
530 -243 -2338 0
1782 -524 2105 0
2056 -1309 247 0
2233 202 -2972 0
443 502 1823 0
-970 -2372 -2893 0
-220 1131 540 0
494 1 -2144 0
546 -1690 2778 0
-1833 865 -1372 0
-1181 1860 1504 0
959 -1383 -935 0
391 -451 1660 0
565 2951 1517 0
817 1582 -593 0
-1741 1243 781 0
1022 -2071 2092 0
2085 -1871 2844 0
-1482 2325 541 0
-655 -2289 2467 0
-804 -2760 -1995 0
-902 -2386 -1559 0
-2400 -2168 -1744 0
-2116 151 1701 0
2331 1400 329 0
-624 2885 -1226 0
-2703 -69 -1548 0
-1761 -2964 302 0
-2497 2537 -221 0
-658 551 -2075 0
-956 2356 1499 0
2902 1915 724 0
710 2095 -1849 0
1292 2246 594 0
-1442 -307 2024 0
-1292 -1414 579 0
1443 -772 1607 0
213 414 -190 0
-2634 2848 1253 0
-2255 2744 -163 0
-2835 590 -1222 0
-2801 825 -2450 0
-1434 -2534 -2540 0
2460 1379 -1975 0
-1094 599 154 0
2857 525 1204 0
2526 2007 -842 0
1503 -180 -1514 0
-544 -1262 548 0
-1212 -1735 -1967 0
-1188 2714 2374 0
770 59 -2093 0
114 234 2700 0
2549 2225 -839 0
1653 544 1116 0
2095 -442 1662 0
-277 1687 2725 0
-679 573 1275 0
-499 2352 647 0
-2537 1985 -243 0
450 986 2547 0
-1773 -1345 -2191 0
1828 2600 -156 0
2257 -95 2338 0
-440 -742 -1336 0
1481 48 -1306 0
-1647 -2634 2421 0
1204 -323 -1513 0
-841 -1756 976 0
-781 -592 1037 0
2960 526 406 0
-1748 -482 -1052 0
-2810 -1041 2587 0
-2607 1636 1784 0
1010 -2854 -1481 0
1675 -34 2597 0
-936 1170 -252 0
2199 270 -759 0
-1935 -1212 685 0
622 561 2838 0
-2831 -1466 269 0
2341 2668 -2292 0
2183 891 -704 0
-2088 -2789 386 0
2720 -2296 -2561 0
-1118 -1857 928 0
2209 -294 -1747 0
-2307 109 -595 0
-1944 -2878 -1145 0
962 -162 -89 0
2807 -910 -2252 0
-349 -1851 2702 0
-631 -1790 265 0
170 -283 -133 0
-83 -2441 -2605 0
2488 -1084 2780 0
1332 1878 -2328 0
-118 -1413 742 0
-2397 -235 -224 0
1573 1834 2805 0
-2811 -1732 113 0
1068 1240 2353 0
-1826 1248 2862 0
2608 546 551 0
2291 2906 -487 0
-2428 -614 -2064 0
2938 2481 657 0
2262 -761 -299 0
419 2429 -1593 0
2672 -210 -835 0
1957 -767 -2639 0
1750 -487 -2657 0
1926 -408 949 0
215 2292 -690 0
-1485 1238 2522 0
2777 761 -2020 0
1335 -2594 2528 0
-2465 1455 -2668 0
1533 -2706 393 0
-2687 -2534 913 0
-1216 757 1831 0
-2834 654 1044 0
-240 -2807 -1631 0
93 -761 -1924 0
-2491 2751 -279 0
63 2902 -569 0
-2695 -2053 -1946 0
-1558 -1769 1720 0
2460 -2623 -2326 0
-473 -2647 2060 0
1376 -1374 -2618 0
-2092 2388 -919 0
1233 -740 776 0
-542 208 2201 0
311 -1056 2916 0
2015 -1553 -2495 0
-1935 -221 579 0
1183 1252 337 0
1696 479 2811 0
1411 -628 -240 0
1447 -1679 898 0
1905 -632 -116 0
1517 700 1845 0
-807 -241 1066 0
1568 572 362 0
2059 2008 1510 0
2259 220 -689 0
-2846 2626 -217 0
2925 2623 -2865 0
-1275 2317 -266 0
-970 -1190 299 0
2663 1007 645 0
-2007 -1634 1591 0
-2354 -177 1408 0
-628 1611 1465 0
-2323 1056 589 0
1459 726 -1413 0
2351 1256 392 0
459 -2081 -2398 0
-430 427 -1137 0
-996 -1924 -735 0
-1290 513 1015 0
-1750 -319 1854 0
1335 1592 -1491 0
1005 2016 1544 0
-1912 1523 -1853 0
2327 -2063 -633 0
725 -776 -895 0
-2102 2600 538 0
-2455 1841 -686 0
-113 585 -2354 0
-1156 -2994 1266 0
-2383 -1141 -385 0
1520 -2200 2061 0
241 -2852 -2864 0
1209 -1223 -2909 0
1746 -1226 1038 0
-593 -1828 -1509 0
2279 2287 2166 0
813 -405 1450 0
2251 -2804 -2494 0
-1176 -382 -2784 0
869 2475 1133 0
-2619 2276 -1465 0
2839 -2483 624 0
-1463 -618 2921 0
-1787 -2352 -1810 0
2770 1273 1923 0
-370 2389 2456 0
2777 -2436 -2411 0
346 -2130 2562 0
918 1144 971 0
2621 -1003 -1067 0
2259 -916 1511 0
-188 2229 1606 0
1337 -415 1222 0
955 268 -90 0
-2980 -2339 -2316 0
-344 -1882 2546 0
-663 -2619 -165 0
-2431 -2926 2146 0
-767 315 120 0
2340 1119 -2348 0
2482 1401 1279 0
712 -802 -1025 0
2267 2116 -914 0
2349 -2379 -2924 0
-489 -1169 -2270 0
-1306 1142 2610 0
248 2957 -2253 0
2694 -757 -547 0
2747 -1257 1250 0
-653 1178 -2921 0
338 -2857 565 0
-2723 -57 -703 0
-2612 -2683 -678 0
2850 562 1677 0
-493 -913 843 0
-693 1505 2568 0
-823 1248 -702 0
-2262 657 357 0
1189 739 2746 0
-195 -704 2062 0
-2737 1410 283 0
2708 1918 -1776 0
-2757 1955 -2311 0
702 412 1308 0
-1348 -180 -1562 0
1595 -733 -1788 0
2768 314 -1246 0
1910 -2392 -16 0
-461 2552 -2219 0
992 -122 311 0
-601 -2826 -720 0
-602 1914 -519 0
-485 -179 -432 0
-1909 -990 2182 0
-1751 864 -1689 0
2629 -1919 551 0
2370 220 1941 0
2979 -469 61 0
1345 2707 212 0
-2080 -2554 2355 0
-732 -1307 -252 0
859 -2430 -2039 0
2997 1460 -575 0
-1767 -1463 -1547 0
994 -1874 115 0
1878 -2059 -376 0
-775 -528 -559 0
708 -1745 -507 0
-2866 -488 -817 0
2948 1018 -1683 0
-736 447 -2326 0
-376 676 2276 0
1288 -1196 1823 0
1248 -2611 1075 0
1172 -935 1040 0
1656 2229 -1910 0
-2043 -694 -518 0
-906 932 -1120 0
497 1321 2757 0
-898 -2068 -216 0
-2299 413 -1989 0
384 -2581 -1584 0
-1286 -2607 191 0
-1670 1691 847 0
1869 -2459 -1954 0
-14 -1597 -2015 0
2487 -1428 650 0
-2442 -2140 1758 0
1276 -1244 -813 0
1449 -140 1458 0
1885 -470 -909 0
-901 -1202 -277 0
2600 -2234 -935 0
349 1720 1320 0
-2989 -369 -1508 0
-2441 -723 119 0
50 1632 -1247 0
-363 527 2850 0
668 -2348 1242 0
899 694 -1615 0
666 -2137 -387 0
-1223 -1483 -2158 0
-375 -2897 1013 0
1497 487 2326 0
2564 -628 -1863 0
-1527 -354 -2332 0
2290 1932 459 0
-2931 -605 228 0
851 -585 -2077 0
-1294 -436 -1040 0
174 2803 -2423 0
2081 1205 -763 0
710 -1937 -2762 0
1953 -1213 -2865 0
2548 -1489 -1576 0
-796 -1565 2074 0
-824 -109 1279 0
1979 72 -39 0
-765 -518 1015 0
1247 -874 -2708 0
781 886 2430 0
-2803 -2452 2891 0
-1230 -1197 -1982 0
-2443 1000 -177 0
2279 -2642 -776 0
2761 273 559 0
-160 2375 2834 0
1141 -2265 2257 0
-1464 2649 1313 0
2897 -1391 -2661 0
2688 1229 -62 0
1470 1989 -2885 0
-996 -906 2744 0
552 -1173 -100 0
-1041 2936 1809 0
1682 772 2193 0
1635 2650 940 0
1447 -924 1797 0
-2129 -2875 2768 0
-2557 376 -240 0
-5 -2586 -1445 0
782 -697 556 0
39 -1814 2433 0
2030 914 -2220 0
-1633 -1805 2841 0
-342 -2098 290 0
-2944 1612 2981 0
353 371 -2354 0
1180 -430 -2620 0
2413 2333 2100 0
2362 -569 -2768 0
2814 -2208 -2145 0
978 -2864 -1505 0
-145 -76 -2128 0
-2689 -1418 -1664 0
-2269 -509 -1026 0
1855 2727 -2551 0
-1368 -286 1194 0
1862 -1205 -1223 0
2431 1192 2086 0
-2257 -1975 -2324 0
2597 -2775 966 0
924 -893 -2486 0
-2447 -2379 -1796 0
863 -2037 -206 0
2193 -885 -2995 0
-2790 1897 -2507 0
2438 2329 376 0
1779 2729 -1578 0
1087 2785 265 0
1972 -1789 -2379 0
-1539 1019 -1789 0
1864 2342 -2377 0
2156 -2277 663 0
737 1944 -1350 0
-1850 957 -513 0
-2486 2331 2019 0
-2656 -1325 -722 0
-2587 -2400 478 0
1411 -1901 1865 0
-1445 -585 -1456 0
-1270 -1316 -94 0
1827 -859 -710 0
361 -1317 -922 0
-346 2816 1047 0
-2076 1079 1707 0
1247 1933 -66 0
-1378 2254 -2019 0
1361 -838 -1282 0
2321 -2908 -1525 0
-499 1521 334 0
1826 -1655 2706 0
2483 195 -986 0
1954 2570 854 0
-1522 -1899 1224 0
1113 -144 2110 0
1827 -2928 2761 0
2397 -1663 2861 0
-198 -1228 2101 0
-1971 -2834 -1555 0
282 -661 2213 0
496 1405 -1553 0
-2327 2605 2045 0
103 -1319 -294 0
-1299 -1157 -2000 0
-2022 2228 2685 0
202 1859 1889 0
-2616 -940 2204 0
-2104 -2709 1149 0
-164 431 1400 0
2386 -1443 1883 0
1522 -1882 1564 0
-2924 999 -2802 0
-1399 -2026 300 0
-969 720 -2171 0
-729 814 903 0
-319 1692 2167 0
-1760 -1055 2432 0
-2430 -1677 1863 0
581 -2096 -1534 0
-116 1658 800 0
1548 -442 -473 0
-29 -1421 -70 0
-319 -2951 -2382 0
-2000 440 -1166 0
1626 2892 1161 0
1948 -766 -519 0
1490 2110 59 0
-2732 -2707 -2851 0
94 2960 -926 0
-71 -1533 -1537 0
1412 -221 2328 0
-2124 1965 767 0
-2836 -2922 -1817 0
17 2455 2218 0
2307 -121 1460 0
-1887 -2675 159 0
-705 -1271 1550 0
-1444 1673 -2858 0
-936 421 -1215 0
2880 2504 1663 0
-2064 60 -147 0
-2456 -2306 -130 0
-98 1620 70 0
-1397 172 457 0
-878 -805 566 0
1711 2081 449 0
-1233 -486 2059 0
436 2593 -2675 0
2321 -2462 -2060 0
2406 1823 553 0
1350 1899 2284 0
-1187 704 -2960 0
287 -1611 -961 0
1516 2583 -2847 0
-1575 -1401 1977 0
1229 -2775 1608 0
-1892 2464 2773 0
755 455 2016 0
1281 655 -1442 0
2445 -2555 562 0
2444 528 1267 0
1410 956 -2264 0
-1407 -30 -2571 0
-2782 1260 -2740 0
1619 450 -121 0
-1395 81 -1128 0
126 -77 -2628 0
-2366 2749 -1742 0
1425 -135 776 0
2196 -2566 2957 0
1019 -1199 2882 0
-2837 2684 1528 0
1734 -2401 -1656 0
-1445 -354 1770 0
2134 -445 2785 0
2837 -917 -1483 0
479 -1265 2124 0
-1 2364 2868 0
2925 -2400 2846 0
693 -2923 -1010 0
-2830 1271 874 0
-1559 -1468 -2242 0
2233 -1187 2731 0
-2380 -1304 -1987 0
-1320 2800 2534 0
-1321 -352 2473 0
1038 774 2007 0
2164 473 2976 0
1714 926 -1504 0
648 2350 -831 0
-2314 276 -2442 0
-2883 2527 2845 0
-2308 433 -724 0
1457 -2318 -1021 0
1106 -246 1436 0
-1766 -671 1261 0
2448 -868 245 0
1308 -736 2492 0
2303 511 2577 0
571 885 -1954 0
-1747 1368 -1008 0
2329 2084 2323 0
-2563 -2345 1979 0
2406 2278 1125 0
1078 2620 221 0
-2491 2309 900 0
-1939 2918 527 0
1282 -98 1101 0
-1208 1817 -95 0
-381 1988 -1229 0
-1554 -922 2422 0
646 821 -1628 0
-1465 565 1087 0
804 2885 -682 0
-665 1641 -1184 0
1560 -1333 -484 0
1743 2311 -1110 0
605 1963 1949 0
164 1525 -1591 0
90 -2639 -1358 0
-2297 2058 -24 0
-2433 -1479 696 0
1963 -1021 691 0
2082 -2500 -1754 0
-2643 2699 1879 0
992 637 1134 0
151 -2096 -162 0
-331 -399 2127 0
1875 -977 744 0
-186 77 1378 0
-1758 -1081 1572 0
1153 2218 1786 0
-2921 -2898 292 0
1108 1141 -292 0
1287 -1302 -1901 0
1194 -2847 -2913 0
-2617 -2869 166 0
-1569 -1754 -602 0
2366 -1695 -472 0
905 247 -1493 0
2356 -2819 1909 0
1951 -2726 1195 0
1809 -1738 -1256 0
-633 2870 -1134 0
-957 2137 -287 0
1879 2688 -1339 0
-784 -2189 1033 0
-1231 -850 607 0
-1896 -1694 -302 0
1323 745 -1064 0
-2109 -183 -704 0
3 -2913 2307 0
2210 -1491 2483 0
-656 2852 -1209 0
-2214 2616 -2888 0
-2225 1297 1479 0
353 1360 -936 0
619 -2944 -1459 0
120 -2665 2492 0
-199 -1101 -531 0
-1197 2454 -2141 0
1461 -1429 1725 0
-2186 2613 -1616 0
2421 -1982 -622 0
-2907 2284 2873 0
2765 2175 934 0
-1284 -424 868 0
-2603 1799 -2468 0
-762 2430 1527 0
2203 -849 152 0
434 -935 1285 0
-1075 -2335 -471 0
-492 2005 -1916 0
17 -2360 -1628 0
314 -219 -767 0
-2195 1222 -1048 0
1119 1215 -1044 0
2148 -1781 771 0
2322 -1564 1572 0
660 -2999 -1714 0
71 1997 1142 0
-1115 -2233 1204 0
-449 -1665 -1617 0
-833 2783 2601 0
-2632 2769 -2901 0
-1930 1397 868 0
-519 -310 -374 0
695 -1174 -1722 0
2459 -616 2759 0
865 -1708 -1691 0
-1960 -1293 -1463 0
-2122 -1956 -831 0
881 1063 -2837 0
-2942 -2707 -404 0
377 2283 -637 0
273 66 683 0
-1465 229 -2486 0
2259 -409 -1840 0
1019 1345 1991 0
-1675 2498 2492 0
760 -2516 1589 0
2459 -518 1835 0
-2529 568 2992 0
1385 349 102 0
-1559 2126 -754 0
2936 -1270 -1817 0
-597 -2260 -1523 0
1965 -2860 -993 0
2652 -1858 1006 0
1906 2781 1280 0
467 641 730 0
-635 160 2165 0
1196 698 987 0
1193 -960 -1795 0
-1998 -2159 178 0
-881 2958 1429 0
-90 2593 -370 0
791 -932 -2331 0
-1742 942 1249 0
-1967 220 -689 0
694 681 -1411 0
-2197 -2613 -2201 0
1016 -2012 -2764 0
726 -1328 1261 0
1738 -1601 191 0
-1231 2260 1613 0
-344 -1589 1748 0
-1907 1641 640 0
1535 -2623 808 0
1016 -2152 1110 0
2631 1183 -720 0
-596 1354 -424 0
2876 -527 1047 0
-2029 -2108 2241 0
-1172 1342 444 0
-1391 -596 -2993 0
-546 -1347 -2967 0
-2042 -2300 -2418 0
1390 2191 495 0
-975 1781 1809 0
-144 -1475 385 0
53 99 -2313 0
-928 -2624 -1489 0
1845 -747 2660 0
-2226 -2539 -168 0
-229 -53 455 0
-1290 -1493 -1756 0
2434 -1927 19 0
-2229 -206 -1445 0
-2057 -78 1758 0
-2364 569 674 0
256 -28 166 0
-2579 353 626 0
-2855 -1821 400 0
2244 2408 787 0
519 -2836 1156 0
-2852 2925 -1393 0
1024 2573 -456 0
-133 -187 -2851 0
-1921 1488 -512 0
372 1988 2970 0
-1841 1338 -2284 0
2970 340 -849 0
1345 -142 2860 0
-89 -1228 371 0
818 -2095 -1999 0
2556 1306 -17 0
1937 1891 -86 0
-2942 988 670 0
-545 1202 -2835 0
-1019 1262 1263 0
-2740 1420 2004 0
2490 -1968 2095 0
1337 2915 -2407 0
670 -1633 -836 0
-2031 2146 471 0
-1698 -2628 -1512 0
-265 2284 -2412 0
-1173 -1354 -1877 0
-1265 2611 402 0
-360 1716 777 0
-1776 -1125 -268 0
1261 -2812 -1714 0
-2711 -249 1952 0
2997 2704 -704 0
-637 438 2763 0
-844 2531 2161 0
-1573 2351 1763 0
-53 -658 -2862 0
-1478 2651 100 0
1348 2594 -1602 0
2714 -712 846 0
2385 1037 2731 0
-726 1361 -64 0
-147 2685 1669 0
583 -302 -659 0
-98 -850 2626 0
-2303 1071 -1296 0
2682 1294 2964 0
-69 492 -1157 0
-1535 -1434 -632 0
151 -1385 -2819 0
1315 -2172 1849 0
-342 1162 1877 0
2353 -1895 2324 0
-1083 790 -1734 0
657 245 2313 0
2312 -222 -29 0
589 1647 -334 0
-1151 -969 449 0
191 2524 1408 0
2879 -333 -2841 0
-88 -1293 -1990 0
504 -534 792 0
2469 1613 -548 0
1564 1492 1643 0
154 -1371 -47 0
927 895 -1730 0
1160 -786 431 0
1807 -972 -935 0
236 545 1784 0
-2645 -1051 384 0
-2644 2366 -2425 0
1131 -158 -1873 0
-1829 -572 2595 0
2573 2800 -2315 0
-1687 2442 -1896 0
-467 -2737 -996 0
-736 -118 -2543 0
-695 -793 996 0
626 -142 1112 0
-2222 -1015 2451 0
2458 -350 2172 0
1033 -232 1632 0
-1166 462 -1040 0
-2289 2437 2581 0
-2705 -1948 2671 0
-505 2914 633 0
-531 -816 -558 0
1530 2777 301 0
-1023 2666 -2091 0
1171 -2456 -1668 0
1236 1963 -823 0
-1066 2002 157 0
2977 1215 -347 0
-1761 742 -113 0
54 -1497 -307 0
1542 -2690 2276 0
1617 1512 -1864 0
-2660 2563 74 0
-776 484 909 0
-833 2415 -2784 0
1832 1741 2422 0
-1759 290 -107 0
-2368 717 2566 0
-2712 -339 166 0
1246 -2298 -2613 0
1855 -1938 -2958 0
-2359 -2556 2817 0
-2473 2644 -2151 0
418 385 984 0
1533 488 2057 0
-2331 2468 -2092 0
-2650 -2296 -2221 0
974 256 -2480 0
-1606 1498 203 0
2349 1612 -241 0
-261 2469 -589 0
-1785 -2915 944 0
50 -2088 -2711 0
-1176 458 -327 0
-534 -2773 -516 0
-2898 -1501 -2139 0
-1416 2674 -2873 0
1463 543 580 0
1376 1345 465 0
-168 71 -2153 0
2010 -2653 -1778 0
-1736 1578 -2286 0
1307 -411 -1846 0
1743 2200 -865 0
-2937 -155 2066 0
-2981 -1288 -985 0
-1878 1352 -2005 0
690 -1095 -233 0
-975 -1904 -1791 0
-2254 -1311 -1939 0
2497 -1178 1760 0
1793 505 -1882 0
-1082 -1921 2414 0
806 -203 -2663 0
344 1111 -1517 0
1622 1580 2816 0
2187 90 -2891 0
-935 1321 1488 0
-1424 -1786 1269 0
-1211 2785 2437 0
-1700 670 -2056 0
430 -2161 1093 0
-1113 2426 -599 0
2166 2706 -2302 0
-2607 764 -2865 0
752 2710 -1399 0
-656 -1480 -1184 0
-136 2211 -442 0
2571 2339 -2862 0
-1635 2337 -1204 0
-2959 2257 270 0
-1718 1744 2931 0
2155 -2908 -1231 0
-3 -2121 2595 0
2421 -1161 -899 0
286 503 957 0
-909 -2886 1006 0
-2390 -341 2610 0
-1556 354 1276 0
-1596 264 2600 0
-2095 -146 -2657 0
-2623 -2794 1110 0
1599 452 2741 0
531 -722 2252 0
-2143 2540 2561 0
-1464 -2638 -35 0
1948 -2372 912 0
-2738 1320 -703 0
-2292 2373 529 0
544 -286 258 0
2112 2378 2173 0
-646 -1500 107 0
-2461 166 -259 0
-2316 -1035 1673 0
-426 -2940 -2190 0
-1043 791 2946 0
2073 -1945 -1981 0
2566 1304 440 0
788 2933 -308 0
-842 940 -1494 0
-968 1771 -2869 0
2729 479 -1272 0
1942 1719 -879 0
-1197 215 -2419 0
21 -1822 -177 0
-635 -1444 2117 0
523 400 -1567 0
925 1902 -1560 0
2503 -1038 2202 0
89 224 -2207 0
2230 -2254 980 0
1690 456 1996 0
-44 430 -2026 0
-2216 428 502 0
-2323 2515 -92 0
-641 140 2319 0
373 2313 -1669 0
2827 -213 2225 0
173 -1430 327 0
1172 1493 -2221 0
-2108 -2514 -358 0
429 652 547 0
2243 153 -2448 0
-214 2473 254 0
-990 703 1062 0
1097 -114 -2912 0
161 644 2027 0
-2584 -1650 -2112 0
2224 -1311 -1221 0
-1677 939 467 0
1935 2090 -1146 0
1082 2663 -1449 0
-816 -2852 -2940 0
-2538 543 2249 0
1583 256 -1326 0
1654 -196 2038 0
2901 1208 -1816 0
1403 -2299 2092 0
-2994 33 2900 0
-2270 2232 -929 0
-2627 1888 376 0
1091 -923 -1218 0
2041 -430 2496 0
-778 2629 -2619 0
-1693 -2636 2208 0
-692 -1450 -445 0
-1550 132 254 0
-2478 -1071 2843 0
1458 1531 -1903 0
-547 -848 478 0
1991 71 -703 0
1072 1925 -2088 0
-759 2495 -661 0
-547 -433 2366 0
1275 -1655 -885 0
1269 155 984 0
-1587 -1200 1027 0
1242 -2796 2056 0
2170 -508 -2334 0
-194 -1071 -304 0
-1673 2933 -297 0
2043 -2956 37 0
2077 2910 1270 0
1829 -2495 -237 0
-1898 -2 -522 0
2406 2989 1356 0
-2986 1438 -110 0
2487 -1821 1759 0
-1015 -776 266 0
501 1485 1153 0
1533 -2055 -313 0
-2148 -530 -1831 0
-366 -2598 -344 0
-2403 688 118 0
-2110 -968 2558 0
546 -869 -2294 0
-1713 2850 306 0
1338 -2350 -2416 0
-1344 -1937 -2995 0
-1702 2273 -1760 0
2574 1892 -2368 0
-962 -875 -64 0
1683 -609 698 0
1612 2030 -398 0
2278 -1042 2000 0
-2995 -219 244 0
1532 -1200 2691 0
-1694 279 -2208 0
-279 224 1530 0
821 2844 -2782 0
-2222 1623 -1981 0
2219 378 2439 0
1713 -2663 379 0
2466 -1332 -296 0
-2313 -458 1248 0
-2277 1905 2893 0
505 -1362 -94 0
2617 783 -21 0
1405 -2366 -829 0
-2062 1734 10 0
-2104 205 -1216 0
1950 1596 -2747 0
-1954 974 2475 0
2850 -1582 -472 0
1868 -2781 1160 0
-2212 2136 -2486 0
2856 196 -2773 0
-971 258 -56 0
922 1226 -208 0
153 -221 -2273 0
145 57 1043 0
2235 1158 1633 0
996 528 1618 0
-2426 342 -2046 0
1757 203 -2188 0
2017 1118 -2377 0
-2215 -1044 1780 0
2113 358 1680 0
1819 1905 -2678 0
1172 2557 2695 0
-2734 518 1744 0
-1859 -621 -1432 0
-1346 752 -959 0
2861 -2627 -1388 0
1675 869 -1042 0
259 -1266 -2985 0
-2547 352 -1592 0
1248 1337 1158 0
-704 -2087 -1667 0
1174 2088 636 0
2216 -2427 -771 0
-1041 1787 -458 0
-775 1741 2811 0
2651 -2276 -790 0
2373 -1652 -1384 0
2072 2543 1168 0
-2159 2687 -2870 0
1447 2103 2902 0
-703 2509 -1469 0
-302 2536 2006 0
-1755 -648 -20 0
2455 -322 828 0
-800 896 1076 0
-2572 560 -184 0
-1342 -2588 944 0
2731 2688 -2169 0
-2600 1938 22 0
-1041 -1362 -1514 0
2367 2801 -561 0
2698 1416 -2873 0
-282 -2161 926 0
-1323 707 -697 0
-1168 2702 -848 0
918 349 602 0
84 1857 -984 0
400 -2602 -1485 0
2135 -1948 -2446 0
-1629 -1581 1255 0
516 2181 2242 0
1307 -120 367 0
-505 -1943 -5 0
1533 -2564 1790 0
285 -838 -894 0
-2405 119 -406 0
-2841 2451 1235 0
2837 -1273 -597 0
-416 1390 -767 0
1417 -126 -2408 0
-2547 2779 -1638 0
-353 2828 -2696 0
2658 655 -1030 0
2165 -28 1640 0
-749 -2062 398 0
1749 1790 1953 0
-1071 -2377 1040 0
1541 -2712 -795 0
1712 2767 -2900 0
-759 -681 1113 0
631 24 1093 0
-1967 1798 -910 0
2386 1792 2520 0
-2928 2148 -2143 0
2815 177 1847 0
2449 594 -429 0
-1459 -2412 2938 0
-1181 1686 -1152 0
1712 1803 2771 0
-51 2443 426 0
1066 -1123 32 0
1401 598 436 0
2454 1179 -260 0
-2731 844 2598 0
-2818 -557 824 0
-1925 -2751 607 0
-864 -361 -1702 0
760 2160 -16 0
2346 -1767 -2565 0
-2711 -154 1684 0
-2037 -2333 -2729 0
450 2692 -2112 0
467 -1587 370 0
372 -2634 -2052 0
2721 -2040 738 0
-2609 2133 -974 0
-2775 597 282 0
-2845 -2361 1987 0
-224 410 1488 0
1880 683 1848 0
-496 2096 -288 0
1722 -616 1143 0
2616 2343 -46 0
-1328 49 748 0
-1682 -1003 -764 0
760 -1873 -830 0
2490 357 -1516 0
2250 652 934 0
1479 -2143 60 0
1699 -1430 403 0
-1780 2415 1685 0
-1983 -2944 2693 0
1165 -2959 -924 0
1996 2021 -2933 0
32 -526 -1600 0
981 1213 -851 0
-2869 -656 1424 0
-1758 -275 2831 0
509 1751 -1932 0
-1342 -1382 -956 0
-234 1318 -1310 0
-2539 -1707 639 0
-1933 -611 -1711 0
-1142 -1324 -590 0
1535 -701 -397 0
-1133 564 2241 0
-2173 773 -882 0
2244 -2995 -1757 0
-1048 1643 2446 0
670 -884 -2221 0
316 2717 -407 0
2881 -84 858 0
147 552 559 0
1005 -1189 503 0
1502 398 -1342 0
-1542 2892 -1343 0
-2801 1554 683 0
-2917 -447 2127 0
2939 2320 2696 0
803 -583 650 0
-573 631 2522 0
2435 -394 1196 0
-1317 1895 -1233 0
171 -758 -2345 0
2299 -426 759 0
2144 -865 -2972 0
-2831 107 -1879 0
-1881 1487 -1201 0
929 -2999 -1243 0
-21 2306 -1223 0
2234 -758 -2653 0
-506 -1201 2597 0
-1914 -1637 1256 0
-1404 -2905 383 0
1040 -2376 162 0
1060 255 1448 0
1228 1915 2447 0
-23 1191 2588 0
-976 2078 9 0
202 115 -1568 0
-1366 1682 -2721 0
232 -1722 1175 0
206 1604 1913 0
-470 -2524 1011 0
335 -2824 1227 0
-2188 901 2041 0
80 -2451 -1468 0
-684 -95 1524 0
-2159 -2421 -914 0
-62 1538 -2370 0
-1559 -158 2658 0
-200 -2912 2899 0
2713 -1492 379 0
-1785 1588 2580 0
787 1216 -2182 0
-2619 -2356 -534 0
139 -1417 -2986 0
-394 -2828 1553 0
-1828 -748 1042 0
2574 2422 -1743 0
635 -2959 -2416 0
-2423 358 -1627 0
-2202 -2912 2130 0
2188 -2186 -921 0
-892 -1312 1627 0
496 2359 -751 0
1770 -2928 -97 0
-465 2222 -2437 0
-1085 -2122 2068 0
1081 -1133 -1304 0
914 2103 -1244 0
1083 -2893 2147 0
2646 379 1061 0
-2552 1114 -174 0
-1517 -1594 -2036 0
-1403 1183 708 0
-96 298 1507 0
504 1537 291 0
704 982 1165 0
-817 -1376 -1801 0
1499 213 -2105 0
-2952 -1683 -740 0
88 -1444 2006 0
-2261 -1277 2379 0
-2585 1732 2228 0
1395 -703 816 0
103 -2805 1647 0
-1160 1762 -1182 0
-997 -1554 -1854 0
2181 -2348 -2962 0
1119 2431 1549 0
-108 -1356 54 0
-1708 -2977 -342 0
2449 773 1791 0
-219 -1648 259 0
1546 -787 -532 0
-2962 -959 2956 0
-517 129 172 0
308 -1502 -2389 0
-2754 -1798 912 0
1027 -960 -1603 0
-1073 -1423 906 0
-2666 2646 1930 0
460 -1581 -157 0
-1411 -1961 925 0
-1671 1527 -740 0
-1004 1386 -2375 0
197 -38 2530 0
1435 1727 2868 0
766 -1759 -2137 0
-1458 -509 2889 0
1069 1065 2103 0
-1415 1491 1519 0
-647 2428 -1000 0
2476 2502 -2525 0
2886 1687 834 0
-333 2472 -2737 0
-1369 -1283 1357 0
-1400 -175 985 0
2127 2094 -2449 0
-803 2890 -2304 0
-1789 1537 2578 0
-1644 2251 -2789 0
-2339 663 2161 0
2727 450 -1225 0
-1741 -1361 543 0
-66 -2823 1702 0
1988 -123 2348 0
2366 -2288 -2699 0
855 251 -1435 0
1907 -2190 1165 0
2780 -2574 1305 0
2407 -664 851 0
1576 341 -2593 0
-147 -1693 96 0
-2322 235 1234 0
-1117 -2253 2954 0
2961 -2119 2810 0
232 -1721 1708 0
-1927 2768 -144 0
2653 1569 2616 0
-1631 -2213 -1539 0
1709 -2419 2014 0
720 921 1005 0
1623 -38 -125 0
2088 -2563 1719 0
1129 2271 2156 0
-538 711 -659 0
2203 82 37 0
2486 -2401 -171 0
2824 1478 583 0
2441 1396 -2740 0
-2653 1221 -1117 0
1509 1500 -2991 0
-2638 -1715 -1353 0
-219 -799 2080 0
2479 2567 1720 0
258 2698 -1427 0
-1373 -2204 2621 0
-466 2429 2662 0
2313 632 2020 0
786 -233 -698 0
-1531 239 -1480 0
1185 -2995 955 0
-1173 1061 -972 0
-374 144 1621 0
1522 -2079 2498 0
-2727 -2170 -280 0
-1524 -1214 2635 0
-593 -513 1275 0
-2268 -218 -2719 0
1840 -2235 -851 0
-765 671 -1501 0
2906 849 -2377 0
-2385 -2244 425 0
1074 -2814 -2024 0
-247 -2809 1944 0
2000 -2387 -922 0
1545 576 -585 0
-1411 1170 -1830 0
-1802 2280 1837 0
-2595 -661 -2991 0
8 -2774 -1394 0
640 568 2071 0
-331 1619 611 0
2901 -367 -2439 0
1298 1818 1780 0
-2110 759 1047 0
-1709 -304 -1025 0
-339 421 676 0
-1069 -1634 1057 0
2855 -2209 2927 0
1177 2055 2313 0
-2889 533 -2389 0
-709 -677 1832 0
2602 2170 244 0
475 113 1686 0
-2548 1873 -1826 0
815 -2352 2476 0
-2154 348 -2381 0
1783 -473 -2390 0
-1090 -512 -2973 0
-2352 -1999 284 0
-1834 -2819 -2994 0
-1890 -996 901 0
1584 -2344 -2677 0
-407 2434 -809 0
1977 2302 1800 0
-84 -2022 -449 0
-2943 2481 -382 0
247 -2069 -538 0
2311 1052 -399 0
1272 -1196 2455 0
-1476 827 1927 0
-2482 -2248 -1698 0
-1194 -1045 -663 0
-2518 -986 2004 0
-2224 -2581 2624 0
-1016 -661 -1166 0
463 -2811 1751 0
1266 2798 1791 0
793 291 1646 0
-1255 -1534 -1473 0
-2263 1072 1552 0
830 2338 451 0
-1085 -1975 -2500 0
-1573 2977 -804 0
26 -543 -1791 0
929 -2715 -537 0
169 889 -1016 0
1421 -1029 -406 0
-163 -1919 -206 0
-1897 1266 -336 0
904 -2821 -1844 0
1494 -565 847 0
-2662 698 822 0
-2577 1204 2596 0
717 -1612 -1926 0
-1672 -2123 -978 0
-993 1597 -354 0
-2963 -417 1849 0
1226 294 1008 0
-2570 -1997 2206 0
-2007 284 1232 0
797 31 -494 0
-1274 -793 -2743 0
-349 260 2829 0
-890 1339 2797 0
2056 -2002 578 0
-2654 -2671 1295 0
1496 1608 -2539 0
1764 2027 1208 0
-2991 1694 1863 0
1754 440 2786 0
1910 -2195 -1700 0
-1363 231 -423 0
694 -1927 -520 0
-557 -1473 -1425 0
-901 1283 -1752 0
-1334 2037 1353 0
1529 -2076 -613 0
-1880 498 1277 0
-2462 -2836 1154 0
-1392 -982 -33 0
1093 -641 1999 0
2778 2350 -1712 0
-2782 -585 -1059 0
1848 -2985 -2683 0
-836 -896 -1706 0
-2736 1913 -2036 0
903 -2700 -1512 0
-2927 -1674 -2037 0
-1475 -2952 527 0
2466 -2666 -2037 0
903 -2666 -923 0
952 2380 -2714 0
2029 -873 1516 0
1097 -1376 934 0
2538 1834 -1116 0
1533 1984 -1727 0
729 2244 -2749 0
1951 2591 2263 0
-1655 3000 1177 0
-298 2540 -1066 0
2155 -192 2323 0
4 2859 -2184 0
-1533 708 -982 0
278 -2795 -602 0
1103 -2642 2372 0
-1536 2280 753 0
1963 1470 -1234 0
-1765 -16 -2688 0
958 1844 -2757 0
-1315 2214 -2288 0
780 -1418 -141 0
98 2595 -537 0
-1117 -2989 -133 0
-2787 2139 -538 0
-2173 1158 -2275 0
-62 2556 -2807 0
-926 1380 1464 0
275 1554 -652 0
-2828 -1547 2194 0
-1096 1689 -954 0
-985 -2125 -796 0
-1358 -1030 1154 0
1230 -2607 -2527 0
-114 -2958 2614 0
-2197 -1602 641 0
776 884 1075 0
-1127 -1166 -2673 0
-181 -2768 -1351 0
924 -1467 993 0
-2857 -338 -1799 0
130 2151 1427 0
277 1351 2005 0
1796 -2878 2567 0
-459 553 224 0
-571 -590 -1535 0
-2240 -2026 1525 0
182 2008 -524 0
-1800 -2204 -2649 0
1183 535 1402 0
-157 -1469 -1588 0
-1204 -424 305 0
-1707 751 -2600 0
-676 2056 875 0
1701 -776 796 0
-164 1831 2980 0
-1963 2437 653 0
2087 -445 251 0
-1073 -2616 1108 0
1205 -2216 306 0
-2125 2320 1942 0
-740 2057 -985 0
2821 1182 1865 0
1835 159 -1488 0
1713 -2883 1102 0
1724 -2494 -1638 0
1458 -353 -2947 0
1317 -1288 -437 0
-1641 1757 -2405 0
-1455 1046 -2505 0
2635 313 2670 0
292 -209 2738 0
2686 548 -332 0
2133 -507 1018 0
-776 2989 2 0
2848 -1 2157 0
2907 1138 2066 0
479 -427 -720 0
699 1004 850 0
51 -998 452 0
2485 415 -590 0
-845 -123 1782 0
-252 -1798 1170 0
204 456 1670 0
2113 2180 -206 0
-2288 2091 2699 0
-1047 1852 1073 0
660 -70 1412 0
2514 367 -710 0
-891 560 -761 0
2850 -2940 -2592 0
133 982 -2848 0
1013 2394 -1353 0
1857 -2377 2876 0
-2712 -1629 2375 0
-655 2694 -1233 0
2768 -1091 -1014 0
-125 -1144 1322 0
1343 -473 -203 0
-929 764 2794 0
2506 -2927 -747 0
-1202 -2422 -746 0
418 2095 2661 0
-31 -157 2583 0
-2776 -1435 2838 0
-115 1638 -2414 0
-2993 1477 2537 0
1773 2674 -1224 0
-1799 1043 1884 0
2159 -1646 -2984 0
966 -1784 -1590 0
1568 -2103 -230 0
47 -1832 -1278 0
-912 -2418 1780 0
2176 2777 444 0
-2537 2227 -2376 0
1886 890 -1297 0
548 1400 -1462 0
1764 -479 -2491 0
-1878 996 2941 0
897 -375 2120 0
-41 -1008 -2542 0
1998 -1538 -1804 0
-1713 -1881 348 0
-831 1320 1073 0
-2501 -1949 -1241 0
294 2211 407 0
2307 30 859 0
-1234 2237 -2318 0
5 -232 2501 0
223 -1718 -2562 0
-296 -1947 1398 0
2533 386 43 0
2323 -645 -19 0
-667 282 1913 0
1675 -2676 -1204 0
-2746 -2377 54 0
-536 1164 1978 0
-840 1787 -2348 0
-472 -1151 2129 0
-2921 2993 377 0
-2091 1986 -953 0
1405 2810 1981 0
-2536 -1339 -1170 0
-423 1618 2833 0
2191 -879 561 0
-2472 309 532 0
1507 -165 2375 0
-1749 877 -2203 0
609 -2877 92 0
-2968 2775 1675 0
1379 -1635 1082 0
395 -1691 1921 0
2554 2715 -1909 0
2579 2389 -319 0
2785 2426 -263 0
566 -2847 2333 0
2561 -224 1256 0
-992 -1146 -2937 0
-856 25 -606 0
-2657 121 1143 0
922 -214 1248 0
-915 -1080 -2791 0
-1427 2672 16 0
196 1031 2720 0
2510 1791 -935 0
327 2544 1952 0
-100 785 2802 0
2955 -1803 -2244 0
1128 -1298 2259 0
-236 -2298 -387 0
2578 -2125 -1347 0
1152 -519 1283 0
-2479 449 517 0
-1169 2805 -2687 0
116 1735 1254 0
-2500 -2485 444 0
269 487 2799 0
-1596 292 -1969 0
-310 223 -1681 0
-1348 1130 2136 0
-2949 1472 -1576 0
2540 493 1767 0
2002 -2526 -873 0
2156 -2193 229 0
-2032 1376 2412 0
-237 1401 2346 0
2845 292 32 0
-2198 290 2168 0
-1827 1425 -973 0
2820 -2402 -1363 0
1992 2075 -437 0
-1281 -1875 -688 0
-1815 -2443 -751 0
-1349 -1753 -1697 0
2544 -159 1530 0
-2596 -173 -2243 0
736 1723 2619 0
1575 -946 -2282 0
-9 -240 -1838 0
1534 590 -2192 0
1774 -679 -1167 0
1776 333 -2442 0
2382 2849 -2888 0
581 -1328 1980 0
663 -199 2971 0
-8 1718 2978 0
-2058 -2187 1408 0
1347 1123 1967 0
-2156 -2654 -2217 0
1402 1011 -2453 0
1784 620 1964 0
1788 1553 1574 0
-2417 -1517 846 0
2806 -2899 1836 0
2771 -2251 -1984 0
-687 -459 -2772 0
678 -194 -2868 0
2275 2645 -2454 0
1220 1538 1772 0
-2710 772 -1057 0
870 2651 -1961 0
-269 -593 -1553 0
-2667 -2150 1407 0
-354 827 1185 0
2323 -545 -1186 0
-169 1848 2449 0
-1831 2367 -2171 0
-1637 -2784 -2085 0
-145 -2118 2766 0
-2602 634 -2269 0
404 -2918 -2544 0
-2310 2020 2495 0
-1502 -167 2472 0
2798 -1347 1660 0
1512 2253 1616 0
-243 -1383 718 0
-2549 2289 -1207 0
-1573 -2238 1812 0
258 -1447 2626 0
176 1644 -1290 0
-969 2235 -2424 0
1344 2235 1071 0
-2358 2582 504 0
2036 -741 1419 0
2476 531 2838 0
722 -1814 -1703 0
2275 8 -2877 0
-37 1393 1836 0
-1651 -475 1926 0
1322 -2788 2885 0
-105 729 -117 0
-2495 2859 -2619 0
2718 724 -1879 0
-2348 -576 -1360 0
2377 -1873 -876 0
-1631 1815 -1724 0
2932 1964 -2009 0
-837 -1566 -1278 0
-2109 -48 -2838 0
-785 -2294 -1031 0
-1758 -1046 -2959 0
-1581 207 -2967 0
-1585 -2283 -1729 0
2770 1432 1036 0
1974 -2940 -1569 0
2553 1995 244 0
139 -2482 -1884 0
-2383 -70 -1031 0
-2199 2204 809 0
2897 -2128 -2777 0
-1333 579 -2694 0
2460 -1180 -693 0
-1031 2735 -2519 0
2260 817 -1972 0
-1933 1725 1662 0
-1122 -1749 2703 0
751 791 1187 0
2624 -827 -1691 0
1907 -1397 -848 0
1660 2082 1421 0
666 -667 -2035 0
1201 -1379 -748 0
1730 -1675 1579 0
2926 -388 2315 0
533 799 -325 0
1436 2972 900 0
-2732 -2178 2457 0
1676 2473 782 0
-532 -130 -2620 0
-2249 -2491 -253 0
-2340 288 443 0
-2191 376 -1752 0
-713 -1700 -2752 0
-1306 -548 -2792 0
-1092 1712 1915 0
169 2530 1248 0
1168 -2487 -2892 0
476 -2222 -2394 0
-2405 -2516 -1957 0
1771 -2360 1353 0
-2566 1975 2151 0
1272 -1835 1419 0
-462 373 1684 0
-330 2540 -2255 0
1653 1667 338 0
-823 2523 802 0
162 -2828 -2714 0
2996 1540 -416 0
-661 -1083 2235 0
-2067 -1386 748 0
-2611 444 2086 0
-28 2518 1767 0
291 -175 2152 0
1076 2564 1380 0
1987 154 1527 0
317 -982 -1420 0
-1402 695 -2769 0
2605 1765 -1053 0
1561 2425 -280 0
2598 -2417 127 0
1445 2868 -963 0
-1650 -686 -2594 0
-2924 -2487 -2269 0
2781 -2311 -1464 0
-835 -638 2707 0
857 2805 -2596 0
-476 -2502 2816 0
1210 525 -1479 0
-17 1839 526 0
-1344 -924 -2704 0
1059 -2776 1611 0
1720 441 2353 0
2388 2311 1019 0
-2448 -618 -1565 0
2299 2700 117 0
-869 501 719 0
-1765 1979 795 0
-1125 -1342 2370 0
-1820 1397 2253 0
1994 35 -2308 0
2776 -2017 -335 0
812 -1171 1218 0
2272 -1051 -2168 0
-1103 -2906 2001 0
247 -948 45 0
-2419 -2929 1428 0
-391 -1458 -993 0
2029 1498 1020 0
632 -325 -273 0
2674 1408 -659 0
-2496 -1016 2426 0
-714 -1228 1765 0
1761 -2761 -50 0
-1069 -125 2348 0
-2344 2208 1040 0
2240 -2160 -437 0
-2244 -1141 -2005 0
1927 -637 -2583 0
2062 1400 -357 0
-2686 -1483 -1154 0
-194 -2943 -1673 0
637 855 -659 0
1154 2770 -1113 0
1266 -1326 834 0
-1895 -1999 634 0
-217 755 -1207 0
-594 2549 70 0
-1594 1403 2567 0
834 1825 -2232 0
-896 1224 -159 0
1768 565 772 0
-2699 826 638 0
-1194 913 -1175 0
509 2235 2232 0
775 2087 -1335 0
336 -2302 -1082 0
-2731 2616 2155 0
697 84 814 0
2153 -585 -977 0
-560 2873 -907 0
-18 563 -1784 0
-2936 -2813 -564 0
815 2858 -646 0
-1226 -2596 1460 0
2322 -1103 1569 0
1792 749 688 0
-496 351 2347 0
1703 61 -385 0
2608 1562 2399 0
2082 -1974 1143 0
1947 -1815 -51 0
-1578 2994 1099 0
-775 2612 2653 0
-974 2956 201 0
1812 924 -2847 0
843 -273 2451 0
1156 1032 1173 0
-346 -786 2022 0
-2289 2067 1587 0
2528 98 -1742 0
1086 1470 -2682 0
2204 -1093 707 0
257 -2848 1648 0
806 1202 1121 0
-2945 2124 933 0
-2050 1744 -2213 0
957 2711 -208 0
-1601 -630 -2748 0
2864 -2357 -2587 0
-2645 1597 -2349 0
-124 1766 2765 0
1490 1119 445 0
-771 1167 -2836 0
223 -2412 -2515 0
-653 2622 170 0
-2790 1778 -1227 0
2823 -2161 -1835 0
2815 2605 -2085 0
-2799 -2898 -2364 0
-1335 1656 597 0
2634 1216 2596 0
-1110 -308 2921 0
2413 -2259 2717 0
-1950 -1815 -1350 0
888 -2430 -2505 0
-914 -64 1368 0
1798 -1544 2242 0
2739 1587 1481 0
-872 540 201 0
-1729 338 1587 0
-1855 602 -276 0
588 2149 544 0
-2515 1402 263 0
1201 2251 -1574 0
-2497 1205 1264 0
1458 -1371 -1195 0
-1385 -2285 927 0
842 -1533 173 0
-1002 -333 -2356 0
695 -2223 2882 0
168 1581 2526 0
-2131 -2277 299 0
1407 151 -1620 0
-322 -2888 2073 0
509 1445 -1757 0
1431 -2548 -1288 0
527 -712 1719 0
-165 2565 1066 0
-1091 -86 2954 0
2739 -517 -215 0
219 1505 2441 0
600 -962 1026 0
1514 -174 1029 0
-463 -1418 -2069 0
-753 2314 2516 0
1080 579 -2413 0
61 -1671 1697 0
657 -707 -2925 0
-1581 -2846 -18 0
-1238 -1168 1150 0
2861 664 2212 0
-1301 2788 -2895 0
1744 -2376 -1923 0
-162 2052 2160 0
-583 1076 1488 0
-948 567 -896 0
-1681 -2263 135 0
1637 -752 -985 0
352 -118 1967 0
-1756 -1241 2482 0
-971 2171 -725 0
-1162 -2216 953 0
-687 -795 -2878 0
-1697 -2451 1118 0
506 2761 283 0
-676 1541 -839 0
-2350 -2192 -2122 0
2243 824 829 0
-2960 -506 -108 0
-1008 -222 -977 0
-1107 2316 -53 0
1448 27 -1034 0
1703 -145 2286 0
-317 -1892 -84 0
2113 -441 1123 0
-1400 -1042 -1682 0
1690 -1766 2311 0
-1221 -1996 -967 0
-2266 -1518 1255 0
-932 -75 -1620 0
-1012 -935 530 0
-838 566 -606 0
2037 -170 1182 0
640 2171 16 0
-666 893 1801 0
-1262 -41 -2589 0
-2144 2408 592 0
-376 2606 -33 0
-2866 -1275 283 0
-1288 -464 1145 0
389 2181 -1238 0
-1509 2926 -1384 0
-2402 2344 -2207 0
-154 1921 179 0
1085 761 1819 0
2200 1452 -2431 0
2710 -2546 1899 0
420 -349 -1548 0
-2807 1658 539 0
1020 2256 1867 0
-1176 963 1900 0
-648 1262 -2287 0
496 -1995 2220 0
1871 71 -219 0
2473 -884 -1577 0
31 999 -1821 0
-2608 -1771 2765 0
594 1276 -764 0
2732 -767 2280 0
-2014 558 -1007 0
-322 -2973 210 0
119 2548 1543 0
-1998 179 -2058 0
-1617 -2324 -730 0
2017 1932 -1994 0
-2978 -1381 -2065 0
-405 -1244 -2841 0
234 -2200 2195 0
-1556 -608 -474 0
-1092 967 -716 0
-2690 -1698 -2767 0
1924 -2329 472 0
2903 2231 1018 0
-165 -2515 -2599 0
758 -276 1604 0
-2577 -687 -2418 0
154 1545 358 0
2738 -2703 -201 0
2067 488 -1367 0
1112 2141 -1651 0
2988 2762 1062 0
1251 1495 -154 0
-802 2708 1359 0
-2862 -1781 1669 0
1299 2084 270 0
-1897 182 2955 0
-2213 2687 -331 0
2436 971 257 0
2778 -933 -1238 0
-1389 1096 299 0
-1640 -494 -1949 0
-49 2387 541 0
2487 2065 -1657 0
2833 -2642 1861 0
-2450 546 -2297 0
725 1232 -2384 0
-1894 -490 2127 0
1949 1234 -926 0
259 596 -221 0
-1946 2499 819 0
1151 -2152 -1858 0
1736 -817 -54 0
393 2557 -324 0
674 2520 2967 0
1329 1872 2570 0
-45 -2756 2762 0
-1046 -1190 -2961 0
1142 -1911 2803 0
1112 2369 1664 0
-1839 -2123 41 0
514 -2039 -551 0
2129 -279 375 0
-818 2697 -1074 0
998 2014 2691 0
2207 1335 -2780 0
-2690 1467 -651 0
170 -2852 2863 0
1747 937 743 0
-1963 -2033 -2372 0
-1264 1047 -1594 0
2018 316 -2913 0
-1947 2877 -2048 0
-789 227 2222 0
2123 -2162 602 0
1516 -2949 -83 0
1523 2382 -1906 0
2643 -2101 -1806 0
2035 -2608 1713 0
-440 -2008 -1759 0
-528 1842 2829 0
-844 172 2566 0
-1246 890 -615 0
2886 2001 -2883 0
-344 2493 1725 0
-651 -1386 1715 0
-693 -945 2826 0
-2056 2513 -1637 0
830 1201 2620 0
-258 694 -1442 0
1683 1967 2132 0
-1520 -393 63 0
2153 495 -1013 0
-1209 -1136 -937 0
908 -1597 -358 0
1013 1552 1361 0
-679 -515 2794 0
-1048 -2465 2233 0
1453 821 -137 0
1986 -508 2029 0
-646 1271 -1425 0
-1410 28 1611 0
2165 -334 664 0
-1964 -548 1893 0
2987 -613 1758 0
333 1762 2455 0
-2784 -1663 -1969 0
-1183 2532 -2517 0
2780 1554 -2823 0
1083 -746 2898 0
1435 -211 2556 0
-2727 672 389 0
-1497 -1152 1196 0
-2485 -415 857 0
-1801 -855 -2335 0
2192 815 1164 0
1210 1822 -1953 0
-2070 2872 1858 0
1331 -2027 304 0
-644 -2100 586 0
122 -2390 2772 0
-892 -2062 -2656 0
-243 1266 697 0
2547 2987 1508 0
2982 -2084 -569 0
1477 -668 -789 0
1640 435 1470 0
1127 -2211 -1882 0
1027 -2262 -1534 0
1958 -1800 437 0
2432 -1679 202 0
-1632 241 1620 0
-204 -1482 -2226 0
959 1148 2952 0
1238 -2410 -1483 0
-2043 -2969 -2786 0
-557 2515 -2984 0
255 2876 -1585 0
-2309 2053 1932 0
921 -2371 1705 0
-2932 -2695 -570 0
478 -2728 1543 0
2703 1704 2761 0
592 318 823 0
-1991 -287 1849 0
-841 -2044 761 0
-1873 -2110 1294 0
1190 -375 2694 0
-33 384 -2036 0
-482 -1697 1301 0
817 2716 -2239 0
1346 1632 -37 0
-2758 -1983 1391 0
-2093 -1130 1474 0
-2018 -360 1807 0
-2206 2363 -1039 0
-833 -2298 -740 0
-1924 196 2426 0
241 1638 2181 0
-1594 -113 -1650 0
1606 -3 -227 0
2989 -2416 -572 0
-2201 -398 1598 0
1714 533 1885 0
-991 1672 -836 0
2991 -2588 1159 0
2657 1529 -109 0
2216 -113 -639 0
-696 2428 -1764 0
473 1726 2952 0
2703 2456 -1506 0
2157 1785 1844 0
-2401 692 2356 0
177 -967 -2146 0
-1172 -1939 2216 0
1190 -2141 2506 0
1193 254 1177 0
115 -325 -272 0
-1138 2340 2510 0
-835 -571 617 0
-1158 1027 -64 0
232 -599 2312 0
49 321 -1050 0
-2639 683 -1258 0
-1462 964 1987 0
949 2235 -1352 0
2476 -841 -1517 0
1651 2471 -956 0
1396 2601 -374 0
-2236 1311 290 0
-204 -702 -880 0
1949 2049 1820 0
-595 -2778 -1438 0
-1690 2858 -1911 0
-1511 919 1554 0
-2011 -989 -2727 0
-1442 1167 -583 0
215 1798 2250 0
1295 593 2014 0
255 -55 -2088 0
2339 -2740 2534 0
2089 -2866 -668 0
-545 2408 1505 0
-762 1734 1444 0
-1239 1530 -97 0
1428 -1651 1336 0
-923 -1267 -1330 0
2704 1375 -2419 0
-1105 -1896 -2398 0
307 -1470 841 0
2532 2000 -2028 0
-1900 2814 -634 0
1486 366 2641 0
-1229 1795 -2351 0
-1823 -2815 -1912 0
-2695 1871 83 0
-699 19 -2814 0
2545 -2345 -816 0
2549 -2815 1524 0
-1722 -377 1244 0
-547 -356 1933 0
2149 -1684 -679 0
678 -1925 1684 0
975 -343 -1639 0
2656 1647 -2564 0
672 61 1543 0
-1486 1818 -1355 0
1802 1628 -2000 0
2001 -1849 -805 0
-2110 2808 -1244 0
-2511 -701 -1464 0
198 431 802 0
-60 -1721 -1398 0
-2202 1181 2831 0
-2694 90 1165 0
-909 2003 2455 0
-1724 2166 -924 0
-600 -2974 1776 0
-283 -1496 1108 0
2695 983 -69 0
2834 508 932 0
-455 -454 2722 0
1387 -791 -2854 0
1678 2400 -558 0
802 -521 -2844 0
-2110 667 -2425 0
-2009 1334 2026 0
-440 -2496 1233 0
-376 1322 -2384 0
-2155 983 -2344 0
-345 1513 536 0
2169 -527 -1066 0
-2422 1451 1115 0
1839 -872 -2275 0
-2241 -702 -1988 0
1982 -1864 2444 0
1118 -2679 1695 0
2175 1170 1111 0
-1751 389 559 0
1463 -868 -618 0
-442 2575 2040 0
-310 915 -2099 0
-574 -2497 -2610 0
2347 1334 902 0
583 2238 -2611 0
1695 -1389 2302 0
1314 2382 413 0
2175 -2047 -1178 0
-125 240 -518 0
1585 -2418 1627 0
-1745 2958 46 0
888 121 1076 0
-943 -2693 84 0
-1822 40 -1395 0
-1728 2092 2248 0
2808 2896 2755 0
-806 -1038 1099 0
-524 -2336 -2076 0
2260 699 -1228 0
1513 -2665 1284 0
-801 -1805 1406 0
1737 2456 -66 0
786 -1851 2182 0
1864 -2135 347 0
744 -2762 -2942 0
-168 -42 -1501 0
1433 -407 2010 0
-355 -2256 374 0
2871 225 -842 0
-1561 -2686 -332 0
-2412 -855 2289 0
-2038 -927 2383 0
-1938 1719 -178 0
2204 -2719 -696 0
2131 -2020 -2286 0
1401 -1044 1839 0
-2667 2174 -957 0
-1364 1335 1658 0
1810 -2436 488 0
-2174 859 -2753 0
-2958 2097 718 0
829 972 2487 0
-1567 2897 -1040 0
-1374 2260 1591 0
1310 1575 649 0
1096 888 -2364 0
807 -2057 547 0
1618 -1455 -889 0
-1926 1381 -2325 0
2993 329 -2898 0
-1349 -2026 -2030 0
-2618 2762 -1472 0
756 230 -690 0
-1893 492 -2729 0
-903 987 1723 0
2162 888 1268 0
-759 2414 -202 0
2045 291 2473 0
619 -2091 1444 0
-2606 534 -2958 0
-1886 -1135 2057 0
-491 2542 -1622 0
-12 2861 322 0
-1545 -615 -2927 0
2073 -1289 2044 0
2251 2237 -104 0
-1977 -1490 171 0
2372 -46 1248 0
-457 -2187 2610 0
-1483 1568 599 0
-64 -354 2147 0
-1444 -1432 2543 0
-2460 -2716 273 0
2875 1544 416 0
1970 -134 32 0
1494 2415 -864 0
-1233 -1608 185 0
-1793 2096 -2866 0
1911 1255 -1923 0
2540 2895 -745 0
2637 2196 -2998 0
-1311 -1176 1622 0
634 -1685 1127 0
-12 -2428 2098 0
-2867 1373 -2417 0
-2966 1170 878 0
-2612 -532 270 0
1615 -1017 -95 0
192 40 -1920 0
379 1436 486 0
2476 1787 2918 0
-1848 -882 -2006 0
-1908 433 1801 0
-917 -1400 -1534 0
-1672 -2578 292 0
2485 343 -934 0
2806 2737 2781 0
-1035 -360 1705 0
-837 -2227 1666 0
2825 2759 -496 0
2858 63 -2308 0
-118 986 2415 0
-850 2071 2007 0
1960 2680 1251 0
1513 -1433 -211 0
549 276 -2393 0
1525 1512 -555 0
-2846 2193 -1981 0
1928 -431 -2129 0
-2595 2456 892 0
-727 -2871 2495 0
-1024 -1866 -2109 0
-315 1610 1088 0
-1015 -257 -1795 0
1397 -603 -308 0
2285 -2767 -886 0
1042 -414 572 0
-241 -625 2834 0
2816 -643 -1302 0
-1625 232 2193 0
-1190 1466 -743 0
-1310 1794 -1947 0
2459 2248 129 0
2227 -1250 -1861 0
-2650 364 1747 0
-2869 -466 366 0
1030 750 2799 0
722 -1220 543 0
2628 2394 1925 0
-1046 -106 915 0
-231 2208 1403 0
1051 -2637 834 0
-2941 2249 2790 0
1865 -1175 2116 0
2015 -1999 -2058 0
-1331 1011 1911 0
-105 2257 -2447 0
2954 162 1200 0
-1855 1007 -343 0
1770 -208 234 0
1577 -1729 -2276 0
984 -909 1796 0
2092 599 2407 0
-2269 -2714 -610 0
2029 -1202 2092 0
-2120 733 1544 0
-1744 -1903 -2036 0
-928 -774 82 0
-2208 -65 -1841 0
-1462 434 -628 0
-1131 -706 1422 0
2857 1102 -840 0
1081 2138 -2613 0
1933 2898 1624 0
-2985 -403 1140 0
2614 2613 1288 0
-1354 1023 -1426 0
2515 1872 -784 0
795 2222 -725 0
2260 -2297 2346 0
-1433 1476 -358 0
-1763 1752 1878 0
-1311 1921 -2439 0
-823 1623 -1561 0
-2651 1827 2976 0
-2525 173 -2541 0
1080 1464 -46 0
1129 -2011 336 0
-2214 -1095 -1952 0
-2953 1333 1746 0
-1369 2862 2599 0
953 175 -2022 0
659 -1441 1083 0
2646 2794 -201 0
473 -2264 1400 0
1816 -2071 -2155 0
1129 -1907 2418 0
2880 -2580 -2923 0
2204 -568 -2463 0
-2528 1681 1926 0
-506 1104 1838 0
1310 271 -192 0
843 -2582 522 0
242 -2793 -2056 0
-2170 -647 -2950 0
2186 736 1507 0
1372 -2088 -2152 0
2242 1205 987 0
790 -1864 -2622 0
-1159 -662 2295 0
-1730 -79 -1190 0
-751 1139 -2047 0
1833 -2421 -1017 0
-2896 1889 -1787 0
-1038 -2256 -1349 0
-704 -1290 -1879 0
2700 -2856 -1219 0
-2978 1742 1327 0
-2845 -1177 -2508 0
-556 2422 -1334 0
-1036 1327 1878 0
1237 -308 -1269 0
877 -751 374 0
-1545 -884 2465 0
-1451 -166 -53 0
-2772 1095 2765 0
2500 -1635 654 0
-2066 1440 633 0
-2451 540 1613 0
2452 947 -732 0
1356 543 866 0
-248 -988 -2024 0
1854 953 2889 0
-722 2288 2759 0
2556 -984 -824 0
-998 -2975 1827 0
1991 1774 -207 0
-1538 935 -1924 0
2289 1965 -2277 0
-1206 -749 -1377 0
2619 1345 -2416 0
1842 -428 -2064 0
-134 2913 2346 0
2474 -279 300 0
277 2929 2905 0
-255 2427 2865 0
2607 910 -1710 0
-2872 2035 880 0
-1730 695 -1126 0
-701 2367 -1591 0
-986 2766 -2726 0
333 1829 2022 0
2465 -658 579 0
1257 240 -2306 0
-212 1950 2622 0
958 -1586 690 0
-1008 889 2288 0
-2696 230 -13 0
-968 -357 371 0
2079 -488 2762 0
2417 -2693 -67 0
191 1300 833 0
-2061 -1581 -963 0
-276 -1515 2042 0
-789 2872 -1058 0
-2594 1765 2874 0
-2007 2557 -2538 0
-2493 -369 -2678 0
-2378 510 2485 0
1274 -436 -199 0
-1250 857 -1400 0
-453 -2571 876 0
-839 1237 795 0
1780 1916 1977 0
-636 -1606 2685 0
1191 -162 -2017 0
-297 1809 -2670 0
473 -2716 -717 0
-116 969 -700 0
1914 -755 1773 0
-1081 -2183 1402 0
894 -303 -1998 0
-1843 -1781 -2306 0
520 2088 -805 0
-2656 -477 -2850 0
-2765 -1725 1897 0
2230 -756 -2791 0
2179 508 25 0
2003 -1956 -2462 0
1881 1281 -2410 0
-922 2801 2495 0
601 -1050 -2622 0
-887 -2483 2164 0
-165 1509 1249 0
-886 -951 -495 0
-1709 -1943 -1194 0
-2114 2115 -749 0
-2092 -2854 -2820 0
2955 1693 -1799 0
-2929 -517 1422 0
-647 -1043 -2713 0
-2842 -1840 -1406 0
2974 1088 439 0
-2249 -1196 1237 0
2874 363 1520 0
-2220 -2965 -2806 0
78 2186 519 0
-506 2463 2836 0
-1746 -2467 2387 0
-194 1986 -2421 0
-2086 -273 -1266 0
1510 -1666 166 0
-2072 -2957 304 0
-226 1996 1635 0
1427 2340 -2824 0
-2227 -506 -907 0
1332 2970 1788 0
-2820 2619 -1196 0
1325 -2059 2910 0
2520 2235 84 0
695 -1266 2725 0
1722 -1965 892 0
1325 2701 1819 0
-729 2823 -573 0
-252 711 -2224 0
1374 -1674 -1329 0
-1306 -1476 -2672 0
232 1571 2556 0
2321 1246 -397 0
2320 -2367 2465 0
198 1467 -2907 0
-971 1863 -941 0
2912 2610 900 0
-2316 -498 20 0
1680 13 619 0
1284 2697 -1713 0
-145 288 2590 0
315 -486 1553 0
-642 -2214 1873 0
2651 -2608 -2251 0
-781 1682 1670 0
192 1819 -608 0
1414 -1726 2793 0
1523 -1063 2742 0
386 -506 -2721 0
702 2194 -174 0
234 -2096 621 0
-2462 1412 -364 0
-2883 2083 2673 0
-731 -2982 643 0
2596 -2141 1770 0
-1914 -2674 2906 0
-1282 2068 -861 0
2943 728 -145 0
-2665 2904 1752 0
-2085 2813 -1934 0
-2176 -2215 -459 0
107 -2366 480 0
-2005 -594 2925 0
-289 -1390 1794 0
-2672 -2339 -579 0
999 -1767 -1005 0
537 171 -637 0
-1530 -594 -2058 0
2952 -1562 1787 0
-2803 2374 2476 0
958 160 1420 0
-2237 639 -2572 0
-157 -416 1989 0
2910 557 1384 0
1882 2906 -1302 0
-1339 537 697 0
-1349 846 -1214 0
-835 -1790 -2952 0
2347 2262 272 0
-2497 1627 1651 0
-977 -1222 439 0
-2153 754 2826 0
-2961 2139 -756 0
1588 -2880 33 0
779 -11 941 0
-510 2378 -2655 0
2555 2035 -2050 0
2539 1149 -355 0
-494 1863 -423 0
1416 -1350 2904 0
-1547 -1671 -1660 0
-981 1538 -2743 0
-1978 -37 -1784 0
-1427 -577 789 0
2857 1838 -605 0
1052 2513 -2772 0
1224 -1372 313 0
-2982 344 2927 0
2193 417 -2883 0
2663 -2600 -2679 0
2632 -322 166 0
-531 -28 832 0
1813 781 -401 0
-2428 -893 1001 0
2076 -331 2821 0
-1077 -1692 -2935 0
-746 -1965 -2549 0
-2673 255 11 0
1643 2226 -2762 0
-2170 -130 166 0
-1618 1716 -501 0
51 2396 -1988 0
-2132 -2660 2812 0
-78 -490 -340 0
-2004 -1503 1962 0
-1637 -140 -779 0
55 -2833 -2142 0
-2505 2456 301 0
2862 -2021 -865 0
-13 1350 926 0
2618 -2676 2112 0
1800 1305 972 0
-2144 -2885 2435 0
-1724 -354 2205 0
-2347 808 -771 0
-2460 -928 1188 0
2642 -1190 -2865 0
363 1569 -1976 0
969 -2647 2218 0
-1564 298 -1001 0
524 -2721 811 0
2012 -2425 2427 0
1303 -888 -1215 0
-988 2593 -1645 0
2648 -868 2438 0
656 2682 -1377 0
1853 2177 2313 0
-509 -2393 2402 0
-2588 -1621 57 0
-2768 1317 -830 0
-1678 -2097 548 0
365 -1507 658 0
2819 2889 -2077 0
-2735 -2396 -1195 0
-808 2940 -1646 0
-86 359 -1586 0
-820 169 -1953 0
1329 527 -305 0
269 2421 2898 0
-2482 1626 1938 0
-2752 161 2668 0
-2752 1889 -2122 0
-1579 947 1170 0
-1016 -2884 1360 0
-2015 2645 -2543 0
2376 -511 -1483 0
1836 2873 -1263 0
-940 -2189 39 0
357 234 -2396 0
1233 -345 1592 0
-605 2707 377 0
-2640 -986 -1584 0
-1730 -834 -819 0
-2377 -1890 -704 0
316 946 -1300 0
2949 -145 922 0
-1322 -2535 2241 0
619 -939 -419 0
-261 -1919 -966 0
75 -279 -2865 0
1810 -2178 2973 0
2086 -259 1404 0
-339 -2028 -1778 0
2401 -1611 -1837 0
-2886 -759 383 0
-2035 2466 -1470 0
-1136 808 936 0
1920 -1700 1751 0
2175 2561 149 0
-1149 505 1246 0
1778 959 -1321 0
-526 1583 264 0
-905 1981 -2447 0
-903 2653 2278 0
741 2898 2935 0
2841 1700 -339 0
-1610 -1088 -273 0
-536 -643 2006 0
-2211 -2841 2421 0
444 2440 38 0
844 -1198 -1626 0
790 1665 -402 0
-2426 1548 -680 0
768 2783 -2339 0
1774 -649 -2171 0
-1382 -1949 497 0
-2867 -744 -1949 0
1862 735 2787 0
-2172 -902 2871 0
-1573 -1729 649 0
-1183 -2541 302 0
-771 2238 879 0
2762 -1614 -2875 0
776 -780 2594 0
-1681 2850 412 0
-1634 761 1585 0
1531 -2569 2382 0
2167 -2297 -2117 0
1934 -1215 1243 0
-2317 1818 -1363 0
-2581 2979 512 0
-2493 -1264 -2431 0
-359 -839 1893 0
-2988 2319 1313 0
-1437 2039 -820 0
335 -1150 -1014 0
-351 1733 -651 0
-2304 1878 -873 0
-1056 779 38 0
1289 445 -1791 0
1316 2075 -1497 0
1761 1862 -1743 0
-290 -250 -2314 0
1499 117 2726 0
848 598 -1999 0
-2567 2003 1875 0
300 610 2885 0
2288 2279 -1810 0
1789 319 -710 0
950 2008 2800 0
1063 399 636 0
-2399 -2404 -508 0
-2289 48 -22 0
-739 2455 -1162 0
936 2928 -693 0
271 868 2783 0
-630 -2979 -2510 0
1452 739 1103 0
-74 -2776 -2982 0
-607 -894 -2343 0
-2698 -1245 -2878 0
1366 -293 -687 0
-2968 -1479 -1854 0
350 -727 680 0
1710 313 -2723 0
2752 -2832 -2974 0
1707 2502 -2089 0
2413 107 2881 0
1306 -2914 1764 0
1347 1494 -614 0
-1649 -310 -1059 0
-1621 -1816 1722 0
800 137 2321 0
2182 -584 -1034 0
-2630 2257 -27 0
2455 411 1396 0
-146 -2273 2677 0
-1033 2553 -1517 0
438 -1655 -1995 0
-216 1764 96 0
-2773 1230 2639 0
-1724 -1690 1671 0
-1161 -2841 2999 0
905 -1768 -2431 0
-529 -1901 1784 0
246 -2571 221 0
-1399 -568 2656 0
-2867 -1907 809 0
-1374 533 928 0
-2631 -2827 -829 0
158 1456 -2639 0
-1260 -1919 163 0
844 -200 -2138 0
-486 -2040 2626 0
-2159 2781 -6 0
-1214 2388 102 0
-1612 -2287 2126 0
-1042 -1214 2959 0
2749 717 -654 0
2710 -171 -1109 0
1013 -2970 2558 0
-435 -1078 2311 0
-2163 2939 2775 0
-639 2293 -2682 0
463 -760 -1136 0
1328 -1573 -595 0
-1997 627 -2081 0
-145 -2516 -1105 0
244 -2573 -115 0
-1647 62 444 0
-723 -263 -659 0
2610 2163 458 0
-442 -1938 2830 0
1209 679 889 0
1089 -2500 1108 0
-1799 -1495 45 0
-2624 2844 2695 0
2458 -917 741 0
-2892 -1374 1622 0
1547 -2331 -1315 0
-1789 -2709 -204 0
2046 -862 1484 0
-1650 147 937 0
198 1369 -372 0
-657 1105 -2774 0
-2239 -658 -552 0
1803 -1932 278 0
-494 -2080 1193 0
-1947 -516 -2603 0
2121 -1737 1473 0
-434 -2621 1693 0
-1497 -2332 -2183 0
-934 1073 -1985 0
-88 980 -2011 0
1615 -2577 1018 0
1759 2200 -1095 0
-1628 2408 2291 0
2456 747 2063 0
2949 -1364 -1086 0
1884 2903 -867 0
-89 862 2648 0
1356 -2832 -2054 0
2972 1685 -492 0
-233 -1744 -1063 0
2863 -1173 1033 0
-1323 910 2123 0
1814 -2839 1215 0
2750 -989 691 0
2512 -1525 2024 0
-2671 -2286 1683 0
2798 2168 1107 0
-693 1449 2675 0
-761 -957 1369 0
-2222 981 2514 0
-1331 748 -1900 0
806 -591 -1041 0
-2631 -1162 -2987 0
-1558 1010 -36 0
-1369 2284 2062 0
-679 -925 -1766 0
-150 2022 -2521 0
1152 711 -2881 0
-25 -1389 -1010 0
2372 -1543 1526 0
-505 -589 1034 0
22 2831 2763 0
2411 -324 -1936 0
-2367 -290 582 0
2047 -1280 2775 0
-525 646 -601 0
559 -212 -1795 0
207 2314 -2704 0
-1238 1274 -662 0
1122 -747 -1630 0
-2434 -909 2243 0
1047 1010 -1142 0
1384 -2430 2629 0
1244 -2204 -2144 0
-2008 2717 2089 0
598 -428 -2612 0
-2077 232 -567 0
-1617 2489 -1917 0
-144 -2647 2035 0
1901 -1938 -2655 0
-2022 759 -1602 0
-2064 2179 -2472 0
433 2747 1325 0
-984 -141 568 0
141 -2854 2745 0
2047 445 2777 0
-2054 1182 275 0
111 -1424 -1498 0
2866 -1323 604 0
1712 810 -1612 0
543 314 -1215 0
1229 -2111 893 0
-476 -1203 -2184 0
-732 -2889 1944 0
-1611 -1643 -1686 0
1202 -2529 624 0
-1055 -2988 2311 0
-2697 2898 1719 0
-1189 2832 2897 0
1430 -2936 -277 0
-2389 -1774 -2500 0
-1338 -1185 -707 0
395 -941 1804 0
-2623 -2821 -2275 0
-1269 -2787 -513 0
2839 -2917 -2827 0
-111 -2345 1356 0
-2784 -2918 -474 0
-2844 -1255 -65 0
1124 -2770 -628 0
-346 910 2519 0
-915 -2731 -2772 0
-1797 -1929 780 0
-1514 1671 1369 0
137 -2346 -1517 0
-154 -2019 -1340 0
2283 1006 -2110 0
-1621 1947 1360 0
-2391 -2124 -2232 0
633 1370 -290 0
2013 -1386 -2143 0
-626 -1297 -282 0
-940 -119 2949 0
2899 1675 -762 0
684 -890 -2718 0
-1496 -2612 -1991 0
2027 2660 178 0
-1928 -957 -509 0
1391 402 -1976 0
-1952 -1410 2494 0
-271 -1234 182 0
1075 690 -643 0
-2899 497 2785 0
390 -2292 -2157 0
-2985 329 1414 0
2183 -2489 2269 0
1505 -1185 2828 0
-1141 -567 2748 0
-441 -1505 1895 0
-2559 231 1664 0
1416 461 -1469 0
523 -553 -1081 0
-612 2715 -2907 0
-2229 -2530 356 0
2997 -2818 -1646 0
1888 -461 -660 0
2693 -2035 -2644 0
-477 -1573 -2546 0
1158 -1953 -2180 0
2470 1407 2796 0
-2541 -1985 405 0
-1270 -1113 2299 0
-2029 -2548 -1074 0
-2019 -781 -841 0
-635 501 2060 0
1324 1329 2533 0
2806 1115 1769 0
529 -272 1671 0
-1757 2959 -21 0
-2681 -2131 -2430 0
-2949 -2642 -2100 0
-1434 -2982 -940 0
2551 -2593 540 0
450 1225 1353 0
736 -2405 -308 0
-1847 1360 1860 0
1620 2281 -2668 0
778 -1549 -955 0
-2340 -1660 1448 0
-2199 -2060 1512 0
-1261 -731 -2070 0
1605 -745 -2725 0
-1603 -1187 -1807 0
1244 2942 815 0
68 2152 -820 0
1854 1489 1641 0
-29 -1271 2453 0
-1575 993 2810 0
-1298 -316 2747 0
879 1001 -2123 0
-1094 -2790 -939 0
905 -127 651 0
-1410 -934 349 0
-1149 -2228 -2072 0
-1200 -1976 -26 0
-2678 2361 -1635 0
374 -338 1816 0
1074 182 -2534 0
192 -977 2429 0
-1147 -1786 -221 0
-2965 1343 -2994 0
-2455 -375 986 0
-2627 -2066 -2096 0
-2147 -1570 2312 0
-2290 1958 1026 0
2770 -1355 -822 0
-2684 896 1436 0
-146 1853 -1735 0
-1099 158 1170 0
2999 -972 2575 0
2974 -757 -2215 0
1118 -2442 -267 0
-559 -1929 -601 0
1662 177 -503 0
-1871 1724 1759 0
-2800 -1477 1210 0
-1277 514 -2264 0
432 357 493 0
-2213 -55 977 0
2725 -721 1857 0
-2540 940 2018 0
1471 2584 2995 0
297 2851 -701 0
2138 -1173 250 0
-1207 282 2655 0
2338 872 1220 0
-2112 -1018 2104 0
-97 413 -205 0
-1289 766 2443 0
-351 -1707 -626 0
2951 -551 -2535 0
1230 -2839 -1359 0
962 2034 -1300 0
-2325 -2658 606 0
2677 2700 -2783 0
683 -2970 -2391 0
-369 -2836 957 0
1725 -2319 -746 0
-1852 -2336 -60 0
188 -593 -2234 0
919 1842 7 0
1722 650 2766 0
1732 1853 -1453 0
-1147 -461 -694 0
-360 1854 -62 0
-5 2128 1348 0
1254 1265 -2707 0
2914 -456 1997 0
-585 -1156 -911 0
-148 -2968 -364 0
-586 923 -1830 0
2811 -1849 -1222 0
2879 -228 -1213 0
-737 2054 -2962 0
-667 2284 -220 0
435 2865 -1103 0
-432 -1480 954 0
844 800 957 0
-919 -1193 -1060 0
-604 -211 -752 0
-1916 -939 -1799 0
1122 -1073 -292 0
-829 -2508 -2012 0
-2629 2723 -985 0
-226 -622 2767 0
2679 -1860 -790 0
-367 2639 -1318 0
-840 -107 -2818 0
-1122 1617 -1612 0
2129 -2546 887 0
-2322 873 -1573 0
936 63 -1545 0
-819 2729 1254 0
-2069 -648 -2716 0
-9 -2576 1363 0
-611 90 1934 0
162 2843 -1246 0
-2780 2854 -1141 0
-1339 -2255 -1034 0
2981 -2406 2980 0
2273 1967 -1170 0
30 -2220 1585 0
-494 1494 2530 0
-585 2758 1029 0
285 -1330 1909 0
-1481 -1087 -1783 0
-607 908 1699 0
2639 2864 -1662 0
1373 -1295 -2191 0
133 -2063 -1998 0
242 2846 -2002 0
-472 1329 1741 0
1147 -166 2570 0
160 445 2903 0
2707 -438 2156 0
1082 -185 -1427 0
792 -1470 1456 0
2770 -1663 424 0
1066 445 -527 0
-789 921 2128 0
-2580 -1471 -381 0
-1130 -804 -971 0
-2446 2448 -2455 0
-1864 88 -2672 0
733 19 -2202 0
1370 -1191 -1612 0
1308 -2623 1743 0
-2920 2123 -813 0
-588 2185 1009 0
1785 -764 -2474 0
407 1055 -2264 0
-713 2140 -2407 0
1521 -1446 -2400 0
-801 2807 -2072 0
-1942 518 -1407 0
1497 1484 1304 0
151 358 -1985 0
-653 -1394 1472 0
-783 -2143 -360 0
-50 1698 -2625 0
-398 838 802 0
82 -1507 -590 0
-881 -640 -2807 0
2508 1928 387 0
-2017 -332 -451 0
1107 1425 -1151 0
-1011 -1053 -1908 0
1454 2926 62 0
-972 2932 -1075 0
1306 1660 -2639 0
-1380 2282 -1374 0
1737 -564 18 0
-1122 -90 -679 0
-214 -1976 513 0
519 738 -48 0
-457 788 1414 0
-574 -1422 -2679 0
2178 179 -2625 0
1502 -1517 -28 0
-1984 2918 1244 0
-887 2087 -2052 0
-1198 1041 -423 0
2019 1589 -1150 0
1847 1364 2409 0
-1316 2860 -2719 0
-439 -948 -2011 0
-1521 -1793 2933 0
-1529 -1708 527 0
2968 -2150 929 0
-2938 1103 1686 0
812 449 2833 0
-2742 -1476 -560 0
-561 2337 -958 0
2319 -1624 1485 0
-428 -2370 -504 0
1805 -2255 -2529 0
913 1531 533 0
-1872 -2676 -2125 0
-429 -1172 -1037 0
1695 1183 -1644 0
-1040 -14 1401 0
-244 195 188 0
1402 599 -1297 0
1765 -486 -1940 0
2318 -2750 -1186 0
-1857 2353 -185 0
-2128 -2783 625 0
880 261 -1602 0
-2088 2414 2329 0
-1311 1638 -2929 0
-531 969 -2122 0
-1874 -1364 2501 0
1273 -49 42 0
1646 -2433 -624 0
-327 -356 -290 0
810 -1154 -2419 0
2063 2408 2983 0
-1039 1182 -717 0
-609 -1664 -2903 0
1929 -1843 -2987 0
2470 1231 2537 0
2204 2597 1808 0
-1287 -851 -2571 0
2318 2795 -2898 0
2808 1470 828 0
-950 -1167 1462 0
-820 -930 -1790 0
-2950 2931 231 0
-2045 2589 610 0
1269 1140 1193 0
-911 -2561 954 0
-1041 -1482 233 0
-976 1156 -2536 0
-2458 894 2983 0
-295 -1752 -1985 0
2300 -2770 996 0
-2811 -1223 -585 0
-177 -931 1551 0
-1860 1707 -2831 0
350 -12 -1135 0
-766 -2458 -976 0
1469 1169 -1491 0
-2660 -2545 -2010 0
2097 2095 1967 0
-2278 2997 -705 0
805 2351 116 0
1905 1150 2484 0
1415 -1529 -694 0
1228 2827 707 0
239 1338 703 0
-519 -184 1201 0
411 -1921 300 0
524 -927 408 0
-2898 -704 297 0
2531 -2527 -1993 0
175 -2432 2322 0
-2034 868 321 0
-1873 138 -2847 0
1014 -730 -804 0
-2526 893 2998 0
-725 -174 589 0
-1640 -467 1271 0
2311 -1481 -2518 0
-588 -181 -706 0
1969 1998 -805 0
-1595 -457 2623 0
794 -2957 -209 0
1369 -343 843 0
-704 -648 902 0
-2 -114 -1359 0
-1681 -1861 1238 0
-570 -1690 1226 0
813 2765 407 0
477 -115 339 0
-1362 -1712 2800 0
1227 -958 -2812 0
2697 1938 563 0
-789 1767 1009 0
374 478 -2670 0
-2126 2774 2895 0
1143 -2516 1182 0
1274 -2350 -2746 0
-1788 2572 472 0
-1705 1690 -1489 0
-1204 2384 347 0
864 -2080 2695 0
580 2410 -2933 0
-97 -2672 654 0
1684 -578 -2641 0
-2264 2481 2320 0
-2708 -2232 -995 0
1399 320 -319 0
-2156 -1925 826 0
1722 -944 22 0
1029 1390 -403 0
-2713 340 627 0
-1937 668 850 0
-2110 -853 -356 0
2409 -1033 -291 0
2127 -1888 -34 0
2871 2642 1130 0
434 1269 560 0
1245 -409 -2831 0
-2438 1525 -2211 0
-1881 1589 -1140 0
-2664 2622 -2742 0
2986 1538 -1719 0
2989 -423 -1321 0
2335 1992 1124 0
2532 -1472 2916 0
1447 -522 729 0
-1999 -2928 2049 0
-894 904 -1642 0
1961 -637 -246 0
1035 1691 2389 0
2628 499 -1206 0
2667 1725 1413 0
-2370 -1259 -2060 0
1909 -1560 -1204 0
2295 973 2886 0
-924 875 316 0
-1607 -603 -849 0
-2145 -2699 313 0
701 -1493 -1255 0
-188 358 1332 0
-297 1764 -2977 0
1870 244 1297 0
2843 -316 1806 0
2131 -1663 -1023 0
496 -615 2402 0
1919 2868 -2848 0
-1182 2410 1701 0
-268 2227 765 0
2121 -314 -2858 0
-444 1190 513 0
-575 -1459 542 0
-2652 2157 129 0
2504 2242 1550 0
2241 -1161 1866 0
-1975 739 -141 0
2206 -1727 2240 0
-1312 -255 -1181 0
156 -199 1952 0
1737 -1374 1409 0
373 -1150 2456 0
-435 2934 2838 0
-1147 1789 -1813 0
-1849 2584 1081 0
-1551 -1306 1973 0
-1386 -1146 1440 0
-2022 662 -1614 0
-2266 1498 -118 0
-1206 2667 -1680 0
-2335 -99 2078 0
-108 -487 2356 0
542 517 1434 0
-1946 -128 1441 0
-1268 -1871 2149 0
-899 2624 1304 0
1438 -1319 925 0
-2587 2103 -2178 0
1833 -1368 -2172 0
-2160 1434 -134 0
-168 -2508 -699 0
-33 746 -1886 0
711 2434 -2384 0
1111 -2840 -1008 0
2850 1923 -2488 0
679 47 710 0
-1976 -439 657 0
-1831 688 -1502 0
-1228 2456 -1230 0
1084 -1312 -2056 0
1640 2649 -1979 0
-2154 1216 1527 0
191 1532 731 0
-2181 1302 -2753 0
-1812 -2401 -889 0
-2979 -220 -927 0
-205 -41 -1845 0
-2701 -11 2501 0
1387 -1786 -2596 0
-464 696 -2237 0
-2635 2239 -1285 0
1149 1135 -2205 0
706 -1075 -1276 0
2558 2162 1911 0
2474 2311 -1601 0
-1177 920 -2263 0
1402 -2214 -960 0
1147 1676 -2233 0
-2985 1284 583 0
-63 -2476 -2574 0
-876 1241 2944 0
-273 -1837 2204 0
2132 -2849 1462 0
-1682 1378 -2229 0
-1810 -1196 1246 0
510 -2905 -2120 0
1425 -132 -2990 0
-2985 1472 -1450 0
1222 384 -2870 0
-2085 1703 -1471 0
-875 1941 974 0
2049 -769 -84 0
-519 828 -1548 0
1742 1158 234 0
1926 -830 1224 0
-2558 -1691 -1901 0
-2527 -1605 -2350 0
868 -2630 914 0
1574 479 -435 0
-2707 2910 -1312 0
2276 2285 93 0
-1540 2084 2956 0
2832 -2427 1590 0
2953 2973 -2210 0
-1630 -1137 -27 0
2783 -2414 1578 0
1346 2575 140 0
-1613 -536 -2651 0
-2017 1585 -1292 0
1682 35 2218 0
-2061 1389 2953 0
1835 1888 2822 0
1324 -1600 -773 0
1950 785 1953 0
687 -970 -1570 0
1022 -799 -1481 0
-2215 298 816 0
1739 1045 1541 0
2120 2357 -2135 0
1806 -1271 1226 0
-2602 2130 -73 0
849 -754 -812 0
-47 -1593 -1215 0
1486 -391 1984 0
1916 -585 -1584 0
2898 2603 2037 0
-1427 -2069 -2703 0
-1315 2033 195 0
-1087 497 353 0
2977 -1982 1645 0
571 2442 -256 0
2349 -2495 -2734 0
2877 -434 869 0
-2986 305 2007 0
-1919 -1931 523 0
1239 716 228 0
-597 1028 1209 0
-1189 -2432 1231 0
366 2968 2693 0
1028 -294 2313 0
2590 -608 -716 0
-2383 -681 -382 0
-1672 -424 -599 0
156 -712 309 0
560 784 -810 0
1520 682 -778 0
-815 -2857 472 0
1133 1209 2498 0
-616 925 -1522 0
2668 -2315 2943 0
-1415 -1056 533 0
-1647 548 -460 0
2426 1340 -1186 0
-1578 -1971 754 0
-1861 365 -2905 0
2633 -2929 1236 0
1921 -1702 1751 0
-2573 -802 -2379 0
1695 19 1801 0
-1879 -941 864 0
-1264 -1185 2432 0
-817 2862 -1162 0
-2521 2726 549 0
-195 -3000 985 0
1408 714 -2385 0
2109 116 -1857 0
2830 -2228 -2285 0
2676 -2816 2205 0
684 -161 655 0
1280 -1534 1586 0
1753 -1294 -1801 0
-2863 -1696 1992 0
-28 -2193 477 0
-2682 2683 501 0
1641 -2968 228 0
-565 -1524 2102 0
-1889 -2074 -1528 0
794 1069 1730 0
138 1680 2654 0
1246 2225 302 0
2572 -456 -2992 0
-2546 2415 -2442 0
1963 2207 1976 0
-2333 1602 -174 0
1798 -2648 -1639 0
-2495 -2007 2911 0
-1171 -681 -475 0
300 -449 251 0
-1883 -1647 -2605 0
-2950 -922 -2805 0
-1889 -286 -2816 0
-402 2445 -1994 0
2416 -632 1824 0
106 569 2071 0
-2839 -2089 -2211 0
-4 -739 2509 0
-273 873 2539 0
2546 2328 840 0
1039 -622 -308 0
-562 1864 -592 0
1754 -175 1141 0
126 -1316 2215 0
721 39 -1912 0
-1436 -1852 -2590 0
845 -2285 1869 0
1540 1462 -1374 0
575 850 -704 0
529 -2225 -2754 0
-2973 -720 2581 0
-362 -2348 916 0
-166 623 -2116 0
-162 -1258 -2935 0
2419 -1459 2059 0
2868 1710 -1611 0
-434 2221 406 0
1219 -2911 -174 0
-2782 2952 -64 0
-1002 -1120 -1367 0
-805 2562 -1686 0
1256 -2941 2526 0
-1838 208 -1753 0
653 236 1441 0
784 -1517 2675 0
2895 -464 -1999 0
106 358 -2777 0
2212 -1825 1164 0
-927 2208 -172 0
-172 -2740 2043 0
219 1946 -831 0
-1036 -2520 320 0
-2417 -2033 -2359 0
-1120 -663 2725 0
-1070 -493 -1093 0
-2729 1553 -2443 0
-799 -2006 -1839 0
399 185 1327 0
856 -1829 1312 0
55 -275 604 0
-2905 -1850 -644 0
297 -2033 1196 0
-1758 1440 24 0
-1791 -1474 115 0
-2469 -1586 1893 0
-580 -1056 -28 0
-422 -2253 -208 0
-1844 -1852 -878 0
-71 -2357 1258 0
-1957 2412 1172 0
-1852 -2151 38 0
-1535 -2808 526 0
-208 1727 -2397 0
-2520 -476 -286 0
1491 2442 1488 0
102 -977 311 0
-1535 2452 2096 0
1583 1223 -1791 0
-287 904 -236 0
-158 -1645 2972 0
663 11 2892 0
-2370 -433 -2647 0
2926 1486 788 0
1089 -272 -2949 0
2570 -927 183 0
-817 -1715 687 0
-2289 652 2205 0
-876 -1421 -797 0
-1341 -2967 2740 0
-2834 -2232 -363 0
-2850 -2347 1555 0
659 -2324 1709 0
986 2901 -2929 0
2564 2643 151 0
-531 -1863 -1408 0
1134 1309 963 0
-2982 -2454 1885 0
876 1320 2894 0
77 -1352 -2351 0
1137 1090 949 0
-2591 180 -1129 0
2233 1864 -1370 0
-53 -639 -97 0
-1338 -1192 -1717 0
1764 -1796 197 0
2044 -651 1775 0
-2083 1937 -281 0
-445 -1391 2651 0
524 834 -1519 0
-2524 -252 -302 0
-2567 -1438 2568 0
-1711 1590 17 0
2886 -57 -2166 0
2912 -2138 -2783 0
994 2071 1071 0
-275 -574 -2878 0
64 -1171 -2021 0
-383 1987 -1028 0
-2725 2216 2812 0
-1961 505 264 0
-2558 2624 1835 0
-2057 -1773 -1076 0
1426 -1187 -1839 0
58 -1864 -1205 0
-2732 -1349 1860 0
-241 2489 1721 0
-2043 -2031 702 0
2979 -710 21 0
715 -2783 -600 0
-1268 1880 -2949 0
2537 1615 -2944 0
993 -2213 1746 0
397 988 -580 0
-2307 -726 -2305 0
-2198 -125 -1581 0
630 -2338 2624 0
1943 -981 -1573 0
1790 -2282 -179 0
-669 -1059 506 0
-1749 1574 183 0
-676 -96 -1569 0
2028 1260 552 0
-1705 -1399 1426 0
-1470 -2714 -1521 0
2074 58 -1581 0
-1722 -69 -2344 0
-2624 -510 2206 0
2774 248 -1201 0
-784 547 2372 0
1852 -576 -1075 0
-1261 2170 -2362 0
-1328 -2297 -2323 0
-2888 268 2454 0
300 -1001 -438 0
1920 1052 358 0
-1398 -2637 -2750 0
-466 2501 -607 0
2373 -561 -626 0
820 1369 1963 0
-147 1652 -542 0
549 2370 1303 0
2149 2675 -2554 0
1377 -2563 -1509 0
-1900 471 2924 0
-510 -765 -2889 0
-1562 -2547 -828 0
-1648 2369 2731 0
201 2256 278 0
1553 1089 1416 0
-1716 -2923 -2221 0
1 -1767 1226 0
-912 -168 2242 0
2115 -2828 -284 0
-2377 -795 2138 0
-2197 495 -1919 0
1293 -62 -2782 0
-2488 -645 1700 0
-679 1748 2108 0
-1262 -2382 1343 0
2750 2598 -356 0
-2132 -1399 -1245 0
-1391 843 258 0
-822 -46 -2152 0
-668 1225 2175 0
573 1395 709 0
-778 1587 783 0
-455 -2637 917 0
-389 -107 -2359 0
2310 1738 122 0
985 -88 2250 0
1991 2705 1604 0
2442 -1498 -1738 0
-1001 408 597 0
-1380 813 -254 0
2325 -2425 -2805 0
-846 1301 321 0
-1086 -914 -831 0
1969 1707 -820 0
1686 -1121 -2776 0
-2008 -257 -1390 0
418 2254 -1678 0
-281 -141 1261 0
-2387 -641 -2450 0
2964 833 1343 0
-1599 1992 -1817 0
-1466 1195 -2028 0
-2096 661 -1986 0
2716 -1283 -2645 0
1270 -418 396 0
-2390 799 -1628 0
-2937 -2652 -1085 0
-740 1367 -99 0
521 1210 -204 0
-2547 -1045 1189 0
2615 241 -2911 0
1477 -2619 157 0
163 -2632 2458 0
2078 -251 394 0
-1894 -1258 -49 0
-2723 -1051 536 0
-2102 -835 -388 0
-182 994 -280 0
-560 -385 1774 0
-985 -883 -2695 0
-2405 -575 466 0
-1062 2349 -1038 0
-1415 791 -2925 0
180 -2118 923 0
-75 1575 1475 0
1303 -2462 2606 0
-187 -2183 -972 0
2825 -2251 -288 0
-15 -2380 -135 0
-2496 2126 490 0
589 1137 -2812 0
488 835 -1886 0
-1784 234 2400 0
-620 2035 1229 0
865 1553 -370 0
1669 -2456 1967 0
-1199 2966 -2179 0
-1483 -2337 -674 0
204 2576 954 0
-943 462 -279 0
1623 -1104 1460 0
295 -1338 -2364 0
1805 2196 -2191 0
100 -2769 -1901 0
-301 525 817 0
-2250 -2632 -1229 0
1794 -156 -2952 0
36 2960 -2320 0
-1184 -2391 -2456 0
-2933 -247 1625 0
2810 1984 1941 0
-1316 762 589 0
-2469 740 2380 0
-1791 -2273 -334 0
2294 2226 -2697 0
312 -409 -1163 0
-1410 1062 94 0
2982 46 -1287 0
-2796 -2873 696 0
-157 -2729 2370 0
2995 -826 1561 0
611 -955 1205 0
-1645 2968 -740 0
1533 2766 -2509 0
1498 -1653 815 0
1872 2014 1605 0
-2064 -742 2225 0
-2771 -2568 -2997 0
1517 1582 -1763 0
890 29 236 0
-1257 -2239 930 0
-28 -2597 1691 0
2386 1232 1182 0
-2433 -251 1793 0
-2438 -2072 -1641 0
320 499 2354 0
2926 507 -1583 0
2073 -1119 -1297 0
-1522 1567 -524 0
-771 851 821 0
-1082 2469 -857 0
-2569 -377 -1583 0
258 -55 2598 0
-220 -1739 -4 0
655 970 -1956 0
-1027 -2766 -1129 0
-535 -36 -746 0
-1536 333 -1310 0
630 2221 -2330 0
-2720 82 755 0
-405 -269 687 0
-1654 -465 -207 0
186 -424 -1824 0
751 799 -338 0
-1542 1742 -2982 0
-2316 423 549 0
-2816 138 -1766 0
-1636 1652 -768 0
-2246 -302 -109 0
-2419 -1183 2923 0
152 -114 -1106 0
-1213 -626 -1882 0
2412 -834 -537 0
-1818 1148 -1223 0
1876 -103 -2365 0
2376 461 -1732 0
59 -1544 2614 0
307 865 2046 0
-2594 2823 -1795 0
-2080 1546 -1368 0
-987 2812 1388 0
1038 1855 -2414 0
1927 -2527 -639 0
-1159 693 1000 0
-2177 -558 1893 0
2427 -2973 1179 0
-763 -1437 2988 0
-221 2295 2082 0
881 -1090 927 0
515 -1096 1701 0
99 -1407 2869 0
2879 1598 -1386 0
-1468 -2587 -1865 0
-1500 1812 868 0
254 -2325 -2 0
1065 -356 -1213 0
-1181 -2399 2157 0
-1694 -2415 2548 0
-2233 2879 -2068 0
-2513 2704 2094 0
302 -1456 2092 0
541 2893 267 0
-1709 2440 -2578 0
-2654 2771 1942 0
-2504 2706 -2026 0
914 333 1618 0
-576 -1370 -1778 0
83 -2987 -1401 0
-2282 -609 -2105 0
2050 652 -180 0
-273 -766 1372 0
2277 601 -1542 0
-926 -2963 935 0
2 2763 -879 0
708 -2644 2325 0
733 1832 -968 0
-1967 269 2634 0
-2451 913 -2268 0
-2934 -844 -1328 0
194 227 1452 0
2424 -1877 -2186 0
2731 966 2183 0
154 -2178 852 0
2404 1685 2631 0
-762 -2329 2772 0
2939 2722 1965 0
2811 1518 -51 0
2190 2521 -2424 0
2140 1987 -2786 0
539 -2796 -2465 0
1553 1332 -670 0
1845 -532 -1460 0
-1721 -1031 -2891 0
-2925 1978 -751 0
-777 -479 742 0
-29 509 757 0
-1528 -2092 1511 0
-714 -2661 7 0
1375 -2017 759 0
-1001 -191 737 0
-1453 1379 118 0
-1883 2559 668 0
2297 -1715 32 0
840 -2187 -2353 0
-1270 1244 2874 0
-140 2039 -1460 0
-1442 1297 -646 0
-751 -847 1784 0
1312 -127 2828 0
-2030 700 1983 0
2424 2778 -757 0
1316 2064 2227 0
2351 -2965 1439 0
1612 1894 260 0
-2019 1401 -418 0
1212 667 -711 0
2951 2083 573 0
1112 2289 -1670 0
-646 672 1606 0
2912 943 -2530 0
-292 -1607 2421 0
-687 -2208 2362 0
2131 -1083 -2415 0
-2360 2582 334 0
-546 -1497 -984 0
2686 -502 2116 0
-2820 -2817 1459 0
2292 1205 2382 0
1719 2762 1932 0
1202 -1582 -1374 0
-712 395 2056 0
84 -2877 2597 0
1811 -189 360 0
-47 -2522 -2473 0
2868 801 968 0
-2713 -2511 -338 0
-622 538 -2607 0
2350 1570 -2590 0
-801 2313 1461 0
2050 620 1246 0
-151 -382 -738 0
1630 2193 -1164 0
1367 -486 2998 0
-1661 -719 2147 0
694 -2131 -2638 0
-2440 -2234 -2574 0
-295 -1592 75 0
-2695 2251 -2012 0
89 2597 560 0
-21 -1119 1853 0
-2430 -2231 -722 0
2031 -2942 1345 0
-2415 -2466 2238 0
-1780 963 651 0
-2460 -1601 1494 0
-2544 1223 -1201 0
370 -2741 2086 0
-579 -1293 -1620 0
-2518 570 -1306 0
-103 -2150 -2982 0
-749 2577 1508 0
-2756 1379 -2425 0
728 -2810 874 0
1944 652 -895 0
2815 28 2420 0
2370 1386 -1672 0
2686 192 1551 0
-100 -2094 103 0
-2386 -1122 -560 0
1129 -2674 -1892 0
-2004 610 728 0
-1497 2403 2289 0
-439 -2812 2965 0
-971 -1453 1915 0
1032 -607 -1533 0
-888 2410 -2912 0
1738 2899 -1218 0
-2044 -2278 -2151 0
2544 -205 -2634 0
-1746 2401 1512 0
-735 -780 795 0
-1733 -907 875 0
-630 1479 1691 0
1103 -190 -2314 0
-861 -2428 -2059 0
-126 810 1073 0
-2055 -193 -1119 0
2728 -1010 595 0
1295 2092 319 0
-851 2632 543 0
1310 -366 1148 0
-175 108 -232 0
-1017 -2467 -1348 0
-2487 -1093 2938 0
973 -686 203 0
2840 2805 -1327 0
1135 -2997 281 0
577 1762 -387 0
-1817 -1178 -470 0
-893 -2324 2109 0
2391 1216 1505 0
640 -695 1980 0
1853 -2775 -162 0
554 -1330 -2213 0
-2698 -968 1265 0
468 -2334 204 0
-2774 -2764 1876 0
1997 160 2047 0
-2989 -2637 2362 0
-612 2656 2990 0
1771 -822 -1396 0
1044 1691 -1574 0
1929 2420 2829 0
-2586 84 -142 0
1767 -1595 -1547 0
-563 386 2199 0
-785 307 -808 0
-22 724 921 0
-1848 -2707 536 0
823 -1456 1194 0
-2802 1663 -1485 0
2597 707 -605 0
2049 -1741 2528 0
1875 2167 -2788 0
-2102 -2471 -1814 0
54 -1708 -810 0
-1216 -808 2666 0
-176 -254 917 0
-12 -1802 2976 0
-656 -102 2745 0
-2705 -2011 494 0
2640 324 -2994 0
766 2278 -538 0
-2888 -586 1893 0
1704 -260 28 0
1694 2003 2314 0
-2173 -1321 2693 0
2743 -2505 1869 0
2573 745 -1693 0
-1632 -2882 2301 0
1903 -739 1124 0
-2408 717 -959 0
-2801 1547 -30 0
-200 328 763 0
-1306 781 -1573 0
1342 -2725 663 0
-2519 -1716 1046 0
1308 -2826 1106 0
1912 -199 879 0
2649 -309 -2085 0
2036 -3 -1258 0
-206 892 -795 0
-2122 1623 1901 0
-1474 2038 -1614 0
-489 -1288 -1180 0
2377 1584 -723 0
1675 -2754 678 0
-558 2227 2154 0
769 -2639 -1764 0
-1391 1596 -2754 0
-553 226 -925 0
1200 -2230 -1511 0
-435 493 -2019 0
-1031 -1347 1632 0
-1877 -645 -385 0
-2346 -2113 -640 0
-1981 -1370 359 0
2717 1513 2850 0
249 2904 2399 0
1462 1081 -2823 0
776 2775 -445 0
-1416 -364 319 0
-746 915 -359 0
2261 1046 1607 0
2252 531 2674 0
1198 -233 -2438 0
1768 -222 -1643 0
-2656 2670 2593 0
1542 889 -421 0
2393 -855 1743 0
-656 -756 -1860 0
1330 -2031 -1452 0
329 2096 -961 0
1458 -427 692 0
843 2463 2724 0
576 -2616 2056 0
601 1461 140 0
-1686 -782 -601 0
-1685 -1213 1116 0
-974 -2196 -2053 0
2540 1214 699 0
-1204 -1884 2913 0
2314 -2183 -1858 0
-909 1008 -757 0
-1332 537 2635 0
-578 -504 2581 0
-2001 -2245 903 0
-1521 1731 2292 0
-841 1780 1152 0
-712 2400 883 0
-1274 -1357 -2630 0
1261 -1116 2398 0
-1514 1019 1405 0
2954 -2628 2870 0
2264 -2056 1058 0
2955 685 713 0
381 1781 -235 0
2552 2621 1619 0
1359 -2099 1383 0
-2705 -1285 -363 0
1630 -2011 -766 0
-1294 -2345 1273 0
1699 2910 2634 0
146 1307 -213 0
2630 1760 -2756 0
-1047 364 -484 0
-1544 -737 -1464 0
-37 -2301 888 0
-1106 -1012 1644 0
2362 -8 1865 0
2938 1439 -712 0
1084 1428 2266 0
1129 1571 -584 0
2849 237 -2054 0
-2693 -910 -1193 0
-2968 -2820 -619 0
-1774 -1430 2296 0
1204 1982 477 0
-972 508 -2603 0
-1256 2018 2243 0
-2324 401 1624 0
-2480 -1589 2930 0
917 2950 -863 0
-2171 -1484 2625 0
474 2388 -583 0
75 604 1216 0
1576 -1760 -407 0
1657 726 -574 0
-121 124 -1196 0
1503 -518 2236 0
75 -111 1623 0
704 913 -2705 0
1277 288 472 0
2054 -140 -2169 0
802 1400 -1593 0
-478 1397 -917 0
-1361 -1032 1567 0
38 114 -2648 0
1408 1673 686 0
379 -671 141 0
637 -2667 -1723 0
402 432 -328 0
2537 1358 -1427 0
1480 2086 2066 0
850 -1420 2252 0
-1727 494 1202 0
2637 2027 -1061 0
1501 2738 2844 0
914 2757 2239 0
1554 -1840 -1242 0
2639 1942 2925 0
-2702 -528 2918 0
79 2134 -2577 0
2604 -961 -2358 0
2941 -231 2449 0
2603 563 -1013 0
616 -897 -501 0
-1523 2587 1175 0
1709 -364 -178 0
-1546 -2006 -2235 0
968 -1278 2032 0
-2478 -785 -818 0
-986 -2016 2972 0
-2826 2953 2244 0
-2520 -1170 1549 0
-1831 -2798 -2466 0
-107 2547 -152 0
1744 -35 -2398 0
-2314 1500 1797 0
1278 -2324 -685 0
-2766 -2130 1603 0
-1174 1933 2971 0
-843 2233 -365 0
-879 -855 1672 0
-1104 -280 -2774 0
-1773 -233 -582 0
-1517 2791 1581 0
-2524 -2765 -1951 0
-671 988 -2559 0
1526 -1828 140 0
1489 1062 166 0
-1505 1754 -1996 0
10 107 -146 0
2865 -1231 -1146 0
-629 -1253 -1893 0
2925 -2756 2811 0
-1593 1943 -2781 0
1013 2601 -1531 0
-543 -115 1452 0
1649 438 2941 0
396 2225 2000 0
-2283 -2134 2678 0
2434 -2836 1786 0
1197 -13 811 0
892 -562 758 0
-1207 1602 2043 0
2700 851 401 0
-1834 2064 -2164 0
1211 1157 -1416 0
1899 1359 1476 0
-26 1428 2643 0
-1041 -742 -2587 0
2769 -1798 -2961 0
2136 1445 -1082 0
2654 1781 268 0
2673 2094 -992 0
-660 -2454 -1330 0
-1576 2135 612 0
-66 -842 -1308 0
2119 -1360 -1369 0
1631 -1433 -385 0
2769 -1363 2960 0
-2262 2957 2170 0
-988 1472 -2962 0
-2381 2380 -1943 0
-1778 991 1471 0
-903 -944 -1821 0
-1605 -647 1033 0
1768 1142 -1946 0
2792 -994 1404 0
-1258 1450 -2227 0
-2472 1688 -867 0
-1359 294 -1510 0
1843 1570 -182 0
-2992 2385 -2524 0
2317 2690 1983 0
50 -2811 -2426 0
-716 -701 2209 0
-1562 1698 -2281 0
628 2636 947 0
390 2159 -540 0
527 1442 -2905 0
-488 -2287 962 0
2328 -340 -2929 0
-981 1321 -112 0
190 700 -1223 0
2273 -14 -1439 0
-467 2594 -119 0
-1673 -1689 2766 0
-900 1364 1798 0
-81 1394 -1009 0
-583 276 -2684 0
-723 1998 1231 0
1229 1470 -2473 0
1783 1240 2366 0
284 379 1005 0
2426 -286 -1233 0
-1330 2715 2463 0
-690 699 -2372 0
-2969 -972 -223 0
-1819 -854 1975 0
1245 2224 -1113 0
-2242 1825 -1079 0
2443 -2241 -2249 0
2652 -639 712 0
-395 -1181 -761 0
1315 853 1767 0
2748 2150 1615 0
1039 -2680 -1566 0
-2523 2201 122 0
1948 -1195 1421 0
-378 -241 -1663 0
873 -1462 -1048 0
2644 1128 772 0
-2173 -2975 -1752 0
-2378 -115 -2250 0
2901 1736 -1655 0
-1158 1395 2394 0
9 867 -1057 0
-2011 -307 -405 0
-693 494 -2647 0
1315 -1832 -1691 0
-2322 1527 2429 0
2962 2625 -2315 0
2025 -2013 -258 0
-1795 2875 1206 0
-1363 -2714 2374 0
2843 2735 -225 0
-2343 2028 2405 0
1689 -1076 -2098 0
-330 -1410 -942 0
1963 1844 -2838 0
2466 -1365 -1277 0
1871 -2205 2520 0
1625 -1198 -2464 0
1645 1168 1426 0
-946 -240 -321 0
-954 -2581 362 0
-1890 -1629 -1374 0
-137 2079 196 0
-1400 -976 -525 0
-786 1937 64 0
-1025 2156 1958 0
664 2111 -250 0
-1267 -1475 1533 0
334 -2074 -1745 0
-2266 643 -2462 0
-1522 -596 1909 0
515 546 1225 0
-1665 -2494 667 0
2611 1049 1282 0
-65 2832 2438 0
-2800 -2293 -2988 0
1047 2935 175 0
287 -2006 1231 0
-143 -2363 2382 0
-2032 -2162 -1887 0
2129 -2163 2022 0
2730 -2251 -2035 0
-1390 -904 529 0
-2745 -2839 -2066 0
1430 86 788 0
-913 2666 -323 0
2658 -720 -771 0
-1664 2398 -606 0
-2106 -2300 -189 0
2303 -263 -1092 0
-2287 -2449 -1624 0
1212 96 1671 0
-1240 -2773 1546 0
-1679 -1815 338 0
-729 1824 -1943 0
310 959 -2422 0
2252 1901 714 0
2437 2192 1577 0
-1520 -1050 2452 0
1442 -67 238 0
2942 1737 -1902 0
649 -996 1523 0
1898 -200 -533 0
-2926 -2392 329 0
410 -1141 -1496 0
456 -2933 2778 0
1738 -848 1901 0
1185 -1645 -2356 0
-2000 502 -2441 0
189 -449 -2047 0
-1726 1637 967 0
-542 -659 1850 0
-2278 2170 2754 0
2673 154 972 0
2819 895 2781 0
2485 -815 -2571 0
-964 805 -1925 0
-469 -2228 -128 0
945 -2506 315 0
1797 2327 -73 0
-860 2813 -858 0
-957 -2121 2837 0
-751 373 -1339 0
1034 -1738 562 0
-1865 -1537 1611 0
-147 1250 2761 0
2305 -2468 1417 0
2671 -676 -462 0
-239 2356 -322 0
-1803 2975 1018 0
-2360 -1626 -1354 0
1800 -1741 -805 0
2722 385 1053 0
931 213 1682 0
-2195 1876 -2089 0
-981 187 -2232 0
-1718 1374 1831 0
2440 -2727 362 0
2543 -1831 -391 0
-1839 2547 2461 0
-2269 -1397 -1211 0
93 2809 -120 0
2631 -2061 -2301 0
-1011 1027 -2030 0
-646 2299 2298 0
926 2684 -865 0
-2803 -1327 1018 0
1082 1485 1774 0
-2265 414 -2875 0
-2021 -491 2758 0
-1301 2741 -53 0
-704 336 -365 0
1684 -1528 -2401 0
782 1769 1174 0
1785 2105 121 0
-2883 -773 -39 0
199 -2667 -1583 0
537 -2728 -2930 0
2478 -2106 -2018 0
2870 642 -2417 0
1207 -165 -1929 0
1998 1409 -699 0
789 1270 -1715 0
2982 -264 198 0
964 -2628 1736 0
1910 -2995 1009 0
-597 -1516 1795 0
-1921 1997 974 0
-483 832 2481 0
-833 -2926 629 0
-2519 -627 2637 0
-1040 1884 -1532 0
-1696 2728 2454 0
-1669 958 -1527 0
2476 -1546 -2707 0
1256 1175 -580 0
2302 2196 1735 0
2288 -2581 2810 0
-2257 -1947 2267 0
1911 1468 2718 0
-1445 1732 -2151 0
913 265 828 0
-2721 2060 -490 0
2936 -1023 1306 0
325 771 -1513 0
-1081 -451 -2277 0
1032 1493 612 0
2023 274 476 0
629 1745 -790 0
-610 645 -2361 0
2022 929 -174 0
2044 -1002 -768 0
-1590 373 2985 0
-2711 -1007 1193 0
-1920 2993 2611 0
2460 2379 2640 0
-2655 -2898 -2414 0
906 1591 1229 0
2727 794 -2132 0
1081 -2414 -1842 0
-502 2321 -2739 0
818 2505 294 0
-779 2972 -2520 0
-1819 -2252 2817 0
1899 -2328 -2573 0
880 -2673 2856 0
-1774 -1627 1748 0
-1007 1930 546 0
1287 370 1289 0
-1204 1930 2711 0
-2258 466 -821 0
1869 -2658 1827 0
2061 514 2250 0
-2615 2625 952 0
-2463 459 -2079 0
-1844 -800 -1862 0
-885 -163 1590 0
2869 1310 -2126 0
1504 639 620 0
979 -878 -1413 0
1092 2547 953 0
648 -654 234 0
-1048 316 -423 0
1975 533 1154 0
-1480 -258 1381 0
2527 1557 -2057 0
2200 -699 747 0
-1961 2838 882 0
-1934 871 -1082 0
-1765 -1323 517 0
32 -2600 -2922 0
1688 -866 -537 0
1718 1723 2502 0
-2745 99 1940 0
-1908 -1857 -347 0
-1591 -883 2050 0
-304 861 2148 0
1794 1193 -1422 0
-2548 -148 -2965 0
-813 2989 953 0
-2068 -2389 1111 0
2910 2117 2966 0
-1219 -48 624 0
2025 -1574 214 0
1464 -769 125 0
1507 990 438 0
733 1880 330 0
818 2010 -759 0
1123 729 -552 0
1559 -2734 81 0
-1934 -429 -624 0
987 -1311 -1578 0
353 -1618 1537 0
1072 2124 -737 0
1362 -748 -388 0
857 3 -876 0
-2248 -2902 -395 0
2713 -1410 -1034 0
1478 1486 521 0
291 2001 225 0
2294 916 -649 0
2011 344 -1022 0
2194 -945 -2751 0
-1934 -522 -2861 0
1182 2142 2598 0
-654 318 588 0
-1122 1573 2598 0
1444 1398 2031 0
-2631 -1967 1265 0
1453 -1378 700 0
-2896 2000 -1675 0
321 -1493 -1661 0
2791 1036 2858 0
2834 2055 -2433 0
1445 -875 -1774 0
1768 439 2165 0
220 2424 -1333 0
483 1224 -1922 0
-363 -1460 -2776 0
-744 -1307 -2201 0
2576 -2217 2795 0
554 -1991 278 0
-222 2388 -1818 0
-572 1000 1198 0
2745 -758 2398 0
-1451 -2046 -1335 0
1608 546 1634 0
2622 -2420 -2445 0
2206 -2519 258 0
350 736 -1406 0
-2358 2556 2253 0
2416 573 2053 0
-2387 -1475 -2631 0
-306 -2674 2488 0
-2110 1740 1969 0
2211 1088 1460 0
675 -1616 817 0
-2156 2952 716 0
291 -2913 1477 0
1184 -2263 2224 0
-2959 499 986 0
-1830 1680 989 0
1534 -2280 1075 0
2638 1342 -215 0
-2975 359 694 0
1956 880 -1212 0
-276 -1065 -1851 0
1574 2281 1549 0
1759 -716 -2988 0
-42 -1538 711 0
-1148 1332 -1711 0
-1564 -176 -531 0
1313 -2299 992 0
-544 379 166 0
1860 77 1683 0
1044 -1954 2399 0
-771 1844 2474 0
-2582 1765 -2747 0
120 612 -937 0
-985 -495 -1385 0
600 -1958 -444 0
-861 -1518 -2940 0
1442 477 1273 0
-2057 -517 2682 0
284 -641 -2495 0
1081 -1942 -599 0
1987 1291 577 0
575 2730 -2150 0
137 350 -908 0
-2288 2589 2257 0
2677 32 -2969 0
1942 510 56 0
-2230 -2451 419 0
-2929 -2636 -2501 0
-1226 -922 -944 0
1247 -845 2773 0
2599 -2397 -2196 0
-259 1784 -267 0
846 2685 -2187 0
2344 253 -1189 0
1011 12 -207 0
-838 -1650 -204 0
223 -1437 -2260 0
-1364 -625 1821 0
2571 -887 -201 0
-1469 -325 2651 0
-2998 1931 2531 0
2106 694 1686 0
-655 490 46 0
-1311 671 1964 0
-1768 -2397 981 0
-1803 -305 857 0
755 -2683 -1687 0
2619 1381 2465 0
-2398 -1599 -1078 0
-2835 -73 -1341 0
2246 2993 -2530 0
-2452 1472 2144 0
1618 2520 289 0
-82 382 1565 0
889 -1913 384 0
1282 2324 -178 0
-2874 -2458 293 0
-1943 1452 -478 0
-860 1250 -1077 0
-2471 460 11 0
2919 -2129 1633 0
1243 235 -1011 0
-753 302 1894 0
2926 -800 2433 0
-1317 2801 -918 0
-1772 -563 1211 0
-2180 -969 122 0
-2707 -2457 -637 0
2839 580 -2487 0
-108 -649 1746 0
2856 900 410 0
-1814 1780 -120 0
187 2694 2974 0
1958 1836 97 0
2156 731 -2790 0
-345 -2704 2756 0
2648 -2379 -28 0
-149 -776 631 0
2914 1106 2160 0
1403 1335 -2440 0
1209 -903 1981 0
-2951 1769 -502 0
2673 1662 986 0
2198 346 -2624 0
735 -790 2669 0
1503 526 2259 0
2002 -2454 179 0
214 161 -2363 0
2580 -2036 1287 0
-295 1449 -766 0
2060 -2556 -2141 0
1700 -1536 224 0
-821 -38 136 0
1766 -840 -2979 0
-768 497 1646 0
-752 -681 -2360 0
1874 -2704 94 0
-1840 -1148 -1377 0
-1033 -2382 -1889 0
-46 369 470 0
-424 -2946 308 0
-1533 636 747 0
-1852 -800 -2824 0
-576 1788 2323 0
263 -668 1830 0
-458 2464 160 0
872 -2791 -1153 0
689 -2247 -1850 0
-421 -2724 2551 0
-1692 1501 -2799 0
-1690 1532 -2068 0
-2473 -1173 1334 0
1698 -222 -2123 0
663 -2693 -2957 0
858 -1978 -2805 0
-2822 756 2082 0
2211 -1170 782 0
1387 1411 2005 0
-2525 -881 835 0
-1036 1148 2243 0
-2526 2637 -603 0
2123 1115 1106 0
1209 -2426 2392 0
320 1293 -544 0
790 1573 -2527 0
-1929 1145 9 0
-2719 642 473 0
2078 1674 402 0
731 1777 -2811 0
-1336 2208 -1655 0
2580 2872 2629 0
2460 1067 -1389 0
1254 417 -835 0
1609 -1236 2668 0
-2695 -67 2441 0
268 -1775 2387 0
-736 -622 1750 0
-2566 -2914 986 0
-1829 -1855 1996 0
1903 2224 -2436 0
-1580 -1676 789 0
2347 -1484 1928 0
4 955 1687 0
2201 -853 2725 0
-1643 -2729 2172 0
-1318 1906 1268 0
-1501 -2373 -1954 0
2815 -2587 2255 0
-1608 -1315 -2212 0
-1301 1781 -2477 0
1358 238 -1708 0
-895 2987 -2554 0
1619 -773 495 0
563 -2374 -94 0
-938 -267 -2895 0
1004 -2370 2549 0
1190 1219 -2379 0
-815 738 -391 0
296 -244 1201 0
1506 -801 2630 0
1649 2755 418 0
-2730 -1596 -2338 0
-1339 -1448 -29 0
1928 219 -1762 0
1839 -1772 977 0
-779 1736 -655 0
41 -225 1311 0
60 499 2566 0
-304 125 -1693 0
-2627 2334 787 0
106 2979 -1581 0
-1975 -322 2810 0
-864 2183 -2654 0
-2210 1497 -2103 0
-307 601 -1592 0
-2090 -872 -2967 0
-2894 -702 -1586 0
1707 -2409 -1457 0
1824 -2858 -372 0
-723 -184 -2952 0
-1084 2264 314 0
-2626 871 -1292 0
1056 -1881 2055 0
-1081 -2704 -2762 0
1678 588 -95 0
-2504 -2102 93 0
-1119 2385 1335 0
-2107 -1878 -1167 0
-1271 -968 -868 0
1331 -2232 -2765 0
842 853 -1032 0
-2333 -1786 -2233 0
120 -1930 2301 0
2087 -41 2522 0
599 759 -514 0
712 -865 -308 0
-475 1628 2431 0
1683 -954 -2756 0
-1154 1863 -730 0
1077 -107 -2972 0
290 -472 1920 0
-140 -2124 -2573 0
-634 -49 -283 0
-1344 -834 -325 0
2063 836 1579 0
2136 -136 -2381 0
519 -2962 -1426 0
-994 -877 1960 0
1919 1905 956 0
-2772 2143 -473 0
2863 -2664 -1380 0
-1328 494 1290 0
2833 1890 1445 0
1017 2896 -1163 0
-1302 516 2002 0
2166 -1563 -406 0
-2237 918 -1576 0
1146 -2790 2183 0
2361 1411 1250 0
-121 -339 -2879 0
894 -861 -1272 0
-1087 -2979 2310 0
-918 1095 1241 0
-1433 1625 2482 0
834 -40 -1698 0
-2271 -1401 756 0
-2602 2813 1993 0
-646 1787 -1363 0
400 -2070 -2123 0
2736 1998 -2014 0
766 247 391 0
-1647 854 1132 0
1626 2043 2932 0
-482 -1994 -2165 0
1686 1993 1394 0
1339 -1410 1359 0
1236 -2327 -388 0
-1138 2349 2581 0
422 11 -2229 0
812 2082 -262 0
-449 2111 -850 0
2348 695 2342 0
2326 -1015 -257 0
1712 -1270 2783 0
37 1105 2427 0
1139 -1119 1957 0
-150 -1750 -610 0
1543 -770 -361 0
1484 -1016 2170 0
947 2044 733 0
1737 2814 -2699 0
-1441 -2785 -1927 0
-2011 1953 2865 0
-1838 -629 1715 0
2769 688 -2935 0
2407 -168 2131 0
-2841 1117 2955 0
-1237 2389 -91 0
-2789 2213 -2875 0
2262 -1391 -2998 0
1696 -2329 1321 0
-1542 2017 45 0
2564 1306 -419 0
-2610 439 -2515 0
-2260 -1346 -1436 0
-977 1471 -1369 0
1753 1616 -462 0
2121 -2745 -2489 0
2679 2398 686 0
-2221 -1618 1288 0
679 -2571 -500 0
2802 730 1121 0
380 1915 994 0
-11 -490 432 0
-291 20 -542 0
2841 -1208 -926 0
-144 -104 -515 0
-263 -2057 1353 0
358 -2752 2529 0
2929 1549 2888 0
777 2876 1997 0
-451 -2250 -2336 0
-970 -234 -819 0
-2409 2231 -1914 0
1037 596 569 0
-929 -2588 664 0
-2843 499 546 0
-1042 -130 1208 0
-843 -463 2169 0
-284 -2538 -1044 0
-1631 -2395 -1860 0
1237 1564 474 0
2661 -2800 -986 0
1618 2166 -131 0
-1430 1930 56 0
-1699 1116 821 0
-1087 -382 9 0
-612 -437 2841 0
2570 -531 549 0
-967 2613 -537 0
-1895 813 -2539 0
1939 -1025 -1832 0
-963 2371 -1902 0
2761 2971 -2000 0
-1175 -522 -2689 0
1822 -2513 -1193 0
2286 1501 -452 0
1281 -2634 -2446 0
-2779 -2461 -1013 0
2584 459 748 0
-1800 -292 2566 0
1984 2096 2682 0
-2946 499 560 0
-527 -1113 285 0
654 1838 -2329 0
1096 1316 2812 0
-1002 -418 -604 0
-1536 2869 -115 0
-2923 -2273 1071 0
-1226 540 2542 0
237 2698 -526 0
-1507 373 1140 0
-2584 1064 -1863 0
28 2530 -2576 0
487 -1363 1266 0
-823 263 -2379 0
293 1907 -2854 0
1663 -1590 1829 0
1414 -1092 -1066 0
-2595 -906 -74 0
1160 -2989 643 0
-2530 1662 -1853 0
-1713 664 1523 0
-591 -255 -2180 0
-1561 2765 2768 0
2764 -2005 1457 0
1159 -2414 -1711 0
-313 2650 12 0
2541 678 -770 0
2707 1085 -2798 0
-1497 -2043 1895 0
-953 1318 148 0
1629 -419 -848 0
-352 1842 2625 0
130 1996 619 0
1935 2182 966 0
2739 -608 2901 0
2341 -2593 -2578 0
-2330 10 2165 0
13 2386 -2449 0
-772 -2152 442 0
2801 -404 -2533 0
1133 2407 -1575 0
1234 1316 -2993 0
671 2469 2039 0
-2071 2506 -1816 0
334 2019 193 0
-984 -1935 439 0
2740 -1695 -321 0
72 -2479 663 0
273 -374 2729 0
-2918 746 -2808 0
-2585 2179 1267 0
176 1546 -1996 0
490 -2937 -2100 0
2603 814 -1730 0
1979 -2895 509 0
1880 1013 -2892 0
256 -2279 2847 0
-835 1297 828 0
2066 1629 2207 0
350 -2760 413 0
903 -2508 -221 0
317 1939 2993 0
1579 -1506 -2592 0
1881 -2418 94 0
-2705 -2273 2438 0
-647 -529 33 0
-1202 -1450 -346 0
1698 2989 377 0
1911 -2318 -650 0
-1037 -1584 -1286 0
-773 -1794 -2898 0
1387 2746 -2716 0
-1895 -298 296 0
-866 1166 -2995 0
1632 2069 -70 0
1502 287 1142 0
123 -2718 -467 0
2742 37 -1857 0
2379 11 473 0
2366 -862 1340 0
-919 -949 -1742 0
2831 291 1983 0
2702 2556 2673 0
-1760 -2365 638 0
358 -862 237 0
1773 2188 785 0
2501 1858 1621 0
2817 197 360 0
-2578 1080 2402 0
-2670 -2388 -424 0
-2580 -34 1162 0
2710 -1454 -1456 0
-1340 -139 -171 0
999 -1378 -998 0
1051 29 514 0
-1760 798 1827 0
2242 -182 -2270 0
-1679 1832 2038 0
1386 2636 2388 0
2523 -2498 -2985 0
909 2382 2008 0
-20 -1619 -1123 0
2717 2147 -2464 0
1530 -2969 -1491 0
2546 508 1051 0
2038 1453 1313 0
2117 2811 2689 0
181 2810 558 0
-219 -565 2409 0
2748 1823 2095 0
565 -2554 -253 0
1155 -1730 313 0
2328 -2077 -2266 0
-2627 -2666 -534 0
-2320 1413 1236 0
265 -1431 2266 0
2281 2778 -1478 0
1753 -774 1653 0
-2832 2936 2556 0
-7 -341 1708 0
484 -2837 1706 0
1168 1485 258 0
1221 1021 1405 0
1895 -436 1888 0
2578 -2769 -2631 0
825 -968 255 0
-1112 1014 -241 0
677 117 2041 0
817 1520 1339 0
-2265 -2015 -1009 0
1697 966 -2411 0
-65 2704 -2835 0
1913 -2265 1321 0
224 -1949 -2554 0
-807 2625 -2062 0
-2611 -520 2076 0
1626 -1167 -2550 0
-787 -2957 -2559 0
-1823 -994 -2208 0
-771 2087 -1178 0
881 2128 -2155 0
-2388 53 -2835 0
1474 -2642 -1915 0
982 940 -2878 0
2590 -829 90 0
2618 313 -2005 0
102 1370 -601 0
1831 -351 2809 0
2205 725 1589 0
2204 1609 -651 0
2736 -2579 -1913 0
-2575 -2780 -2339 0
2159 -790 1747 0
747 -2039 -2522 0
2977 2717 1773 0
-1543 -294 762 0
-2180 2723 1171 0
397 -1354 -2192 0
582 284 -2714 0
-699 -2870 -2123 0
-1944 1144 -2450 0
935 -2505 -1327 0
2508 -1266 -1825 0
-2721 105 1986 0
-316 680 2962 0
-1531 -2702 2529 0
-1710 -2435 1233 0
1260 864 1068 0
953 1125 789 0
-873 342 1352 0
-665 144 -431 0
-1587 1946 -1052 0
925 314 719 0
-2103 139 1849 0
-2869 -1555 1391 0
1286 -210 2388 0
724 1816 -2514 0
396 -2888 -1007 0
-2767 302 -339 0
-1491 -734 17 0
810 -2350 -2294 0
1203 1844 2173 0
-1805 -2526 -592 0
-42 -1392 2522 0
2577 169 670 0
2185 2183 -1205 0
-2809 -1759 -359 0
-2999 2257 215 0
-352 967 -746 0
-326 -323 1177 0
2427 1546 -286 0
-2101 907 2276 0
-928 -2058 -727 0
1708 1625 -1488 0
-824 -130 1301 0
997 -2571 295 0
-749 -1260 -160 0
2755 535 -177 0
1051 -1301 -2849 0
-2663 -2486 2335 0
1718 -1998 1578 0
-497 1495 -719 0
-272 -2161 1777 0
1691 -1104 -1880 0
-1159 2816 300 0
-54 1603 451 0
2986 2336 -1272 0
247 385 2915 0
-2226 1350 2389 0
-833 1826 2238 0
-2040 -2742 -512 0
1235 1589 -2299 0
1524 -1717 2662 0
2904 -348 -2080 0
-960 730 1584 0
-351 -1145 865 0
31 -2237 1613 0
2398 -2597 1919 0
1696 634 1913 0
-2661 -2816 -2570 0
-18 -2796 215 0
2230 -1099 -874 0
447 1517 1984 0
1404 -1623 2775 0
-164 2399 -1812 0
-2534 2247 -749 0
-2818 871 536 0
-831 -2372 1081 0
1699 -178 -1404 0
-2116 896 2091 0
-1841 1809 2790 0
1172 -1717 -2965 0
-2923 -964 -1869 0
438 -1033 -2954 0
-2933 2158 -2501 0
1032 -45 1993 0
485 -2669 349 0
-1754 1321 -1001 0
2483 -2205 23 0
2339 -220 -1354 0
-2307 -709 -2721 0
2829 -2271 -2618 0
1904 1806 -2912 0
2419 -1810 -992 0
-2957 -1049 1257 0
-2675 154 2075 0
-1464 379 1963 0
-1398 2924 -1772 0
1362 1994 -603 0
1861 2573 1459 0
-1506 2067 -1525 0
816 1732 -1629 0
-1 1023 1702 0
-2960 -1522 -2613 0
2926 -1964 2329 0
-2514 1131 -2922 0
821 2112 -1008 0
2065 2517 156 0
-968 392 1954 0
2134 1358 -2874 0
985 1801 -1885 0
442 -193 306 0
-1895 745 -2875 0
2971 1261 -1789 0
642 2333 -1340 0
126 1836 2757 0
-323 -789 1310 0
-2143 -2468 -1346 0
-108 -1526 1175 0
969 -1051 2411 0
721 -287 -1806 0
-2369 -542 -1986 0
-647 1983 1201 0
1817 -1211 1716 0
1839 -2109 1230 0
628 881 463 0
2634 2916 703 0
2272 1351 -2197 0
-2725 -2352 1053 0
2391 2588 264 0
124 1316 402 0
-1214 -2830 129 0
2647 162 1127 0
-548 2526 1822 0
1607 -1774 -2206 0
-101 -2511 2210 0
2394 -287 484 0
570 -1209 2029 0
1356 -2947 1567 0
-2998 -2385 -1278 0
2323 -77 556 0
849 -2963 -1963 0
-358 1113 1418 0
189 -33 771 0
2743 2225 -2508 0
-1690 6 -1960 0
-2742 554 1408 0
-69 1042 -358 0
-2914 346 826 0
929 -2133 -269 0
-1554 -596 2950 0
2637 2469 588 0
2892 -2602 27 0
-632 1322 -1060 0
2951 -1490 -1410 0
-315 -2012 -183 0
242 -1047 -1504 0
-918 423 -2890 0
-1937 2457 -1178 0
-1831 -766 -2932 0
-2963 -136 981 0
1544 2926 -170 0
-649 31 673 0
-555 2000 -2020 0
988 -2076 -591 0
-55 2811 2564 0
331 2285 2435 0
-1542 -2121 -2025 0
-1292 2146 1453 0
1959 1479 -1890 0
-1364 -2270 65 0
465 319 2021 0
101 -2970 -2847 0
2403 -2594 1351 0
-2045 1418 -1809 0
-2338 -910 2229 0
-1538 2804 -1445 0
-92 -1462 1196 0
-1810 -2295 -1084 0
-2458 -551 1461 0
494 -478 -1783 0
-1183 2047 -2059 0
2950 -2977 2975 0
2287 415 96 0
-1746 61 -54 0
-84 -2973 2096 0
-2350 851 1148 0
-645 1709 658 0
-1838 -1972 2818 0
-406 2954 489 0
1074 1438 -2905 0
194 2098 2896 0
620 1574 -950 0
136 -1872 -625 0
-2619 1440 -1017 0
-293 2324 2581 0
1778 1433 1383 0
1562 -1520 109 0
2557 -135 2891 0
1619 2104 1468 0
1129 2043 1061 0
2095 -1145 -2440 0
-691 12 -424 0
667 -568 -1135 0
-369 2151 280 0
1218 1333 225 0
1951 1979 -2154 0
-117 -2706 2162 0
2786 -2762 1103 0
593 1576 1958 0
-2738 -128 -1334 0
1127 -671 -465 0
-152 2062 1562 0
1341 2377 1822 0
1288 -1407 -1695 0
-38 1790 1994 0
-2663 -727 572 0
1262 -1315 -418 0
-2034 1160 -1714 0
1812 2131 2338 0
-800 -289 2821 0
-1222 1948 709 0
-2164 -701 -1453 0
-211 1056 2209 0
2146 677 -2008 0
-1595 365 320 0
2970 282 -2827 0
1482 -452 1738 0
994 1528 -1006 0
2073 -2452 2209 0
962 -901 1756 0
2136 -444 -2542 0
1457 844 1127 0
2952 -1778 -2284 0
877 1153 1353 0
-1708 2978 -66 0
-801 1039 -2317 0
-2533 701 -2432 0
2154 1050 821 0
1829 19 -1985 0
1230 104 638 0
-2964 -2035 2911 0
815 -54 489 0
1560 1125 -125 0
2128 1149 328 0
2875 -886 118 0
-965 2806 2534 0
478 -1460 -223 0
1556 747 -1041 0
2999 1720 1411 0
1977 2085 -2570 0
-1982 561 -1637 0
2234 -2580 -98 0
-629 481 -755 0
2300 -124 2233 0
1364 505 -248 0
41 1169 1160 0
529 536 -2164 0
-1488 -249 -2791 0
595 2186 111 0
1839 -1037 401 0
-2473 1200 1822 0
-2043 -2111 1897 0
180 1163 -2110 0
-1683 -1694 -2004 0
1270 535 2935 0
1125 -1742 1359 0
91 -1547 -2347 0
-1634 1679 1319 0
1730 -2230 -1630 0
-1190 2981 -332 0
-1207 -268 -1718 0
1520 -626 -2802 0
2077 907 179 0
-2213 -1267 -2799 0
367 32 2449 0
-1324 2430 -1348 0
-2901 801 1091 0
-1889 -685 2583 0
2662 -639 -2703 0
270 2238 1259 0
-1232 -563 1160 0
-2760 -1712 436 0
1779 2394 -2906 0
-696 903 -432 0
845 276 2363 0
-1784 546 2808 0
-2107 -175 -1390 0
-177 195 -1698 0
-39 -1915 453 0
-1923 614 837 0
612 2297 -1851 0
1054 112 -1712 0
438 569 1282 0
1989 -1506 -1933 0
525 526 897 0
-275 -2408 220 0
-794 246 2307 0
1602 -2244 1931 0
1886 -328 -1078 0
180 -496 -1389 0
2459 -1851 1646 0
-797 -984 684 0
2903 1874 -2225 0
435 1559 -793 0
-1451 -1633 -1392 0
189 -1667 1688 0
-1073 -2950 -684 0
-2796 -208 2290 0
831 -416 2583 0
254 -1178 1390 0
-1294 -1071 1850 0
-1560 -1512 -2223 0
-674 -614 -2162 0
2875 -1045 1100 0
-218 -204 2941 0
-1665 345 -202 0
-2307 -194 -2605 0
1782 1526 139 0
51 -485 1163 0
2051 -288 1408 0
-2581 -2451 -843 0
478 -777 1785 0
-1930 -1042 -763 0
-1163 691 -1431 0
-1084 -1237 -1630 0
-1694 -1979 -1020 0
558 1845 2501 0
1436 847 1581 0
-831 8 -1441 0
-2710 1901 1287 0
1680 -755 1490 0
126 -31 2627 0
-2185 107 -2422 0
2986 2195 1994 0
-2967 1660 -1534 0
-2811 918 -590 0
1057 294 542 0
1205 -1914 1745 0
824 -1600 -2077 0
-2910 -1801 -2831 0
-1969 -2230 -1881 0
1968 1437 -407 0
-1999 1994 -1173 0
1636 -1697 -772 0
-1808 -1196 472 0
2837 217 1045 0
1854 -30 -29 0
386 -2883 -2292 0
1380 -543 860 0
-2111 1538 347 0
-101 -986 -416 0
-1283 -365 1320 0
-505 539 -2095 0
760 -388 207 0
2733 -59 2386 0
903 962 -388 0
-2172 -2876 -2321 0
-1480 1298 2543 0
-1458 -1437 -1323 0
-2678 633 364 0
-2474 -1844 -859 0
-951 -1887 67 0
-59 -1409 -2771 0
-2823 -672 544 0
1512 2534 -1436 0
-2853 -2143 -142 0
938 -565 -1427 0
2489 522 -1675 0
-2316 318 2080 0
-2496 -2648 1939 0
2839 861 -2725 0
2006 761 -2819 0
1031 2487 2174 0
-409 2956 -573 0
-2506 -2599 -673 0
480 -1799 -876 0
-2184 2144 -2629 0
2823 -1614 1644 0
-650 135 2556 0
1381 145 -1984 0
-1590 -2682 -2016 0
139 833 541 0
2602 -2502 -556 0
-1398 -2826 2008 0
-1749 1538 -1103 0
2559 44 -2690 0
120 -1221 -1232 0
-2561 -624 2476 0
2322 309 2816 0
112 2634 -725 0
1942 1732 -321 0
-2578 -470 2213 0
1338 2629 -806 0
932 -2399 -2559 0
-2973 -274 -959 0
-108 2402 -2685 0
449 2852 1020 0
2861 -2303 1193 0
-619 -2433 1868 0
2731 -434 -241 0
-1334 -31 -1072 0
1416 -461 66 0
-1400 -1197 -1244 0
819 -1155 1885 0
1117 -2206 2019 0
2811 33 -566 0
2698 -1701 -2861 0
2584 282 1926 0
-2361 -1518 2930 0
-1336 -725 2598 0
2494 1635 -193 0
511 137 -2869 0
-230 51 -2200 0
-2143 -1082 719 0
-1274 168 -2541 0
-964 191 2731 0
1025 -2588 1094 0
-611 921 -188 0
-1416 -2463 -2456 0
-2042 -1215 2186 0
-447 2569 -1469 0
-933 1908 -455 0
1204 -2496 -2571 0
-2210 2851 2474 0
1037 2197 -1225 0
-2267 -2382 -1818 0
-450 1753 2631 0
-1272 261 2896 0
-1717 -676 -2030 0
-1553 -1405 -715 0
-1213 3000 1493 0
-1486 -2996 -868 0
-2073 474 -1957 0
-116 1213 1553 0
-389 739 -2254 0
68 2431 238 0
-941 1248 -239 0
-1775 903 -142 0
-2263 -1870 1706 0
1117 2448 1608 0
2953 1813 1759 0
-1514 2272 -2133 0
-967 1809 402 0
2053 2384 -77 0
1651 -1492 368 0
-1353 -1513 1908 0
1846 -2084 -1261 0
690 1421 -768 0
-1001 1972 -2207 0
-164 1548 -1486 0
8 2190 -2744 0
184 2679 2227 0
1856 2200 -1882 0
2478 -470 1537 0
-2648 -2565 -671 0
-926 2100 -1090 0
2835 -2300 -2026 0
269 -2006 1788 0
1766 -2030 2127 0
-205 1465 -1046 0
2822 1999 966 0
752 -2329 1858 0
1417 1872 83 0
1298 1539 -296 0
2207 -369 2862 0
1593 -2398 -1962 0
-1569 -724 127 0
1711 2954 -175 0
-2161 -330 1244 0
-1038 856 599 0
-1590 -441 1567 0
2543 1665 553 0
1378 2104 -2506 0
2149 2875 320 0
-937 2094 1740 0
-2479 -2767 1835 0
2483 -790 -1411 0
189 2208 759 0
-2210 -2778 2418 0
2799 47 2972 0
-564 401 1334 0
-834 -2619 -1029 0
-1858 2644 1030 0
2399 434 1930 0
-654 2744 1017 0
-2999 901 -529 0
-2637 -1255 -57 0
-446 2777 -981 0
-394 1620 1080 0
-1476 2781 -2087 0
-545 182 -2510 0
1466 -2096 -239 0
-2944 -1909 -19 0
2774 -1256 2646 0
-1762 -2733 -2585 0
-810 -2509 -1209 0
-2641 2036 -2165 0
1228 1615 -640 0
2369 -2604 -2636 0
-1439 -1736 2240 0
-2171 -2100 -538 0
308 -2840 -670 0
-1312 671 -676 0
177 -2234 2048 0
1817 -1737 2360 0
-2554 202 2925 0
1562 1605 337 0
-1914 -393 -231 0
2397 581 777 0
2613 1543 -1624 0
-2417 2406 -948 0
-769 2529 2995 0
640 1050 -796 0
-197 -679 172 0
1842 2476 -2705 0
893 -1309 -208 0
398 1799 -2178 0
-1898 1705 2300 0
2450 -8 -2315 0
-1063 -1516 -2477 0
-1236 2598 1556 0
1466 -1251 1001 0
-1253 2722 -2104 0
2194 -1118 -56 0
-2720 -2970 2625 0
258 2246 2308 0
2973 523 -1767 0
-313 2505 445 0
2892 1036 1857 0
-1935 1651 2526 0
2491 -1384 2521 0
1437 -2933 1668 0
2923 -816 -1359 0
1116 1518 1545 0
614 2174 361 0
1354 70 -1074 0
549 -299 2796 0
233 573 461 0
-1670 1400 1913 0
-1270 2424 1498 0
2450 -779 973 0
-1111 -833 -1158 0
-2048 2727 -730 0
2396 -2784 -1607 0
-1281 -1345 1918 0
-1560 -2236 -98 0
2089 1491 255 0
2353 1799 62 0
1397 1809 514 0
1199 1099 1936 0
1233 1308 564 0
1109 932 -1764 0
2040 -1468 543 0
730 907 1441 0
-2695 -1056 2735 0
1124 -1815 410 0
-2289 -1130 -1757 0
2556 -66 4 0
2527 -2380 -105 0
-2930 1703 2220 0
479 1943 -1256 0
-2121 -1298 1115 0
-2414 -2260 -2641 0
-2693 -2018 -1767 0
-1908 2795 -1184 0
555 -1661 -484 0
-2504 -1194 -267 0
-491 -1494 2909 0
407 -1638 2025 0
-2967 422 1342 0
-1082 -907 951 0
156 -7 2700 0
1692 1637 2719 0
-228 -2447 -1209 0
780 115 141 0
-1753 495 -1054 0
-1216 -1798 -2671 0
1272 -327 2033 0
-1618 -2727 -538 0
-765 -2725 31 0
2159 -1222 -2144 0
406 2255 -1735 0
2760 -1783 -412 0
-526 1763 1116 0
-1219 -1915 -2563 0
-264 -867 -425 0
-1122 -1006 123 0
2471 528 -2063 0
342 -608 -585 0
259 307 -1878 0
2126 -2502 1618 0
-1351 680 -531 0
-1030 1632 -1230 0
-1384 2252 838 0
1347 -2539 853 0
1917 2194 -1005 0
-1196 -1360 -702 0
29 -2241 341 0
2543 -1028 2577 0
1460 -1432 -1342 0
2144 -2664 1408 0
-380 381 1676 0
793 -173 1246 0
151 -1266 -1798 0
-2439 -747 989 0
2371 -504 -2691 0
265 -553 783 0
-719 1245 -820 0
550 -1143 -2342 0
-2810 1776 -1490 0
-1161 -1760 -2409 0
2300 -692 -2009 0
1562 -2235 -2578 0
1736 1321 65 0
-326 581 -2361 0
2386 -1071 1121 0
251 1521 1158 0
2091 1364 2978 0
-1260 716 2418 0
-264 1727 1237 0
836 1076 -1758 0
-2289 2943 57 0
445 -2017 1055 0
1811 1440 1584 0
-228 -176 886 0
492 -478 -1071 0
-2502 -268 -650 0
-1812 756 180 0
-479 632 -1631 0
1436 1353 -2718 0
-604 -1021 -2221 0
349 1716 -405 0
-680 -373 2763 0
-2429 -1883 -314 0
-400 1873 -1717 0
-563 -1232 -2247 0
523 1514 -1315 0
-2554 242 -2802 0
705 -1900 376 0
-1337 -1661 -1124 0
1158 1621 -176 0
-2664 17 -2247 0
2727 -1266 -2822 0
-1565 -2678 -538 0
2670 -606 -2172 0
-1576 2121 -1819 0
-334 2566 -136 0
493 -1619 518 0
-2088 -2744 1129 0
627 -973 459 0
-1165 2380 668 0
-2460 -332 -739 0
-1220 -1583 -1965 0
-1619 1409 -2359 0
2460 720 1745 0
-2696 -1922 -2005 0
844 -1328 1726 0
2977 2589 -924 0
1903 2235 -154 0
-360 -38 325 0
-1869 196 -2717 0
-2076 -1847 1642 0
-1697 -2994 -2838 0
2081 193 -1637 0
-2713 -157 -1752 0
-1762 2689 -1340 0
992 88 916 0
-2539 446 1630 0
-2545 565 1967 0
-2772 -2967 -2607 0
-610 -2504 -1498 0
1629 -2850 589 0
-2863 1527 900 0
1553 1691 800 0
147 1942 1951 0
-1457 -1328 1083 0
-54 -2958 1283 0
-2247 363 1959 0
2469 -921 363 0
-349 -956 2779 0
1041 900 2183 0
29 2040 -2431 0
-2599 -2363 -1173 0
561 -71 -175 0
461 2293 -1351 0
-489 395 408 0
2396 987 2005 0
-62 -2742 -2069 0
623 155 1580 0
175 2211 -1013 0
-1824 922 2345 0
192 -2161 -1522 0
-727 2753 1981 0
1202 131 -681 0
-936 -626 -1263 0
-2040 -2821 424 0
-2667 687 1941 0
-1853 1577 709 0
405 -141 -912 0
2264 2831 -1809 0
957 2021 2658 0
-705 -372 -765 0
765 -2967 2062 0
-1119 -2685 2258 0
1160 2333 -76 0
-1659 2655 1636 0
-550 -1871 -89 0
1275 -2252 299 0
2948 20 1769 0
-2167 -1084 1263 0
2229 -2628 1919 0
-1827 2383 -2026 0
-874 -1185 401 0
778 -1905 -2790 0
997 2734 185 0
1485 2488 -2795 0
389 -2951 -2542 0
-784 -2687 -875 0
-1420 -1260 1963 0
-1795 -1197 1784 0
1150 -2595 2741 0
549 1628 2267 0
-2187 2614 -1598 0
-1033 -1116 -1620 0
2288 1919 1066 0
-2975 2896 -858 0
-2739 -1961 1329 0
967 2211 70 0
-1687 1321 -1758 0
-2068 1836 436 0
652 -2901 -506 0
-348 -1949 -2931 0
-2763 992 1120 0
1827 -561 2718 0
1156 -2341 2055 0
2342 1539 2446 0
-183 571 -858 0
-1865 -2217 556 0
-2609 -364 2955 0
-1575 -76 -1965 0
658 688 -1988 0
-1753 -145 -2428 0
2826 1278 -786 0
-1388 -182 2651 0
1177 -2062 2876 0
2017 1421 120 0
-890 -2000 -1029 0
1418 -1567 835 0
2956 -2987 729 0
-2061 216 1858 0
2176 422 -514 0
-691 2169 -1141 0
-2007 2023 1994 0
-812 -1713 -1258 0
-1198 1433 550 0
1386 -2913 -862 0
-2881 588 -837 0
757 -210 2648 0
2717 -1472 893 0
-2345 1536 428 0
2480 2425 -1064 0
2520 1288 1877 0
970 -1345 -2569 0
-2702 1731 454 0
-2739 2258 2976 0
585 587 1865 0
-1938 -390 -2979 0
115 -1052 2519 0
556 2853 -2668 0
-1040 2573 -669 0
-1928 119 -1136 0
-821 -2146 -1775 0
2796 -1043 729 0
830 1780 1913 0
2445 988 -892 0
1731 -2991 -171 0
-2331 -1150 -2155 0
436 -1102 1004 0
-1687 1076 757 0
-2452 -2670 2476 0
-1160 -2442 1357 0
1061 104 -586 0
-102 1119 -1727 0
143 -194 554 0
-769 42 -594 0
-1165 1883 1985 0
-1357 424 1573 0
2558 2000 834 0
815 3000 -1131 0
-992 -979 2433 0
2726 -1119 1467 0
-2979 -1067 765 0
-668 -2425 2358 0
2781 250 -1830 0
214 891 -2235 0
-146 -39 2239 0
-751 -772 2630 0
-1551 -2958 -841 0
-2211 700 835 0
858 -1546 -552 0
-1976 -1721 2052 0
1081 -2608 -2468 0
2387 2170 372 0
496 2621 2527 0
2062 -813 2839 0
-1271 875 2658 0
1148 -2057 -741 0
1248 511 1412 0
-1216 -2732 -867 0
1288 1144 2980 0
-1298 1272 104 0
-321 -1018 -1120 0
-1935 126 -2051 0
1461 1767 745 0
2258 -2161 -2079 0
702 2370 1995 0
312 -788 -2283 0
1888 332 -2824 0
-2554 2779 -2811 0
2072 -2242 2825 0
-1519 -138 1622 0
-2 -2126 1725 0
1897 2447 2793 0
1285 -1828 1976 0
662 2886 -1394 0
-250 -348 -833 0
-1764 1910 -2089 0
-2790 2511 1485 0
2711 -2878 -359 0
-2019 2194 -2084 0
-2998 79 780 0
1275 2890 2436 0
1498 463 -820 0
477 -879 2723 0
1573 -1527 1612 0
-1452 -869 -2559 0
-1092 -2224 -1740 0
1186 -1325 1695 0
630 1329 -1984 0
1896 270 -1200 0
-1835 -2233 -2787 0
2237 548 -2529 0
-42 622 1244 0
-455 2248 -2671 0
1149 -117 -39 0
2176 2898 1663 0
-1104 873 -1464 0
1029 -1165 79 0
2314 2463 140 0
-1274 452 -1036 0
1200 -607 -1562 0
-2244 495 -2331 0
2838 -211 -889 0
-2346 1395 956 0
-2025 -1787 -1680 0
807 29 -178 0
-2284 -2848 -2372 0
2686 -2049 -2351 0
1193 -2345 -413 0
83 -2938 -712 0
340 -2650 1664 0
-1272 306 -116 0
-1737 -1960 1018 0
2485 -1480 307 0
-1761 -1662 -1945 0
2221 -2375 1034 0
2247 -858 -1366 0
324 1146 1567 0
-47 240 -2589 0
-770 -1108 -2099 0
-1775 1222 -2726 0
2512 -2073 -976 0
1786 2981 -794 0
-1483 2947 1107 0
836 717 1646 0
2462 -1864 -2354 0
-1832 -453 -1989 0
-1569 -2329 969 0
1715 2494 272 0
1129 -2161 2689 0
2632 2896 2996 0
1929 1149 -1340 0
-1648 -2580 2328 0
390 -1082 2559 0
1528 -2148 528 0
2837 473 422 0
796 1710 -36 0
-2419 -472 1891 0
-786 -1361 -2969 0
2490 544 -2255 0
-2094 1574 -988 0
2592 -147 1830 0
1939 -2236 -56 0
928 -2878 1086 0
2062 2177 -2989 0
-1360 -2489 -2573 0
827 -2871 2458 0
2974 -1210 -2058 0
2307 -2144 1774 0
-1021 -639 -971 0
2302 -727 -1471 0
-2962 -334 337 0
2295 2737 1631 0
1594 -160 -100 0
-2843 1710 -1136 0
284 2411 -45 0
-1870 -785 1478 0
-298 1496 -1743 0
-329 2396 938 0
-1674 2810 -2972 0
2282 -2678 -2133 0
2442 1693 760 0
1537 -1591 -2820 0
-199 2422 2976 0
61 1910 1964 0
-1506 1557 696 0
167 -2578 1850 0
2140 -1122 2312 0
939 -2535 2312 0
1732 -428 -1629 0
-2309 2478 -2602 0
2935 -1784 -1586 0
-347 504 2428 0
-52 1294 2602 0
-1856 -223 1251 0
-1972 721 -387 0
-558 -2835 -199 0
1177 2181 -968 0
-228 1068 2505 0
2528 1090 705 0
909 -2024 -2100 0
2765 2121 -1881 0
1886 492 405 0
-858 -448 2741 0
-1937 1573 2598 0
-1852 -2104 -2054 0
-2236 944 2714 0
1662 -1778 -217 0
-2815 410 510 0
2233 294 -266 0
-179 304 -1741 0
-369 -1677 -2603 0
-1491 -770 -785 0
1828 2662 792 0
-2276 1555 739 0
-1465 -1799 2581 0
1771 1779 -1585 0
662 2883 -1249 0
2731 724 2390 0
-2184 872 -487 0
1649 -1765 -461 0
-305 277 1426 0
1459 2451 -58 0
2592 2027 943 0
-270 2493 1832 0
2788 2442 1309 0
-1564 2495 1951 0
-141 2316 2115 0
1944 -2201 1914 0
1210 -1313 -711 0
-819 56 2903 0
-2548 -69 226 0
-1332 -772 -2220 0
2398 2546 2505 0
-1934 -2221 -2587 0
-2919 -1843 1272 0
267 -699 -522 0
-2726 -2114 515 0
664 -2011 -787 0
-2806 -1794 -2718 0
791 -957 -2599 0
90 1171 -793 0
2377 -277 2998 0
904 -1234 -1534 0
2575 -2075 128 0
-2223 -2454 -190 0
1925 -2348 491 0
-2087 749 1516 0
-2593 188 1612 0
-1896 -389 2807 0
-2548 -2511 1510 0
-181 -155 2054 0
1712 2100 2275 0
-1792 1039 843 0
237 2669 222 0
1858 -1457 840 0
2881 1360 -2883 0
-2960 -895 2054 0
1695 -22 -3 0
2010 1180 -1120 0
477 -2679 1197 0
-2859 2744 -1261 0
-601 -657 1199 0
-1575 -350 2560 0
3 1622 -2532 0
1328 -2117 2017 0
1368 78 2267 0
1227 442 671 0
934 189 -1360 0
1353 -2246 -511 0
-133 2264 -720 0
1225 -1050 -764 0
2744 -2925 -401 0
-2093 1810 -2302 0
2383 -1118 1167 0
962 -295 414 0
2281 -1492 -1730 0
-36 2922 656 0
-160 -928 -9 0
-179 -2778 22 0
-1948 2037 357 0
-254 51 2595 0
855 -1451 1078 0
635 -1719 186 0
-1899 -1145 -2633 0
-2246 1300 -1853 0
-1556 -2428 -1136 0
-922 -2628 -1626 0
-2511 -937 -2020 0
-2014 1607 2671 0
-803 -1042 -1531 0
-789 582 2194 0
-281 -2014 -1201 0
-495 -1449 213 0
-144 1399 1928 0
537 -70 1215 0
-1621 -1079 -440 0
1966 -721 -1702 0
-90 1260 856 0
1327 -1964 1735 0
-2809 -2393 931 0
-759 394 -835 0
-2898 60 -2101 0
-2559 -2072 775 0
-2270 -2346 -1448 0
-1011 -1628 -2639 0
2028 -2881 -2626 0
1152 -2587 -1543 0
-2303 1428 -1927 0
-2860 1924 -1961 0
204 2952 -156 0
1154 974 1820 0
-1090 -728 1405 0
1992 -2563 701 0
-1721 -2577 -997 0
8 1085 -1205 0
-607 -2223 -2885 0
-2874 -2326 -644 0
-246 1568 2352 0
1323 -748 -1739 0
2715 1437 -2709 0
-1900 -1081 665 0
-2516 2082 -1627 0
-719 1171 118 0
-2465 -975 2813 0
-2540 -571 304 0
1624 -872 -1241 0
1948 427 -217 0
-2118 1219 -2282 0
2625 99 -306 0
2836 1636 1268 0
-2075 -697 -2254 0
2145 2347 -2328 0
1103 1726 2167 0
-2565 -2098 -1418 0
-2135 -1591 -178 0
-1548 -1980 628 0
-2135 -1441 -429 0
-476 1926 2390 0
-696 -1548 2507 0
-2576 573 624 0
-2231 -562 576 0
-2339 -284 2462 0
-453 -1080 1179 0
1704 -1109 288 0
-1519 2170 -2165 0
584 -631 -287 0
-574 -1621 -77 0
-386 -313 2370 0
-579 -2699 1873 0
-75 -901 615 0
-901 -2073 -388 0
-44 -1599 -2684 0
1276 -615 1650 0
1541 -791 1170 0
-1433 -815 2870 0
-1018 -1534 -1003 0
-1607 -2290 5 0
-1456 2879 1426 0
295 -2358 -126 0
2992 -128 2336 0
-1327 -2730 -2752 0
-1454 -1616 -1719 0
1669 248 -1946 0
-1301 1523 2462 0
1274 1184 -995 0
2272 1063 -1492 0
-2634 2789 1354 0
2813 -2887 769 0
826 -2904 728 0
-2704 2265 -976 0
2292 655 2693 0
-930 1415 1525 0
356 1401 -496 0
1606 -2960 2064 0
617 -226 843 0
-811 236 -2908 0
-2602 1460 1116 0
2214 -389 2454 0
36 -64 633 0
-651 -1014 -740 0
2341 -1921 1791 0
-1015 -1470 -1485 0
-1327 148 -1873 0
-879 -208 -1137 0
-1478 -2150 -2067 0
2789 -685 975 0
-1542 2471 -1618 0
-1571 -2005 -1613 0
-1715 -2097 1519 0
-1466 2336 -1592 0
367 -737 722 0
-78 559 -1772 0
877 2509 -2701 0
-1284 716 -2682 0
860 317 1268 0
-548 1446 -2650 0
2783 1593 -2103 0
928 -2958 1884 0
242 1691 -1013 0
-1442 -1875 1955 0
1084 2515 1088 0
2885 -96 -884 0
1316 6 1630 0
1498 -313 2685 0
1305 1595 2172 0
2960 877 -2133 0
-642 -876 -941 0
1570 -157 -2674 0
1862 -2250 1118 0
-26 -2887 -194 0
-820 -1459 741 0
-2551 -147 -537 0
-2504 -2300 -2385 0
-1141 -480 -311 0
-1785 444 -745 0
-1515 -727 2841 0
88 -141 2307 0
1168 -2636 1644 0
2085 -696 -1286 0
1038 128 2741 0
-907 1059 1939 0
719 670 1936 0
2239 699 2234 0
-2536 156 2324 0
2616 2352 49 0
310 -861 2589 0
-366 -2693 -2165 0
2465 378 1447 0
-1342 291 1771 0
1293 468 -478 0
-862 2962 -162 0
-158 -766 -889 0
-2768 -2086 2001 0
-7 1826 -1405 0
1322 -522 1731 0
-1495 2529 -2222 0
-2967 1421 2380 0
395 -113 2972 0
972 -2308 -595 0
-2274 1298 335 0
693 1289 1423 0
2061 -2791 -2423 0
2466 -2434 1929 0
-1310 -2625 -1004 0
1630 -1983 1016 0
2796 1707 -1967 0
2937 1458 912 0
2672 -1531 1572 0
348 -2465 1627 0
2213 145 2619 0
1923 1234 -2347 0
-1525 -2285 -764 0
642 -2612 -2781 0
1889 2703 -155 0
1783 -2068 -2278 0
2431 646 2207 0
1573 -2946 303 0
291 -238 -906 0
-2049 1568 1677 0
-2076 1341 -2602 0
831 393 -2751 0
141 2791 1305 0
-410 2734 -331 0
-679 2112 -890 0
-2969 -972 916 0
1677 1424 52 0
-1178 -378 -249 0
-2975 -1440 2439 0
-1994 -2097 -1201 0
215 -2650 423 0
1737 1060 2145 0
-2024 1289 -1647 0
-2512 2916 -2230 0
1950 542 -60 0
1746 -812 -2038 0
-2442 -2145 2034 0
-1293 -1603 2664 0
2406 794 -1579 0
-861 -1530 1455 0
2081 113 -1128 0
-1833 -2544 2794 0
-2446 -360 -2972 0
-951 664 1210 0
-188 53 -2743 0
1968 -2987 -360 0
-1208 -593 -895 0
1780 1394 2302 0
951 1387 578 0
-2787 1363 2957 0
-1427 1031 855 0
2628 -1503 -107 0
-31 -1348 -2387 0
1159 -2758 420 0
632 -2701 2023 0
1166 -1696 2576 0
-2162 1811 -610 0
2341 -1024 -434 0
1664 1289 -2036 0
1460 10 -551 0
1411 -241 -2255 0
658 2379 -789 0
1651 -2381 -780 0
74 1665 -1285 0
800 -465 420 0
-1816 438 2163 0
-873 -352 -1826 0
1590 2825 -2184 0
1455 927 2099 0
2751 -323 2424 0
-2202 -1843 -2562 0
-162 -122 194 0
-2247 2157 -1633 0
2320 36 1503 0
-1766 1911 2431 0
879 -1298 2429 0
-2347 -194 1374 0
-2024 29 2066 0
-2845 1978 -2345 0
85 100 -2467 0
-2258 -2000 -1408 0
-2112 2948 -2922 0
2436 1742 368 0
-1410 2106 2646 0
-2065 266 336 0
600 1450 -1236 0
-2912 2353 -775 0
371 2676 -238 0
-930 -2267 -2854 0
-1293 -2008 -74 0
-1710 2836 -730 0
-696 -2595 -1204 0
-2909 -1817 2122 0
-1509 1338 1966 0
1027 1251 -2367 0
-1447 2798 2318 0
-1393 2535 1100 0
-1288 -1456 -2416 0
-1076 2453 1650 0
883 105 -2428 0
-1746 2029 2396 0
-762 -2405 1394 0
250 -1604 1541 0
-2070 -2076 -1152 0
-778 -2006 1419 0
1058 -1510 960 0
-746 865 1309 0
-1180 -475 -1396 0
-312 1542 1552 0
-76 -294 -420 0
-1862 2085 443 0
-241 2591 -396 0
1317 -889 -1779 0
2309 1441 1790 0
-229 -2374 2319 0
1599 2349 -374 0
231 -925 2245 0
851 1614 927 0
-1340 2550 -1568 0
2240 2841 -2384 0
-1091 2304 2080 0
1227 2437 2960 0
1187 161 -1337 0
-1495 831 -2440 0
1749 -2122 -446 0
1632 2343 -22 0
-2777 927 -2786 0
1317 -87 1762 0
1008 -568 2999 0
1502 -2724 -823 0
1147 -314 -2668 0
-379 -2322 -1282 0
1487 2842 -1695 0
631 -84 -2205 0
1834 -2816 73 0
-1264 508 -413 0
1795 -2434 760 0
-237 -573 -1558 0
-2107 2370 2662 0
1921 393 2976 0
842 -2594 -428 0
43 2797 -2176 0
787 -2111 429 0
-79 1115 -586 0
-1591 2272 -2101 0
-2090 1056 2922 0
2584 2663 -1229 0
-841 -2888 -1367 0
1310 2858 -899 0
1497 -1502 -1485 0
-2026 155 2666 0
-190 1276 1697 0
-1476 -2792 54 0
-1681 -1494 531 0
1804 2568 -28 0
1839 -1466 1334 0
746 -1318 888 0
-605 338 -1068 0
2630 2737 2218 0
-602 2130 -1022 0
-1966 2904 2445 0
1076 -1733 -2751 0
-2805 2264 -1221 0
441 1756 -978 0
-2394 2881 1215 0
2158 2593 -471 0
-477 -1900 -2484 0
-44 654 2973 0
2710 75 -718 0
-1952 976 -714 0
-723 279 -1315 0
1463 -2839 852 0
476 2584 1792 0
540 29 2789 0
1496 -1625 -2674 0
-245 -573 1531 0
-2331 850 -1026 0
1544 -625 1649 0
-2405 -40 -708 0
-1971 -432 -1302 0
1023 -1166 791 0
2246 -108 1516 0
1673 1106 1724 0
-1376 1477 2264 0
-2709 -1034 2660 0
-891 821 -869 0
-1310 -2875 -2550 0
-1176 2519 -1364 0
-342 2974 -1476 0
2760 -596 -1851 0
-439 -2028 2789 0
2286 -201 -1143 0
2582 -1463 1551 0
-2152 1276 -1537 0
-651 1337 -2322 0
-1602 -1009 -854 0
-329 1560 2672 0
113 2015 -554 0
-2524 -1655 2029 0
-364 608 2557 0
2194 -1624 1009 0
-1986 822 -2803 0
-787 -2781 2664 0
1441 506 2082 0
1715 1925 -1141 0
-54 1709 2454 0
-2852 2814 -23 0
-1623 -2495 -1772 0
1711 -943 1771 0
1034 -499 2644 0
1542 94 -22 0
-2823 -564 2802 0
1305 -1126 2032 0
-2396 -2677 -610 0
2184 61 -1039 0
-354 -1398 626 0
-544 -2826 -170 0
-349 2305 848 0
-700 -787 -1572 0
-1045 190 -1460 0
1986 2702 -954 0
2731 230 -1754 0
-1106 -749 2641 0
1410 1851 231 0
416 1779 -255 0
-1243 -2561 -1193 0
2634 -2043 -865 0
1225 -928 -876 0
2996 2076 -1032 0
2350 2236 -884 0
907 -1140 1927 0
977 1465 -123 0
991 -1905 -1658 0
897 -2727 -2742 0
-2359 -477 -2698 0
1719 -306 1628 0
970 -2402 840 0
-218 251 -836 0
-1786 -2044 -105 0
-33 -2939 -765 0
-206 1173 -1378 0
-301 -1412 -249 0
2743 1246 904 0
1951 -2492 -1161 0
-1622 -1526 -2617 0
-841 744 1502 0
-2806 -898 -2930 0
1902 -2632 1533 0
-2287 -2681 706 0
-13 -1213 -599 0
-927 2082 -1201 0
-1497 1232 -695 0
344 -809 -1241 0
798 73 -433 0
2281 2244 1892 0
2329 2450 -1848 0
1811 -292 -721 0
2005 36 1301 0
1654 437 -2408 0
280 -1165 -916 0
-1152 87 -2997 0
-268 -740 -1662 0
-1562 325 -159 0
1366 435 -531 0
-2432 1240 473 0
2263 819 1551 0
-1837 -1887 1478 0
535 -1668 -2113 0
-2868 2538 -1110 0
-1104 582 -1127 0
-47 1915 574 0
-954 -1024 -605 0
-1739 366 1634 0
1355 144 965 0
-1742 1697 2036 0
1427 -130 -1240 0
1113 2915 -1148 0
-285 1145 -1694 0
-1280 -2087 -1047 0
-1729 -2895 37 0
1711 1368 -1759 0
2515 589 991 0
1735 73 451 0
2181 -1231 1682 0
283 2589 -397 0
-2975 -2764 -284 0
746 -2527 2256 0
-325 512 2239 0
2135 365 -2367 0
-2399 -1083 447 0
-1939 -2253 894 0
-1431 2905 -2998 0
-1572 2554 -489 0
-566 2053 -1466 0
2026 2413 1631 0
1745 1153 296 0
2020 -2725 1348 0
-2897 -527 -1888 0
2284 -1856 -878 0
-2377 1890 2507 0
-397 -2679 2218 0
-594 643 -850 0
-2717 -1806 603 0
-757 1643 -2084 0
2757 -2673 1486 0
771 2904 -2062 0
-1232 853 2151 0
1024 -843 2950 0
-1665 -343 2829 0
847 -1044 196 0
1565 -1353 -1920 0
2233 1685 -2536 0
-2791 -1057 627 0
1888 1388 -66 0
2365 214 -268 0
104 2481 -1678 0
-1805 -700 28 0
-2641 -1984 2522 0
175 1437 -425 0
-2478 1090 -407 0
-128 2738 1146 0
-55 -442 1163 0
-498 700 594 0
978 1578 2421 0
829 -1381 -2539 0
2897 154 -316 0
-1256 -2120 -2870 0
2572 -2204 397 0
-2192 304 365 0
-1405 2943 -2178 0
2734 -2689 1994 0
-505 1593 -1979 0
-558 2047 -2313 0
-181 1119 2596 0
-1424 2408 2199 0
1653 -2373 2819 0
-1640 -934 2368 0
2410 -2869 -1679 0
-920 -167 -1977 0
1837 -787 -1849 0
-941 -1059 -2642 0
-917 -2411 592 0
2960 -343 -1799 0
2058 -1261 -2830 0
-1773 -2781 2729 0
1013 -1371 2941 0
1665 -65 -2418 0
-2226 1488 1330 0
-2550 -637 614 0
2793 1571 -2562 0
-2382 -103 -1318 0
2786 -1279 1585 0
-1810 -2814 1331 0
2907 -1658 1021 0
792 -1354 101 0
1700 1745 -1465 0
-2808 377 -72 0
2070 -1795 1106 0
1316 -2029 2525 0
-1453 1889 2119 0
-2176 2478 -322 0
2160 -2146 -1974 0
-2894 -1230 1087 0
-2500 1213 1106 0
631 1767 -2975 0
-2377 2895 1882 0
-536 582 1689 0
481 -2853 -426 0
1088 803 609 0
2216 1884 18 0
2092 2975 713 0
2251 -2463 -1617 0
-2317 -400 563 0
-500 274 2826 0
-584 1741 2641 0
40 -2816 2158 0
963 2090 -1049 0
-2006 -746 1973 0
459 -1004 2516 0
-2758 -1251 -1125 0
1604 -2156 -744 0
1000 1765 771 0
720 -2915 1411 0
948 400 2394 0
1556 -1914 -2482 0
-2768 -2286 -2139 0
992 1127 -1527 0
-2609 -2026 -1519 0
-2141 2213 -2021 0
2877 -1502 -1708 0
1526 1085 2584 0
2458 -2959 -2805 0
-1105 971 1468 0
-2337 -502 302 0
-1552 -915 2366 0
19 -830 178 0
1452 -1490 -2843 0
2731 359 -1886 0
103 503 -2442 0
1380 -1947 1294 0
-116 -2289 219 0
-2573 -365 -2157 0
2760 -659 751 0
-634 -394 -984 0
2353 1653 -2756 0
413 327 -2598 0
1410 -2363 -1604 0
-993 2339 -612 0
1732 -1931 -2623 0
-64 1580 518 0
-2996 2183 -1244 0
159 -2184 1245 0
1663 -2712 -655 0
-2605 751 -2064 0
2340 1424 2675 0
94 2480 -2000 0
-983 -771 -1341 0
-2241 -1739 -1071 0
-1535 2372 913 0
-760 1938 -2579 0
-803 910 -2028 0
1034 -1160 -1335 0
-215 -1852 -901 0
2048 -389 -2424 0
1143 -838 -2163 0
2664 1041 183 0
2629 1085 -1488 0
-2630 605 -1458 0
-250 2895 -2101 0
736 231 2336 0
-2920 -910 1004 0
84 -1398 495 0
-2816 975 2888 0
-2136 -594 -468 0
-2056 2672 -169 0
-24 119 731 0
-2294 1382 -2243 0
1533 -1025 2312 0
763 385 -1117 0
-1346 2452 1820 0
1328 833 -1628 0
-2068 432 -2320 0
-560 2845 -396 0
-1478 2453 -580 0
663 2088 -812 0
-1807 849 271 0
1336 1660 -1489 0
-1183 -144 -2625 0
-2337 -1737 -1952 0
2609 -1438 2407 0
2244 16 -456 0
1101 -216 -1193 0
879 -1825 757 0
-2594 -1146 -1208 0
-1488 1063 -1072 0
1779 -2778 590 0
1329 -1607 -1831 0
2823 757 2972 0
-1602 -827 2801 0
2744 1170 -2204 0
-35 -1879 1369 0
-2194 847 543 0
1432 -553 557 0
-1836 289 -688 0
-1902 504 172 0
1419 2304 -1909 0
1554 -2244 -1943 0
-1838 -2084 2338 0
1713 -218 2902 0
-531 -1328 853 0
1213 -2658 -593 0
2738 445 2161 0
-959 -2693 -119 0
2319 -524 -223 0
2801 1870 2745 0
342 1443 -625 0
1161 408 1474 0
71 1065 -2335 0
2370 2159 2853 0
2117 2164 1836 0
-1101 756 740 0
738 1864 262 0
521 303 2373 0
2170 2371 -2412 0
681 -2559 -2303 0
857 1385 2172 0
-454 -817 -486 0
-1942 -1351 -2554 0
-995 -1383 -1403 0
322 -1055 1418 0
1452 -509 2694 0
-303 114 -1228 0
-2077 1741 177 0
-1693 2122 1413 0
1530 -579 -2040 0
2220 -2387 890 0
1579 613 -1407 0
-871 -2756 -1254 0
1063 1490 29 0
2752 1359 -905 0
2042 2166 -568 0
2395 -2193 -2865 0
2715 2742 -2276 0
2828 2052 759 0
-1849 691 -1394 0
2548 -744 -193 0
-1343 858 -763 0
2964 -36 -2297 0
-1380 1145 2321 0
448 -91 1358 0
-7 640 -2639 0
-1275 -2417 2487 0
-728 300 704 0
617 -433 1250 0
69 -893 -2736 0
744 -1347 1928 0
-1843 -1879 -2562 0
2744 534 2946 0
-1397 936 773 0
867 699 -1650 0
-1620 -2259 -2628 0
2451 -2979 487 0
1629 1405 -996 0
-525 2748 1723 0
849 1514 -527 0
-540 -2779 -1103 0
1636 2852 463 0
-1911 1539 1816 0
2925 -1372 -2422 0
2205 1649 -2758 0
-2849 -739 2252 0
1772 -516 -1083 0
1384 478 1292 0
1651 -621 -444 0
57 1181 2830 0
-2980 1028 2054 0
1224 1317 -2640 0
-58 -1587 2781 0
-1490 347 -2259 0
285 1793 -2500 0
1786 -208 1829 0
-1456 1529 2423 0
614 -1722 -689 0
-2698 -1128 1427 0
-692 2488 -88 0
-2449 -207 166 0
1049 210 -684 0
-1729 2576 2971 0
-416 -2787 2930 0
-645 -2166 -967 0
2414 1846 -1546 0
2651 -1334 847 0
1567 -2196 2752 0
-473 -1687 -2415 0
-1191 -1337 -116 0
1013 1603 1461 0
25 2044 -788 0
2057 2427 -1282 0
-1240 -743 2955 0
1966 -1358 -2795 0
2951 -2329 1972 0
2230 2721 451 0
-304 2324 1538 0
952 -2710 -953 0
-2807 -1676 1992 0
843 2954 -1897 0
122 -546 -141 0
-2336 1737 2271 0
1763 -1872 -2867 0
1209 -1034 -918 0
2392 818 -2180 0
878 548 -2835 0
617 308 2880 0
-1409 18 2264 0
1229 1962 1678 0
-2593 170 1775 0
-1192 -1798 372 0
-161 -1853 -2451 0
-1210 669 809 0
-2497 -43 2938 0
652 -1820 840 0
-169 -769 -2135 0
-1410 -1777 2435 0
-2799 -2129 -2728 0
-119 -2370 74 0
474 475 -193 0
440 -2359 2403 0
-2886 2362 1713 0
1500 -890 2306 0
1143 -109 346 0
-1137 -455 2534 0
-2187 -1823 452 0
-674 1106 -1493 0
921 -942 1313 0
-2615 1004 2203 0
642 -1456 659 0
-2284 2925 -1178 0
-1504 -2432 -1510 0
-500 1299 66 0
2191 -2057 -602 0
1926 -2814 1296 0
2171 2411 327 0
-2745 -1116 1175 0
-1012 2258 -909 0
1600 -406 30 0
2970 2554 -2635 0
-2374 -2311 -789 0
1595 -234 -2004 0
-1681 2841 1282 0
2697 2345 -2714 0
2934 733 -1754 0
-473 1987 -218 0
2534 -144 2943 0
-2531 2936 -2875 0
1198 2890 -2421 0
-1603 2396 -61 0
2407 -327 262 0
2821 -510 -565 0
-2170 515 121 0
-2877 -1674 1644 0
1886 2679 -2408 0
1519 -1346 -2796 0
-531 -1580 -2251 0
2273 388 -1096 0
-2100 -1401 -705 0
-243 2541 -1671 0
287 -1349 2858 0
1589 -586 -142 0
1695 -739 -1107 0
92 -1201 2940 0
1627 482 -2785 0
-259 -442 2344 0
-524 1362 951 0
-282 2099 2269 0
1476 -1320 1876 0
856 -1467 -2710 0
1966 1569 -1777 0
-390 633 -1619 0
-2863 482 -1417 0
-2005 -333 1231 0
-435 -2160 -2875 0
-490 -2260 -276 0
-2099 -1458 -1710 0
-1573 853 197 0
974 -1014 -2870 0
78 -2518 715 0
447 725 -2118 0
-1237 1841 2712 0
2992 -2831 -1624 0
481 2446 1835 0
728 -1001 -813 0
-332 1571 -1007 0
-2002 866 -130 0
2774 293 -2078 0
-820 2564 905 0
-2875 -2227 -1527 0
-1899 1005 1587 0
2587 1451 722 0
-2553 -397 -2469 0
-1831 248 1972 0
161 -2908 -321 0
1789 -2425 2017 0
549 442 -2589 0
467 824 -1688 0
-766 220 2067 0
-1360 2272 2763 0
2052 -2995 -915 0
-955 -674 2292 0
-2886 -1476 724 0
2980 -384 -2425 0
-649 -682 1772 0
-1268 892 -223 0
1050 -1435 1923 0
1939 1180 -1095 0
-2669 -947 -1016 0
2696 -1830 493 0
156 -1782 -313 0
2643 -2434 662 0
-863 -373 1856 0
1943 1868 -835 0
-694 -1796 89 0
1672 139 2867 0
-2936 -1602 -772 0
-2578 2769 -437 0
965 -2875 1496 0
570 -610 -764 0
870 2467 2701 0
-2504 -2485 198 0
-253 1931 -82 0
2502 95 2427 0
-15 -1400 996 0
175 1326 -43 0
61 -299 -1074 0
2221 479 -10 0
-1960 -1034 -2262 0
-510 -2818 2777 0
-620 -1594 -2780 0
-80 2390 -1475 0
65 1491 446 0
1057 667 2182 0
-746 -2438 2282 0
-2107 2037 -1157 0
-172 2735 -2403 0
-2987 -1398 -844 0
-1313 2415 2876 0
-808 -1507 1713 0
1672 1261 -638 0
-2734 1929 -1720 0
2820 -2716 2534 0
805 519 -1527 0
2188 -2934 316 0
-976 141 1668 0
1444 -2399 -298 0
-728 -1587 2471 0
-2054 -387 -716 0
-2454 1934 -219 0
2032 867 1353 0
423 773 -2945 0
-1704 2144 2645 0
-625 -2885 -1609 0
2156 -2722 -2432 0
2258 -2218 -1249 0
-2980 -1929 239 0
2411 2833 1060 0
1265 -2295 -135 0
-1142 -2851 -2237 0
-1140 632 -2781 0
2137 2055 -1701 0
2198 -1799 -862 0
630 2795 2686 0
66 1189 -2690 0
-207 -1833 -637 0
-1321 534 795 0
982 -758 1892 0
-2793 -2331 1848 0
2817 -1623 2568 0
2465 -2827 1003 0
994 817 2764 0
1588 -263 -1617 0
-201 -1511 -1022 0
1560 2614 1379 0
-842 -2358 -2056 0
-1106 -1840 -997 0
359 -167 1487 0
1485 -1971 -2396 0
1483 1435 42 0
1030 -2541 -2520 0
2456 -601 956 0
2402 -2583 -678 0
1818 -1536 437 0
1560 1717 -1957 0
2093 1920 -1081 0
-1196 -1169 -40 0
-1613 183 -212 0
2281 -2091 737 0
703 -602 -1966 0
-1285 -1113 1232 0
-2045 179 1285 0
1172 -1601 2340 0
2780 2239 1901 0
504 491 2436 0
-1895 2078 -495 0
357 2802 1519 0
1178 2367 -1267 0
-2429 -1352 2400 0
2238 -2475 -215 0
-594 2412 2095 0
-2011 -2087 -1060 0
2190 -1343 2637 0
618 1693 515 0
2977 1985 -2723 0
21 478 -1695 0
2905 2498 1907 0
-2437 -2610 2212 0
70 2954 2876 0
2124 767 -16 0
2668 -692 164 0
2955 2621 -1639 0
-1392 -1493 -802 0
1896 -2309 -522 0
-1068 2653 -405 0
1483 1231 -1018 0
-2615 2748 2390 0
1533 327 -941 0
-2932 -378 -1585 0
-2828 1220 -1373 0
1672 2779 2666 0
-1707 -1231 212 0
-2698 -462 -1174 0
-1820 -2910 -1134 0
-2128 -1882 -1823 0
-687 -879 -277 0
1742 -2365 -1860 0
1546 1773 1261 0
-694 -1646 -623 0
-987 -1551 2549 0
-582 357 1415 0
1849 -176 2112 0
797 -2768 1156 0
2831 -811 -2106 0
28 -1742 -103 0
2980 -2448 2258 0
-1761 1897 -313 0
-3 2596 2377 0
80 -1666 2256 0
-2445 2247 1896 0
631 1254 2461 0
2119 2437 -62 0
-1250 532 -2498 0
-1365 1525 1169 0
1574 584 -1027 0
-596 2253 -1341 0
-2996 2718 1959 0
283 -1058 5 0
1136 1767 -658 0
298 -1732 1497 0
-2399 2316 1026 0
243 -2273 -1512 0
-1018 -2777 2242 0
-2741 1692 -2190 0
1287 1762 -2095 0
1439 2550 664 0
-1815 -570 2015 0
-2015 1306 -634 0
1364 2741 -2348 0
-1392 -547 -1941 0
1057 -1294 2842 0
-1799 -1728 -1706 0
1530 909 -2615 0
1900 -2960 800 0
-2506 2804 1553 0
81 2808 2334 0
2006 -2156 -2715 0
2069 -2342 2400 0
-2700 2220 -1437 0
-425 -1983 882 0
1200 477 -2164 0
2546 1883 -1018 0
2485 -871 -572 0
1430 2220 -1808 0
478 -709 179 0
2029 2596 2597 0
2184 388 -1505 0
1635 -2854 -1265 0
-580 -770 -2529 0
-1511 13 129 0
-1972 -2352 208 0
-2032 1007 2313 0
-2931 1335 1339 0
-2409 -1203 2337 0
1173 -1475 -1109 0
-585 2522 -646 0
1863 1058 -421 0
403 81 -1712 0
2274 -2748 2466 0
-1993 2276 -2843 0
-123 -1452 2492 0
-202 288 1677 0
-843 1255 -1597 0
482 1633 1068 0
1937 -2712 1041 0
57 1812 -2369 0
-1707 1122 1030 0
16 -907 -2291 0
-2621 1018 -2238 0
852 71 2861 0
-2200 1291 621 0
69 292 4 0
-2948 171 -80 0
754 -1096 -1383 0
359 -292 -305 0
-2605 2107 734 0
-1320 1002 1233 0
-1439 -2220 -1660 0
-35 -1270 -2866 0
1017 102 -2570 0
-1762 -2568 1577 0
2928 -1660 692 0
-176 339 -2065 0
2104 2944 2582 0
-1862 1559 793 0
48 806 1637 0
-110 2167 -1383 0
-1533 2773 719 0
-10 765 -1362 0
695 -2467 1515 0
-2818 642 -2338 0
-2451 2299 -826 0
-1304 1675 -2977 0
-613 -2449 2706 0
-1762 248 -2997 0
-1743 -2638 591 0
275 -2401 1233 0
-2444 216 781 0
-2155 -1230 576 0
-2017 -2867 -977 0
-1712 2499 -887 0
2731 -2999 -590 0
410 2723 676 0
-1843 366 -231 0
-950 2210 -2390 0
-150 146 -763 0
1617 -2320 -832 0
-153 -1983 -2346 0
2652 2025 -2166 0
1301 935 378 0
1861 1722 2456 0
-1881 1019 -2316 0
778 346 2438 0
1673 1377 157 0
2267 1026 -40 0
396 2545 -2429 0
-164 1285 1333 0
54 -1591 -776 0
-1111 2801 -1460 0
-1454 -1049 1931 0
-2724 -2135 2596 0
2124 2348 -2335 0
965 95 2209 0
2971 -27 -960 0
161 219 1349 0
-1132 -286 -1366 0
-209 -382 2497 0
1116 -1511 207 0
2632 -1233 2646 0
-1973 -780 118 0
518 1738 -737 0
2868 -632 2637 0
-2341 1627 1629 0
1755 -1542 918 0
1046 482 2044 0
-226 2069 -21 0
1763 -751 -1144 0
2579 150 423 0
1035 2868 1625 0
-413 2082 313 0
2716 1532 1549 0
-2684 -2762 -2603 0
1144 383 2498 0
1573 863 1714 0
1 1482 -688 0
860 -1829 -868 0
-2177 2435 -999 0
130 -2847 164 0
-448 1054 908 0
1141 2351 -2274 0
-631 534 -191 0
1786 -1711 187 0
201 2632 378 0
2701 2585 -2653 0
-2043 858 2252 0
-2640 -2001 427 0
1107 464 -2320 0
2660 2505 1751 0
-927 1060 1099 0
2485 -99 608 0
-1848 -695 -2395 0
1608 298 -141 0
1035 -1111 -2730 0
-1185 -1024 882 0
438 -764 -1959 0
1822 1383 1765 0
2859 -303 -2850 0
2947 2160 -2850 0
-2809 -2100 -1927 0
-288 2496 -2612 0
-1954 -2312 -2590 0
1036 -2994 -2519 0
-2708 406 -318 0
1216 -2634 2767 0
-1057 -376 1915 0
-1984 -2839 -122 0
-1089 2810 2074 0
-1889 2551 837 0
2255 2837 -1035 0
-2799 -2328 -975 0
915 519 1554 0
118 -2072 2499 0
2479 -1987 1560 0
-2976 -2866 1687 0
-456 -1535 -627 0
-1972 -2205 390 0
-2104 -2040 1084 0
1385 355 2487 0
1212 1133 -1460 0
-70 -2799 -357 0
2573 1109 1863 0
1239 321 -1604 0
-207 -2732 768 0
-1954 829 348 0
-1740 2357 1212 0
-2857 -1057 -743 0
-1903 -1785 2602 0
-1674 2277 -1492 0
2522 868 1309 0
-2072 -825 -391 0
1479 -595 -2886 0
-2067 859 -2755 0
-103 -1227 -1686 0
2174 -1009 -806 0
380 2931 1204 0
359 1214 -391 0
418 2614 -1262 0
-2390 290 77 0
-2346 -2055 504 0
-2174 -776 442 0
-2487 -457 1437 0
1233 -1094 -617 0
-1890 -2428 -2236 0
2650 1573 -1379 0
-1751 -2925 -1239 0
2653 484 2089 0
-2171 -489 153 0
112 -2394 -1930 0
2531 413 2733 0
-2059 -79 188 0
-1743 2718 415 0
353 1621 -1732 0
1746 1225 -1401 0
-1213 -1123 -2973 0
45 1212 -1608 0
-1880 119 -1351 0
-1160 1170 -1686 0
-78 -1180 788 0
-2726 -1091 354 0
1783 -2629 1289 0
-2506 -1617 -1874 0
-2675 -425 1293 0
-397 -2401 1423 0
2769 1925 -1514 0
1961 1994 -187 0
2019 -257 2676 0
2890 -1214 -1667 0
1899 -866 741 0
1573 865 1885 0
1743 1545 -1180 0
-2418 1262 -917 0
-21 -370 2805 0
2551 1646 -1045 0
-2251 1585 2092 0
-2083 -783 1364 0
-1858 -2295 -777 0
-1537 -859 1312 0
2956 -2988 86 0
-1761 -1769 2053 0
-1333 2571 -501 0
2485 -1561 -2299 0
1606 2242 2227 0
-2814 -1424 2987 0
-936 -2965 -1064 0
2523 1736 -2141 0
260 1310 -1543 0
-2027 -1240 1097 0
2066 1224 -1835 0
2442 561 427 0
2746 -1305 1290 0
1991 -1342 -1543 0
2867 -2045 -266 0
1436 2779 -583 0
1675 242 1909 0
-2477 -2351 -972 0
-1023 1923 2292 0
-1910 -1924 -1293 0
801 -2012 1293 0
-2612 1062 879 0
654 448 -2048 0
2943 623 -1532 0
-263 1158 148 0
1406 -191 -1763 0
-262 -450 -2152 0
2623 586 947 0
-740 865 1965 0
2098 -1443 396 0
2261 2846 -460 0
-1562 -41 -2033 0
298 -1014 71 0
651 591 2228 0
2892 2240 1453 0
804 2305 2026 0
-788 -1340 2601 0
2706 -356 2719 0
2463 -2358 16 0
-2321 -1742 -1791 0
-2321 1175 -1653 0
-760 1409 -976 0
293 254 2049 0
-705 -418 -143 0
1537 -853 2877 0
-2904 -313 -1177 0
1436 -780 266 0
379 -1657 1261 0
1961 -1606 1034 0
1018 1444 -1990 0
-987 2850 -2 0
2061 2847 1659 0
2827 -2610 1929 0
-2463 -845 -1305 0
417 -867 -1454 0
-278 -1342 -2428 0
-2791 -1772 -2051 0
2208 1624 1531 0
1643 -320 -2541 0
-1242 1871 1053 0
475 -2016 -274 0
-107 43 -2868 0
485 2714 2109 0
2701 -556 717 0
1742 525 -319 0
2907 -1034 -1834 0
-1331 -2712 -1494 0
-2559 -2291 1953 0
1466 1405 2930 0
2521 629 -2609 0
2789 -1961 564 0
-628 2840 -1509 0
2373 -2406 1516 0
-1740 2291 1101 0
-98 617 1261 0
-2249 -309 755 0
-287 -757 271 0
-70 1887 2318 0
1056 2722 1054 0
1344 711 -1186 0
-662 2883 125 0
-1678 2945 1956 0
2596 -2934 1691 0
-2150 1114 1381 0
2750 -2710 213 0
2239 -1069 -954 0
2770 -1220 -2472 0
1274 -293 -2807 0
2035 -396 2554 0
-1042 -2891 1834 0
1657 -46 1532 0
-823 1391 -1566 0
2601 1163 -635 0
-1230 2186 -1501 0
318 1986 1168 0
-223 -518 539 0
2500 -275 -613 0
1493 -1697 -2288 0
2354 -2132 -135 0
-92 523 2886 0
-2180 -114 926 0
-2999 2216 767 0
-813 274 -526 0
-2449 804 -2195 0
937 123 510 0
228 -592 2845 0
-166 -2226 -2533 0
-283 375 2121 0
-2974 2413 1339 0
-2965 1259 1592 0
-2549 2343 2795 0
-2403 2727 90 0
2787 -2042 -1430 0
-315 -2064 -1979 0
1227 410 -480 0
2829 -2761 -1284 0
609 1781 1652 0
2079 1413 -939 0
1547 -1861 -2154 0
-2662 1093 -2636 0
-1435 -2970 -2812 0
-211 -329 -2467 0
-2999 2107 -1005 0
2078 917 -1888 0
2304 -1963 2108 0
-118 2594 1491 0
-1753 2680 957 0
1656 1080 -1250 0
2271 -1244 2814 0
1107 -1732 2455 0
2608 530 -1582 0
-2308 -2448 1220 0
-557 441 2829 0
-2241 -1191 492 0
906 553 2794 0
305 2978 99 0
432 -2061 2109 0
-218 -161 -2137 0
-2654 1714 2412 0
277 920 -1962 0
765 2520 -2487 0
-2981 -2049 -1670 0
2304 1886 148 0
-1171 2093 -1626 0
2664 947 -2555 0
-1468 685 192 0
-620 -1349 -323 0
1124 1600 -33 0
-45 -373 -2248 0
-12 2111 264 0
-1566 1369 619 0
-2730 2187 -2306 0
-459 2720 -1936 0
-549 2633 1885 0
-1933 -2451 1635 0
-898 172 -1902 0
-969 2564 831 0
2090 -1411 -1768 0
-1053 -2174 -2957 0
-2815 -2505 2216 0
-1429 -657 -2392 0
-316 -2122 -2421 0
723 127 2470 0
-1894 -802 -1004 0
2168 460 811 0
-1382 2343 2568 0
-1321 -1051 1608 0
-1326 2304 924 0
-1715 -1587 2300 0
2835 613 -1312 0
-174 2776 46 0
668 435 -1659 0
2669 -2086 880 0
1393 305 -766 0
-849 1232 -2585 0
-897 -761 -833 0
513 -2154 -537 0
667 1527 -2159 0
375 -1285 510 0
-2181 -432 1690 0
1982 -1483 -197 0
2875 2882 -562 0
-1035 593 524 0
-1448 243 961 0
2614 -1170 -195 0
-1660 1852 -2530 0
-1522 943 2997 0
848 -800 2112 0
2718 81 -2127 0
724 2395 850 0
1442 2065 -765 0
254 1508 -695 0
236 -2198 -125 0
-2777 1587 742 0
-2750 1973 372 0
-1605 -1196 -1000 0
-1685 -1188 -255 0
-2384 -2109 -2407 0
1932 -820 -2933 0
-1304 -446 -2115 0
-1655 1685 2352 0
-2796 2196 1198 0
-1602 -2552 -2573 0
2428 -2589 2015 0
-2619 355 2810 0
679 237 -2413 0
-1148 2412 -404 0
682 1186 1225 0
-804 -1319 205 0
-2130 -1404 -2307 0
-1437 -1245 2933 0
1241 2707 1198 0
-165 1529 2411 0
2991 -2727 -1754 0
-955 -1301 -1532 0
-2837 2857 -2036 0
879 -521 621 0
-1325 973 2742 0
2419 -2465 554 0
-2363 1530 -1259 0
-306 -1719 2597 0
-2543 -2007 -1001 0
2038 -1939 -2521 0
2915 2616 -2218 0
-1337 -59 -2471 0
1148 1471 -1544 0
-2593 -1006 2777 0
-1497 1552 -312 0
-112 1444 -1391 0
1257 -806 -2238 0
2449 484 -1218 0
-2146 -2889 -1074 0
-2875 -808 -418 0
2030 776 421 0
1030 230 -1521 0
1269 -1296 -2851 0
-1856 -1930 2749 0
2030 350 1687 0
425 997 -2754 0
963 2521 1510 0
-2293 -2549 -213 0
2296 -2741 -1306 0
875 -2493 -1970 0
-1069 -524 1756 0
1041 1980 916 0
1033 -2959 913 0
-1233 -1839 980 0
2554 -2933 -2570 0
-1128 -334 2829 0
1435 2059 -787 0
1465 1771 -1463 0
-608 -1310 2167 0
264 1067 2855 0
-2054 -2376 2156 0
-2362 1940 504 0
-1318 825 105 0
-2159 -2856 2578 0
1235 86 -2622 0
-1210 1792 1327 0
-1121 -2280 -190 0
-531 2655 -2300 0
-2262 592 1561 0
-1573 -1244 -1962 0
-552 -1129 -2100 0
902 -345 1721 0
-2461 281 1595 0
1678 -918 819 0
-1633 -2928 -159 0
2388 -2761 634 0
1450 -2091 -1825 0
-746 419 2912 0
2511 -887 -979 0
-812 2360 -1767 0
2956 1101 215 0
-758 -1401 -307 0
-2049 296 1829 0
626 2731 273 0
136 2067 510 0
-2975 -1520 1577 0
-959 2048 318 0
2614 2830 -2782 0
908 1030 2140 0
2061 -1049 538 0
-2261 1660 559 0
-1560 -2289 828 0
-2812 2486 801 0
-807 -2770 -2277 0
-2931 1355 203 0
-2301 -2853 2636 0
-2605 129 2039 0
2213 -1087 2408 0
1720 -132 352 0
-348 -1924 1009 0
-385 1797 -465 0
545 -1704 2293 0
-2280 2939 -1944 0
-1485 -84 -2911 0
-524 -1164 2467 0
-797 -1467 2786 0
2131 1580 -2106 0
-2884 -903 -965 0
-1244 30 -2710 0
539 2390 -125 0
1726 2215 -456 0
2154 -1304 2261 0
564 -1343 1865 0
-759 1725 -1333 0
2016 -577 -1761 0
-2998 2440 1906 0
-2729 -2055 -1685 0
378 -978 2595 0
677 629 -731 0
1244 1462 -135 0
-100 -1547 -924 0
-2270 -2336 -635 0
-1145 -621 -297 0
1659 -1396 2517 0
-87 1863 2655 0
365 -2816 -2056 0
995 1830 1927 0
1863 1066 763 0
-1684 2496 1339 0
715 -459 -1878 0
2010 153 287 0
2286 -2479 -1579 0
-2409 -2374 -2349 0
2276 1730 678 0
2607 1250 22 0
1003 2418 2595 0
-2244 -405 -817 0
-343 -104 368 0
1283 217 1057 0
1895 -2487 -721 0
843 2011 -2098 0
2162 1034 518 0
251 1681 -2059 0
-2890 2698 -191 0
-808 -852 -1851 0
-680 -1795 1164 0
-200 -2367 -2770 0
-829 854 -524 0
1457 1112 -2120 0
924 2231 662 0
-1934 466 -510 0
-265 -924 396 0
-1837 1702 -979 0
902 2377 1403 0
983 -2166 -2857 0
657 -521 610 0
1668 1307 641 0
-2846 743 -1602 0
-1406 -1876 2600 0
840 -2046 2213 0
2824 2915 -710 0
-2057 1562 1224 0
-1344 933 -1127 0
1977 2122 -175 0
1484 -105 1609 0
-1768 -569 -2921 0
212 426 252 0
-1640 1952 2010 0
-101 2277 -1372 0
-1039 383 1218 0
998 -2283 2958 0
2185 -593 1661 0
-2324 -2420 2352 0
-121 1821 647 0
-1365 491 2683 0
-437 116 1163 0
-1256 -449 568 0
-1810 2142 -139 0
-1873 561 -2512 0
2239 2650 1551 0
-133 1231 665 0
-699 -1338 955 0
-1241 1689 1391 0
2662 -1525 -1297 0
-611 -25 -2949 0
-70 2932 -1785 0
-2518 446 -1336 0
-1542 2028 -458 0
-1095 -1813 -1243 0
2336 342 2376 0
1760 2431 1405 0
-1787 814 1589 0
-96 1228 638 0
2472 -2301 -2950 0
2132 736 -673 0
-1553 2562 599 0
-1029 669 456 0
919 1733 -827 0
-448 1015 -2420 0
-640 1962 -1124 0
-2077 2311 564 0
2854 -2834 2469 0
2242 1983 772 0
-316 -277 695 0
-498 1018 2916 0
-149 753 2032 0
-731 -2983 -2301 0
-344 448 82 0
454 -1491 -2923 0
435 -1965 1124 0
2004 -1384 2119 0
1970 -2859 1330 0
1152 656 1703 0
-865 1122 1272 0
-2456 235 2756 0
2141 1293 1999 0
1033 -2574 2392 0
1856 2920 1161 0
2076 -1567 -216 0
-2063 2272 2762 0
-827 -1287 1313 0
2680 2636 -2670 0
154 -2117 -1197 0
2141 -97 -2890 0
2910 2196 2102 0
-1525 -2256 1233 0
745 -1964 2186 0
594 -559 -603 0
-1103 275 440 0
2089 2258 -2894 0
2060 -1352 2573 0
-2188 -177 2318 0
2526 2971 -2329 0
-966 -2221 -2284 0
2209 -1634 1710 0
-1519 -1320 2632 0
-1297 -582 2463 0
2790 -2293 -363 0
513 256 447 0
-345 1124 -764 0
2789 -2474 -449 0
2240 1350 -1884 0
2977 -2523 -2509 0
-1650 2733 -1122 0
-984 2482 617 0
-2335 2181 -2076 0
-263 955 645 0
342 237 -1401 0
443 -2977 -586 0
333 2954 1565 0
2730 -602 2195 0
2837 1033 -922 0
-2624 -503 -2238 0
603 180 -1786 0
1081 -2135 -1774 0
2673 -179 -543 0
1314 86 105 0
1311 2537 -717 0
-2195 2372 -1805 0
-1896 -352 -2550 0
1117 349 -1276 0
-1827 -803 -1356 0
2328 1429 -817 0
1204 -2600 127 0
-2741 742 928 0
2741 2670 942 0
2974 1259 -1130 0
-1265 2025 -2651 0
615 131 -277 0
-2166 2613 2389 0
2655 2671 2329 0
1398 2672 -604 0
-36 -2994 -1337 0
-1124 2908 -2248 0
-910 1869 -1895 0
616 -879 2188 0
1858 1847 -2158 0
2693 -370 -2571 0
-538 -221 -2628 0
-1738 737 -767 0
-2316 668 -1208 0
233 1044 -56 0
-615 -730 2708 0
-2185 -60 -1971 0
2936 -2974 78 0
656 2970 1981 0
-1709 -2798 549 0
208 -2710 -2202 0
265 -2422 -992 0
-308 -877 -1219 0
-171 291 2957 0
-1816 693 -429 0
-1394 1859 -1938 0
1943 -2312 -623 0
10 2883 -2681 0
782 1015 861 0
-2098 -2602 -2683 0
-2396 -2774 -2123 0
558 2663 2669 0
-271 768 -770 0
-1629 2369 1348 0
-1371 -52 -864 0
-1752 -277 -1210 0
898 207 1199 0
1914 686 558 0
1480 2124 2845 0
30 -989 -2923 0
1200 -1902 2396 0
-1534 -1548 -67 0
1766 -2294 -2077 0
-2967 1605 634 0
368 -1706 -296 0
301 -2950 -728 0
361 350 -1083 0
41 -881 1671 0
1583 2309 -1844 0
392 -1498 -1007 0
2780 -722 -281 0
-2885 1191 732 0
314 -2746 -1402 0
-1796 -1681 -1087 0
-1297 852 1966 0
-528 510 160 0
1781 -1855 -579 0
-389 -553 -6 0
-581 -1948 -1579 0
2855 -1620 184 0
-145 2241 -1130 0
1856 1539 -2831 0
-2510 -2851 1631 0
-1127 203 1658 0
2928 1958 -2023 0
-1384 -2440 1516 0
923 2388 710 0
-415 -777 1532 0
-2604 748 -2856 0
2281 774 2919 0
1473 963 1713 0
-32 -362 -1417 0
2889 -697 2916 0
2321 -705 1521 0
-2015 -1932 1367 0
-1449 -376 1352 0
-1926 -15 2398 0
-1332 286 -2885 0
2683 2045 735 0
-346 -2219 1609 0
1368 -1512 857 0
831 -1420 2236 0
1952 2695 1194 0
2563 628 -2083 0
2894 1444 524 0
-2591 1302 -1909 0
-933 -607 -1059 0
2119 2454 -1126 0
-2173 -1063 2566 0
2021 -1242 682 0
-2320 1986 -2043 0
-568 -2726 2917 0
-2928 -1670 -1638 0
323 -364 -2062 0
-2991 2585 -1721 0
-1951 2324 178 0
2799 1892 1675 0
-338 -2607 -2725 0
1501 -2669 -389 0
731 -1196 462 0
616 -1127 -1692 0
1499 1940 -82 0
1201 -1402 -1728 0
-148 2512 -215 0
58 1064 2889 0
2832 1949 -207 0
-1995 -988 2617 0
2911 295 -1264 0
772 -1018 332 0
-1250 -1070 -1510 0
831 -1813 760 0
613 -1743 2200 0
2897 -1926 2794 0
1624 1254 897 0
-331 -1855 2972 0
543 2172 52 0
2633 -2162 -207 0
1682 -275 -848 0
-2743 -1599 2178 0
1795 -2558 -1373 0
2401 -2937 1598 0
159 2702 87 0
290 918 1983 0
1544 -674 -2527 0
-1338 227 1448 0
-2426 -2180 -2605 0
207 -908 -1625 0
849 351 -2111 0
-1535 -2898 1776 0
1335 -2454 1438 0
99 941 2048 0
2587 172 -1272 0
1677 377 917 0
1491 -1675 -2619 0
-1558 560 2517 0
1398 1452 2492 0
550 1233 1455 0
-229 -2558 1073 0
2031 530 -2287 0
-2715 -2081 -1022 0
-2576 -883 -2913 0
-1575 -940 -2767 0
-1267 -2559 -2755 0
94 -2061 -2899 0
-569 2612 878 0
-1421 -1038 1276 0
1505 2206 1615 0
-2042 1984 -2078 0
1628 188 456 0
-2134 456 2994 0
1888 -176 -2969 0
1219 424 349 0
2563 -2261 2171 0
1617 2136 2745 0
1574 -2183 -2744 0
595 98 -1120 0
2384 -2720 -2157 0
-2915 2198 2187 0
-164 -1466 -2892 0
641 -381 -2689 0
-1172 1356 2435 0
2185 -2537 -44 0
4 -2889 -164 0
-576 -2531 -69 0
2718 861 -352 0
-2076 654 1038 0
-2161 208 1464 0
525 1664 -792 0
-2024 -1244 1811 0
-1812 1065 -90 0
-908 1822 388 0
883 -2043 57 0
-107 2860 988 0
928 -169 2583 0
-347 -2106 138 0
2774 402 -1742 0
224 1903 -2700 0
-338 -678 1506 0
2437 -2994 -2983 0
-44 -1136 2732 0
2773 -2815 29 0
-1197 1061 770 0
1930 -1655 -1075 0
1509 -1086 640 0
305 -40 1411 0
-1757 649 -1433 0
-1987 140 2018 0
2349 -1620 -2109 0
572 -1735 -1737 0
2384 2155 703 0
-1868 196 1844 0
584 -2808 -1473 0
-2795 2620 2431 0
1097 -1406 -2147 0
2513 2675 -2293 0
952 -1892 -134 0
2279 215 1819 0
2892 -2541 2752 0
-1039 -1071 -681 0
261 -106 2059 0
511 -1019 2921 0
-873 141 2206 0
1236 234 -297 0
-1190 733 -2941 0
-1709 -1923 -1160 0
-1386 -1362 -512 0
2549 2476 1552 0
-1052 -1020 2667 0
-2704 1110 -2951 0
-1632 -1853 -1786 0
773 2362 -636 0
1829 1879 1393 0
2773 -1914 334 0
-514 1564 2103 0
249 -806 -1789 0
-2104 -2065 1465 0
-2652 1677 -1035 0
-2021 2865 -2998 0
-2878 -1529 -2915 0
32 -1563 -1663 0
2785 -744 1782 0
-1787 -2888 -993 0
65 493 -1751 0
-2869 -2239 -912 0
-770 -1912 1012 0
93 2092 -2460 0
2044 2103 -2818 0
2034 1889 -165 0
-314 2422 -826 0
-2252 382 900 0
2855 -2678 2832 0
-2090 2698 -2643 0
536 910 1550 0
2406 1869 416 0
-567 589 146 0
-504 -309 1673 0
1108 -684 88 0
-1345 -2443 2418 0
399 -1361 68 0
2330 1531 -511 0
-119 -428 -777 0
-2449 -1601 -1317 0
2681 -2005 2246 0
-2141 -1494 -2868 0
51 1972 -2055 0
-1085 -1705 -1091 0
176 253 491 0
-961 -1375 2623 0
2799 -2406 -432 0
1466 2922 1707 0
235 1146 584 0
-48 2129 -1805 0
-2083 2428 64 0
769 1563 -1525 0
1811 2364 867 0
-1088 1176 -1158 0
2004 2081 -2881 0
504 958 219 0
2925 2773 -770 0
222 -561 -1221 0
-2795 800 454 0
-2392 -2729 -1263 0
-1688 2115 644 0
-2373 -408 -2319 0
919 782 -2257 0
-2208 -1358 -1689 0
2479 2975 2323 0
2808 1060 986 0
-1005 2331 1083 0
2290 -935 1380 0
-1728 1463 -712 0
1833 -2219 -1853 0
-1436 -232 1971 0
-2465 -2694 481 0
-1277 -2789 1613 0
-5 1999 -17 0
-945 -2498 -1455 0
1588 2828 2449 0
152 -450 -447 0
2184 711 -928 0
2045 1931 -1408 0
-2197 1355 2569 0
1302 467 -2095 0
-524 796 -1412 0
-81 -2523 606 0
-1895 -669 -684 0
2 2097 -717 0
-102 -2392 -1836 0
2606 1425 1880 0
-1749 1131 2869 0
2244 -2135 1947 0
2020 -2674 379 0
-2935 -685 -1029 0
2024 1929 302 0
-2247 1672 1516 0
2202 -573 1597 0
2041 2789 1758 0
1764 658 -786 0
-2697 -1466 -724 0
-950 -2890 1072 0
1436 10 2587 0
-1879 2313 2764 0
-106 -2506 2902 0
-2145 2122 -1642 0
1458 -1365 -1467 0
2850 2876 -1044 0
-1786 2279 2191 0
751 -128 1646 0
2809 -752 1667 0
1480 -1020 -690 0
-2116 2613 1156 0
-1936 -453 1038 0
-1691 -2712 -392 0
-118 -572 -2193 0
-2802 276 526 0
-589 603 1766 0
1445 1147 2691 0
-1922 -2464 1624 0
-1030 -20 2014 0
-1127 2100 770 0
-618 -1414 -1614 0
-1711 -374 -2933 0
1426 -1107 2387 0
-2934 1490 7 0
-1438 -1620 -418 0
-353 -2732 65 0
-1285 2750 -1 0
1761 -849 -556 0
-479 -70 2399 0
533 -2122 -1431 0
1962 -2398 2674 0
2389 90 1449 0
-2241 -1981 -1520 0
-2517 1964 -1713 0
626 1328 -146 0
2763 -400 -2059 0
-2432 -2444 1196 0
-53 1018 -2888 0
322 -147 2748 0
-1089 -1460 1547 0
-2597 242 1403 0
1067 2645 -1069 0
2292 1957 -2994 0
1346 -2244 -1097 0
-2740 1077 2168 0
-2370 -2724 2650 0
2201 -1425 -1976 0
2493 2287 2898 0
868 -2984 226 0
91 -870 1193 0
782 -2832 -722 0
-2798 2042 -1916 0
-998 2680 2419 0
-714 -2690 2037 0
-1674 1569 867 0
-2709 2716 -833 0
-1320 -2322 2315 0
1991 -2265 -2217 0
1177 1900 1071 0
-962 -2080 -149 0
2867 2837 194 0
-188 2037 -2878 0
20 -1203 2509 0
-2826 -1404 2801 0
-2165 -1383 93 0
399 -1191 2785 0
-1512 -1872 -1626 0
77 -221 -611 0
-3 -498 -573 0
-1062 2598 -513 0
-347 186 -2914 0
-1616 564 -811 0
-1346 146 -1932 0
1335 2755 1065 0
1095 201 -2017 0
-179 -2278 1625 0
-2631 538 2850 0
1459 -372 -887 0
1244 2521 1713 0
-1419 -2773 898 0
2975 548 1450 0
1972 -1186 302 0
2221 1129 -2153 0
-2270 -2709 2495 0
-2873 -1002 1238 0
-11 122 -1851 0
1661 -715 1216 0
-974 -76 -286 0
2342 -1120 907 0
-2613 -2630 -2396 0
-15 1350 -2926 0
-1535 673 1662 0
371 2941 2990 0
1112 -2667 2839 0
671 2351 -685 0
-2712 2470 790 0
1738 -2037 1242 0
2152 2791 -2647 0
-2820 -1408 -2880 0
768 1347 -1572 0
-2302 190 -2868 0
-51 -1256 -990 0
-995 -1631 -2052 0
-2885 -1557 -315 0
163 2472 833 0
378 271 1730 0
210 -1548 -2 0
-2610 -1297 1407 0
117 -1627 214 0
-341 -1843 -836 0
2184 -744 672 0
734 1788 506 0
1392 -1654 101 0
2728 -854 2917 0
351 1671 2318 0
1602 2667 1873 0
-501 2924 -2896 0
-56 2415 -965 0
-1932 2923 974 0
116 76 1722 0
-71 -2032 -2616 0
1454 1723 -91 0
2054 467 2776 0
-904 1287 121 0
1365 1756 -2297 0
219 431 -957 0
-1418 2335 2637 0
2227 638 -2571 0
-2258 -577 -138 0
2672 2379 1554 0
100 2091 2699 0
1258 614 -1581 0
1361 2029 852 0
-776 -1504 -2563 0
-1288 -1067 -1419 0
2027 -1562 -1024 0
-2547 2118 1875 0
-192 -1828 -1747 0
1430 1340 635 0
-1200 -1164 882 0
-1204 -929 -2680 0
2906 171 -2711 0
-1834 -212 1509 0
-1361 1856 -117 0
-1627 281 -2570 0
-210 2884 1882 0
2690 -1398 -303 0
817 2728 2866 0
-1566 -2181 2963 0
-2304 2066 2658 0
-1003 2485 -2452 0
167 1334 2830 0
-2302 2198 -2798 0
-121 -2828 -1992 0
1014 -266 -462 0
2222 -1598 2568 0
-1147 636 2974 0
856 1387 -398 0
-2057 676 1019 0
-1280 -2746 -2194 0
-2524 -908 1680 0
-178 -189 2446 0
-1395 2838 -1401 0
-2995 -954 1300 0
287 -2642 2691 0
2145 2741 694 0
1927 2115 2369 0
-330 -1491 -2249 0
-1182 -1023 -2682 0
2198 -2092 889 0
1583 -809 2966 0
-2441 -343 -2485 0
959 -2083 -753 0
-665 856 1813 0
-1583 85 -487 0
-2432 -2592 -2476 0
-1132 -620 2012 0
2875 1880 2951 0
-2766 818 -2463 0
1790 -407 787 0
-1713 369 831 0
1060 236 2796 0
-96 -1463 -61 0
-343 -1139 -718 0
908 -2972 1504 0
2345 -1551 -1996 0
-2292 2284 -2512 0
947 1183 2782 0
1548 477 2998 0
-794 1101 -793 0
-1860 94 -862 0
-793 2694 2017 0
1331 1881 -2661 0
38 -2519 -204 0
-200 -1712 -250 0
-1481 1645 -1395 0
2080 -625 1812 0
2122 -1404 -2715 0
-1299 850 1923 0
-953 2706 -2159 0
927 -2866 1382 0
-1591 1363 2636 0
2953 1065 -1189 0
-2026 -137 -2454 0
2310 2120 2938 0
1554 509 2917 0
-1302 -1838 -1324 0
-1394 -1143 -1025 0
238 -1350 -1902 0
-1397 -118 -2069 0
-290 2171 -28 0
2513 -1526 -15 0
-779 1396 -2710 0
1985 1455 2951 0
1268 2031 1700 0
-1725 2600 2357 0
473 -720 2951 0
-795 -2484 1247 0
300 -2645 1146 0
-1708 -512 1966 0
-615 -1641 -2044 0
-116 -1552 -2853 0
-2732 -653 259 0
-1598 -981 982 0
-1287 -2791 -1159 0
1331 1976 -61 0
2091 1222 -2490 0
723 -2635 960 0
2831 3000 -1524 0
-37 1020 2179 0
611 2439 -924 0
-2431 2143 -705 0
-557 1761 -118 0
-285 -541 1948 0
-617 -2753 -855 0
-490 -2293 2145 0
-388 -1008 2464 0
2430 -2005 819 0
317 2399 543 0
2592 -2875 1522 0
-2144 -1450 2122 0
-2467 -1881 -2551 0
2891 -865 -233 0
-2905 -169 2545 0
-1012 -2516 -134 0
442 2053 2380 0
-2264 -1429 621 0
-2792 -2724 -336 0
-1316 1448 -2533 0
-2224 -1877 -2287 0
-518 -1192 -1056 0
-2570 -1682 2226 0
-1474 -1902 -2545 0
2916 253 312 0
2499 2889 582 0
-2457 -1706 2373 0
-2992 350 991 0
-401 1873 1688 0
1266 528 -2872 0
-1295 2970 -1735 0
-2041 -1350 -163 0
-1109 -381 -2453 0
-1550 -458 -171 0
-1824 1575 -229 0
-664 -1964 -1476 0
891 942 120 0
50 2657 1098 0
934 2571 2799 0
982 1863 -2432 0
2311 -605 775 0
-24 228 -1335 0
2840 1402 488 0
-2791 -2991 379 0
1961 -2080 2598 0
1671 391 -1435 0
-651 -332 1238 0
908 -2491 -930 0
1838 2467 -1437 0
-1874 2578 -2301 0
1015 -920 2767 0
552 -2974 -810 0
2676 -1377 1671 0
1197 -943 2258 0
2085 -1007 1889 0
-443 210 -2373 0
1683 2839 496 0
505 1785 1263 0
-919 2097 187 0
215 -2194 -1990 0
2133 -449 -1450 0
1507 2701 -1817 0
-2726 224 1080 0
1315 2763 2707 0
2286 -36 1885 0
1712 -2016 -2121 0
2726 -581 -1883 0
449 2334 2951 0
-1018 219 875 0
693 -2071 -1008 0
-1223 1444 -285 0
2277 -2310 -703 0
-2048 2355 -1084 0
1364 -1087 -1623 0
-2022 -2149 -654 0
2055 2549 1406 0
-977 -2368 -2966 0
-2464 131 -2466 0
-862 2600 1816 0
2231 7 -1516 0
-1618 -608 -1287 0
-114 -664 -177 0
980 592 1376 0
695 2607 918 0
2947 -1286 -81 0
295 1920 -947 0
-1520 194 -227 0
-78 1644 -2825 0
1448 2496 -386 0
-1702 2917 1646 0
-2343 -1839 -1683 0
-628 -2631 2837 0
-1151 321 2795 0
2580 141 2215 0
-1197 -627 2866 0
2107 2 -937 0
-2220 -1801 -2917 0
2055 2400 1537 0
-2773 1827 70 0
-1668 2656 -1187 0
-1783 -2408 810 0
1321 498 1752 0
-2228 2154 -2296 0
-24 -1163 972 0
-2090 -1899 1019 0
2820 -2053 -1782 0
496 711 -27 0
-2201 2836 120 0
-1864 1641 1054 0
-2391 -2995 -105 0
1634 -1195 2484 0
2745 -1378 -2058 0
-265 -1947 -552 0
2863 1853 1919 0
2615 -2140 1036 0
1911 -1087 969 0
2825 2035 2382 0
912 223 -2369 0
-1472 215 -1555 0
1134 1488 -1630 0
-285 1425 -2112 0
123 -1920 2344 0
-1789 -1749 662 0
-2585 364 -820 0
-1668 -2968 -2165 0
506 500 -1925 0
-1255 570 580 0
340 124 1226 0
-1745 1412 400 0
-52 -2481 -2628 0
2983 535 1106 0
-1207 -422 1684 0
2129 -120 -2957 0
2595 1665 -2141 0
-701 -2414 2129 0
1826 -759 -2298 0
-950 381 -1711 0
252 -357 -578 0
2306 1365 1198 0
1744 1132 -396 0
-1066 -2644 2239 0
-545 1442 -289 0
-338 -1409 -2151 0
843 -2922 -1173 0
2132 -926 -2816 0
2535 -2842 -2864 0
-1590 2496 -1362 0
-1092 371 -2306 0
-2031 1335 -2647 0
-243 2457 2077 0
-1862 -847 1435 0
-1250 -2131 -2390 0
-1034 -1946 -543 0
-2044 -2726 438 0
892 1567 -67 0
1750 1632 -2177 0
-1486 1439 562 0
-1332 -187 2461 0
-1008 937 -2521 0
2910 -917 27 0
-1464 868 -1411 0
2046 -2061 558 0
2635 -1335 683 0
1911 -1914 -1784 0
2886 1468 -1756 0
-1792 -2053 -2772 0
1511 -859 -1413 0
2206 -444 2417 0
-905 2165 929 0
613 -1490 2114 0
-663 827 2103 0
-1323 -778 1681 0
215 442 170 0
1147 113 -1534 0
-2956 449 863 0
2107 -1938 -2699 0
1688 -2251 -854 0
1156 -670 -2386 0
2624 -1757 -2751 0
-1786 -863 2499 0
476 513 -1169 0
2307 -1227 2318 0
1046 -118 -2527 0
-2071 -1292 -1449 0
-1160 -888 -99 0
1044 1079 -1064 0
-1977 -1412 801 0
-1897 7 1081 0
390 -2359 1834 0
-1311 -2580 66 0
2837 -2341 -947 0
-2162 724 207 0
-1429 -665 2650 0
-52 577 -1177 0
-1238 -1358 186 0
-476 -606 -2926 0
1769 -138 2236 0
1761 -2115 -862 0
685 2715 -1001 0
-405 2904 -2101 0
-1174 1273 2773 0
931 1875 554 0
588 1371 2959 0
-1977 2246 1302 0
-145 -1256 -1508 0
-1742 -2939 -2326 0
1081 -1040 2083 0
-410 877 1180 0
1068 482 2718 0
-180 -1475 -183 0
-1750 2999 832 0
2711 1251 -1592 0
-1183 270 -1269 0
2112 -1718 -1525 0
-554 -1508 -269 0
2538 311 -1493 0
598 236 746 0
-125 1851 1074 0
641 -914 -1848 0
-1980 949 945 0
540 1404 1900 0
-1123 1967 -2697 0
-8 -106 -1197 0
2762 -2133 2474 0
-1770 213 1091 0
-603 -2454 -2348 0
2570 -410 -271 0
-933 -2276 -2975 0
2261 1591 2006 0
-1739 -651 -265 0
2920 -2077 1100 0
1754 971 2361 0
-1576 2994 2675 0
-2272 2898 2792 0
-1867 -1738 1275 0
1073 -1770 2242 0
-1438 1676 2307 0
82 -1183 2025 0
877 -2358 -292 0
-818 -1485 534 0
-1977 -2894 -1503 0
527 -2202 -954 0
-2016 -1824 -636 0
-2891 -1801 305 0
1853 2395 -802 0
-1454 916 467 0
2641 330 830 0
1482 -2061 -1999 0
2312 408 1122 0
1110 -521 1122 0
2861 -2549 -2357 0
2048 2006 -407 0
687 -2548 -275 0
-2095 544 1394 0
-437 1172 -1718 0
2440 -1397 18 0
2352 -1424 -2736 0
-1537 -732 -1301 0
-1935 546 1528 0
-2891 325 710 0
-954 -584 -1854 0
-1374 2684 1017 0
-1561 1927 2425 0
669 -1800 942 0
-724 -1285 -1877 0
354 -358 -514 0
421 1471 452 0
827 1285 -2439 0
348 2772 46 0
-1337 -803 2301 0
-2262 2421 1540 0
351 2734 2746 0
1253 -378 -1319 0
2527 -1261 -319 0
2353 2682 2479 0
364 -774 991 0
1960 1064 222 0
904 -1065 -2150 0
-1799 613 -488 0
2141 -2104 761 0
520 1437 2445 0
-2888 2572 1642 0
1884 -303 -1669 0
-2770 -2593 -1804 0
2101 1370 1355 0
-1733 114 -1924 0
-1697 2693 1664 0
-1911 1274 2625 0
630 -973 -2443 0
1444 -2089 1671 0
639 -460 147 0
-2318 93 -1304 0
2561 778 1837 0
1190 1301 1430 0
-99 799 2080 0
1794 73 2442 0
982 -382 -2589 0
-486 1851 -2783 0
726 38 -1833 0
2575 -2678 539 0
-2821 -1473 184 0
961 726 -633 0
-1156 2500 -2034 0
-116 -2216 -428 0
1573 2382 2219 0
687 -1019 -1386 0
-908 99 -2394 0
-2568 -1915 -1414 0
-2197 582 2800 0
2675 -1263 2162 0
1701 1314 -425 0
-2352 1248 -2619 0
2929 612 1941 0
1947 468 -2374 0
863 -2629 1175 0
-1011 -1081 -772 0
-2355 2048 1032 0
1834 -518 2693 0
-982 715 1460 0
1293 -681 -1725 0
2299 -354 2213 0
1543 220 -956 0
1975 -1092 1534 0
-1497 1063 1911 0
958 -701 2737 0
-902 -798 -1197 0
736 497 871 0
96 -1147 -880 0
-1359 -2357 -1024 0
-1838 1752 -1493 0
-1122 -2590 -385 0
1591 1643 -2806 0
1077 -1569 -1767 0
-580 634 2263 0
-683 1139 -1536 0
2521 435 1054 0
-1313 252 2504 0
-3000 769 56 0
1307 1125 -1141 0
-591 1704 1188 0
-2104 2363 1352 0
946 -2601 -2352 0
274 -1301 -2521 0
1928 1158 -1223 0
2813 297 -195 0
55 2200 1241 0
-700 -1496 1358 0
1027 -272 1915 0
1467 1687 1764 0
352 2934 415 0
935 -611 -522 0
2122 -2531 -1571 0
-186 585 -1908 0
-867 -1079 -549 0
-345 696 2914 0
-1893 1199 -1488 0
-2518 2708 2903 0
-1273 1527 413 0
1749 2367 1852 0
-1791 2283 2414 0
-1459 2632 2988 0
430 1018 2638 0
-2367 2201 12 0
1510 356 2492 0
-2835 -470 -1308 0
1512 2727 -2229 0
1385 979 -842 0
-2707 228 -1100 0
2540 -803 -93 0
732 -676 -174 0
1547 628 -1056 0
1236 -2773 -120 0
-1756 -1681 -27 0
-662 763 -2941 0
653 -2039 -1594 0
2950 1169 -349 0
-2296 -576 -814 0
1425 872 1665 0
2886 431 -2264 0
2241 2909 -1072 0
1996 2637 549 0
-1126 772 741 0
-1106 -2811 590 0
8 2159 -465 0
1902 2874 -472 0
-2662 -280 1615 0
-1518 -2683 986 0
-2239 2092 -1097 0
-1521 -1289 -1336 0
2924 -1935 -1290 0
50 -575 -2542 0
-1540 -895 -2080 0
-1030 -1789 1852 0
-2530 -2312 -541 0
819 2028 1347 0
2449 -734 -1948 0
-954 -1396 1024 0
-428 -577 -2487 0
-898 -11 -1850 0
2954 2597 -2865 0
1522 -2215 -38 0
-747 156 -466 0
887 1896 2016 0
733 -283 -655 0
262 -1926 -798 0
2109 -1714 465 0
1669 -498 -349 0
2579 -2853 -1879 0
1203 2545 -406 0
-777 -2061 1219 0
1761 2411 73 0
1790 2847 2494 0
-2226 1666 915 0
650 506 -2832 0
2602 938 -2650 0
1456 1064 -234 0
-107 -2082 2367 0
2160 2127 -686 0
-1580 2324 -2964 0
531 -2057 1361 0
-3000 462 114 0
1835 -536 -583 0
2288 1782 2678 0
1736 -1715 1268 0
-710 -2584 -1584 0
-146 2676 -1072 0
579 381 -742 0
-2811 -497 2452 0
1892 2784 -2602 0
-860 2475 974 0
-1029 2480 1631 0
-2596 2809 -2193 0
-1172 -110 805 0
-2022 2350 -1902 0
-481 -2194 2873 0
185 -2913 -45 0
-1932 -853 144 0
-329 2061 1760 0
-890 -2645 -1377 0
1594 -1893 -1358 0
-2592 -1769 -1456 0
-2737 -344 1587 0
-2413 2315 -2267 0
-1044 621 178 0
1466 2427 2819 0
-2480 932 -844 0
173 128 337 0
-1669 2997 1873 0
-1040 -380 2845 0
781 -2643 2112 0
-2036 -168 -2813 0
-1592 -1802 409 0
-2111 -2576 243 0
2382 -1041 -282 0
-676 -2169 714 0
-2463 -769 2726 0
724 -1251 273 0
-1034 537 368 0
-1433 579 -2778 0
-2080 724 516 0
-859 -579 2290 0
938 -1930 -762 0
1646 2485 -2226 0
-2624 -2717 1505 0
2269 677 1703 0
-338 901 -1939 0
2161 1534 -201 0
-2210 -103 95 0
1193 2763 2402 0
471 -2477 -2645 0
-1720 -547 1914 0
-87 -792 1391 0
-997 -2241 -1779 0
-1696 -2513 -2665 0
-1375 -1292 -73 0
2331 2592 -2620 0
-1701 -360 -2112 0
483 -1386 744 0
494 -2702 475 0
-770 141 1860 0
867 -2143 964 0
-2344 -330 -2581 0
2967 27 -1352 0
697 -689 1972 0
728 1764 2692 0
-587 1354 2016 0
1853 691 -2400 0
1705 120 180 0
628 -774 -1791 0
-401 -1579 -1416 0
-1251 953 -2461 0
2611 222 210 0
-1728 239 1585 0
1104 -2502 -752 0
-586 -1238 -920 0
53 -2197 -1573 0
-2377 -497 -1805 0
2614 -883 2931 0
405 -1842 2117 0
1465 -472 669 0
-1811 -2236 -1950 0
1410 -291 328 0
-2221 2841 -1323 0
-2600 467 2504 0
-963 -338 -1177 0
2886 540 -2284 0
2930 -727 2623 0
863 115 -2176 0
-1153 -1863 2502 0
-1266 -1560 -123 0
-304 -1505 1694 0
-1096 1816 1496 0
284 2481 1681 0
-1970 1018 617 0
-1729 1127 913 0
-1167 -2837 -1366 0
1752 -1563 -2458 0
2306 -1570 -2754 0
-543 -2927 -1151 0
-232 -370 -2273 0
-1325 89 1938 0
89 -2243 1269 0
631 715 -2436 0
-616 2833 694 0
-111 -2506 1029 0
252 2379 345 0
-2522 1588 1300 0
-625 -2135 -1322 0
1726 -200 -2444 0
1498 2282 2819 0
512 -1585 -935 0
-2864 578 2078 0
2552 1753 -1121 0
-2358 2568 -101 0
1938 -2315 -1260 0
1711 -1101 463 0
-524 645 2221 0
227 2971 200 0
402 1261 -978 0
-2512 -1607 2490 0
-2887 -47 -132 0
417 2454 1666 0
1836 -1209 -783 0
-366 1191 -1848 0
-2819 -2528 1475 0
-2606 2321 -604 0
-2455 760 2190 0
1510 -68 -1618 0
610 -2831 1266 0
-2002 -178 2071 0
-1429 -1873 776 0
889 2180 2477 0
-1991 206 2278 0
876 -1578 2373 0
116 -1906 -2167 0
-2365 -1918 -621 0
2737 2028 -2142 0
1960 -76 -2233 0
-2135 2596 -664 0
2818 -2789 920 0
-826 34 -607 0
1185 -2000 2589 0
918 1652 190 0
355 2061 1839 0
1840 -799 -978 0
-949 -458 1554 0
-2445 2562 -91 0
-2881 -1014 -1634 0
891 1080 2720 0
-2308 2969 -509 0
532 -164 759 0
2012 1092 201 0
-637 -270 2194 0
1486 58 1637 0
1028 916 1447 0
2376 568 -883 0
-2896 1945 -2938 0
1733 1305 1598 0
-1070 -1509 -849 0
-24 -773 1818 0
619 -2341 1650 0
138 -788 -140 0
-1488 -664 2052 0
-1141 -2652 2796 0
-898 -1085 926 0
-1565 2718 -67 0
300 2670 2908 0
2010 2453 -2649 0
2116 -2183 1770 0
-1479 1495 -2521 0
1785 54 365 0
1417 417 1245 0
-772 -506 1807 0
-438 2814 -1572 0
1621 -1545 -588 0
2635 2884 824 0
1752 1332 2965 0
-609 -2621 -2783 0
1026 -962 -2575 0
412 -1717 -1977 0
-365 2126 -2984 0
2316 -2341 -2958 0
1979 -1612 1580 0
1392 -647 -272 0
-130 654 1488 0
-173 -185 -1201 0
-1046 -773 -2389 0
-2559 2978 -663 0
-1805 888 1252 0
1460 114 464 0
-1117 -430 875 0
1088 599 -1021 0
1180 -6 1371 0
1068 1341 447 0
-1975 1935 -603 0
2395 801 1425 0
-170 1078 -560 0
-977 -510 2357 0
-1383 -343 2838 0
786 1132 1769 0
-1858 -460 1061 0
-2970 -1717 -2658 0
-781 -2358 -397 0
1301 2185 -307 0
-1376 -659 -2206 0
-2173 -2255 -87 0
-1860 2502 -1232 0
1375 -2893 -669 0
-1512 375 2231 0
1926 -587 1626 0
1458 1269 -2020 0
-2651 -846 502 0
-1552 -1170 739 0
2792 1810 2566 0
2365 -2742 700 0
449 -1624 -2456 0
-2637 1589 2251 0
-890 -2178 473 0
-1067 2014 -128 0
-2767 -948 2532 0
2216 2948 584 0
1597 -1016 -1147 0
627 -1992 1404 0
-2356 -471 1232 0
2952 -158 2079 0
-1074 2619 -2445 0
-2275 -2746 -2412 0
-1685 794 2891 0
-2046 2200 2090 0
2507 1440 -1027 0
-1794 1719 1592 0
2652 -39 2403 0
-225 -1047 954 0
-2093 -1333 972 0
-1419 -2339 -2740 0
-1235 964 2102 0
2986 -1778 -2231 0
985 1646 520 0
-1076 -1106 -1922 0
-1902 -2744 1139 0
-1649 -2532 193 0
2821 1382 1794 0
-855 -928 488 0
-1587 -197 -2248 0
-1947 -1990 -680 0
-2871 -1827 -2315 0
1444 1716 -1349 0
450 1444 -1833 0
-2491 -2125 -2078 0
-1894 -417 -1599 0
2443 1778 477 0
-1954 1985 2948 0
797 2256 2425 0
1872 -190 -1971 0
-2138 2422 -173 0
2397 -200 -344 0
-2036 1968 266 0
-2163 -662 -1018 0
1233 1091 2070 0
-109 -1770 1259 0
-1756 2247 2244 0
-474 -1879 -2447 0
-2114 -170 -100 0
-185 -875 -1459 0
-688 -572 138 0
2094 -2613 -315 0
548 1370 2801 0
-1764 1751 83 0
57 -1764 -386 0
1135 -2890 -2568 0
-1274 2640 1086 0
2177 2382 570 0
-22 1633 -1614 0
-2308 2879 1177 0
1889 2844 -57 0
643 92 866 0
381 2291 1913 0
1585 -2530 -937 0
1419 1418 692 0
1891 904 -2023 0
9 358 1967 0
160 -2886 1371 0
1887 2977 2507 0
432 -2177 -1833 0
2480 2093 2924 0
-2851 1166 572 0
-836 161 336 0
-1445 532 1628 0
2456 1062 -775 0
861 434 -797 0
-554 796 1177 0
314 -2974 2923 0
-941 -2590 2893 0
912 622 2518 0
105 2635 1256 0
2414 2275 223 0
695 -917 1747 0
255 -2932 1437 0
-1357 -640 846 0
793 1697 372 0
-397 -2424 -1629 0
-107 384 -1813 0
2213 -1620 -1613 0
494 -404 1245 0
131 -1694 -2291 0
1988 598 -394 0
-1077 2237 -1753 0
-1573 31 -999 0
1209 -807 1099 0
-1013 -1044 -1515 0
-1735 -823 1549 0
-2511 -2582 -1269 0
331 1252 -1046 0
-892 -1596 192 0
2901 1326 -2726 0
-2756 -1308 2441 0
901 -2218 2220 0
405 -2942 -2782 0
2124 -2505 -2003 0
2764 -1915 -2199 0
-919 -1955 767 0
-1362 -427 -1460 0
2281 1995 2955 0
-1802 2831 1919 0
2521 673 -1481 0
-864 -2627 2589 0
890 -1352 197 0
600 -1359 -170 0
2083 -2223 -972 0
-174 2227 1704 0
2375 -25 -1945 0
-442 -1386 -1368 0
-1885 -591 2787 0
-230 1384 1573 0
-1076 -1792 -2845 0
2243 -91 525 0
-9 -1842 1173 0
-2720 940 -2949 0
-1550 1539 517 0
2335 -1590 62 0
-516 2710 2325 0
487 -419 1482 0
1903 1393 -227 0
444 -1731 -344 0
-976 -2309 1711 0
2566 1306 -1099 0
-2287 1604 541 0
-970 2377 -1298 0
3 2361 -598 0
-728 -1270 -2336 0
-1130 -1234 -1112 0
2149 -275 618 0
-2899 -1657 2085 0
-673 1721 -636 0
2161 432 -1684 0
1607 321 2505 0
-1491 -566 1421 0
-1312 -87 -2969 0
-1740 -1076 -1759 0
2318 2276 -2846 0
471 -548 2372 0
-2694 406 -952 0
1290 135 -2128 0
2119 45 2063 0
-1148 162 -2705 0
-949 2617 1356 0
1429 1118 -666 0
-1618 2709 2124 0
1744 -2536 460 0
-1140 -137 -1691 0
-2587 -650 479 0
-1628 -2894 -808 0
378 616 2685 0
1828 1654 80 0
-773 1668 1411 0
-1072 -746 -1810 0
2078 1151 -2489 0
126 -1334 553 0
-2642 -1063 -1525 0
2033 590 -455 0
-12 796 1600 0
-526 2657 1293 0
64 -866 130 0
-2062 713 2761 0
1135 -885 1828 0
-14 519 2740 0
-1086 1948 2761 0
-445 -2489 -1644 0
-2130 209 174 0
-631 670 1706 0
-2381 -835 -2201 0
-1221 1022 1815 0
1555 -1144 -1358 0
2910 -106 -49 0
450 -1612 -2842 0
2801 1304 -532 0
1341 2788 -680 0
-670 -1314 531 0
603 1278 -2783 0
2688 -2224 -221 0
-434 -2678 757 0
2957 251 -769 0
351 -1896 -1263 0
-471 -398 -2157 0
-1676 -2824 2727 0
1415 1084 -150 0
-2780 -441 -2877 0
1698 2272 -401 0
-395 28 1825 0
1038 1592 2788 0
-877 2549 -768 0
2287 1996 -2164 0
1289 -2120 1636 0
-1843 -929 2491 0
-495 1306 -57 0
2258 109 -2344 0
-721 -2434 2358 0
-2257 -2199 -246 0
-254 1386 -930 0
1625 329 -1227 0
-308 -1879 -1609 0
1195 -2792 347 0
698 -2362 -220 0
-1611 -2559 449 0
-1724 2234 610 0
2972 -1146 2118 0
-1347 739 685 0
1722 392 1375 0
735 -2931 2825 0
1753 -2518 912 0
1375 1580 -2650 0
-1536 2013 1213 0
642 1230 -1396 0
2260 2400 -1347 0
-1323 726 2411 0
909 1357 -791 0
-2153 -2391 -1849 0
-269 -1381 -1921 0
2869 2651 -978 0
907 -545 -170 0
295 -1258 -607 0
-474 693 2457 0
-1586 1665 1100 0
1657 -2233 -2792 0
-604 2544 1488 0
1466 -1136 -386 0
-1719 -1761 -2010 0
-2948 1273 -2203 0
-785 2161 2030 0
802 2477 -2632 0
2729 -1464 184 0
-710 -858 855 0
-1108 -1125 2654 0
608 2857 926 0
-2174 1434 2670 0
221 2796 860 0
1775 -759 1485 0
-1924 1696 -269 0
371 1867 -2566 0
484 -1402 -1397 0
-2612 -1133 -1683 0
2179 115 -2156 0
-742 -2564 555 0
-929 -1721 587 0
333 508 806 0
2193 -1436 2141 0
707 -1089 -993 0
-724 1060 1944 0
-774 2406 944 0
2031 256 -2878 0
141 2540 2081 0
2202 2298 -411 0
699 -2059 -1921 0
2464 945 1119 0
-1093 2898 34 0
-987 -723 -264 0
-1586 2674 -1927 0
845 -2405 758 0
-1084 -719 1289 0
728 -2123 1199 0
525 1882 791 0
386 73 -2827 0
1351 829 173 0
-1151 468 1773 0
-2634 1183 -2812 0
734 2498 2321 0
2563 -1132 477 0
2941 -1062 2284 0
-55 -2857 -438 0
-1456 160 1313 0
-1869 2502 -2937 0
1563 2966 2278 0
2302 -1383 -2028 0
1069 -2161 365 0
-2325 1117 -2751 0
2079 -1245 871 0
-1978 2980 -1740 0
897 -2301 -2069 0
803 2417 1473 0
-901 817 -1232 0
-1105 662 2608 0
1677 -2937 -808 0
341 1832 -2093 0
2965 2752 -2785 0
-177 2561 -741 0
1876 631 2214 0
2413 -89 -2913 0
-374 -2218 -1117 0
-818 -55 -1884 0
915 970 -1457 0
-1214 205 1433 0
330 -756 2340 0
484 2041 -1469 0
1401 697 954 0
-1396 2429 -2058 0
-499 -2528 -1427 0
-2204 -554 185 0
-329 2963 -2491 0
2313 2727 -2705 0
-2966 -308 239 0
-2240 636 1514 0
2284 954 -2851 0
-2353 -1613 -1491 0
1888 -2833 -817 0
-118 -2959 680 0
2091 -166 1479 0
2340 1634 650 0
-1955 -858 1361 0
2807 2476 1152 0
-954 -2899 -1636 0
-489 -800 2030 0
-555 1507 2316 0
-1983 365 -2947 0
1689 308 1321 0
2234 2593 71 0
-1685 -1891 2824 0
-761 2535 196 0
2441 589 1236 0
2540 -1253 -2019 0
1347 16 831 0
2095 -403 -1266 0
2415 -188 1361 0
970 1515 -2285 0
-502 2899 1473 0
2982 747 -2938 0
-2875 376 1989 0
2239 1289 2784 0
1821 -2170 -1284 0
-359 -2735 -1287 0
2599 -2790 1709 0
-861 -2844 -1194 0
1517 -1747 2023 0
-49 -664 892 0
1792 2707 2960 0
1779 -308 2732 0
-960 137 -1598 0
-2696 -2769 1456 0
-2086 705 2036 0
-1068 -1216 -698 0
1147 263 1157 0
2755 2124 -2496 0
-2377 2295 1071 0
-754 2509 320 0
-719 2259 754 0
-1897 2956 1672 0
2782 1006 2930 0
-1330 835 -1069 0
562 2424 1318 0
-2197 -2767 -978 0
-2048 -1441 -2296 0
2679 986 -2836 0
-196 2916 -1130 0
2758 -1572 305 0
587 377 -1504 0
-2203 2344 2693 0
-2732 464 6 0
-726 1138 442 0
1975 -19 2379 0
-1825 -1924 -1399 0
-2048 -1342 -2940 0
-1127 2450 -2266 0
625 -87 -846 0
-1465 -1735 1725 0
-2956 -1673 596 0
-1815 -2134 -1186 0
-1444 1080 -616 0
-2529 -2412 2704 0
-540 2567 1370 0
988 -626 490 0
1598 -2861 -510 0
-225 -1633 -554 0
2895 763 337 0
-1445 -2749 -1112 0
445 322 458 0
116 2458 468 0
-499 258 1368 0
2107 -1838 1457 0
-2726 1764 -2454 0
-1250 -1516 2001 0
-267 23 2299 0
1566 -1576 -2644 0
-2857 -2209 -1651 0
-2471 -1588 1579 0
-2515 -2511 194 0
583 1638 -2359 0
1067 -2503 -323 0
899 2697 -2326 0
16 35 1963 0
1313 -637 1928 0
645 1777 -2693 0
439 -1694 -846 0
-699 -855 -2701 0
-1124 -126 -496 0
917 -171 -670 0
73 -2273 2955 0
-2262 1779 138 0
-2402 1618 -591 0
2649 -2642 1668 0
-965 -1591 2154 0
-886 921 -595 0
-2123 -55 -257 0
157 -972 -2540 0
-2078 -2014 1408 0
-2925 255 2542 0
2861 -2969 -2880 0
-947 2160 -920 0
1937 -1640 517 0
-736 -967 1571 0
-1244 -1021 -1291 0
1875 251 2441 0
-2391 -2443 -949 0
-2733 -38 2579 0
1681 -1228 -2495 0
-163 635 -24 0
-188 -581 -2433 0
-836 895 1377 0
462 -91 -386 0
-1672 229 -2769 0
2078 2198 -2345 0
578 -961 913 0
328 1526 -2732 0
-1629 -666 -1054 0
619 268 2255 0
34 598 956 0
-1395 -2047 -1687 0
55 -1521 216 0
-2412 825 2504 0
-563 1899 2446 0
1969 -46 -2701 0
-2975 358 2833 0
-2750 -451 -2310 0
-2497 2789 -1505 0
-1362 -2905 1211 0
-2383 -598 -1531 0
-1308 417 591 0
-1654 -2012 -1533 0
-2021 -538 1758 0
664 -1846 847 0
966 -734 -1724 0
-2055 -2864 -285 0
-1142 -523 2529 0
-1418 2803 1292 0
538 -2712 -1395 0
-2678 294 -642 0
2431 -104 -2244 0
-1334 1336 -785 0
-2612 421 -287 0
-28 -2241 2284 0
1445 -824 -831 0
1718 2818 2047 0
-2538 345 -2011 0
-2047 268 -363 0
126 502 -2870 0
-928 -1177 326 0
-1633 -1609 889 0
-2320 -223 826 0
281 -1445 241 0
263 1285 -546 0
-1059 -782 -299 0
-2791 2340 -1201 0
208 139 155 0
1137 2721 -1162 0
926 2452 -844 0
623 -2609 -792 0
-2470 987 56 0
-87 954 2119 0
1928 -1720 -686 0
-2860 280 1196 0
1950 1551 838 0
469 1295 -341 0
-2147 -2648 1509 0
-2511 -2578 1095 0
584 -2617 -2458 0
2133 -1535 1572 0
-2725 -2028 703 0
2779 -1608 -855 0
-1500 581 2639 0
-274 -424 -1032 0
-193 -2032 2226 0
2547 -917 173 0
-605 1687 -718 0
2229 -2987 -1869 0
2083 183 -2653 0
2357 -704 -1235 0
220 -298 416 0
-1271 890 -2155 0
1968 -1850 -568 0
521 -1309 1854 0
-1666 -2035 -2752 0
2556 1451 -1455 0
97 1198 -2162 0
2149 -2176 -1564 0
-1271 -511 -1956 0
-1056 -410 -403 0
2826 2226 -792 0
2879 -2762 1005 0
2841 2740 1748 0
1445 -1106 1518 0
2362 -1587 1610 0
128 2603 -2905 0
-530 -702 -1811 0
-2628 1078 -2815 0
-2107 -1021 1447 0
1321 1903 2544 0
1521 237 2499 0
-435 -2440 1110 0
1692 338 -2160 0
-1069 -2896 517 0
-2886 436 -2530 0
-1720 245 2087 0
2663 1555 -2220 0
2201 2829 2734 0
2246 30 993 0
805 1326 -2316 0
-125 -1605 -1380 0
2915 -875 -2670 0
-430 2393 -984 0
-1596 -473 2453 0
-1377 2843 2030 0
1114 684 -1052 0
1878 -2069 501 0
2757 -2857 -2760 0
-2912 1238 1013 0
-1980 -1481 2661 0
2428 -1370 436 0
-47 -1519 309 0
2032 -2600 765 0
245 401 2009 0
2604 -964 -1362 0
-2573 806 -759 0
153 12 -2318 0
-486 1587 -1724 0
-2586 1355 2652 0
-2423 86 -2168 0
-547 -1474 -1243 0
-2236 -559 -2578 0
6 1661 2954 0
468 2219 -200 0
2070 -2061 -1511 0
1094 -949 -1515 0
565 -1431 2737 0
2703 -1778 2165 0
2500 125 -627 0
208 -1071 1479 0
1512 1064 -1276 0
-186 2405 1194 0
1394 2561 862 0
2063 -233 212 0
2150 -137 -444 0
1112 -1308 -2110 0
385 1947 -2775 0
-1186 -1532 -819 0
-581 -1901 -1196 0
-2789 -2547 2771 0
-1025 -2298 671 0
124 1622 887 0
-1385 -2736 1650 0
-1977 -2058 1811 0
-305 -2929 -2696 0
-1202 2091 -2217 0
2443 2958 -447 0
-2990 2310 -837 0
2705 -892 498 0
2118 -2786 -159 0
432 1332 -1067 0
-198 -2757 2956 0
329 580 -1043 0
-1397 1697 -130 0
-1510 2246 810 0
-2458 -2076 -2802 0
-2551 -1070 -2902 0
-630 793 314 0
-237 453 2027 0
-2474 -2629 -2976 0
1371 924 -226 0
-2676 1954 -1689 0
-2796 2088 -2695 0
407 110 510 0
2513 1432 -470 0
-655 2591 2466 0
1455 -1221 -67 0
-780 583 -1697 0
2761 2993 695 0
-2241 -1177 1472 0
-2314 -340 -607 0
-2300 857 -1058 0
-271 2816 910 0
226 -2887 474 0
-1012 -2577 -2411 0
1460 -583 2258 0
-2920 -2908 -1055 0
2841 -2494 1474 0
-1928 -1950 -469 0
2880 -946 2641 0
-114 1965 477 0
-674 1784 675 0
48 -44 1374 0
141 735 -2215 0
-2439 2515 607 0
2198 1091 1756 0
951 2948 2903 0
-2508 803 548 0
-2502 1403 -480 0
-2353 93 2387 0
408 -2207 1449 0
-1060 1113 -1809 0
1236 -719 2276 0
2611 2257 -271 0
2999 318 -217 0
2510 -1909 -88 0
548 278 -2848 0
-1556 -1350 1331 0
-742 2569 786 0
-1958 1970 -2344 0
-736 -258 2378 0
-911 845 2144 0
1857 -303 2778 0
-1439 1837 2965 0
1541 -2265 1879 0
-610 -2694 2012 0
2684 1105 973 0
2454 1904 -2957 0
2025 -126 -1900 0
-1016 793 1223 0
-1958 -1323 -730 0
-643 -171 2344 0
2141 -59 -2838 0
-1568 -2644 1938 0
-2558 -2022 1481 0
2687 -63 -2607 0
2451 2718 878 0
305 2583 1530 0
-357 -1688 223 0
-1689 834 2782 0
-2375 1712 2556 0
481 248 -1756 0
2517 -2733 28 0
335 2801 63 0
876 2873 477 0
-2147 2413 2036 0
-1975 1478 2912 0
-96 848 2512 0
2617 -2615 1773 0
55 -2051 -1690 0
-2524 -660 -153 0
-1568 605 803 0
951 2230 -941 0
1196 322 -2889 0
1096 -2118 2264 0
2956 -294 2396 0
-1686 -1143 519 0
-1889 1486 -1989 0
-2263 1818 952 0
-1286 -517 2276 0
2919 -2170 2932 0
2499 -2072 -496 0
-53 1989 -1414 0
664 202 1806 0
-581 -1840 -431 0
2838 2733 1741 0
-1724 -2346 2840 0
-247 593 -439 0
1554 -2973 1595 0
1061 -2311 -1224 0
124 2354 2922 0
2339 1056 281 0
2028 -1497 -2834 0
-1902 -1746 482 0
762 -520 -700 0
1019 -1153 591 0
2610 2407 -1996 0
563 2703 1356 0
1179 -733 -1925 0
-2424 -188 -1587 0
1842 -228 1850 0
1612 638 650 0
2703 -903 -2845 0
-436 2106 2499 0
-1374 1938 1186 0
-1981 2614 -2632 0
-2789 2793 -1127 0
351 271 2248 0
388 2243 451 0
-932 1744 2380 0
-1632 -1382 1880 0
1120 -2322 -592 0
331 -855 -994 0
2840 2153 -1850 0
1569 2492 485 0
162 -215 -2560 0
-1180 -1605 243 0
-1758 1518 527 0
303 -1555 2731 0
-1602 1122 2051 0
1009 -207 2031 0
-152 1402 1410 0
1902 -2077 995 0
944 2047 -1695 0
345 -2134 2820 0
-1390 -2006 -838 0
-2269 -1105 -1082 0
-2524 -2476 -1845 0
-1941 1053 -125 0
-2256 2948 2439 0
-830 -1799 2679 0
-2616 1318 -359 0
-2908 -2776 2801 0
-1512 242 -545 0
13 375 -847 0
-14 1019 1456 0
991 594 2305 0
-2041 -550 211 0
-509 -1958 1708 0
-644 960 633 0
1803 2585 -397 0
2162 -1173 1930 0
-799 18 -2493 0
-1143 -817 47 0
-1991 -1162 1903 0
2996 -2945 -228 0
-765 2282 -125 0
532 599 -2976 0
1525 -625 2397 0
1463 -740 1770 0
-2382 686 -1270 0
-2492 2733 2341 0
-1906 199 -1820 0
-478 40 1649 0
-68 1178 -764 0
2600 -2315 913 0
-2820 2911 -844 0
-160 -1615 1593 0
-334 211 2061 0
439 -1045 -2814 0
2124 -540 -303 0
-552 29 1469 0
114 -1246 -2598 0
-1277 -1120 -1258 0
2271 -199 2398 0
1529 -1629 2747 0
2146 670 1838 0
-1139 1055 350 0
479 -213 -502 0
-827 2276 -1798 0
-749 -257 -183 0
570 -484 -86 0
567 1779 -1320 0
2130 -1413 -445 0
-2759 611 1917 0
1138 -1056 -804 0
-2056 2954 -2379 0
-1486 2713 1961 0
-771 -1386 -256 0
1274 -78 1005 0
-2937 -2185 1230 0
-2245 2833 -384 0
2468 -647 -1555 0
-517 -1251 527 0
2315 -1342 458 0
-1381 541 -1512 0
1564 -928 -1594 0
2502 2882 150 0
1736 -2730 2336 0
-1707 294 -405 0
2465 -1477 2953 0
2654 871 2791 0
1183 823 -2956 0
1935 2908 -1205 0
862 -748 -2024 0
-1032 1540 2773 0
827 1762 1386 0
1386 1000 1380 0
-1653 396 -1544 0
-2575 -124 -2502 0
743 737 1984 0
1699 -2706 2513 0
1315 387 584 0
-2093 -157 -2082 0
2080 2658 1967 0
-1468 236 2992 0
2047 1063 2780 0
2030 5 253 0
-2755 2337 -1143 0
934 -767 -1012 0
-661 559 -630 0
2950 1612 543 0
1247 -855 -705 0
1004 -2727 -592 0
1726 -2115 -2654 0
-2949 -1804 -1250 0
516 260 -1632 0
2742 1146 -112 0
-1326 1679 152 0
-1014 -1216 -705 0
2326 -2213 -1726 0
-1221 -871 1528 0
2079 -235 -2124 0
-1713 1116 1110 0
2021 -2919 -580 0
-1940 2893 -2811 0
-1078 -1455 -322 0
2572 2524 -2235 0
-2727 -2437 529 0
563 -163 -1407 0
-135 1761 9 0
635 -588 -3000 0
-1788 2930 -1651 0
1460 372 1631 0
1593 1428 2003 0
-363 -1258 -2391 0
650 822 -1162 0
2760 -1239 1234 0
-1867 -2393 -1833 0
2469 -1720 2800 0
1847 401 2075 0
2996 -2640 -2775 0
2500 -1574 1304 0
-2724 -819 654 0
1493 -512 698 0
-2023 -2794 -2357 0
1665 -745 -1615 0
2658 -1895 996 0
-1366 -1107 305 0
-1290 -2073 -1086 0
-449 -1182 -1355 0
761 2300 -769 0
1668 -133 -2594 0
-2235 1583 -1129 0
352 -709 1583 0
2444 -489 441 0
-1156 -765 1532 0
-1921 1051 -2448 0
-2417 428 460 0
1195 -1478 1526 0
1535 -2074 -743 0
1316 -251 -1409 0
687 1317 -2974 0
1607 2856 -862 0
-2739 1054 1796 0
-1844 -2692 -1012 0
-995 722 1132 0
1572 2151 -2186 0
1071 -2569 -2358 0
-1530 -842 669 0
1376 -2031 -860 0
-1770 191 1919 0
243 -2853 2065 0
-764 -212 -2239 0
2973 2287 -2552 0
-1178 1838 472 0
2057 1881 -2267 0
-1506 -763 -1235 0
700 -136 -1228 0
2442 -2415 -291 0
-2876 710 2476 0
1380 1015 2027 0
2896 -1468 -2221 0
-20 -2769 2058 0
-1264 705 2777 0
-2043 -1455 2453 0
-1269 -2104 428 0
-2319 -2680 2526 0
-2626 -1360 -892 0
1128 -1953 -2145 0
-1974 -2974 -1598 0
-2224 -2713 2559 0
-2691 2262 -130 0
-1653 -1710 -798 0
955 -134 -2574 0
-2530 -2567 -2524 0
685 1344 -767 0
-13 -2046 2013 0
2060 2830 -479 0
63 -2763 -1411 0
2599 -635 -2550 0
1230 -797 -326 0
789 -2943 811 0
-905 2142 907 0
1326 989 1284 0
-1021 1651 1090 0
2251 -2295 2675 0
-16 -1539 -2725 0
-1590 996 421 0
-799 1875 69 0
-1984 2664 2237 0
1155 -1329 -1230 0
-2991 -319 449 0
-2867 -1667 -1778 0
-1980 2459 -2948 0
2673 -2088 996 0
-383 -651 -614 0
188 558 -1281 0
2925 1005 800 0
1855 -469 -1757 0
619 1897 -1616 0
-743 -1139 1295 0
-2513 -890 -884 0
786 2868 1428 0
2778 -1409 1787 0
1898 -2272 -2686 0
-80 2231 -242 0
2198 2928 977 0
1585 703 952 0
572 435 -2784 0
508 2476 1523 0
-2708 -2255 -2005 0
2184 505 -405 0
-1263 -317 -1336 0
-798 2200 -2837 0
-2224 2064 -2393 0
1483 -706 1556 0
-2575 1846 135 0
2396 -1924 1066 0
2675 1622 -1652 0
-2100 -1535 1665 0
-325 124 863 0
251 2098 -661 0
-656 -1186 1729 0
2570 2280 -753 0
1460 -710 2741 0
-182 1822 -1305 0
-796 1563 2414 0
-2073 1153 2893 0
-2091 2499 2184 0
-797 93 -1588 0
-2691 -916 1903 0
2796 1049 135 0
-1775 494 1020 0
-1038 -305 1664 0
-1804 415 -581 0
2107 -2383 -805 0
733 -2276 761 0
-1316 114 -598 0
-2449 189 1747 0
2660 456 1906 0
-195 3000 277 0
1307 2392 -1348 0
-867 -2618 1864 0
-1569 -1585 2861 0
580 -2961 -381 0
571 -2234 2508 0
-2277 -1077 1015 0
642 -1522 -2695 0
717 -1137 -1628 0
1624 1453 724 0
-2746 982 -2807 0
2497 -2916 19 0
-786 872 2510 0
-214 1919 -1333 0
-1599 -2737 -1996 0
-343 -1215 -1234 0
2062 2252 -258 0
-1076 858 1108 0
439 -1263 211 0
-1458 -2038 862 0
-1576 -922 -2805 0
-2379 2541 -1558 0
2792 510 190 0
462 -2659 1155 0
1207 1549 1508 0
-2067 -910 -1438 0
2277 -21 -946 0
-1042 -1078 -1055 0
-2799 871 200 0
-1462 -313 1989 0
2080 -2337 -2866 0
-2608 -2630 2914 0
1254 -2272 2733 0
-152 169 -1181 0
2532 -159 -1583 0
-1605 1715 1084 0
-2726 -2612 841 0
613 -666 449 0
-2961 -1844 -2450 0
1106 1643 -1910 0
952 2891 -19 0
1612 -115 2062 0
2236 77 -2685 0
2380 -1316 -1910 0
-2730 785 -1427 0
1511 878 -1252 0
-255 -877 1042 0
-669 26 -339 0
-1527 -1834 -367 0
2807 1621 -1386 0
-857 2699 2145 0
-1443 -214 2509 0
-2171 1318 -1635 0
2717 511 -1656 0
-1484 -826 951 0
-891 1846 -2462 0
-1224 330 2343 0
-2125 1280 2410 0
-1430 -1953 769 0
2499 -2329 1949 0
-2848 -433 -2888 0
-272 2317 177 0
-155 -42 2863 0
-699 -2555 -987 0
1278 -2495 -486 0
2451 -2402 2365 0
2480 -30 959 0
-1689 1590 -2349 0
-1281 853 -758 0
2392 2742 -2447 0
-558 -2349 -309 0
-2606 -2208 2734 0
-561 1170 -887 0
1862 -1662 -1256 0
-2067 1653 -2572 0
2972 -2001 1372 0
2237 -2720 -2411 0
-488 -657 76 0
1284 2864 -2902 0
2201 520 -1408 0
-656 -2862 -569 0
-700 -2081 1573 0
-913 -1875 -971 0
842 2155 -125 0
-2931 -296 2029 0
-1416 679 552 0
-1768 1763 -957 0
-1107 -918 -244 0
2818 -1784 2896 0
-682 2465 460 0
-2329 2776 -2436 0
1082 1096 -2982 0
-2561 -1289 2024 0
-1256 -2249 -2546 0
2321 1752 80 0
2635 -832 -1341 0
-2687 2565 -2324 0
-787 -2164 2879 0
-2746 -335 -899 0
2974 2704 -2798 0
89 -1000 2992 0
-1578 -803 -1404 0
1838 -1322 -799 0
-928 402 -2511 0
-2793 2379 -2802 0
2050 1088 52 0
-2195 1500 -1265 0
-2877 466 139 0
1952 -1135 -2696 0
1083 1709 410 0
352 -642 -1539 0
269 1522 2422 0
-1471 -1813 -2252 0
2132 -282 911 0
566 -2946 -6 0
1710 -2893 -1363 0
2556 2571 -2699 0
1336 -2015 -536 0
-2569 -2837 466 0
1359 22 -1966 0
-2135 434 18 0
874 2819 151 0
-1975 259 326 0
1271 586 -2914 0
1621 1510 -2148 0
2873 1544 995 0
-2147 2181 -1680 0
-2 1281 -1767 0
862 -296 -1528 0
2016 2870 1900 0
-2669 -1741 -1515 0
-905 -1026 -1994 0
2414 -1483 845 0
2965 -1141 -29 0
342 -2329 809 0
-1329 2571 2129 0
2801 -760 654 0
-1979 -964 -413 0
1194 -86 317 0
-380 69 -1842 0
-1514 -1934 -2274 0
-2959 -1012 910 0
-689 -2729 2886 0
-447 3 965 0
2078 469 -1526 0
515 2969 -1926 0
-518 -2886 -1951 0
-1512 2265 1679 0
-731 2136 1244 0
2057 2796 -657 0
-2220 2680 -2726 0
396 -580 2063 0
2198 -1207 2829 0
-142 960 -2637 0
-375 2249 -1018 0
-2161 1868 2496 0
2758 130 -2073 0
-349 -2532 805 0
1547 -1877 -1268 0
-2481 236 -1729 0
-1594 1026 -1796 0
720 122 1570 0
-651 -1524 1722 0
2158 -2620 -900 0
-2676 2136 929 0
2789 2629 1048 0
-2336 2680 -978 0
1608 -532 -2772 0
2360 -337 1570 0
1587 -606 1329 0
-2475 -1817 -2580 0
446 -1489 2622 0
-2837 1752 -1184 0
2336 1599 -1217 0
1045 -2551 2042 0
2276 -2031 1752 0
2642 -2000 1002 0
2473 -640 -1068 0
-128 2550 870 0
838 -1825 2141 0
2748 492 -2023 0
201 -1729 -1849 0
-173 2049 -1606 0
851 2915 868 0
2120 -699 -2869 0
720 -437 -1561 0
-1259 -1770 -381 0
-1453 22 -2813 0
967 -69 -2934 0
-554 1595 -1288 0
-1813 2902 2014 0
-1199 -1803 -2976 0
-1126 -1878 -530 0
-542 795 810 0
2888 -1466 -1956 0
-2105 -240 -1930 0
-1318 -1602 -2487 0
-2435 2067 -198 0
539 1299 -938 0
755 -2950 -2437 0
-948 -2722 379 0
-1883 2515 -1315 0
-653 2391 -2078 0
2450 -615 -1370 0
-579 -1123 409 0
-1289 411 396 0
-2637 305 2304 0
-23 2283 1329 0
1367 829 1749 0
-2472 13 121 0
-2811 -444 1044 0
2297 -1839 30 0
2519 -539 2564 0
132 655 -2985 0
-1949 -168 918 0
1804 550 1800 0
2500 2902 1505 0
-1024 -2057 1422 0
-2685 -1163 -2477 0
309 2556 -1171 0
-561 -2485 2765 0
-2353 -2031 79 0
2919 2349 1804 0
4 709 -866 0
-1907 -5 -589 0
785 -1756 768 0
-2730 -2736 -1112 0
-2586 1945 450 0
2326 -1396 -147 0
-2671 1310 -1038 0
-2618 -2062 -1285 0
1193 -1589 118 0
-2399 -2224 -616 0
46 -955 -1027 0
2580 -2191 -1417 0
-635 -113 2120 0
1384 2788 -1812 0
315 170 618 0
-1193 939 -1957 0
1616 2386 2410 0
-654 703 1791 0
972 407 -1543 0
-2905 -2717 -658 0
1048 -1864 881 0
-2029 1552 -545 0
1559 -866 2981 0
-2240 1117 -2097 0
2092 -2441 -2368 0
-783 641 1715 0
-644 -106 637 0
-1595 2451 -2398 0
228 -505 -2965 0
-1173 3000 150 0
-524 -749 2118 0
-1759 1399 1727 0
-2358 2178 -1459 0
924 274 -1386 0
-273 -3 -1988 0
1584 -1841 -2255 0
1369 -1814 -706 0
-1125 -499 2619 0
682 -2732 -2878 0
1308 903 -101 0
155 2695 -2007 0
903 -911 409 0
-1324 853 -1619 0
-2530 -2940 -1307 0
-1338 -2590 -919 0
-1584 -310 -2194 0
-599 1702 -610 0
-2127 612 -2968 0
-2575 -1741 -2289 0
964 1798 -2775 0
985 -762 571 0
-2356 2480 2646 0
2566 -355 2234 0
-2902 -541 1457 0
-825 2412 961 0
-755 2816 2982 0
134 135 -2459 0
-1575 -1266 1422 0
-1827 -513 2182 0
2579 -244 2449 0
1797 -2022 609 0
-1183 1939 807 0
-1923 -2339 548 0
-797 -291 -2070 0
-2236 1931 -1174 0
1357 -1819 354 0
-857 60 -1930 0
2242 2129 549 0
-186 2390 568 0
451 2432 -2161 0
505 -1101 -836 0
-2024 1432 -1675 0
306 -542 -1122 0
711 -1395 2128 0
-2509 -1893 393 0
-2606 -638 281 0
936 672 -2918 0
-2781 47 -1482 0
2677 -2574 -467 0
-2250 -275 2895 0
2807 -956 2405 0
2527 -675 -2538 0
-624 1966 -149 0
1615 2945 -1824 0
1876 92 -678 0
2338 -99 -2752 0
-2584 2204 443 0
1200 -101 1679 0
-2357 2011 2641 0
-772 2247 -1763 0
212 -1873 966 0
452 936 2494 0
-1158 -150 -922 0
-2843 -492 1499 0
423 2397 1668 0
2722 -1071 2571 0
-647 -359 2709 0
2275 -1056 -958 0
-2296 1934 -366 0
1857 -932 180 0
1085 367 470 0
-1664 -374 1656 0
1135 -1540 1150 0
606 1978 -1933 0
-1024 -488 2344 0
-1771 538 -1895 0
2314 2087 -854 0
1691 -856 399 0
-950 211 -1289 0
1821 2302 -1493 0
2743 -2989 880 0
-524 -2186 -1801 0
565 1450 -1063 0
767 -2773 -2871 0
2471 -609 -1285 0
2191 -1856 -2293 0
318 -2307 2120 0
-1555 1533 -2628 0
-1396 -619 448 0
228 -698 -1486 0
2398 86 -421 0
508 -1136 192 0
1844 2205 -1105 0
-13 -2140 949 0
-1727 -135 278 0
1938 1561 -73 0
2027 720 183 0
-2799 -1858 1186 0
2512 -1568 507 0
1074 -1765 -537 0
-297 2098 2130 0
1629 1806 1693 0
-532 1145 852 0
-743 1402 -1827 0
-1634 1063 -1108 0
-2530 -1414 164 0
420 -2810 -2251 0
2325 621 -1840 0
1540 2406 182 0
2750 2712 1645 0
-2990 1849 1344 0
-1265 -1811 -343 0
-1528 776 -1809 0
-2681 1937 -907 0
-2861 660 -1997 0
-712 -1194 1335 0
-2025 2889 -2183 0
-2096 -2967 866 0
-2681 -946 1199 0
668 -633 312 0
2061 2679 1480 0
-1133 1454 2485 0
1051 1824 -2602 0
-278 1865 -2963 0
217 -2121 2768 0
-1958 2729 -726 0
-1946 2704 -458 0
-221 -1430 -2154 0
2177 225 -284 0
415 -2013 -1375 0
729 -114 -119 0
-2259 1311 -633 0
1877 -1373 -1478 0
-2739 1876 956 0
2250 -488 -651 0
2396 2876 -475 0
-2741 2745 2413 0
114 1200 2283 0
127 -1741 -261 0
-862 1860 136 0
1004 266 -2978 0
363 1753 -2361 0
2286 -2192 2426 0
-1031 2208 1653 0
2740 1575 -1730 0
-2628 1519 -202 0
-2534 1792 2799 0
-630 1229 764 0
1216 970 2139 0
-1081 1337 177 0
-381 1125 -2729 0
2630 -2518 425 0
-146 -1123 1723 0
517 2093 529 0
2207 -2609 1118 0
1488 1545 115 0
2534 -2156 -806 0
2467 1984 2078 0
1499 -2510 683 0
130 -1088 -2336 0
-2719 -2907 630 0
-1082 138 2612 0
104 -2261 -231 0
-194 -890 -2617 0
1465 2536 2764 0
-2811 440 -589 0
-765 -1421 -318 0
2929 2232 2553 0
1239 1831 221 0
2472 2146 1752 0
-880 644 499 0
-1264 273 -1657 0
-1880 -2079 -651 0
2583 -1886 2756 0
-2163 256 1062 0
-1484 -2498 -2414 0
-1036 1490 1229 0
504 -1829 804 0
-1727 857 -1663 0
1023 668 -2444 0
-143 341 -581 0
731 2700 914 0
-266 2069 647 0
1768 1554 -2111 0
-419 -401 -2829 0
2380 -1711 -1647 0
1859 2973 -1180 0
1990 -2402 361 0
-31 1289 1595 0
1034 1483 -713 0
1247 -1313 -830 0
-1638 2719 1676 0
797 -2687 935 0
2788 932 2910 0
1071 -2924 -1399 0
2850 2345 2764 0
-61 1926 715 0
1945 -628 -2488 0
-1172 -558 -699 0
-1801 858 -2402 0
1583 190 -234 0
2158 -2469 2960 0
2114 280 2582 0
1489 -1221 -141 0
-1867 69 -2619 0
-1513 52 -2224 0
2554 2125 -2587 0
-967 -564 -555 0
917 2278 2268 0
-1965 2078 2861 0
2428 -2990 2716 0
-2884 1451 -2509 0
-2475 -1975 -1145 0
2641 906 -612 0
1653 -2896 -1248 0
-779 -1961 81 0
1245 1385 955 0
-2049 -2735 1829 0
-2863 328 1149 0
2243 1526 2346 0
972 1970 2892 0
2129 1727 -2973 0
2071 960 619 0
-2511 2017 -2185 0
1251 913 -1296 0
856 686 1802 0
-2129 296 -2920 0
1448 -239 -1472 0
1893 -141 2868 0
599 1742 96 0
536 -1569 2940 0
-1822 -1452 13 0
1266 999 1179 0
-662 -373 -297 0
-1626 -2606 -667 0
856 2159 1067 0
1372 87 1668 0
1882 -2347 200 0
-2154 -1931 2120 0
-714 2149 -27 0
-396 -64 2362 0
106 -1627 -265 0
1847 658 -2732 0
-2234 -1667 -2779 0
-291 1856 583 0
-2790 -1305 568 0
-2722 -1139 -582 0
2102 -154 298 0
-214 -996 1904 0
2370 -373 2517 0
-2065 -2726 -516 0
1627 591 -1472 0
-1640 -1090 2985 0
2014 -475 -1524 0
-2751 -446 -1695 0
2485 -890 -1733 0
1553 1460 -192 0
-63 -2418 -1860 0
1492 -468 -288 0
-2828 1876 -168 0
272 -2056 -1352 0
-1393 -2991 -1193 0
-904 -685 -646 0
-478 2713 1124 0
-2552 1133 -1546 0
812 2727 -1200 0
2944 1303 2848 0
-2118 -2566 1212 0
1413 2477 951 0
-2065 -2660 1522 0
311 91 1177 0
2216 257 2192 0
-1632 -553 1055 0
2820 -1740 -270 0
757 -1223 64 0
-1427 2001 1942 0
-1788 -418 700 0
-1355 1687 -2291 0
-1946 2944 1705 0
2580 -2782 -1095 0
-301 -2988 -52 0
525 -1225 -1313 0
1790 -1912 1776 0
1658 -2908 2176 0
-2835 -50 2598 0
-2423 892 -2126 0
2972 1425 -1064 0
2977 -821 -1730 0
2782 -384 1546 0
1423 2850 -225 0
-1532 631 -1115 0
2330 2557 351 0
-1930 -2515 -335 0
-2419 2758 1694 0
-2171 -462 80 0
-2617 -1611 954 0
-2364 -1173 1958 0
246 2536 -632 0
-799 2095 -2621 0
676 -1330 1196 0
-2376 -2789 -1088 0
522 2196 -1075 0
2581 -1081 -1692 0
-318 -102 -1754 0
2509 -1232 887 0
-223 627 2995 0
-430 2189 2017 0
-2255 -1962 857 0
-646 1238 896 0
228 -1222 2902 0
1107 2613 2707 0
-233 1141 -2739 0
2233 1268 -1079 0
-2940 -47 2279 0
1613 -1802 2600 0
-1461 -2897 -2843 0
-335 2510 -847 0
2809 1958 1067 0
-781 -2674 2883 0
-375 561 1251 0
-907 250 -1664 0
2218 454 1401 0
2818 -2201 -2606 0
972 -1724 2193 0
124 1646 -1382 0
-593 -486 1407 0
-2686 -876 -1280 0
1888 -753 1028 0
2810 -2788 815 0
1085 658 2039 0
2274 2462 -1130 0
-1629 1720 815 0
-921 -2230 -1387 0
-2522 -261 -1089 0
-2338 -1142 1235 0
2019 2020 1108 0
-2365 1092 2612 0
-2197 -2666 -1722 0
-1283 2160 331 0
863 -2542 -539 0
1470 -1657 2517 0
-122 590 -2903 0
-345 1682 168 0
1994 -877 1039 0
1916 -2019 -2003 0
-1027 -747 -1550 0
1572 697 1040 0
1172 -1990 -2748 0
-324 1680 2808 0
2921 40 2787 0
955 -325 2099 0
2457 -175 -1759 0
1327 910 1432 0
1129 2355 160 0
-333 220 2897 0
71 -1634 1025 0
904 -647 -1108 0
2943 2468 1487 0
2684 -1487 2755 0
2884 2639 2429 0
408 -303 -761 0
499 -2979 648 0
363 -1563 -175 0
-2102 2223 -1674 0
2033 -770 -1124 0
-172 2350 2985 0
-273 2692 907 0
-1336 188 -1909 0
-2060 -2779 -2291 0
1112 -2113 -2081 0
1843 2107 1160 0
1848 -418 -168 0
-1595 1905 2164 0
-2543 2649 2362 0
-2971 -387 -2586 0
-940 -787 2936 0
2486 2711 -2235 0
469 2488 -515 0
822 -1415 1448 0
463 1718 2566 0
-23 1031 -2797 0
954 363 -1215 0
-1041 2191 1176 0
2291 -1988 -586 0
2052 -236 1848 0
-2645 1037 -1683 0
-1750 -826 -1403 0
981 -662 -2008 0
1798 1540 1968 0
525 -33 -2038 0
346 613 -324 0
445 -142 -2286 0
-2939 2929 786 0
-800 -1995 -910 0
330 -1756 228 0
1616 629 2085 0
1523 -2836 -2814 0
-40 -512 526 0
-1595 -1518 208 0
573 2224 759 0
-1330 -1433 292 0
11 773 114 0
-384 1120 238 0
299 -1033 1635 0
-2868 1999 -2890 0
-2322 -2253 -1005 0
2713 430 1724 0
-202 -2782 -442 0
944 -361 2558 0
-2468 -1092 332 0
1536 1302 -2448 0
-2393 640 2461 0
361 2551 -2722 0
-1243 54 -1195 0
1256 2806 -2837 0
1907 135 -9 0
-1089 -1615 -2583 0
-783 -1164 2439 0
-1988 2676 962 0
1890 1476 -129 0
-224 -105 -2757 0
987 -2631 -1074 0
-486 -1013 2924 0
-651 399 -956 0
-2463 1637 -684 0
-1876 12 1351 0
2227 1228 2498 0
-1578 -2335 753 0
-455 1048 1480 0
-883 -2192 -703 0
-687 2377 -46 0
1712 926 1260 0
1479 -1127 -2862 0
-2576 1195 680 0
2663 1662 2925 0
350 658 -59 0
1386 -2860 304 0
-1857 1208 1866 0
1317 -2456 1508 0
1243 -223 1401 0
2032 -1037 821 0
-396 -1841 960 0
-162 2259 -605 0
-2255 1867 -7 0
1748 -1369 -1187 0
-244 618 147 0
-805 -1119 544 0
1749 1101 1028 0
-2905 -2273 2792 0
2379 1938 2173 0
1897 32 1575 0
1912 -955 -2836 0
1809 -660 2274 0
-297 1337 -1537 0
1953 2274 1642 0
-1926 2625 -1113 0
-1551 -1170 1269 0
-2303 2964 917 0
-739 -666 371 0
-1899 2486 2924 0
-2640 676 618 0
-1706 -526 1953 0
2676 1377 -2622 0
-2893 2167 -2065 0
-1317 485 -989 0
749 584 -225 0
-1016 910 432 0
1292 -1349 2559 0
2984 822 -2426 0
254 2472 2837 0
1507 1187 -1729 0
2621 -2961 -485 0
2474 -361 570 0
1932 -927 -884 0
2231 1866 2602 0
-2375 517 2208 0
2389 2393 516 0
-145 2831 -1963 0
-2055 1162 1691 0
2467 1398 -1805 0
923 -2267 -7 0
426 2679 -2433 0
1959 1467 2082 0
2335 934 456 0
-2046 -1460 1252 0
2415 -1661 2230 0
1451 1220 1232 0
-1687 -316 -2505 0
1368 -2730 1446 0
1711 659 1393 0
862 -36 -2745 0
514 -2733 -637 0
1690 2699 1544 0
-2029 -1171 -1815 0
-2331 -1726 1731 0
947 1637 1833 0
-1067 -2722 1825 0
-2012 -504 -2209 0
-253 -2364 1118 0
-1581 -1818 -2610 0
-2433 -2941 -1064 0
416 2512 -1499 0
623 2161 1593 0
1936 1801 266 0
-1333 167 -235 0
847 1550 700 0
1952 2753 2848 0
-2723 -2683 -1903 0
2931 -303 633 0
-2084 811 -192 0
2480 691 2766 0
1870 -1743 -287 0
-446 1483 1323 0
2697 2520 1145 0
2033 140 2129 0
1954 842 2841 0
-1956 -2391 642 0
139 1983 2017 0
-2496 -1523 -2083 0
2219 -415 1774 0
2480 -2930 -849 0
1823 2504 644 0
-556 676 2945 0
-2537 -2704 1548 0
-2798 -309 1350 0
-2048 -1349 -2033 0
-1343 -153 1543 0
1697 67 2365 0
1111 -244 -149 0
959 -1847 891 0
616 -485 1208 0
-1552 -2024 -1851 0
-2211 -287 -2680 0
2160 1811 -2943 0
-1724 -1553 -2189 0
-979 62 2187 0
-2372 -1245 -1076 0
-791 -2575 -505 0
-265 662 996 0
-1964 1295 996 0
-1418 1054 -2992 0
1634 -393 100 0
1689 1211 2905 0
1368 71 -2958 0
1339 -2903 1062 0
2825 1127 622 0
351 -2065 -2029 0
-1748 2650 1004 0
-1616 2043 -1522 0
1512 1844 -1031 0
2469 2810 2868 0
575 103 -1683 0
1560 -1794 1427 0
-913 -2558 -507 0
-929 500 2654 0
2570 -1391 2275 0
-946 -2247 2130 0
-979 -2711 -299 0
742 473 -430 0
242 2213 -2975 0
-721 939 -2263 0
1305 2804 2878 0
-2056 1566 -1776 0
-2007 2983 2765 0
-161 -1361 -588 0
-1573 -2834 -855 0
-2342 -214 -156 0
-989 -1779 2318 0
528 -499 -1062 0
2055 1029 2942 0
-300 1152 214 0
1842 -2824 -2517 0
-30 -1439 -1739 0
-1224 2043 1768 0
-966 1445 -2383 0
-1692 -902 -2994 0
450 -1316 1808 0
-2691 -2721 559 0
-1704 -426 -1144 0
2223 2973 744 0
1709 -1143 -2863 0
-1396 2393 837 0
1365 -40 2394 0
2752 -1233 -1067 0
-379 -1676 -2230 0
-1744 119 2406 0
575 -391 -1042 0
-2908 -752 -9 0
-1702 -1468 531 0
475 -808 -577 0
-1278 -1699 479 0
-2367 -2850 2990 0
186 -2027 1425 0
-1583 -1471 153 0
2908 1890 -2241 0
-1307 -2037 1068 0
1058 1543 1606 0
-1552 1337 21 0
1751 1879 1140 0
268 368 889 0
771 -1107 252 0
735 2228 -2793 0
697 806 1540 0
-2476 322 2957 0
1912 -553 2056 0
-121 2121 2298 0
-2473 1952 -1868 0
2936 -1062 -1484 0
-2852 762 -1943 0
-2636 175 -2712 0
-2155 -2167 362 0
2970 -719 2764 0
-2385 1327 -2033 0
2955 -2620 2898 0
-1380 2211 -772 0
41 -1911 909 0
879 688 -2446 0
-403 -1138 -2579 0
-2435 -1974 -1821 0
59 699 -2248 0
1225 2273 463 0
-2234 -1287 -359 0
-583 -2159 -395 0
1492 1981 -2895 0
-2017 1504 -310 0
-351 -1438 1560 0
2267 480 1713 0
-995 682 -1769 0
242 480 -1280 0
2036 -1224 720 0
-46 -2513 -2596 0
-1641 2127 -582 0
-574 1664 -1591 0
-2890 -1525 978 0
907 -2527 -28 0
2127 29 1950 0
-2880 -1628 1816 0
2378 -2090 2885 0
1181 1988 701 0
510 1525 -1271 0
-1408 -1772 -181 0
-1225 545 2047 0
-1838 -1117 1040 0
759 -1920 -2821 0
31 -1669 763 0
-495 -2500 -1950 0
1850 1699 -1103 0
-649 -2635 -2063 0
-58 2913 1645 0
1439 -2704 -551 0
1359 2013 924 0
-2659 -992 1667 0
1633 -463 -2499 0
-1128 -2518 1625 0
1775 -398 95 0
-2145 -755 -1021 0
1514 -440 -1314 0
1760 1248 1842 0
2159 -2590 1918 0
1635 1008 1802 0
-82 -2827 -355 0
-2031 -1360 1232 0
-2639 664 -1332 0
-1392 -824 -2943 0
425 -255 -2188 0
-1398 -1451 -773 0
2114 354 -2125 0
851 890 491 0
2034 -1838 2748 0
2199 -2490 -1581 0
-2806 2801 2477 0
618 -2173 852 0
-745 1735 1711 0
-2329 -2285 2141 0
1771 2544 -31 0
1247 -2115 -2312 0
-756 1571 1672 0
2612 1427 -679 0
-999 -2960 1249 0
481 -532 2769 0
1867 527 361 0
1020 2004 110 0
2824 872 -1403 0
960 419 1619 0
-2429 171 -2440 0
509 1245 -964 0
-28 1146 1312 0
27 2484 -1035 0
1586 -1240 -1899 0
1906 -739 -2213 0
183 -1248 2804 0
-1058 2877 198 0
-1283 -515 -261 0
262 2037 882 0
-1899 -103 2572 0
-250 -562 118 0
-1618 62 -576 0
-439 1389 1750 0
-2700 1336 1151 0
-2030 1695 -1053 0
318 -1959 1702 0
-89 39 577 0
-2989 1858 -1529 0
2950 -5 2408 0
686 -1928 456 0
1026 1660 -1399 0
382 -1901 1685 0
2035 2885 2509 0
-259 -1370 -2824 0
158 -2585 -2662 0
-272 1280 641 0
63 1423 2556 0
1641 584 869 0
-731 -1871 2165 0
931 1611 -2417 0
1195 -2095 -243 0
-1037 2014 1411 0
2769 -2209 40 0
213 2276 -2169 0
1388 -2222 2791 0
-1223 -2771 2121 0
-87 -660 -1041 0
-1791 -1599 1823 0
1041 2433 947 0
-1559 750 2411 0
2018 -280 863 0
2058 1419 826 0
-65 -92 118 0
1814 -723 668 0
2639 1927 -929 0
2828 1046 -241 0
684 2071 2372 0
1578 369 -239 0
-2368 -273 1791 0
-482 1429 1202 0
1651 -2838 -1359 0
781 -319 -2948 0
1768 -516 1603 0
2333 1061 -621 0
-2369 1138 5 0
1738 1124 -1505 0
-1608 526 1434 0
-946 256 -2746 0
901 795 -374 0
2824 -690 -2752 0
2150 -2342 -1697 0
1651 -1256 -840 0
-400 2720 1957 0
960 453 -2243 0
-1847 -2596 237 0
902 -2443 -1981 0
147 -278 -1464 0
1936 90 1689 0
1090 -2429 -2928 0
1676 -528 1565 0
1797 385 -2611 0
2868 -2335 -225 0
-769 -2152 1549 0
-1753 1947 1730 0
2660 -1762 -997 0
-1084 1743 -106 0
-16 -1500 -678 0
1266 -294 529 0
1508 -710 462 0
-947 477 -1382 0
810 -1719 -587 0
-1721 605 -2475 0
540 108 1757 0
1958 -265 -2554 0
1978 -228 2374 0
2115 -473 2094 0
-1259 -2868 959 0
-2335 1191 -531 0
-1862 1979 141 0
374 44 358 0
1777 2320 2470 0
2658 -1983 1394 0
-2429 -2651 -798 0
-1733 -2317 2301 0
-767 -1044 -2480 0
2116 -2127 131 0
48 -2946 -2526 0
-20 -2716 -2655 0
-1922 2198 1550 0
-2679 216 2087 0
2545 -2101 -1326 0
-2958 -1501 -535 0
-1478 903 338 0
1848 -531 -2566 0
1321 2190 2436 0
-2999 2578 -14 0
1814 -2812 1418 0
2610 -2736 2739 0
-303 1773 -2459 0
-2251 239 -1346 0
-1026 652 -1974 0
-2956 1139 -2220 0
2800 2097 2007 0
2276 2817 -1221 0
1196 -73 1678 0
1864 -2506 -2013 0
679 599 2593 0
-1535 -2347 -1586 0
656 1363 1941 0
-420 1409 189 0
-420 -2657 -2943 0
1643 637 -90 0
2509 253 -2840 0
-2472 2785 1564 0
-1330 1487 -1045 0
-811 -2437 1833 0
2247 2426 -102 0
-2787 -737 346 0
455 -962 314 0
2547 -2864 -678 0
2296 2361 -335 0
634 -1761 -1752 0
614 1324 2043 0
-1996 585 -2933 0
2547 620 1494 0
694 2422 59 0
-1306 2290 2949 0
212 -2884 -2726 0
2840 -247 1921 0
-3 2446 2862 0
2513 -171 1996 0
-2963 523 30 0
-395 -1801 -2219 0
-1379 2460 -534 0
2172 994 2772 0
-81 1842 615 0
-2411 1985 2914 0
-1505 -1190 865 0
-2140 -456 -2933 0
-345 920 -1834 0
-651 2864 2099 0
2546 -2802 -2615 0
-285 437 -2302 0
-524 -1553 -87 0
979 2700 -55 0
-103 1119 2993 0
1189 -453 -2082 0
1672 2033 -2279 0
1695 935 2891 0
1884 -1471 2219 0
339 1315 -2756 0
251 -1310 -1565 0
720 -1811 2014 0
1420 -1158 2504 0
-2876 -1875 -2426 0
2090 2486 2049 0
904 891 1652 0
328 -661 -1707 0
-533 -1093 556 0
-2837 2159 -1132 0
2564 -2389 -22 0
2039 252 793 0
-721 -950 -2816 0
-2638 2426 2689 0
-1300 -1579 -2438 0
-944 2855 -1699 0
1403 -2023 -1097 0
1300 1177 139 0
1839 -1802 2796 0
1870 862 -706 0
-983 266 -1557 0
-1141 1131 -2674 0
2656 1399 -2274 0
1255 514 -2558 0
1817 31 121 0
-1259 -2042 982 0
1219 1373 947 0
-77 -652 1367 0
-1475 -2456 -2335 0
367 636 1620 0
96 -125 459 0
55 -336 644 0
-2963 1453 2184 0
-1978 758 -1662 0
910 791 -1705 0
148 1225 2595 0
1188 23 1125 0
1396 -1193 -97 0
1790 2565 -622 0
-293 1168 2961 0
-974 -2546 -2868 0
1166 -2838 -2236 0
979 -630 2326 0
346 -479 285 0
1396 -1819 -2711 0
-1453 -95 1083 0
-1337 -1344 -34 0
-2211 -772 2291 0
-1870 588 -56 0
-1835 -911 -2435 0
503 -1196 882 0
-2799 -628 -48 0
-2750 1137 -440 0
1055 -793 -2040 0
-1356 -103 -2889 0
-590 665 -306 0
1997 -1109 876 0
-974 -1710 1993 0
787 91 -2157 0
2277 2952 -2202 0
-741 1332 2725 0
274 318 -1214 0
-245 2680 -92 0
2950 -1428 -870 0
-1343 -2270 1350 0
422 -2682 -426 0
972 -2379 812 0
-2380 -216 -1009 0
1132 -1241 1156 0
1857 618 2801 0
1190 1388 -215 0
-2870 783 -1875 0
2271 -457 2053 0
-1136 879 444 0
-343 2677 309 0
-1707 1348 -2516 0
1399 1293 -2319 0
-2958 -2259 -2698 0
913 -2566 954 0
-2641 2518 532 0
2880 2303 2908 0
-1340 -561 2562 0
-943 -1419 2869 0
1970 -2230 -2248 0
-1559 -454 4 0
1473 -1677 2260 0
1873 -1338 -2198 0
-2470 989 1666 0
1992 -1929 2382 0
1853 2514 1437 0
-1645 -2960 2435 0
111 1516 1112 0
-2821 -2292 2083 0
-2227 -2894 -803 0
2580 1373 635 0
441 -2313 932 0
-416 2516 -2340 0
-40 2982 -2470 0
-821 993 1624 0
-504 -2504 2204 0
-1330 1829 718 0
2575 667 848 0
-1234 -1038 -872 0
1573 732 509 0
-2934 2395 -146 0
1049 -169 -2070 0
-1886 1912 724 0
168 1183 -124 0
-2708 -266 -1058 0
-720 -1682 100 0
-2635 -2039 1495 0
2541 1214 -2588 0
1221 -1258 1050 0
-808 -1347 -2210 0
814 645 -1018 0
1103 533 -2005 0
-879 1450 1327 0
1867 -1369 309 0
-368 2107 -2252 0
-451 1613 -226 0
-2720 -1344 2492 0
2783 2119 999 0
2253 -2323 535 0
921 -2746 1980 0
-323 -2673 -421 0
1746 1926 -2263 0
2156 1620 720 0
420 563 -1090 0
1953 -2282 -2150 0
-843 1936 -199 0
-2735 2052 2631 0
1040 663 1637 0
2794 266 -88 0
491 -1584 -544 0
2242 1100 2588 0
2677 1536 -2311 0
366 -1422 320 0
1778 477 1063 0
1385 1215 -2212 0
-2642 -2413 413 0
-1988 -78 -1137 0
1943 2781 -1531 0
-1309 992 2726 0
-1323 -590 -197 0
1528 -404 -2816 0
2152 -1103 -96 0
2289 2814 1754 0
1901 -1987 1903 0
-528 -428 -336 0
417 2564 -434 0
-1590 -128 -2048 0
-2030 1845 2250 0
1015 -396 2907 0
1437 244 -1926 0
-1058 2031 2011 0
991 -916 -710 0
-2767 -2602 369 0
1006 -376 802 0
2499 -1731 45 0
-1260 2370 1103 0
-547 -277 1857 0
1879 2960 2500 0
-1055 -1933 1073 0
-1278 489 -1650 0
-2929 -1864 -3 0
1387 -2992 -2182 0
1482 -2260 253 0
-2194 -1805 534 0
1176 1668 -2999 0
-929 877 -1234 0
-553 895 -1418 0
386 394 -2994 0
916 -446 -2373 0
2984 903 -2135 0
214 -1321 2263 0
-2211 38 413 0
2834 -2559 -1588 0
523 2291 1555 0
-1223 1905 224 0
2303 -1086 1862 0
202 -862 -214 0
183 -257 92 0
558 -2732 2758 0
-660 222 -896 0
2140 1944 90 0
618 -1791 -640 0
-79 -2711 1769 0
-887 2892 358 0
-963 -1363 -2505 0
-480 -404 818 0
-136 501 2788 0
1674 -1493 -2894 0
97 2919 81 0
-165 -2941 -304 0
-933 -333 -41 0
1889 2747 281 0
462 2617 -2736 0
-2535 179 -493 0
-1429 -2508 -20 0
728 -2008 2312 0
-3 -1191 -1327 0
2030 -1440 1934 0
2961 -416 -1095 0
1062 -1274 -1069 0
2451 236 1691 0
-1771 -1852 -903 0
-2713 -1368 2297 0
563 -1457 -2257 0
-15 1476 -193 0
-2716 2432 -890 0
1716 579 -106 0
1359 -1395 1254 0
1025 2747 2954 0
-2473 65 -2599 0
1591 1405 -478 0
1747 71 2555 0
-2674 -1573 -147 0
933 758 2139 0
-203 188 976 0
1069 -4 239 0
-640 -2959 2765 0
266 -1355 464 0
-255 -384 444 0
576 -452 443 0
1476 -1483 -2065 0
456 -593 -1619 0
-2333 2369 -2195 0
113 1105 2214 0
1951 -2007 2177 0
-2629 -2366 -2015 0
232 291 -695 0
-1501 -2747 311 0
-1894 870 2304 0
-1597 -1963 1109 0
1543 1593 -2490 0
192 -1197 -1491 0
-2369 1194 85 0
-1846 2091 -2289 0
2958 -2698 2927 0
2972 650 2309 0
-2609 -174 1269 0
303 -304 1268 0
809 -2854 969 0
1085 -2163 -1865 0
2307 740 -2502 0
1446 -1936 2999 0
2479 -72 611 0
1613 2508 -1546 0
-2591 756 2891 0
550 -1906 2555 0
1364 2508 243 0
75 726 -951 0
671 -2347 -2353 0
-1179 1880 -646 0
-1825 -1486 1528 0
2374 2383 -197 0
2464 -1944 -66 0
-2045 -2479 2790 0
1341 201 426 0
304 -1312 1537 0
-2741 -2759 2394 0
-1871 -774 449 0
2939 350 2530 0
661 2559 786 0
2536 2656 -2302 0
-2114 2187 1854 0
530 -2031 -2201 0
-2855 1874 1043 0
1906 -2998 -2665 0
-2195 830 1120 0
-2229 1968 -1506 0
1852 1269 1824 0
-792 341 -2168 0
-2904 100 -1431 0
2100 -2464 2486 0
-1178 -457 2782 0
-1587 -875 1048 0
1701 -1111 1392 0
-2588 -2399 -1927 0
2347 -1111 -243 0
2113 2266 1962 0
822 2285 -2577 0
69 1141 -372 0
-1682 -1832 -1363 0
115 2845 2720 0
2054 -1597 190 0
-1261 1087 -1108 0
-100 -645 2797 0
1591 1113 2758 0
-46 -682 901 0
39 344 2383 0
1611 -901 1170 0
102 -1231 636 0
724 2377 -1222 0
228 95 907 0
343 -56 221 0
248 -1010 -2386 0
2671 -1232 -120 0
53 -465 1765 0
1208 -1459 -836 0
291 -832 1087 0
1589 1559 -167 0
2074 2586 2821 0
2974 2458 -1305 0
1118 2113 130 0
-2362 -2923 1128 0
1858 984 -1790 0
-98 -1899 -2644 0
1097 -2087 2304 0
-1024 2754 2300 0
925 -1017 1486 0
1512 -245 1825 0
1771 -2988 2159 0
-339 -1047 1174 0
1878 -1682 754 0
-2651 714 -2738 0
-1726 1401 2874 0
33 1775 -805 0
2502 1947 -2438 0
-2413 -174 2389 0
28 -2976 2247 0
-282 -2899 -2009 0
-2540 -1415 -752 0
2632 -792 -2459 0
2922 2554 2828 0
-1406 -62 1089 0
2465 -2171 -1180 0
-2220 310 -552 0
-821 -2396 -464 0
-1328 -1236 -679 0
-1980 -2246 2143 0
2314 969 775 0
-1869 714 2233 0
-2718 2857 -886 0
580 -2118 1105 0
2770 806 1903 0
-220 -2911 904 0
676 2973 -155 0
-2852 2900 -2808 0
1859 -2896 -598 0
-1480 1719 -1996 0
1656 328 -1544 0
-2163 -1935 1296 0
318 -639 681 0
1157 -383 1015 0
-309 851 -808 0
-545 1405 -880 0
-1071 96 -515 0
1452 1545 -2203 0
-1096 -2779 1577 0
-2618 -352 -385 0
-2882 -1609 -829 0
-1276 -2434 -315 0
-1464 -2166 1746 0
-2741 -2611 2598 0
2369 -2314 -1264 0
2547 -2701 1826 0
-2914 262 2328 0
-2838 -757 -1735 0
-715 2080 -2513 0
2209 -1006 2231 0
-2852 2837 -2165 0
-806 1421 -1396 0
-2572 -2481 1306 0
2364 648 1910 0
977 -1076 -23 0
2502 1663 907 0
2073 206 2754 0
-773 1546 2591 0
2649 -2986 -1303 0
2041 1818 881 0
48 -296 1760 0
-1116 -1451 -2887 0
1304 2643 -2757 0
-2430 1362 -1881 0
2159 1458 -2243 0
2327 -2964 -1139 0
-158 178 -2336 0
192 2529 616 0
540 -2188 -390 0
-2425 -1502 -2498 0
-281 509 1176 0
893 361 2513 0
170 1144 949 0
861 583 -2043 0
-2542 -2170 -1342 0
1758 395 -1546 0
61 614 -651 0
-1890 -127 1412 0
-1782 -2455 -944 0
-671 2358 -1881 0
772 628 2183 0
-466 1782 -1828 0
-2452 -2240 545 0
-706 1518 375 0
-783 -549 -953 0
-982 2947 1770 0
-1710 -349 1982 0
1449 2243 -2847 0
1369 1990 -1847 0
-2163 1461 -346 0
-2717 -15 -42 0
1439 -1847 1543 0
-2035 -2003 2535 0
2333 -1424 2991 0
325 -715 -2411 0
1262 -2449 132 0
2307 517 -1745 0
818 -1633 -2578 0
543 2592 -1618 0
2233 -2339 -396 0
-1375 -600 2817 0
39 -2889 -1782 0
936 -1348 2742 0
-131 -306 886 0
1695 -597 -1850 0
-1005 1217 1503 0
-737 1031 -1112 0
1670 -462 -1724 0
746 2464 -1033 0
2056 2938 -2633 0
-187 -2162 2078 0
1062 2296 1314 0
-749 1502 300 0
-1932 1681 2379 0
-2332 -2900 444 0
1688 2533 1485 0
-2006 1474 -297 0
-2983 -2841 106 0
-872 -49 -2660 0
-126 -2058 1682 0
1410 724 -1236 0
2730 -1600 -2430 0
-613 1230 2030 0
-1721 -2601 -1024 0
2300 -1010 -275 0
-1827 -1385 2655 0
-1986 1033 718 0
-1680 -2315 1611 0
-2915 -84 -2743 0
-611 1989 -677 0
-1051 -1501 590 0
-736 -679 -80 0
1727 -1270 -2578 0
-617 -1754 -1530 0
996 -587 -2116 0
1770 2272 2252 0
2301 1099 2710 0
-7 -518 -2487 0
970 -2611 6 0
-2202 2389 1867 0
504 70 2541 0
-1313 -1756 1722 0
1671 -402 356 0
-94 -1587 -1650 0
-2696 -187 -194 0
2311 514 -2320 0
-2012 2920 1254 0
-2698 -1089 2156 0
-683 -968 2855 0
2942 -563 -1147 0
191 975 -1751 0
291 -965 -2225 0
219 -883 1518 0
-2582 2674 296 0
-1389 -1672 -984 0
2986 -2091 -2259 0
-2678 -1169 -1094 0
-2030 803 2736 0
824 656 1218 0
-2246 932 1552 0
2333 -1412 2660 0
2489 1621 -2463 0
2580 2099 -742 0
-834 2640 2635 0
635 -421 2543 0
-1811 997 -2900 0
2644 -1484 2224 0
-2047 1237 -43 0
-2186 146 -2503 0
1676 2223 2631 0
42 1205 -703 0
-1600 1171 -223 0
1304 2002 2944 0
-452 -257 -1034 0
-2927 2436 -950 0
-283 2439 -354 0
-753 -729 388 0
-1450 1372 -185 0
-488 -721 1919 0
-2488 -2869 1220 0
-2816 -2928 -1542 0
838 1734 -1687 0
-1097 -376 -1902 0
-1197 2787 87 0
2393 -2332 -2405 0
1986 2907 1108 0
548 -579 1277 0
2660 780 1790 0
-2752 -2692 -1882 0
903 2767 -2037 0
2829 2636 -264 0
1959 2769 -335 0
133 -1006 -64 0
2950 109 857 0
848 -451 1122 0
-923 -1361 -2572 0
-2466 -1763 1502 0
539 1036 1330 0
-2600 -2161 1133 0
2952 2606 -376 0
-463 1475 -2540 0
2232 -985 -59 0
1293 1940 -2936 0
-2053 -1064 -2897 0
-2916 -2926 1173 0
-100 -496 -2692 0
2326 -2943 1836 0
-344 2973 2348 0
862 -980 2381 0
-954 -1264 1108 0
-1966 2075 -1099 0
-1647 -1491 -459 0
2110 1435 -2008 0
-2499 522 -464 0
-868 2542 2459 0
-2307 391 -1514 0
1725 1903 -2975 0
-2259 1241 1948 0
-1986 -758 -1996 0
2633 1397 -671 0
1548 2800 1876 0
-1599 -1286 -1042 0
629 1099 2283 0
1639 305 441 0
2182 -2509 2456 0
-1015 -975 -1797 0
1608 -2290 -1545 0
1069 506 2889 0
-296 -762 -1826 0
2759 873 589 0
-2800 872 2234 0
2454 -675 -128 0
2749 895 287 0
-921 889 2278 0
663 1842 1363 0
72 2138 1785 0
2902 2986 569 0
2239 -1615 -2716 0
2196 -268 -1543 0
-822 -2429 -2358 0
-2013 1925 -255 0
-2730 -2834 1900 0
2113 777 1516 0
-979 -565 1853 0
-2205 -2468 -1024 0
201 702 -191 0
2212 1991 -1030 0
119 1026 -1156 0
-1914 -933 1137 0
188 2013 565 0
2084 2244 243 0
-2075 -2224 -576 0
614 -1867 -2215 0
-1975 -2864 -461 0
-2947 629 -2567 0
-2096 -672 21 0
-1095 894 -1308 0
-2381 2087 -2195 0
1544 1159 -2081 0
2779 -433 141 0
-1338 291 2389 0
2572 -1183 662 0
2225 -2708 2423 0
-226 2846 1152 0
2168 -2470 -2239 0
1196 707 438 0
1337 -1219 2280 0
1507 -2062 1956 0
1377 -211 -1584 0
2729 220 -1795 0
-864 1084 2393 0
2285 -2179 -2832 0
-795 -382 719 0
-2911 -84 316 0
-1160 -957 2293 0
-134 -1285 1156 0
1257 1407 2273 0
633 1673 1289 0
-1955 -1581 771 0
-199 -2114 683 0
-707 -1213 -2776 0
1803 -1266 -568 0
389 2905 -21 0
-878 -1705 768 0
-2166 -426 -2510 0
-1617 751 2518 0
-2483 -374 -705 0
-2212 1799 684 0
1405 -2520 -1475 0
-1637 -684 1656 0
-585 -1071 -27 0
2431 -722 -1305 0
2362 -238 -306 0
-2988 -2472 798 0
1266 1264 2461 0
-2867 1006 -721 0
552 -1623 2168 0
1143 -2171 2505 0
738 -1386 11 0
2312 -456 2038 0
-1792 1094 385 0
-2104 -1213 1048 0
-1505 1990 2890 0
-1890 -2840 -2175 0
2494 1103 -1353 0
1277 -2478 -799 0
-536 -2401 -770 0
805 770 2571 0
1323 -553 953 0
1311 -2700 1534 0
1346 -2363 -467 0
-2168 1631 952 0
-1813 2527 1235 0
-2755 2390 -1440 0
1333 811 2405 0
2323 1546 294 0
2958 -492 1950 0
-634 -1065 -741 0
1550 2459 -627 0
211 2782 1044 0
67 2245 -899 0
-2559 -1213 -2369 0
2966 -2462 582 0
497 676 -2271 0
-717 1040 -1152 0
2751 2926 -2975 0
-1225 2070 -1609 0
683 -1477 -2453 0
554 329 -908 0
-445 994 -2566 0
2305 -1680 -1532 0
-2765 -718 -1288 0
885 -2132 -2502 0
-1532 2460 -270 0
1906 -500 933 0
1880 2765 1762 0
1016 2738 -1398 0
-2141 2826 -2069 0
1065 2952 -1452 0
-1109 -1016 1289 0
1817 -907 2245 0
-2632 1158 2438 0
925 39 -1348 0
-1818 2019 1283 0
1815 -314 -2022 0
-2358 -2598 2801 0
-985 1234 1452 0
595 1556 1379 0
1543 203 -1701 0
1565 -1773 -1763 0
1475 1111 2396 0
852 2058 -288 0
2576 2902 -545 0
-1725 895 -1343 0
-2939 -1943 -1361 0
524 2106 -1592 0
-1935 -675 -799 0
2563 2410 2639 0
-2169 -2129 -1255 0
378 -1341 -969 0
-81 368 -639 0
-1973 157 -1063 0
-2588 -2480 837 0
116 -2209 -2944 0
-2247 2882 -1734 0
2996 -1559 -1481 0
-2166 906 -1914 0
1866 329 -1420 0
2658 -420 -997 0
-2676 59 -508 0
-765 -978 -117 0
-1704 1671 2853 0
1746 -1018 1388 0
-1415 -627 -183 0
2584 396 -2542 0
1200 761 427 0
112 2224 -468 0
825 -2933 -1147 0
1145 -162 2249 0
-871 2119 -812 0
-339 -2741 1534 0
-1737 -1348 2874 0
1288 -1615 1431 0
-869 -451 1254 0
-1762 -2390 -109 0
1545 297 -2313 0
-1969 -1517 -742 0
1356 -2185 -57 0
2931 -848 1735 0
-932 2684 365 0
-3 -1890 -813 0
971 -2971 -2121 0
-1695 -1521 2090 0
896 199 -246 0
731 -181 -1690 0
-260 1815 1947 0
-486 1487 2991 0
-1839 -2851 283 0
-2743 -1428 -353 0
750 -1162 -2568 0
119 197 1428 0
426 -120 -364 0
-2289 2627 -1504 0
452 2061 -190 0
-169 1473 2962 0
2726 1225 -1595 0
-566 2590 -185 0
536 1711 381 0
-2798 -62 -48 0
1605 1117 -2439 0
1749 -1171 240 0
2549 2427 2320 0
-311 450 -1524 0
100 2879 79 0
2087 -1577 97 0
1226 1321 -1259 0
-1878 3 -2109 0
1500 1208 163 0
-1862 -2764 -2546 0
927 -858 -1749 0
2519 -2642 -2456 0
1869 -968 -501 0
-1109 -58 923 0
-2957 -406 1616 0
-1432 1276 506 0
2959 634 -1195 0
718 -1331 -30 0
-2283 575 -208 0
1882 -1373 1335 0
-1721 1120 -2015 0
2237 507 1905 0
1528 195 1450 0
2606 1392 2560 0
2147 -578 -2996 0
1746 -1906 545 0
-2799 2952 1699 0
-368 -210 811 0
2165 2450 -926 0
99 431 -1033 0
2585 200 1499 0
-2772 2342 496 0
20 2261 -2941 0
-305 151 -1204 0
-1462 523 -2496 0
182 -816 1525 0
1169 -1995 -1914 0
2794 2700 -2593 0
2328 1279 2378 0
-2780 1867 -2267 0
460 2465 -42 0
2505 2258 -1508 0
416 -1928 -1057 0
787 -2631 -637 0
2371 -2243 -2634 0
-827 2301 2630 0
1950 -2632 2838 0
-2791 1274 -975 0
-2581 2339 -933 0
194 1246 2664 0
-2829 81 -274 0
-337 -755 -1187 0
-1964 1411 2553 0
704 2434 -2463 0
434 2182 1979 0
2875 2200 197 0
-836 -2620 -1261 0
-321 -2466 -453 0
-350 -1533 -2159 0
1803 -2061 1453 0
1859 1496 -2562 0
765 -1602 -2129 0
-1808 -1702 600 0
1406 1355 2402 0
-2739 -146 2753 0
-1402 481 2664 0
-148 -1675 -1084 0
-527 -736 -808 0
-272 -1176 -2836 0
-564 2916 752 0
2150 -753 1836 0
-163 -1053 -643 0
1843 248 -1628 0
1999 1978 295 0
-1460 86 -2823 0
-1200 -1699 -360 0
-392 790 708 0
634 -1317 768 0
2513 -512 924 0
-2889 -1534 -252 0
-2666 26 -251 0
-771 342 -919 0
485 367 1418 0
1161 2675 1266 0
1626 2891 233 0
939 2947 899 0
-1185 -1597 -1244 0
1492 1106 -2414 0
388 1351 418 0
2044 281 1709 0
1447 219 1289 0
-2276 -242 -608 0
2443 2081 -1201 0
718 -1091 -621 0
-489 -2888 -1412 0
2319 -1959 820 0
-2679 132 -1801 0
-2993 424 -1346 0
-1900 -363 1305 0
1541 2747 -188 0
1460 -796 1783 0
-871 1476 -2589 0
-1715 -2605 -2688 0
-213 837 -715 0
-870 1777 -1061 0
45 995 2598 0
-1083 -2260 498 0
-1001 140 -495 0
2162 2158 1250 0
3000 2800 -1821 0
-292 1740 -1448 0
-2985 1118 2579 0
1941 -2093 2857 0
-2053 -2054 -2747 0
-632 1389 1453 0
153 -1380 -956 0
-2880 99 215 0
6 2804 -111 0
1389 -2525 2372 0
-2141 -622 908 0
1291 1046 -2087 0
-235 1479 -2656 0
1407 1574 2961 0
180 -2785 -2002 0
-1191 363 2665 0
-1132 -1785 2872 0
-704 276 1953 0
344 2224 -2063 0
2782 2365 1641 0
-2882 -2194 -1715 0
2550 1161 189 0
-481 1850 -513 0
-419 -303 -1526 0
2092 -735 -1361 0
1201 -329 -1111 0
2257 -231 2811 0
-1382 2485 607 0
213 -317 -2044 0
-2163 2004 1049 0
1047 2013 38 0
2266 2322 1262 0
-215 -15 -1415 0
877 247 2223 0
-2361 -1191 2418 0
1404 -2063 566 0
982 1082 -2226 0
794 -2063 1335 0
60 2122 1569 0
-2351 2028 -23 0
-1789 507 156 0
2306 2587 -401 0
1973 -2614 1090 0
1752 -1706 2434 0
-1003 2574 1892 0
1921 -703 -2367 0
510 -430 -1389 0
-2550 2451 -1088 0
-2631 2280 -2587 0
-586 1726 1366 0
-745 389 2674 0
842 -179 2975 0
-767 2095 182 0
1276 1778 -631 0
1963 2766 2553 0
-1682 1826 809 0
-99 1788 -1799 0
-581 2275 252 0
1692 -2917 -2333 0
-1836 -275 -2304 0
2121 1992 2302 0
-676 1288 -66 0
-2356 -2409 2749 0
-2244 384 1094 0
321 540 -701 0
-1251 268 729 0
-720 -2741 370 0
-547 -962 2844 0
2081 -1146 -2678 0
-2924 884 -166 0
-2999 -1391 2219 0
863 682 -2429 0
-2923 -2735 771 0
-501 -588 -1347 0
-2901 2042 -2254 0
-2460 1196 -576 0
1946 -2530 -1847 0
1874 -2195 -2021 0
-1901 2366 1070 0
-2344 -523 1150 0
-2169 510 2414 0
-1479 -9 33 0
-603 2357 2773 0
-2293 -2812 1858 0
-1995 1589 -751 0
-2538 -1179 2632 0
2863 -2341 -2142 0
-1829 990 -1038 0
729 -1703 1377 0
-93 1207 -2050 0
2305 1878 -1120 0
165 1619 1203 0
305 -206 463 0
-239 1119 672 0
2922 -268 2040 0
2121 2335 1629 0
2413 213 -140 0
-2146 2314 1289 0
38 -1241 823 0
557 -1271 2929 0
-76 -1690 -122 0
-755 -1923 2349 0
1954 1127 -1033 0
-2299 804 -2151 0
1387 -1548 -2137 0
960 2120 -207 0
-60 593 -2409 0
2793 -1688 1555 0
2949 136 2726 0
-275 -889 2731 0
-2348 -2729 -2636 0
1534 -1539 -2514 0
-1763 1071 -964 0
905 377 -1752 0
613 -902 -1274 0
-502 1007 -1820 0
2518 481 776 0
-2002 1268 2306 0
2043 970 2482 0
2376 1912 2263 0
1792 -48 2858 0
-653 1665 2732 0
2182 -1075 -1017 0
1859 2082 2866 0
2365 -2702 -1247 0
-1663 -2477 -1026 0
1914 -527 2108 0
2121 852 2560 0
-1448 -1291 1978 0
223 1388 -672 0
1350 -2227 -1266 0
-353 -118 756 0
850 -1248 439 0
-414 1018 -1829 0
-1694 980 444 0
1989 512 1421 0
-2433 -2926 -1950 0
2179 1601 2574 0
2996 1403 2905 0
-2087 1153 -235 0
1389 -2912 -1290 0
-1511 -601 -1618 0
-679 -308 1590 0
