c Large 3-SAT formula for GPU testing
c 1000 variables, 4300 clauses (ratio: 4.3)
p cnf 1000 4300
68 -628 97 0
-866 763 -36 0
-136 -438 -407 0
67 -643 -187 0
381 -935 -645 0
-843 -643 970 0
-61 605 863 0
-931 434 770 0
-530 363 738 0
-970 213 -546 0
26 -488 -867 0
-126 964 507 0
229 -625 -829 0
621 -489 788 0
-644 -574 -305 0
-63 -260 198 0
-293 -985 420 0
467 970 872 0
756 -398 -240 0
-4 -429 -776 0
782 -674 313 0
389 709 -805 0
234 -201 -398 0
532 -456 793 0
660 -477 -708 0
-461 336 -502 0
-325 917 859 0
41 -806 -137 0
168 -277 -528 0
-369 561 -532 0
789 930 893 0
586 742 621 0
-32 148 85 0
-393 -450 215 0
491 -749 40 0
443 -947 881 0
-767 634 -932 0
-878 440 943 0
325 978 175 0
-26 -411 796 0
-997 -560 -239 0
206 544 -309 0
676 -614 -92 0
-445 651 453 0
-166 650 -954 0
684 450 -548 0
320 -482 -513 0
32 -655 417 0
913 966 -808 0
350 68 241 0
999 -603 783 0
514 -182 965 0
656 513 472 0
30 327 294 0
4 722 828 0
468 62 -760 0
703 -441 -921 0
-896 729 598 0
-36 -668 706 0
200 -660 373 0
-6 647 266 0
-265 -369 -915 0
-501 -626 400 0
667 -533 -315 0
-968 553 -795 0
860 755 -440 0
-966 -552 720 0
-457 890 -850 0
876 250 -528 0
-948 445 -300 0
-73 140 186 0
-339 228 158 0
-880 -314 -841 0
-536 60 -645 0
-218 -964 611 0
120 -709 571 0
689 -534 -790 0
-204 238 636 0
129 767 -14 0
-308 74 233 0
-223 -502 108 0
21 -184 406 0
-77 726 923 0
-784 973 -328 0
-6 -914 -53 0
754 -281 -410 0
986 -702 -532 0
-206 606 -921 0
225 385 -552 0
309 599 51 0
200 -449 974 0
699 776 -428 0
61 11 -288 0
-524 -956 -913 0
-230 -63 710 0
-384 150 -295 0
276 -789 186 0
333 -661 385 0
-643 -437 -357 0
-488 -283 116 0
248 -200 289 0
-817 226 -419 0
-892 -643 757 0
-276 -164 429 0
137 -135 -951 0
-736 487 921 0
827 37 932 0
14 -377 -995 0
233 -14 490 0
-257 -347 -220 0
191 -97 -771 0
125 -865 101 0
724 824 621 0
324 977 -316 0
-900 -115 -22 0
-950 -74 -178 0
812 -148 -199 0
-318 67 114 0
188 376 285 0
202 -987 752 0
-93 779 -726 0
322 -630 31 0
-599 -83 329 0
-98 948 -195 0
523 2 900 0
-706 586 -781 0
-698 -774 740 0
309 523 105 0
-889 162 -759 0
266 -498 -739 0
-304 -129 -831 0
400 -976 -188 0
-260 118 -685 0
683 -785 140 0
-888 580 590 0
437 541 457 0
-449 858 -219 0
-478 850 896 0
423 278 -522 0
-137 660 -851 0
-899 -683 776 0
-114 -551 190 0
653 -488 -509 0
-914 156 767 0
395 986 642 0
-358 -451 -230 0
99 315 933 0
933 147 602 0
324 -20 -207 0
365 133 370 0
-725 428 -123 0
-562 -929 727 0
-662 -41 -501 0
539 -819 367 0
300 -36 -123 0
865 -634 923 0
-461 106 -135 0
993 963 -738 0
63 -183 -464 0
306 405 -737 0
-794 816 -113 0
-814 749 187 0
-717 -901 -785 0
942 961 604 0
-612 -772 -751 0
-651 241 -175 0
123 -110 75 0
713 -76 880 0
312 954 -16 0
951 529 -528 0
344 519 541 0
-728 90 -839 0
202 720 981 0
620 995 940 0
-525 -480 -309 0
-698 -43 99 0
974 261 -264 0
-872 221 -734 0
-693 689 44 0
-114 -442 297 0
-699 -996 353 0
-195 171 817 0
-611 54 590 0
835 202 48 0
-830 -869 -396 0
-201 416 284 0
-55 360 61 0
810 -767 401 0
-983 -471 -76 0
251 560 -496 0
-360 -153 -559 0
547 -314 228 0
922 -643 -818 0
884 -455 975 0
-639 -682 996 0
665 -396 -709 0
838 -541 -991 0
-527 -796 -737 0
929 699 488 0
18 834 712 0
67 904 -822 0
642 -186 -104 0
-66 -65 106 0
966 456 498 0
-876 978 414 0
-451 -453 681 0
166 -125 293 0
155 797 995 0
681 905 -841 0
-880 -965 -84 0
975 278 123 0
-850 743 787 0
-796 -271 573 0
-662 924 -33 0
-446 -507 -263 0
-748 746 -629 0
-236 738 168 0
-171 -399 -793 0
-895 -615 -822 0
94 -821 -300 0
330 2 619 0
471 146 18 0
-720 808 -251 0
306 212 -807 0
-47 -519 145 0
902 659 -87 0
-567 865 -104 0
977 -311 952 0
511 36 442 0
966 698 810 0
34 538 -59 0
-86 -122 599 0
-896 -899 -461 0
98 293 38 0
487 -950 -665 0
-770 608 22 0
365 -903 859 0
-608 -11 913 0
135 407 -102 0
955 -821 -453 0
105 519 633 0
-640 -459 -508 0
543 -78 -692 0
195 478 -171 0
312 -818 222 0
535 -609 543 0
351 760 -157 0
481 498 -489 0
626 158 330 0
-559 701 -507 0
-821 7 605 0
463 -920 675 0
-948 -783 -42 0
385 519 689 0
556 256 303 0
286 782 139 0
-569 884 67 0
-79 663 540 0
211 -534 -851 0
-986 -472 -1000 0
-984 621 -682 0
396 -18 564 0
932 -569 330 0
-260 -445 555 0
201 999 -534 0
64 -877 561 0
894 -754 6 0
42 64 199 0
-217 -164 331 0
-601 83 -325 0
400 675 237 0
-807 672 -602 0
482 682 -369 0
-10 -386 21 0
318 190 -749 0
419 -110 -554 0
-348 236 -231 0
300 415 316 0
981 161 876 0
-618 810 -594 0
98 -828 122 0
-648 20 -275 0
385 930 865 0
767 -480 -171 0
-124 -521 -610 0
710 -516 -592 0
95 801 -557 0
8 584 186 0
254 -683 695 0
131 192 -379 0
-828 -109 -336 0
-574 991 164 0
-651 745 -806 0
-271 675 -237 0
18 220 710 0
502 -643 -246 0
-799 561 -670 0
129 -368 87 0
785 129 713 0
307 -327 -132 0
992 138 229 0
-731 -114 311 0
-786 477 766 0
704 604 756 0
-65 916 964 0
923 -920 698 0
-144 65 130 0
812 -534 413 0
26 838 112 0
-493 -602 158 0
791 602 -757 0
544 -598 -617 0
578 -373 -67 0
-36 -136 730 0
137 425 142 0
465 39 328 0
826 -274 754 0
679 -101 606 0
92 615 -690 0
713 289 -891 0
-643 268 939 0
936 202 -299 0
-906 587 313 0
-51 -879 -383 0
835 986 64 0
897 -20 604 0
481 643 -136 0
-68 903 224 0
-500 -945 -536 0
-634 558 -450 0
-405 540 476 0
882 -390 -108 0
-267 -822 747 0
-32 310 -116 0
-495 -348 -136 0
-297 -861 -75 0
-203 -178 729 0
-767 -508 75 0
-561 149 347 0
512 8 506 0
645 411 -368 0
-219 471 -13 0
-400 533 485 0
845 305 926 0
494 272 -766 0
-300 -957 -547 0
-272 -269 190 0
-741 -803 -209 0
-133 4 -173 0
600 -876 509 0
322 771 305 0
-407 446 -438 0
-633 -228 -90 0
126 430 -573 0
-390 -339 -333 0
-222 526 301 0
-912 -172 -821 0
412 -85 408 0
357 562 -725 0
-279 644 87 0
515 -589 -307 0
764 -461 990 0
-559 -614 992 0
835 -56 632 0
929 -913 -486 0
-827 394 985 0
905 -382 819 0
503 823 265 0
-597 993 -989 0
-139 222 -185 0
-87 491 285 0
-367 -92 -488 0
-509 -756 147 0
-741 843 4 0
-171 -770 58 0
-518 238 -253 0
-251 723 240 0
-76 -305 -722 0
850 -992 141 0
-690 -827 494 0
161 656 519 0
915 -357 -42 0
-95 -237 524 0
-231 25 896 0
342 -235 -228 0
-117 795 512 0
-186 148 -935 0
-591 -504 594 0
33 -519 798 0
2 221 663 0
222 -681 947 0
578 -391 557 0
488 -824 641 0
198 -395 -952 0
393 -499 300 0
731 655 -309 0
-770 223 -290 0
-749 454 584 0
99 -659 -491 0
-969 643 -730 0
-632 610 435 0
-554 -910 61 0
-279 880 955 0
132 543 440 0
-421 -813 -630 0
-27 -520 -837 0
681 -147 485 0
-663 232 -363 0
-479 -932 525 0
-563 -987 -533 0
-256 -30 524 0
54 -391 696 0
489 796 18 0
369 -88 143 0
-75 310 253 0
863 547 -850 0
760 -366 -907 0
563 -288 599 0
-597 -51 976 0
193 -682 746 0
513 812 583 0
-595 -540 -236 0
-196 904 -843 0
523 314 -368 0
402 168 308 0
986 -569 -673 0
365 -711 288 0
-468 -470 6 0
98 -163 128 0
582 226 -502 0
802 407 916 0
-930 656 -33 0
-721 305 -467 0
263 852 -228 0
312 -762 -543 0
474 -705 -403 0
-201 158 228 0
-69 -93 313 0
948 -600 -296 0
-29 378 -521 0
-834 -731 -186 0
-739 133 299 0
52 -311 535 0
371 915 -933 0
-585 825 433 0
-684 -774 504 0
-858 -787 390 0
-11 -299 436 0
612 718 238 0
704 -633 71 0
316 -141 556 0
521 109 332 0
-907 463 -557 0
-858 255 -682 0
-299 -100 1 0
69 -931 383 0
642 206 540 0
924 -229 72 0
818 -36 -856 0
-379 951 -125 0
-713 68 -993 0
-686 -613 -437 0
760 -470 -996 0
-588 -761 -258 0
-890 758 -84 0
-378 -699 649 0
-398 -477 276 0
185 749 -676 0
-318 -118 60 0
-303 982 84 0
-107 443 -6 0
271 -601 -150 0
-607 73 585 0
-534 551 472 0
560 731 -15 0
159 -21 126 0
798 -218 731 0
-681 756 621 0
231 -187 -900 0
805 -272 -654 0
-598 529 -672 0
688 -631 -782 0
-955 -815 -266 0
-186 300 96 0
890 358 711 0
376 -593 -284 0
-312 470 168 0
355 564 -665 0
-987 636 -358 0
489 -54 15 0
991 967 764 0
-543 753 118 0
777 -77 264 0
-316 13 993 0
758 -678 -934 0
-724 998 -623 0
-827 -900 -536 0
-232 528 -916 0
209 -505 -911 0
282 206 686 0
58 936 626 0
557 608 505 0
-518 264 -202 0
150 521 613 0
-590 -388 771 0
994 574 -591 0
661 87 -875 0
856 -268 -668 0
61 -131 -709 0
-365 731 -297 0
-98 -380 -103 0
-11 257 480 0
473 -781 505 0
-288 766 -345 0
-367 -857 -739 0
-30 -549 -514 0
949 -1 -282 0
642 -902 -351 0
-324 968 -75 0
-530 -902 177 0
734 419 842 0
316 164 -646 0
-602 298 12 0
111 -781 870 0
717 -381 -608 0
-712 195 599 0
236 -753 -459 0
285 -76 779 0
627 -991 345 0
-547 364 -989 0
-370 71 -572 0
-499 -479 805 0
-115 270 28 0
-52 832 -169 0
-995 -195 879 0
805 969 -759 0
754 432 -902 0
16 210 605 0
762 908 39 0
-692 79 -700 0
-688 463 995 0
901 964 258 0
-371 258 184 0
-817 -657 814 0
150 -937 -292 0
344 722 395 0
-270 -107 584 0
-525 -402 636 0
527 -534 739 0
-699 191 -753 0
73 836 -82 0
115 -219 -437 0
-890 403 371 0
487 -76 432 0
-921 446 833 0
220 766 -807 0
424 -603 -297 0
173 795 -377 0
474 107 -15 0
-188 -549 541 0
-123 251 330 0
-260 213 -830 0
524 -790 839 0
434 -291 691 0
167 -137 387 0
-350 -129 143 0
-511 -562 -461 0
846 872 364 0
-903 -856 -989 0
-418 812 668 0
-678 -86 994 0
831 303 257 0
236 -140 -842 0
157 -918 33 0
-196 -601 775 0
-486 536 -751 0
-812 -88 917 0
-473 241 -79 0
946 -651 -170 0
995 955 283 0
606 -449 -575 0
-61 -123 997 0
-84 764 793 0
-274 388 394 0
895 -751 -920 0
722 900 298 0
-569 -536 828 0
-65 -754 -783 0
764 343 -51 0
662 -536 -15 0
612 -869 62 0
674 -273 -756 0
973 965 815 0
548 -594 217 0
673 228 391 0
-564 -540 965 0
405 923 437 0
400 -469 929 0
769 609 -811 0
-280 -541 657 0
-71 169 901 0
574 339 -134 0
95 607 -909 0
886 -46 -696 0
919 -517 767 0
-681 539 -374 0
-472 -982 577 0
540 607 70 0
906 -693 -386 0
392 -26 -165 0
88 751 70 0
318 768 -175 0
-518 -627 528 0
-928 -470 923 0
497 -411 720 0
837 -385 -682 0
70 -28 -897 0
-351 -847 192 0
-487 73 617 0
2 133 -964 0
-79 340 641 0
-425 -680 723 0
-59 -536 -929 0
-376 -482 476 0
787 -925 559 0
359 -91 507 0
-847 426 -402 0
158 -911 -560 0
-659 -922 -183 0
649 -742 644 0
989 854 -309 0
946 -706 -923 0
913 -622 659 0
-689 -611 718 0
883 -114 -362 0
-954 -251 555 0
35 289 39 0
69 -153 -537 0
-288 -723 390 0
685 57 -594 0
22 -702 44 0
136 -84 -964 0
-638 -136 -943 0
951 -427 560 0
-849 658 -805 0
-626 783 -193 0
381 -975 794 0
-664 -76 -802 0
-349 -89 -147 0
25 838 -83 0
489 -38 -129 0
-327 -486 821 0
309 -11 592 0
-704 806 -984 0
-898 584 340 0
-150 362 370 0
902 -412 -246 0
572 48 71 0
810 -226 -510 0
-694 -69 972 0
-314 -577 378 0
194 -45 -26 0
863 552 -794 0
-247 -189 397 0
795 -685 -766 0
-117 -239 -8 0
981 8 135 0
239 -699 -804 0
-190 -914 414 0
172 483 -601 0
-808 401 282 0
120 -365 -918 0
-598 -961 507 0
573 304 -794 0
978 273 434 0
773 445 17 0
54 -630 -30 0
-100 -565 243 0
-369 -687 702 0
-520 -234 430 0
178 -799 -304 0
-385 -735 612 0
-622 -763 121 0
-545 413 668 0
-692 -350 -791 0
-658 11 760 0
344 -24 -229 0
120 113 -351 0
-970 -33 -321 0
591 -197 -554 0
-236 -790 -861 0
-289 -966 -279 0
-344 460 -15 0
-890 10 -981 0
715 -373 -524 0
775 -311 -392 0
-891 907 818 0
478 -669 -353 0
19 480 -514 0
-601 842 743 0
834 -110 -161 0
987 591 -366 0
103 610 601 0
859 982 891 0
387 -879 189 0
485 571 161 0
-258 537 264 0
-909 -805 -67 0
486 592 -300 0
713 213 -558 0
-969 -533 281 0
-361 40 166 0
-352 520 -472 0
-108 132 103 0
-796 -310 491 0
-56 713 238 0
100 -498 700 0
-374 -766 873 0
622 333 -848 0
859 -908 331 0
-155 463 -509 0
-114 -826 46 0
-498 -179 787 0
256 -728 -951 0
-546 42 890 0
-435 -751 10 0
447 -841 -666 0
693 717 462 0
-658 -478 882 0
670 -238 881 0
-199 114 575 0
963 -890 -897 0
-313 -953 49 0
-126 -204 932 0
805 443 -808 0
130 743 -597 0
-968 -292 328 0
778 -708 522 0
280 -930 287 0
247 -640 -553 0
-249 -165 -426 0
504 -894 241 0
229 652 -486 0
-466 167 -446 0
546 338 767 0
720 -588 -498 0
-50 466 -975 0
-543 -75 -457 0
411 -352 -329 0
190 -663 171 0
797 530 936 0
553 -804 24 0
-647 -955 494 0
-341 -459 282 0
217 -937 56 0
-452 151 12 0
883 411 -359 0
-470 319 261 0
246 -234 900 0
-79 589 -626 0
-105 935 971 0
-553 657 290 0
-726 615 -359 0
713 -159 -835 0
242 343 779 0
-802 -630 -562 0
512 920 667 0
-61 -510 658 0
-550 697 -729 0
-667 -598 -10 0
920 -123 384 0
-883 -945 304 0
204 -499 996 0
-810 -229 461 0
-79 -826 -261 0
-372 369 -983 0
423 511 926 0
456 -583 326 0
-47 -536 -262 0
445 905 -242 0
-795 671 162 0
-756 -139 -361 0
316 -497 727 0
-229 -868 -25 0
-589 633 -774 0
254 -412 988 0
107 -349 347 0
-860 -364 888 0
-961 334 -860 0
33 613 -699 0
-317 -886 -263 0
-157 871 -739 0
-679 510 -324 0
-883 -982 588 0
536 788 930 0
555 461 558 0
774 -131 -106 0
-903 -280 259 0
240 -107 -947 0
538 502 -460 0
-432 -402 -803 0
-797 -661 -320 0
-555 -410 -710 0
493 604 384 0
-613 -377 -221 0
-941 -657 -672 0
-264 967 419 0
846 -477 -800 0
203 771 -171 0
985 487 838 0
-769 -800 -553 0
-621 455 -38 0
-369 -872 -504 0
690 777 -571 0
700 889 -26 0
334 -946 -287 0
-879 46 -960 0
-929 -146 170 0
-702 -982 277 0
652 -443 611 0
-272 974 -793 0
-999 -739 794 0
226 688 896 0
-831 922 778 0
-427 -347 -464 0
173 968 -408 0
-396 -4 247 0
741 795 480 0
-288 -797 426 0
121 315 -219 0
957 185 982 0
-261 -217 717 0
792 -187 248 0
-653 -622 -300 0
-260 -515 -201 0
288 -457 887 0
160 -235 -697 0
529 589 -57 0
607 -951 981 0
169 514 -163 0
-950 764 359 0
-565 612 -645 0
176 925 134 0
87 -614 -98 0
-429 -195 551 0
-886 177 732 0
925 -933 315 0
675 946 -701 0
244 -622 -305 0
641 596 534 0
491 27 -407 0
-95 -988 669 0
887 68 395 0
70 465 -335 0
-833 751 -521 0
-566 -532 451 0
17 -141 -732 0
-335 -226 362 0
-278 917 -97 0
326 886 -639 0
900 452 -923 0
346 658 -880 0
-111 31 651 0
255 -460 654 0
-879 433 23 0
-464 36 984 0
-923 704 206 0
-632 691 -265 0
-694 -976 -402 0
738 175 -558 0
-414 289 -951 0
138 -977 538 0
612 498 54 0
933 735 -677 0
825 -375 -24 0
-386 -122 -953 0
649 -609 900 0
-374 -955 -741 0
818 697 -516 0
-174 -967 860 0
731 218 -101 0
-255 653 -42 0
-878 -853 850 0
-887 586 775 0
-598 196 636 0
-291 -273 491 0
-144 100 -317 0
-522 381 572 0
-520 -63 -335 0
57 -485 -335 0
845 -557 -65 0
531 444 904 0
-942 707 670 0
-285 -384 -357 0
-180 1000 301 0
-671 870 144 0
-769 -261 -643 0
807 -301 499 0
-543 -542 618 0
-498 -391 -190 0
-669 407 435 0
432 -51 940 0
854 283 -745 0
-145 -38 -553 0
896 -506 -999 0
788 -665 -485 0
-397 -171 189 0
-760 26 580 0
-74 -735 864 0
-257 166 145 0
-230 -277 263 0
65 -791 467 0
397 -954 762 0
-197 -674 281 0
589 485 -170 0
-475 263 -388 0
-717 -687 -699 0
7 510 970 0
416 618 -201 0
388 533 -185 0
880 580 -574 0
-860 -177 881 0
-125 -464 -543 0
-965 -128 -417 0
-431 -883 -113 0
-976 875 -178 0
607 393 -228 0
-698 -211 891 0
-281 -346 85 0
902 50 960 0
-66 -946 -694 0
-632 -687 -804 0
534 -751 -439 0
-750 122 -496 0
362 -612 -669 0
-279 121 588 0
-545 -842 -922 0
-448 -720 885 0
-373 -520 -631 0
864 285 -233 0
-712 -103 -949 0
-349 -374 457 0
-32 -12 -351 0
342 263 -722 0
-804 -547 -353 0
398 -454 -527 0
-334 -96 200 0
-972 247 -941 0
382 -89 -917 0
707 841 109 0
-819 -677 877 0
926 -657 684 0
-703 841 -87 0
-543 791 -36 0
681 59 473 0
717 -76 -352 0
659 117 -128 0
295 972 992 0
-977 -778 -538 0
-566 -265 870 0
810 852 131 0
-899 338 -299 0
-414 484 -173 0
-50 -569 931 0
-766 426 618 0
18 297 2 0
-46 -465 -309 0
853 743 28 0
589 -257 -490 0
645 35 -459 0
728 -75 -338 0
307 317 271 0
403 377 511 0
-294 -55 249 0
-455 330 -769 0
-48 -881 120 0
-575 803 -623 0
152 -551 -148 0
119 -669 -201 0
81 -105 84 0
652 236 -186 0
-115 583 491 0
-628 793 -650 0
491 -899 -88 0
199 755 -439 0
468 -73 262 0
128 736 -480 0
676 699 -655 0
-219 -446 853 0
579 651 984 0
309 -238 -807 0
889 196 930 0
493 260 326 0
-13 -117 -568 0
342 569 845 0
-501 811 256 0
44 902 840 0
-548 415 956 0
707 442 -774 0
-344 -383 280 0
480 -305 -860 0
-299 -955 -904 0
858 898 -756 0
70 -290 231 0
284 82 -957 0
-441 127 82 0
-338 311 326 0
-512 578 930 0
876 239 -649 0
-51 404 154 0
-675 -561 -344 0
-931 188 -376 0
304 400 -26 0
-714 601 667 0
242 850 -528 0
-464 -273 -90 0
-822 312 250 0
131 -319 -511 0
616 -585 588 0
804 337 763 0
-131 -813 643 0
780 436 -592 0
152 -796 515 0
590 -163 888 0
-834 124 -110 0
-826 -859 -468 0
-444 760 -108 0
-532 -875 -702 0
416 -79 414 0
784 393 -538 0
279 891 -473 0
-701 -748 -25 0
647 -29 435 0
-158 725 336 0
520 120 28 0
-947 194 148 0
-781 -279 -577 0
-256 -532 -894 0
111 257 284 0
18 177 -118 0
-486 -538 -766 0
-194 492 203 0
-150 -713 434 0
894 796 -795 0
-472 313 -338 0
-715 310 -462 0
-269 -651 743 0
-638 -116 43 0
-12 -292 640 0
-405 -301 -947 0
97 549 -708 0
-997 169 234 0
-647 -28 848 0
34 845 -62 0
358 -910 283 0
-865 -29 -767 0
454 -106 -744 0
-870 831 334 0
368 481 -305 0
-832 -892 -722 0
-323 721 -265 0
-180 -55 859 0
598 -146 806 0
-730 -369 -241 0
309 -421 255 0
211 251 -977 0
-282 -194 471 0
-658 96 -119 0
-480 -606 206 0
-374 -26 899 0
29 -976 839 0
581 912 -658 0
-45 -934 -894 0
-327 449 -303 0
638 -462 -88 0
-35 637 -861 0
-899 507 -443 0
585 -280 -237 0
50 913 125 0
-454 769 -110 0
197 -735 -705 0
-303 -650 -477 0
790 -945 808 0
-148 75 56 0
-278 -833 626 0
576 -357 -920 0
440 -914 -925 0
836 702 966 0
-151 238 -600 0
-134 -849 39 0
598 -516 289 0
284 -312 926 0
-423 -460 -396 0
-178 645 378 0
685 72 905 0
-384 -875 688 0
-948 222 588 0
669 -487 -87 0
-584 330 -479 0
-440 -134 378 0
95 835 -908 0
453 893 -68 0
158 637 -466 0
708 -304 -644 0
-542 643 -239 0
-928 -97 108 0
744 -106 761 0
475 -454 -534 0
571 -484 493 0
-794 -568 -280 0
-654 -612 576 0
-777 -981 -536 0
-608 -121 580 0
-57 -638 234 0
87 904 946 0
-514 87 403 0
-166 -809 714 0
138 -875 435 0
260 -779 244 0
502 -588 731 0
-917 761 -900 0
894 -533 -503 0
-20 -834 137 0
-942 455 358 0
253 -475 614 0
197 -561 -511 0
314 -677 -905 0
275 96 -21 0
943 -253 965 0
835 866 673 0
48 -577 967 0
520 902 -285 0
168 342 895 0
748 868 705 0
-145 -725 821 0
338 -789 926 0
-236 740 -380 0
-806 506 168 0
-491 186 175 0
-934 -872 359 0
575 182 824 0
987 -356 521 0
-263 -558 -959 0
981 302 7 0
585 -85 593 0
-440 460 137 0
-185 640 819 0
-425 964 -6 0
287 -393 -770 0
174 -313 -936 0
-690 524 -166 0
422 -301 -527 0
635 -299 209 0
542 -602 573 0
382 -988 -774 0
-634 584 572 0
303 663 -255 0
567 -815 26 0
-714 833 -206 0
108 881 -482 0
-71 -786 -85 0
177 -537 -365 0
-750 -409 -497 0
254 -138 612 0
-248 382 418 0
-968 -257 -510 0
-594 739 -132 0
307 914 -722 0
-339 424 929 0
553 -628 678 0
458 -515 -855 0
122 132 -731 0
464 149 531 0
-921 243 -607 0
296 -159 340 0
-957 523 404 0
-327 -121 -6 0
-461 -388 -545 0
141 -395 495 0
-80 -157 -922 0
-41 1 -312 0
-924 -826 90 0
-486 -922 -209 0
-301 -452 -665 0
-216 -188 -981 0
-293 181 -260 0
868 324 -821 0
-800 435 318 0
648 -966 -692 0
897 161 -255 0
-72 -761 -36 0
781 -225 -716 0
-350 892 -43 0
89 -632 618 0
47 -441 122 0
78 699 -4 0
715 -440 814 0
-219 -583 -475 0
936 -828 -964 0
107 264 980 0
390 -565 811 0
822 -917 919 0
-449 240 -7 0
-566 477 399 0
-884 56 -533 0
-931 505 -364 0
36 152 768 0
-747 -40 -114 0
-16 -617 52 0
-867 464 -226 0
-277 283 -116 0
-50 837 356 0
967 -520 680 0
975 -691 30 0
401 -398 -682 0
13 68 901 0
250 -758 66 0
-929 -255 -607 0
-167 -576 -689 0
-177 -485 -26 0
-456 886 486 0
-189 -939 695 0
158 27 445 0
279 -241 -888 0
-577 -455 -97 0
-283 -270 -807 0
726 51 90 0
-624 620 885 0
-630 729 772 0
-841 593 545 0
-508 745 -206 0
743 204 -579 0
-198 -207 -108 0
174 305 215 0
-870 -547 -915 0
958 983 -906 0
33 -405 894 0
209 -997 826 0
-953 83 -269 0
-230 255 63 0
902 131 -403 0
-636 924 829 0
76 -129 -404 0
199 82 340 0
-538 249 -481 0
-70 -141 -778 0
50 -859 -716 0
-577 976 -26 0
-797 -295 -226 0
-883 672 -982 0
243 425 -555 0
-993 473 726 0
626 -659 332 0
379 46 -131 0
-41 -939 -80 0
161 224 -414 0
873 481 907 0
227 -316 570 0
615 -986 882 0
-966 528 450 0
364 271 -811 0
158 -230 -290 0
74 -878 -553 0
-259 406 -933 0
659 -773 -982 0
-696 -763 -864 0
-92 840 161 0
-973 365 201 0
229 -838 -304 0
527 -972 846 0
-838 -289 510 0
959 -792 -327 0
-652 170 -911 0
12 -596 667 0
-888 329 -527 0
487 -454 -605 0
672 -80 -634 0
-544 -668 -690 0
556 -73 126 0
651 -365 303 0
-615 528 -333 0
921 -55 -916 0
544 -603 -705 0
46 259 866 0
287 243 566 0
690 606 277 0
570 575 -493 0
-542 845 -136 0
-876 592 540 0
-152 127 724 0
680 -913 177 0
631 904 -714 0
749 7 804 0
-559 -773 -646 0
-876 -265 -56 0
-52 -635 -692 0
-574 596 805 0
901 356 25 0
-432 -131 885 0
-469 -192 888 0
-167 -471 -733 0
203 -234 151 0
-426 141 928 0
-984 348 -448 0
-525 -497 -784 0
28 779 -121 0
741 104 643 0
-988 750 200 0
953 -911 715 0
-995 189 833 0
535 -757 -7 0
-934 -15 -347 0
224 826 -334 0
-957 13 -57 0
486 -288 552 0
-336 -64 634 0
-761 -729 -756 0
-878 -19 -886 0
-52 235 -782 0
-137 959 -261 0
-602 -410 -312 0
517 -131 -196 0
327 -797 -175 0
-782 595 -807 0
-194 388 832 0
452 -811 213 0
515 417 861 0
-799 -158 844 0
372 -351 312 0
782 -11 914 0
579 390 -743 0
-582 -304 782 0
734 964 669 0
-537 335 131 0
906 749 -111 0
-148 -209 -276 0
-759 199 359 0
305 -549 -124 0
152 -171 -902 0
-519 -95 -537 0
296 -960 313 0
661 728 918 0
274 464 -809 0
-655 523 -289 0
-545 -717 181 0
293 36 -268 0
923 -990 -443 0
772 219 -625 0
699 61 -524 0
330 -222 -81 0
351 425 269 0
368 -524 -573 0
-879 456 -680 0
516 -753 48 0
219 -311 -955 0
-786 894 500 0
-16 -420 173 0
-365 338 -192 0
-622 455 -618 0
671 -706 145 0
66 293 -54 0
122 -359 606 0
-861 -881 923 0
-319 -915 711 0
230 -155 -186 0
-706 -390 555 0
-262 -254 648 0
-678 762 168 0
-417 19 327 0
854 750 -545 0
765 -745 -965 0
-817 263 367 0
319 -989 -40 0
122 225 524 0
-737 -999 733 0
598 663 -686 0
-842 -452 -448 0
-844 633 747 0
-410 -836 -10 0
132 227 -262 0
-287 640 -978 0
-622 628 -165 0
-743 258 -133 0
-997 -553 421 0
870 -435 -838 0
530 -557 787 0
-48 402 -428 0
-774 964 883 0
-127 -719 138 0
87 15 -176 0
-141 -272 -105 0
620 -128 -465 0
225 -500 502 0
362 210 154 0
-378 507 -895 0
-16 976 404 0
-568 -11 187 0
-272 803 -3 0
394 -167 -728 0
-514 36 347 0
5 -815 644 0
-580 -896 570 0
578 209 831 0
-833 -609 531 0
-676 -481 731 0
-494 -335 36 0
-60 -28 458 0
-729 -231 -972 0
-755 484 -397 0
538 -797 -779 0
-398 610 -289 0
647 288 -110 0
375 52 886 0
-497 162 -168 0
5 229 -114 0
-499 -78 -701 0
-663 -650 -139 0
311 -977 -424 0
330 -493 393 0
-779 -335 -535 0
-964 351 181 0
-679 -358 301 0
-181 -303 -91 0
-517 -740 -57 0
-251 422 -20 0
-869 -243 -424 0
-688 315 177 0
-426 485 860 0
-343 651 -967 0
866 -687 -960 0
190 -651 -443 0
-612 -73 68 0
-944 -406 990 0
-586 159 607 0
882 -298 -563 0
-212 -156 -517 0
-448 -972 105 0
203 -114 802 0
646 -494 240 0
-306 761 528 0
-218 980 -688 0
-437 -538 827 0
-770 743 282 0
505 -744 -87 0
757 -272 865 0
-545 -848 -620 0
25 -766 325 0
-308 340 444 0
203 -71 -353 0
-767 591 -90 0
-406 -841 -957 0
927 858 756 0
43 36 -375 0
-248 581 457 0
558 806 700 0
117 -502 953 0
-59 -707 -975 0
927 305 -670 0
-640 -768 -18 0
850 697 -949 0
-218 454 -46 0
789 717 958 0
195 -490 163 0
-806 320 699 0
-608 993 299 0
-615 522 -382 0
-755 863 -383 0
-540 -505 220 0
-553 -892 720 0
698 -989 -700 0
-567 396 191 0
75 145 -553 0
128 -920 -90 0
-721 979 -462 0
-238 -406 480 0
76 -490 842 0
-906 426 -556 0
931 211 -38 0
352 63 -967 0
259 -613 -961 0
766 641 526 0
-515 -816 -828 0
-691 -401 -553 0
730 502 610 0
978 837 -958 0
278 -887 469 0
660 225 886 0
-710 -272 664 0
115 -66 9 0
-340 -425 883 0
-333 454 514 0
-543 868 835 0
247 -78 -154 0
202 -596 844 0
-309 601 199 0
-716 -67 -415 0
987 -1000 217 0
509 -322 480 0
-130 -821 -368 0
927 -240 653 0
43 -616 -662 0
-443 -324 830 0
-474 -84 808 0
845 278 495 0
-124 303 79 0
290 -390 736 0
-977 -155 164 0
214 -927 699 0
-579 611 518 0
678 -246 834 0
-959 -530 -939 0
-534 339 -408 0
-678 -735 505 0
-199 270 -649 0
-564 342 -695 0
-874 -528 -502 0
-435 -696 -131 0
-453 -90 -814 0
219 328 908 0
-521 769 -789 0
318 83 -740 0
-165 -218 769 0
-912 -745 -394 0
-635 -873 -662 0
-870 367 -690 0
895 776 43 0
-429 -130 299 0
-510 -686 749 0
-238 661 718 0
-951 793 -836 0
314 -563 -900 0
546 899 -749 0
911 -731 155 0
916 784 -776 0
-826 764 444 0
-472 891 111 0
325 61 135 0
402 -147 334 0
479 -168 -840 0
-850 926 664 0
-419 484 -536 0
-847 -122 518 0
150 -327 340 0
-166 264 -330 0
746 -889 -662 0
225 958 -193 0
624 69 621 0
-693 -136 628 0
181 -65 845 0
175 -626 323 0
-588 118 685 0
-725 894 -395 0
552 973 863 0
-596 666 -306 0
757 238 317 0
908 63 -99 0
-299 -706 -148 0
829 21 921 0
-264 -934 107 0
510 913 -131 0
74 -885 953 0
810 273 -930 0
-735 -495 726 0
351 -586 874 0
558 -991 226 0
322 -165 -615 0
380 249 921 0
-258 -24 511 0
-98 -978 -964 0
-564 264 -837 0
-574 -992 961 0
190 246 494 0
803 380 -246 0
-78 895 351 0
-57 480 -829 0
740 -31 -400 0
140 -857 -263 0
-880 502 -510 0
-828 898 -679 0
420 510 671 0
380 826 770 0
34 -57 596 0
-387 -282 848 0
-2 256 -214 0
33 195 155 0
-52 840 -504 0
-942 730 -990 0
788 275 -225 0
222 -897 14 0
921 -986 320 0
-980 -830 -976 0
579 -510 -151 0
627 -405 -39 0
214 375 142 0
-890 -509 -407 0
695 66 -79 0
-942 -104 70 0
228 -540 -964 0
-87 -976 646 0
-533 184 -159 0
-620 -457 -671 0
-541 378 -76 0
718 -301 712 0
414 -804 -258 0
-596 -289 796 0
-779 943 424 0
944 764 150 0
-626 -512 448 0
256 592 -957 0
39 -259 -225 0
682 822 762 0
311 154 247 0
-97 378 -339 0
356 -330 -816 0
887 748 536 0
470 748 994 0
782 996 -688 0
188 -809 -199 0
21 -838 -645 0
599 145 241 0
-621 177 -124 0
-924 822 -754 0
219 -218 907 0
760 687 908 0
-885 -346 504 0
-230 73 -606 0
-934 -557 5 0
-886 710 -125 0
936 -326 -199 0
887 466 -389 0
937 -810 -166 0
-241 -44 -534 0
619 204 196 0
789 -241 802 0
-444 231 -250 0
616 -557 64 0
893 379 575 0
92 249 -286 0
247 -469 -557 0
-438 -105 361 0
114 -685 -893 0
-237 -936 91 0
-188 632 267 0
10 551 -653 0
-156 -893 -311 0
-699 33 877 0
-655 668 -424 0
-866 808 -212 0
162 -456 174 0
68 -631 185 0
176 -563 -48 0
-878 -940 417 0
-468 154 -663 0
156 -743 -421 0
-896 -842 -597 0
123 336 36 0
942 216 769 0
502 -405 -564 0
790 -437 35 0
-646 -675 -252 0
-869 -353 -571 0
-602 285 427 0
378 822 -675 0
-845 -767 73 0
-522 292 745 0
-289 515 -979 0
930 -718 -64 0
362 634 121 0
-620 -880 -292 0
161 -931 171 0
-24 970 419 0
477 -529 218 0
-452 924 630 0
-510 792 -492 0
97 477 54 0
-965 712 -192 0
335 636 -35 0
-885 122 -239 0
814 439 932 0
957 -67 955 0
394 1000 783 0
31 -317 89 0
600 268 906 0
238 -199 -576 0
-450 -145 -361 0
-331 450 -709 0
-823 -115 916 0
-633 -650 505 0
-934 -932 -196 0
289 424 -679 0
830 -822 857 0
376 -472 716 0
984 237 -708 0
-969 512 624 0
520 -775 732 0
-65 273 787 0
289 85 254 0
944 -551 -556 0
901 -786 736 0
-265 844 150 0
-743 142 973 0
-287 89 -738 0
138 -62 -981 0
-412 620 773 0
824 816 342 0
946 506 -987 0
-340 -554 773 0
399 341 914 0
-708 334 651 0
870 384 -738 0
-765 964 -567 0
-665 247 443 0
79 820 -816 0
466 -567 443 0
-104 -154 -805 0
-381 -258 879 0
-910 -897 -28 0
794 684 360 0
-733 -323 553 0
-173 499 -583 0
535 718 298 0
-956 -575 769 0
616 -916 203 0
-839 -816 622 0
893 -988 -243 0
2 -283 -309 0
-184 623 537 0
-895 -127 291 0
516 656 808 0
48 399 873 0
-388 322 -32 0
941 -447 -211 0
-484 217 800 0
351 -726 2 0
-253 898 595 0
-993 326 156 0
336 -223 429 0
-925 190 209 0
789 -407 479 0
-612 -521 998 0
-660 322 -111 0
340 -4 211 0
570 995 565 0
720 112 851 0
-13 18 -260 0
726 -190 725 0
-790 299 -949 0
-800 -310 894 0
955 694 -390 0
-705 -534 529 0
-821 -757 -5 0
962 -401 366 0
379 -376 32 0
-748 155 -423 0
-98 -555 -306 0
-651 613 -142 0
-509 649 544 0
241 -404 756 0
748 534 344 0
-709 315 149 0
178 182 453 0
-848 -544 156 0
167 -710 -458 0
-561 -834 -211 0
-38 687 -214 0
-768 254 -729 0
-552 -18 6 0
542 529 722 0
-857 899 381 0
-859 932 925 0
849 -3 395 0
443 534 -290 0
126 -129 -239 0
-963 394 788 0
490 740 -746 0
-947 -925 800 0
-107 835 -869 0
47 95 -724 0
498 120 288 0
688 -783 -875 0
242 555 -751 0
-723 578 223 0
545 -65 927 0
811 -383 -172 0
-105 620 -634 0
276 -840 158 0
916 183 370 0
-890 799 -595 0
-685 22 -217 0
-935 276 448 0
-877 852 -44 0
-834 -150 -146 0
-104 911 -784 0
-665 -153 46 0
368 997 511 0
-726 -627 -348 0
137 -205 -296 0
-404 672 -67 0
-574 175 -750 0
55 667 -345 0
-419 976 -357 0
-880 758 619 0
-589 315 257 0
395 -294 205 0
-972 -827 -886 0
-198 375 -981 0
-309 -890 -305 0
669 -292 -822 0
-107 -814 189 0
969 439 638 0
-399 422 343 0
-528 376 995 0
-598 913 -857 0
-219 -707 -616 0
81 593 -490 0
-259 990 -553 0
181 -112 -473 0
300 932 -229 0
-747 107 898 0
-851 -280 -3 0
375 640 -15 0
441 3 -379 0
416 -443 -496 0
-972 -937 525 0
517 632 713 0
148 18 986 0
347 -310 -614 0
-374 -284 765 0
457 758 259 0
144 570 -280 0
187 22 -822 0
18 575 -435 0
752 -504 845 0
-837 -130 -972 0
922 591 937 0
-751 -377 462 0
81 -952 -443 0
-445 973 -641 0
754 347 -697 0
-153 -326 -242 0
-927 -502 -398 0
-638 -63 -947 0
-588 604 161 0
27 -359 -505 0
982 -77 -287 0
-853 335 263 0
566 195 -704 0
-217 190 570 0
-589 857 -335 0
-56 505 249 0
-248 -47 -856 0
-554 94 -224 0
-248 -405 832 0
382 -658 416 0
98 734 143 0
53 -397 284 0
-163 384 -456 0
594 430 771 0
-661 -864 -766 0
915 -469 333 0
-174 -301 225 0
531 -327 -492 0
-386 -518 455 0
695 829 -900 0
544 54 -303 0
512 120 -364 0
168 878 366 0
-422 -288 541 0
932 -393 279 0
-946 -128 -788 0
-537 -336 180 0
-168 846 -114 0
-215 794 -125 0
-868 -531 263 0
697 389 470 0
165 -146 -336 0
778 -200 418 0
661 -426 -515 0
-593 615 -269 0
-124 82 -668 0
-823 81 948 0
286 -632 941 0
-502 -628 -732 0
973 -703 -408 0
19 261 -180 0
-335 233 454 0
667 -747 -217 0
-755 543 -677 0
888 862 220 0
992 -999 -104 0
882 736 30 0
548 -663 -385 0
310 765 709 0
-892 -834 -802 0
-617 565 463 0
377 675 401 0
-482 419 -287 0
-205 300 -916 0
400 -924 968 0
815 766 -532 0
175 -389 -60 0
-504 -87 674 0
124 -757 678 0
-241 -829 577 0
552 -133 657 0
723 762 -972 0
-16 -212 -151 0
-155 603 -1000 0
-718 -623 -997 0
-194 155 -85 0
788 -250 -265 0
832 394 645 0
-150 449 -96 0
-136 344 -158 0
-927 -69 -852 0
-178 -774 88 0
-98 278 -960 0
691 496 311 0
-852 -271 -419 0
-917 -826 -207 0
-561 -53 278 0
376 -490 343 0
723 955 602 0
-100 -931 648 0
345 -603 566 0
559 18 -87 0
955 -921 -316 0
-169 -472 627 0
-174 523 61 0
175 114 -414 0
655 537 -773 0
214 124 656 0
69 -527 -906 0
962 38 -954 0
-336 -320 -180 0
-812 347 163 0
-349 -318 356 0
580 -997 -693 0
-782 -642 960 0
-812 260 338 0
-144 -643 -811 0
-261 258 807 0
-226 192 -950 0
-881 689 -303 0
21 980 342 0
-250 -310 166 0
451 -619 -294 0
-846 783 -209 0
-978 -724 545 0
-532 129 996 0
317 -522 -714 0
427 -755 -791 0
699 -669 -815 0
672 -526 857 0
-744 747 360 0
699 760 968 0
141 180 382 0
675 937 -473 0
777 -843 -531 0
-155 993 -991 0
387 -164 806 0
-881 -607 -750 0
-384 -840 645 0
-545 723 -82 0
-687 331 601 0
735 -602 -401 0
-388 119 -543 0
-182 -737 488 0
16 412 383 0
-376 -145 32 0
923 -625 -986 0
-430 -922 -763 0
-156 -714 776 0
-997 625 -774 0
-877 74 -341 0
-47 792 -665 0
-386 -433 -181 0
393 815 937 0
-411 930 -628 0
128 -841 384 0
413 580 91 0
-491 -627 133 0
-471 326 -383 0
796 2 -473 0
-91 -986 -131 0
775 -534 705 0
-826 -940 -194 0
-878 -852 -904 0
-195 -208 -843 0
-37 646 196 0
-962 288 78 0
-624 922 -851 0
954 266 -941 0
328 496 -278 0
-677 998 168 0
-586 -458 617 0
-844 -53 268 0
-199 -360 245 0
645 234 628 0
956 674 -195 0
-388 853 -915 0
-977 -378 -848 0
374 551 -201 0
812 54 -762 0
-511 -629 306 0
95 979 562 0
-623 -568 -180 0
-703 -859 -466 0
672 -101 -183 0
59 927 354 0
-243 688 601 0
-415 49 611 0
-35 966 406 0
180 475 -322 0
-441 562 961 0
759 629 3 0
143 -730 729 0
-501 -262 740 0
-431 286 -303 0
214 -207 -219 0
870 -771 815 0
-336 801 -872 0
489 -782 126 0
-194 524 -58 0
-455 969 681 0
-414 -924 449 0
955 283 -991 0
159 -520 254 0
-622 -302 -985 0
-496 -642 443 0
-828 590 560 0
8 -608 -139 0
343 336 -821 0
-687 -71 -859 0
-20 297 666 0
-334 557 -240 0
-323 -263 628 0
-122 355 -310 0
719 -261 -65 0
-62 -475 217 0
762 -285 408 0
181 -902 839 0
-380 83 60 0
449 292 -723 0
276 -546 335 0
-186 -703 564 0
534 -726 -926 0
-248 25 243 0
-737 -363 -444 0
6 749 -405 0
-658 841 761 0
-988 -919 977 0
-585 852 647 0
929 -273 -826 0
274 -498 -57 0
-824 -836 582 0
526 -944 -356 0
-424 -822 413 0
-299 -59 252 0
-318 -894 -709 0
423 228 793 0
-302 -706 -786 0
529 -906 725 0
320 147 -477 0
883 567 -48 0
322 -937 -515 0
-656 -753 -314 0
-579 784 211 0
254 -95 -299 0
652 -703 -870 0
-354 782 714 0
370 -630 545 0
733 -995 77 0
193 -480 760 0
857 -571 120 0
-407 166 279 0
-102 640 569 0
228 927 883 0
-88 -835 702 0
496 692 300 0
371 632 -182 0
-755 189 -268 0
470 -248 952 0
-934 344 -948 0
-199 660 -785 0
72 493 -763 0
764 502 -512 0
-89 397 171 0
-622 415 -247 0
426 242 -398 0
128 -658 -135 0
-685 425 -883 0
171 755 983 0
883 270 866 0
-461 -20 -965 0
689 915 372 0
340 -693 -482 0
227 -181 58 0
987 612 -9 0
-792 102 601 0
685 597 454 0
297 -759 483 0
-758 -359 666 0
-665 462 -207 0
-250 -66 554 0
-243 -322 494 0
-590 125 345 0
-186 515 884 0
-582 -157 221 0
-964 -12 232 0
436 441 409 0
477 583 -322 0
296 -188 -922 0
-204 -806 -627 0
-199 941 903 0
917 367 -131 0
732 -535 -875 0
889 -97 -196 0
-526 -978 -698 0
180 -987 -245 0
-890 -9 863 0
612 200 805 0
332 -767 439 0
446 -571 644 0
632 -550 -840 0
-810 -608 212 0
1 17 -603 0
-992 -906 -91 0
-520 995 798 0
579 -809 130 0
937 -406 -144 0
735 292 202 0
182 -793 188 0
-729 486 -810 0
-223 88 208 0
-157 -410 768 0
314 343 829 0
-448 392 801 0
-419 279 -14 0
286 907 -921 0
462 162 161 0
453 -57 -592 0
-295 586 -970 0
-29 -196 157 0
866 -96 197 0
643 -54 438 0
143 658 595 0
296 -499 -52 0
864 571 -448 0
365 151 50 0
-629 764 380 0
810 -487 380 0
912 -566 -608 0
840 -987 462 0
63 622 3 0
521 -953 -525 0
156 587 938 0
895 -149 116 0
286 230 -27 0
937 13 509 0
991 700 -923 0
939 -975 -404 0
925 -770 -776 0
-822 322 924 0
-252 -791 507 0
246 -556 -65 0
-409 905 63 0
-903 185 -727 0
682 -550 836 0
578 -462 397 0
-396 42 359 0
219 -539 -567 0
-574 135 57 0
780 -901 -715 0
47 -963 -329 0
-301 164 828 0
-451 -196 -602 0
-684 -144 -412 0
-198 -315 310 0
-743 223 701 0
-267 -580 296 0
-954 245 757 0
244 543 -268 0
-121 606 450 0
770 -759 60 0
-403 -703 444 0
-536 629 -456 0
-826 202 -276 0
14 570 935 0
-724 -545 -240 0
638 875 -744 0
-784 -923 -543 0
-463 945 -161 0
-114 -437 19 0
-795 -17 278 0
-820 -428 205 0
565 -226 -529 0
584 788 -517 0
-909 517 -296 0
-762 88 368 0
-395 911 -972 0
-638 892 -978 0
-177 -269 772 0
227 481 -444 0
836 89 -265 0
-838 -911 -5 0
-881 518 -940 0
-836 -538 -303 0
814 699 330 0
480 -866 493 0
310 688 875 0
681 -233 311 0
-372 -926 -101 0
-502 596 803 0
394 92 -79 0
100 838 279 0
-289 273 704 0
-541 203 -1000 0
-355 20 207 0
-636 54 -748 0
-494 69 970 0
104 902 -157 0
-326 -459 388 0
-948 29 -341 0
-731 -25 -478 0
11 -170 992 0
-408 -857 919 0
99 638 150 0
-244 -155 340 0
-154 -361 438 0
-597 110 875 0
202 894 502 0
112 -898 494 0
-11 -254 974 0
494 -301 -441 0
340 634 -216 0
781 99 885 0
-303 982 760 0
260 -960 776 0
983 -239 -335 0
886 253 511 0
-771 -232 -953 0
428 -566 89 0
-786 -1000 -861 0
273 -95 877 0
-758 471 417 0
-209 -800 -956 0
-949 -164 -114 0
-754 535 373 0
423 -289 52 0
283 -103 -520 0
-558 580 -562 0
-679 -575 204 0
667 598 961 0
205 -917 -347 0
874 -129 -590 0
496 452 -494 0
311 84 69 0
-552 -258 -689 0
720 421 140 0
-205 -343 735 0
294 201 528 0
-996 -627 341 0
880 168 -933 0
462 -961 -53 0
-65 79 -507 0
218 827 -613 0
276 4 485 0
-331 58 -527 0
637 -433 236 0
370 854 11 0
-907 354 891 0
-534 301 -829 0
356 317 -818 0
-208 -884 524 0
-230 -96 831 0
22 -927 -472 0
-431 -7 -602 0
-924 -830 280 0
271 -126 586 0
320 -564 749 0
661 920 395 0
-457 -465 940 0
-519 -697 -679 0
-250 -489 556 0
-822 -598 929 0
-45 821 528 0
-669 -741 187 0
695 -968 -432 0
714 -390 234 0
-190 102 894 0
515 350 51 0
-341 28 77 0
300 653 -716 0
-892 893 51 0
942 -626 84 0
138 -20 39 0
76 -605 716 0
-334 553 -439 0
166 -770 349 0
-822 -940 -750 0
921 -452 995 0
-450 656 270 0
-982 -185 -24 0
-505 -263 -817 0
-45 470 84 0
-376 -118 -539 0
273 620 -217 0
-410 -51 742 0
1000 813 727 0
-4 -720 -102 0
103 -578 -893 0
-720 -379 466 0
22 605 486 0
-796 -204 334 0
164 852 121 0
337 -916 -463 0
-972 -324 949 0
-612 701 -528 0
-77 -524 699 0
-58 -128 -498 0
769 263 557 0
-345 511 -130 0
361 -189 -898 0
-782 9 -843 0
-943 108 192 0
3 997 -844 0
92 550 -820 0
-516 -826 216 0
-912 -991 -170 0
131 -574 -837 0
-402 102 -240 0
-125 -681 -852 0
-150 591 -36 0
753 137 -717 0
744 -674 -34 0
239 273 -255 0
377 450 772 0
735 -530 165 0
-262 232 -843 0
-439 592 -532 0
385 -825 610 0
-945 40 546 0
-640 -894 715 0
-711 -619 105 0
383 591 520 0
976 629 -492 0
-165 -677 992 0
150 -240 669 0
269 -63 69 0
-807 95 -298 0
565 -79 490 0
420 605 -232 0
-905 674 237 0
67 746 460 0
-8 -682 23 0
-353 513 -867 0
-57 -901 -425 0
197 -651 188 0
-804 -976 -68 0
-146 -823 -724 0
-474 -785 363 0
916 -431 -393 0
-191 11 490 0
267 -440 -781 0
567 509 786 0
9 894 -199 0
-936 -136 -633 0
-859 68 -549 0
-876 698 924 0
-489 889 -750 0
-624 -513 -848 0
-577 595 257 0
-599 255 -535 0
120 -514 -819 0
58 998 -346 0
-16 -94 -845 0
-933 401 598 0
628 -551 -937 0
101 209 -230 0
891 771 -372 0
-301 -156 -881 0
-536 565 -672 0
-667 -345 -920 0
518 -845 -335 0
-564 998 801 0
-329 -256 -213 0
-763 169 806 0
316 -568 -759 0
-585 -900 568 0
-299 -53 -503 0
-246 -780 986 0
-148 266 199 0
210 636 745 0
771 832 567 0
-763 716 -20 0
668 -243 -376 0
230 -64 446 0
-161 552 219 0
408 316 463 0
407 -52 -590 0
-714 529 622 0
85 -976 -977 0
-667 -527 663 0
541 670 -669 0
-950 176 511 0
-111 -990 654 0
609 542 -118 0
760 604 770 0
-171 -854 -894 0
-171 286 -163 0
77 -502 -188 0
-450 217 -148 0
-877 261 -717 0
239 927 -140 0
-185 535 -391 0
-221 482 485 0
-512 151 200 0
-89 -225 305 0
725 -633 -238 0
960 -904 299 0
-301 -159 -131 0
-969 -37 -406 0
473 -726 -240 0
-32 -833 -771 0
987 -173 486 0
379 -705 -335 0
968 291 -419 0
464 940 -303 0
-442 -836 266 0
741 -467 -546 0
429 832 -782 0
210 -644 -263 0
-1000 770 73 0
-607 564 -403 0
-972 -807 83 0
436 301 -442 0
150 859 486 0
-542 -447 -667 0
747 784 -428 0
-471 -469 -148 0
-223 -336 -297 0
-868 412 -278 0
-432 129 478 0
658 793 -757 0
78 -433 -536 0
775 738 -501 0
-354 951 54 0
-144 944 -451 0
435 -154 29 0
148 48 496 0
-133 214 208 0
879 -45 -486 0
587 18 405 0
-699 934 -122 0
-507 77 94 0
-761 781 -874 0
-133 -808 379 0
-813 867 -875 0
-137 -231 -577 0
-458 167 589 0
-26 -890 -66 0
787 860 773 0
64 -360 951 0
287 -159 333 0
426 456 -996 0
878 -892 998 0
964 -46 413 0
820 489 435 0
832 -338 -265 0
592 -811 431 0
-775 780 -647 0
-561 -576 -11 0
-566 983 99 0
-492 712 634 0
-519 -164 -172 0
133 74 -495 0
24 -280 380 0
4 -566 -453 0
65 -376 475 0
-515 -112 -485 0
98 -896 275 0
-335 267 159 0
-271 -838 -38 0
706 71 517 0
-138 -162 616 0
464 -4 956 0
357 572 -989 0
-540 -546 -625 0
-155 -490 593 0
413 -622 -610 0
-291 813 258 0
-713 585 603 0
-559 -222 -830 0
-603 -394 -686 0
738 443 -434 0
372 403 -730 0
-544 42 574 0
-34 -744 886 0
863 864 648 0
121 -673 -980 0
-583 10 -877 0
-772 315 892 0
40 -909 -888 0
-981 -805 944 0
-494 -11 -968 0
-312 540 560 0
832 775 989 0
616 369 157 0
-673 -820 -670 0
-612 347 256 0
-619 931 139 0
-771 -986 -936 0
-589 -972 334 0
219 853 494 0
625 -716 576 0
331 -101 -632 0
-998 30 -981 0
985 343 201 0
570 -464 -749 0
-708 -720 45 0
-28 -372 361 0
9 -267 -403 0
20 662 912 0
166 -109 -862 0
100 -163 292 0
-442 773 -628 0
-203 543 -747 0
-499 921 -781 0
88 -718 -43 0
-769 243 223 0
-285 582 -852 0
182 -908 305 0
-965 39 913 0
324 -329 -885 0
-925 724 -993 0
-762 -542 -477 0
-225 -356 393 0
-23 -313 60 0
-872 -613 603 0
388 -725 -969 0
8 -221 47 0
855 155 222 0
-432 375 -873 0
125 100 703 0
269 128 -78 0
-218 917 -846 0
-755 270 630 0
-464 -911 -935 0
-824 -932 -441 0
761 958 346 0
499 404 958 0
401 150 -332 0
-172 -753 609 0
385 862 -97 0
803 -100 443 0
-660 -351 767 0
898 -930 -631 0
794 575 -876 0
-53 151 316 0
-586 -60 660 0
-148 925 411 0
392 -733 717 0
418 86 164 0
-971 -509 543 0
509 938 -673 0
376 922 -547 0
881 -9 -225 0
-658 220 477 0
263 408 855 0
412 275 607 0
-245 989 823 0
-215 898 68 0
-399 985 677 0
882 643 724 0
-647 -357 40 0
169 -387 -691 0
-784 -360 374 0
-159 535 596 0
769 -112 -590 0
43 -181 107 0
38 -644 -648 0
672 -212 702 0
636 851 695 0
146 -241 285 0
79 -965 -545 0
81 -282 625 0
-345 528 -748 0
710 -416 -737 0
136 667 -684 0
-677 -472 513 0
-968 -182 -934 0
178 -564 -254 0
438 -184 299 0
630 973 -553 0
76 -70 -919 0
-104 180 302 0
725 -388 25 0
100 934 848 0
303 504 -355 0
967 663 -899 0
-942 -238 -934 0
-558 864 -901 0
330 -753 761 0
288 557 492 0
-210 609 -756 0
-386 -142 719 0
-244 -266 86 0
-479 694 801 0
-92 -714 21 0
861 90 -17 0
823 872 925 0
-11 -978 -738 0
-295 -731 404 0
-133 -32 420 0
-252 885 -286 0
-58 -315 -795 0
497 585 -10 0
493 650 18 0
235 734 -430 0
248 -499 -17 0
-781 -731 -825 0
787 413 -667 0
-330 -307 94 0
629 -601 332 0
-559 676 -445 0
-403 633 815 0
-289 -720 -246 0
-698 -246 -511 0
-965 671 -299 0
732 457 833 0
-185 -925 137 0
95 -811 517 0
-125 86 -352 0
-182 -231 -850 0
-652 -958 -281 0
220 144 -12 0
-791 -513 38 0
656 -137 -479 0
919 -857 -150 0
885 -503 -945 0
56 -75 -862 0
554 747 396 0
-787 830 -887 0
-634 -554 -745 0
-486 -252 75 0
-447 917 -574 0
-316 -627 332 0
-322 -349 468 0
-215 435 -546 0
-145 -290 -295 0
947 -370 -841 0
849 859 225 0
-135 -833 -903 0
57 370 -603 0
723 -258 280 0
-415 87 -252 0
788 389 -234 0
-259 355 -647 0
122 356 -1000 0
351 251 -831 0
-43 522 -10 0
-51 -515 -635 0
-531 -836 622 0
251 -7 -347 0
516 369 322 0
577 841 143 0
-611 -41 -307 0
-17 583 271 0
-172 -624 46 0
-680 812 -141 0
114 993 525 0
-517 -75 -796 0
667 921 -223 0
-727 388 59 0
-875 -268 -221 0
-304 -831 -998 0
251 650 431 0
-226 -866 880 0
611 89 388 0
-4 262 149 0
-150 -435 -30 0
710 883 443 0
934 195 280 0
-638 -515 -882 0
-27 845 28 0
715 -666 553 0
-142 734 -221 0
-343 -986 -819 0
671 635 470 0
928 -835 -519 0
-94 642 876 0
932 962 161 0
-110 -882 -444 0
827 95 897 0
-755 -782 46 0
19 -172 -658 0
333 -633 881 0
892 773 302 0
412 -625 600 0
485 -609 812 0
901 220 -881 0
-587 -230 966 0
502 697 615 0
-691 912 335 0
-3 -767 308 0
-741 -262 -214 0
-869 559 -238 0
-384 587 -295 0
-433 752 527 0
585 245 -395 0
372 136 -226 0
-674 -909 -397 0
-749 566 -230 0
437 -224 739 0
5 -620 -476 0
701 -28 742 0
14 710 -826 0
619 -25 760 0
-751 541 330 0
-375 -390 -786 0
45 -719 -822 0
-234 471 -595 0
466 248 794 0
-665 -465 45 0
484 506 37 0
-762 -395 -708 0
-642 -502 -189 0
-679 -828 318 0
706 379 790 0
109 -600 76 0
-669 -656 52 0
-514 643 111 0
-124 -867 55 0
769 -258 -388 0
339 535 -528 0
-644 -108 -411 0
-623 509 181 0
-700 873 -470 0
-961 -726 98 0
-509 403 779 0
940 -446 -295 0
45 -337 -628 0
-673 191 571 0
-467 -910 -61 0
605 792 -903 0
331 -212 755 0
-429 532 -842 0
398 -740 618 0
861 837 -825 0
-905 -902 23 0
-485 555 -405 0
-662 -234 -491 0
-315 -399 43 0
476 218 -63 0
358 852 -63 0
456 513 -859 0
-953 939 -131 0
-456 331 -826 0
-866 -20 423 0
753 -492 -936 0
298 735 920 0
258 723 -359 0
-460 156 -700 0
-583 -60 5 0
-908 -265 61 0
-554 -636 565 0
-724 711 -705 0
875 853 -35 0
613 -97 958 0
231 752 -184 0
672 -372 143 0
-950 -962 964 0
-720 668 -783 0
650 270 -50 0
429 -684 669 0
-539 -654 -358 0
-162 -112 -919 0
-763 -867 32 0
-951 -922 340 0
-803 890 -945 0
656 589 980 0
46 910 -468 0
95 -814 -215 0
212 274 -303 0
-201 806 -622 0
961 203 96 0
624 -776 -692 0
860 667 536 0
399 146 -120 0
-207 49 -253 0
-956 814 923 0
798 -834 -438 0
354 -181 -973 0
45 118 -195 0
559 704 -256 0
552 -814 -560 0
306 386 -555 0
-907 -295 541 0
708 953 -991 0
-847 660 789 0
-69 255 -19 0
906 -376 91 0
656 752 884 0
660 -712 -842 0
219 926 877 0
-456 -534 755 0
-995 642 -379 0
-468 -531 587 0
-333 -372 -890 0
-472 -440 -488 0
96 -608 312 0
406 -108 -162 0
924 388 905 0
519 290 -214 0
-252 195 90 0
361 309 -23 0
-642 686 -731 0
22 363 -787 0
-165 -685 -205 0
93 628 60 0
-862 506 809 0
-730 253 -733 0
210 612 351 0
335 980 -367 0
-712 638 122 0
804 -993 987 0
639 304 195 0
472 52 297 0
151 -465 -836 0
-853 774 -420 0
522 -738 -998 0
-725 881 480 0
-527 -747 -531 0
692 -575 -382 0
914 943 278 0
-299 -873 902 0
725 -184 214 0
372 315 -924 0
-133 -935 -57 0
60 -714 -69 0
426 215 638 0
-182 115 -373 0
-528 962 114 0
-692 613 607 0
243 337 374 0
-616 936 870 0
-414 67 -854 0
-167 -217 -157 0
618 -837 -378 0
-280 -641 -864 0
-246 -4 -830 0
127 313 101 0
549 395 -554 0
997 -524 -38 0
451 914 -780 0
-885 -728 648 0
143 24 -98 0
906 -66 -972 0
-413 89 -526 0
802 -718 572 0
-541 425 648 0
562 -586 838 0
-56 604 -470 0
-875 -270 244 0
892 125 -197 0
670 183 -528 0
913 521 44 0
-972 143 -277 0
-8 -726 350 0
740 317 -797 0
-428 459 -764 0
-117 74 -419 0
-232 -496 -103 0
-746 -423 570 0
-426 -419 212 0
-351 -281 62 0
855 39 -137 0
-186 -221 625 0
618 78 808 0
364 992 249 0
-419 733 -399 0
160 -161 -593 0
-950 -697 512 0
-246 261 -469 0
715 532 961 0
826 504 44 0
-398 -352 -819 0
290 345 51 0
-244 92 157 0
-350 -985 273 0
-411 464 -373 0
-102 -937 -914 0
-615 -969 356 0
-449 106 746 0
142 -387 826 0
550 143 656 0
-101 87 -225 0
-645 -569 -367 0
-477 153 -836 0
691 -21 115 0
-649 -32 -929 0
731 -527 24 0
659 -687 -156 0
110 -239 -299 0
879 -895 -355 0
587 87 -886 0
272 209 -660 0
-3 -308 -58 0
987 73 -577 0
732 -398 15 0
-683 -453 179 0
-449 968 937 0
135 749 -623 0
999 -679 819 0
-620 201 623 0
-45 473 774 0
146 -179 -714 0
38 -429 383 0
23 463 -270 0
-552 971 757 0
-385 228 -734 0
-443 -833 24 0
821 940 -2 0
-738 -638 261 0
-379 -360 -571 0
-891 617 2 0
-55 506 458 0
-871 -382 343 0
277 790 950 0
977 865 -447 0
750 -441 22 0
-673 497 -46 0
480 -809 -147 0
-796 -255 598 0
348 -119 -128 0
-705 380 -104 0
264 -5 -84 0
180 -188 -922 0
-983 -698 149 0
440 508 -305 0
996 595 -659 0
-351 49 -158 0
136 93 713 0
-680 -482 704 0
364 -281 -536 0
723 -613 -295 0
-404 -541 910 0
-186 -953 398 0
-171 -431 -56 0
962 461 -733 0
-484 546 -440 0
918 -888 104 0
-137 938 35 0
-804 -526 182 0
768 37 -322 0
207 129 -793 0
-973 576 21 0
496 -732 142 0
-179 -555 863 0
604 761 -982 0
724 644 83 0
167 -14 -224 0
634 -623 -749 0
-643 -55 -466 0
492 350 -421 0
-632 -136 936 0
623 -449 -428 0
-715 -847 108 0
871 962 -227 0
29 194 -421 0
-559 -137 945 0
-765 -555 -299 0
-419 749 -314 0
-179 -276 319 0
776 528 663 0
586 841 742 0
-391 469 682 0
296 32 110 0
-247 -421 705 0
-682 -77 872 0
-911 -25 -86 0
-914 3 896 0
731 -411 -975 0
-697 345 848 0
-329 -860 -63 0
681 -435 809 0
-626 -102 -324 0
-240 -346 932 0
-410 -819 829 0
-689 -719 299 0
272 -128 618 0
958 64 -3 0
425 742 103 0
875 947 851 0
506 240 703 0
-867 240 -964 0
-221 -189 958 0
328 10 248 0
190 -901 -953 0
449 833 -331 0
-183 130 7 0
381 395 -339 0
72 -740 809 0
-459 -53 -980 0
903 -310 173 0
-999 859 40 0
492 -450 -982 0
897 305 -68 0
-72 -829 394 0
-443 525 -277 0
576 -346 935 0
428 199 -176 0
199 -620 -910 0
-661 -76 706 0
986 -727 180 0
-651 -550 759 0
-28 713 111 0
-871 404 509 0
-609 -463 701 0
-877 842 -126 0
867 947 417 0
-433 221 701 0
-421 -86 647 0
-127 -885 563 0
827 878 714 0
385 -92 -774 0
865 -205 -317 0
216 -698 928 0
-929 -441 -925 0
320 861 -453 0
49 -335 592 0
904 730 -497 0
-103 214 528 0
-376 246 -597 0
941 859 -869 0
-328 -465 293 0
-579 267 -481 0
-394 860 329 0
-604 785 124 0
434 195 -597 0
-41 198 578 0
523 -700 -123 0
300 -30 938 0
-271 594 850 0
734 -901 110 0
762 556 975 0
493 -59 -143 0
38 -181 418 0
-624 169 28 0
-247 278 -610 0
166 -108 -382 0
494 -101 -886 0
906 -386 412 0
-872 -536 447 0
-910 -292 -157 0
-104 -102 296 0
-23 -491 72 0
968 -461 187 0
-464 -132 813 0
738 -54 93 0
-146 -476 556 0
227 -786 37 0
824 919 -442 0
338 -253 638 0
-691 -212 -868 0
989 662 -593 0
123 87 -240 0
2 601 -128 0
827 488 85 0
-978 -568 -851 0
938 -429 -648 0
-262 -243 50 0
-982 807 -253 0
994 857 958 0
-351 113 478 0
-749 -96 26 0
948 827 968 0
-502 327 -124 0
629 741 -886 0
89 35 -271 0
-867 1 -714 0
-604 -992 546 0
-705 516 -335 0
480 315 -957 0
602 635 709 0
193 -906 817 0
-474 288 -319 0
-118 -461 -81 0
619 1000 -874 0
792 171 907 0
-17 508 -966 0
557 901 487 0
575 527 -274 0
-377 578 724 0
-648 -259 793 0
-349 -775 332 0
-298 -87 143 0
904 -742 383 0
280 123 -941 0
737 819 951 0
-974 -64 73 0
-153 379 -552 0
-742 -645 637 0
-667 -352 -620 0
489 462 -247 0
678 37 -167 0
-82 718 758 0
924 -741 950 0
-697 792 776 0
367 913 628 0
514 -49 770 0
830 -645 -112 0
-948 482 -135 0
281 58 989 0
513 -540 -89 0
-210 -894 963 0
627 -993 400 0
-894 -745 236 0
423 785 72 0
325 -323 693 0
717 174 919 0
-203 109 -579 0
-672 992 -579 0
-209 -721 -29 0
-553 647 801 0
-48 -697 -75 0
309 594 -228 0
-804 793 -730 0
-18 658 -110 0
892 231 -285 0
103 -507 -240 0
617 -690 -854 0
147 -445 163 0
-261 445 974 0
651 -537 919 0
755 7 -335 0
-962 221 602 0
368 1 -848 0
600 184 150 0
6 753 281 0
-620 341 -650 0
739 355 118 0
437 -737 320 0
589 963 116 0
-302 -747 -792 0
256 -91 -795 0
105 480 612 0
-91 939 159 0
-996 -182 -248 0
712 -825 -956 0
-980 -666 -509 0
-442 127 -853 0
-980 223 -115 0
-56 239 -118 0
390 775 -329 0
-798 950 161 0
358 -814 -276 0
-871 -519 156 0
-476 724 534 0
222 854 838 0
-546 639 -765 0
-878 -329 441 0
228 30 181 0
949 -25 -838 0
-884 270 277 0
61 -898 160 0
809 -649 -45 0
364 -925 -994 0
-183 487 324 0
-137 425 -755 0
-487 -387 -914 0
937 826 -58 0
-601 118 -754 0
-544 -113 458 0
-562 -742 261 0
-486 -904 -79 0
-200 433 238 0
-112 698 -506 0
-23 -97 -943 0
213 -792 -643 0
78 460 7 0
736 230 909 0
13 501 -410 0
-972 -814 -561 0
995 831 -216 0
13 45 242 0
-722 -553 -332 0
268 -749 833 0
346 -676 -493 0
258 -175 357 0
-16 -484 -630 0
-838 141 -658 0
643 583 -242 0
-30 -312 973 0
600 -27 800 0
-451 -944 509 0
289 -571 774 0
203 -383 881 0
-341 863 966 0
-475 -305 -1 0
-286 389 -370 0
559 -230 441 0
246 13 715 0
766 -452 997 0
-543 887 146 0
665 -396 755 0
873 -67 -891 0
-639 506 412 0
930 270 865 0
-193 584 -424 0
505 -517 -285 0
495 191 -704 0
308 -228 508 0
274 617 -929 0
666 -614 667 0
66 573 -165 0
495 -437 -550 0
226 -392 556 0
-465 -633 -967 0
802 445 943 0
427 528 54 0
953 -161 944 0
839 41 761 0
877 681 84 0
-964 -27 880 0
307 987 -273 0
240 -877 318 0
551 146 -804 0
-921 -928 368 0
362 -100 858 0
854 519 -606 0
964 -421 940 0
-604 845 60 0
-588 910 -328 0
-856 -977 513 0
-600 -717 -239 0
445 -719 -785 0
341 948 224 0
-823 64 697 0
-403 946 191 0
-636 -937 447 0
-963 -794 129 0
-75 693 -703 0
78 466 -990 0
-214 -631 -263 0
-810 77 413 0
-707 -726 730 0
627 -510 952 0
-875 -19 754 0
660 -635 95 0
850 457 -599 0
-129 -90 -890 0
-859 486 167 0
329 856 -62 0
-272 -435 -964 0
557 162 537 0
-764 -819 -894 0
644 906 167 0
-727 35 24 0
306 -378 -818 0
-670 -212 -101 0
554 -402 -879 0
91 -507 -361 0
-42 -382 -460 0
861 -90 675 0
-288 794 155 0
274 425 649 0
-740 634 -241 0
22 -843 926 0
639 -221 433 0
431 -43 179 0
212 885 59 0
-703 -375 252 0
810 -351 624 0
798 751 435 0
208 893 221 0
34 -445 464 0
262 178 325 0
-91 314 -742 0
479 137 460 0
-352 -439 116 0
1 219 -543 0
340 -272 -155 0
101 577 517 0
233 -487 396 0
-311 -123 786 0
109 -583 687 0
967 -288 -774 0
537 201 -948 0
-874 -223 653 0
578 -426 -36 0
-33 -94 -838 0
828 -304 -305 0
-869 -102 -447 0
345 964 -548 0
841 -353 675 0
-39 -189 856 0
-354 -602 -28 0
-918 912 -15 0
-469 -218 -378 0
231 -608 -534 0
311 927 43 0
-660 -491 -900 0
19 967 -184 0
-626 352 -535 0
209 268 608 0
-148 556 -72 0
62 -473 -968 0
-433 18 631 0
-728 -221 -419 0
15 833 420 0
-959 -706 -974 0
-505 59 603 0
231 437 584 0
-808 935 376 0
-615 -624 -619 0
88 -620 105 0
-911 65 107 0
907 471 -179 0
-904 984 458 0
-149 37 -221 0
-893 641 265 0
-607 715 301 0
390 452 -931 0
667 -578 815 0
-701 353 117 0
-169 24 838 0
-924 331 452 0
-447 -53 -429 0
-91 -194 854 0
-67 -292 -478 0
302 -856 167 0
144 -520 -934 0
-818 12 148 0
379 774 5 0
450 644 -991 0
887 -676 190 0
-986 776 -326 0
262 -434 -243 0
-114 430 105 0
-500 832 -821 0
69 127 -987 0
597 -94 454 0
-319 -189 621 0
-816 -570 634 0
873 -34 -280 0
-382 -359 533 0
-605 -497 -292 0
-712 -566 468 0
-125 868 11 0
-556 -105 -813 0
-858 -232 126 0
223 433 520 0
-868 -556 -131 0
-978 136 5 0
900 448 14 0
-438 -648 76 0
741 384 763 0
162 262 646 0
-78 -827 786 0
-553 -139 397 0
-843 692 540 0
-387 -712 -514 0
-549 396 389 0
-590 112 -279 0
52 -873 710 0
823 -835 197 0
818 -599 -882 0
-350 -836 -331 0
-615 -732 336 0
-231 -591 -234 0
-617 903 613 0
-106 -171 -353 0
722 438 -835 0
184 531 603 0
604 -982 -57 0
-417 -732 -340 0
-666 487 -246 0
-677 -755 -102 0
-538 889 -623 0
-691 103 65 0
600 675 720 0
846 -815 -625 0
-624 412 628 0
540 -589 -686 0
-931 -346 497 0
818 545 378 0
636 117 550 0
-634 -866 592 0
274 -897 243 0
643 -170 -85 0
-684 516 -605 0
219 -304 -660 0
265 -816 790 0
-433 425 -25 0
370 710 266 0
-671 457 263 0
-733 -224 -74 0
408 -766 -638 0
-417 -969 640 0
-697 366 642 0
144 612 134 0
-896 -909 -405 0
303 -718 486 0
999 -473 344 0
461 709 -869 0
49 729 997 0
843 -465 8 0
876 123 461 0
920 -815 -738 0
-608 -366 -451 0
252 -685 9 0
829 -952 -234 0
-177 978 -716 0
-575 887 67 0
-219 -208 -20 0
3 -114 -728 0
960 135 611 0
171 68 135 0
278 998 916 0
75 -707 592 0
974 -773 -759 0
-831 -513 -813 0
626 -87 837 0
-516 234 -1 0
-521 -279 685 0
554 998 212 0
691 -943 254 0
-185 -786 -787 0
-348 -783 569 0
208 6 -773 0
258 200 -21 0
592 -977 368 0
-901 305 -387 0
561 651 479 0
-634 -887 -832 0
-304 554 -446 0
29 -204 -331 0
-401 90 -527 0
30 -992 954 0
175 685 632 0
974 31 835 0
-622 99 -239 0
-597 -237 -554 0
557 780 -844 0
-517 60 379 0
305 -726 -708 0
-788 425 -253 0
766 -718 229 0
-368 -77 592 0
-915 -927 772 0
657 -482 836 0
-613 704 -663 0
-953 -965 -794 0
136 -513 -54 0
576 94 603 0
-707 329 686 0
-111 -513 -977 0
669 -260 -820 0
758 949 -629 0
-293 -860 -592 0
-894 661 -388 0
-336 -804 -608 0
975 942 -452 0
33 -494 680 0
-752 -493 -675 0
-193 -187 -379 0
545 -932 413 0
-689 -171 -166 0
213 -940 -838 0
-673 725 257 0
300 198 439 0
-508 -715 579 0
796 746 175 0
-482 93 961 0
265 -463 754 0
662 266 -544 0
25 835 525 0
710 -285 -429 0
-153 -166 -40 0
793 -760 -458 0
-584 -986 -753 0
-541 300 -646 0
791 512 998 0
-51 890 -708 0
253 811 -666 0
-742 922 -529 0
140 -411 -182 0
-872 -404 43 0
-17 -933 329 0
-923 988 33 0
837 -620 967 0
767 -283 226 0
720 -581 -771 0
121 115 -240 0
130 -730 870 0
811 635 -219 0
-270 241 -883 0
-710 30 -334 0
433 -641 -76 0
-171 -568 452 0
929 953 893 0
675 -7 -826 0
62 -167 524 0
-608 285 -421 0
-47 -977 -81 0
-12 -670 890 0
-828 543 79 0
-367 132 -814 0
-657 -368 -697 0
216 521 -717 0
437 -401 162 0
706 -496 -976 0
600 548 -746 0
728 -760 -675 0
728 -269 988 0
49 353 -128 0
709 889 -324 0
884 501 -165 0
702 442 368 0
-875 390 -309 0
74 107 -470 0
51 359 233 0
309 -227 743 0
-133 -415 -986 0
473 843 842 0
340 56 882 0
-890 243 115 0
667 -94 -84 0
263 576 824 0
593 -98 -288 0
974 210 -705 0
-758 857 687 0
70 381 -770 0
-472 935 -153 0
-493 180 -449 0
-464 911 -641 0
-870 626 -780 0
-302 -113 -778 0
-742 -516 -738 0
-568 -162 -835 0
-565 -637 119 0
994 518 639 0
-281 -158 345 0
-787 982 344 0
-465 349 431 0
921 -528 161 0
273 -201 491 0
293 257 427 0
-715 393 530 0
-946 -198 500 0
638 730 834 0
896 296 -480 0
-952 -15 -129 0
-225 -587 -868 0
976 317 40 0
-484 413 -979 0
-689 889 -80 0
-474 215 817 0
16 -433 -10 0
-479 250 -576 0
360 929 248 0
641 388 -280 0
356 21 893 0
-128 -978 19 0
-223 -759 51 0
-514 976 -104 0
-132 20 586 0
-717 -232 799 0
748 428 385 0
-291 381 893 0
-835 -326 674 0
560 -682 871 0
917 -25 707 0
-196 667 380 0
558 223 50 0
652 -958 503 0
299 870 -272 0
-63 422 -60 0
951 921 -983 0
461 247 -17 0
545 267 -549 0
575 -894 972 0
-339 217 840 0
-261 -500 209 0
-891 -638 36 0
468 17 -485 0
-905 165 -231 0
-21 193 -137 0
-608 927 -23 0
812 832 -790 0
752 951 169 0
-15 -85 -560 0
-50 -489 -56 0
876 -200 807 0
963 -890 -784 0
-272 572 453 0
786 -891 -399 0
822 -799 144 0
-801 -145 566 0
-570 -974 -715 0
847 39 993 0
-444 -428 668 0
218 -83 -311 0
785 -875 564 0
-611 -351 319 0
-622 -79 360 0
899 -184 -326 0
363 911 241 0
-810 992 -741 0
376 923 -704 0
365 -804 822 0
72 -438 228 0
-911 -195 587 0
123 560 -824 0
-824 856 991 0
-890 -545 644 0
520 4 -457 0
-801 446 -149 0
251 703 -931 0
987 -858 -454 0
-248 -323 296 0
-724 -150 726 0
-531 -376 -22 0
394 -752 778 0
-175 223 -250 0
-507 997 -558 0
-495 -249 24 0
-884 -635 -901 0
-225 -786 18 0
-925 620 351 0
671 570 380 0
-761 -81 466 0
-329 331 60 0
-784 -534 -265 0
370 -468 -426 0
-405 799 -313 0
-161 921 -692 0
-528 -489 488 0
9 -54 538 0
206 -895 -627 0
924 -719 -496 0
-238 -921 -211 0
-950 -820 -531 0
-626 -956 -160 0
-62 -219 -621 0
-781 -130 -947 0
-40 69 -668 0
-346 -175 -435 0
-457 -814 946 0
-108 850 790 0
535 100 365 0
306 -159 80 0
796 728 -355 0
-475 97 181 0
897 -669 -506 0
215 -864 -250 0
-234 -389 602 0
-860 429 -561 0
-320 741 701 0
-825 -181 182 0
761 185 -892 0
-418 -437 -829 0
-622 553 613 0
-959 819 146 0
592 -743 868 0
-840 51 -57 0
-590 -911 473 0
11 -72 956 0
940 556 925 0
-973 745 229 0
550 216 -536 0
729 481 -702 0
-41 -206 728 0
-961 102 14 0
862 -176 -554 0
-326 -419 780 0
-229 360 551 0
416 -918 -807 0
274 404 -496 0
404 -739 -573 0
528 -506 -820 0
-699 682 836 0
-19 -764 -585 0
239 -529 415 0
87 -369 -569 0
619 -139 626 0
931 586 612 0
797 -795 203 0
546 104 791 0
483 -511 -709 0
-143 992 985 0
-15 518 675 0
-820 192 -518 0
944 761 621 0
158 526 -65 0
267 662 -105 0
-223 144 519 0
216 -580 -127 0
841 -994 -732 0
-591 768 -307 0
258 784 -92 0
-741 118 -224 0
-905 -821 894 0
753 -573 -221 0
298 -383 59 0
-659 302 -77 0
-848 -964 389 0
79 -180 203 0
262 -767 875 0
298 297 201 0
-1000 435 386 0
-305 -386 -277 0
54 976 717 0
-823 -426 -237 0
247 -618 -613 0
830 -749 802 0
-964 272 -421 0
834 165 -444 0
470 551 -170 0
-171 825 524 0
414 683 -583 0
917 -138 331 0
-686 -884 -678 0
-898 -405 -780 0
-920 678 955 0
-285 292 -709 0
-495 490 786 0
101 -224 -365 0
-600 -406 -467 0
-672 756 188 0
-373 402 952 0
-816 -571 325 0
226 415 424 0
920 -86 -204 0
338 -324 1000 0
-29 793 -19 0
76 -784 -145 0
-611 353 818 0
842 245 528 0
423 -204 -103 0
-51 -816 -19 0
-365 -244 504 0
-21 276 378 0
-960 -826 308 0
8 118 -972 0
469 -435 -362 0
-338 540 -424 0
-293 -613 218 0
158 -406 160 0
177 161 178 0
-151 -665 -15 0
-548 425 -840 0
723 -695 991 0
2 771 -442 0
-93 -771 669 0
187 -496 79 0
-587 -948 684 0
350 343 -418 0
-674 541 656 0
24 -409 381 0
-830 -546 -510 0
-995 281 610 0
-79 -488 592 0
534 95 569 0
-181 108 138 0
914 -71 44 0
808 -813 583 0
250 -251 -208 0
482 -109 203 0
422 -889 -286 0
273 684 754 0
-403 286 -136 0
495 574 771 0
-659 412 786 0
-60 746 -488 0
-318 507 614 0
716 732 -709 0
-352 975 922 0
606 764 514 0
854 -622 -969 0
-710 740 404 0
-23 98 -558 0
504 841 -943 0
615 620 598 0
878 662 -635 0
323 611 648 0
31 -969 -899 0
234 -31 418 0
-559 350 9 0
891 428 -655 0
-536 -704 824 0
569 673 -107 0
-638 -941 756 0
-229 730 -742 0
291 -490 939 0
-779 -853 -168 0
-296 911 -676 0
-47 -26 -362 0
561 145 911 0
813 -313 -465 0
881 977 -372 0
666 986 -839 0
-768 -82 653 0
665 -455 -194 0
-825 -512 -652 0
721 157 -134 0
-900 278 69 0
-691 -827 106 0
-967 460 369 0
691 -137 89 0
-876 -936 -977 0
677 644 63 0
-765 759 218 0
-224 -458 -4 0
-926 -761 403 0
-771 -112 -410 0
446 -188 -965 0
-869 680 -200 0
-225 -232 -871 0
791 619 -11 0
-94 -966 -335 0
-766 732 612 0
95 68 145 0
951 -229 474 0
-282 -167 448 0
610 -911 -81 0
-479 153 -584 0
654 -795 234 0
558 751 -214 0
211 941 481 0
-435 43 769 0
544 -467 -941 0
434 428 563 0
-949 643 -406 0
564 524 -306 0
544 141 167 0
918 256 439 0
471 -588 -465 0
-582 -119 94 0
802 825 -438 0
-499 493 -973 0
317 50 -377 0
-239 -18 961 0
-778 -929 -939 0
-798 718 392 0
-229 -80 922 0
837 977 763 0
117 -393 707 0
-270 -351 -646 0
573 -517 44 0
-69 -814 521 0
-645 -389 -737 0
-693 464 -999 0
531 -242 -933 0
-369 42 788 0
-556 -625 588 0
897 -889 -377 0
201 716 16 0
-611 -864 931 0
330 302 -980 0
131 105 272 0
883 -171 -598 0
854 981 -122 0
-543 509 -225 0
-762 -349 655 0
-209 -673 -378 0
-248 423 395 0
888 -698 -799 0
-837 684 947 0
825 -847 929 0
755 -458 671 0
-190 -849 11 0
-755 115 420 0
130 86 -936 0
-448 836 859 0
45 -41 -286 0
766 972 936 0
-431 -517 -508 0
325 -512 -854 0
743 107 893 0
231 -734 -897 0
818 -429 -631 0
716 -571 -360 0
-387 -35 -200 0
595 -569 -5 0
315 606 256 0
-749 927 840 0
431 -586 39 0
-96 768 607 0
-193 935 227 0
-681 938 409 0
516 -145 778 0
585 -261 498 0
507 -983 996 0
1 256 651 0
219 -849 637 0
416 -698 204 0
-611 -890 236 0
125 443 -291 0
-672 536 -832 0
813 857 -843 0
366 -274 754 0
51 -728 -608 0
613 537 431 0
-505 562 -727 0
-435 353 995 0
-364 499 -98 0
-980 249 -245 0
850 -311 -748 0
672 641 297 0
-289 650 636 0
-60 512 -396 0
867 942 -92 0
276 -188 -342 0
148 -235 -879 0
935 643 -954 0
-844 274 347 0
-523 513 -54 0
511 -920 915 0
-950 967 -758 0
190 -683 546 0
-291 -996 637 0
-481 993 772 0
30 -115 -45 0
-707 837 607 0
869 -64 -427 0
-885 -680 -743 0
532 -894 -154 0
441 -545 256 0
-361 603 -719 0
594 -516 298 0
-183 569 215 0
449 107 -259 0
-828 508 199 0
595 588 -754 0
773 -423 366 0
163 653 670 0
577 979 296 0
42 -653 -177 0
793 -9 -540 0
-488 -860 205 0
-317 779 -380 0
707 735 570 0
133 -117 2 0
-43 387 -944 0
-269 -375 824 0
-892 43 -523 0
769 -813 -947 0
-396 22 911 0
650 855 237 0
-880 -20 -305 0
-294 869 -676 0
869 -887 -363 0
668 -706 929 0
195 -575 -64 0
-140 757 -253 0
-409 -194 939 0
249 -739 399 0
-191 -729 -907 0
-811 -109 748 0
-834 -707 795 0
-826 -990 618 0
-516 -8 154 0
217 -10 143 0
-127 677 -268 0
391 214 736 0
-422 -380 -990 0
-245 940 178 0
855 624 -97 0
-637 -393 68 0
-656 -748 213 0
412 -264 -392 0
399 566 314 0
-240 841 349 0
450 -118 334 0
-890 641 -598 0
-943 -802 358 0
984 -361 637 0
-352 -636 60 0
62 312 -392 0
-361 -537 -6 0
-809 984 41 0
-103 -703 450 0
554 -613 325 0
-429 360 -764 0
-319 -775 -731 0
-7 -77 -255 0
-999 91 572 0
9 646 -389 0
-282 721 905 0
163 -110 159 0
935 -891 -314 0
-411 -620 -964 0
-550 294 897 0
-576 -609 -550 0
-246 -523 485 0
279 -968 -95 0
-204 -222 -669 0
306 -224 700 0
386 559 44 0
-439 -700 -927 0
-647 -817 541 0
-334 -500 -681 0
-348 -922 -942 0
-919 -225 -111 0
843 503 101 0
458 428 566 0
-873 -951 996 0
472 -595 -222 0
149 754 -627 0
-232 -867 447 0
888 64 771 0
45 -177 900 0
502 -281 -67 0
114 -894 416 0
-193 440 -833 0
-561 715 912 0
262 -717 -846 0
972 -876 -953 0
-183 -63 150 0
131 -556 -900 0
-566 -291 -651 0
423 -436 623 0
179 398 710 0
146 -279 -551 0
-545 -205 -626 0
-730 -106 871 0
-642 325 -418 0
-855 778 209 0
-173 772 411 0
-683 -880 623 0
677 754 -145 0
2 243 -772 0
-981 739 708 0
-948 -116 -465 0
-706 165 74 0
942 -834 900 0
-314 -814 -8 0
-840 -306 844 0
-247 644 456 0
-161 197 615 0
-815 927 938 0
-314 -253 -154 0
875 74 753 0
-30 -550 928 0
226 925 -710 0
218 424 -150 0
976 -897 -440 0
930 -805 991 0
775 -338 541 0
310 -848 289 0
138 857 -405 0
-650 675 327 0
811 490 -495 0
-306 -494 -547 0
-230 491 616 0
-523 793 -706 0
-491 -20 538 0
512 -752 273 0
-132 -491 202 0
938 -43 -312 0
-127 761 -274 0
-381 288 -543 0
-74 -202 657 0
-622 599 -448 0
731 585 433 0
-226 -88 965 0
373 -657 -199 0
-185 570 -992 0
-575 -950 -538 0
240 -701 537 0
300 435 965 0
-613 -633 380 0
-702 -674 -791 0
307 827 -870 0
181 -58 750 0
-701 217 -659 0
10 830 -238 0
92 -435 -251 0
-628 839 -355 0
-690 23 142 0
-918 -742 -842 0
298 -101 962 0
632 -119 -516 0
780 861 -68 0
-635 288 275 0
-203 819 -786 0
-492 -509 28 0
-599 -340 84 0
236 242 274 0
956 618 29 0
999 627 -200 0
679 309 588 0
-957 -290 584 0
121 848 842 0
112 503 599 0
656 -42 532 0
370 767 -547 0
-479 865 -424 0
774 -962 41 0
-795 1 938 0
-997 -917 -877 0
-889 899 -620 0
-333 -940 303 0
632 -310 237 0
892 -185 -410 0
-983 758 -418 0
-113 655 944 0
-836 -217 -744 0
710 641 880 0
-40 -424 -803 0
643 -115 697 0
-306 487 -445 0
-103 -919 276 0
-729 -953 348 0
-366 278 -614 0
822 790 986 0
669 -273 105 0
48 28 -228 0
-856 -416 31 0
-961 24 94 0
-203 19 469 0
-984 758 208 0
-898 -132 -927 0
50 754 704 0
-862 163 838 0
-314 -341 208 0
-799 778 408 0
145 -62 499 0
-329 493 -439 0
863 -853 -610 0
100 948 -923 0
-654 853 393 0
98 -781 -393 0
-242 114 -436 0
732 -977 -357 0
-465 -961 -82 0
671 -75 -651 0
925 -486 696 0
232 -664 788 0
231 -783 430 0
-702 183 -938 0
633 -469 172 0
459 819 325 0
993 441 24 0
-971 531 -230 0
-726 -329 95 0
-261 -270 64 0
-601 116 321 0
197 -458 -269 0
962 681 45 0
383 -809 833 0
-375 -55 520 0
-247 -288 -306 0
-20 454 70 0
-199 -312 -361 0
295 -655 983 0
-704 70 43 0
387 -211 -475 0
873 -638 119 0
119 -384 -139 0
224 32 431 0
-455 672 723 0
560 -205 472 0
-724 62 727 0
-90 -147 -393 0
483 440 553 0
-144 526 -603 0
-330 7 813 0
553 -767 -892 0
-45 -660 -157 0
-340 -782 -200 0
938 -490 -888 0
-785 222 885 0
856 -564 79 0
663 -419 -51 0
192 704 -8 0
779 -780 674 0
302 912 963 0
-385 -324 -994 0
413 718 -511 0
-623 -419 786 0
153 391 886 0
313 -817 -404 0
579 -280 596 0
744 135 -259 0
181 -21 -538 0
-397 145 -292 0
99 -484 -792 0
650 165 726 0
260 -628 -787 0
-280 751 577 0
573 -232 913 0
-784 859 -860 0
-230 818 424 0
295 -713 138 0
528 -221 -432 0
646 -417 -900 0
-899 246 -205 0
339 -646 -368 0
-582 433 547 0
-700 -74 565 0
378 476 539 0
-273 -733 -710 0
541 168 -449 0
-392 -454 -423 0
-139 -665 -743 0
-384 595 355 0
345 -761 705 0
714 697 489 0
798 25 122 0
924 499 -210 0
292 865 12 0
98 -810 558 0
-727 -457 289 0
649 -598 814 0
471 642 -599 0
520 7 -987 0
197 805 157 0
-46 -990 624 0
-950 365 -597 0
-808 845 -366 0
-880 -505 886 0
-123 -559 351 0
955 -693 886 0
835 -50 541 0
-425 128 -973 0
822 925 -268 0
633 822 143 0
239 -447 557 0
-527 928 -509 0
-227 -11 70 0
84 -840 216 0
-217 -923 21 0
-507 78 386 0
-811 104 541 0
30 217 -728 0
-263 814 312 0
-541 -40 972 0
999 -970 -429 0
-687 -372 21 0
-561 413 -316 0
658 159 -863 0
-526 963 544 0
-971 723 -811 0
436 259 433 0
-73 -68 304 0
132 728 247 0
472 -466 77 0
-747 492 -655 0
451 -534 -30 0
-72 846 557 0
-900 -237 735 0
-451 61 -241 0
289 796 -479 0
412 737 761 0
-328 -507 -129 0
-957 978 353 0
-98 -596 -160 0
373 260 674 0
-569 -2 -919 0
-156 -155 -719 0
-511 -758 42 0
-812 -272 -635 0
-442 903 -618 0
-625 94 921 0
-145 912 244 0
206 -581 -199 0
-17 -986 -702 0
169 346 304 0
-622 -55 -412 0
588 -255 444 0
-16 -22 -690 0
-857 -774 -969 0
223 -562 448 0
260 358 -9 0
338 -294 -356 0
-605 56 810 0
29 750 825 0
-612 80 816 0
-637 -473 346 0
870 325 780 0
658 -241 371 0
-115 496 846 0
-802 -283 311 0
-430 677 428 0
875 327 -512 0
-967 -168 -674 0
996 279 707 0
958 236 721 0
-668 570 20 0
-641 400 -814 0
-174 -299 -479 0
-50 179 -245 0
-368 -893 811 0
195 -483 -471 0
252 -133 -644 0
-516 299 -870 0
