c Large 3-SAT formula for GPU testing
c 1000 variables, 4300 clauses (ratio: 4.3)
p cnf 1000 4300
-802 -129 -737 0
443 -222 95 0
-869 248 -488 0
616 -861 -441 0
718 -199 306 0
621 -150 426 0
297 -8 -227 0
-935 88 -711 0
-939 153 872 0
-713 -930 -976 0
-141 -439 973 0
57 -52 -253 0
-346 -81 -172 0
-761 -636 246 0
-818 -576 475 0
38 -233 -896 0
158 -671 -251 0
-906 -664 -53 0
828 586 -731 0
-541 879 -228 0
-693 599 -289 0
-516 244 246 0
-199 255 -987 0
-678 -39 736 0
-121 660 -306 0
-9 -254 18 0
-101 347 71 0
727 94 571 0
466 937 -752 0
315 -815 -446 0
-731 948 -728 0
63 260 -503 0
-223 -584 522 0
-883 -901 813 0
-77 295 470 0
-482 633 -906 0
-758 394 517 0
570 -345 -753 0
505 372 -678 0
33 -372 329 0
510 -449 949 0
-99 -205 -149 0
812 -306 602 0
213 572 333 0
-268 -53 549 0
-448 990 458 0
-136 847 61 0
-504 576 -210 0
-407 -811 -932 0
55 -294 993 0
292 -875 -420 0
-12 -696 -835 0
-962 287 -744 0
991 473 973 0
-836 632 -814 0
-66 -44 759 0
18 537 125 0
-752 -528 604 0
51 316 604 0
-459 278 918 0
-576 -321 925 0
-363 251 -368 0
580 654 415 0
-202 686 -732 0
555 654 298 0
20 -194 193 0
-14 -162 612 0
818 -389 -83 0
-473 428 -817 0
492 414 -730 0
654 112 479 0
213 31 -177 0
-91 -33 -880 0
512 474 427 0
405 503 -700 0
382 3 965 0
913 824 649 0
634 -459 -776 0
330 -76 998 0
683 477 717 0
218 837 -610 0
574 -190 -580 0
881 280 -737 0
-518 -741 511 0
-366 837 -861 0
-185 14 -872 0
-147 261 191 0
-888 -895 191 0
723 608 337 0
459 -964 -890 0
-778 37 -24 0
-4 555 -76 0
-139 -750 48 0
47 -381 113 0
938 475 313 0
-153 481 58 0
-298 -335 -827 0
-317 206 -242 0
996 -843 -739 0
-650 -285 -825 0
988 114 754 0
302 -420 -622 0
600 777 -951 0
-879 -660 996 0
-284 -841 -144 0
620 -943 -733 0
772 -602 565 0
-241 441 -745 0
66 491 941 0
-539 -515 337 0
-528 -107 -92 0
700 94 890 0
-821 -275 381 0
141 852 -444 0
542 -357 807 0
847 -401 -922 0
364 -670 -967 0
730 -941 -39 0
-387 -388 -444 0
-549 -126 363 0
289 -951 640 0
371 623 -302 0
100 -29 -51 0
540 538 -266 0
472 -40 -525 0
334 544 865 0
-100 422 248 0
853 -664 424 0
-7 607 509 0
-524 -930 -913 0
-566 392 821 0
792 606 249 0
-689 -196 -992 0
352 -553 18 0
940 -155 -762 0
-425 -71 -30 0
946 330 969 0
-589 -239 -90 0
983 524 396 0
-430 16 -733 0
-179 414 -208 0
-387 -164 -559 0
-916 719 -563 0
797 -515 -517 0
-513 -443 213 0
747 -664 -267 0
-322 268 -178 0
-730 258 -878 0
-2 36 452 0
917 -420 369 0
-867 246 -553 0
-724 -246 256 0
781 652 566 0
822 842 123 0
-911 379 781 0
-925 539 -76 0
-574 176 -242 0
-905 -766 -823 0
622 159 -335 0
-100 -452 -785 0
-754 -454 -645 0
871 -361 879 0
-721 -164 -240 0
-685 727 -136 0
-420 -639 -653 0
-774 300 -727 0
-322 98 -510 0
644 160 -921 0
682 573 81 0
-599 317 286 0
-408 -407 435 0
-146 184 415 0
689 -68 -915 0
169 -939 -467 0
306 -734 659 0
2 987 910 0
425 -365 -39 0
589 -464 119 0
-810 338 -480 0
-716 -107 501 0
-913 -483 660 0
-85 -273 -793 0
-998 -270 -554 0
-905 438 773 0
628 659 577 0
-446 347 -35 0
-728 293 909 0
749 -721 -971 0
196 768 655 0
377 -328 677 0
-517 -4 -240 0
173 -220 25 0
-162 -154 -178 0
451 510 -539 0
44 789 -711 0
-735 949 -785 0
-449 -304 880 0
488 -253 -261 0
-897 544 774 0
717 -81 -623 0
984 -172 -504 0
-381 -476 273 0
-457 -718 404 0
-250 431 832 0
403 642 661 0
-106 422 -329 0
-597 956 989 0
834 -346 512 0
-921 835 -887 0
675 -913 71 0
529 -956 572 0
-978 313 654 0
-953 -601 879 0
451 462 -591 0
771 495 -101 0
221 -782 422 0
-942 -623 689 0
-228 -964 639 0
686 -573 -485 0
-434 420 -998 0
580 -276 -834 0
-839 -129 -332 0
-948 -227 773 0
355 67 -942 0
-915 -254 605 0
-671 605 -711 0
325 827 744 0
75 62 108 0
224 568 180 0
388 897 2 0
653 372 -192 0
742 -956 214 0
-422 -220 -57 0
-749 -800 -420 0
-69 253 -571 0
655 879 560 0
751 399 197 0
442 -517 1 0
606 -470 487 0
-12 -479 -97 0
-252 465 -842 0
216 531 105 0
-12 194 -612 0
-340 -406 712 0
852 994 21 0
871 -813 988 0
-398 51 630 0
-442 730 -407 0
793 -919 749 0
-882 235 242 0
-237 481 -95 0
-68 316 -122 0
-121 -639 483 0
647 495 571 0
-477 -528 -111 0
-117 705 -933 0
-943 698 243 0
-316 160 -872 0
683 -245 215 0
957 -893 -532 0
-293 -143 144 0
148 488 -327 0
512 581 819 0
77 -399 -986 0
880 -984 -973 0
-958 223 -584 0
193 844 -913 0
-104 290 -905 0
208 12 -847 0
-129 799 181 0
-193 541 405 0
-215 301 -899 0
897 534 818 0
919 -777 769 0
136 1 -948 0
599 -862 251 0
-154 -476 -681 0
424 -454 -81 0
-36 -429 325 0
-674 -373 416 0
-479 -203 -127 0
347 -68 -940 0
25 913 296 0
569 453 180 0
-585 -928 -872 0
676 -835 -356 0
557 -998 -181 0
-742 36 -715 0
204 649 -79 0
711 437 357 0
801 -157 74 0
398 397 898 0
-867 60 -943 0
-286 49 955 0
238 595 824 0
270 63 1 0
132 425 395 0
-646 596 794 0
-320 88 -294 0
225 133 -945 0
-769 -406 236 0
-423 -125 197 0
-607 -707 -430 0
-630 -842 99 0
985 516 -616 0
-33 -554 -288 0
-950 622 -589 0
534 -174 -865 0
-241 -635 -897 0
-504 -750 442 0
-542 588 672 0
-877 -522 -135 0
-424 737 40 0
-158 264 -19 0
586 -695 -508 0
696 980 -178 0
737 -97 213 0
-96 -512 -65 0
-791 141 978 0
-915 90 -751 0
-902 143 -224 0
-189 991 -921 0
-379 479 -162 0
-141 -8 889 0
-501 -752 467 0
777 234 309 0
-685 838 -552 0
-509 617 -847 0
-595 -25 -430 0
-66 998 -107 0
-181 -74 829 0
-674 60 725 0
667 -539 213 0
-387 563 553 0
632 -623 -43 0
438 449 -335 0
134 -973 413 0
-565 -429 791 0
-922 566 -33 0
138 508 -298 0
431 -794 -726 0
-785 -552 990 0
182 -461 444 0
342 -519 -674 0
420 39 683 0
-101 -934 -886 0
-698 -532 451 0
-267 792 -909 0
-633 613 -602 0
48 -654 869 0
802 422 -153 0
-840 -537 417 0
-274 825 -670 0
495 566 -846 0
746 -884 101 0
-508 -167 679 0
-818 -291 725 0
-665 -47 -995 0
584 -395 87 0
360 -55 602 0
-683 691 -406 0
-348 724 677 0
984 -389 -715 0
250 -998 280 0
-91 -414 -437 0
-241 894 338 0
-255 738 -156 0
684 491 623 0
431 -39 -966 0
931 -993 466 0
-814 751 823 0
-826 158 -954 0
106 -269 -553 0
-849 621 464 0
-821 550 -292 0
703 -419 57 0
-456 -246 -533 0
-770 375 -624 0
-83 -863 -315 0
-495 -197 115 0
460 120 -716 0
197 859 874 0
-437 -867 -567 0
724 -542 781 0
-727 -911 351 0
455 514 260 0
-237 -152 -8 0
-904 -423 108 0
253 -575 -84 0
-459 -991 630 0
-87 155 -183 0
602 -398 -236 0
-212 470 366 0
377 625 953 0
538 -968 -126 0
836 623 91 0
704 -301 -403 0
238 -391 -331 0
-985 873 250 0
797 567 699 0
-522 363 -729 0
667 871 361 0
-937 -824 -718 0
-545 -290 -508 0
876 325 -906 0
659 -362 7 0
630 -500 927 0
-775 -51 213 0
505 140 180 0
-535 -725 547 0
-241 -988 -681 0
-551 589 344 0
-592 -72 -283 0
-107 -850 73 0
99 795 -324 0
38 -722 -302 0
413 -805 -710 0
-400 -398 347 0
-761 531 -500 0
342 360 194 0
376 -673 -267 0
-569 651 967 0
990 646 608 0
293 -927 -683 0
309 202 180 0
-922 436 -110 0
586 445 -211 0
-772 -602 979 0
-476 560 619 0
-843 -532 403 0
-109 -972 869 0
905 760 62 0
-301 -335 -265 0
645 -867 614 0
892 138 -896 0
215 -243 -311 0
-22 -811 926 0
-923 -26 -425 0
-576 -785 479 0
-879 -578 715 0
576 -248 40 0
709 -604 556 0
-246 -751 -786 0
-457 545 197 0
-198 -538 -187 0
-383 -357 -945 0
819 -822 -42 0
-388 842 155 0
226 534 565 0
-369 -906 -223 0
528 -53 -586 0
-179 748 208 0
-866 783 311 0
75 -778 719 0
833 -560 -348 0
297 509 289 0
5 71 -417 0
109 94 367 0
357 862 177 0
-292 -711 -233 0
995 761 612 0
22 701 468 0
-337 697 840 0
-139 -726 979 0
94 -290 -798 0
-378 414 124 0
-489 -648 -846 0
-373 554 319 0
-814 -464 -586 0
-214 -309 -84 0
-547 185 -582 0
969 130 -638 0
-814 -429 -712 0
513 620 -496 0
996 -219 -716 0
-787 -261 318 0
-354 381 254 0
254 -281 -974 0
-884 93 -602 0
-679 -307 985 0
144 -145 494 0
954 -666 767 0
-852 398 -223 0
-887 186 -388 0
468 -678 318 0
103 192 672 0
177 606 -96 0
-604 793 -773 0
-580 -918 761 0
-192 801 941 0
721 -306 220 0
634 -349 990 0
-582 -212 699 0
-363 -49 651 0
56 405 128 0
-638 -852 999 0
-401 -937 -894 0
-857 279 -509 0
-728 30 -98 0
-996 626 616 0
615 102 -870 0
294 -409 -532 0
-970 648 484 0
-683 690 -280 0
-681 -979 326 0
-219 -507 -340 0
739 405 -451 0
408 -428 -263 0
866 -275 -227 0
730 -453 171 0
-408 461 666 0
966 558 -579 0
-870 224 -390 0
295 553 -294 0
292 960 435 0
-732 553 -342 0
-479 -775 -113 0
916 572 668 0
131 499 932 0
370 -431 -52 0
99 -615 116 0
-187 -716 -496 0
300 -840 210 0
484 878 -968 0
527 900 246 0
710 667 511 0
49 878 -333 0
-212 -849 -30 0
-541 971 -502 0
188 181 -734 0
79 -622 882 0
111 16 -865 0
-716 -761 342 0
809 216 -358 0
-356 206 872 0
594 803 -826 0
278 -593 -153 0
601 375 912 0
180 -689 125 0
702 -884 -987 0
188 52 663 0
-515 -776 -591 0
-737 656 178 0
-8 -257 405 0
150 -758 -841 0
667 -401 517 0
-33 879 -988 0
901 -834 -132 0
662 -310 813 0
-377 180 -513 0
-134 946 834 0
450 685 708 0
-462 98 -683 0
-379 21 684 0
-657 87 -720 0
312 5 -577 0
-655 135 495 0
520 164 798 0
615 536 -94 0
777 -594 347 0
227 -600 -134 0
953 -870 729 0
840 812 -98 0
337 -272 729 0
547 -789 -970 0
-162 498 -790 0
-245 579 -979 0
-900 -354 209 0
-566 -175 -599 0
238 31 -712 0
7 898 -25 0
-707 -555 927 0
-959 973 936 0
-49 277 -752 0
-418 793 519 0
-229 372 321 0
-166 40 -958 0
-794 -834 895 0
27 -652 292 0
202 -447 -133 0
-891 -20 -278 0
326 -588 561 0
262 -659 -678 0
15 -167 850 0
869 659 -116 0
-417 31 398 0
-780 101 651 0
866 764 290 0
-192 -620 408 0
93 576 -380 0
-676 569 -662 0
-443 -342 970 0
689 -594 345 0
990 -192 -955 0
30 320 901 0
-183 761 -818 0
-61 685 24 0
-719 -663 90 0
148 -254 -761 0
108 901 579 0
715 -182 427 0
-694 -177 -587 0
-985 820 932 0
302 200 -254 0
-764 -532 -630 0
17 896 -326 0
-198 -8 -374 0
760 -811 -438 0
106 822 -442 0
-444 -57 639 0
980 848 338 0
452 -527 796 0
412 804 677 0
-913 29 983 0
-685 -658 -631 0
593 453 -802 0
-590 -65 181 0
-665 -501 399 0
-727 193 593 0
-275 954 -345 0
356 -882 -499 0
316 146 421 0
170 306 853 0
126 746 -528 0
412 17 425 0
-58 -138 -83 0
133 270 134 0
-180 -782 -592 0
-814 974 -152 0
-729 -426 -45 0
-676 882 -210 0
815 -740 -771 0
-565 501 -99 0
-230 -786 957 0
-270 -249 879 0
952 149 822 0
251 619 -98 0
-934 -535 -988 0
-75 766 -260 0
-104 -921 -300 0
-751 -337 -39 0
-243 212 742 0
449 -508 504 0
-297 -647 -115 0
818 252 692 0
-652 926 989 0
-733 415 45 0
-942 -538 665 0
121 517 802 0
-749 -887 -778 0
-720 614 539 0
-847 -172 -4 0
4 880 327 0
760 -992 -159 0
-256 -666 324 0
-494 -135 560 0
173 -675 178 0
-767 -499 116 0
744 558 -708 0
-563 -72 217 0
453 309 394 0
-275 202 511 0
-236 957 986 0
998 818 -484 0
-338 86 -775 0
-573 274 36 0
-351 79 -890 0
-403 -465 -47 0
544 -210 455 0
613 -594 -536 0
-297 -617 674 0
661 -4 -754 0
-944 506 -323 0
-737 -446 -789 0
-135 244 478 0
-161 283 -183 0
-476 930 805 0
242 -960 -268 0
481 -285 -632 0
941 967 -718 0
-285 -31 -144 0
305 515 -121 0
-654 23 31 0
944 507 869 0
846 -724 -95 0
-906 -995 -749 0
-199 805 -900 0
615 -932 -327 0
-304 -952 475 0
-446 108 709 0
113 -788 904 0
752 -22 -995 0
336 979 19 0
571 451 851 0
-190 436 902 0
-975 -834 639 0
-617 898 665 0
-3 -459 555 0
220 -907 625 0
154 671 -24 0
-917 -316 -687 0
-176 -920 465 0
-96 416 866 0
342 78 889 0
153 -922 470 0
114 -270 783 0
-10 -787 342 0
608 797 -396 0
412 303 864 0
-433 -323 -718 0
-995 969 723 0
-615 -881 -776 0
847 -962 805 0
-433 319 -484 0
651 -445 -141 0
399 280 -811 0
-459 -348 514 0
-847 -515 -652 0
-118 711 -2 0
395 -738 -623 0
-718 -460 -653 0
-966 267 -962 0
703 712 540 0
843 -514 187 0
848 -557 -482 0
-175 -491 -470 0
887 546 11 0
-96 225 535 0
-757 -315 -583 0
-254 376 -804 0
658 340 -518 0
-247 601 203 0
-939 802 600 0
38 294 -301 0
-157 -474 -151 0
318 763 84 0
640 -543 -237 0
-980 -970 28 0
-933 403 -509 0
-673 814 352 0
381 421 412 0
920 334 -161 0
681 -491 969 0
-717 820 -765 0
567 214 2 0
113 -772 853 0
582 -655 -716 0
860 -500 -690 0
422 21 99 0
-285 -350 80 0
-48 301 -468 0
-502 636 861 0
-411 -616 137 0
487 758 -103 0
-999 598 -733 0
417 169 -148 0
-394 424 -585 0
941 549 7 0
520 711 -655 0
-18 593 -279 0
-10 -78 26 0
792 -408 813 0
-206 5 613 0
85 -734 706 0
16 -819 -457 0
163 671 360 0
84 -227 -189 0
279 160 -273 0
-895 106 989 0
237 -882 -144 0
84 -280 856 0
600 886 751 0
-38 -30 -465 0
-397 -426 439 0
-490 310 -612 0
290 639 440 0
-821 -348 -546 0
-994 -715 620 0
49 -401 -155 0
334 -465 -543 0
113 551 -155 0
-523 -685 -639 0
299 241 -488 0
-717 -66 335 0
-653 961 -897 0
-594 -518 333 0
98 858 -476 0
254 283 -416 0
-694 -137 459 0
561 333 -292 0
635 -777 -68 0
-291 484 780 0
590 -327 390 0
767 267 -479 0
980 -244 430 0
122 589 60 0
-894 -111 165 0
506 951 -442 0
81 -261 288 0
995 264 -445 0
553 991 990 0
844 -228 62 0
-942 506 166 0
-710 468 306 0
640 208 -246 0
559 672 741 0
693 340 -859 0
179 2 -246 0
414 -373 -5 0
756 -903 579 0
197 -757 -239 0
-856 455 880 0
-673 71 964 0
-625 -827 207 0
748 -523 -926 0
-101 -154 -453 0
688 305 302 0
955 -822 -50 0
983 984 817 0
531 659 920 0
-622 -58 717 0
-960 -336 -147 0
269 -233 844 0
404 -229 678 0
-679 897 -745 0
781 -188 103 0
628 -723 690 0
-356 486 -442 0
-12 520 555 0
330 106 -747 0
381 -379 -246 0
-546 -9 533 0
861 -817 702 0
27 -911 162 0
643 -815 -277 0
377 -574 305 0
-152 107 -539 0
-950 832 177 0
903 -414 16 0
609 359 42 0
233 -11 323 0
769 -337 -83 0
87 -575 321 0
-554 54 276 0
941 29 -319 0
-65 575 214 0
-360 -399 309 0
774 449 -356 0
589 460 770 0
-853 663 797 0
467 324 -951 0
785 -724 -573 0
-479 618 -777 0
449 -433 -663 0
-517 -500 -556 0
727 -776 -786 0
-28 -140 643 0
-699 459 -778 0
-676 -8 -118 0
-292 -381 -145 0
-794 -683 100 0
796 -43 -712 0
715 600 773 0
-112 -96 -413 0
536 224 -896 0
-477 666 -960 0
235 -683 575 0
-908 576 -389 0
-438 -88 -203 0
-617 177 -404 0
499 -227 -304 0
-841 -292 891 0
925 582 -719 0
868 51 923 0
692 315 -841 0
-644 -309 163 0
-679 -151 832 0
-977 -933 -331 0
-610 921 -285 0
395 781 -366 0
305 -676 507 0
-660 -441 -324 0
-502 806 992 0
-954 674 999 0
568 636 -181 0
797 -749 342 0
307 267 294 0
741 -981 -798 0
-963 157 -770 0
-917 645 168 0
-413 157 -751 0
-156 -640 -946 0
-827 -814 -409 0
338 25 571 0
61 558 724 0
-146 -763 -703 0
63 907 540 0
-54 45 -820 0
-10 -959 467 0
-752 -325 506 0
16 -861 -696 0
-396 403 85 0
249 -64 415 0
-30 925 306 0
-263 -552 86 0
-389 -351 146 0
-220 -675 -310 0
-859 -164 293 0
230 739 605 0
199 -178 -729 0
-321 -918 212 0
-37 -623 -129 0
-683 432 -116 0
-373 -873 117 0
-263 816 -935 0
-27 -969 564 0
-397 -578 315 0
-970 995 -543 0
-309 517 343 0
-60 700 -793 0
701 144 429 0
323 -427 941 0
241 -985 339 0
-797 -583 -472 0
675 -493 871 0
-564 -958 -182 0
-597 -386 -959 0
167 -823 -633 0
972 -999 -908 0
-154 -502 -406 0
-104 -692 305 0
-39 -275 939 0
-517 -500 -548 0
602 592 858 0
389 813 -912 0
-325 -810 494 0
-664 -67 536 0
814 323 -985 0
553 -108 498 0
-916 -995 904 0
-49 348 313 0
-443 -189 -653 0
-493 979 587 0
446 621 -671 0
-804 240 -312 0
-690 -678 -104 0
-467 -997 -471 0
383 -415 797 0
-964 956 715 0
-396 925 715 0
336 361 -580 0
134 -325 -281 0
923 -210 171 0
-200 -567 -425 0
-844 -354 151 0
774 756 635 0
463 156 -227 0
734 904 847 0
280 334 -587 0
327 -205 640 0
-928 905 702 0
-239 563 -687 0
666 285 -560 0
774 -57 91 0
-690 698 133 0
-444 -297 270 0
-874 29 -135 0
-897 149 810 0
964 -806 -129 0
196 -106 502 0
190 -428 -466 0
-801 441 -31 0
804 329 20 0
411 283 -450 0
407 34 981 0
-991 -268 -459 0
-607 330 195 0
39 -756 -498 0
493 -55 660 0
447 -899 -364 0
850 -255 387 0
621 -450 -401 0
972 432 845 0
-440 -942 -848 0
-370 -745 218 0
714 407 -667 0
440 -748 384 0
-540 -213 -397 0
-790 -999 -437 0
-547 -555 -280 0
342 -637 -531 0
58 398 -730 0
-213 -516 -666 0
310 574 -904 0
-369 857 -949 0
-713 385 -508 0
204 -986 -122 0
545 492 586 0
-463 409 969 0
743 -228 827 0
-992 98 157 0
350 -382 -708 0
-585 669 -54 0
-140 782 -801 0
-263 -812 -91 0
-935 -392 529 0
-137 451 -467 0
-16 548 569 0
488 -793 234 0
136 538 176 0
-266 -784 -580 0
-945 40 207 0
-296 118 -497 0
204 -205 651 0
-906 -785 15 0
-105 956 -643 0
-378 -237 -898 0
-791 -881 -569 0
94 -37 -632 0
947 949 861 0
228 -443 137 0
608 3 -824 0
-214 -652 350 0
333 -621 472 0
-414 -481 112 0
89 677 32 0
-156 -445 125 0
171 -696 566 0
136 409 805 0
-103 -454 714 0
-32 320 -859 0
553 194 -997 0
-322 -69 -995 0
-760 -756 539 0
-705 -148 888 0
673 -477 -24 0
486 229 -516 0
-496 502 92 0
-168 -840 -658 0
-342 -185 681 0
552 -98 -918 0
882 -492 217 0
115 260 -332 0
632 -912 9 0
-552 -309 375 0
99 -775 -819 0
-263 -144 149 0
1000 753 612 0
127 -714 747 0
-454 208 -228 0
424 858 -712 0
-82 -609 809 0
-400 530 -879 0
745 -734 -683 0
-839 473 -807 0
708 497 -380 0
-616 -296 -729 0
-589 405 96 0
836 428 -400 0
-927 854 -155 0
-71 432 -335 0
78 923 -158 0
-440 -400 661 0
-974 636 -717 0
-84 247 -948 0
974 -162 -385 0
862 -693 -816 0
-209 -345 -237 0
286 -123 984 0
796 914 -988 0
773 -608 -384 0
-320 652 -388 0
-660 386 -71 0
-312 458 217 0
586 684 -873 0
243 886 463 0
158 -180 -809 0
-409 -41 28 0
-25 -745 -851 0
-899 -702 -597 0
229 -791 974 0
-664 848 319 0
-663 646 322 0
276 339 -649 0
-918 493 659 0
-425 -569 -587 0
981 -173 -253 0
-562 -483 235 0
-918 287 392 0
156 -624 453 0
926 -518 785 0
-585 -887 328 0
-258 -732 203 0
187 913 -347 0
-186 14 -889 0
158 23 996 0
560 -978 -252 0
-934 285 -863 0
-397 473 285 0
486 757 756 0
774 245 -866 0
850 -405 -589 0
985 -390 887 0
-241 838 -637 0
-334 678 -744 0
61 -156 995 0
-201 256 453 0
943 280 259 0
685 228 -818 0
-896 -347 -214 0
497 865 618 0
-110 686 445 0
613 -214 246 0
-719 257 -511 0
-677 -503 427 0
-56 -199 74 0
505 785 491 0
-865 155 -514 0
-776 173 233 0
878 -17 189 0
481 503 672 0
-615 -447 -150 0
990 -114 -935 0
-927 -208 -137 0
547 423 789 0
575 -44 409 0
-913 890 617 0
238 -422 -266 0
422 -106 -865 0
-429 -775 406 0
-896 74 -394 0
-753 -286 12 0
-796 -164 -728 0
161 777 -757 0
-681 870 -449 0
-396 -323 149 0
459 698 476 0
274 -609 641 0
-67 999 -353 0
125 -919 909 0
-102 97 973 0
-643 693 -911 0
-635 -653 -526 0
541 493 -744 0
907 -280 44 0
-969 -386 282 0
672 -774 -212 0
-897 -576 999 0
440 255 24 0
464 -997 -387 0
-524 719 58 0
490 -214 -24 0
592 591 -689 0
825 91 214 0
71 -199 389 0
146 535 -995 0
-776 -592 77 0
-964 -238 388 0
232 -181 221 0
370 -719 -896 0
-263 -867 207 0
75 936 -819 0
-210 -364 552 0
412 197 801 0
-566 -618 323 0
-87 -59 235 0
-143 -897 551 0
909 392 -768 0
-273 28 133 0
550 -155 512 0
489 -995 276 0
-244 -289 -387 0
-200 390 19 0
826 6 93 0
-719 -787 -389 0
56 765 693 0
982 839 -561 0
-117 -633 -287 0
-255 607 968 0
228 225 -709 0
-665 -883 -975 0
-433 209 435 0
174 -512 -41 0
260 -753 -868 0
676 -363 -45 0
-551 -188 -703 0
-420 757 37 0
661 71 -790 0
-52 27 -430 0
176 307 128 0
-734 -722 531 0
-326 -339 964 0
344 934 -25 0
908 745 -759 0
-52 419 650 0
286 -802 502 0
639 760 989 0
-146 746 81 0
-270 -522 968 0
824 -366 317 0
378 -10 -250 0
194 -571 296 0
-737 652 739 0
992 -833 534 0
233 296 -279 0
-383 202 -952 0
316 -597 251 0
-643 774 -294 0
788 850 894 0
-926 345 -227 0
-280 481 465 0
393 674 -546 0
787 455 -549 0
-614 -24 -680 0
720 -416 777 0
-398 -153 -623 0
452 -237 -855 0
33 633 -891 0
241 998 -883 0
-226 393 -40 0
-25 -828 -494 0
-467 92 651 0
-471 -504 -859 0
-796 -537 -74 0
-373 -237 -456 0
-482 107 -646 0
829 -75 -977 0
-287 448 -884 0
810 638 740 0
-543 -335 -578 0
-955 -7 946 0
874 -752 22 0
630 -804 985 0
-840 338 -735 0
-87 540 30 0
-853 497 -722 0
692 961 190 0
-880 972 780 0
109 -981 -103 0
-209 -777 -814 0
532 -938 -917 0
586 -610 737 0
969 -194 -371 0
-523 -954 926 0
873 -531 986 0
850 -673 16 0
929 -127 148 0
861 325 -448 0
840 -82 -207 0
-623 -81 -738 0
700 213 751 0
-740 950 -671 0
208 -377 -842 0
-722 -919 -335 0
-683 -448 -373 0
-805 -719 928 0
-419 687 -445 0
795 -206 231 0
14 -338 61 0
-307 152 305 0
-837 -485 -726 0
-333 -226 60 0
548 875 724 0
670 -149 -566 0
-724 584 -660 0
560 -101 -167 0
-387 -88 551 0
920 402 58 0
-166 977 -29 0
-122 -528 -496 0
-916 399 -848 0
959 527 593 0
835 -395 -717 0
-815 -995 -447 0
-788 818 523 0
-202 383 424 0
285 916 -210 0
-845 970 331 0
608 -789 713 0
192 298 434 0
-793 875 -377 0
-873 -934 -740 0
-335 624 -55 0
-208 790 803 0
-905 716 -768 0
-616 476 491 0
-658 -132 385 0
280 588 -397 0
53 -798 -381 0
894 480 -766 0
112 952 -885 0
-640 -666 -8 0
172 350 818 0
-545 -997 -770 0
-504 -872 645 0
-267 458 187 0
828 255 164 0
-325 -430 -478 0
772 -708 823 0
-934 -733 794 0
430 -292 -805 0
253 605 132 0
482 -307 895 0
-822 -596 -181 0
-352 -434 -780 0
650 -220 -633 0
58 -856 -656 0
143 816 424 0
-716 350 212 0
-788 465 474 0
-8 -508 948 0
-897 505 -69 0
-720 685 -60 0
-696 -272 -79 0
-877 931 -402 0
623 4 -980 0
650 -118 -353 0
167 -924 522 0
-964 -464 814 0
716 572 -317 0
-128 -289 -970 0
592 -665 -904 0
994 -544 -848 0
197 935 -433 0
-731 -284 -883 0
962 -468 809 0
-908 -960 -746 0
-7 883 -196 0
-281 514 565 0
747 641 933 0
-902 338 -323 0
-600 584 946 0
-226 401 536 0
-21 749 7 0
-310 -858 -180 0
464 -737 203 0
-223 -263 -641 0
891 -81 -254 0
329 548 -742 0
-712 -581 -855 0
-86 850 423 0
-178 483 682 0
860 895 -945 0
-224 111 -347 0
-60 -310 -48 0
27 -938 803 0
-113 510 -439 0
-862 22 446 0
461 450 -321 0
-847 -619 -839 0
-865 133 -897 0
-362 12 -558 0
-564 -976 159 0
231 481 782 0
-345 489 -488 0
-806 -557 -690 0
-595 -411 643 0
584 381 424 0
-245 964 742 0
-878 824 153 0
-201 400 421 0
423 -148 216 0
-723 -355 594 0
452 -549 220 0
175 -86 988 0
981 -250 -840 0
543 383 281 0
478 -289 849 0
333 359 902 0
-799 -636 313 0
-113 168 595 0
-7 -877 70 0
-951 -638 828 0
409 959 -844 0
-318 -1 -768 0
-833 51 -754 0
-68 -437 862 0
353 849 401 0
-375 217 179 0
432 -414 90 0
267 6 -433 0
-20 -86 935 0
-350 709 -882 0
218 652 367 0
843 485 -8 0
-523 493 -293 0
-66 -499 462 0
822 -147 53 0
-585 643 107 0
-29 -179 14 0
629 153 -141 0
-922 -812 344 0
-351 -634 -429 0
-69 74 -523 0
161 882 937 0
-579 659 640 0
301 -225 -798 0
-758 -565 -488 0
790 -802 -447 0
965 -273 -780 0
-584 999 -395 0
-910 422 -68 0
760 -527 953 0
-357 -96 870 0
-29 -417 706 0
-157 531 -874 0
-780 -487 -37 0
940 -716 55 0
-661 456 843 0
971 57 50 0
138 -374 -135 0
726 305 896 0
-325 451 754 0
-312 785 325 0
-510 339 121 0
-507 -795 511 0
-840 -936 890 0
-15 923 293 0
-153 798 -952 0
-62 730 119 0
68 13 406 0
953 -362 -291 0
-910 959 420 0
-122 -586 -438 0
884 470 -157 0
-16 -123 580 0
975 -632 751 0
402 -629 -827 0
515 -158 730 0
-72 -553 -123 0
-981 179 -160 0
-118 633 508 0
-655 -57 61 0
-302 954 -384 0
949 -108 -755 0
-720 -56 -364 0
677 -916 945 0
-448 109 802 0
-732 256 389 0
-466 537 694 0
-412 256 -910 0
-605 -297 -395 0
-79 -686 788 0
45 970 -631 0
-947 648 892 0
-295 -931 -202 0
-813 244 778 0
399 219 600 0
-419 -618 -153 0
747 -454 -992 0
984 3 666 0
96 -466 -384 0
-876 -790 -336 0
359 373 522 0
-291 366 483 0
876 -813 -535 0
-880 -492 -223 0
-434 155 572 0
281 334 427 0
274 934 294 0
500 -492 340 0
891 447 -975 0
-335 -666 24 0
-835 -981 -38 0
426 974 827 0
167 127 -713 0
-442 -638 770 0
931 -554 973 0
-92 -158 548 0
-95 705 699 0
-66 998 864 0
911 -483 -868 0
-171 -361 803 0
713 281 260 0
-250 -424 -14 0
261 20 -119 0
-301 491 834 0
530 123 49 0
25 215 332 0
857 122 949 0
536 857 363 0
-936 599 -439 0
-497 -131 81 0
-987 -466 867 0
-885 652 -666 0
-441 327 -621 0
902 110 -20 0
-733 -276 -904 0
-351 -863 -459 0
-408 536 -639 0
-238 416 -579 0
-910 408 289 0
-698 -788 -43 0
965 382 61 0
830 466 -802 0
-206 499 -925 0
-359 -543 -360 0
-977 752 394 0
-792 954 -92 0
766 83 604 0
-296 -616 311 0
-144 201 886 0
791 161 -171 0
-676 981 75 0
382 -601 557 0
531 909 -541 0
347 -548 -489 0
-169 -887 715 0
915 -100 447 0
377 817 -600 0
-964 304 163 0
250 543 -24 0
-360 -72 383 0
652 -718 357 0
-769 605 708 0
320 667 888 0
-731 -425 292 0
-521 -846 98 0
987 49 -285 0
-700 -763 453 0
754 -703 75 0
30 304 -707 0
669 558 -898 0
-596 747 -803 0
-49 823 -749 0
445 76 527 0
13 943 99 0
-181 149 -708 0
451 409 -38 0
797 728 118 0
-954 74 -371 0
698 207 -324 0
-420 -653 635 0
-671 -97 -283 0
892 786 900 0
-800 -207 260 0
-835 -931 22 0
836 966 -119 0
-842 12 50 0
407 494 -241 0
30 751 -192 0
-478 -705 -560 0
-351 546 630 0
67 273 -587 0
-433 761 112 0
-696 -793 126 0
-926 655 988 0
532 -830 747 0
489 174 -103 0
931 -785 -812 0
931 108 -446 0
-850 -591 220 0
772 115 -770 0
208 -917 -835 0
-942 -261 809 0
632 -953 -236 0
673 -734 84 0
-176 -563 -82 0
-838 -409 309 0
454 -539 -591 0
-921 823 938 0
-221 -266 210 0
-234 -944 -442 0
68 -596 -578 0
-806 865 -234 0
166 -839 540 0
137 805 410 0
449 -639 963 0
-367 165 -39 0
783 -206 546 0
-977 947 -284 0
-597 459 530 0
-707 527 914 0
-256 296 246 0
294 -700 -203 0
714 -11 -963 0
-558 731 -839 0
369 861 309 0
-681 265 -640 0
-184 -225 -786 0
-808 -807 -835 0
927 -665 19 0
-828 110 244 0
-862 -982 268 0
342 872 8 0
-678 611 -325 0
-450 -685 -601 0
-80 -896 179 0
357 618 -411 0
567 -967 820 0
831 798 -960 0
430 -643 -509 0
-969 -511 398 0
429 -592 837 0
793 -847 -911 0
-543 -63 -683 0
370 304 204 0
932 133 737 0
-857 987 -988 0
931 910 -13 0
-87 889 318 0
547 601 -784 0
-542 -570 -290 0
-784 674 -639 0
635 310 45 0
-350 46 -493 0
106 2 832 0
393 572 -975 0
25 -943 -773 0
-91 -523 -546 0
55 602 143 0
-523 -675 492 0
-37 -173 -731 0
867 -130 -282 0
127 -786 -52 0
-59 135 894 0
591 512 899 0
523 -480 -275 0
142 200 -253 0
-195 359 561 0
156 -834 -867 0
478 -826 -752 0
-937 756 212 0
-849 427 784 0
-987 -194 -595 0
996 167 -577 0
-260 -143 740 0
693 584 -625 0
-136 263 430 0
-786 -261 537 0
-339 959 -917 0
-642 -992 -496 0
997 -887 -666 0
-544 656 183 0
-944 804 287 0
-706 14 -357 0
900 187 924 0
-223 -396 -665 0
-726 -637 -371 0
973 -668 977 0
709 -726 -943 0
856 -731 -347 0
-194 438 904 0
849 -848 1000 0
-393 441 -142 0
-205 246 694 0
41 324 -354 0
617 178 -710 0
956 -939 -524 0
-109 568 -92 0
-262 -108 510 0
590 302 -41 0
583 -154 71 0
-676 -104 818 0
107 489 55 0
667 -260 -132 0
-502 -508 -581 0
-780 -519 -577 0
-361 302 833 0
562 939 -261 0
-634 981 -322 0
612 -830 -640 0
-57 22 -443 0
-67 874 771 0
871 985 -275 0
898 -336 100 0
-514 32 260 0
891 116 443 0
412 527 -324 0
653 -259 -33 0
-81 -725 905 0
-763 370 68 0
90 167 889 0
-383 -715 430 0
254 395 -309 0
195 -167 -273 0
775 -948 -377 0
466 456 213 0
-536 -97 767 0
-45 71 -299 0
-404 688 -102 0
-679 449 -805 0
-299 683 472 0
732 610 -627 0
-543 89 -536 0
-335 -804 -824 0
216 383 -630 0
765 -822 111 0
650 -352 259 0
394 711 811 0
664 954 -509 0
43 680 -348 0
260 739 -943 0
-316 -637 30 0
-36 4 -518 0
47 -334 -249 0
-4 -306 354 0
-337 877 -379 0
790 804 942 0
767 391 178 0
-515 581 -647 0
-509 -916 -217 0
-269 224 521 0
583 109 684 0
-343 916 165 0
137 100 -28 0
261 255 -670 0
940 705 534 0
59 -879 -663 0
-752 896 -480 0
56 -952 247 0
-433 -742 -822 0
849 92 -367 0
-686 828 -227 0
120 889 -357 0
-128 551 845 0
874 878 -855 0
792 17 262 0
214 -549 174 0
-164 899 -301 0
563 220 -950 0
-613 -300 -52 0
117 496 -861 0
-847 -325 -280 0
99 -680 -748 0
316 -237 831 0
-578 394 -165 0
298 9 106 0
632 992 580 0
881 520 -753 0
-828 -3 202 0
-962 511 -547 0
864 -125 129 0
-75 935 233 0
300 597 -104 0
-805 -645 -202 0
-488 -971 -592 0
-8 -354 535 0
-467 -902 -830 0
610 998 -608 0
-572 361 -776 0
-752 473 741 0
-826 30 -321 0
-612 781 566 0
-456 999 -467 0
-184 -459 590 0
827 650 -427 0
-493 511 614 0
-905 367 94 0
-327 33 443 0
-20 -978 -731 0
-323 32 -611 0
754 348 794 0
115 112 -997 0
816 -671 792 0
-716 -84 -826 0
445 455 177 0
-162 -586 -571 0
-492 -442 796 0
-902 399 876 0
397 959 509 0
-684 894 685 0
-647 -372 -867 0
-484 381 181 0
160 -627 -982 0
-550 -623 -600 0
-827 784 255 0
252 151 -318 0
58 -410 203 0
14 95 992 0
-411 742 854 0
-277 -359 66 0
-911 8 -232 0
237 66 219 0
-109 442 425 0
-58 228 820 0
-108 -865 981 0
-551 -971 -51 0
-866 809 -831 0
-898 301 -674 0
-729 75 254 0
-534 777 -132 0
487 -766 847 0
591 560 -640 0
-506 -218 -105 0
841 478 -948 0
-896 664 48 0
-983 -762 -30 0
168 -657 341 0
311 729 847 0
491 428 -7 0
-570 -958 -565 0
117 519 -14 0
-931 213 942 0
644 975 -496 0
-362 -639 -52 0
-246 27 -559 0
834 941 823 0
29 437 -119 0
-847 411 577 0
36 871 -649 0
-223 -96 -807 0
181 559 200 0
-115 617 812 0
321 442 -738 0
-31 -246 -129 0
514 -994 293 0
365 441 -417 0
-171 -348 -593 0
288 -150 -551 0
-740 577 -536 0
11 920 -791 0
37 911 294 0
269 -681 246 0
-463 827 434 0
851 -907 -323 0
532 326 148 0
133 -478 953 0
-974 -627 515 0
-427 -14 -404 0
-572 -538 959 0
-78 -943 -389 0
373 387 300 0
-28 718 60 0
-479 -784 -586 0
810 -349 -883 0
609 -858 -629 0
129 -852 119 0
375 834 -8 0
-273 -706 29 0
151 795 -789 0
699 -35 496 0
815 -842 -989 0
278 390 -400 0
-579 57 463 0
272 -872 614 0
131 -274 647 0
-794 -228 -197 0
-200 -235 -291 0
-615 619 195 0
455 475 -572 0
-194 -348 -530 0
384 652 -733 0
-196 102 -51 0
11 -415 775 0
-457 192 34 0
-565 900 -920 0
-3 -708 -652 0
790 -922 540 0
-992 367 819 0
-530 -211 798 0
-191 -630 589 0
857 -740 217 0
-616 514 702 0
860 -243 -683 0
101 338 968 0
662 635 669 0
741 894 -743 0
-58 -331 -809 0
-438 262 -555 0
474 -428 -867 0
610 -426 -153 0
136 -393 183 0
887 -594 374 0
-826 -441 -949 0
-916 -879 438 0
945 841 -692 0
11 -577 -458 0
-680 581 -323 0
279 -115 -350 0
-748 177 871 0
-973 827 158 0
-76 -140 -703 0
-54 134 708 0
-324 918 -605 0
954 834 919 0
-815 678 693 0
-990 -460 -191 0
-906 -160 -577 0
-505 226 331 0
-578 303 914 0
-564 508 -419 0
-419 -373 -785 0
-846 -289 424 0
351 -199 819 0
-339 -178 -153 0
-206 -37 -275 0
727 -286 -2 0
-573 546 362 0
-485 -848 290 0
639 968 406 0
148 562 -430 0
-281 529 -772 0
-174 233 -96 0
401 -551 -592 0
965 823 270 0
728 602 -639 0
52 619 648 0
-983 -151 -332 0
-304 631 -58 0
-932 -147 42 0
-818 -21 -277 0
-686 757 650 0
-752 -607 -745 0
-390 705 -222 0
662 -810 513 0
189 127 623 0
-739 885 -668 0
-522 -24 -425 0
-472 565 775 0
832 250 575 0
-855 -145 -462 0
684 -671 247 0
-343 9 300 0
-125 83 -426 0
231 733 -678 0
-576 534 76 0
-296 486 665 0
-563 -239 112 0
-206 164 134 0
-739 746 -658 0
-867 351 363 0
-206 -766 205 0
-692 561 -552 0
-71 138 200 0
-778 121 -947 0
-663 625 60 0
-829 992 975 0
851 199 -221 0
148 -573 801 0
-697 42 -500 0
-398 796 -25 0
-940 -18 229 0
973 509 619 0
740 903 -593 0
-185 -723 13 0
768 -1000 301 0
162 184 -475 0
-290 -662 60 0
-238 754 -422 0
156 -760 -452 0
-286 -201 -916 0
-500 783 211 0
-751 -723 837 0
-31 664 652 0
437 -88 -81 0
893 920 450 0
87 351 -130 0
353 -97 307 0
290 -825 695 0
-652 643 35 0
-553 440 833 0
429 496 190 0
-696 561 609 0
-175 81 -235 0
414 118 -22 0
491 -834 -612 0
-306 -617 884 0
-383 -679 -169 0
76 964 -55 0
78 -997 -399 0
-56 831 -587 0
607 -738 457 0
9 -238 29 0
978 -66 -967 0
-986 26 -596 0
518 -757 17 0
-268 87 455 0
966 770 518 0
-426 -961 -594 0
-654 229 -899 0
-540 660 -109 0
967 355 44 0
-659 -830 96 0
765 616 -114 0
834 792 -533 0
358 460 -430 0
575 369 210 0
-954 -633 -134 0
672 197 174 0
-770 -487 722 0
91 -513 712 0
-362 390 -383 0
690 -121 279 0
878 -182 698 0
451 292 121 0
-470 476 876 0
-776 -801 534 0
673 259 -743 0
-612 -526 816 0
-994 -560 -337 0
475 892 885 0
-162 688 60 0
909 -125 781 0
-913 149 -139 0
-918 898 -456 0
418 -144 821 0
-58 283 221 0
-213 -57 -55 0
298 -13 709 0
648 717 -111 0
175 824 537 0
-289 -50 -236 0
75 450 -485 0
-230 -289 -918 0
-27 824 117 0
-445 -255 656 0
-286 901 499 0
-775 429 -927 0
-399 -156 577 0
796 322 -848 0
-954 621 -609 0
819 -711 511 0
133 393 -491 0
-96 -747 -248 0
-40 553 -774 0
394 -4 -776 0
-24 -905 -208 0
-651 861 -286 0
-5 -664 279 0
-259 773 486 0
376 -558 -602 0
881 -339 373 0
-326 -334 -377 0
-624 -343 -431 0
-648 -88 -404 0
45 969 634 0
-984 918 746 0
-1000 426 -633 0
58 218 84 0
307 -168 -707 0
-291 145 -338 0
581 170 635 0
421 508 -910 0
-54 107 -658 0
611 233 581 0
-610 -40 810 0
381 91 480 0
-274 831 -411 0
758 -676 -855 0
-559 411 -947 0
-812 209 380 0
787 -1000 612 0
-180 -119 -674 0
625 825 -652 0
889 -274 -216 0
-473 -919 -803 0
310 541 468 0
832 956 -628 0
513 695 136 0
781 -496 -478 0
920 -225 -146 0
353 -983 -121 0
-795 -564 279 0
-392 -877 771 0
-907 519 911 0
108 -791 479 0
564 67 -561 0
-350 -171 -665 0
512 67 -165 0
-370 -821 21 0
-585 443 -362 0
-955 633 -500 0
930 -167 700 0
557 -211 -796 0
764 -988 595 0
497 -591 -884 0
-201 246 538 0
120 151 -309 0
-261 307 -556 0
816 -466 465 0
-636 -606 -656 0
-999 -605 539 0
274 22 687 0
-847 473 -9 0
825 29 -615 0
45 454 865 0
110 473 -198 0
714 471 -292 0
861 -859 992 0
-374 328 -129 0
-416 -409 749 0
-286 -690 915 0
-55 -343 854 0
-324 -624 660 0
-437 373 680 0
-454 -920 -303 0
-866 -461 -802 0
-751 -580 377 0
-603 -477 688 0
-727 -381 83 0
-775 -78 56 0
680 525 -16 0
803 -536 -336 0
-931 29 -350 0
950 276 363 0
895 -451 -615 0
308 762 621 0
396 810 -420 0
-884 -935 -931 0
-218 258 157 0
358 -710 -802 0
574 -722 464 0
-239 941 749 0
580 -236 392 0
253 -861 536 0
533 603 201 0
792 525 -963 0
434 432 174 0
-668 -957 -965 0
139 981 -161 0
-420 142 753 0
-363 -282 394 0
667 -49 158 0
282 59 -556 0
637 -114 739 0
-740 -296 558 0
-349 -18 638 0
43 880 -227 0
34 -263 183 0
647 201 -688 0
540 -958 732 0
820 -273 548 0
265 559 862 0
986 263 -69 0
262 776 982 0
501 155 555 0
950 -41 283 0
-275 -45 -279 0
781 -8 848 0
-447 992 217 0
-466 581 957 0
403 838 -662 0
-50 104 -981 0
104 108 478 0
-962 151 -257 0
-971 668 -444 0
546 -107 707 0
-892 257 -671 0
350 683 380 0
-634 -205 -142 0
-225 757 386 0
884 320 590 0
763 -594 861 0
-205 437 -808 0
-536 510 943 0
814 927 -982 0
-979 -417 338 0
-698 -235 772 0
456 -791 716 0
299 -300 -840 0
593 29 110 0
-833 595 314 0
-946 318 -689 0
-14 -563 -204 0
-147 -885 900 0
56 -659 31 0
-433 375 812 0
342 261 -736 0
-767 -735 68 0
-774 746 852 0
59 -424 -64 0
-147 -97 -76 0
-155 -576 -439 0
361 -730 893 0
906 -245 -319 0
-994 -292 -32 0
-280 700 -691 0
-617 979 377 0
72 -166 526 0
-755 869 522 0
-576 74 -659 0
67 426 -522 0
-847 -776 -96 0
-693 -530 -671 0
492 551 -783 0
-940 -370 -664 0
638 502 -167 0
947 738 468 0
308 997 596 0
-952 -810 -897 0
-85 -817 -905 0
-770 -985 -864 0
-215 322 621 0
558 -941 -830 0
345 130 740 0
-885 -891 928 0
-10 -692 571 0
-989 152 879 0
-644 709 394 0
-80 -505 786 0
-887 516 520 0
560 -243 -545 0
4 895 -567 0
-230 -806 -363 0
-502 60 459 0
-279 821 -326 0
520 339 808 0
637 896 -486 0
-257 -386 -344 0
659 -28 -858 0
-104 -697 30 0
609 91 -7 0
-399 -884 -19 0
359 -381 734 0
-438 -330 945 0
927 777 416 0
-583 451 -860 0
-801 656 -431 0
785 821 -120 0
-757 504 -782 0
663 -974 630 0
702 -576 288 0
-976 692 994 0
592 -368 -794 0
-230 636 753 0
58 -205 -987 0
377 291 -106 0
461 -396 -590 0
-421 514 -741 0
789 -202 -47 0
-961 711 650 0
273 -54 606 0
-88 -807 276 0
519 -97 -449 0
-418 250 835 0
-794 -17 392 0
677 -293 159 0
588 -846 268 0
-278 56 -731 0
-594 463 158 0
-173 923 535 0
605 -325 -545 0
-253 -396 112 0
-190 -504 -31 0
-960 -197 -104 0
597 724 47 0
-46 -594 -36 0
698 -87 118 0
233 724 332 0
516 -713 32 0
-322 -649 -901 0
307 -185 -953 0
873 100 -235 0
-921 -132 206 0
501 484 830 0
-378 216 -349 0
-780 34 133 0
589 -693 506 0
380 -537 -637 0
-827 518 -27 0
-649 -568 -458 0
413 -705 -809 0
-987 840 531 0
-491 210 848 0
330 -660 -742 0
-514 608 -685 0
-706 328 -217 0
-372 140 -399 0
-396 958 -286 0
-631 -91 -12 0
-340 -724 -160 0
700 -605 -705 0
-824 -899 -297 0
-98 -336 656 0
434 -743 223 0
-293 929 310 0
785 -516 647 0
-495 130 -379 0
-843 -408 23 0
257 -101 511 0
186 224 -915 0
-489 496 691 0
-631 -981 -563 0
552 285 -640 0
-463 243 178 0
-298 256 -275 0
900 -701 -487 0
-308 604 -824 0
-432 -571 -76 0
320 907 -864 0
494 434 -702 0
940 -64 -659 0
-73 -777 -760 0
-335 430 549 0
-512 -170 144 0
-222 3 829 0
-658 434 -18 0
-986 -915 898 0
-793 -394 -657 0
-172 641 28 0
-178 239 -736 0
-69 703 451 0
-132 99 315 0
979 65 -720 0
218 -798 -779 0
-741 85 -998 0
985 302 -74 0
516 267 639 0
42 802 -244 0
546 -273 -639 0
162 -560 -799 0
-987 401 964 0
91 403 -255 0
841 471 -89 0
745 -149 -214 0
362 -41 275 0
584 -478 -451 0
-999 897 353 0
528 566 -175 0
-569 -26 -940 0
-11 745 -739 0
198 -565 -28 0
900 -461 -580 0
104 753 143 0
-565 -971 705 0
985 203 398 0
358 691 -569 0
-82 -134 -617 0
-975 -948 -355 0
-889 956 87 0
-764 -696 -14 0
-393 -79 -350 0
-692 -577 -44 0
-381 -673 -285 0
-311 107 -658 0
-616 -553 328 0
-255 483 974 0
350 287 121 0
-417 342 -804 0
-895 514 935 0
568 -801 -358 0
865 533 -239 0
797 558 -61 0
-117 -407 -959 0
-281 -549 818 0
233 -94 -993 0
-121 44 -844 0
377 -55 362 0
-837 -965 -266 0
-72 -679 -486 0
-488 -857 -444 0
-417 747 -124 0
405 -154 -328 0
-717 -379 -207 0
-864 817 285 0
30 563 -339 0
-377 688 -394 0
279 -263 45 0
151 746 -1 0
-789 975 481 0
-705 46 -738 0
802 325 -470 0
-229 778 734 0
585 39 943 0
166 928 767 0
-115 436 -648 0
943 838 -103 0
-443 -676 909 0
210 959 539 0
796 202 342 0
226 -669 982 0
-354 -164 533 0
-883 -101 596 0
857 615 -863 0
234 583 973 0
-21 62 156 0
484 -532 576 0
100 -671 -362 0
210 568 78 0
485 -478 319 0
258 -240 -460 0
-473 947 754 0
431 255 891 0
-873 480 830 0
-58 912 -621 0
860 -942 -573 0
-631 44 -65 0
331 89 -722 0
757 381 -124 0
-418 -519 -233 0
271 -795 -113 0
417 428 741 0
645 -715 -810 0
754 474 73 0
-386 719 172 0
417 -244 495 0
49 465 925 0
-486 -427 622 0
569 227 -853 0
993 463 837 0
-510 642 -819 0
-932 -940 896 0
-16 -973 -86 0
505 202 -756 0
456 -382 76 0
-914 -268 -31 0
99 574 608 0
762 -847 562 0
-87 -41 -110 0
688 -347 728 0
-299 -546 115 0
361 999 -541 0
-22 -670 353 0
-498 811 -288 0
-857 -126 -238 0
149 -771 -340 0
-234 701 568 0
175 390 -641 0
166 -259 -482 0
439 666 -638 0
854 -216 -558 0
-821 968 86 0
-697 -563 -831 0
308 -35 228 0
548 -66 -175 0
616 693 851 0
-47 494 -888 0
-120 -902 134 0
882 676 689 0
740 -921 827 0
-185 406 -333 0
562 679 671 0
296 510 869 0
532 -656 -497 0
-834 109 -609 0
-354 -377 85 0
933 720 -773 0
-913 -283 -921 0
154 707 6 0
924 -741 -138 0
942 -569 -19 0
-875 -918 -483 0
469 735 -448 0
571 -710 -517 0
-775 760 231 0
-263 -955 102 0
44 -131 203 0
-929 -806 31 0
-787 -384 -800 0
795 15 -106 0
659 136 -10 0
851 -761 275 0
-932 -457 62 0
319 85 654 0
-475 -754 194 0
-86 160 135 0
-234 -108 551 0
617 583 -625 0
205 635 425 0
-57 920 226 0
230 -715 122 0
30 778 480 0
780 -327 605 0
-84 917 670 0
-371 -657 192 0
-338 233 -725 0
819 -330 40 0
532 177 -175 0
-749 -496 431 0
552 -813 -502 0
-710 312 906 0
332 578 75 0
-194 -335 -894 0
-535 345 827 0
643 300 -282 0
-701 -830 -977 0
277 363 -994 0
966 830 537 0
-399 957 -304 0
377 -482 -275 0
-837 715 -782 0
21 -202 -52 0
725 344 -735 0
152 466 217 0
-439 -95 -855 0
286 -235 257 0
-628 209 414 0
-457 -361 -824 0
-935 166 472 0
731 882 283 0
-535 -510 238 0
584 260 209 0
-974 454 -84 0
-969 180 705 0
846 -848 -702 0
239 649 -779 0
-742 -70 248 0
-92 788 817 0
-821 -393 681 0
-26 787 904 0
-804 562 -702 0
83 -583 -558 0
660 -250 -733 0
-844 -613 -454 0
-214 327 -988 0
115 -437 -743 0
-439 542 -300 0
-296 674 -480 0
-18 -424 250 0
-60 -788 -942 0
-418 -169 -755 0
-906 83 972 0
882 -396 133 0
-511 -235 519 0
447 753 -139 0
472 -355 914 0
965 955 820 0
527 146 -930 0
496 -602 248 0
144 506 482 0
414 -856 -29 0
309 -759 -538 0
-600 742 388 0
309 479 476 0
-317 -540 -978 0
726 -825 -946 0
-669 -297 221 0
791 340 119 0
288 -914 -301 0
563 995 -328 0
113 521 -621 0
446 141 -932 0
-182 348 436 0
-793 -672 -983 0
-386 -46 208 0
532 -579 -155 0
-981 -49 918 0
735 -901 -227 0
-542 -13 570 0
-309 -507 21 0
140 -276 -30 0
-680 -118 177 0
590 275 4 0
-985 746 -980 0
-384 636 -304 0
78 825 -890 0
-631 -999 -612 0
-856 394 -410 0
221 819 65 0
974 608 716 0
299 -790 154 0
855 643 713 0
-544 -79 790 0
610 894 -562 0
419 382 119 0
90 776 741 0
-848 184 632 0
-141 -488 -746 0
414 811 -545 0
-348 641 281 0
-905 460 -463 0
-266 -620 -567 0
459 -616 -331 0
-231 -443 -151 0
-917 411 -897 0
457 -231 -326 0
-129 110 234 0
-818 -612 582 0
401 328 744 0
-692 -149 433 0
-813 406 824 0
262 -374 483 0
-422 -319 -260 0
-467 129 143 0
-98 419 4 0
-846 592 -464 0
-779 884 930 0
-25 371 -745 0
261 668 -346 0
-339 -818 -766 0
846 963 41 0
470 946 -694 0
329 -654 162 0
630 -724 34 0
-32 891 -858 0
142 704 -201 0
312 497 -718 0
29 -116 916 0
-648 297 -772 0
616 -154 414 0
-13 624 -188 0
898 555 -980 0
807 -127 533 0
-998 713 972 0
-95 -879 -897 0
-826 -638 145 0
974 341 376 0
-852 -17 230 0
61 988 663 0
969 -59 -194 0
153 -125 -894 0
-286 -59 127 0
-775 -560 -126 0
762 486 -126 0
-522 -594 -320 0
571 288 108 0
-41 159 321 0
-133 -990 134 0
-243 569 -692 0
-158 -239 154 0
-770 283 377 0
-918 -485 111 0
566 294 -857 0
70 -767 467 0
148 -56 630 0
-319 809 -96 0
-559 -506 -757 0
671 333 161 0
-300 443 -378 0
421 -362 -317 0
371 524 141 0
120 857 220 0
-270 788 -231 0
958 -446 -986 0
171 -22 680 0
-560 62 681 0
157 313 608 0
-222 79 175 0
-212 -170 -707 0
-619 728 -438 0
763 -74 -136 0
-985 518 219 0
-409 489 -685 0
168 959 828 0
859 763 484 0
879 221 586 0
-957 839 -18 0
602 -825 72 0
-877 88 -430 0
905 304 588 0
243 -30 -425 0
106 -677 864 0
935 346 865 0
-212 -839 -427 0
-853 820 444 0
786 101 715 0
830 -354 828 0
-757 -210 140 0
-247 -527 -967 0
857 182 -18 0
146 -626 -335 0
-55 -848 -577 0
-27 207 -334 0
406 170 568 0
-354 491 634 0
779 862 463 0
496 269 285 0
863 -538 657 0
52 13 -852 0
281 488 166 0
401 -809 -341 0
224 -703 778 0
955 40 -261 0
-43 336 991 0
238 240 -23 0
628 -535 -230 0
551 -508 880 0
173 -29 365 0
-554 745 -627 0
427 -133 -320 0
49 -675 469 0
-451 787 -880 0
560 796 962 0
-882 132 428 0
131 441 98 0
659 859 48 0
-397 523 -736 0
372 -694 -536 0
962 -146 657 0
-474 541 -489 0
-848 162 26 0
869 565 -759 0
-475 575 306 0
-313 -660 -359 0
372 849 -561 0
-884 -695 62 0
-321 794 608 0
-256 -917 -48 0
83 968 484 0
421 -262 -503 0
407 -581 -825 0
-623 556 -870 0
-578 172 -702 0
945 -81 -426 0
778 -232 -995 0
-123 -545 -151 0
73 948 -778 0
-563 922 -49 0
-45 84 567 0
609 -872 -1 0
-476 -473 753 0
631 320 975 0
-660 733 410 0
401 -213 485 0
606 -236 556 0
-666 -202 -410 0
-821 -382 -733 0
314 873 868 0
995 457 -313 0
442 327 980 0
161 183 -49 0
-906 408 616 0
669 -323 -831 0
297 977 654 0
127 -515 314 0
131 535 63 0
-991 -178 -321 0
-655 383 -804 0
602 985 -789 0
-31 82 -738 0
723 -375 -971 0
106 -619 -925 0
-714 -261 -869 0
653 -628 641 0
935 -709 -149 0
-949 307 -539 0
700 -540 70 0
-5 496 -801 0
366 879 43 0
-608 -997 784 0
-151 83 -293 0
-709 -421 371 0
-892 -203 147 0
710 226 -38 0
352 941 106 0
173 212 -350 0
234 179 397 0
961 224 239 0
-80 -703 425 0
-16 -669 167 0
-443 162 -477 0
386 -66 -738 0
397 264 -442 0
180 -795 -433 0
-299 105 467 0
-579 -384 -650 0
657 879 321 0
-272 71 970 0
-104 -946 311 0
610 -123 -918 0
-58 1 -49 0
-402 58 -543 0
-842 640 -215 0
-276 851 460 0
714 838 315 0
491 541 182 0
298 -1 172 0
-918 19 881 0
972 713 23 0
-303 917 -699 0
-114 -929 -355 0
240 786 675 0
-523 463 -554 0
941 -252 659 0
37 598 724 0
-962 -914 600 0
460 -327 978 0
-444 875 -97 0
446 122 423 0
-655 873 -429 0
598 307 -930 0
-420 46 -227 0
-676 921 -496 0
-611 117 809 0
-117 -549 -139 0
-489 -748 -704 0
716 44 -346 0
-948 -472 -839 0
392 -274 813 0
-524 -913 608 0
-499 398 771 0
870 53 391 0
14 573 342 0
-969 326 -936 0
767 553 -870 0
-469 594 461 0
-174 666 -528 0
433 132 251 0
-333 -336 14 0
-933 322 17 0
-882 254 878 0
84 -804 195 0
741 860 792 0
641 506 316 0
-846 257 225 0
739 918 805 0
207 878 396 0
670 -650 844 0
-633 655 591 0
483 -686 -15 0
-893 105 -929 0
506 -146 898 0
-367 387 -93 0
-322 -871 602 0
-861 -206 472 0
-636 956 496 0
-885 303 973 0
776 -413 10 0
708 632 -54 0
-849 -571 364 0
-351 -379 -380 0
-487 -598 -587 0
-681 -371 954 0
-142 -362 -631 0
878 705 -863 0
-915 295 331 0
331 563 -985 0
-840 359 711 0
700 -475 834 0
438 -624 -683 0
609 -596 194 0
496 345 -59 0
931 981 -143 0
-659 -899 508 0
-331 -824 45 0
-871 236 981 0
-214 -542 -220 0
-870 -37 -74 0
-711 -938 -804 0
904 651 330 0
-459 -157 -935 0
175 734 -550 0
-375 -110 809 0
-530 544 -290 0
53 456 587 0
-705 938 -980 0
328 -408 -681 0
-221 -654 -438 0
-999 7 -896 0
-625 -889 -986 0
-443 116 -965 0
-591 299 -768 0
-529 -199 -192 0
117 138 -705 0
-648 372 831 0
4 758 -340 0
-834 -537 -578 0
-220 -227 -92 0
-525 -294 -864 0
-918 769 -857 0
310 -909 794 0
344 782 109 0
464 -474 906 0
893 -963 773 0
372 -510 498 0
651 -14 -193 0
-250 -220 17 0
552 168 803 0
-134 423 -887 0
-637 854 59 0
277 786 206 0
109 -541 503 0
808 735 -269 0
-47 919 70 0
-348 -934 -106 0
-421 683 -46 0
427 774 474 0
-161 -80 495 0
156 -960 442 0
692 -170 63 0
-247 801 1 0
-256 955 796 0
-254 618 -209 0
777 683 -427 0
-604 1000 421 0
-932 -769 949 0
-139 988 655 0
174 -238 -440 0
990 -972 -688 0
108 -800 -774 0
-585 918 -273 0
407 950 -643 0
-251 21 -264 0
-82 -402 -324 0
417 -393 -212 0
-628 -521 -535 0
-523 -457 -688 0
767 595 310 0
-547 741 -452 0
-768 951 -638 0
556 -79 -965 0
270 207 428 0
-526 -808 681 0
432 -914 -663 0
-313 -765 208 0
-774 357 -890 0
61 372 52 0
-786 -549 668 0
142 11 -447 0
-995 587 539 0
-645 835 855 0
-167 981 -796 0
973 709 597 0
26 -510 975 0
85 -524 505 0
-264 940 -382 0
134 -595 891 0
308 -241 -959 0
775 908 -685 0
-264 374 -734 0
-248 -555 48 0
431 262 202 0
-342 -692 -620 0
-228 290 465 0
-944 -37 521 0
-536 -519 201 0
-733 905 -190 0
673 -904 -332 0
581 620 -956 0
405 879 -387 0
-639 -881 -729 0
-702 -373 931 0
494 -432 -875 0
547 -922 -178 0
818 -862 -866 0
-928 -197 44 0
-206 565 905 0
444 -937 179 0
194 266 335 0
935 434 -50 0
-549 347 -598 0
-243 234 788 0
-971 -544 124 0
-414 -732 313 0
-704 876 981 0
957 56 -125 0
408 -951 -150 0
-661 -88 -931 0
874 611 -890 0
-626 918 422 0
41 -72 147 0
728 -402 574 0
-457 420 419 0
-957 -330 -882 0
-652 -145 -258 0
-511 -111 -975 0
786 -658 151 0
-150 821 -237 0
-770 -533 416 0
777 613 823 0
987 -607 -891 0
424 -292 -402 0
-796 156 -968 0
-253 947 -944 0
895 -821 -955 0
-395 982 -949 0
-652 -337 -491 0
-888 81 -812 0
371 -905 -548 0
-81 -419 -963 0
-531 258 397 0
-423 308 107 0
-334 -843 -565 0
61 966 -552 0
850 1000 355 0
-276 692 -101 0
-478 998 783 0
202 766 450 0
-713 139 863 0
848 -29 739 0
3 -344 -134 0
705 382 -127 0
-11 575 -990 0
-126 860 -718 0
464 813 -385 0
-352 832 -98 0
-494 -846 -45 0
205 277 533 0
433 -834 39 0
-182 -528 -386 0
-848 559 -922 0
863 -364 278 0
368 -903 -646 0
-473 -592 -905 0
-579 -165 -865 0
-457 371 426 0
322 165 -222 0
351 -459 -905 0
-44 -312 -935 0
-633 -76 674 0
-80 -454 704 0
94 515 -414 0
658 -936 278 0
193 158 -465 0
628 -991 925 0
527 -510 -681 0
-756 -709 258 0
718 840 -360 0
921 223 -641 0
-377 707 838 0
-726 886 697 0
-739 365 -261 0
-983 591 26 0
-940 -382 -393 0
-400 826 -601 0
-939 -220 224 0
895 -50 83 0
-4 -704 258 0
613 155 663 0
-737 -251 -469 0
222 -658 24 0
-30 43 -302 0
371 847 170 0
124 218 -735 0
-995 208 -386 0
937 853 89 0
-564 184 -122 0
-725 -808 517 0
-213 845 607 0
723 -752 -414 0
293 -27 403 0
345 -772 -396 0
219 -929 -281 0
-688 893 -634 0
186 221 -588 0
-66 560 993 0
-344 951 191 0
-313 -715 746 0
759 -243 -76 0
-859 53 137 0
-19 858 -153 0
347 875 208 0
675 -945 683 0
678 580 -845 0
-155 -36 -267 0
23 971 592 0
825 -269 -251 0
21 914 -47 0
780 554 172 0
-402 -894 -951 0
444 -350 -617 0
-446 -444 118 0
-252 -402 -963 0
717 -960 718 0
-8 837 946 0
-300 -383 -750 0
779 -54 990 0
-57 -259 -710 0
237 -186 -648 0
-409 -273 909 0
748 -805 -860 0
570 -899 -154 0
233 617 -432 0
-604 -172 -944 0
-400 -764 -714 0
-396 733 931 0
684 498 -398 0
-837 -266 461 0
894 -841 -146 0
-579 -885 -813 0
-320 137 -481 0
-491 765 956 0
-631 -820 -850 0
-365 496 -644 0
792 640 503 0
782 817 -276 0
380 -330 -564 0
452 -357 -830 0
-970 -625 -745 0
-227 -53 112 0
-850 -50 345 0
669 -977 -388 0
282 -405 -841 0
-545 107 -141 0
-231 309 -582 0
-350 -743 972 0
286 990 -137 0
-976 -867 929 0
568 516 190 0
631 336 255 0
-283 -110 69 0
304 -232 -789 0
-881 528 -11 0
-9 551 675 0
294 -670 543 0
-295 -367 779 0
-659 -890 408 0
-538 -608 -428 0
323 807 14 0
214 -457 -180 0
-18 158 912 0
565 677 -255 0
147 348 -769 0
605 317 702 0
-620 942 577 0
346 157 352 0
-335 -621 -852 0
506 105 153 0
67 -848 430 0
471 874 -510 0
504 -553 -981 0
-482 382 -140 0
902 748 -243 0
-472 -871 -341 0
171 771 -144 0
97 313 -926 0
-836 963 -275 0
-936 -761 -922 0
583 369 544 0
-405 852 519 0
831 -126 -862 0
649 -925 49 0
-81 31 -883 0
-444 -200 -539 0
606 726 -947 0
74 -242 -967 0
-298 -508 -824 0
-110 322 -313 0
521 109 -174 0
-913 81 98 0
-671 -722 383 0
-573 -244 -444 0
-816 -803 -968 0
335 512 127 0
499 922 -970 0
-321 -23 -216 0
-902 -434 -627 0
-863 848 -828 0
691 402 -784 0
964 551 514 0
484 52 -307 0
-484 -493 652 0
-792 513 906 0
6 -790 -845 0
-622 -202 -950 0
478 -970 688 0
-72 395 803 0
-56 320 362 0
-184 -601 772 0
664 80 331 0
-607 -295 390 0
216 -390 -431 0
-36 519 362 0
332 -406 59 0
-60 856 298 0
-284 512 -710 0
240 481 -423 0
-429 372 680 0
-938 875 -702 0
-336 -366 -487 0
-387 316 497 0
-959 571 -996 0
-635 -436 495 0
-932 241 328 0
-913 -261 -106 0
213 -343 724 0
-615 695 49 0
649 -193 -566 0
869 -872 810 0
364 495 405 0
710 -245 -233 0
-389 -522 -953 0
570 -451 -670 0
403 657 -569 0
-700 -32 -661 0
-568 -265 766 0
-772 -151 757 0
-315 -139 -313 0
889 -750 -308 0
301 -59 -40 0
-279 244 -104 0
447 -100 211 0
-222 265 325 0
-847 -84 387 0
-632 -621 -512 0
497 397 452 0
560 172 -501 0
674 -435 -551 0
-993 966 264 0
290 -18 333 0
-918 98 -985 0
830 771 -464 0
837 -475 96 0
-374 257 330 0
650 -894 992 0
-61 -599 -864 0
-373 -135 -262 0
-983 300 426 0
-76 -251 82 0
355 208 438 0
983 294 -433 0
436 -387 -213 0
-142 -418 -298 0
48 769 213 0
13 -358 781 0
-767 -635 501 0
432 -297 -215 0
643 710 -458 0
887 -78 -343 0
-809 701 -931 0
272 377 664 0
541 -917 996 0
684 265 522 0
889 809 917 0
-647 -589 -179 0
317 26 -350 0
-621 -852 276 0
152 717 424 0
443 997 -647 0
720 15 945 0
30 418 764 0
909 -513 -799 0
591 -215 -901 0
-584 5 -572 0
-43 183 377 0
-125 454 583 0
-93 -996 -813 0
-942 -291 63 0
722 762 -265 0
839 405 -133 0
26 247 -818 0
-330 594 -743 0
-746 -655 -492 0
-335 -32 -480 0
-534 -315 979 0
67 109 -579 0
-162 -469 -723 0
962 753 -158 0
361 -457 94 0
-890 482 -971 0
4 -832 407 0
-962 194 819 0
-434 -836 -111 0
-523 662 688 0
-586 275 -848 0
561 -284 -226 0
450 -690 -184 0
-399 -858 -47 0
863 -139 267 0
-869 238 719 0
-101 926 -778 0
367 142 -78 0
628 -576 -489 0
250 418 708 0
-346 -310 -661 0
863 -538 -190 0
-116 495 -227 0
501 222 924 0
-74 -255 -200 0
-113 -892 555 0
-654 -659 -851 0
333 92 919 0
-881 -751 314 0
801 -746 -867 0
-861 278 396 0
-225 720 918 0
-889 -555 77 0
924 -78 426 0
-573 433 -253 0
-846 974 481 0
794 -535 -988 0
-244 654 296 0
-40 -618 351 0
-38 770 965 0
150 -873 94 0
900 103 809 0
-30 19 -598 0
-855 -251 148 0
-409 38 -199 0
567 897 -238 0
46 -664 37 0
536 591 -106 0
428 942 -829 0
798 -9 -304 0
899 -678 107 0
609 878 129 0
960 808 -869 0
157 -46 -998 0
715 -857 530 0
689 -782 518 0
195 267 -188 0
197 -283 732 0
-662 42 491 0
389 638 -547 0
63 298 -527 0
-863 610 165 0
-890 129 785 0
145 264 313 0
155 847 329 0
952 781 807 0
502 352 -9 0
-243 634 -307 0
-180 423 170 0
-197 -324 -167 0
-979 -562 494 0
-786 762 -652 0
760 -638 492 0
-830 -254 30 0
184 -412 -706 0
-947 -697 -751 0
-77 386 160 0
-378 -405 -301 0
307 -998 590 0
-593 -383 -865 0
-543 97 -968 0
-590 585 526 0
901 983 -302 0
871 -403 -939 0
-605 827 -489 0
171 -801 -76 0
-156 725 610 0
-193 252 548 0
-671 -766 -322 0
259 -286 209 0
102 264 839 0
-755 456 -180 0
-81 -537 402 0
586 498 763 0
366 -610 -567 0
198 694 147 0
119 428 38 0
-880 654 171 0
721 969 711 0
-434 541 564 0
-882 471 639 0
57 -524 -965 0
685 -715 -468 0
784 915 -988 0
355 -100 133 0
-131 209 709 0
285 -757 -99 0
474 -300 -979 0
-865 695 907 0
545 736 -163 0
459 -33 -11 0
242 -735 -162 0
-189 381 430 0
-938 202 -111 0
162 -946 -262 0
849 355 883 0
605 44 -451 0
600 643 -276 0
-489 -607 689 0
110 -15 -870 0
344 -379 -153 0
-651 -258 -252 0
-294 -865 -149 0
-278 709 -122 0
828 -730 -489 0
864 656 -340 0
-806 431 278 0
-609 -494 686 0
-554 128 -651 0
-151 265 310 0
-657 890 -309 0
796 -212 119 0
549 -519 111 0
-948 519 -623 0
707 177 -794 0
-632 920 -950 0
-816 -117 337 0
-4 -793 86 0
-920 -189 -862 0
2 67 -328 0
-29 810 -683 0
-836 -63 -545 0
956 -459 -198 0
966 287 -69 0
-226 18 784 0
-160 374 796 0
-947 -845 257 0
-605 413 -879 0
78 635 170 0
-20 -959 -634 0
-37 -60 444 0
473 808 -480 0
514 133 794 0
720 538 -630 0
943 573 -614 0
-587 918 -313 0
-322 -682 634 0
-458 815 -88 0
-131 -667 -543 0
-413 490 -510 0
307 946 -453 0
317 -340 -123 0
-458 -227 493 0
364 903 225 0
-178 -878 294 0
-733 92 -728 0
779 326 541 0
187 -398 417 0
-320 163 222 0
-323 -978 -238 0
44 15 -921 0
-58 -885 -232 0
637 79 867 0
846 387 873 0
-145 549 469 0
846 -965 861 0
369 341 182 0
238 195 -253 0
697 -309 15 0
-254 -604 654 0
-346 823 -150 0
-892 380 135 0
169 -154 -431 0
507 -914 -925 0
-393 -864 591 0
-933 703 322 0
-988 137 596 0
-766 72 899 0
-544 201 -612 0
387 785 8 0
-252 -216 783 0
862 -466 -579 0
-881 549 -117 0
-768 667 -85 0
-923 20 -248 0
-241 650 -476 0
558 457 -47 0
-862 311 557 0
-983 -336 -232 0
-856 -280 -624 0
-12 185 263 0
788 -189 -977 0
119 -229 -504 0
608 -513 -978 0
826 -312 -432 0
-572 239 882 0
-476 -977 -502 0
-609 922 -58 0
713 -873 -349 0
-514 -477 -506 0
-945 -193 -711 0
-256 -832 854 0
558 -222 -124 0
-764 554 598 0
-484 -529 -411 0
-620 -447 716 0
-847 675 176 0
-246 62 693 0
-491 475 -468 0
-939 -569 25 0
368 -184 983 0
-73 537 -319 0
356 428 3 0
401 -440 901 0
307 -239 909 0
-303 315 850 0
-158 431 81 0
-423 -492 663 0
-897 836 519 0
850 -192 -187 0
121 -720 636 0
-951 242 -852 0
-848 84 -718 0
-324 776 314 0
-766 -972 -983 0
-526 822 907 0
729 -3 -717 0
-111 312 319 0
-761 -797 617 0
822 -82 674 0
-296 -445 820 0
974 -936 -909 0
683 978 -536 0
425 200 -606 0
-608 862 777 0
-774 322 65 0
-360 -748 409 0
-598 796 -467 0
-337 486 894 0
152 -892 -600 0
509 -946 -137 0
-706 -82 474 0
900 -392 322 0
-78 -414 906 0
827 -460 603 0
208 -754 -522 0
-637 24 77 0
951 187 31 0
-790 -87 521 0
814 483 433 0
-197 -307 236 0
-687 -207 872 0
242 -512 137 0
-317 519 -839 0
617 793 881 0
-239 -259 764 0
343 -261 887 0
717 605 883 0
227 -351 -543 0
441 -566 -624 0
-945 1 -739 0
533 -598 875 0
937 314 -532 0
67 -555 776 0
811 -316 -708 0
-187 182 -646 0
518 -738 -197 0
808 270 -563 0
-546 -961 -110 0
270 -349 81 0
-682 197 -58 0
-32 -217 -897 0
-356 -443 -782 0
-156 521 -839 0
-622 -556 -706 0
813 639 -207 0
-604 -54 81 0
157 741 -43 0
285 908 697 0
-445 -987 -996 0
-979 -662 409 0
-118 936 -25 0
-23 561 692 0
-84 790 436 0
662 -880 -665 0
619 -889 435 0
-288 691 818 0
-380 789 -807 0
578 -900 907 0
-978 656 26 0
-630 941 -819 0
62 -815 -562 0
108 -877 688 0
33 -963 -215 0
701 542 -181 0
-585 -665 -708 0
-682 546 -484 0
-893 725 941 0
-73 -916 -949 0
465 -302 -236 0
-247 914 557 0
-394 -827 -128 0
-305 453 -239 0
-70 -403 -140 0
-431 735 -104 0
-435 459 -540 0
98 352 -237 0
-448 -514 -931 0
173 -185 246 0
-861 -336 -285 0
196 763 225 0
180 -460 -319 0
-733 -263 -833 0
817 -348 615 0
729 -485 -804 0
-447 -3 -325 0
776 540 367 0
-96 916 -165 0
-552 753 463 0
-908 -198 -154 0
906 -590 840 0
-852 -810 773 0
-281 -516 568 0
-861 -997 715 0
603 972 13 0
208 -721 627 0
276 -100 -80 0
-487 923 -486 0
293 801 -884 0
871 -167 992 0
-601 129 750 0
728 -904 899 0
-707 397 169 0
989 -169 118 0
-349 -20 -587 0
717 -710 -289 0
-48 698 553 0
619 -177 223 0
870 679 -685 0
94 389 676 0
929 648 896 0
454 -899 621 0
-257 683 -731 0
456 -972 726 0
98 871 -894 0
612 -592 390 0
266 352 -844 0
-102 679 -63 0
579 149 649 0
36 629 160 0
572 543 -27 0
39 341 365 0
201 501 494 0
-299 -680 -884 0
-54 -104 969 0
-782 -873 591 0
951 721 547 0
925 107 750 0
-445 516 -588 0
760 -168 70 0
-259 113 984 0
-934 -605 846 0
-393 934 359 0
-583 402 -85 0
575 -292 76 0
-10 392 955 0
177 -575 713 0
212 164 -332 0
770 -382 562 0
-370 284 121 0
-64 544 3 0
587 -167 -103 0
614 515 -810 0
-712 55 848 0
-724 -678 -121 0
-135 -814 -387 0
6 -346 -389 0
-879 583 251 0
-7 -437 -235 0
77 -714 555 0
-216 903 -416 0
-4 -265 -630 0
-283 -618 921 0
407 331 371 0
138 -206 -526 0
954 -293 87 0
963 -523 838 0
161 848 349 0
633 -293 58 0
-372 -479 -601 0
-726 -696 99 0
-217 -405 332 0
-261 -746 874 0
811 209 65 0
-147 -319 255 0
-629 82 -824 0
-687 -532 336 0
-581 718 -638 0
3 -116 549 0
-977 -198 423 0
-783 497 676 0
-182 -39 829 0
-49 246 -877 0
-701 -812 -361 0
-331 803 879 0
321 -395 -237 0
-143 629 400 0
794 -833 994 0
786 -539 720 0
71 -168 565 0
340 343 502 0
295 -114 -77 0
174 890 -816 0
746 724 813 0
-148 684 -120 0
-108 88 -149 0
-666 -107 569 0
771 966 715 0
530 -646 -30 0
-997 -471 -167 0
567 411 543 0
970 274 887 0
613 -585 12 0
988 -155 -638 0
-82 -804 145 0
483 418 -498 0
842 -570 846 0
164 -178 -23 0
983 -984 -172 0
-717 -144 108 0
536 -545 260 0
-921 820 -297 0
-972 350 592 0
872 724 -458 0
859 -739 238 0
-185 -531 640 0
900 272 -191 0
-375 763 13 0
-591 -560 280 0
-533 -588 -18 0
-202 140 457 0
-135 -540 45 0
-461 -831 132 0
-13 -408 -862 0
-808 615 875 0
-841 455 19 0
204 181 761 0
-422 -674 -246 0
-727 -712 -385 0
293 241 -140 0
165 -415 310 0
-759 214 548 0
7 -774 240 0
-674 -170 -98 0
847 -908 -163 0
341 32 29 0
894 -765 -804 0
288 -108 392 0
-238 404 999 0
439 478 622 0
-234 682 -447 0
-780 610 -236 0
-6 122 -285 0
-805 -656 -667 0
473 -228 531 0
10 -573 -611 0
-453 904 391 0
-50 646 -332 0
424 319 889 0
790 229 650 0
-192 -832 -812 0
-174 -989 907 0
758 890 447 0
282 -960 740 0
-436 579 -289 0
459 232 -871 0
695 -859 -325 0
-400 631 199 0
822 -338 -528 0
811 472 -520 0
328 -920 687 0
-518 -829 -35 0
-712 852 636 0
-96 -276 -841 0
-342 845 -923 0
257 469 305 0
-758 -553 398 0
414 -239 251 0
632 -460 795 0
-222 278 125 0
-532 268 -170 0
-993 130 -337 0
493 -809 -501 0
-170 103 761 0
-751 660 842 0
798 -451 235 0
816 346 922 0
-178 -154 -810 0
-813 -112 232 0
-565 568 591 0
960 180 -748 0
-62 -825 351 0
-606 -986 -937 0
-556 -426 928 0
55 -521 902 0
357 -892 -402 0
-521 -742 -304 0
-55 -946 269 0
-112 53 200 0
260 637 18 0
-72 262 428 0
-712 84 539 0
-820 -798 -357 0
-162 -594 -67 0
-787 972 -123 0
-20 -195 1000 0
38 964 -917 0
589 -2 -486 0
-321 -398 239 0
-576 -442 754 0
245 470 -930 0
-765 760 -648 0
-382 -31 -434 0
-625 -241 -789 0
-962 955 -941 0
563 787 394 0
-7 233 -504 0
958 -537 -374 0
132 901 11 0
342 15 814 0
-620 -195 5 0
-705 8 -286 0
-522 -824 417 0
634 -909 -341 0
-737 -415 -432 0
-827 582 -317 0
111 -519 -676 0
-956 757 -320 0
-734 931 -636 0
519 -571 818 0
151 36 990 0
-180 532 859 0
419 910 884 0
-387 140 -474 0
396 -701 465 0
544 -128 447 0
10 353 167 0
858 665 -125 0
975 -164 286 0
-118 265 69 0
528 -157 284 0
236 870 -694 0
442 -13 461 0
-709 -427 -877 0
770 -139 -218 0
99 712 -13 0
-561 -596 350 0
-151 -945 969 0
814 867 979 0
-148 970 -211 0
533 198 -360 0
199 542 404 0
-367 834 -950 0
702 -796 -525 0
617 -798 274 0
-252 -634 869 0
604 -3 -982 0
103 424 561 0
881 -573 -456 0
958 -413 -769 0
-542 576 354 0
580 523 87 0
-926 -924 44 0
638 -310 294 0
115 -778 416 0
596 -61 104 0
-880 510 -394 0
867 -335 -774 0
-844 -17 -681 0
-938 241 119 0
-628 549 -879 0
-619 196 754 0
145 669 762 0
-867 467 -854 0
383 -914 717 0
-336 615 -50 0
551 59 805 0
-837 272 -401 0
295 904 -51 0
832 -217 509 0
-679 120 -831 0
-446 388 450 0
-238 698 645 0
168 -582 748 0
-789 703 450 0
-78 -330 391 0
40 665 -35 0
-514 414 442 0
864 -550 644 0
776 -750 555 0
-165 735 -933 0
649 826 -585 0
684 -482 461 0
956 161 -271 0
-319 -571 737 0
357 -458 918 0
933 592 -584 0
-246 -78 -470 0
863 92 421 0
-820 -824 232 0
615 841 801 0
-35 411 -557 0
402 10 620 0
-965 672 -373 0
-48 -325 545 0
-963 752 -450 0
-873 911 -94 0
-337 391 -164 0
-302 36 38 0
909 -694 198 0
508 985 -899 0
-701 -91 -952 0
-200 -167 -860 0
887 712 138 0
462 444 437 0
-440 -203 761 0
772 322 383 0
296 106 -615 0
34 -495 207 0
548 -926 75 0
770 -351 313 0
818 823 -322 0
52 -937 498 0
791 358 -843 0
-965 144 117 0
947 827 -509 0
-496 -659 -386 0
705 -893 61 0
-358 245 -664 0
551 -130 -724 0
-206 -104 114 0
821 65 354 0
-45 690 655 0
-985 317 562 0
-694 -217 -47 0
790 -201 -702 0
311 286 -20 0
555 -283 -745 0
653 268 -186 0
376 -903 -886 0
-373 235 296 0
-562 -701 102 0
-9 909 -892 0
-367 385 -426 0
98 -916 611 0
14 -133 -427 0
-723 -825 -589 0
-4 -477 -346 0
-20 -786 -847 0
515 158 54 0
150 686 425 0
475 -59 208 0
-982 -963 -260 0
-287 478 363 0
688 670 556 0
834 826 666 0
476 -813 934 0
711 50 250 0
-696 682 -940 0
71 602 708 0
-566 -859 359 0
815 -509 -604 0
793 210 -867 0
-78 -578 872 0
-620 -702 -494 0
231 -973 12 0
203 -244 -238 0
-528 -1 -511 0
-91 -486 -852 0
-240 289 833 0
-34 972 8 0
935 2 -398 0
-419 86 -91 0
9 -158 599 0
554 -118 -47 0
-981 738 619 0
795 800 15 0
368 409 441 0
386 623 -894 0
432 427 450 0
64 -703 -87 0
-602 222 -990 0
-545 584 -436 0
295 973 274 0
777 368 385 0
739 211 -978 0
176 -754 -360 0
-892 963 -549 0
-610 986 623 0
37 -260 960 0
-464 -563 39 0
620 384 786 0
457 -864 -814 0
-850 140 -412 0
-944 676 422 0
-724 65 -285 0
272 171 -593 0
-546 212 274 0
872 -181 7 0
530 40 -554 0
-801 703 678 0
-112 -147 834 0
-186 32 -156 0
-870 386 -728 0
-351 105 -300 0
-832 -36 -101 0
922 15 976 0
-245 -335 649 0
405 524 -1000 0
666 -658 977 0
-730 -594 -476 0
-252 296 -425 0
-738 798 408 0
-505 466 408 0
153 327 -929 0
-584 -441 488 0
-889 504 -327 0
965 277 890 0
-777 -623 -740 0
-161 -945 -307 0
777 587 151 0
-235 -968 28 0
-893 738 525 0
693 -353 -312 0
633 -73 -114 0
-395 493 -581 0
302 -367 818 0
-356 -805 166 0
-724 571 991 0
906 -303 -731 0
-16 -423 379 0
917 -653 226 0
589 -365 122 0
485 492 951 0
-732 889 727 0
-835 425 -970 0
843 265 -235 0
86 641 264 0
894 -932 32 0
-975 58 -933 0
82 36 789 0
75 929 -114 0
-159 518 597 0
40 553 751 0
70 -946 717 0
555 -846 243 0
959 -928 -549 0
-464 -984 519 0
403 -673 -962 0
-978 620 -716 0
942 -655 49 0
266 -37 563 0
-865 544 477 0
677 571 -827 0
-609 315 -428 0
-355 -697 971 0
-249 -489 -171 0
29 -658 -609 0
374 -371 -120 0
848 808 983 0
-521 -793 530 0
-418 747 -528 0
-365 -526 -59 0
-27 -497 -551 0
-153 254 389 0
963 -499 425 0
891 -923 255 0
-363 -744 485 0
-396 489 -486 0
793 770 868 0
-590 -650 -267 0
17 676 99 0
-485 406 -402 0
-496 -353 -122 0
-777 -307 -382 0
-114 827 -376 0
903 109 -486 0
713 982 -396 0
-946 -639 125 0
150 802 -663 0
547 -624 883 0
-476 -694 284 0
-730 196 -432 0
-93 824 -5 0
-106 -828 -332 0
521 -876 -742 0
-861 920 689 0
985 710 -674 0
340 634 444 0
615 288 663 0
-335 -536 -222 0
-802 -598 620 0
-747 69 -349 0
-188 313 677 0
735 -327 -932 0
808 -939 637 0
-808 -594 -28 0
-292 834 -761 0
512 514 -433 0
-377 890 -2 0
453 -52 718 0
573 -10 617 0
-212 155 -455 0
-50 358 -391 0
974 801 273 0
407 -891 389 0
76 97 445 0
756 -367 -471 0
683 740 -129 0
134 499 804 0
870 -589 182 0
446 -513 99 0
714 -927 -613 0
697 460 -262 0
519 500 649 0
804 218 -53 0
214 203 623 0
-223 465 392 0
-723 656 -66 0
500 -88 979 0
-104 -963 -513 0
-366 -275 -680 0
-524 -288 400 0
130 705 -909 0
-871 669 -4 0
-166 -264 -148 0
-305 117 -263 0
866 -447 -943 0
-790 480 68 0
-616 -957 544 0
111 -863 -681 0
676 -448 -471 0
293 -555 398 0
239 -865 -636 0
498 235 -79 0
-700 -360 195 0
-605 662 10 0
126 -674 -777 0
-848 776 -118 0
-934 691 761 0
949 814 -268 0
21 -893 203 0
-849 -101 840 0
822 -108 -59 0
561 663 -866 0
-267 307 106 0
-316 -439 105 0
-301 -493 -861 0
-522 769 83 0
-663 586 -538 0
-588 -97 -137 0
762 -718 -188 0
-500 -884 15 0
232 -823 724 0
607 -769 936 0
-760 -934 719 0
-646 982 -25 0
-145 -590 776 0
-120 -292 -12 0
-602 696 837 0
-534 275 26 0
657 -911 820 0
41 -388 951 0
925 135 -5 0
329 -930 -286 0
432 -291 620 0
-568 -635 331 0
-215 -752 -543 0
-657 -302 152 0
97 574 285 0
500 988 749 0
-106 -973 933 0
-42 28 -910 0
-347 -168 -902 0
-352 -909 799 0
-492 -745 768 0
91 -29 -108 0
893 -957 -170 0
-424 876 -236 0
137 -45 -614 0
176 -950 -835 0
-740 -655 -959 0
698 -751 732 0
-958 -559 468 0
-777 -498 676 0
-358 949 -217 0
27 -221 -342 0
-719 257 569 0
611 345 -587 0
-713 -334 192 0
-718 87 -894 0
21 -882 -998 0
-409 171 508 0
205 -256 361 0
-633 -840 -927 0
-564 547 667 0
-22 230 -197 0
-138 -355 812 0
-108 -119 799 0
400 121 792 0
-29 568 726 0
847 437 425 0
28 938 593 0
537 871 -864 0
-125 -252 -825 0
675 555 106 0
-767 657 -404 0
223 774 -822 0
696 -486 -23 0
-156 -967 817 0
354 601 -397 0
-270 -287 698 0
-880 841 -177 0
41 352 -220 0
-258 34 -86 0
50 -199 353 0
-336 -116 110 0
255 -4 414 0
655 -498 272 0
-499 524 -97 0
-249 -166 -956 0
860 -875 870 0
987 943 558 0
1000 -542 876 0
-708 -963 -227 0
-558 635 65 0
-199 321 53 0
335 107 737 0
-769 -826 -320 0
852 453 -673 0
984 -385 992 0
-802 -402 985 0
-187 562 842 0
-700 -274 -899 0
179 629 426 0
-834 638 340 0
421 -809 -800 0
-410 624 -630 0
-11 -627 -211 0
93 418 704 0
45 441 400 0
855 950 -516 0
-742 -327 -196 0
937 -818 -361 0
616 614 488 0
-849 677 491 0
786 416 336 0
-987 -747 -32 0
469 295 179 0
-389 261 874 0
328 -733 573 0
-399 -882 922 0
-547 339 -70 0
-103 475 -491 0
112 -793 -713 0
323 168 986 0
-454 -730 640 0
-391 -356 575 0
-66 -984 -641 0
-257 758 -283 0
933 342 -293 0
-293 421 -124 0
278 62 -312 0
-122 847 111 0
-351 -616 -889 0
-908 565 -999 0
295 521 -132 0
652 -221 -475 0
-181 824 -683 0
466 -22 -250 0
457 -121 -705 0
-493 -701 164 0
930 -746 -711 0
776 -67 -199 0
-32 -294 479 0
-935 -293 -318 0
-825 -921 -617 0
952 517 718 0
-563 -548 76 0
508 -504 126 0
-972 429 -861 0
-904 -720 63 0
-909 556 645 0
-292 -443 -401 0
246 -437 -197 0
74 584 -474 0
-488 977 -76 0
-887 -756 919 0
-363 327 -668 0
-788 848 -960 0
-740 394 724 0
-412 590 -898 0
-331 141 -384 0
-710 -720 -467 0
979 311 351 0
-245 -457 -690 0
193 241 319 0
-723 -517 820 0
-542 -972 -896 0
-310 -721 163 0
-931 -996 848 0
846 140 -361 0
563 -857 -692 0
123 117 -153 0
671 4 919 0
-656 910 678 0
364 31 47 0
664 -924 198 0
-707 -797 -323 0
-91 977 80 0
-932 699 979 0
715 751 516 0
-84 -56 -927 0
526 243 671 0
-864 885 -924 0
-772 269 916 0
978 578 636 0
-103 -155 -353 0
255 857 -271 0
349 -716 -487 0
400 -386 873 0
921 -365 638 0
-438 -582 -157 0
788 868 -962 0
-976 -844 928 0
-618 -571 -292 0
-196 -83 762 0
136 -66 -701 0
-92 -858 779 0
298 937 786 0
-486 -306 -968 0
-937 39 -369 0
239 -257 291 0
-747 -93 -533 0
264 -981 490 0
709 386 513 0
-687 -774 15 0
907 931 -518 0
962 -858 -834 0
-526 -484 380 0
-609 -751 -492 0
-246 409 111 0
-889 154 -10 0
83 -120 512 0
-982 -487 145 0
947 -358 -981 0
561 30 598 0
417 269 460 0
244 117 -153 0
549 -644 825 0
-764 833 -97 0
-269 -871 -577 0
-500 -914 864 0
340 103 -644 0
-655 -965 -613 0
959 59 -223 0
-623 -86 564 0
763 -926 154 0
-244 455 -923 0
-100 -936 819 0
-87 446 452 0
-857 -280 -623 0
-188 719 797 0
833 -837 -213 0
-388 946 -426 0
