c Random 3-SAT formula for benchmarking
c Generated with seed 63
p cnf 50 213
-29 19 -17 0
48 -6 5 0
41 20 48 0
22 16 18 0
-15 -49 -40 0
32 45 14 0
22 40 49 0
-40 1 -26 0
-4 24 -23 0
47 35 44 0
-37 27 43 0
-24 14 -26 0
31 -8 28 0
-9 20 4 0
7 -27 -41 0
-50 33 -35 0
3 -15 -23 0
-6 -5 -45 0
-11 -15 43 0
23 -24 -38 0
12 -27 -30 0
-4 -50 -32 0
-24 -31 47 0
-10 -32 1 0
12 20 28 0
-27 -3 -18 0
33 26 -40 0
-40 -11 20 0
13 6 -47 0
22 -27 -43 0
37 -38 -36 0
-39 -43 -42 0
-14 -49 4 0
22 48 -28 0
7 -28 -42 0
38 -30 -40 0
18 -6 -47 0
-39 -6 -7 0
-42 -12 48 0
-42 34 48 0
-2 11 30 0
-32 -37 -20 0
-8 -38 -22 0
22 -6 35 0
33 -43 -8 0
-33 -13 -31 0
27 -26 -20 0
-43 10 -36 0
32 -35 7 0
-17 13 -21 0
-8 25 -41 0
46 37 8 0
1 -19 36 0
32 -41 27 0
-43 1 3 0
-45 -10 -32 0
-6 50 49 0
17 26 -8 0
-13 42 37 0
21 44 -10 0
-28 15 -50 0
12 8 -24 0
40 -35 -22 0
21 -43 -29 0
-39 -19 45 0
30 -40 4 0
10 45 -13 0
-6 -34 -3 0
43 -44 -37 0
-22 8 43 0
21 45 14 0
14 -20 -50 0
-9 -40 44 0
-26 38 50 0
-32 11 -46 0
38 45 -3 0
18 -44 11 0
-40 8 -42 0
-17 25 35 0
-39 41 -35 0
-44 -9 10 0
45 28 25 0
-42 -45 -49 0
-2 9 -23 0
18 38 -22 0
50 2 29 0
22 48 -8 0
17 2 11 0
-32 -7 -15 0
49 11 12 0
-39 -15 14 0
-2 -49 47 0
-42 -22 -24 0
-28 -29 -30 0
11 1 40 0
-28 24 -23 0
21 -3 45 0
-39 36 -15 0
-11 -36 -12 0
31 45 -12 0
33 -5 -36 0
49 18 20 0
-41 -1 47 0
-38 -41 -4 0
23 -35 49 0
38 30 -32 0
-1 30 -10 0
14 30 -6 0
-44 -23 -7 0
-2 50 -16 0
-24 30 -44 0
39 9 -1 0
37 -6 7 0
34 -15 -46 0
-21 -31 7 0
49 -38 8 0
47 24 -17 0
-38 -42 -27 0
27 -7 -39 0
-29 47 -25 0
9 23 -16 0
22 -20 -49 0
43 -21 -35 0
21 -6 34 0
26 -10 31 0
-5 -33 -10 0
16 -12 41 0
-23 -2 18 0
-14 27 40 0
19 -37 36 0
18 30 -47 0
-47 -27 -4 0
23 -41 3 0
12 17 -23 0
-2 -49 -4 0
16 39 -31 0
9 30 -23 0
-31 -9 -44 0
49 -28 -48 0
-27 19 5 0
-28 39 -22 0
-31 30 1 0
45 -38 30 0
2 15 6 0
-25 37 1 0
-33 -18 -19 0
38 -31 2 0
2 -42 -37 0
-13 16 -35 0
-20 21 -22 0
-7 31 -5 0
-2 -10 27 0
16 -9 37 0
36 -50 -5 0
-2 -26 18 0
-13 15 10 0
-6 24 26 0
24 12 -3 0
42 -8 -30 0
38 -5 9 0
3 -11 -5 0
44 -32 -26 0
-8 -39 19 0
39 13 -21 0
48 -24 37 0
13 -2 18 0
-31 -22 33 0
13 19 -38 0
-8 -33 2 0
-39 -13 18 0
-48 12 1 0
39 30 -40 0
21 38 -4 0
20 -28 1 0
-6 -7 9 0
-41 9 -44 0
49 5 -28 0
-41 39 37 0
12 17 6 0
-21 -5 -41 0
-44 29 -2 0
-5 25 -17 0
12 42 28 0
-32 -46 38 0
-21 -27 -1 0
18 -5 34 0
2 -41 -20 0
-50 -38 26 0
-47 17 19 0
50 27 32 0
-11 35 39 0
3 -33 -49 0
9 -23 -15 0
-15 5 34 0
18 49 -13 0
27 -14 26 0
37 17 18 0
-25 -49 -45 0
-31 43 -1 0
-3 44 14 0
-3 -45 37 0
-21 -32 37 0
31 48 3 0
-36 -37 11 0
6 15 -47 0
46 -29 -6 0
-49 24 37 0
46 38 -13 0
7 10 -26 0
-26 -14 -19 0
17 4 -27 0
40 29 -42 0
-4 -49 -31 0
