c Random 3-SAT formula for benchmarking
c Generated with seed 130
p cnf 1000 4260
-533 -436 280 0
-367 246 -596 0
675 967 -542 0
-22 425 29 0
-671 -834 -512 0
-744 385 826 0
561 802 -562 0
119 935 -159 0
-413 -106 289 0
375 776 -878 0
-125 263 -445 0
276 437 647 0
-142 515 351 0
-820 600 -887 0
-514 -41 -55 0
476 -574 93 0
370 -466 -286 0
919 -184 588 0
858 -185 364 0
590 -401 -175 0
306 904 219 0
-855 -742 429 0
-469 328 672 0
204 656 -4 0
-310 942 -452 0
825 282 718 0
-762 -205 687 0
630 558 913 0
-490 -237 -790 0
-134 -620 -458 0
863 -479 -484 0
20 -12 -692 0
379 -423 15 0
139 172 74 0
76 -299 923 0
890 -274 916 0
-765 -492 -884 0
-570 -554 389 0
237 -352 345 0
-549 152 -792 0
-908 842 -200 0
-214 -46 646 0
-292 626 -182 0
-571 -206 278 0
450 664 -726 0
-443 363 -372 0
-610 997 233 0
-922 -369 132 0
945 961 593 0
-958 244 249 0
857 -618 -386 0
656 -131 -182 0
-521 -667 -565 0
-192 377 311 0
-143 850 -456 0
552 -684 873 0
623 595 976 0
962 747 801 0
-811 -871 -835 0
-13 115 359 0
-452 -790 270 0
6 926 768 0
-935 -589 469 0
-257 735 -305 0
-216 -441 -487 0
572 -723 100 0
-440 886 199 0
582 -131 921 0
356 -331 -33 0
-95 -361 731 0
398 787 -859 0
241 419 -109 0
382 -896 230 0
534 108 371 0
-211 735 -704 0
972 672 -303 0
223 27 15 0
-42 256 968 0
-358 -925 625 0
-903 583 -885 0
54 680 196 0
393 749 681 0
130 -510 -743 0
-875 -885 -8 0
-464 837 -758 0
-49 -772 -275 0
543 -7 214 0
-55 382 -189 0
-222 -750 -75 0
-557 773 -291 0
504 288 711 0
906 479 -636 0
143 -318 -576 0
-964 73 -481 0
-442 -23 258 0
-903 -272 -837 0
-642 62 -82 0
-489 960 299 0
523 355 616 0
-400 -532 -883 0
736 -802 989 0
26 337 111 0
-711 914 107 0
-853 775 548 0
276 -672 -745 0
64 -572 -452 0
465 -808 -54 0
-760 344 -546 0
-211 455 -831 0
9 -157 639 0
-880 247 -136 0
10 871 12 0
-363 -160 -241 0
944 -753 -629 0
-58 932 -409 0
-457 752 36 0
-360 -554 -82 0
-804 483 -465 0
85 789 105 0
-153 -845 155 0
-845 714 -719 0
110 -352 513 0
-107 549 64 0
-667 171 -707 0
-335 533 -693 0
30 181 -79 0
829 76 -328 0
-800 841 -426 0
110 -267 998 0
503 466 -777 0
-774 453 153 0
569 -187 7 0
938 -982 284 0
119 -396 431 0
324 -283 317 0
274 986 303 0
813 214 556 0
-874 937 -58 0
-720 -789 731 0
-222 -45 22 0
-379 -943 429 0
-537 251 958 0
-667 840 -267 0
-156 951 601 0
12 -538 608 0
-21 -435 -686 0
-517 -877 274 0
-738 815 958 0
-929 -867 127 0
-885 343 938 0
-774 268 -946 0
-167 174 113 0
332 -565 498 0
-294 849 -569 0
988 856 863 0
312 737 607 0
-405 -7 -333 0
505 -903 -323 0
139 -280 -918 0
305 -473 -309 0
-553 -831 51 0
-892 667 764 0
-515 60 617 0
355 -490 243 0
730 567 440 0
-353 -406 57 0
-40 -712 888 0
588 -99 870 0
-279 217 375 0
-925 -661 -498 0
549 29 316 0
-636 381 -303 0
524 202 -389 0
-523 550 -538 0
-722 517 -609 0
683 144 336 0
823 -434 -368 0
-651 -601 65 0
528 296 520 0
763 -750 -536 0
342 924 159 0
-648 -360 -497 0
210 238 -845 0
-623 659 223 0
70 -593 745 0
10 713 604 0
-98 858 -708 0
238 316 -5 0
452 416 958 0
-719 -265 -75 0
382 -835 -39 0
496 -95 -34 0
104 806 -42 0
690 903 636 0
390 426 632 0
-488 -220 430 0
-557 -995 -530 0
-352 966 -418 0
-887 -527 333 0
429 515 -83 0
-484 758 -58 0
310 -459 150 0
451 -576 -642 0
565 -191 592 0
-872 705 -361 0
487 837 -951 0
-429 -591 -933 0
40 457 933 0
535 435 699 0
-952 887 48 0
-699 -127 68 0
101 -105 416 0
-75 -445 -300 0
513 -902 -158 0
989 953 -807 0
660 28 -431 0
405 -940 789 0
9 163 837 0
-756 -714 -461 0
-319 941 235 0
461 400 466 0
-147 -411 532 0
769 474 -615 0
870 976 -743 0
522 -565 -785 0
-975 -561 426 0
-967 507 -930 0
99 945 -468 0
742 53 -718 0
509 353 1000 0
-422 938 982 0
-252 552 -415 0
704 466 31 0
540 -155 163 0
-690 -954 -18 0
-894 -781 -954 0
-39 -542 84 0
24 -711 -942 0
298 882 -834 0
793 -343 -187 0
486 567 606 0
-248 865 266 0
-181 -616 31 0
-512 -55 -917 0
820 -783 773 0
-544 -533 855 0
-705 831 166 0
561 -251 803 0
-664 -228 -390 0
-241 -344 275 0
608 -536 -128 0
501 254 131 0
-381 -302 506 0
414 815 500 0
-672 -451 -801 0
-721 -900 30 0
-297 -274 146 0
315 90 -552 0
675 649 -810 0
516 -432 -293 0
-218 915 705 0
-350 -169 -241 0
461 -623 -885 0
969 273 995 0
359 -888 745 0
701 -432 691 0
-739 344 -183 0
-871 -668 -663 0
22 963 418 0
293 -211 940 0
280 -214 -197 0
-722 805 615 0
925 -22 971 0
834 -952 125 0
975 -779 643 0
-233 980 -471 0
-849 -624 227 0
972 -708 991 0
-715 821 58 0
2 -359 267 0
182 -305 744 0
365 -878 516 0
-221 407 489 0
845 -879 315 0
-504 983 364 0
736 603 436 0
892 -678 -403 0
-224 406 -863 0
896 -238 -795 0
-659 375 -1000 0
887 831 -80 0
-87 -156 -230 0
874 473 682 0
594 367 -889 0
687 990 -925 0
896 329 -437 0
-253 -274 245 0
-862 -86 702 0
382 577 752 0
-257 442 -700 0
-444 -876 896 0
-828 -807 -121 0
653 515 121 0
-134 126 -435 0
472 -249 -69 0
206 -2 781 0
-228 -699 843 0
-978 618 600 0
862 921 834 0
-967 -704 680 0
667 -510 -838 0
876 -643 -11 0
873 349 263 0
-36 -300 687 0
563 -1000 122 0
159 602 309 0
289 -557 -931 0
513 -235 899 0
102 504 872 0
874 187 63 0
319 -87 -918 0
-500 240 894 0
-602 102 621 0
331 744 232 0
-940 -209 -872 0
982 -616 -782 0
142 686 -469 0
53 -148 -682 0
496 -393 729 0
210 -432 14 0
-452 -439 885 0
984 664 -85 0
-963 538 -669 0
892 321 -18 0
583 -991 907 0
487 -752 659 0
-712 -885 -164 0
-458 -389 474 0
2 -755 -181 0
-541 -547 738 0
493 -508 -761 0
981 143 563 0
-241 -247 852 0
-34 -942 -488 0
-597 -581 -878 0
-924 -490 116 0
-204 289 -406 0
-41 -571 590 0
-88 344 -867 0
31 859 -997 0
564 -431 -354 0
-858 336 -204 0
-918 -767 -645 0
-88 -306 -196 0
53 -683 -865 0
743 -279 794 0
-479 162 -790 0
9 821 -221 0
795 -65 -420 0
-135 370 -427 0
586 614 579 0
-351 -810 500 0
-531 -594 -38 0
-149 -207 -991 0
-246 962 85 0
-573 595 -117 0
-775 -956 884 0
-263 431 912 0
922 -267 -694 0
-360 -930 -300 0
-168 47 -399 0
-724 -874 -71 0
-338 410 618 0
715 -310 301 0
484 -358 108 0
897 941 28 0
-706 386 352 0
-810 -726 -607 0
-627 662 136 0
-318 -143 564 0
242 121 -761 0
198 -594 165 0
737 689 400 0
-662 -298 335 0
6 -207 -771 0
-82 12 407 0
-908 684 -810 0
241 604 143 0
-563 499 511 0
-385 771 -20 0
183 -794 83 0
280 982 -40 0
251 -400 -192 0
-463 419 -502 0
668 896 146 0
376 -96 963 0
-729 -525 687 0
155 729 854 0
-661 -926 96 0
140 745 898 0
14 -619 -402 0
927 -528 623 0
298 290 380 0
595 766 53 0
61 738 -919 0
308 853 610 0
-260 -881 -938 0
663 574 -431 0
650 -253 -38 0
-961 -352 -351 0
352 -956 362 0
-566 -686 342 0
130 -945 578 0
47 -584 79 0
788 948 -38 0
910 -945 37 0
-554 -396 -55 0
-330 363 -507 0
-25 81 791 0
-158 319 773 0
37 785 512 0
134 -455 -218 0
-832 -508 -774 0
-442 761 -2 0
575 -408 -389 0
613 -338 -580 0
463 666 712 0
-204 -90 -181 0
833 751 -470 0
366 -608 -952 0
720 -1 436 0
-468 465 641 0
-379 322 -762 0
-499 84 -14 0
439 737 -668 0
710 -984 -328 0
-955 529 403 0
315 -363 -196 0
920 990 -899 0
198 -774 402 0
-397 -542 -405 0
-987 -191 -330 0
163 420 484 0
-862 688 -750 0
958 -395 52 0
-34 -356 -725 0
719 443 572 0
-406 -680 -722 0
-193 -61 -376 0
-770 64 -337 0
-547 216 869 0
395 39 270 0
75 -898 -885 0
-237 -890 978 0
869 -566 -383 0
-186 526 327 0
349 859 39 0
-223 -708 150 0
818 -150 -471 0
-292 -588 678 0
161 -490 87 0
532 190 -840 0
123 21 -897 0
-519 -620 960 0
970 292 505 0
-887 -857 -639 0
818 -588 842 0
857 651 46 0
-100 178 872 0
-288 600 -372 0
879 247 756 0
-225 54 680 0
-524 729 -400 0
173 425 692 0
-597 74 524 0
15 -887 -418 0
352 149 531 0
-783 -767 295 0
-456 119 550 0
27 -698 -86 0
-665 755 -207 0
-543 607 -982 0
409 612 -383 0
-287 226 -740 0
-133 -608 -433 0
325 -978 -76 0
-643 -570 273 0
-283 876 -358 0
-608 -936 367 0
-777 -820 243 0
-127 -928 829 0
874 568 979 0
-792 696 5 0
99 116 832 0
784 647 -203 0
437 -420 -118 0
614 -359 488 0
713 808 -774 0
-513 734 587 0
823 862 -34 0
-880 -861 -405 0
-673 694 723 0
-951 -834 516 0
-883 -18 -211 0
-443 -818 -213 0
-970 -243 276 0
469 84 874 0
987 -326 466 0
-218 526 1000 0
-725 496 -344 0
577 74 -7 0
867 -276 -890 0
278 517 -643 0
596 87 -202 0
-878 21 -208 0
-925 374 303 0
983 -254 504 0
114 744 483 0
736 72 285 0
-665 -1000 957 0
-935 -655 -84 0
875 -824 -876 0
-316 -402 537 0
398 218 312 0
894 46 -562 0
29 -499 -32 0
587 624 464 0
116 -985 -517 0
567 -956 -908 0
-220 721 416 0
602 38 513 0
8 421 -779 0
649 -841 782 0
-59 -455 368 0
181 -795 89 0
248 -450 302 0
794 776 378 0
701 -283 234 0
-486 -456 -773 0
-305 -761 -863 0
-774 -619 720 0
-810 876 968 0
981 -153 892 0
-956 -43 -235 0
-842 115 -331 0
224 -307 -46 0
724 -132 866 0
-382 -665 -814 0
618 -600 -146 0
898 -159 -407 0
-955 198 -534 0
-361 766 -413 0
783 -620 389 0
-359 -719 -307 0
-129 718 -898 0
-255 -452 90 0
-610 -417 15 0
-254 28 -350 0
-885 -581 160 0
-874 107 -739 0
638 758 841 0
36 -926 -318 0
-292 -438 -210 0
115 880 -622 0
276 955 995 0
222 78 -145 0
-239 -606 492 0
729 -189 -366 0
-684 403 3 0
583 -698 -42 0
-924 591 831 0
880 367 -71 0
766 667 1 0
-926 81 -255 0
-856 -660 394 0
-13 -854 -989 0
904 -848 472 0
-854 128 992 0
320 -220 -687 0
773 -578 159 0
879 -198 -47 0
965 -548 63 0
-924 426 -721 0
900 -734 -252 0
-184 226 -699 0
-147 668 -131 0
784 755 -623 0
-63 -164 -412 0
511 17 825 0
-196 623 -952 0
-792 770 -944 0
-868 -829 -685 0
-729 -603 190 0
-279 242 -766 0
-437 -22 786 0
24 313 -940 0
-304 -704 -706 0
181 201 987 0
-893 -396 -173 0
-460 -215 528 0
777 774 736 0
914 515 42 0
724 593 368 0
405 -319 97 0
245 -346 691 0
397 959 333 0
134 299 -845 0
-395 593 872 0
167 469 -124 0
406 314 16 0
899 340 578 0
97 2 251 0
-704 629 -259 0
-141 711 105 0
1000 -504 592 0
95 -651 705 0
72 154 -508 0
-951 937 -850 0
-144 -214 -978 0
528 -4 -404 0
-311 84 998 0
-539 538 -993 0
-421 810 522 0
997 -814 674 0
-259 -50 636 0
-108 -10 157 0
524 -962 771 0
116 334 684 0
704 978 749 0
230 178 -93 0
-372 -149 761 0
-628 506 279 0
990 842 366 0
-758 -670 133 0
-218 -668 542 0
493 832 179 0
-240 668 -621 0
169 -236 -208 0
-653 -179 960 0
-638 -659 39 0
-23 998 31 0
-639 272 748 0
415 -466 -23 0
855 818 -945 0
-647 -693 -594 0
316 -178 -806 0
-225 -526 -157 0
-316 720 324 0
595 -563 -220 0
257 839 671 0
144 51 959 0
996 249 -987 0
-294 806 470 0
-183 478 -149 0
-655 -58 -466 0
-531 688 -641 0
-841 -300 -149 0
-415 796 218 0
925 -782 -507 0
620 -911 657 0
817 -293 -516 0
-222 829 -664 0
707 398 695 0
-958 -97 -207 0
-713 137 209 0
-644 806 -638 0
-34 739 592 0
862 160 -206 0
-23 384 -185 0
-28 -618 -628 0
-179 948 243 0
869 337 -775 0
-734 309 -862 0
513 187 995 0
-601 -13 -781 0
566 529 93 0
-328 779 -62 0
-148 802 -553 0
-559 331 889 0
-720 -842 -172 0
-601 -896 -651 0
51 -619 -933 0
-114 -1000 -722 0
59 639 -50 0
254 -4 483 0
-567 463 -667 0
305 581 -235 0
169 161 -463 0
979 131 -975 0
661 -664 917 0
-398 -605 283 0
404 -728 -739 0
-611 954 -590 0
47 446 788 0
593 569 -521 0
-59 298 917 0
15 911 829 0
405 868 495 0
925 -482 491 0
494 -164 -134 0
557 937 232 0
-606 -24 -778 0
452 237 -262 0
-132 71 10 0
-333 587 -454 0
-393 153 518 0
522 -374 227 0
-33 -663 23 0
78 351 -585 0
523 858 -825 0
683 -578 -190 0
439 983 19 0
-652 -533 -15 0
183 -110 -644 0
471 205 649 0
-814 -796 463 0
297 399 -532 0
627 863 870 0
758 912 522 0
-900 467 -528 0
616 364 9 0
-988 -333 -725 0
-554 282 -243 0
946 -675 979 0
-498 -398 -618 0
-123 532 325 0
-330 -832 -487 0
637 -454 391 0
261 -619 -861 0
-622 -972 -64 0
624 -213 495 0
-599 -47 1000 0
519 270 700 0
31 114 -478 0
312 -325 575 0
164 -343 761 0
458 -275 -492 0
-106 54 -667 0
-796 -195 -270 0
694 888 -952 0
357 83 170 0
-413 -248 75 0
-321 -108 -838 0
157 84 356 0
267 983 -374 0
-964 -507 -571 0
-592 -721 363 0
6 398 125 0
268 -640 537 0
-518 -321 -698 0
624 -755 72 0
-666 238 -890 0
-631 -762 711 0
-81 581 163 0
567 -228 783 0
131 141 661 0
261 347 623 0
-981 479 -74 0
38 492 614 0
170 -378 -844 0
355 633 -488 0
475 -801 -352 0
158 -112 -239 0
-552 -201 614 0
-559 911 -100 0
229 -6 -255 0
-988 827 -374 0
923 884 228 0
-791 527 679 0
953 -652 823 0
-848 943 531 0
-40 -442 198 0
-605 -636 -953 0
-134 -981 -350 0
-488 -751 953 0
-510 489 -752 0
142 756 -436 0
-759 849 -717 0
-783 777 -619 0
-697 9 -711 0
-38 -609 94 0
-402 980 -511 0
212 168 63 0
-859 786 354 0
417 897 530 0
-318 276 963 0
-317 -801 -34 0
270 -907 -757 0
-681 -111 -64 0
-11 -567 434 0
559 435 533 0
359 -960 483 0
-1 -330 733 0
-787 793 427 0
738 -758 475 0
-172 262 -681 0
18 -17 -954 0
-170 38 361 0
509 -555 -338 0
755 -203 616 0
-427 523 681 0
694 164 -412 0
396 -332 -365 0
-413 -931 -114 0
11 449 150 0
165 -119 -21 0
-265 -941 -180 0
203 462 -428 0
30 986 142 0
-710 -385 340 0
-993 -276 543 0
956 312 414 0
-507 633 -374 0
380 750 -713 0
-220 -469 -903 0
165 -346 474 0
549 520 -121 0
-329 -22 -616 0
-101 611 -354 0
-745 -888 463 0
-631 869 -394 0
-651 884 -872 0
-437 -36 673 0
-134 243 -380 0
917 -936 -926 0
185 323 358 0
557 -741 -560 0
134 21 -657 0
707 159 -919 0
656 355 704 0
488 910 -583 0
-230 51 981 0
-336 774 954 0
237 -637 153 0
87 429 -611 0
-238 -417 977 0
-402 366 -127 0
-416 -992 730 0
-738 309 220 0
871 -829 -259 0
-704 -371 -263 0
122 -645 -790 0
-472 419 -614 0
-356 527 282 0
-471 541 -187 0
907 -448 -562 0
-820 -761 -462 0
426 -709 929 0
-601 -420 -88 0
297 -303 -594 0
254 -948 -733 0
-822 14 -12 0
319 -440 -943 0
-523 -599 -724 0
291 854 -916 0
994 -777 568 0
-124 114 834 0
450 30 -107 0
946 -253 775 0
-903 306 77 0
-808 -92 -388 0
236 -206 771 0
776 382 289 0
-456 793 -535 0
-271 -700 258 0
-194 824 -892 0
504 82 -52 0
-139 -8 -181 0
782 296 -389 0
872 -757 346 0
428 503 -288 0
-497 836 788 0
664 811 274 0
-517 -608 -110 0
989 -288 -394 0
-859 -676 -780 0
-691 149 -18 0
-793 -871 310 0
-402 778 -423 0
-875 -295 -277 0
788 -111 985 0
371 -369 -901 0
487 567 306 0
-291 749 -410 0
32 549 -129 0
-491 -768 497 0
966 -125 469 0
936 -291 269 0
-407 -36 384 0
554 667 -510 0
-444 -582 -291 0
-649 489 471 0
-809 121 480 0
-994 526 -342 0
-911 456 856 0
-315 250 -560 0
516 -423 -233 0
118 993 546 0
-783 596 517 0
775 701 833 0
356 -38 636 0
-861 64 574 0
170 -464 -652 0
-462 662 776 0
319 -703 -636 0
616 521 -83 0
-569 -863 320 0
-476 310 392 0
636 -651 921 0
729 437 890 0
582 -637 939 0
430 -690 -237 0
113 265 10 0
225 -494 -878 0
913 -603 690 0
-615 -21 832 0
-99 248 -726 0
-594 27 -921 0
-864 -225 787 0
789 -105 444 0
-794 415 198 0
-53 -346 679 0
475 561 -805 0
606 646 -850 0
335 -316 268 0
852 -620 -388 0
182 -452 -450 0
512 -841 -592 0
879 346 -227 0
341 -575 -54 0
-584 -598 -723 0
-266 -298 843 0
601 -548 231 0
361 -404 -841 0
316 747 328 0
804 762 -699 0
309 -887 932 0
628 -617 -258 0
37 -662 237 0
196 -683 -339 0
-920 -444 -832 0
-158 523 513 0
-685 715 791 0
653 887 135 0
-980 -710 -78 0
-409 242 596 0
864 488 634 0
-487 642 -505 0
823 358 740 0
882 -416 460 0
662 -586 599 0
-189 -814 -510 0
573 710 -271 0
337 -485 -393 0
-498 -10 143 0
-394 -832 659 0
967 624 -570 0
-879 -978 61 0
-926 855 -889 0
776 -381 -129 0
242 -583 759 0
45 737 -854 0
748 -87 -911 0
750 23 -578 0
567 43 -731 0
66 -673 -451 0
983 -60 973 0
-605 781 -899 0
850 517 -381 0
299 -203 486 0
169 876 -888 0
-527 -818 888 0
-247 -367 560 0
396 -684 738 0
-579 418 -900 0
-34 -385 348 0
-931 -500 461 0
297 199 713 0
539 -13 108 0
706 -618 312 0
695 -614 248 0
-81 -141 54 0
218 435 13 0
947 433 73 0
-553 -877 -231 0
-496 -239 417 0
343 -924 -852 0
53 488 167 0
-31 -274 828 0
111 620 -964 0
-606 -194 29 0
-602 300 -173 0
692 -829 -427 0
-131 324 839 0
876 -566 -722 0
-35 -567 787 0
304 42 440 0
-190 140 -44 0
-68 346 247 0
-64 -232 -770 0
-657 -596 -304 0
29 649 -176 0
401 464 899 0
-997 765 391 0
-5 296 -188 0
-204 -999 -322 0
162 -766 556 0
-608 -80 -56 0
-254 -491 712 0
-444 221 978 0
-932 640 764 0
-940 -995 -602 0
-674 727 -114 0
-45 -756 -582 0
-460 -700 59 0
637 -394 295 0
9 -646 993 0
828 -34 -652 0
-952 990 -526 0
708 823 378 0
934 684 -718 0
-249 126 -406 0
299 -528 -165 0
378 825 857 0
754 -221 934 0
-408 838 669 0
-487 -464 421 0
-843 -212 523 0
197 118 565 0
-904 -193 -122 0
359 -880 -914 0
-987 151 204 0
929 -650 -426 0
449 -19 -347 0
-226 -539 299 0
-496 993 -49 0
-692 -608 651 0
-649 -130 -964 0
803 710 -390 0
669 -310 -141 0
23 178 994 0
-265 -441 -245 0
772 370 -831 0
-724 -752 -134 0
730 603 -170 0
234 190 910 0
-273 99 702 0
-424 23 873 0
-987 177 -227 0
-163 -80 -445 0
426 -909 32 0
-239 -568 420 0
-150 -816 921 0
-251 282 -307 0
822 214 41 0
243 686 5 0
-362 710 934 0
12 967 -868 0
914 -265 547 0
-313 -467 571 0
268 567 918 0
-37 -400 -869 0
962 -741 365 0
-250 908 449 0
-548 -578 -473 0
877 899 -531 0
-524 849 -891 0
-947 -528 -123 0
817 818 390 0
848 324 80 0
465 -167 303 0
500 706 598 0
747 749 -735 0
216 521 741 0
-556 -795 -260 0
-251 869 270 0
-106 757 -147 0
-418 419 390 0
476 211 604 0
198 913 914 0
122 -316 605 0
-372 -211 97 0
-86 -952 -233 0
-857 406 -267 0
127 679 281 0
249 -533 -900 0
-599 -221 -612 0
338 -220 -477 0
709 -107 185 0
-718 -755 139 0
840 398 357 0
-633 -438 249 0
429 -160 -360 0
-317 969 -866 0
896 445 -757 0
-102 -605 -653 0
362 -508 -120 0
246 592 276 0
-881 255 348 0
-823 46 481 0
325 231 329 0
-976 -12 880 0
572 901 988 0
942 813 -747 0
640 57 806 0
-157 -189 580 0
-635 -792 -947 0
-236 -47 293 0
134 681 671 0
-76 822 632 0
-766 -988 -822 0
-533 -990 -397 0
-833 -612 -852 0
571 -248 635 0
392 -976 -210 0
243 -569 -944 0
302 -68 -851 0
357 -750 -762 0
-103 556 55 0
-242 -989 -965 0
371 152 -531 0
745 388 144 0
-226 842 -785 0
-278 -319 697 0
-185 387 835 0
819 630 764 0
425 -798 323 0
-354 210 557 0
694 -850 -13 0
796 212 -836 0
368 -882 -673 0
-523 -890 650 0
979 -937 64 0
721 249 901 0
-960 840 -801 0
956 -870 -351 0
-741 387 521 0
156 157 -423 0
-233 -143 -164 0
799 54 -988 0
22 -95 435 0
354 743 -410 0
-599 -704 -568 0
-306 -584 -845 0
-819 266 -46 0
-282 991 204 0
392 -174 172 0
173 -328 751 0
-596 184 884 0
616 577 -325 0
897 -513 -157 0
-405 -449 634 0
8 -805 -229 0
77 910 -140 0
-883 332 -163 0
797 -939 354 0
-296 -55 926 0
85 345 407 0
593 -390 943 0
394 -283 351 0
-234 -408 -20 0
722 -846 527 0
-732 -638 -933 0
-437 -19 -141 0
5 279 -245 0
741 -544 921 0
-770 -609 -169 0
722 928 -568 0
-481 -190 -530 0
-888 -592 214 0
-593 54 -315 0
-404 143 399 0
-242 -636 -179 0
-163 -598 694 0
-977 -47 982 0
906 45 263 0
438 752 -892 0
683 -568 -395 0
691 918 -212 0
-876 -353 -927 0
175 -871 -118 0
-316 -138 747 0
-51 946 -671 0
-615 318 -460 0
823 448 475 0
-232 -707 -614 0
-142 830 956 0
-916 791 -566 0
-796 -236 332 0
439 -367 808 0
-626 556 381 0
91 -715 4 0
-127 -553 -196 0
-434 981 676 0
548 -351 -324 0
-612 953 37 0
177 -27 -223 0
776 -472 -344 0
-625 735 316 0
-281 -97 -70 0
409 978 625 0
-312 -174 -619 0
-423 824 563 0
638 273 -548 0
94 604 -599 0
-118 -595 -211 0
-323 403 -362 0
234 -32 636 0
618 -185 -165 0
-825 667 352 0
-697 -660 950 0
225 586 -262 0
-139 770 272 0
290 577 846 0
346 -180 892 0
156 482 783 0
705 666 -390 0
-915 209 330 0
-320 503 823 0
491 455 -966 0
309 183 -219 0
-237 485 -42 0
718 -468 -415 0
450 8 -238 0
422 374 -351 0
839 770 -154 0
61 -750 -77 0
842 130 310 0
-704 86 736 0
-868 -497 653 0
-720 -182 723 0
-391 -916 390 0
-625 213 259 0
610 583 -680 0
125 30 -710 0
-772 743 -920 0
286 839 -612 0
149 617 -620 0
-297 12 -545 0
-308 37 -726 0
509 193 508 0
812 970 -452 0
-537 -782 -716 0
364 296 -352 0
-472 362 972 0
-837 859 -289 0
-684 -52 -788 0
163 -402 -810 0
-407 -624 -560 0
-727 570 -665 0
-587 -50 -253 0
-604 -431 -500 0
843 854 -950 0
-25 -280 -754 0
-538 -273 651 0
6 100 -79 0
-564 98 -199 0
332 -288 -785 0
32 -10 -631 0
-192 79 388 0
-983 95 478 0
-454 662 163 0
-600 166 -52 0
694 -604 161 0
637 -813 963 0
-794 650 -429 0
-332 -992 -73 0
-981 -253 -440 0
-874 924 526 0
370 155 665 0
-114 -678 -177 0
565 -202 886 0
955 218 -651 0
-294 -212 -656 0
958 781 -156 0
826 105 553 0
88 -382 -70 0
-649 158 546 0
-541 -836 387 0
-245 -508 -627 0
28 219 -282 0
-445 -880 869 0
700 -810 972 0
133 468 736 0
-411 377 -607 0
-583 354 794 0
993 -985 -372 0
-574 -412 -780 0
137 21 -199 0
203 542 -193 0
-230 -138 488 0
572 991 437 0
862 -427 -274 0
-362 144 -334 0
185 275 -41 0
187 378 -105 0
-569 424 768 0
86 -503 -543 0
440 -449 695 0
495 642 46 0
779 -807 120 0
-649 -786 726 0
255 -890 -276 0
-599 361 -201 0
-442 -795 345 0
855 487 -754 0
177 -369 841 0
301 628 -482 0
35 -967 -292 0
-191 446 -814 0
-68 -374 -364 0
675 920 820 0
-22 -862 296 0
-195 -250 -208 0
258 138 -15 0
-950 971 137 0
-571 -528 983 0
-594 681 824 0
-745 593 -522 0
-729 969 294 0
748 -793 -840 0
284 -996 152 0
538 -219 300 0
-280 -594 608 0
-678 -221 -364 0
-212 125 -69 0
672 -515 -255 0
-926 -74 736 0
-201 278 388 0
568 -299 374 0
769 860 -502 0
-312 -683 -654 0
-898 314 399 0
-66 158 650 0
-252 -401 305 0
258 -496 435 0
-494 364 538 0
875 604 855 0
172 593 -839 0
277 873 -688 0
-648 -696 -70 0
-661 662 628 0
-542 301 682 0
853 -729 828 0
-337 210 386 0
496 -636 437 0
386 -45 314 0
-28 213 402 0
-264 91 221 0
-132 866 953 0
-347 3 -107 0
173 822 -230 0
-633 -615 -287 0
904 54 361 0
-948 -179 650 0
169 903 867 0
17 945 -397 0
-238 190 434 0
-650 -619 -421 0
570 305 -437 0
-488 746 946 0
118 99 -415 0
-922 735 730 0
411 -468 450 0
662 -509 833 0
294 893 79 0
34 472 222 0
-372 6 -695 0
882 422 -505 0
-67 621 -165 0
-159 -517 192 0
-388 132 727 0
-111 474 -813 0
413 686 -433 0
649 -442 -268 0
-58 448 -283 0
17 115 -608 0
-995 868 -411 0
549 -102 551 0
329 760 -188 0
-761 -486 -107 0
-315 200 -653 0
419 -119 431 0
-808 857 367 0
-372 328 998 0
-976 -464 -57 0
-48 104 922 0
27 -876 880 0
172 -130 710 0
894 -123 836 0
-267 131 128 0
491 948 -221 0
-120 -884 -737 0
-610 -61 312 0
881 -960 181 0
805 -807 -723 0
977 -818 -682 0
-273 343 -421 0
377 937 -276 0
376 20 706 0
-806 -457 -540 0
537 -978 -540 0
-709 -123 -783 0
-172 -510 583 0
485 415 133 0
-764 -283 194 0
221 -204 199 0
-642 -108 634 0
780 -358 -889 0
-560 740 -980 0
-539 922 103 0
963 965 -835 0
117 -276 279 0
640 -327 -463 0
-833 873 92 0
458 -867 585 0
470 -618 -988 0
-1 -912 904 0
-965 540 129 0
-456 284 -982 0
-108 -783 343 0
868 -75 -12 0
810 81 -223 0
790 -795 -888 0
413 4 -376 0
818 -305 686 0
-411 386 -875 0
80 -358 750 0
-633 829 180 0
-466 -261 -220 0
773 132 336 0
-813 525 -548 0
-232 633 -270 0
-551 -694 -66 0
-88 -476 958 0
-988 -14 -467 0
-483 119 -666 0
66 -974 -274 0
637 346 -389 0
-375 -521 -287 0
-906 -128 -616 0
-871 -501 411 0
105 407 810 0
-678 -716 -24 0
435 320 -900 0
-797 -28 -223 0
-353 907 24 0
-97 504 711 0
220 -46 131 0
-901 331 -980 0
252 -545 855 0
-704 -884 861 0
142 3 894 0
170 -892 133 0
-351 997 648 0
703 -387 944 0
-329 -944 40 0
864 -724 679 0
154 542 744 0
677 -188 176 0
-432 513 -194 0
845 549 -116 0
730 13 -903 0
122 -270 -928 0
955 -859 -327 0
660 -161 675 0
-644 -53 944 0
-905 14 700 0
-586 712 163 0
479 -96 160 0
-743 837 90 0
81 115 35 0
240 -736 -935 0
802 624 -900 0
-760 518 710 0
-808 709 -929 0
-552 -672 684 0
691 -219 590 0
659 -146 395 0
203 963 242 0
780 324 -782 0
-63 -22 362 0
-914 -734 -664 0
801 -760 -554 0
-326 -349 -977 0
120 -849 -522 0
354 152 146 0
260 162 -712 0
587 -814 -527 0
-848 242 131 0
-488 -98 773 0
257 132 838 0
858 -380 678 0
747 -761 214 0
375 852 -346 0
186 145 140 0
131 -604 640 0
382 739 336 0
-703 -76 661 0
495 -733 -882 0
529 -556 16 0
149 -886 -760 0
755 762 122 0
-687 761 290 0
607 -518 -729 0
-49 -996 -170 0
116 427 -319 0
776 903 -885 0
84 -91 -674 0
841 621 -91 0
-632 -76 -239 0
-157 803 -844 0
-471 -917 789 0
-207 992 124 0
614 -980 -104 0
-975 76 520 0
563 399 943 0
949 344 -837 0
418 374 -786 0
-278 377 -523 0
983 -172 -10 0
-807 881 -517 0
-343 -664 -387 0
-28 -849 -504 0
-897 505 -665 0
-666 -597 -415 0
166 -850 657 0
398 -688 -913 0
-903 5 -710 0
-694 463 -277 0
645 697 383 0
810 339 -321 0
671 191 -65 0
929 -875 -355 0
-880 318 -364 0
490 -107 -853 0
778 -525 938 0
-757 -401 -218 0
429 -234 85 0
-890 -994 339 0
-656 402 645 0
318 -254 813 0
-207 614 -480 0
427 -472 385 0
35 -107 200 0
965 -795 876 0
211 7 -632 0
622 727 -653 0
343 365 882 0
836 530 178 0
981 -882 -699 0
-589 -650 -241 0
-111 860 -663 0
-938 -544 703 0
2 210 -318 0
-553 -997 -944 0
-505 -518 -636 0
792 -896 561 0
-621 675 -875 0
731 180 129 0
517 940 319 0
356 204 835 0
-900 -736 669 0
980 -864 398 0
-347 -804 -379 0
-342 -783 531 0
230 -693 -21 0
426 -718 376 0
-606 -61 -461 0
22 403 -218 0
317 -800 -162 0
-134 35 -352 0
-808 -776 -836 0
992 -352 695 0
-746 639 897 0
-850 457 -209 0
-911 338 240 0
769 -555 829 0
-100 495 471 0
-21 -406 460 0
645 -664 276 0
97 -74 -602 0
-773 779 300 0
337 480 -493 0
-263 598 791 0
-858 -519 492 0
-729 -778 883 0
248 -239 967 0
-974 -684 914 0
-961 707 132 0
-172 737 479 0
799 988 720 0
-916 -568 405 0
-207 289 -355 0
398 -947 225 0
-506 -913 920 0
496 -428 -311 0
-847 713 307 0
168 -319 -910 0
-813 -769 213 0
-110 660 619 0
-193 -95 -549 0
164 -72 -289 0
43 414 975 0
818 -116 41 0
759 -68 784 0
-306 -327 -338 0
489 -496 314 0
966 69 -59 0
-838 590 -56 0
240 497 395 0
596 -378 37 0
471 174 234 0
-828 -575 466 0
713 -39 -643 0
-593 -961 -96 0
-786 939 862 0
-930 437 630 0
437 199 367 0
821 -275 538 0
185 732 -755 0
188 -858 487 0
-861 -704 379 0
-386 -528 826 0
-624 276 -666 0
-385 -864 -757 0
-486 370 502 0
675 804 -257 0
-203 -699 -744 0
-961 -886 678 0
742 -43 -810 0
-530 493 -677 0
-249 741 -971 0
-108 -470 865 0
-176 -343 687 0
-942 -932 172 0
29 -339 773 0
-449 -371 -992 0
48 257 800 0
491 329 774 0
583 11 -191 0
-611 -224 256 0
252 717 798 0
697 -683 -143 0
-257 -514 928 0
601 -792 990 0
-603 -34 941 0
734 362 -531 0
-780 551 250 0
-312 120 504 0
-343 -234 58 0
318 517 -798 0
781 88 -948 0
547 -463 -905 0
336 717 884 0
-221 684 501 0
-442 35 668 0
-347 881 222 0
128 207 -490 0
-841 -401 438 0
485 962 -990 0
-290 41 -762 0
-577 934 317 0
-633 750 609 0
-762 970 701 0
-687 -530 -648 0
297 484 515 0
877 749 970 0
-823 418 910 0
22 719 759 0
-211 10 -931 0
831 120 427 0
-151 857 -591 0
692 -572 -301 0
-542 167 -50 0
-974 252 -489 0
-565 534 695 0
489 352 -416 0
-981 -591 622 0
-360 587 -529 0
-337 -953 238 0
-276 822 766 0
901 -890 -37 0
-455 -842 379 0
-759 -357 861 0
-113 -684 528 0
18 -178 -892 0
-722 573 981 0
-397 496 870 0
-917 -614 801 0
-414 -256 -30 0
-730 348 518 0
-814 -399 -98 0
-262 475 111 0
-514 -618 -532 0
-455 388 -459 0
650 -898 -655 0
-623 -908 364 0
751 582 850 0
-347 -317 639 0
-231 160 -981 0
87 -810 98 0
249 321 986 0
676 9 168 0
454 374 907 0
283 262 712 0
-416 954 -638 0
356 624 281 0
-256 -157 -43 0
-461 -807 806 0
-660 23 -346 0
-999 -86 -117 0
-172 329 523 0
-839 754 537 0
3 -618 -329 0
-463 -311 700 0
391 -829 107 0
-634 951 -470 0
86 225 127 0
661 -949 438 0
-542 -316 -888 0
167 306 -786 0
565 785 135 0
-570 299 -741 0
-688 210 -906 0
-25 -255 -786 0
-390 124 895 0
-772 -343 886 0
-92 -133 126 0
-785 982 596 0
-860 373 -626 0
498 -59 -860 0
462 -510 -267 0
199 -142 338 0
964 16 981 0
-724 571 -276 0
-783 -126 249 0
-101 -303 953 0
-254 160 877 0
729 57 -602 0
-197 -518 -715 0
-611 242 -101 0
503 -538 -717 0
470 -749 -124 0
-257 157 -755 0
-645 -621 734 0
-631 155 385 0
-421 -686 65 0
744 -688 -240 0
-521 -491 -396 0
39 298 969 0
-724 371 -237 0
-724 786 -143 0
-942 402 978 0
-950 97 -958 0
658 188 -156 0
525 -750 643 0
737 271 621 0
676 -744 654 0
-619 -904 816 0
764 -986 -474 0
551 227 640 0
551 611 -798 0
237 -436 698 0
155 213 -203 0
114 87 722 0
643 892 -248 0
-885 -132 -855 0
-943 -841 -54 0
-455 96 -274 0
-644 149 -7 0
442 -380 -225 0
-975 405 310 0
243 -530 872 0
-794 -531 -778 0
3 -309 -62 0
52 -96 57 0
665 571 -682 0
-510 375 -949 0
-470 -493 714 0
532 -874 882 0
460 -552 673 0
221 -215 -316 0
347 -475 517 0
-878 6 96 0
869 67 -151 0
-57 -202 243 0
292 -434 701 0
66 497 123 0
-290 768 -604 0
-647 143 -959 0
-876 994 754 0
-723 -2 -773 0
-120 209 313 0
-250 -672 136 0
435 216 322 0
-265 -55 743 0
341 450 -549 0
-911 -458 -479 0
494 -431 810 0
-909 -393 -495 0
-276 -592 -570 0
884 -398 -272 0
-630 -762 -449 0
-934 -98 -917 0
-68 -341 584 0
-551 -963 -592 0
-327 894 -641 0
811 -976 -338 0
-488 326 86 0
-971 -634 554 0
541 -38 -43 0
161 -558 380 0
-841 857 -210 0
-774 -808 -265 0
-505 962 -863 0
-288 469 -124 0
734 -235 509 0
738 628 211 0
-665 -824 835 0
-935 -69 498 0
-177 -252 -576 0
-302 985 353 0
423 -259 349 0
-823 -367 -574 0
-381 39 899 0
512 984 59 0
972 -738 156 0
-668 956 -734 0
-738 -525 106 0
-490 -90 67 0
916 207 7 0
652 799 -458 0
419 581 176 0
-30 431 -916 0
-938 427 568 0
119 146 -806 0
-531 350 -782 0
790 583 53 0
93 811 -237 0
244 -445 399 0
968 200 -922 0
-455 58 49 0
-178 -558 782 0
88 194 -127 0
223 692 -724 0
17 676 -981 0
-731 -85 494 0
-625 165 -480 0
531 13 63 0
-667 429 255 0
-219 -360 132 0
-463 -818 462 0
-359 -527 201 0
898 -618 -76 0
563 -92 -297 0
358 -628 948 0
33 -618 -532 0
-111 -418 -742 0
97 -345 618 0
-257 708 -575 0
-823 -270 233 0
205 289 -138 0
381 -475 -174 0
710 121 573 0
-535 704 -255 0
-988 -353 686 0
467 451 814 0
-716 82 857 0
984 -711 586 0
113 224 235 0
-514 241 -985 0
-859 -214 -619 0
319 -906 -348 0
-502 -521 -24 0
-832 -505 172 0
144 -350 -299 0
-157 -193 -66 0
-588 -897 706 0
49 421 -225 0
-572 675 131 0
-851 477 -430 0
-508 258 -457 0
-67 -758 -814 0
-515 -871 517 0
580 -965 -837 0
722 -176 -509 0
-963 -696 -759 0
431 -534 356 0
-644 988 590 0
791 487 567 0
-383 630 -17 0
-777 734 536 0
-160 163 734 0
-390 -242 533 0
500 -57 -713 0
121 -593 -407 0
-189 -620 573 0
453 -612 420 0
418 884 543 0
507 -818 -720 0
955 -994 -789 0
420 28 -996 0
-534 -732 -419 0
-724 -612 103 0
442 -508 -714 0
-511 148 653 0
26 188 751 0
-414 -511 -920 0
390 -47 -888 0
-504 95 964 0
-746 -903 -985 0
-581 192 531 0
-176 -296 -552 0
-460 -652 742 0
-479 585 -92 0
132 50 381 0
31 196 870 0
-267 -948 -574 0
923 -653 209 0
445 973 -44 0
-234 375 555 0
982 -525 34 0
-164 -860 599 0
-277 531 599 0
-723 571 -351 0
-920 661 829 0
690 -643 209 0
308 312 -21 0
217 -57 -23 0
83 -264 -721 0
344 -289 -40 0
294 -351 53 0
-936 -325 -914 0
-985 988 684 0
736 472 -848 0
947 -110 794 0
335 921 -242 0
709 -962 364 0
34 391 118 0
-58 -390 -492 0
-100 -207 962 0
-938 42 384 0
-202 -558 543 0
620 501 -895 0
741 -921 -974 0
-111 276 457 0
120 -616 257 0
404 -279 457 0
401 -774 -157 0
319 718 992 0
78 557 -454 0
-465 -58 765 0
132 -59 634 0
565 -567 -404 0
11 103 -748 0
409 -294 -132 0
934 -440 -405 0
-944 449 524 0
706 -412 -570 0
510 -715 331 0
871 -886 -96 0
336 -637 784 0
-773 570 352 0
-548 -429 -696 0
313 104 779 0
599 -215 713 0
-748 737 77 0
304 234 179 0
-611 -429 326 0
727 895 -904 0
432 731 440 0
-675 358 -595 0
-665 134 -418 0
350 -475 887 0
944 494 823 0
716 -123 -414 0
951 504 -95 0
-475 -689 -834 0
-195 994 851 0
-819 639 752 0
-70 -505 -250 0
797 81 -24 0
-200 805 824 0
625 -762 -735 0
727 577 -774 0
-29 582 643 0
169 955 -405 0
749 -839 575 0
-239 899 -724 0
-762 -508 491 0
-583 582 -226 0
-24 -7 3 0
396 -233 736 0
-693 -73 804 0
545 -745 530 0
-246 -185 602 0
-156 404 -422 0
-190 -901 565 0
477 999 -8 0
939 493 -325 0
-751 216 913 0
-333 812 308 0
201 373 546 0
842 -757 907 0
766 646 840 0
-417 -267 -867 0
-673 995 342 0
118 -770 -464 0
-810 761 493 0
-328 -985 -624 0
-601 649 683 0
854 -999 -258 0
-109 -422 960 0
-490 -589 478 0
-849 493 -893 0
907 579 16 0
-690 -792 543 0
-853 -793 933 0
844 539 823 0
124 -649 -488 0
-943 848 -557 0
673 -953 -925 0
227 874 -925 0
-825 918 769 0
784 465 402 0
711 664 438 0
-814 -329 445 0
-488 -177 -601 0
498 566 186 0
582 -952 -197 0
312 -392 365 0
-168 -199 850 0
878 -520 -966 0
-828 953 -544 0
-828 727 -184 0
-75 -12 -525 0
-197 -371 770 0
-708 751 -783 0
-625 -390 -430 0
806 -289 -123 0
993 533 -136 0
-875 -18 -311 0
612 127 892 0
-994 -956 92 0
168 -917 -935 0
860 700 489 0
52 456 -634 0
-427 91 590 0
-291 -492 -589 0
566 -294 53 0
126 627 717 0
718 -165 258 0
-318 217 -779 0
-143 557 -650 0
-955 570 -215 0
-465 223 928 0
738 42 -916 0
-733 693 -677 0
514 244 849 0
-562 -934 -543 0
-161 -312 -494 0
-562 -309 -684 0
878 -582 -286 0
-752 956 -763 0
528 80 -646 0
730 -967 307 0
247 -600 290 0
268 -811 214 0
570 543 -545 0
-258 -767 -98 0
-973 -796 -166 0
16 610 -668 0
350 -411 -324 0
-512 -407 -813 0
-236 -470 736 0
631 720 -593 0
-979 -240 232 0
-469 -599 624 0
-940 898 977 0
-241 -157 -843 0
-741 728 713 0
922 -167 -266 0
-132 855 345 0
-779 561 -139 0
507 -151 993 0
273 371 113 0
326 539 -376 0
906 -5 532 0
-439 576 377 0
733 -300 586 0
-415 -188 -653 0
498 -19 29 0
-226 -409 312 0
-734 -527 -353 0
-316 248 -788 0
-20 983 75 0
-106 853 402 0
-199 -5 669 0
-760 -251 -164 0
128 602 -470 0
514 184 -400 0
617 -694 -528 0
626 839 -415 0
-252 232 80 0
82 -447 325 0
273 377 48 0
811 872 976 0
-849 -106 874 0
91 -158 -676 0
989 -493 -103 0
-442 -772 982 0
-716 814 -366 0
-483 529 88 0
836 -590 -188 0
386 512 380 0
-661 -704 765 0
921 645 334 0
185 380 866 0
-647 360 -409 0
539 590 862 0
-766 597 -324 0
-19 240 -474 0
908 -359 -905 0
80 -560 -855 0
982 -83 321 0
329 -485 930 0
-670 840 -459 0
707 -712 -559 0
-884 -931 960 0
319 -296 -645 0
-461 107 -60 0
32 -433 -734 0
682 -250 -957 0
-566 -45 403 0
790 122 -957 0
-998 -198 103 0
-467 906 -314 0
-885 271 -580 0
377 -884 -64 0
183 504 593 0
40 471 717 0
965 -427 -878 0
51 505 -693 0
-351 144 64 0
898 886 -778 0
-224 333 -327 0
369 209 -941 0
-186 379 -276 0
2 184 -129 0
460 420 -879 0
-482 674 275 0
-150 -924 559 0
472 698 564 0
216 634 -613 0
-699 894 693 0
-280 111 593 0
745 -840 -564 0
329 201 -45 0
60 -776 -236 0
-41 807 268 0
691 949 15 0
456 -336 75 0
-906 -566 -752 0
239 -34 284 0
711 292 -174 0
391 -472 779 0
-14 42 940 0
-243 -958 -587 0
-552 855 18 0
-701 947 991 0
451 989 946 0
-849 522 -497 0
653 -273 -935 0
598 -627 453 0
-781 76 79 0
-851 496 -858 0
-890 -317 612 0
-471 170 -366 0
427 299 -595 0
-73 -116 814 0
-439 482 -312 0
3 -68 933 0
933 -747 247 0
-202 -220 180 0
-400 62 -251 0
87 -240 -780 0
847 302 -223 0
-770 563 31 0
-78 -792 -13 0
-50 -156 -326 0
251 15 -412 0
-34 576 479 0
839 132 -462 0
215 -440 -298 0
-105 752 -615 0
887 -100 -275 0
-479 708 -763 0
-927 543 689 0
-885 -762 -269 0
-358 -323 799 0
441 -816 -852 0
-235 -849 292 0
253 -14 455 0
-766 250 -703 0
-641 184 673 0
687 467 -810 0
-32 45 366 0
-223 -195 -261 0
945 318 710 0
208 780 977 0
116 -34 620 0
187 -286 136 0
652 823 492 0
716 -172 -92 0
-749 -698 571 0
118 917 144 0
-188 973 915 0
64 -453 226 0
810 -865 -457 0
-829 -660 239 0
504 -532 634 0
-265 -575 -329 0
-554 -260 -503 0
565 -420 186 0
-611 -957 751 0
-685 -922 250 0
252 344 -595 0
582 983 -473 0
-9 654 -824 0
596 -671 756 0
687 -679 702 0
-663 -139 614 0
460 759 566 0
982 -37 798 0
-365 898 -762 0
-370 -26 189 0
229 821 979 0
259 -391 -656 0
-799 657 322 0
-526 -844 -394 0
-108 843 -43 0
826 -92 -756 0
247 48 342 0
398 -467 -934 0
-41 902 487 0
339 809 -859 0
628 120 -455 0
248 640 -911 0
-711 462 -313 0
443 -779 -86 0
-728 526 -650 0
-282 448 -771 0
470 -863 -917 0
-482 151 -120 0
677 64 -726 0
982 -34 454 0
-127 239 105 0
-626 -556 -109 0
986 -753 -279 0
-327 94 48 0
-643 593 641 0
563 -73 124 0
69 326 -417 0
903 -820 -713 0
197 871 920 0
895 32 114 0
599 556 36 0
-431 -180 -911 0
-889 598 82 0
244 -717 -570 0
-497 807 946 0
-772 518 114 0
-81 944 27 0
1 -791 -346 0
-297 164 -474 0
-119 -641 369 0
161 905 -867 0
745 989 208 0
224 378 760 0
968 -877 -786 0
-46 497 -646 0
-647 -401 -994 0
827 -323 -133 0
323 -886 -344 0
-413 846 -212 0
-783 -28 -199 0
718 -536 -757 0
-66 769 -805 0
-767 70 -291 0
-165 148 409 0
698 -391 163 0
630 -696 5 0
712 773 999 0
614 -602 151 0
125 743 -918 0
-515 480 -180 0
-789 -110 290 0
-102 -306 92 0
930 175 595 0
885 -913 -41 0
565 203 -363 0
-832 -313 944 0
-25 -393 -71 0
305 241 710 0
818 617 247 0
-917 7 -274 0
-487 -311 217 0
538 -354 -883 0
-513 916 96 0
-870 -984 -694 0
-286 749 -300 0
525 339 -446 0
-175 818 -2 0
-806 656 -255 0
64 684 803 0
246 708 -240 0
-569 -237 371 0
115 260 -176 0
181 755 -352 0
721 -145 -786 0
-89 -106 796 0
-223 -73 481 0
949 -737 950 0
-546 -123 749 0
-790 -196 65 0
-679 77 946 0
-697 -772 -970 0
-334 46 528 0
-1 -821 -81 0
-831 -48 -509 0
-876 287 936 0
-49 510 -486 0
-796 499 491 0
483 458 -784 0
-704 680 595 0
552 78 -871 0
-283 -677 632 0
-804 984 -417 0
-222 -174 67 0
-59 944 152 0
-602 -837 258 0
-38 959 -454 0
323 447 73 0
-669 308 -468 0
819 406 89 0
-792 778 -660 0
593 -863 326 0
-264 854 -486 0
144 279 -675 0
-889 251 -157 0
776 -818 714 0
757 -932 297 0
392 692 9 0
256 315 -393 0
-434 840 -592 0
872 -692 574 0
-81 186 965 0
449 -550 -329 0
-294 -393 181 0
-261 197 -95 0
-713 -471 -28 0
-497 581 655 0
830 -522 583 0
852 -880 21 0
428 332 -367 0
-257 452 432 0
-512 -711 -200 0
107 -991 181 0
445 -368 -85 0
-173 74 -357 0
411 -932 -654 0
-898 -266 169 0
130 341 591 0
-570 -612 -491 0
-843 182 -633 0
-217 -760 568 0
-778 -538 313 0
373 -112 -448 0
75 124 225 0
-845 -162 -531 0
703 -895 739 0
971 -361 -991 0
529 -139 802 0
10 -901 206 0
-738 766 -35 0
-101 -9 656 0
589 -124 -790 0
-774 145 482 0
-107 -607 -869 0
-14 614 -48 0
-399 -786 -846 0
-89 -234 -175 0
986 -701 -913 0
-279 847 897 0
79 -853 281 0
57 -252 355 0
128 135 -690 0
-62 -40 840 0
641 -345 269 0
275 -727 -874 0
780 -256 -814 0
-58 397 -764 0
768 -144 120 0
-329 36 180 0
210 -386 -648 0
690 -34 561 0
182 -802 -53 0
758 48 523 0
607 157 -570 0
888 -106 273 0
395 474 118 0
124 455 213 0
361 -725 102 0
-802 -767 86 0
-968 -481 40 0
98 -366 662 0
30 -871 798 0
-395 88 250 0
754 291 169 0
-234 -539 536 0
570 -6 911 0
-583 21 -669 0
-33 -95 -26 0
-889 -574 220 0
713 379 701 0
-779 -34 366 0
-121 636 405 0
982 164 852 0
263 -506 -728 0
-508 610 413 0
115 891 -716 0
550 -628 681 0
820 -626 109 0
541 -69 -486 0
476 313 20 0
495 79 214 0
671 991 248 0
-201 588 252 0
-730 -93 345 0
166 -451 -888 0
821 -621 -693 0
-450 -509 438 0
-380 -866 434 0
728 -778 -652 0
488 129 402 0
-708 -618 -769 0
-9 -19 -243 0
-385 963 244 0
-607 -498 117 0
-479 -653 -823 0
632 -452 931 0
289 -266 987 0
128 215 -392 0
-289 766 -805 0
-334 -405 -76 0
-83 434 77 0
-495 -139 -554 0
-265 -820 -153 0
222 294 231 0
-421 169 -435 0
169 -599 553 0
625 479 993 0
947 860 -183 0
446 -513 818 0
762 921 521 0
172 -891 852 0
-951 -981 -231 0
824 510 -411 0
728 -129 544 0
-60 -547 66 0
-23 -123 595 0
-657 -196 284 0
863 -235 -196 0
-448 -651 -371 0
-609 -865 -571 0
-356 115 514 0
-594 -720 372 0
74 696 -854 0
993 372 138 0
-799 -103 280 0
783 -892 526 0
326 -358 -952 0
-293 111 372 0
803 -331 81 0
-438 -325 -201 0
-516 536 -959 0
805 965 502 0
559 41 386 0
-112 795 -804 0
976 -169 979 0
745 -593 -420 0
302 671 893 0
583 -745 -82 0
286 -245 9 0
-165 -499 733 0
-183 823 921 0
868 172 -847 0
124 640 128 0
-419 868 245 0
792 106 554 0
94 635 375 0
45 377 991 0
-561 -614 -108 0
-913 -404 -899 0
476 995 -825 0
-823 495 -93 0
641 763 555 0
393 478 896 0
187 -154 970 0
-364 549 623 0
72 -356 -518 0
-373 -410 708 0
457 853 -303 0
-717 670 226 0
765 -641 -248 0
-492 565 -506 0
-632 450 822 0
781 -799 589 0
-399 -106 -799 0
250 -928 415 0
753 -909 972 0
-264 -168 521 0
450 193 -465 0
834 394 136 0
728 867 -847 0
498 420 -218 0
-299 -84 902 0
953 949 529 0
223 509 -410 0
61 72 -330 0
-102 231 -754 0
-612 618 -120 0
414 -398 293 0
871 615 803 0
-105 585 452 0
-869 366 -168 0
858 852 500 0
501 -943 733 0
491 540 -646 0
169 -91 844 0
-11 310 -305 0
442 -888 -606 0
-895 877 -225 0
131 83 -498 0
641 373 -45 0
-380 -223 -983 0
-108 828 -636 0
311 867 392 0
64 -987 75 0
-615 763 -993 0
-38 -500 253 0
48 -637 -422 0
395 38 -318 0
-65 -882 -873 0
-527 363 -346 0
-409 273 -228 0
-319 -621 -42 0
183 -706 782 0
-496 -841 171 0
-190 124 -944 0
-10 -507 17 0
484 -756 934 0
315 -585 -842 0
-174 -56 532 0
321 -363 536 0
-980 455 -379 0
-772 398 790 0
-715 -117 -80 0
223 -278 -235 0
-967 36 439 0
-477 -746 105 0
-375 981 -888 0
817 955 196 0
-276 -109 580 0
-939 493 -961 0
458 -888 -293 0
525 -560 335 0
595 -168 -819 0
-783 -409 -666 0
626 541 -819 0
274 -368 949 0
-929 987 340 0
392 -489 917 0
38 -150 -46 0
-827 -772 500 0
133 412 -150 0
-401 112 916 0
26 498 124 0
151 -512 -12 0
-89 -816 -847 0
-794 827 -148 0
1000 -67 -434 0
503 114 322 0
-647 551 10 0
-293 762 -779 0
549 -621 379 0
777 -849 946 0
-538 -422 78 0
-985 -902 33 0
469 59 981 0
575 601 -492 0
-242 -946 -492 0
600 -656 305 0
-45 -399 605 0
497 634 -183 0
728 -621 249 0
-725 -935 946 0
-882 856 792 0
-670 -767 894 0
-997 -497 -745 0
-565 618 -212 0
875 -643 -267 0
-557 72 -266 0
-179 -915 278 0
-45 -712 -131 0
394 -781 903 0
660 373 -836 0
285 167 -614 0
125 790 580 0
-242 -214 550 0
542 -553 -362 0
-604 -859 -594 0
-555 782 -244 0
-148 -157 181 0
-748 -42 52 0
-999 285 -813 0
-613 -827 707 0
580 -971 -267 0
694 34 51 0
-33 -768 -989 0
338 350 499 0
661 -842 -466 0
-4 -426 189 0
602 -961 431 0
673 803 418 0
-451 -361 -744 0
598 -675 -9 0
-207 -883 465 0
17 -545 -100 0
-372 793 -925 0
251 547 624 0
-811 -617 -842 0
-681 -219 312 0
-602 -839 836 0
218 -455 -549 0
-118 809 -592 0
493 -258 -460 0
-208 -101 -288 0
-358 60 907 0
-261 -635 831 0
-752 237 585 0
-496 -197 194 0
954 -137 245 0
440 -851 -230 0
184 -461 -188 0
177 -443 347 0
-346 250 850 0
-234 -152 -228 0
-521 343 -92 0
812 655 944 0
-458 -279 -522 0
267 -287 268 0
-433 -370 -995 0
1 659 836 0
-468 -329 953 0
-84 -528 -434 0
169 621 -743 0
-325 -847 -109 0
609 367 971 0
-3 -634 -89 0
-287 889 -108 0
209 -312 -293 0
-815 795 -610 0
440 -348 193 0
126 -124 -315 0
925 149 -114 0
270 -68 982 0
-160 629 -633 0
859 851 358 0
387 342 947 0
491 981 -807 0
237 844 -314 0
-605 -19 -658 0
-398 -571 224 0
318 -51 286 0
540 -420 -75 0
-684 5 -769 0
-287 -118 453 0
-537 -948 486 0
12 -984 -302 0
-929 -496 646 0
-139 345 -586 0
-691 857 350 0
160 -214 -330 0
-162 -687 -631 0
881 821 -777 0
671 536 -281 0
352 -496 201 0
-722 -602 -112 0
662 -180 697 0
-662 590 -280 0
685 398 -545 0
-996 -165 674 0
981 -190 610 0
488 -679 -864 0
660 -729 -450 0
-458 535 244 0
-804 46 -126 0
811 690 307 0
800 926 108 0
-852 643 -15 0
-766 -953 -208 0
-649 714 -26 0
-695 -738 -968 0
-66 454 -909 0
-906 866 961 0
125 -73 567 0
187 707 33 0
-931 -649 782 0
536 205 -572 0
941 276 -847 0
-120 29 -148 0
787 259 128 0
289 798 505 0
-928 -611 -226 0
517 -665 -702 0
734 351 -843 0
-790 -964 -516 0
773 -312 143 0
77 -754 -921 0
190 29 711 0
-436 -717 -748 0
-997 -324 -36 0
305 -733 986 0
-6 242 -426 0
-979 -128 -962 0
33 874 -822 0
-930 -492 -540 0
121 -527 -762 0
397 -622 -5 0
-489 -307 -67 0
-925 -528 935 0
-517 -16 -616 0
327 -330 -794 0
-122 478 560 0
-298 -794 -612 0
-17 -684 -792 0
-470 -904 360 0
-324 -335 587 0
-356 959 -91 0
-535 723 507 0
234 780 840 0
-158 146 -843 0
-12 -871 743 0
-365 836 -859 0
-441 602 922 0
827 -316 806 0
661 448 558 0
-78 531 -364 0
787 -761 -88 0
679 -943 -496 0
446 521 803 0
-269 811 132 0
-613 92 635 0
-95 -882 864 0
514 235 655 0
50 -859 -843 0
-221 -24 64 0
-343 756 -292 0
-503 543 -701 0
632 -668 66 0
-33 -59 801 0
-413 528 -5 0
-61 -346 -784 0
7 -857 691 0
506 235 867 0
-321 582 741 0
-750 -221 145 0
772 -901 -36 0
106 404 -155 0
695 614 -883 0
-645 52 -773 0
278 -810 -546 0
-297 520 431 0
-987 895 -524 0
-753 -834 -114 0
66 307 685 0
112 -134 60 0
-663 -736 222 0
-675 326 763 0
-575 -673 461 0
-554 333 93 0
349 -169 -545 0
784 943 411 0
110 -601 631 0
-111 233 -309 0
69 -320 -841 0
484 -288 858 0
601 208 485 0
882 -33 161 0
-596 -24 -402 0
128 -600 720 0
-815 -650 733 0
382 -718 -535 0
587 445 -96 0
699 440 37 0
267 -61 343 0
-339 377 563 0
40 -478 255 0
-294 -23 -806 0
679 -255 451 0
-431 225 -551 0
-373 816 206 0
116 312 122 0
817 -943 726 0
981 275 765 0
-946 14 100 0
433 753 -926 0
868 -170 629 0
748 -917 -118 0
-360 715 421 0
468 -804 -816 0
-36 -833 -166 0
792 -456 752 0
-783 -150 -767 0
-200 64 -868 0
826 492 -967 0
75 -627 -586 0
-304 978 -463 0
-329 -797 118 0
605 -779 383 0
-780 -238 -369 0
-857 -636 -76 0
-926 -16 473 0
122 -94 801 0
572 198 289 0
-269 -317 129 0
368 -819 784 0
163 763 -9 0
-28 327 575 0
361 593 -702 0
-806 -717 977 0
-128 416 535 0
-497 -190 782 0
317 505 207 0
-51 -493 -371 0
855 -911 -501 0
-692 -101 -177 0
429 -684 -498 0
724 680 -421 0
-660 -424 -465 0
-944 -529 -33 0
-595 1 -147 0
406 740 -588 0
-444 67 930 0
-872 404 442 0
-946 289 -86 0
182 306 -919 0
666 -393 -246 0
-757 495 618 0
149 244 -198 0
571 -180 -676 0
531 -640 -296 0
-476 239 -225 0
-868 -785 -130 0
-444 -752 469 0
-154 851 590 0
922 -829 -941 0
-99 37 -82 0
320 -856 545 0
786 -462 -536 0
-368 -206 -641 0
-508 705 -82 0
-129 361 -205 0
-242 241 696 0
603 -157 825 0
760 548 525 0
-348 -966 -340 0
-498 -24 -917 0
119 -554 10 0
99 938 -130 0
-918 -67 508 0
-102 -29 572 0
-308 -827 -844 0
270 -530 -572 0
908 -929 231 0
-420 -581 -527 0
-406 -282 -340 0
256 -429 -614 0
-725 19 810 0
181 -601 155 0
-726 -376 -213 0
-135 833 590 0
-678 -230 -298 0
212 423 688 0
-720 -297 -530 0
746 54 476 0
745 134 411 0
-827 -539 299 0
727 294 -767 0
440 126 215 0
455 411 967 0
962 943 786 0
723 -301 -379 0
140 785 -426 0
-676 696 316 0
223 88 -368 0
842 88 -598 0
179 564 906 0
-270 840 423 0
-790 877 -727 0
1000 727 134 0
-633 608 -143 0
649 -418 -559 0
174 481 -197 0
16 -673 -362 0
118 -390 -504 0
13 996 -965 0
-382 697 93 0
869 -887 582 0
499 -299 -415 0
274 -673 -530 0
221 -370 980 0
338 532 -987 0
551 -608 77 0
-761 -571 -811 0
-954 -993 989 0
358 -222 883 0
-217 476 30 0
-19 846 -837 0
-774 375 -239 0
-367 -896 -828 0
-102 601 590 0
-199 394 -345 0
-324 745 61 0
-773 407 196 0
-645 94 -17 0
510 571 154 0
834 -271 450 0
-816 -91 418 0
673 -764 -676 0
299 -803 309 0
-282 -180 596 0
596 41 -869 0
-277 -719 -629 0
-435 -745 -360 0
-19 340 511 0
-675 -19 170 0
-678 25 -890 0
540 478 -526 0
-734 -334 616 0
86 -515 -7 0
-234 -232 -999 0
633 102 -833 0
-894 -321 -327 0
-136 141 128 0
-610 -654 -264 0
-710 389 781 0
-700 -296 660 0
214 -778 -74 0
-220 428 -2 0
866 -287 469 0
-573 755 836 0
-944 567 -242 0
-718 455 225 0
895 195 425 0
46 735 288 0
813 287 296 0
-669 445 -847 0
83 998 -609 0
-997 -306 -971 0
329 -923 103 0
510 555 -859 0
-352 696 -836 0
92 -91 -138 0
-711 719 657 0
-929 937 341 0
827 447 -140 0
778 -484 229 0
539 -503 -152 0
-535 385 -984 0
-477 920 367 0
-647 343 -683 0
-727 -432 628 0
-281 -896 -209 0
276 994 563 0
-667 130 609 0
834 770 -166 0
-139 40 -536 0
-782 664 704 0
-686 -515 364 0
-48 628 698 0
-20 798 -758 0
-403 -564 746 0
816 642 -197 0
743 -467 489 0
-582 -143 339 0
191 -20 624 0
-522 -690 49 0
182 -99 -531 0
-582 353 -130 0
-603 153 -76 0
527 -804 -76 0
623 680 -727 0
-316 -692 -303 0
315 562 -789 0
184 988 974 0
-281 16 -741 0
-682 634 -7 0
-406 -886 533 0
-73 296 912 0
-972 403 412 0
-604 692 818 0
373 2 -608 0
-669 481 -611 0
-842 725 534 0
864 -600 -573 0
-776 94 -78 0
7 350 324 0
-483 -859 -301 0
-105 -884 358 0
-590 7 657 0
833 253 -534 0
951 -175 -61 0
-49 686 533 0
-347 450 531 0
995 708 -611 0
870 -14 84 0
-243 -987 -459 0
376 -490 -121 0
-64 242 -437 0
586 591 -753 0
897 325 -21 0
-839 -903 153 0
743 -561 37 0
675 313 783 0
-321 -812 -854 0
681 -349 -409 0
111 -717 507 0
-419 436 -148 0
770 780 521 0
-535 15 -935 0
385 -103 169 0
860 -103 -436 0
-246 -48 152 0
-590 -799 620 0
104 -888 637 0
426 -233 -963 0
-932 -110 -920 0
545 523 12 0
807 -745 -960 0
-951 659 414 0
-774 321 -629 0
-617 -138 484 0
-348 944 184 0
999 644 -203 0
698 -624 527 0
-943 212 340 0
956 -563 -707 0
944 182 163 0
-549 954 -123 0
253 -344 173 0
-445 -760 -18 0
282 -345 -774 0
-201 -946 -18 0
56 -650 428 0
-789 -335 -807 0
849 -989 -98 0
-334 -440 350 0
422 -790 961 0
-411 760 199 0
-302 -950 952 0
-75 -254 843 0
964 -630 -72 0
-261 -596 -832 0
348 920 -46 0
758 -256 747 0
719 989 679 0
-445 711 980 0
-79 -508 132 0
-878 -308 -834 0
88 -792 -548 0
114 608 49 0
-229 365 182 0
-187 -148 -425 0
444 168 -350 0
280 -20 484 0
-62 -214 52 0
-458 -654 -219 0
-950 833 -326 0
109 791 863 0
-723 313 670 0
744 909 -293 0
694 613 321 0
84 753 -334 0
807 -584 924 0
749 444 -507 0
475 -831 182 0
407 605 -887 0
466 -391 -579 0
-795 -464 867 0
657 -18 491 0
753 452 500 0
663 -936 279 0
985 990 926 0
971 681 -595 0
-557 -331 -526 0
-429 958 845 0
-731 -863 -997 0
38 -557 -98 0
-37 -337 406 0
-126 -828 5 0
-955 -689 71 0
375 -362 983 0
-298 -468 -770 0
-398 -190 -956 0
39 -996 200 0
217 252 388 0
-733 85 690 0
929 -425 881 0
-92 -500 911 0
463 454 736 0
-582 317 327 0
47 -968 -436 0
564 800 517 0
359 193 -439 0
37 176 387 0
45 284 745 0
-434 -908 -431 0
-640 -267 -572 0
30 875 -17 0
624 -569 287 0
-705 -209 410 0
537 -310 -756 0
420 -598 612 0
352 -851 189 0
-31 -980 482 0
-884 -871 274 0
940 585 -95 0
-916 -975 389 0
468 638 -9 0
616 -698 -598 0
-855 -90 -858 0
-419 -473 -741 0
13 -400 903 0
-115 -272 487 0
-13 121 -822 0
734 -933 -889 0
-418 -608 -705 0
-581 -427 500 0
-31 60 453 0
115 648 734 0
-949 482 954 0
-76 -932 195 0
812 907 509 0
188 589 378 0
157 806 -626 0
-342 989 -737 0
9 580 -292 0
996 -385 -929 0
333 -624 -290 0
471 556 261 0
-863 -454 25 0
-953 274 140 0
-877 -383 -227 0
16 -727 -994 0
-649 -181 922 0
-831 -705 598 0
415 866 969 0
-829 -530 -97 0
74 -176 372 0
-878 -677 -6 0
911 574 -881 0
-238 -759 551 0
-463 -764 -58 0
-332 674 -849 0
-558 203 107 0
57 93 -18 0
-610 556 -17 0
-208 -397 -415 0
794 -211 905 0
-634 -37 459 0
198 -406 435 0
918 361 254 0
-524 -398 -264 0
923 315 743 0
711 -107 -80 0
-457 -512 -59 0
-668 856 -217 0
-187 -560 -832 0
814 -828 605 0
-563 -890 -589 0
-486 -580 -358 0
610 -233 290 0
761 -775 -759 0
692 274 -606 0
645 714 -549 0
944 602 650 0
947 -193 -252 0
-395 882 -610 0
-634 -96 -934 0
976 -162 558 0
-583 -612 399 0
-501 813 -929 0
-887 -40 227 0
-1000 -634 20 0
-442 377 911 0
388 -442 -752 0
257 879 -457 0
-250 -525 -422 0
-558 -186 -340 0
-268 558 -61 0
738 -841 70 0
925 244 -785 0
-242 -153 503 0
-803 849 570 0
-766 895 542 0
-246 -994 338 0
866 -771 -755 0
965 -815 -543 0
738 719 -886 0
777 23 -648 0
-628 -739 973 0
-678 208 -994 0
-848 -149 -366 0
701 -125 -443 0
-994 -288 590 0
-99 -507 570 0
610 565 -780 0
933 -871 -893 0
478 508 328 0
-470 -219 773 0
-227 570 450 0
-351 -294 227 0
-424 992 -486 0
-279 704 -514 0
4 -761 199 0
168 -149 -486 0
-398 337 -43 0
314 -703 472 0
-977 723 -178 0
-452 -934 221 0
-932 -182 237 0
-390 856 -996 0
666 336 921 0
145 764 -100 0
-451 -814 -370 0
-579 777 644 0
579 643 940 0
-687 -282 -904 0
681 -312 697 0
-186 -881 -87 0
-9 748 604 0
907 524 561 0
-579 486 742 0
136 -966 -797 0
301 194 -215 0
993 566 52 0
860 -756 274 0
799 812 -843 0
-964 -194 -411 0
396 -135 -186 0
-571 87 -978 0
996 -579 -168 0
845 -950 221 0
643 415 -707 0
458 -402 761 0
-177 691 -766 0
796 -574 645 0
-40 -250 565 0
814 793 58 0
30 784 -369 0
-881 -487 -860 0
-977 -674 998 0
-699 257 211 0
-179 -242 424 0
-559 446 591 0
-762 -442 -591 0
185 -99 -403 0
709 699 761 0
-820 -125 546 0
399 -491 298 0
266 152 -530 0
296 -469 16 0
-43 202 -191 0
189 627 -833 0
-641 -670 -501 0
-984 161 -594 0
359 -107 -861 0
-67 798 636 0
523 -989 388 0
-904 710 -674 0
-294 -299 667 0
-444 882 -953 0
678 -615 447 0
319 599 -678 0
386 -238 955 0
79 -73 -677 0
-663 396 -518 0
92 -811 722 0
911 755 -577 0
-863 67 -423 0
107 763 502 0
813 935 393 0
-826 -37 299 0
881 714 268 0
115 313 194 0
216 854 -145 0
317 330 28 0
909 350 -884 0
11 514 633 0
-910 431 -617 0
906 -337 623 0
829 -571 -858 0
-614 -363 -278 0
-629 -521 -654 0
880 -621 -595 0
391 -847 -997 0
-135 566 46 0
743 -518 598 0
-691 414 -43 0
4 129 613 0
462 85 -504 0
556 121 669 0
-293 628 266 0
962 -286 -984 0
-842 -524 161 0
-955 830 -33 0
-168 304 -752 0
-463 184 -948 0
-231 -22 -530 0
-691 -879 190 0
-930 -750 -171 0
493 -322 776 0
732 882 -933 0
-577 69 965 0
-696 9 114 0
959 644 410 0
-392 742 674 0
366 635 -264 0
-870 584 -488 0
752 564 -110 0
-727 935 -502 0
750 830 283 0
-60 475 -854 0
533 -563 595 0
-533 -33 906 0
-372 395 461 0
953 157 255 0
-780 -359 89 0
251 -976 460 0
-476 -645 48 0
999 -776 955 0
907 -620 -40 0
-47 -197 580 0
890 264 520 0
340 -588 -997 0
212 -376 -53 0
-817 331 -785 0
512 -96 85 0
857 292 585 0
853 -222 -730 0
-57 -870 679 0
-444 -912 -790 0
805 843 -426 0
-163 661 552 0
773 49 -12 0
366 -999 -41 0
-638 768 -46 0
-763 -66 -761 0
862 -288 -228 0
-838 -206 -213 0
-573 712 -766 0
-797 372 -956 0
598 56 514 0
148 -586 -596 0
716 -121 -102 0
57 293 -773 0
205 -562 266 0
145 -729 403 0
-913 -4 -10 0
126 711 117 0
-61 -154 -750 0
244 -134 204 0
-79 -915 822 0
823 -926 -473 0
-833 -420 -226 0
-674 -460 -981 0
506 -802 669 0
-904 -335 836 0
739 -866 -29 0
-96 452 696 0
-885 256 -412 0
-711 -710 -610 0
-526 -557 -834 0
242 -812 576 0
-721 -103 608 0
655 872 -508 0
-897 893 -741 0
-290 252 949 0
-908 88 -744 0
-415 -701 564 0
-603 266 920 0
-475 -853 -842 0
284 441 341 0
831 -677 -297 0
442 -316 -163 0
522 -84 -640 0
313 -945 943 0
480 878 -499 0
641 216 881 0
-783 423 -266 0
-987 107 241 0
915 -698 -377 0
798 740 619 0
-321 -747 679 0
-164 -443 324 0
881 532 111 0
155 -758 -370 0
-780 -917 316 0
-964 858 531 0
-41 -959 -637 0
174 833 -964 0
-720 980 327 0
-492 -186 -702 0
-798 -251 -47 0
852 964 -46 0
-951 595 -684 0
582 868 526 0
709 356 -31 0
357 -561 -715 0
943 18 226 0
-947 37 328 0
587 -676 392 0
217 -662 -704 0
659 -158 -62 0
777 -452 147 0
-350 913 -371 0
736 939 -768 0
334 -600 -191 0
219 -892 338 0
18 10 -766 0
45 317 246 0
228 452 666 0
848 835 472 0
81 532 -403 0
-928 -828 481 0
424 463 214 0
-291 381 -860 0
185 920 -598 0
-461 11 -46 0
337 521 -116 0
-157 633 -588 0
-778 542 -907 0
-81 6 -409 0
-432 -593 -819 0
-883 174 521 0
633 -872 -288 0
171 -611 28 0
28 -971 596 0
-227 -426 478 0
-41 -323 703 0
115 735 92 0
-789 -358 4 0
19 568 500 0
605 -540 86 0
-750 -358 387 0
-208 77 -957 0
907 -104 -73 0
540 -803 403 0
-600 -979 484 0
-758 -253 566 0
-265 -550 510 0
295 354 802 0
327 280 109 0
680 -966 -346 0
-123 -365 134 0
593 456 -722 0
-843 297 -252 0
-385 745 683 0
-335 -806 -944 0
728 -454 -784 0
677 -507 997 0
825 224 263 0
-774 671 -651 0
38 -808 -960 0
740 829 519 0
987 604 -256 0
654 -65 -20 0
-270 890 -921 0
604 25 -473 0
-170 -175 51 0
-34 -697 597 0
-364 -465 -373 0
183 -110 -149 0
340 68 607 0
-474 438 -488 0
-421 -242 610 0
-847 958 -679 0
258 -178 647 0
-67 986 -525 0
-875 999 -994 0
575 509 -184 0
-160 476 -304 0
-334 -273 -803 0
59 -120 -780 0
-330 -464 836 0
967 -342 716 0
141 610 -483 0
-740 359 -248 0
-688 -774 -125 0
976 829 -858 0
-660 -3 -862 0
947 610 82 0
772 -169 -862 0
591 -366 777 0
-572 820 942 0
531 561 532 0
371 642 -876 0
-784 560 -767 0
-298 807 419 0
-51 283 -324 0
-664 -770 350 0
-672 789 596 0
-790 342 469 0
-186 876 81 0
-254 -694 276 0
-573 163 329 0
320 707 -238 0
709 654 -106 0
989 548 269 0
56 61 891 0
46 -604 595 0
259 -327 -158 0
265 -139 735 0
-721 -673 788 0
655 -640 -952 0
-180 469 -242 0
-953 -311 206 0
-241 -983 576 0
-771 -624 708 0
905 -568 965 0
-255 -576 360 0
-769 381 233 0
-315 27 -451 0
167 -755 558 0
71 -931 -903 0
613 -460 -683 0
-184 215 -908 0
-606 -722 346 0
412 589 -779 0
468 -696 957 0
-9 -378 -73 0
540 -281 35 0
-365 232 698 0
773 -582 1 0
26 -513 -959 0
607 -907 896 0
773 596 -25 0
-343 795 351 0
958 876 420 0
167 384 -800 0
846 491 -189 0
317 709 791 0
253 512 267 0
338 317 125 0
605 614 -976 0
417 102 -560 0
522 750 -691 0
-986 -744 -633 0
-47 585 -657 0
-211 -990 -775 0
-446 -723 413 0
-137 -376 -552 0
700 57 726 0
-133 -171 342 0
98 -676 74 0
361 -763 -705 0
999 -681 -950 0
-142 -540 -981 0
-548 -458 223 0
954 657 220 0
-469 199 958 0
-364 120 -533 0
-372 -323 -951 0
-625 -787 311 0
983 -289 287 0
-427 987 802 0
-217 478 -83 0
-182 -42 -449 0
224 789 885 0
-582 -3 -639 0
739 579 -191 0
627 -223 485 0
-900 -560 -753 0
828 914 -708 0
-72 702 303 0
522 285 -693 0
226 -258 78 0
663 -296 -285 0
-624 -962 -84 0
294 -272 -833 0
20 -799 978 0
-124 -358 -966 0
-983 976 960 0
-10 -957 416 0
-844 188 553 0
117 -636 266 0
-231 -403 -393 0
-397 -357 619 0
675 -564 475 0
323 526 -86 0
-251 -632 735 0
176 -915 853 0
162 19 539 0
124 910 962 0
-9 -782 -305 0
748 -776 50 0
-643 340 43 0
792 -59 -80 0
-330 -962 -382 0
600 -854 777 0
-184 514 -412 0
-336 -450 -833 0
12 224 -301 0
852 -774 925 0
299 739 -903 0
550 -958 -729 0
312 313 -469 0
-215 518 -981 0
645 -954 -964 0
-844 465 363 0
-163 -176 -6 0
-209 167 956 0
-57 588 -12 0
796 -176 706 0
387 -567 164 0
151 -885 -210 0
-563 842 168 0
336 -703 -395 0
723 813 -216 0
420 549 -447 0
-334 -768 526 0
-330 -648 315 0
-606 393 585 0
-377 -304 550 0
564 483 -406 0
-375 903 988 0
-573 -225 993 0
-600 -107 -37 0
-852 -396 458 0
884 -963 -548 0
-904 869 976 0
-198 731 -504 0
-955 132 13 0
741 -388 -12 0
490 -892 -855 0
-324 831 397 0
-291 134 -143 0
-642 -967 876 0
317 830 208 0
-240 -11 -976 0
-92 803 -53 0
97 119 -633 0
-619 497 930 0
63 609 -335 0
259 -289 166 0
653 -456 870 0
-114 914 970 0
-669 -59 719 0
55 521 109 0
629 414 748 0
-858 62 -605 0
-397 -259 -921 0
-915 161 -107 0
347 -966 -795 0
895 -774 -516 0
85 425 432 0
-397 -833 727 0
975 880 349 0
138 -951 927 0
540 -877 494 0
-779 904 695 0
679 451 -785 0
460 478 548 0
935 -654 627 0
-889 450 -928 0
101 -597 721 0
-78 382 -322 0
-806 -99 -573 0
899 945 -594 0
-735 715 -985 0
494 982 -5 0
509 964 -837 0
499 -259 681 0
-824 -307 589 0
30 -554 -769 0
-249 -912 -583 0
104 -934 73 0
979 585 796 0
532 -719 -30 0
-623 645 -939 0
472 -275 -431 0
-166 685 -592 0
11 848 28 0
165 742 803 0
-522 577 -574 0
333 349 -651 0
-866 129 -803 0
325 -253 -138 0
-117 -719 452 0
-47 -437 55 0
-871 573 -178 0
-529 184 -502 0
741 -846 455 0
574 -215 572 0
-302 -492 -187 0
-750 -138 -437 0
480 -615 -343 0
-10 -599 -770 0
325 24 -905 0
541 -293 -224 0
723 760 -42 0
-399 112 -128 0
791 -246 159 0
-196 269 -809 0
-70 705 857 0
-113 -176 607 0
-697 892 -588 0
-303 831 -284 0
741 751 880 0
-882 -600 824 0
531 253 466 0
127 361 551 0
-290 181 37 0
-141 -258 448 0
-786 -80 729 0
-914 967 857 0
-46 -599 -460 0
-897 331 261 0
-31 671 -538 0
910 -620 183 0
650 942 -963 0
924 540 560 0
-542 262 243 0
-842 -857 -225 0
621 84 -11 0
233 -440 410 0
-23 423 881 0
574 -933 -890 0
-155 784 -278 0
-996 -208 -942 0
238 -393 -891 0
-515 -998 -856 0
-590 -744 208 0
680 668 111 0
836 601 -948 0
338 776 -179 0
-14 456 533 0
1 -292 235 0
435 391 917 0
375 -327 -195 0
-803 -751 304 0
-454 -501 261 0
940 136 768 0
-810 999 -229 0
-737 -223 3 0
714 -558 324 0
375 -108 -557 0
209 -388 929 0
819 121 -789 0
613 -551 -687 0
722 -385 -351 0
-81 -983 -5 0
-647 -69 -86 0
499 341 187 0
667 703 -226 0
247 -638 981 0
-67 -821 963 0
3 -62 -325 0
-151 949 653 0
44 -296 862 0
359 -865 697 0
-795 249 -7 0
585 -103 84 0
695 -240 879 0
955 -725 112 0
923 542 427 0
-445 -809 394 0
694 -691 -398 0
11 108 687 0
82 -809 -96 0
-838 254 908 0
533 -175 548 0
-858 -19 895 0
-823 309 -388 0
-201 82 -154 0
-447 407 -119 0
-565 -953 -813 0
961 15 -184 0
295 -930 -12 0
-246 471 80 0
596 -233 -551 0
50 -265 660 0
-494 -344 -5 0
-294 146 394 0
17 -805 89 0
-764 919 -123 0
-73 663 349 0
-862 -776 739 0
260 -23 -281 0
803 -98 206 0
275 -555 -218 0
963 -533 12 0
-407 16 -244 0
18 886 477 0
-615 -628 423 0
-926 -620 467 0
-408 -455 467 0
-204 -245 -800 0
207 -514 823 0
425 116 595 0
-116 521 149 0
-881 -522 507 0
952 128 307 0
-637 -347 -206 0
298 -928 -149 0
-33 -889 478 0
970 -908 178 0
-27 832 -528 0
14 -527 -932 0
-944 772 72 0
-74 -346 -85 0
53 424 160 0
-373 -685 143 0
-429 823 -989 0
-773 798 850 0
-36 -795 727 0
-191 -770 555 0
677 -392 -384 0
-963 -516 993 0
-639 -243 238 0
-570 213 765 0
810 1 -320 0
57 219 -709 0
981 971 -912 0
-541 936 591 0
929 518 201 0
-73 -518 916 0
-909 698 -961 0
-756 744 -251 0
-86 682 602 0
444 -268 -584 0
342 -273 -543 0
377 -343 329 0
-456 298 -23 0
-75 -280 -419 0
346 812 383 0
-521 250 -10 0
882 -150 26 0
357 -494 -982 0
21 734 -168 0
816 -629 381 0
708 -554 165 0
780 -80 -291 0
-162 496 -827 0
-733 262 970 0
-256 611 466 0
672 713 93 0
-506 641 -928 0
791 436 92 0
-632 -141 -368 0
-23 -424 -443 0
61 -455 -177 0
-983 -128 -21 0
-75 -330 -57 0
608 148 -409 0
-977 -255 861 0
833 -435 884 0
950 708 624 0
9 135 18 0
-318 -122 -410 0
-262 786 -210 0
227 -112 -642 0
358 -835 469 0
521 160 347 0
-140 666 -297 0
-574 -56 -665 0
-402 -719 -676 0
352 89 908 0
230 635 673 0
338 -897 856 0
227 -423 -629 0
-472 476 213 0
922 -884 -639 0
154 -506 554 0
-172 -484 -591 0
985 295 992 0
114 212 604 0
146 -486 -190 0
-664 657 242 0
599 771 597 0
170 662 727 0
-474 768 -138 0
-210 100 265 0
519 549 762 0
-261 686 907 0
-335 276 -826 0
746 -76 -216 0
-14 -744 -759 0
-45 -68 275 0
-987 739 324 0
-835 -819 293 0
-327 157 -453 0
-214 912 -337 0
-980 93 152 0
699 -470 210 0
360 18 -334 0
-911 781 -837 0
305 -243 -953 0
-889 161 827 0
-102 -597 -100 0
765 540 -714 0
984 -77 -613 0
160 438 139 0
891 938 403 0
-463 618 -576 0
-89 -973 816 0
289 720 746 0
745 611 390 0
114 225 834 0
761 549 -397 0
-58 380 -690 0
-41 -371 -378 0
-91 804 571 0
228 -300 -794 0
259 653 -100 0
-993 129 -781 0
427 -245 436 0
-575 -959 614 0
-360 -914 89 0
-564 -816 705 0
665 917 378 0
51 -421 -492 0
888 133 798 0
281 961 -956 0
648 -345 -931 0
664 -575 205 0
967 -673 825 0
685 -805 654 0
642 415 -843 0
908 -319 -105 0
155 -753 214 0
-342 -855 -207 0
-476 618 -613 0
537 -112 173 0
275 -915 931 0
84 597 802 0
497 -83 221 0
-171 -655 95 0
-368 846 308 0
-661 -685 -849 0
130 640 -37 0
-373 -442 619 0
-562 -311 11 0
322 -22 614 0
-136 747 54 0
-613 427 150 0
-324 -742 -7 0
-851 56 -745 0
-178 -39 438 0
-497 27 -201 0
585 957 -12 0
-531 239 426 0
-643 947 587 0
342 -295 836 0
736 126 363 0
865 -356 -930 0
995 76 448 0
-466 630 158 0
-56 -224 -22 0
564 323 -763 0
-304 -306 198 0
-524 555 -391 0
155 204 -939 0
410 -114 -94 0
879 -350 -474 0
-144 -20 -792 0
-376 320 -856 0
331 233 -625 0
-217 -201 -897 0
-894 -981 155 0
-939 -521 196 0
684 874 927 0
-183 8 627 0
-641 795 -535 0
825 768 -685 0
73 597 -115 0
556 -57 -815 0
-854 147 642 0
196 -957 652 0
556 367 -441 0
412 577 125 0
859 -47 -821 0
-297 -225 -743 0
-602 147 -72 0
173 826 -792 0
735 201 353 0
573 5 -568 0
109 83 -527 0
-896 -71 -135 0
560 404 -989 0
717 -30 -194 0
-350 527 252 0
911 -920 -58 0
-558 -1000 -477 0
593 -714 89 0
85 688 -647 0
-334 -798 479 0
-690 -366 -979 0
629 218 781 0
-510 652 550 0
952 211 36 0
839 692 -249 0
-864 -25 -816 0
194 84 -734 0
870 456 882 0
-255 -989 115 0
-348 48 -404 0
315 334 867 0
-53 598 -129 0
767 954 -695 0
-905 685 -249 0
215 523 642 0
-937 128 -989 0
-519 329 -854 0
-391 429 934 0
813 769 -869 0
936 -712 438 0
-652 838 -265 0
680 -490 -292 0
-920 763 -41 0
-683 -58 -839 0
257 86 136 0
718 -746 73 0
-600 122 -609 0
-643 -719 -176 0
972 890 101 0
50 613 597 0
-972 -357 428 0
-319 -972 170 0
-598 -752 872 0
-644 -386 -454 0
433 -649 -54 0
947 547 576 0
-150 707 -77 0
-415 -454 995 0
-524 218 -291 0
959 -817 -615 0
-299 936 -836 0
246 -506 991 0
-740 557 -491 0
922 -417 -885 0
847 392 637 0
-931 -387 626 0
-204 534 -632 0
459 558 742 0
392 -515 -673 0
-852 935 566 0
-256 539 -296 0
-127 -81 934 0
883 -655 -122 0
695 -804 -73 0
-19 804 321 0
573 -635 -979 0
-583 -342 -207 0
-91 -948 272 0
-375 -315 -690 0
483 -110 194 0
487 -222 -647 0
56 520 747 0
282 32 -188 0
860 182 382 0
-634 -236 379 0
911 -62 -92 0
-448 288 -354 0
574 -514 332 0
-302 305 738 0
733 -171 556 0
-201 -878 -799 0
-846 642 -612 0
-647 -616 -130 0
-541 -463 -60 0
-756 -107 816 0
885 909 510 0
-302 -179 -2 0
-649 -275 -596 0
-372 -631 879 0
595 -872 -238 0
-817 777 14 0
-835 58 -300 0
-332 -37 -198 0
-653 -726 -450 0
325 -463 -518 0
333 -143 70 0
-821 86 -577 0
850 -793 -159 0
-36 -461 -353 0
-192 -199 -198 0
-599 68 259 0
655 -139 -289 0
145 -626 -134 0
45 757 -287 0
990 -402 -206 0
-685 569 -402 0
933 -235 -843 0
857 -952 -812 0
-680 -459 98 0
764 966 -395 0
53 -269 -146 0
-474 -339 -65 0
368 -711 -398 0
-364 -311 71 0
483 -283 373 0
-429 919 330 0
233 836 589 0
-385 140 -891 0
-82 555 -687 0
26 772 -782 0
162 -251 -476 0
415 289 -119 0
551 -820 -379 0
704 -535 529 0
717 636 -72 0
-376 421 -620 0
-693 -828 67 0
364 -130 865 0
792 242 -39 0
547 -915 -325 0
-910 -416 565 0
-450 -991 425 0
431 645 758 0
-517 128 -838 0
593 505 574 0
-534 -532 444 0
697 -356 -955 0
-757 -837 110 0
-242 799 432 0
-94 -834 -538 0
-241 -964 15 0
-650 106 -570 0
315 488 -585 0
84 -723 -860 0
339 -503 606 0
-988 271 -422 0
-981 -523 -940 0
-36 -562 482 0
945 151 866 0
-773 200 -381 0
597 49 -197 0
-554 203 -745 0
-893 677 696 0
-310 -59 460 0
-471 561 610 0
-341 -10 235 0
234 -554 536 0
448 87 -813 0
-619 560 -992 0
883 19 -524 0
239 -880 -421 0
275 268 -643 0
-620 -40 435 0
945 694 -952 0
-420 -154 -179 0
-486 506 -212 0
1 624 -710 0
-994 612 59 0
-432 -541 832 0
553 -439 -979 0
-938 -787 623 0
882 -422 978 0
-150 312 -542 0
128 -115 -922 0
-73 703 -943 0
-340 -663 -48 0
559 432 874 0
814 -487 -198 0
270 284 -309 0
528 -121 605 0
-111 -333 -27 0
411 24 -539 0
-761 397 523 0
252 -409 865 0
-474 258 -935 0
-978 745 -587 0
-789 886 106 0
262 -383 151 0
714 906 -84 0
654 274 -587 0
77 404 -933 0
-842 175 124 0
57 -587 385 0
-833 897 726 0
749 -101 515 0
517 209 -791 0
-263 -576 -178 0
678 918 -91 0
319 372 -882 0
346 -686 -199 0
999 683 85 0
-727 545 -185 0
993 -566 -385 0
860 971 955 0
972 -456 -997 0
396 -835 143 0
-489 -954 -766 0
-581 -575 -382 0
-851 -478 890 0
308 -748 -554 0
-678 -231 854 0
386 -760 672 0
-239 825 203 0
-17 120 995 0
-206 312 -391 0
-867 825 -475 0
-362 181 -36 0
-486 969 -436 0
248 876 893 0
-328 492 -554 0
174 -366 -997 0
630 742 16 0
-325 572 -784 0
-82 139 126 0
-642 747 824 0
-784 -156 269 0
-641 -417 -961 0
-311 -949 -497 0
-515 862 -771 0
530 856 509 0
969 339 -218 0
-648 729 -201 0
-539 -775 540 0
-75 400 -961 0
393 587 112 0
-992 -820 99 0
159 535 475 0
31 -838 275 0
260 -508 29 0
686 991 300 0
221 -966 -517 0
-260 -126 -618 0
-896 884 -543 0
858 751 373 0
-142 -239 -498 0
-350 196 -240 0
-226 747 884 0
894 958 450 0
466 613 871 0
-401 -197 -704 0
