c Random 3-SAT formula for benchmarking
c Generated with seed 70
p cnf 50 213
-8 -19 45 0
21 -7 -10 0
16 -26 -42 0
25 50 29 0
32 23 -19 0
29 -49 50 0
9 23 35 0
34 -26 49 0
40 23 8 0
47 19 -26 0
28 50 -18 0
49 46 23 0
6 30 -4 0
8 -17 48 0
5 30 -19 0
-21 -33 10 0
34 24 38 0
-2 -27 16 0
-31 -5 -6 0
47 37 2 0
-4 31 35 0
-25 -32 39 0
-20 -17 10 0
29 -20 -42 0
34 -33 35 0
29 -50 44 0
-46 43 22 0
-19 38 10 0
4 40 1 0
-7 -42 -5 0
-18 -19 -2 0
19 -7 21 0
-31 37 34 0
-11 -7 16 0
38 -15 33 0
-11 -46 -42 0
30 21 -8 0
-36 -3 38 0
-23 -46 -27 0
-15 33 -13 0
-21 34 46 0
-18 23 -31 0
6 -49 -21 0
-37 -15 -38 0
26 -11 31 0
13 42 8 0
1 4 13 0
32 -28 9 0
2 7 16 0
4 19 16 0
32 33 44 0
-34 -48 49 0
-43 40 30 0
4 44 -36 0
43 -42 11 0
48 -3 50 0
-14 49 -18 0
-12 -33 -14 0
-39 -46 -50 0
-29 -12 15 0
26 -43 -30 0
35 -18 -50 0
-8 -50 12 0
-12 -7 -35 0
-30 -19 -37 0
24 2 -7 0
15 -26 -4 0
-10 -26 -7 0
-12 -39 46 0
31 -47 43 0
19 -46 13 0
-12 38 -36 0
42 -1 46 0
-42 12 -1 0
-37 -3 -15 0
3 -49 -19 0
42 -7 22 0
-14 -2 38 0
16 -14 -18 0
-18 15 27 0
-24 1 28 0
17 18 2 0
-16 4 -1 0
28 32 -36 0
21 -4 20 0
-25 9 44 0
23 -20 -8 0
-43 -48 10 0
43 -22 34 0
-41 -23 22 0
10 -32 -11 0
4 -24 37 0
5 20 -7 0
36 -26 23 0
7 39 42 0
41 -44 -1 0
-41 -14 33 0
-26 -12 -39 0
30 28 -4 0
9 -26 -49 0
-19 -12 43 0
29 -38 31 0
40 -22 -48 0
32 10 -7 0
6 -41 17 0
42 17 39 0
-45 -40 -48 0
45 4 -44 0
10 -18 -37 0
35 -21 1 0
40 6 -26 0
24 36 38 0
18 -2 5 0
4 15 -46 0
-46 49 22 0
-46 40 2 0
19 9 47 0
38 41 35 0
-17 -24 -32 0
16 -9 12 0
-2 -21 -19 0
50 31 -14 0
-30 -21 22 0
6 21 -19 0
36 -38 33 0
-23 7 14 0
4 34 -49 0
-22 28 23 0
-35 22 1 0
-11 16 22 0
-20 -30 -21 0
-8 -34 -41 0
-42 -38 -22 0
-12 -45 5 0
21 -34 -17 0
4 9 28 0
13 -1 -29 0
34 -32 14 0
-44 23 7 0
-49 24 -27 0
-1 42 21 0
-29 -31 44 0
19 -1 46 0
11 31 -32 0
-32 5 -19 0
-34 -14 23 0
-14 -39 24 0
48 -7 -27 0
-8 19 -18 0
44 -9 -42 0
29 46 16 0
44 20 -2 0
33 15 -2 0
9 -44 -4 0
6 -15 -31 0
-7 -8 26 0
11 28 -24 0
-5 -11 19 0
-29 50 -27 0
4 47 45 0
-47 2 18 0
11 -18 -24 0
20 -31 -15 0
19 -46 22 0
-10 -21 -45 0
21 50 45 0
-11 36 -40 0
32 -17 -43 0
-41 -36 -5 0
3 18 -29 0
38 -28 17 0
-28 -30 14 0
49 30 -15 0
45 6 16 0
-6 47 43 0
36 2 50 0
18 35 -8 0
-6 -30 -17 0
-28 29 -22 0
-7 -24 -28 0
-7 -11 -6 0
19 36 -37 0
-36 7 -5 0
-20 29 -10 0
-28 -2 -24 0
-19 -8 -37 0
42 -10 39 0
-12 49 -27 0
-13 -49 35 0
19 46 -41 0
-23 -16 47 0
-49 28 44 0
-44 45 -26 0
9 -35 14 0
45 40 -50 0
46 44 13 0
-43 44 -47 0
-16 -13 5 0
-38 -4 34 0
21 2 41 0
-40 21 30 0
46 -6 -34 0
45 20 -34 0
-47 43 50 0
-11 48 2 0
-6 49 -9 0
-32 -28 -35 0
42 -45 3 0
34 41 44 0
1 7 -24 0
36 -48 37 0
-47 18 -19 0
-33 -27 -12 0
