c Random 3-SAT formula for benchmarking
c Generated with seed 84
p cnf 50 213
47 -19 50 0
34 -43 -21 0
-36 49 -48 0
-34 30 26 0
43 31 3 0
-32 34 44 0
16 -13 28 0
18 8 -47 0
-36 2 10 0
36 39 -40 0
-12 21 -24 0
28 12 36 0
-31 15 39 0
-28 -34 -42 0
-23 -43 42 0
-1 -19 39 0
-37 -15 -46 0
-44 -17 33 0
26 1 18 0
19 -47 30 0
29 40 17 0
36 -12 -9 0
12 22 -40 0
8 28 -24 0
23 -2 30 0
-22 -7 1 0
39 -45 -40 0
-29 17 -34 0
20 -16 17 0
-25 -31 -8 0
-45 -26 -24 0
3 4 49 0
-45 -7 42 0
-32 -16 33 0
41 -28 -35 0
-20 23 37 0
-6 -46 -47 0
-32 21 49 0
29 50 20 0
19 -47 14 0
-3 41 -11 0
29 -43 -35 0
-1 -18 -48 0
-4 17 -27 0
-32 -17 28 0
-50 -31 7 0
-38 -47 48 0
14 41 -30 0
33 -29 20 0
27 -32 -47 0
27 -37 23 0
-42 12 9 0
44 37 14 0
12 -50 -6 0
-35 -3 9 0
-37 -16 -35 0
-14 -39 45 0
-42 49 -5 0
25 19 -8 0
-29 34 38 0
27 -10 17 0
-21 23 -49 0
-49 44 -22 0
-17 36 15 0
-16 -46 48 0
43 33 39 0
-1 -5 -13 0
-12 17 36 0
-16 33 49 0
-49 27 8 0
12 9 -5 0
-37 27 -36 0
-29 -50 42 0
-32 49 -16 0
46 3 -23 0
40 18 -23 0
-25 -1 19 0
-1 -48 15 0
22 13 48 0
42 19 -46 0
-8 28 -49 0
-10 31 -16 0
39 -6 15 0
2 -31 32 0
-24 49 12 0
29 25 18 0
17 -10 19 0
-41 -43 -10 0
-50 43 -36 0
-28 43 20 0
32 20 -17 0
6 3 -20 0
-44 -4 -27 0
15 -14 -47 0
36 -44 40 0
-38 -49 -40 0
-14 35 -48 0
-22 2 -16 0
-29 -39 13 0
-6 38 12 0
39 23 14 0
-46 22 16 0
18 -3 -49 0
-39 10 -32 0
50 41 -34 0
25 13 45 0
-41 4 3 0
-15 49 44 0
27 36 -40 0
-42 -5 7 0
-6 47 25 0
-3 45 -12 0
-5 36 29 0
-35 -46 38 0
-50 -14 49 0
6 -11 -8 0
-32 39 -13 0
-23 -6 -10 0
12 16 -32 0
-18 -41 -47 0
-29 -46 -30 0
3 -16 -25 0
45 17 13 0
3 39 -46 0
-23 3 -37 0
-22 15 -5 0
8 10 -4 0
2 15 -31 0
-15 -37 -29 0
-39 -22 -1 0
-35 -11 -39 0
-22 -45 -48 0
47 16 -26 0
29 12 -28 0
7 40 -8 0
-28 39 -44 0
-10 -47 -7 0
-3 -20 29 0
-16 -45 26 0
33 -21 17 0
12 -49 -21 0
-22 9 -15 0
1 36 -40 0
-26 -22 25 0
28 -32 7 0
-2 -5 -46 0
40 -22 31 0
33 16 21 0
46 -11 -12 0
10 47 -49 0
-7 21 2 0
41 -34 50 0
40 29 18 0
27 -38 17 0
-25 23 -3 0
-41 -1 -44 0
-33 -20 45 0
47 -23 -15 0
-32 30 -24 0
-28 39 41 0
11 -13 -22 0
8 -41 -38 0
-33 -47 27 0
-41 49 -11 0
-28 -7 30 0
-44 40 -12 0
10 -32 5 0
-18 2 38 0
-5 21 47 0
-39 34 -28 0
-7 -45 37 0
-16 19 -11 0
-48 -27 18 0
34 32 48 0
-15 41 2 0
-46 44 -18 0
19 -25 -42 0
-1 -3 30 0
-36 40 -16 0
39 31 -3 0
-45 -42 43 0
-43 15 28 0
45 -24 21 0
-23 -37 9 0
-23 8 35 0
-28 20 -47 0
29 31 45 0
-21 -37 -3 0
35 11 22 0
5 31 -21 0
38 1 18 0
16 9 -45 0
38 37 30 0
31 26 17 0
-28 46 -22 0
40 -36 22 0
-12 6 50 0
-48 5 -26 0
24 -31 13 0
-11 -46 -45 0
12 -47 -16 0
-32 35 -25 0
-17 40 22 0
-36 16 22 0
38 19 -6 0
-31 49 5 0
15 31 -46 0
38 35 -39 0
18 3 -15 0
-26 -31 9 0
-29 3 -12 0
-5 19 -36 0
30 -24 -10 0
