c Random 3-SAT formula for benchmarking
c Generated with seed 107
p cnf 200 852
-64 -159 -149 0
36 -109 -140 0
-153 -9 182 0
48 151 50 0
96 30 -20 0
-49 40 118 0
70 109 -112 0
103 -75 -77 0
43 -60 57 0
-161 -173 -56 0
-141 132 -113 0
-157 -145 10 0
-176 129 87 0
-103 -191 -181 0
-99 162 -172 0
-112 -106 -36 0
146 -172 110 0
39 18 -165 0
64 -79 84 0
-8 178 -132 0
73 86 -27 0
146 38 106 0
18 -77 -156 0
185 4 -165 0
-66 84 172 0
118 35 44 0
130 -104 163 0
-154 -190 -16 0
94 92 40 0
102 -99 -59 0
158 26 -16 0
-56 166 191 0
-67 -15 -184 0
-196 -28 188 0
50 -57 97 0
-11 192 -96 0
-81 -84 -105 0
-19 -51 -107 0
-132 103 180 0
78 77 31 0
-138 2 -12 0
90 180 -156 0
-115 68 46 0
-102 -82 107 0
126 -144 -200 0
-131 44 -54 0
-192 -177 -113 0
12 23 3 0
-44 -66 -74 0
-100 -27 -198 0
92 -148 -104 0
71 -40 -127 0
-33 41 3 0
14 -90 -42 0
-28 165 -4 0
87 -120 -178 0
-10 -156 171 0
-58 41 151 0
-1 98 188 0
-37 -122 -142 0
33 -99 -155 0
102 -87 -127 0
153 99 -143 0
95 -40 -59 0
84 177 6 0
49 -200 -158 0
114 125 -131 0
191 -175 114 0
99 -92 -144 0
106 3 -33 0
-10 -56 61 0
105 -117 58 0
40 -126 122 0
-81 8 49 0
110 -29 -16 0
34 -16 100 0
-176 -106 47 0
-163 -164 129 0
98 49 85 0
-171 1 191 0
-130 -1 141 0
-55 -149 -35 0
107 24 59 0
-159 -174 -199 0
-145 -200 187 0
74 159 176 0
115 -156 136 0
-85 43 120 0
116 10 -193 0
25 104 133 0
181 67 121 0
-26 100 95 0
41 55 26 0
-191 58 -120 0
26 -29 145 0
146 89 -193 0
180 170 -66 0
177 24 -109 0
-134 -156 -34 0
-16 -30 178 0
94 -197 174 0
91 79 -126 0
-151 -123 168 0
89 -87 -108 0
99 -198 -165 0
-160 186 150 0
-176 44 15 0
140 -188 -35 0
-185 -77 89 0
11 -102 -115 0
-2 160 106 0
111 -144 82 0
104 -85 -167 0
103 -176 -63 0
-71 -21 29 0
-68 -172 186 0
-141 134 89 0
48 -30 136 0
-80 -109 128 0
-60 64 105 0
-111 -73 80 0
188 -134 -175 0
-107 -196 62 0
179 104 -121 0
-71 -185 -35 0
194 114 120 0
17 164 18 0
-194 -63 184 0
-199 -26 73 0
-81 -78 29 0
-83 178 -49 0
187 -99 16 0
108 141 89 0
164 -88 -42 0
-14 188 91 0
-29 -181 -132 0
57 -117 -190 0
110 -33 -3 0
188 -178 -161 0
88 77 122 0
-115 -131 124 0
-118 -139 114 0
44 76 176 0
-129 -139 -52 0
182 -168 89 0
-114 -128 173 0
188 -29 193 0
80 -177 153 0
-45 -76 -142 0
-114 -54 -161 0
114 56 198 0
-39 20 -53 0
59 -123 38 0
-190 70 -145 0
-44 141 30 0
142 -44 -86 0
163 130 171 0
-46 -100 -135 0
-72 123 59 0
87 -15 120 0
34 -87 -149 0
-178 -182 -119 0
-127 -50 95 0
27 -117 42 0
35 -113 39 0
139 122 -8 0
-17 193 -109 0
-197 -190 -45 0
-97 -3 18 0
191 3 -174 0
43 92 -37 0
-167 -54 104 0
129 -131 -171 0
176 160 126 0
110 -9 62 0
110 -49 -4 0
-50 -46 49 0
150 -46 -70 0
193 -137 161 0
-113 -180 173 0
-175 25 125 0
177 -40 -80 0
125 67 161 0
-54 -80 -127 0
-178 196 -12 0
27 60 17 0
-22 140 52 0
-87 -82 158 0
-34 132 104 0
113 108 181 0
-137 80 -181 0
179 107 -61 0
-97 173 188 0
134 145 -73 0
171 139 -170 0
-53 196 138 0
108 -99 106 0
24 -180 39 0
55 -198 104 0
22 13 61 0
51 7 -141 0
30 -189 73 0
54 100 153 0
-158 -79 -35 0
-45 5 128 0
-22 -95 -14 0
102 81 -196 0
152 134 23 0
-159 -45 -133 0
-156 170 -15 0
-106 36 112 0
-187 -128 28 0
-63 -199 23 0
129 137 132 0
67 118 -168 0
94 -185 -172 0
-92 104 131 0
69 -165 67 0
90 6 134 0
107 178 156 0
-36 112 22 0
-92 -60 105 0
-52 84 -148 0
166 131 146 0
-115 155 125 0
-130 -61 89 0
-14 -116 135 0
-88 -83 86 0
176 96 132 0
-100 181 -157 0
-160 19 -151 0
-38 17 124 0
-75 -27 -105 0
-43 18 -19 0
-15 -161 -129 0
55 -18 -15 0
-157 138 -6 0
-109 -141 135 0
-18 -145 -45 0
192 -107 -91 0
89 98 118 0
167 -57 -73 0
38 128 -49 0
91 39 106 0
-27 -74 -92 0
-196 108 -68 0
-198 153 -139 0
135 90 13 0
-68 -196 59 0
192 102 -126 0
-148 -93 46 0
93 -54 -60 0
-38 -85 -72 0
-158 -182 -64 0
92 -102 31 0
-130 59 147 0
89 90 86 0
-164 136 185 0
115 -82 44 0
115 25 67 0
182 -137 -35 0
-194 -111 -196 0
-125 8 -196 0
-75 173 167 0
-9 170 117 0
-145 159 54 0
119 174 -19 0
-161 -187 -81 0
16 -26 -2 0
199 -133 49 0
51 -27 -142 0
-116 -141 -26 0
3 -2 -24 0
-116 -138 129 0
-1 -145 -185 0
-174 32 87 0
-72 -36 -1 0
146 -147 116 0
-188 22 -155 0
-76 -123 156 0
-152 180 -147 0
136 17 101 0
-149 116 113 0
-150 -60 -170 0
85 -90 184 0
24 -167 -25 0
65 -113 -158 0
81 78 -152 0
-140 81 196 0
91 -117 -77 0
184 -44 -33 0
-115 19 -186 0
-9 200 -17 0
83 124 -126 0
110 -61 120 0
109 -82 -105 0
95 -199 -4 0
-194 143 -149 0
-12 -132 15 0
-175 -156 43 0
-84 166 -94 0
-40 -196 -65 0
193 14 196 0
119 16 106 0
-22 -189 -196 0
-123 147 -28 0
-70 -142 2 0
-60 -187 -100 0
-159 -173 -65 0
-91 -27 21 0
126 20 -104 0
-63 44 145 0
-126 55 -142 0
-123 200 148 0
-58 162 83 0
2 77 4 0
184 137 191 0
161 60 166 0
-181 165 -199 0
34 67 173 0
185 -48 -79 0
19 80 67 0
69 97 -10 0
-87 130 -18 0
118 -14 3 0
-13 -24 -77 0
106 70 12 0
-127 192 191 0
90 33 -159 0
24 89 157 0
-152 -82 45 0
-117 121 51 0
-145 47 120 0
51 -33 159 0
61 -48 27 0
-81 -161 91 0
182 -160 1 0
-95 -150 -5 0
75 -36 -91 0
97 146 111 0
125 -124 -88 0
118 -136 106 0
103 -134 -89 0
126 -71 76 0
-87 150 -198 0
-54 192 -79 0
-196 -91 141 0
-1 142 -43 0
-175 -159 -116 0
-31 -67 -154 0
29 144 12 0
88 -144 -22 0
199 85 103 0
-199 -154 10 0
-79 -55 -68 0
-159 -96 153 0
37 -127 61 0
-36 -120 65 0
38 62 -183 0
94 -155 -113 0
-30 -57 90 0
-142 58 113 0
-8 -132 144 0
-108 -154 -87 0
-105 130 -108 0
79 161 -143 0
-46 123 -5 0
-119 190 150 0
-164 -180 16 0
-39 161 -101 0
70 140 49 0
152 -88 24 0
156 -67 16 0
-132 188 -133 0
40 -197 -85 0
-24 -108 119 0
-178 -75 -71 0
-103 -24 -33 0
110 10 -103 0
-150 70 136 0
38 -166 -192 0
-92 117 7 0
148 -38 -42 0
-45 149 44 0
90 -173 137 0
134 -38 91 0
-89 106 64 0
40 139 -41 0
-147 -23 -60 0
167 129 -158 0
94 -79 -195 0
-135 95 -25 0
185 43 68 0
-141 -38 1 0
-1 197 169 0
164 -117 196 0
-66 -70 -142 0
134 17 -198 0
-26 187 160 0
-199 131 110 0
-114 -124 -186 0
-71 123 -116 0
9 -97 -126 0
44 73 -19 0
158 -74 84 0
-62 -35 157 0
-134 -61 90 0
-117 8 108 0
109 58 26 0
199 41 55 0
106 -91 -119 0
105 11 132 0
40 -157 21 0
16 9 108 0
-183 41 98 0
-102 39 148 0
43 56 -129 0
-5 -63 -24 0
73 -103 -150 0
15 -139 176 0
-55 92 125 0
58 -153 53 0
-190 40 -184 0
-124 -176 24 0
-105 33 29 0
-91 -157 83 0
-143 -150 21 0
74 -82 172 0
-138 164 -109 0
64 -15 159 0
-103 -35 122 0
144 -181 74 0
79 103 181 0
132 -183 -169 0
-38 139 87 0
98 -21 -75 0
-39 -47 -136 0
48 93 -78 0
-90 84 146 0
-157 180 197 0
-149 58 -170 0
51 77 -185 0
68 -89 -90 0
29 187 -171 0
-180 198 -138 0
54 -155 197 0
-30 -157 59 0
-59 5 67 0
-187 76 -152 0
-113 181 182 0
100 -20 17 0
92 117 128 0
-136 -89 134 0
-82 22 182 0
-130 -100 50 0
173 -77 -167 0
51 -16 -181 0
-125 54 14 0
177 33 -159 0
-28 -184 117 0
-49 -24 60 0
18 174 -173 0
76 -126 45 0
33 -121 -91 0
44 107 -18 0
168 164 -161 0
63 -148 -150 0
-78 167 -150 0
-56 -29 -187 0
-88 -118 -22 0
-18 -75 -85 0
53 8 -97 0
-158 -3 183 0
-52 176 125 0
70 83 14 0
-20 -156 -73 0
158 -113 -120 0
58 77 102 0
-79 192 15 0
160 74 85 0
-33 -105 98 0
50 -155 68 0
-179 -115 -97 0
55 -63 -35 0
123 75 -155 0
-44 20 -153 0
107 111 135 0
131 -96 94 0
-101 -95 165 0
142 94 46 0
-163 -76 176 0
-124 127 66 0
-185 -157 126 0
66 112 -45 0
-84 55 40 0
-78 -119 -71 0
22 -110 42 0
167 79 -22 0
49 9 -134 0
72 119 45 0
-114 -149 63 0
186 127 -126 0
47 151 -2 0
-113 -39 22 0
135 -167 -119 0
-31 -139 150 0
89 173 8 0
76 -20 -54 0
-132 106 60 0
122 58 172 0
76 -77 195 0
19 -155 -40 0
154 -143 77 0
122 -177 60 0
-102 -195 -191 0
185 176 -112 0
51 166 111 0
12 -90 -60 0
56 -76 -131 0
14 125 115 0
-40 -23 -41 0
156 -110 -27 0
-192 173 32 0
72 109 79 0
102 -10 2 0
-196 -46 109 0
86 99 -124 0
133 -3 122 0
-107 -66 106 0
-195 -54 88 0
-13 -106 -10 0
-28 42 -94 0
-198 -153 -58 0
-100 -92 61 0
107 117 39 0
-124 64 174 0
-177 108 -59 0
68 120 -82 0
-90 164 -149 0
-160 -94 -84 0
191 -153 95 0
181 -63 -46 0
22 -82 -169 0
62 -54 -137 0
144 -151 -26 0
193 -2 169 0
-87 -114 -103 0
-28 -136 -10 0
66 4 125 0
-29 59 -183 0
-181 187 -180 0
14 -105 -78 0
43 5 136 0
4 -112 -113 0
-162 -79 114 0
-170 -68 -122 0
88 -159 -108 0
188 158 12 0
-44 -91 174 0
-152 -114 70 0
-122 89 -9 0
93 182 -171 0
-180 53 76 0
-87 154 -138 0
-84 -54 -97 0
195 53 128 0
117 114 126 0
-111 62 13 0
198 70 -36 0
93 -13 156 0
67 -77 -12 0
-22 -70 118 0
-37 193 -40 0
-116 -54 -14 0
191 -93 -105 0
-168 97 -10 0
161 -62 40 0
46 139 87 0
53 -192 -47 0
37 182 -123 0
114 -30 72 0
139 -110 -25 0
159 -67 -72 0
-159 -127 112 0
107 43 -52 0
2 162 30 0
-166 32 6 0
6 -196 -18 0
-137 -159 -128 0
116 -7 -151 0
193 -105 -47 0
74 -24 -14 0
-2 157 193 0
-58 -115 -180 0
126 141 148 0
195 174 -56 0
-120 -64 185 0
-4 181 -69 0
-129 145 -10 0
-181 -123 66 0
151 -169 120 0
59 -15 165 0
65 -72 174 0
-107 19 159 0
-171 199 -162 0
-129 169 92 0
-161 -26 -39 0
27 -53 1 0
158 172 189 0
-147 -14 -37 0
190 41 -93 0
135 -37 126 0
68 125 21 0
-101 62 45 0
120 6 22 0
10 -27 -91 0
-183 167 119 0
148 -123 134 0
4 130 139 0
-174 -168 188 0
32 -24 195 0
-107 8 36 0
142 122 98 0
69 159 56 0
21 -199 75 0
98 8 -38 0
-58 105 63 0
-39 -47 -199 0
-8 54 -185 0
119 127 111 0
-51 -175 -127 0
-10 -119 60 0
-63 -85 135 0
-49 78 146 0
-92 -146 108 0
163 -123 16 0
-51 14 -113 0
-39 147 28 0
38 51 76 0
-133 22 73 0
84 129 178 0
107 133 84 0
-117 -26 24 0
190 -94 -73 0
142 21 -94 0
160 -10 164 0
18 14 154 0
-150 -160 -133 0
161 -60 186 0
-17 -152 186 0
-63 92 16 0
106 -3 -85 0
6 -139 172 0
183 -171 56 0
-134 108 64 0
150 32 -181 0
162 167 57 0
137 58 8 0
-108 8 -181 0
13 -185 -174 0
178 112 62 0
-115 -95 -150 0
-136 37 -22 0
66 -127 80 0
169 35 -157 0
62 -34 -126 0
-137 -100 147 0
-123 171 145 0
10 -139 -81 0
-8 -4 33 0
-114 -48 -57 0
-180 171 135 0
119 -13 -39 0
87 164 -131 0
43 -199 -21 0
-19 -47 190 0
-82 185 -125 0
67 55 98 0
-9 104 54 0
101 42 -114 0
-66 -175 -3 0
65 -117 -179 0
47 -191 -196 0
-123 64 -16 0
29 -41 191 0
-72 -89 -181 0
-127 -39 -44 0
-77 -143 10 0
-22 20 -160 0
-161 27 -42 0
167 19 139 0
-134 67 -188 0
-12 115 29 0
-80 170 -3 0
-196 138 155 0
-184 63 101 0
-175 81 -127 0
75 -33 126 0
108 -152 -74 0
-160 -141 -47 0
-160 -200 -48 0
15 -100 76 0
187 1 -164 0
181 -150 -6 0
22 75 27 0
-89 81 -97 0
26 82 72 0
89 -148 -37 0
-9 158 -157 0
-48 -94 -1 0
-62 43 -98 0
-131 189 129 0
-94 -14 99 0
-30 -99 138 0
-35 93 -25 0
-86 -95 -64 0
-54 35 102 0
-62 38 -75 0
-134 69 15 0
-44 2 170 0
17 -163 -125 0
165 167 -144 0
-37 -114 -103 0
199 126 -184 0
-114 85 140 0
-111 -196 -14 0
51 -162 -91 0
-32 190 178 0
108 -83 30 0
59 101 -61 0
109 100 -168 0
-39 -83 -32 0
-186 -72 190 0
42 48 114 0
-65 39 -44 0
184 150 -176 0
91 155 -162 0
58 120 -71 0
51 35 -133 0
103 119 -146 0
-71 -39 33 0
150 110 84 0
29 99 -145 0
26 -106 -107 0
-40 109 39 0
-72 20 159 0
146 -35 106 0
-30 -175 -28 0
-150 -190 180 0
-156 89 -21 0
197 -135 -138 0
-5 -161 113 0
152 28 -117 0
-138 -94 -23 0
18 -192 185 0
-160 53 -42 0
176 -152 55 0
-110 93 -105 0
-118 123 53 0
-86 -133 -75 0
121 117 -65 0
-73 103 -61 0
-24 -198 -124 0
-87 48 -81 0
-13 -170 70 0
-63 -45 152 0
-110 -190 -186 0
155 194 46 0
-200 142 180 0
106 127 -134 0
-14 117 181 0
-20 154 150 0
-102 -17 -157 0
136 84 -58 0
200 112 130 0
-43 -70 -44 0
145 -177 -157 0
122 94 -101 0
59 116 89 0
180 -164 66 0
-103 -110 149 0
-91 64 44 0
-112 107 38 0
-200 -91 -163 0
-151 -72 64 0
-67 57 107 0
139 -119 -69 0
93 194 -151 0
-77 14 -34 0
185 -152 -29 0
-191 103 -26 0
94 -185 -89 0
-121 42 -114 0
-139 97 161 0
-4 -127 -7 0
-122 20 -15 0
181 80 -191 0
-75 -172 143 0
-77 -147 114 0
-161 -143 49 0
37 120 176 0
-57 -50 173 0
-179 -185 -157 0
-179 -114 -9 0
-44 53 -113 0
4 38 -75 0
15 -28 -154 0
96 -34 -114 0
139 -54 -116 0
95 43 -62 0
-115 130 58 0
109 29 53 0
104 39 -199 0
79 85 -111 0
122 69 -149 0
-28 -159 168 0
2 -124 92 0
-131 -102 -79 0
-118 -5 4 0
139 -39 86 0
-110 -59 -179 0
187 -67 118 0
-11 84 -115 0
-197 -123 158 0
-127 -118 -30 0
174 31 -120 0
-117 -159 -180 0
138 95 171 0
-199 -23 -161 0
-29 46 -75 0
112 186 69 0
19 -175 110 0
-54 40 189 0
156 18 -181 0
199 -157 149 0
38 145 -31 0
-127 5 174 0
-175 17 -11 0
-87 -174 -188 0
-66 31 -65 0
-146 -86 101 0
172 98 139 0
135 74 79 0
-11 -5 -183 0
109 -120 189 0
1 16 -13 0
-87 101 31 0
-133 -66 -31 0
11 -121 -133 0
49 -88 110 0
-158 -6 22 0
-13 98 18 0
