c Large 3-SAT formula for GPU testing
c 500 variables, 3000 clauses (ratio: 6.0)
p cnf 500 3000
-5 238 -233 0
-268 -374 120 0
-444 -54 266 0
179 56 88 0
-471 -220 -403 0
-403 410 350 0
41 -84 -241 0
-9 -76 370 0
-201 73 202 0
-88 -320 255 0
-161 232 151 0
-206 273 6 0
212 457 224 0
379 43 -478 0
337 38 171 0
-335 90 262 0
164 274 381 0
377 390 449 0
-417 -351 20 0
-211 278 190 0
329 -365 244 0
119 -327 -232 0
269 261 -17 0
432 418 -27 0
310 -189 451 0
399 -118 317 0
487 -266 278 0
257 152 -472 0
160 123 -375 0
238 244 499 0
-487 -288 221 0
283 218 59 0
318 5 -477 0
266 -49 -344 0
447 -156 486 0
-347 -30 195 0
321 224 -302 0
472 -57 220 0
14 -445 275 0
184 495 -75 0
429 344 -272 0
-281 89 14 0
-209 103 -223 0
-217 -481 -91 0
-295 86 -45 0
131 451 -258 0
-123 256 -189 0
144 -375 -430 0
-391 268 368 0
-275 118 370 0
395 -292 -398 0
192 -86 314 0
180 -410 -154 0
-401 460 -67 0
-456 -302 97 0
-163 -489 -318 0
330 240 -427 0
95 -292 388 0
391 185 392 0
-186 298 310 0
-486 -360 347 0
-80 -20 -474 0
-15 401 261 0
412 -205 -433 0
-108 168 -409 0
410 382 -480 0
-480 251 67 0
-206 -201 -143 0
-18 -44 30 0
230 264 -199 0
42 -462 -127 0
-297 -44 167 0
20 -285 10 0
192 134 -409 0
-379 118 -380 0
-282 175 176 0
405 -122 -437 0
176 -22 -473 0
-273 -383 -57 0
12 160 -401 0
429 -456 353 0
153 349 -66 0
-79 498 305 0
188 41 -257 0
-185 85 -239 0
131 -149 -305 0
355 154 -371 0
47 -173 -265 0
130 -100 98 0
-160 449 111 0
282 -413 280 0
-261 -398 91 0
-29 -310 177 0
236 -342 -187 0
398 -458 -331 0
277 -463 372 0
-163 488 311 0
396 450 -359 0
-145 269 -185 0
-109 -199 -273 0
31 392 140 0
181 418 -118 0
-259 -362 -14 0
-114 -312 225 0
-304 330 -192 0
38 -33 -381 0
-405 -10 -219 0
-346 418 206 0
458 -225 -234 0
-287 421 -403 0
485 -488 -375 0
-202 -169 40 0
-162 251 -155 0
12 -76 -186 0
216 -121 -358 0
289 291 -85 0
319 197 -335 0
323 8 104 0
452 322 316 0
-1 138 494 0
-251 -152 35 0
-184 -292 -186 0
433 428 -114 0
343 443 -56 0
249 -357 432 0
415 -88 220 0
142 -199 372 0
475 -172 216 0
482 459 55 0
-464 -77 -188 0
-98 158 301 0
-153 429 -174 0
-85 187 416 0
108 -463 -142 0
-51 437 -215 0
351 89 333 0
-474 229 -105 0
-495 -412 -274 0
-69 145 463 0
-482 197 178 0
-413 220 349 0
-46 499 -249 0
-104 180 -132 0
274 186 496 0
154 466 -134 0
482 -448 319 0
29 -133 388 0
-24 138 -160 0
-122 -382 -233 0
218 127 -466 0
-59 162 -189 0
-454 -99 382 0
279 -494 -212 0
166 101 -437 0
425 -483 364 0
-458 57 -451 0
331 -200 254 0
-178 414 48 0
180 -263 -83 0
-352 -303 -381 0
465 287 357 0
179 113 -461 0
-436 345 42 0
-113 -309 6 0
17 65 -77 0
-432 -194 -196 0
55 -113 -231 0
147 -183 110 0
176 466 198 0
355 490 -11 0
-151 -307 -291 0
-36 74 -106 0
255 353 3 0
254 -419 -383 0
-390 -373 445 0
-387 157 478 0
-391 335 -2 0
-352 -400 446 0
70 258 144 0
-392 316 -269 0
262 396 434 0
141 -7 -122 0
-224 -9 391 0
49 391 -464 0
262 370 11 0
-326 196 454 0
-152 -456 -104 0
259 -324 25 0
348 56 276 0
374 -298 214 0
223 -332 230 0
-390 -338 -228 0
-440 383 199 0
-203 142 -74 0
382 274 303 0
288 321 -429 0
-44 -475 -473 0
453 370 363 0
-230 87 34 0
-148 -495 467 0
133 -87 257 0
-228 -213 -159 0
8 434 478 0
-36 -326 -262 0
270 -382 266 0
14 -260 -147 0
406 -191 -100 0
489 -468 -45 0
-403 51 33 0
-48 424 152 0
402 -173 -123 0
-71 340 246 0
247 467 -377 0
-87 -201 156 0
-369 -86 32 0
11 -440 -60 0
-11 -361 457 0
332 -178 -46 0
-130 -300 116 0
315 -460 267 0
-167 40 -193 0
108 287 -266 0
-318 -412 21 0
451 -214 360 0
169 153 367 0
309 365 398 0
242 217 419 0
246 442 -140 0
-293 347 239 0
467 -134 -141 0
302 -249 -296 0
160 -33 253 0
-308 71 348 0
37 376 470 0
498 387 286 0
199 402 -455 0
107 -196 -488 0
-98 402 -413 0
-109 344 -335 0
122 424 441 0
425 -437 322 0
425 78 -407 0
249 429 -149 0
-317 468 -10 0
321 265 7 0
207 235 -78 0
228 219 88 0
309 -205 -9 0
62 341 -16 0
-115 -123 81 0
-481 361 -329 0
473 -169 154 0
-349 -464 -324 0
354 -285 -29 0
432 222 -123 0
225 -247 128 0
-290 -157 482 0
479 293 -180 0
383 211 493 0
361 355 -483 0
-353 -170 -233 0
-411 364 -391 0
197 370 -163 0
477 -122 -310 0
-268 129 334 0
405 -340 -499 0
-32 -236 257 0
281 -207 193 0
-88 320 252 0
-325 -115 -38 0
-123 21 -72 0
272 -204 318 0
5 134 240 0
462 -74 378 0
202 352 182 0
186 376 444 0
279 56 -420 0
-435 477 64 0
224 -458 156 0
-459 -206 -377 0
15 -131 54 0
297 -274 57 0
-1 -321 307 0
-38 -51 -170 0
-185 75 486 0
140 -186 -265 0
-343 -71 -84 0
306 -352 -223 0
-419 349 -5 0
259 -371 119 0
-236 -416 56 0
99 131 -469 0
-19 -114 -450 0
218 -497 462 0
195 361 -282 0
378 293 387 0
174 253 -13 0
-150 -314 482 0
5 468 113 0
101 -49 -29 0
-138 -302 344 0
-472 167 198 0
411 285 174 0
-138 316 323 0
114 -434 -196 0
-183 -398 -15 0
-161 83 115 0
-365 -23 83 0
-155 -444 -455 0
291 -435 2 0
479 -397 401 0
-219 493 285 0
-93 214 -458 0
-439 -137 -249 0
14 326 -240 0
187 377 444 0
-136 240 -357 0
53 -180 263 0
-264 -165 82 0
-407 -128 -142 0
-240 -26 -363 0
385 212 83 0
43 375 -455 0
128 69 -289 0
-148 -207 -225 0
-37 -448 386 0
-460 172 333 0
482 -107 356 0
-343 -351 -465 0
492 -248 335 0
283 -180 486 0
-23 -400 47 0
-157 197 34 0
245 -4 -429 0
451 256 329 0
391 -446 151 0
347 -339 378 0
-12 312 -204 0
309 -173 372 0
-321 300 183 0
-232 -4 307 0
26 410 -93 0
-8 -470 -204 0
152 144 234 0
-218 -116 -415 0
-221 220 -413 0
384 -47 121 0
-303 -439 -95 0
-132 -448 149 0
-60 -204 -318 0
73 470 -425 0
329 449 140 0
232 269 28 0
218 323 -408 0
271 15 109 0
-166 227 -164 0
-120 289 158 0
-272 135 385 0
84 -5 123 0
-213 -419 301 0
31 -184 -69 0
-131 -132 -78 0
-220 -421 -187 0
403 -465 -380 0
127 -178 464 0
-296 -375 -179 0
-68 451 367 0
-442 -333 -209 0
-423 -131 -390 0
305 -338 282 0
25 -456 294 0
-320 -470 362 0
-58 -334 327 0
176 -499 175 0
-339 129 -319 0
-400 162 -18 0
171 346 -188 0
346 -272 469 0
-425 -451 348 0
21 -390 173 0
158 -22 -448 0
377 162 -246 0
-298 -163 -190 0
-110 458 403 0
-209 -158 -257 0
166 167 58 0
-400 -148 200 0
-321 25 -253 0
466 -4 -20 0
421 -484 -231 0
324 -86 68 0
452 -203 379 0
-356 413 -352 0
-345 -239 13 0
-140 -177 348 0
152 -330 228 0
-155 -158 -203 0
-431 -3 11 0
-417 261 103 0
-230 481 257 0
-129 228 -192 0
298 -109 367 0
-341 171 -45 0
-45 -478 -307 0
353 -161 20 0
-138 494 375 0
117 328 419 0
-4 -371 481 0
-336 38 -423 0
197 26 -150 0
-356 -165 -25 0
-279 -9 430 0
299 436 -93 0
-80 468 276 0
193 -200 189 0
32 -216 -280 0
-67 139 -210 0
347 -18 -163 0
397 -490 444 0
-20 -213 198 0
161 390 231 0
114 -315 -74 0
187 -120 -201 0
-409 435 41 0
-396 427 -31 0
-466 93 200 0
112 -99 -92 0
-238 329 -175 0
243 278 -38 0
182 -333 258 0
322 -126 -290 0
273 470 399 0
1 -481 -287 0
433 212 -434 0
164 -405 -338 0
340 165 -137 0
257 416 32 0
172 205 -326 0
-92 -118 346 0
-363 -383 465 0
-330 421 135 0
440 152 205 0
-459 -15 -421 0
-359 5 -22 0
187 -344 268 0
-209 -482 33 0
131 -439 -326 0
-218 96 -212 0
300 426 340 0
331 243 12 0
499 67 497 0
94 263 -371 0
-171 -497 348 0
-73 366 464 0
78 135 -82 0
402 -218 487 0
332 -363 -375 0
334 -92 -482 0
-13 -15 -83 0
11 -20 -58 0
-208 215 -55 0
210 410 -87 0
466 -471 -179 0
-230 216 -108 0
74 389 -475 0
-289 463 -145 0
42 171 -36 0
-108 -273 -182 0
433 278 -385 0
-350 74 199 0
-111 129 173 0
-313 -393 -85 0
-240 -357 228 0
-18 -394 320 0
-486 -170 -461 0
-350 182 -326 0
125 -310 -192 0
-65 -330 -288 0
-22 -113 61 0
-90 -185 168 0
-432 315 495 0
207 337 304 0
187 -122 -330 0
-201 39 202 0
184 113 304 0
-81 -447 -206 0
-466 221 -424 0
306 -135 396 0
424 143 -111 0
240 286 78 0
320 -248 500 0
-307 -177 397 0
-399 477 -164 0
-338 438 308 0
-465 415 289 0
-221 358 -272 0
-442 259 -83 0
-350 -96 -147 0
-435 -334 -215 0
249 78 -195 0
451 -13 -371 0
-168 148 -449 0
271 -7 275 0
-386 -187 200 0
-125 439 -182 0
-219 -209 -255 0
-396 199 190 0
-291 356 -170 0
297 131 -33 0
378 490 350 0
105 48 314 0
103 -282 374 0
351 -448 25 0
158 32 9 0
-124 115 -322 0
285 -255 -55 0
360 50 363 0
-134 295 -187 0
349 -135 -38 0
153 -138 363 0
-493 -57 304 0
109 -460 399 0
-209 393 -196 0
378 272 -312 0
-88 -338 -466 0
304 -136 -20 0
-316 -467 -124 0
417 -492 -337 0
-225 -107 -456 0
495 -372 -317 0
28 -158 174 0
60 -231 -439 0
108 -462 -50 0
368 -20 396 0
32 -137 339 0
-67 -341 153 0
-454 -441 -404 0
-381 210 463 0
-228 190 -333 0
-135 -253 -443 0
445 -140 85 0
112 -367 -444 0
291 34 211 0
-273 -293 390 0
302 149 471 0
-136 -395 -303 0
465 -21 -313 0
425 -15 -104 0
18 -3 399 0
9 375 -478 0
263 373 -287 0
-188 -239 347 0
-377 224 8 0
-456 451 76 0
-155 473 -305 0
61 -154 378 0
-419 116 290 0
-27 78 -320 0
-209 214 120 0
125 -226 -15 0
133 -245 -478 0
185 -328 -87 0
-74 10 -141 0
136 -216 261 0
393 160 -27 0
375 173 -429 0
211 -119 -180 0
315 -414 285 0
-409 -429 -453 0
242 341 -182 0
294 -242 285 0
-252 460 -344 0
290 377 465 0
-435 -169 -239 0
-379 298 -254 0
-425 -3 -417 0
486 -128 -352 0
-277 96 -305 0
-497 -191 -5 0
386 160 -193 0
160 169 -48 0
-356 -301 298 0
50 -256 257 0
236 -281 -492 0
-298 -123 22 0
-422 -473 61 0
42 448 219 0
-181 301 65 0
107 -46 -48 0
209 419 408 0
-108 279 -479 0
134 140 403 0
-82 311 -324 0
179 482 -394 0
301 -440 -456 0
350 263 150 0
5 -11 467 0
-19 -210 -287 0
27 -277 398 0
-432 476 329 0
-4 -414 328 0
-107 111 333 0
79 -346 -487 0
-373 154 -412 0
128 475 339 0
-410 418 -269 0
206 -468 318 0
38 -252 -5 0
-192 -302 260 0
-247 246 405 0
238 -70 365 0
25 -169 354 0
279 -419 -343 0
429 343 -379 0
16 175 -436 0
-239 -197 432 0
-431 -150 41 0
460 -97 197 0
-170 -147 72 0
-56 -95 -477 0
-238 217 159 0
-359 368 489 0
-443 331 -384 0
304 -221 -11 0
97 -114 -242 0
105 -278 242 0
-159 -131 -275 0
230 262 59 0
251 -399 -149 0
90 35 339 0
141 180 165 0
280 -442 413 0
-428 260 -228 0
207 391 462 0
156 -392 -94 0
-419 -334 -183 0
-22 393 372 0
497 183 26 0
-11 -113 74 0
39 -87 141 0
-428 283 -406 0
-146 291 202 0
157 420 -388 0
-341 -343 -110 0
4 -486 -27 0
300 175 159 0
321 407 142 0
-268 24 3 0
278 311 344 0
-148 357 -52 0
-76 487 -19 0
391 369 -458 0
449 -291 -327 0
-468 474 -291 0
496 -465 263 0
158 18 313 0
-458 -46 -1 0
381 -479 -154 0
332 -467 145 0
446 -56 24 0
-90 -298 -370 0
361 353 -494 0
-133 63 495 0
7 403 400 0
-452 -22 -470 0
207 -253 66 0
76 -448 312 0
102 -375 348 0
-136 445 -331 0
187 74 -62 0
-425 -299 220 0
-84 80 465 0
-414 -216 392 0
333 -9 -238 0
469 85 92 0
-341 -143 -315 0
359 -182 -408 0
391 -156 127 0
81 281 -64 0
100 62 468 0
189 -286 317 0
-216 65 -105 0
-419 381 -234 0
-464 288 -279 0
260 -411 247 0
381 342 334 0
-428 76 -257 0
177 -479 265 0
79 -256 -134 0
272 146 -306 0
-346 23 120 0
-201 348 367 0
244 -57 -61 0
-167 312 -212 0
72 443 -325 0
-238 452 433 0
75 -330 366 0
-414 -350 -170 0
-405 -108 -139 0
114 293 97 0
68 -77 412 0
-320 394 395 0
-16 -429 93 0
-352 -94 -385 0
-4 -293 165 0
-362 486 397 0
393 -349 -143 0
316 -335 -4 0
4 84 398 0
395 -352 418 0
225 454 70 0
-105 -434 -171 0
-233 -479 24 0
264 400 -492 0
-463 398 -227 0
-308 -406 -109 0
-104 -205 247 0
-321 -314 -193 0
201 -482 -468 0
-433 449 422 0
17 -355 407 0
-6 105 135 0
-325 -341 339 0
-91 -373 -152 0
444 145 179 0
-444 -196 -191 0
136 -141 -47 0
-282 171 -79 0
2 243 50 0
-292 369 -36 0
439 365 -358 0
-434 286 6 0
-416 -253 -22 0
426 101 217 0
-45 -146 -277 0
-70 418 369 0
80 -78 320 0
-465 488 128 0
498 266 -223 0
-425 231 116 0
-317 -95 -445 0
358 -4 405 0
-188 -175 294 0
-307 -69 485 0
-301 -435 -79 0
-267 -345 -143 0
-353 142 445 0
-139 156 121 0
-12 435 -450 0
-127 -245 449 0
212 71 35 0
-189 94 -111 0
84 308 364 0
-227 59 -91 0
-80 184 201 0
479 -151 274 0
-38 88 266 0
-313 67 282 0
-310 104 415 0
432 152 -441 0
-240 455 409 0
-243 -408 -226 0
-19 -312 -177 0
244 -285 -331 0
-458 -129 -9 0
-88 -426 -37 0
-177 50 -234 0
-230 -248 485 0
-126 -222 -489 0
364 -269 293 0
-375 226 52 0
163 32 276 0
-169 483 -39 0
101 -46 -257 0
-182 13 426 0
-106 -17 380 0
-95 487 -135 0
-294 -150 377 0
167 -86 -56 0
2 495 -7 0
255 138 -159 0
-500 186 68 0
154 374 47 0
66 483 113 0
201 9 -357 0
128 -187 303 0
188 65 5 0
438 -358 -29 0
280 477 -39 0
-323 444 213 0
-475 -159 -203 0
309 79 -479 0
-459 -395 23 0
276 306 -31 0
62 -113 34 0
357 127 362 0
-452 -327 -156 0
359 -492 125 0
447 -224 105 0
117 404 -148 0
494 227 15 0
271 -163 270 0
-495 196 -264 0
-487 451 115 0
-115 336 238 0
-277 -259 198 0
128 -7 -136 0
-126 59 317 0
24 -139 -271 0
-306 272 -421 0
-8 135 -430 0
-141 -94 -107 0
197 237 -202 0
200 -117 47 0
-19 -120 245 0
282 453 -181 0
-159 256 -17 0
84 -99 108 0
-96 352 210 0
-84 330 -293 0
63 -72 -161 0
304 -433 284 0
425 73 317 0
-35 -122 -375 0
-213 357 -85 0
-232 -16 100 0
177 444 255 0
471 -92 93 0
-386 379 205 0
202 212 -436 0
-351 73 168 0
77 158 379 0
500 141 -383 0
-101 -4 -460 0
-316 -249 379 0
383 133 409 0
159 -274 -257 0
-484 279 214 0
-499 416 340 0
406 -364 131 0
163 355 -481 0
418 -155 30 0
123 339 403 0
-203 429 376 0
412 232 -377 0
134 -29 337 0
283 124 -22 0
-238 430 -242 0
448 -316 -103 0
267 -124 299 0
-281 498 -51 0
-216 417 142 0
-90 247 495 0
-231 -457 87 0
323 143 424 0
-400 329 -2 0
253 -114 -387 0
-407 -470 -463 0
392 224 -139 0
-491 146 430 0
35 -270 363 0
320 -58 24 0
-378 -318 -11 0
383 449 4 0
-180 324 -142 0
-448 121 473 0
24 -453 443 0
-2 251 -248 0
121 308 -352 0
-123 -263 -349 0
352 -28 -218 0
-349 -483 -71 0
-312 495 207 0
-49 -319 500 0
-484 282 -128 0
337 43 -458 0
367 -208 145 0
108 -174 -347 0
67 229 234 0
-302 128 -437 0
-4 -126 -183 0
145 -74 -122 0
106 -282 408 0
370 293 62 0
320 99 -460 0
-498 390 102 0
-243 240 -167 0
65 -107 112 0
305 125 100 0
-36 207 -378 0
-445 1 -89 0
456 -59 -142 0
-302 -278 351 0
309 224 -28 0
-95 264 68 0
292 -398 -384 0
-309 -472 293 0
-219 76 254 0
-266 238 -255 0
421 59 -5 0
-221 394 -300 0
-305 1 300 0
-367 469 -211 0
53 360 -71 0
-90 -41 149 0
451 465 21 0
384 -75 343 0
18 355 -116 0
-495 -10 329 0
410 346 379 0
-132 -484 -214 0
-65 350 155 0
-43 -24 236 0
225 356 118 0
225 -259 195 0
-413 432 -200 0
40 310 -13 0
-362 -374 -399 0
32 81 210 0
-102 41 156 0
41 380 466 0
168 338 368 0
118 -278 160 0
-334 -452 415 0
-493 226 -308 0
-186 445 494 0
-56 241 -62 0
-462 -461 -77 0
267 -12 -312 0
-186 145 471 0
158 -302 9 0
-407 -286 279 0
260 -44 282 0
470 -76 421 0
100 -479 450 0
-482 -291 -322 0
426 -10 441 0
-364 -367 -80 0
461 -148 -48 0
-246 492 -285 0
485 350 195 0
490 160 101 0
-340 480 -119 0
-421 -121 -451 0
360 85 -147 0
432 -458 237 0
-107 -253 41 0
48 -98 -451 0
-31 5 418 0
-129 500 -393 0
328 125 260 0
180 -475 -311 0
-120 499 -135 0
289 221 127 0
422 -59 438 0
435 384 5 0
-441 291 181 0
294 -3 -240 0
-247 482 31 0
360 232 254 0
-196 -171 338 0
126 271 243 0
152 73 -484 0
-178 -480 45 0
281 335 -42 0
-253 -464 472 0
-297 402 211 0
-380 436 49 0
-491 473 113 0
-44 359 -262 0
-258 110 174 0
219 120 -480 0
-460 200 -97 0
149 76 363 0
175 -28 370 0
-394 -447 -311 0
478 498 203 0
-298 175 388 0
436 256 445 0
110 -468 -218 0
-453 441 -306 0
-352 -478 -60 0
-253 -311 350 0
19 -289 173 0
33 18 171 0
-419 -67 -370 0
156 -166 399 0
-284 -360 -443 0
93 474 234 0
377 245 188 0
-50 -412 446 0
398 455 196 0
424 -499 433 0
-68 -191 -145 0
-442 -271 -244 0
441 57 73 0
264 -442 -157 0
-73 -214 169 0
483 -2 -371 0
463 313 423 0
-241 -105 -230 0
-5 20 -262 0
226 -374 449 0
247 -484 465 0
127 -358 360 0
-230 82 456 0
399 -70 229 0
-224 295 -286 0
-399 425 50 0
-413 44 447 0
-485 421 432 0
-473 389 356 0
-377 -486 76 0
473 -112 360 0
-185 328 175 0
285 257 -395 0
-395 -457 -232 0
-295 -394 -423 0
-425 -434 -39 0
-446 -134 -181 0
-44 213 -111 0
-478 1 462 0
-312 101 -203 0
-153 -333 334 0
-295 394 9 0
325 -32 140 0
54 -4 472 0
-427 -348 210 0
-253 79 489 0
479 -341 -240 0
-298 69 452 0
-118 28 184 0
-449 355 478 0
-136 298 -70 0
114 -93 -412 0
-274 -500 254 0
422 200 49 0
80 -268 -304 0
-215 -345 -151 0
-164 331 -101 0
-155 316 128 0
-9 425 -105 0
-11 -488 -22 0
-285 294 394 0
282 -332 -305 0
-11 460 -362 0
-491 9 -497 0
174 239 185 0
-388 -351 -223 0
132 163 -160 0
467 -132 382 0
-75 -446 -384 0
-52 -27 302 0
158 97 483 0
-359 393 -195 0
397 118 -461 0
432 240 197 0
-494 435 -367 0
-291 194 478 0
-456 -281 30 0
-159 452 6 0
-263 463 -106 0
210 -242 -217 0
380 42 34 0
162 -377 -461 0
-34 -210 -418 0
147 -70 -499 0
-94 -358 84 0
-76 -143 -407 0
475 40 -360 0
361 -447 -192 0
152 271 455 0
90 -59 142 0
491 -313 -178 0
33 205 206 0
275 201 -307 0
-477 -149 322 0
155 472 495 0
-366 357 296 0
306 -67 -406 0
-350 -75 -27 0
-481 26 200 0
-260 107 403 0
-161 -381 -259 0
220 73 -185 0
-309 5 494 0
239 386 -444 0
113 -253 -25 0
-76 235 -89 0
427 50 28 0
486 -270 -104 0
5 157 31 0
33 -464 182 0
-385 -443 -212 0
109 320 98 0
-45 -239 202 0
283 464 110 0
-489 -290 -219 0
-218 -306 -379 0
313 58 245 0
30 -406 162 0
359 233 351 0
-204 -108 163 0
-312 375 -382 0
-172 -492 236 0
433 122 -31 0
372 387 432 0
137 84 -479 0
443 474 454 0
-479 204 29 0
240 -276 -435 0
-97 198 252 0
396 -188 451 0
445 35 -127 0
459 478 314 0
-248 -47 8 0
-160 279 123 0
-294 244 -35 0
386 102 -236 0
-37 -288 -267 0
-414 -328 -140 0
-103 167 -70 0
481 -254 -147 0
-45 437 -229 0
14 -383 44 0
425 49 491 0
-240 288 -237 0
-107 99 108 0
71 -188 -344 0
215 -95 -410 0
-188 139 364 0
-233 356 -41 0
-160 -202 -59 0
-390 361 333 0
454 -283 -318 0
-138 -294 136 0
-368 -93 -315 0
194 322 447 0
216 -80 -281 0
430 -49 -337 0
-82 -478 487 0
-291 -389 334 0
372 -341 -256 0
-317 -17 -463 0
-206 -361 348 0
-106 8 214 0
-252 -202 -387 0
328 460 -454 0
400 278 48 0
-353 333 108 0
133 -408 -456 0
-189 136 127 0
-121 -281 -364 0
363 -137 -153 0
-326 89 -98 0
-101 -358 -253 0
288 480 -30 0
60 195 -13 0
315 -98 -412 0
-381 138 156 0
220 -473 282 0
224 -451 44 0
72 -63 108 0
-240 301 77 0
383 -414 237 0
-340 327 88 0
162 217 -242 0
-122 248 71 0
320 80 -12 0
95 372 -265 0
-118 -172 -239 0
-271 -373 -404 0
71 496 -94 0
-246 -348 321 0
97 356 274 0
226 -398 -297 0
-76 11 -212 0
-32 -409 -248 0
325 -249 -74 0
-363 -245 472 0
-206 79 157 0
225 230 207 0
-418 -169 -368 0
-387 -24 -22 0
469 184 220 0
-313 224 -124 0
2 -52 479 0
-307 -453 -136 0
-24 93 -470 0
-172 306 286 0
81 -13 -381 0
-366 192 -401 0
-199 352 376 0
60 368 -381 0
248 64 83 0
-291 333 -403 0
-132 -374 192 0
317 -292 22 0
-178 316 -379 0
-400 -234 -450 0
176 289 -302 0
-161 81 -182 0
-329 -212 481 0
-333 259 140 0
218 -44 -447 0
338 -475 -203 0
481 67 368 0
-59 486 78 0
312 -208 -271 0
18 81 44 0
410 -189 -148 0
496 -20 -303 0
-53 357 409 0
222 44 -117 0
-424 -396 294 0
-456 -154 -256 0
-155 -51 -466 0
347 296 212 0
-54 -447 195 0
-224 -439 470 0
-267 456 231 0
-46 431 467 0
-477 -204 -102 0
64 49 -44 0
-417 413 154 0
275 35 -9 0
393 109 376 0
60 82 -194 0
-468 219 -149 0
-377 383 -393 0
440 56 -30 0
-67 -313 268 0
329 238 -170 0
273 222 208 0
108 275 -209 0
356 -418 90 0
-35 192 -253 0
158 353 476 0
276 341 114 0
484 -311 -132 0
-333 113 110 0
485 -109 230 0
168 -82 387 0
196 -278 180 0
-392 -93 259 0
256 347 144 0
130 -85 -401 0
264 157 346 0
-459 254 -378 0
165 467 -462 0
-7 274 -65 0
49 354 313 0
248 -361 194 0
174 37 -383 0
360 -298 365 0
383 417 -197 0
374 -329 444 0
-163 -429 388 0
-58 -331 421 0
56 66 -333 0
-100 237 16 0
229 463 221 0
7 9 -23 0
92 111 495 0
-306 -121 122 0
-239 -438 -316 0
-278 -287 72 0
-76 348 -351 0
301 16 158 0
421 -433 -210 0
-16 -483 -273 0
284 -296 38 0
-309 226 87 0
-119 58 391 0
-369 186 -277 0
-260 459 488 0
-296 297 -471 0
323 -486 -470 0
-91 -71 -197 0
-265 386 -177 0
-210 63 6 0
350 132 71 0
-287 -100 -88 0
209 243 -355 0
257 264 424 0
-397 -165 309 0
-344 -106 -182 0
-360 -130 220 0
42 258 474 0
163 -322 175 0
-401 383 -132 0
468 306 497 0
-440 -291 27 0
203 -358 -154 0
336 385 419 0
-201 217 -476 0
-355 411 377 0
112 -329 269 0
-445 387 384 0
-253 484 -321 0
25 -496 441 0
127 -249 -470 0
-479 -371 380 0
146 71 432 0
337 -287 122 0
-46 321 -59 0
425 109 13 0
-471 -478 -408 0
192 291 484 0
433 33 -422 0
463 290 330 0
265 192 -413 0
-329 256 -432 0
-100 141 -289 0
158 -49 -449 0
-179 -107 -486 0
-212 -420 34 0
-133 -205 -393 0
-127 58 -353 0
434 -137 -249 0
-268 265 420 0
-201 -105 -393 0
119 2 152 0
-103 -472 365 0
457 305 -151 0
160 148 -351 0
-369 375 168 0
464 200 109 0
-180 364 -318 0
-322 -157 -55 0
-340 375 -180 0
185 5 340 0
-274 181 -259 0
194 152 186 0
462 -180 -105 0
243 356 415 0
-438 133 83 0
204 -423 494 0
-324 471 -326 0
-307 -93 -208 0
-441 338 -407 0
-441 -333 101 0
-76 -138 393 0
1 230 -55 0
145 -259 277 0
11 -486 -222 0
337 -262 135 0
100 -311 -183 0
44 -444 335 0
-191 -430 -96 0
258 -273 -426 0
68 51 -339 0
148 -283 -186 0
106 499 -366 0
222 -495 263 0
-140 167 463 0
-48 -18 335 0
-279 -150 157 0
-35 -483 271 0
206 249 354 0
-384 -327 -220 0
377 -44 -480 0
-330 -455 -1 0
-449 -494 -234 0
58 -310 50 0
-236 225 358 0
477 271 11 0
-315 -70 407 0
-203 13 113 0
258 -153 -321 0
-215 381 -326 0
-237 -272 -199 0
137 -130 -376 0
-144 324 351 0
-192 85 -122 0
468 -200 263 0
353 400 43 0
-447 222 -24 0
258 -447 -63 0
-256 311 -341 0
157 -108 -473 0
-301 196 -292 0
-81 -205 122 0
444 -5 -59 0
-21 77 242 0
329 -176 -228 0
-303 83 353 0
256 -9 -288 0
-144 -248 287 0
-339 -233 425 0
326 300 308 0
464 -351 214 0
335 -353 365 0
-447 -166 99 0
329 366 -429 0
342 60 336 0
247 246 -355 0
-290 -289 309 0
38 54 -435 0
-243 412 344 0
154 -178 406 0
-324 -480 222 0
257 -386 -109 0
-126 -272 -479 0
-91 -26 -416 0
285 177 221 0
411 419 -461 0
104 286 -282 0
327 490 -101 0
200 -103 -235 0
-266 -316 365 0
-186 397 -311 0
-422 285 -291 0
-79 -385 -224 0
164 371 102 0
494 -195 450 0
-98 123 145 0
357 -429 -263 0
232 171 145 0
103 -237 -375 0
289 415 398 0
141 -320 365 0
-268 -286 -363 0
98 282 -433 0
-495 -31 -351 0
-457 182 270 0
-446 255 -82 0
392 154 -462 0
444 3 -201 0
430 -264 384 0
83 382 -437 0
-145 -282 193 0
56 450 152 0
265 131 22 0
368 479 -1 0
149 421 -382 0
-111 225 51 0
35 382 -103 0
91 20 -490 0
48 22 347 0
-368 69 87 0
-36 -406 -487 0
205 -90 -170 0
-146 234 308 0
-91 -296 -250 0
428 402 -500 0
-44 -253 -380 0
92 132 -60 0
-49 193 194 0
167 -339 256 0
427 51 -122 0
-427 -206 152 0
-269 286 97 0
280 -199 -463 0
-3 -308 171 0
185 417 286 0
119 -120 -282 0
-250 174 -62 0
74 -138 -398 0
458 442 -364 0
372 291 -196 0
306 -197 -398 0
-33 -172 -466 0
-28 -227 182 0
-481 149 -248 0
283 -140 364 0
191 374 89 0
296 -46 -456 0
-389 472 108 0
-475 -404 -295 0
-161 -461 125 0
-13 415 437 0
406 405 -345 0
-486 -100 444 0
-69 117 497 0
247 -272 441 0
-403 -75 -251 0
-448 255 139 0
52 494 -396 0
-48 -27 -258 0
97 -360 -109 0
98 249 132 0
439 345 -12 0
286 258 -30 0
-264 211 -150 0
443 9 147 0
-40 185 -177 0
72 -256 371 0
-143 372 21 0
342 375 417 0
-333 179 442 0
-316 186 412 0
-265 -319 424 0
122 -105 219 0
301 -348 179 0
-335 -234 236 0
377 53 -373 0
-231 212 160 0
103 -79 246 0
-393 8 220 0
40 -87 -441 0
244 -191 -391 0
281 367 48 0
-43 -41 -95 0
-178 -391 64 0
212 -160 482 0
-343 -82 150 0
-28 -450 -314 0
-334 -406 23 0
-380 -28 328 0
-455 -437 53 0
262 -356 -269 0
-258 -327 233 0
-478 -156 -347 0
383 -37 -460 0
-318 -394 235 0
112 -463 -5 0
61 -174 426 0
324 97 188 0
-415 146 24 0
-357 -267 -443 0
12 -184 -20 0
429 299 -300 0
3 -338 -97 0
373 -54 -9 0
74 468 -364 0
-146 381 240 0
-101 -246 84 0
336 -282 414 0
-90 129 492 0
273 85 488 0
462 -447 -120 0
-245 -167 -6 0
188 49 148 0
365 85 -294 0
-455 459 -366 0
447 -454 87 0
66 430 -10 0
203 75 -449 0
1 280 30 0
-216 27 -275 0
-51 380 91 0
-202 62 29 0
496 247 454 0
-292 448 -94 0
494 171 101 0
118 -70 437 0
-20 -42 -435 0
181 -469 -33 0
-409 193 464 0
301 61 440 0
79 492 -138 0
-358 426 -142 0
301 -494 37 0
134 25 -474 0
-367 -67 -82 0
-294 -216 -30 0
133 308 57 0
-46 -387 -154 0
-259 391 -422 0
-65 70 76 0
368 -276 175 0
-476 -144 -23 0
-370 198 -417 0
71 96 -346 0
347 -254 -151 0
240 -35 341 0
-307 365 -245 0
-411 -346 -393 0
-209 -107 -50 0
145 172 -173 0
-176 -366 317 0
-23 -110 -261 0
-217 225 366 0
-276 -416 16 0
-488 15 226 0
-196 -266 -262 0
228 412 -413 0
-45 -256 -288 0
261 -313 -391 0
-215 -487 -216 0
359 -79 -399 0
-209 407 461 0
410 -100 -279 0
-322 225 86 0
-57 -72 -180 0
438 -236 -479 0
87 99 474 0
-197 -139 -284 0
-363 221 189 0
436 -360 269 0
395 496 406 0
-289 265 165 0
-83 34 158 0
-437 -482 -274 0
-199 -25 -157 0
-83 116 35 0
-338 495 123 0
384 -327 -155 0
232 381 216 0
234 252 147 0
15 491 -288 0
-354 -190 178 0
-44 261 -460 0
-249 -395 353 0
425 -436 -387 0
466 331 116 0
191 186 -299 0
208 428 300 0
24 -204 -17 0
494 56 131 0
122 -130 202 0
-107 -212 -439 0
-285 -33 134 0
43 47 -209 0
-238 -431 1 0
418 -380 432 0
-19 -111 -65 0
209 435 -135 0
-462 29 333 0
11 475 -21 0
262 -109 490 0
318 -261 259 0
349 160 299 0
496 -18 354 0
499 443 -285 0
118 -385 -142 0
212 69 -346 0
-87 268 -422 0
-264 273 -62 0
-151 66 168 0
-110 -287 -218 0
-263 -235 350 0
432 -116 464 0
361 99 125 0
363 38 101 0
-13 302 -424 0
196 -82 -254 0
428 149 81 0
-192 -264 131 0
-51 -26 83 0
463 215 -194 0
246 276 -178 0
-309 279 489 0
249 -117 -291 0
-79 218 -197 0
-181 108 -119 0
-274 206 450 0
375 -255 -36 0
-344 -304 -302 0
129 499 -154 0
242 -157 50 0
-63 -201 35 0
18 -59 -271 0
-257 68 -440 0
375 -359 339 0
-335 361 -62 0
320 135 51 0
-205 390 338 0
-264 167 470 0
63 396 -448 0
-173 294 202 0
-23 128 -249 0
-82 -45 -392 0
399 403 385 0
-415 -468 -447 0
-392 69 -138 0
210 -490 -304 0
454 45 154 0
-459 -327 2 0
472 178 -155 0
-472 -51 -240 0
-184 39 426 0
221 -247 -243 0
488 75 395 0
464 7 -72 0
360 -35 96 0
-436 189 -64 0
89 -382 -374 0
45 345 351 0
46 131 -235 0
483 -495 -35 0
-291 34 -23 0
-262 -453 -44 0
-348 253 489 0
-279 440 -392 0
-448 10 179 0
-224 -485 -255 0
301 -391 -179 0
-23 392 245 0
22 -176 -53 0
406 -138 -454 0
-248 220 467 0
-424 -125 -35 0
-277 -282 -233 0
-326 -483 -270 0
-425 -114 381 0
-73 304 -439 0
136 171 -211 0
327 -4 -168 0
-477 374 139 0
-172 155 220 0
-464 -155 -102 0
458 -112 -327 0
-473 483 457 0
377 -434 -94 0
-357 -422 -479 0
-371 -322 365 0
142 325 156 0
-490 -377 -258 0
-316 305 -139 0
-399 -233 -71 0
201 -169 67 0
-471 -265 -465 0
-119 -50 342 0
74 4 72 0
245 246 187 0
-256 -220 405 0
-294 -104 -327 0
257 365 -90 0
-337 402 -206 0
-66 52 91 0
273 -173 -257 0
16 -23 -145 0
148 1 -283 0
-288 473 -49 0
67 -321 -153 0
112 -383 -319 0
251 -244 -176 0
-475 439 62 0
-41 -122 -437 0
9 -101 -361 0
63 -410 33 0
279 257 28 0
276 227 233 0
448 149 -24 0
2 -350 298 0
304 59 279 0
14 -149 109 0
-16 -248 275 0
56 -209 157 0
-456 14 404 0
-499 54 -308 0
-434 46 296 0
333 -418 444 0
-432 -449 145 0
88 253 152 0
-205 464 15 0
57 78 -495 0
369 -160 -219 0
-495 424 115 0
418 484 38 0
91 -343 346 0
-255 -260 -243 0
274 488 353 0
89 492 -234 0
132 -19 402 0
-436 311 158 0
382 423 400 0
462 -390 -265 0
-261 83 -283 0
-202 -13 494 0
375 -144 -122 0
236 160 450 0
-155 69 158 0
130 -479 -165 0
-237 -164 414 0
466 -215 85 0
-80 -279 -415 0
-496 296 -486 0
287 132 206 0
-430 -150 401 0
199 348 -109 0
-252 -425 -184 0
-481 -443 42 0
-129 432 -256 0
-477 365 121 0
-349 438 -368 0
482 402 -322 0
-15 -160 -451 0
438 339 53 0
-16 -306 -162 0
-80 -192 343 0
82 -164 -461 0
377 -394 373 0
-331 -402 -293 0
250 -48 13 0
475 -96 -70 0
121 44 -14 0
134 -270 -379 0
415 331 148 0
398 -345 -353 0
226 292 -166 0
-355 -40 -132 0
45 -325 -86 0
-101 -309 253 0
410 -250 409 0
170 319 -169 0
289 -68 271 0
273 -173 -4 0
206 -489 -263 0
-276 152 347 0
-335 231 474 0
-105 355 132 0
-465 -391 -29 0
-253 329 63 0
478 -491 -414 0
385 -176 403 0
-338 51 424 0
411 42 48 0
-440 65 -187 0
385 287 -333 0
33 -166 -86 0
-437 -79 469 0
205 276 323 0
-226 -126 18 0
-157 -263 -49 0
338 -413 25 0
-441 -338 -426 0
-244 -34 -442 0
471 -284 103 0
-378 241 273 0
209 -476 -343 0
460 405 276 0
192 240 -405 0
121 -62 -243 0
-436 -493 -363 0
-367 432 -5 0
-303 -401 277 0
83 296 153 0
239 -72 -129 0
179 497 98 0
-333 -380 -91 0
-150 -407 347 0
361 -418 -293 0
-2 467 -214 0
39 -349 334 0
407 314 78 0
-346 -132 46 0
14 211 -162 0
-291 -408 388 0
-439 -154 469 0
-33 431 -498 0
16 -267 133 0
-141 487 288 0
365 476 364 0
451 209 -269 0
-424 489 -161 0
53 -424 96 0
-465 69 -247 0
160 -386 -210 0
-474 -53 267 0
377 -125 -315 0
-218 -43 -228 0
-242 186 73 0
-145 -128 429 0
-257 -121 34 0
30 381 -241 0
-88 -239 301 0
-174 254 -468 0
334 -389 62 0
-98 -355 13 0
198 433 -19 0
83 -290 99 0
352 -151 -209 0
-102 249 -7 0
469 -8 -408 0
-25 -273 -249 0
-428 210 -228 0
82 -457 -495 0
61 300 -339 0
-90 -278 365 0
-84 -305 161 0
-119 351 -229 0
-361 -500 4 0
10 -472 230 0
234 -74 -392 0
164 -381 8 0
-84 -41 -383 0
184 314 -362 0
-243 -102 257 0
-24 -62 438 0
88 406 -444 0
-144 -245 -379 0
-423 -336 429 0
318 -189 -207 0
402 188 203 0
33 -85 483 0
-311 -174 400 0
179 323 126 0
-55 -437 265 0
52 199 -110 0
-379 132 -76 0
-323 16 -404 0
187 -336 -356 0
40 408 -410 0
475 -72 -333 0
237 37 221 0
128 149 -249 0
57 487 451 0
-12 -129 -275 0
244 41 2 0
-71 -174 -78 0
-183 -63 105 0
145 -218 297 0
337 -151 23 0
490 -178 -301 0
-112 370 -420 0
-469 71 468 0
68 -266 446 0
439 185 -141 0
411 -274 -147 0
-494 143 189 0
-314 168 339 0
-66 -493 449 0
83 -436 472 0
397 -383 302 0
256 46 150 0
-500 -319 167 0
-335 94 -41 0
171 -143 153 0
-19 348 199 0
-195 160 32 0
98 400 -373 0
304 452 83 0
-406 140 -293 0
43 472 183 0
-475 -450 253 0
42 -415 197 0
434 486 87 0
411 390 -48 0
-14 -274 -318 0
430 -144 122 0
311 -282 94 0
179 -410 -189 0
144 -207 -56 0
323 -191 153 0
228 -467 52 0
473 -430 213 0
-120 417 240 0
-88 -73 441 0
-334 -134 487 0
125 -394 -170 0
-213 55 395 0
373 -370 229 0
489 476 -278 0
212 -272 -217 0
-95 22 -105 0
-90 407 332 0
-441 -423 -36 0
181 -136 409 0
-478 -62 -258 0
480 -95 -386 0
-295 -164 -271 0
221 499 85 0
47 388 -112 0
391 138 -110 0
-328 -65 269 0
336 -218 -293 0
391 272 -271 0
397 102 232 0
63 44 -395 0
-481 208 254 0
359 -128 166 0
-489 478 13 0
-301 252 217 0
414 -298 -368 0
-404 369 498 0
309 -54 231 0
373 82 -347 0
-269 -279 112 0
119 123 192 0
-438 -52 -437 0
-26 -342 -430 0
48 363 -46 0
-362 -427 -304 0
424 291 -61 0
-194 382 134 0
-166 234 -109 0
13 468 -378 0
-147 101 179 0
362 -255 -16 0
-98 172 317 0
-450 322 -103 0
-485 -95 -466 0
258 437 -348 0
328 -314 -459 0
424 -39 -201 0
64 4 -459 0
426 -161 308 0
-51 -413 93 0
327 -184 -56 0
-299 -302 -316 0
14 449 42 0
496 58 -379 0
1 -326 325 0
-232 -187 -346 0
374 -82 153 0
-50 406 473 0
232 -111 -453 0
52 -459 268 0
70 440 489 0
428 397 -81 0
180 195 -379 0
256 491 3 0
144 396 -268 0
-72 -46 161 0
-297 277 -15 0
302 -470 -131 0
-305 -432 -99 0
256 83 178 0
-360 313 -123 0
-139 -359 -406 0
481 155 247 0
-167 -177 -309 0
370 -125 85 0
-316 -364 433 0
-183 -493 -393 0
-12 23 -447 0
-153 238 -280 0
-15 344 -53 0
51 203 176 0
491 161 -431 0
-408 284 462 0
-25 205 418 0
174 126 70 0
-412 476 421 0
408 -259 -356 0
-232 452 470 0
-453 -475 446 0
395 -160 216 0
441 114 -381 0
-282 383 -278 0
372 93 -399 0
-201 275 -427 0
-97 -67 325 0
195 413 254 0
-155 132 -69 0
85 -281 64 0
416 115 342 0
-156 251 -253 0
153 86 -317 0
-24 156 -236 0
-100 363 3 0
271 322 310 0
195 436 126 0
-203 -108 391 0
345 195 91 0
162 429 -35 0
-367 -81 276 0
63 -38 -363 0
189 488 154 0
-250 -324 11 0
133 198 -29 0
151 -84 -379 0
478 -401 415 0
-59 418 390 0
-253 -378 486 0
288 80 -159 0
164 40 447 0
-214 -316 182 0
-495 165 224 0
-306 425 -304 0
-15 147 -148 0
233 -101 463 0
52 346 -245 0
445 278 41 0
391 -32 -249 0
-344 320 226 0
483 425 -139 0
125 -497 -367 0
-364 106 -207 0
408 211 130 0
-219 -64 84 0
26 -296 -185 0
153 488 62 0
-495 355 140 0
-281 72 -165 0
491 213 -56 0
111 -226 133 0
-118 65 67 0
268 138 209 0
-207 319 296 0
477 68 434 0
-162 140 -28 0
-500 -452 -262 0
333 190 -257 0
-120 228 -284 0
-275 -348 -36 0
-361 373 -463 0
-406 -15 276 0
-423 105 463 0
252 -141 -426 0
-390 340 276 0
146 -364 365 0
-141 -286 121 0
-11 172 363 0
335 -225 -122 0
158 279 372 0
164 -381 441 0
150 312 -53 0
199 -192 -390 0
-397 -117 180 0
-66 76 -474 0
159 -13 -416 0
357 268 430 0
305 -282 442 0
-465 126 -15 0
-467 -324 332 0
-355 121 339 0
-84 110 -216 0
-467 22 244 0
-211 -426 245 0
287 -317 68 0
-335 -430 -224 0
-63 219 -69 0
-495 352 -483 0
-353 -296 11 0
351 346 163 0
-256 -383 253 0
153 -116 481 0
-45 -495 354 0
60 -407 49 0
-107 -85 -61 0
-277 480 -133 0
-251 92 430 0
-110 -299 -204 0
64 363 134 0
-178 89 -17 0
-15 -86 -269 0
-491 472 -174 0
-57 223 84 0
193 -183 -338 0
385 319 428 0
-112 -389 -379 0
135 -132 208 0
414 -234 175 0
-424 -75 -438 0
491 -127 292 0
88 -227 -348 0
-180 154 33 0
-341 171 113 0
384 -147 107 0
223 -148 -234 0
83 -57 -497 0
-210 -442 204 0
345 349 -261 0
466 -62 -96 0
-230 18 492 0
-392 -197 -426 0
416 14 417 0
89 -86 -109 0
330 -90 -272 0
-26 -107 -428 0
89 -130 -81 0
447 368 -94 0
-57 -191 485 0
-124 -456 -433 0
151 -358 -489 0
176 -90 -316 0
-101 -102 -50 0
19 -384 -187 0
465 -473 -393 0
-407 245 -350 0
440 421 360 0
165 349 -157 0
-472 416 -158 0
-427 -450 -379 0
-477 -55 487 0
448 232 -323 0
177 -34 14 0
-68 -320 -71 0
-79 237 33 0
172 -439 443 0
420 301 -211 0
-264 -247 -15 0
370 348 237 0
-483 355 108 0
357 210 -228 0
384 294 403 0
-342 -210 435 0
-383 -244 408 0
-248 389 -142 0
-69 4 -452 0
234 308 263 0
-115 -422 -74 0
-87 3 -483 0
426 191 -367 0
450 -449 286 0
212 -302 -343 0
341 111 460 0
349 -21 -397 0
-400 77 125 0
163 -272 -207 0
208 494 349 0
-466 -219 181 0
-89 422 254 0
-394 -378 57 0
381 -352 -105 0
-333 4 -237 0
-277 -455 199 0
-105 18 -82 0
-41 473 121 0
-451 -239 -279 0
490 -29 393 0
-317 415 -17 0
125 471 272 0
227 475 397 0
-342 291 436 0
26 -486 -41 0
-333 -111 -228 0
-110 458 182 0
-330 -175 435 0
36 -374 -497 0
-171 207 -285 0
322 474 -435 0
-36 -183 -341 0
-254 -372 -340 0
66 -405 -457 0
496 207 -376 0
191 -380 -264 0
-201 375 485 0
-198 -78 -361 0
-50 135 38 0
-180 170 -497 0
171 -112 -172 0
-314 432 -87 0
-60 -289 -298 0
61 -13 342 0
183 -61 -178 0
-240 59 196 0
-400 113 -211 0
114 -156 5 0
-256 484 495 0
90 295 -22 0
174 113 -257 0
-322 420 159 0
100 -89 428 0
156 220 315 0
29 222 303 0
-84 -182 47 0
165 65 407 0
379 -208 337 0
-433 -498 422 0
-346 -280 249 0
68 256 405 0
362 -156 147 0
58 143 -429 0
-77 316 -483 0
-351 250 -323 0
-303 358 -404 0
5 376 372 0
304 63 210 0
113 -229 -455 0
-234 381 -45 0
-226 250 -468 0
267 -477 -245 0
376 -328 -411 0
-24 393 387 0
-434 328 2 0
-249 -469 491 0
442 -171 104 0
319 -37 22 0
274 492 -491 0
-176 192 92 0
-191 -451 54 0
490 -148 399 0
-210 -177 -213 0
-337 -437 180 0
240 -427 -87 0
200 -103 481 0
61 477 430 0
331 361 162 0
243 334 373 0
439 149 491 0
-124 207 -54 0
119 -172 195 0
-335 -187 46 0
182 427 377 0
53 307 487 0
-340 52 -466 0
-49 368 -455 0
-431 -196 -111 0
-14 -321 -264 0
169 95 114 0
-214 -335 -449 0
-377 -221 334 0
-257 383 351 0
296 1 -485 0
264 -473 239 0
33 163 83 0
408 121 -22 0
-108 30 421 0
-127 -273 -95 0
187 -3 385 0
-8 55 -304 0
74 -4 -7 0
139 189 -341 0
23 -241 234 0
-194 -353 -369 0
-18 311 -356 0
-500 22 195 0
-440 302 214 0
-122 -66 314 0
262 -47 -265 0
426 343 143 0
369 2 -166 0
-446 -441 365 0
127 -254 -223 0
-136 -267 -471 0
-59 -357 -373 0
279 348 -286 0
129 116 -38 0
-238 363 -176 0
-31 -133 400 0
-283 -270 212 0
3 310 -86 0
-101 380 -208 0
424 19 -36 0
405 285 425 0
-260 39 129 0
-60 203 456 0
-428 249 -103 0
-276 -146 -194 0
68 327 48 0
-133 122 -319 0
206 222 260 0
444 192 308 0
170 269 -442 0
198 362 212 0
82 -127 78 0
-144 490 425 0
-330 -436 32 0
-5 63 -317 0
-102 486 199 0
481 224 -16 0
10 224 -161 0
-377 2 315 0
-190 -205 483 0
471 458 419 0
-393 233 302 0
66 -107 466 0
182 -212 208 0
-309 120 -244 0
-408 8 -14 0
334 91 187 0
470 -485 300 0
322 267 281 0
463 -364 291 0
-80 319 -197 0
472 31 -214 0
484 375 -235 0
-285 -157 176 0
397 185 74 0
-191 194 388 0
379 140 -199 0
215 9 -70 0
311 139 39 0
-372 -213 43 0
224 192 -225 0
-248 -391 -292 0
-469 27 -370 0
329 -231 80 0
-433 275 247 0
-319 233 458 0
-224 -463 193 0
-130 60 37 0
-349 9 -58 0
-182 103 -174 0
127 -280 -288 0
-38 -392 94 0
55 -353 -265 0
-326 -20 -179 0
66 -313 -356 0
-396 -117 115 0
396 -412 -493 0
-66 162 129 0
88 -433 309 0
-161 191 346 0
299 -10 121 0
-269 27 -483 0
232 -362 -123 0
478 -35 -5 0
450 -112 -221 0
-377 -139 -396 0
295 -303 -312 0
237 290 417 0
-491 -484 351 0
491 -278 266 0
-362 -435 383 0
180 -399 84 0
-46 -375 394 0
404 -336 -251 0
-416 -165 36 0
-12 250 464 0
-112 46 -129 0
345 -306 -139 0
-334 38 264 0
-3 403 40 0
-271 213 329 0
-347 26 -128 0
-46 -74 -303 0
434 -62 241 0
223 -246 20 0
4 463 145 0
-432 422 -129 0
-90 -77 269 0
-162 -277 175 0
-395 -132 199 0
472 -377 483 0
12 269 499 0
63 468 -190 0
8 353 330 0
-114 -190 93 0
-100 446 -114 0
315 -295 57 0
-127 -369 -144 0
-16 269 310 0
225 -303 175 0
-7 -116 -95 0
231 169 -256 0
-408 -122 -264 0
435 -106 140 0
236 271 -96 0
457 62 -58 0
253 -27 5 0
-220 469 72 0
69 221 -228 0
-377 357 367 0
105 -94 429 0
-336 -158 248 0
-229 -387 -343 0
436 380 235 0
174 282 251 0
39 275 405 0
-41 -219 -62 0
376 -500 -303 0
-180 -247 -49 0
18 314 324 0
-91 376 -32 0
-224 356 321 0
-495 -140 309 0
-496 479 -60 0
-304 367 -407 0
-104 377 140 0
234 178 154 0
168 12 123 0
-456 63 -492 0
263 -478 297 0
144 407 -391 0
331 281 16 0
487 -453 387 0
392 417 44 0
478 217 21 0
-371 5 -194 0
-46 195 409 0
-119 2 -26 0
360 190 145 0
241 32 208 0
-200 -335 -245 0
170 -174 469 0
-392 44 -42 0
117 97 65 0
-62 161 347 0
91 -327 -424 0
138 -197 323 0
-317 29 -34 0
259 -313 -240 0
105 -198 296 0
457 -246 423 0
285 83 -417 0
299 -50 -227 0
404 329 -215 0
-424 279 454 0
396 -123 -421 0
-11 -265 -376 0
-15 -102 221 0
220 1 -98 0
38 -149 -318 0
131 77 167 0
-273 -144 -43 0
370 -94 58 0
-274 93 -133 0
198 -465 -2 0
-361 -158 275 0
85 -208 163 0
-5 83 284 0
-350 58 -265 0
-30 -143 -272 0
36 -292 29 0
-267 -340 287 0
200 402 -351 0
-387 -216 -429 0
-160 -74 325 0
-251 166 395 0
-487 470 39 0
316 190 141 0
-51 -273 40 0
109 18 218 0
56 32 -164 0
493 104 -286 0
484 23 253 0
15 114 449 0
407 114 -52 0
-193 -166 180 0
56 340 358 0
65 381 405 0
-12 33 -113 0
-276 23 207 0
396 98 -64 0
-7 25 119 0
-322 -316 -324 0
-84 119 -305 0
-438 -28 338 0
343 -31 -277 0
-42 -256 -114 0
-95 465 358 0
-330 14 499 0
-65 -387 -279 0
-139 -346 432 0
210 -365 -85 0
345 405 283 0
437 -500 466 0
-311 476 -139 0
351 14 -441 0
-92 67 -167 0
-136 -328 20 0
-142 232 22 0
-247 124 136 0
-306 495 -162 0
-482 -373 77 0
-71 -182 6 0
-192 -385 -29 0
57 -127 253 0
-24 371 -495 0
388 61 338 0
146 491 -348 0
-385 259 -231 0
291 -473 -464 0
-38 -212 -372 0
-13 126 97 0
-353 291 367 0
-346 352 182 0
236 131 90 0
416 -363 -47 0
174 110 454 0
361 -274 479 0
-353 15 -284 0
133 -79 -415 0
-380 293 32 0
491 -249 138 0
-10 -16 392 0
170 400 37 0
141 -107 -142 0
-307 -210 305 0
496 145 190 0
25 -485 86 0
-367 -468 -288 0
-3 323 243 0
41 151 423 0
-284 80 -203 0
264 -237 423 0
-20 -223 -469 0
-80 -210 4 0
465 16 -70 0
39 -146 -456 0
-449 275 171 0
78 -439 406 0
495 -446 181 0
7 -175 29 0
-382 -171 -465 0
2 -355 171 0
-405 89 -196 0
469 388 -199 0
-190 134 144 0
-307 124 371 0
86 -189 460 0
420 195 -74 0
-202 375 -500 0
-242 -151 -394 0
-176 123 -9 0
-335 -33 189 0
-170 179 309 0
468 -16 453 0
-205 -372 -422 0
395 325 -468 0
-307 348 358 0
472 254 -312 0
-423 169 414 0
-209 -435 -345 0
-76 297 -43 0
83 271 234 0
-447 67 -387 0
81 263 -173 0
46 -114 -88 0
-343 178 83 0
-382 -361 466 0
439 -34 -357 0
33 -414 -354 0
326 -61 -178 0
-89 498 -410 0
-249 250 173 0
-426 -285 -238 0
84 102 342 0
130 230 173 0
-248 147 -48 0
-343 -258 157 0
469 302 118 0
-20 321 129 0
160 -490 445 0
-391 -477 -18 0
353 -309 45 0
-229 173 -308 0
-140 220 497 0
331 -297 -114 0
-339 -190 -488 0
-316 434 98 0
63 -32 257 0
-11 -144 402 0
-272 -38 -49 0
-141 -113 52 0
141 -93 65 0
-230 460 267 0
197 376 -158 0
-413 53 114 0
369 25 -274 0
-104 -246 268 0
-278 281 481 0
125 -486 -326 0
-333 229 60 0
254 -482 -384 0
189 369 371 0
-70 388 -150 0
-269 112 487 0
232 152 -260 0
-285 235 -232 0
-30 -84 146 0
253 247 206 0
134 96 -481 0
-368 188 361 0
423 -308 -231 0
411 -433 434 0
368 260 -333 0
-443 -418 -222 0
-345 -349 -139 0
261 -269 -19 0
181 187 202 0
86 398 -460 0
-400 -224 488 0
-240 347 304 0
396 -475 279 0
339 -75 200 0
-427 399 -313 0
312 -297 93 0
-16 339 -235 0
406 307 -429 0
-493 388 5 0
-199 154 -386 0
-288 65 -152 0
-210 254 341 0
-465 -84 -18 0
-427 -365 -43 0
181 -135 131 0
331 468 52 0
374 396 -34 0
-184 66 137 0
117 -446 -299 0
310 -446 369 0
483 -127 -432 0
-125 -143 -375 0
430 289 -420 0
-232 -92 389 0
455 359 188 0
-28 -448 150 0
153 430 -367 0
99 -452 424 0
-187 -40 105 0
-191 -197 445 0
333 -242 -112 0
236 465 -452 0
492 -474 -358 0
410 28 -489 0
261 371 -194 0
59 228 106 0
90 -353 329 0
-37 129 -169 0
480 -430 159 0
337 269 151 0
46 -497 -222 0
-181 130 146 0
-403 293 448 0
-500 253 493 0
-192 164 -238 0
324 -446 -372 0
103 385 171 0
112 -494 -325 0
131 330 333 0
-373 491 239 0
-388 266 -209 0
-179 -147 -177 0
99 -479 244 0
339 -418 129 0
-259 333 14 0
-446 77 -463 0
34 38 -486 0
41 -340 -246 0
115 62 88 0
21 -463 -12 0
229 258 420 0
199 -456 -252 0
247 -352 -383 0
146 -144 364 0
41 -49 350 0
-74 69 366 0
225 114 285 0
-340 -405 -173 0
306 -358 -31 0
-16 455 -387 0
191 27 -275 0
130 271 -343 0
137 368 -270 0
-17 123 -80 0
-9 129 -163 0
391 -445 486 0
414 -306 453 0
420 229 -464 0
276 212 40 0
-265 464 295 0
-157 145 -265 0
-145 -222 -225 0
-165 139 -33 0
-27 308 -297 0
-449 -451 132 0
-194 -172 -23 0
491 47 186 0
-37 117 -373 0
427 349 -364 0
-371 423 -305 0
479 40 337 0
-444 -24 217 0
-495 417 86 0
167 142 271 0
4 434 328 0
-380 -201 -263 0
-20 143 -385 0
-130 366 154 0
175 -275 -385 0
-285 -388 55 0
418 -233 387 0
480 160 103 0
-394 428 -481 0
-169 -37 -492 0
-475 -451 445 0
-246 -493 -105 0
69 -460 320 0
473 309 -378 0
-254 55 -257 0
-286 379 -234 0
-453 123 -498 0
40 50 116 0
244 -91 -16 0
-402 450 -284 0
129 -363 24 0
-343 29 -12 0
-254 -284 251 0
-257 -342 116 0
-291 -207 455 0
-155 -2 103 0
238 322 175 0
-331 -174 -280 0
-457 -432 -139 0
-101 -57 315 0
-474 245 1 0
163 201 -73 0
-44 -234 56 0
393 -21 423 0
-80 224 -177 0
-194 138 260 0
455 -259 -492 0
-371 -385 -225 0
323 162 68 0
439 280 -329 0
-19 442 457 0
106 65 453 0
-431 14 179 0
276 449 45 0
-181 394 -493 0
-448 73 426 0
-149 486 -174 0
404 -21 -417 0
-101 -395 -338 0
-326 137 460 0
71 336 -215 0
-261 70 -256 0
-462 118 -176 0
-465 -8 -378 0
-87 320 472 0
287 -107 -234 0
139 242 77 0
117 -54 -295 0
-363 144 497 0
84 -54 24 0
-315 -13 -20 0
-27 -498 389 0
415 -410 -397 0
175 -75 -264 0
-34 -271 -425 0
-184 -286 -81 0
-26 422 -388 0
-275 67 451 0
-306 -254 88 0
-84 298 -418 0
352 -175 -303 0
-133 33 46 0
485 -349 -143 0
-36 299 -191 0
-362 81 -128 0
463 191 499 0
238 319 -249 0
356 -315 417 0
472 -493 -116 0
-267 -460 -303 0
-6 -243 126 0
498 181 -430 0
425 -287 9 0
-435 -447 405 0
222 -347 -440 0
-440 270 -299 0
60 64 54 0
-144 -382 -196 0
430 405 -86 0
28 89 494 0
439 -343 -245 0
-445 14 29 0
-333 -126 232 0
-15 -26 318 0
-356 -472 334 0
-418 -317 52 0
-212 43 -408 0
376 142 -96 0
-105 -221 104 0
89 65 -242 0
146 -75 -361 0
305 -89 -360 0
456 -355 -445 0
282 91 164 0
138 -76 -423 0
-428 162 -106 0
-145 -1 -122 0
-406 8 -493 0
439 -287 -67 0
367 260 -360 0
303 305 206 0
409 -344 -383 0
-61 -94 322 0
-257 -317 240 0
-442 -324 -48 0
-450 94 52 0
147 76 -143 0
-281 -431 -361 0
2 404 -394 0
-103 -382 -228 0
-13 353 488 0
-35 9 348 0
-53 25 75 0
-471 -380 -16 0
-363 -156 51 0
-497 -97 -191 0
-233 50 -186 0
-168 178 -5 0
61 -29 1 0
348 394 -382 0
483 -305 167 0
111 -106 -265 0
12 -151 -80 0
-34 7 -442 0
383 -472 -309 0
404 -130 425 0
111 -158 55 0
-437 43 -230 0
277 -347 162 0
-288 -393 465 0
-410 330 337 0
-404 -239 478 0
44 288 360 0
428 212 -21 0
338 -194 -327 0
-261 54 -89 0
-259 41 -327 0
-276 -317 180 0
-326 264 -496 0
197 -198 265 0
496 129 -475 0
492 346 458 0
-68 -65 415 0
-369 -128 -56 0
-243 -270 163 0
-376 -337 15 0
333 221 424 0
-240 -192 67 0
-307 -340 72 0
50 -61 -174 0
96 87 -256 0
-491 -81 120 0
174 -84 -437 0
500 201 421 0
-471 -391 390 0
331 217 -492 0
-414 -189 192 0
-288 355 -100 0
341 -72 -470 0
-160 -498 -215 0
437 -490 455 0
-210 180 18 0
-141 349 90 0
131 268 347 0
374 297 15 0
-98 334 -325 0
215 -286 -252 0
-178 -229 328 0
-219 -267 -186 0
-103 402 -317 0
73 -26 218 0
-216 -306 313 0
-103 -239 285 0
2 -79 241 0
-160 -449 -222 0
-422 68 350 0
135 287 -391 0
-159 432 -367 0
-372 85 -201 0
-277 49 -300 0
36 21 468 0
-147 -469 -264 0
-77 -212 -431 0
218 431 -420 0
111 394 -199 0
241 -213 -17 0
-67 260 363 0
-284 -293 -51 0
-355 -302 -429 0
-438 471 -306 0
440 73 -78 0
7 87 -337 0
-228 427 -223 0
430 103 3 0
166 -430 -407 0
249 -306 284 0
93 -300 -298 0
131 404 -394 0
-116 -134 159 0
277 55 -53 0
210 466 -100 0
128 -183 -410 0
167 233 263 0
60 135 -113 0
-19 -266 -201 0
172 -351 -430 0
-66 -225 321 0
-325 -261 328 0
-278 -233 -184 0
-497 -226 132 0
-227 -435 -224 0
203 140 346 0
-174 87 -311 0
474 -61 -115 0
140 -251 98 0
118 79 -408 0
41 204 122 0
-136 -416 -195 0
349 -180 -411 0
97 -218 7 0
-234 99 472 0
-50 224 -287 0
-462 -65 -384 0
295 184 63 0
494 88 -212 0
-159 -270 -60 0
-38 -479 -55 0
-138 205 54 0
83 -450 346 0
321 389 42 0
-16 -105 250 0
-352 110 422 0
52 113 25 0
-48 32 -179 0
289 -116 55 0
352 -7 -394 0
-19 40 404 0
-255 -360 193 0
276 -214 112 0
241 115 271 0
-444 148 46 0
-267 202 90 0
-282 -167 -148 0
-81 -265 85 0
85 -149 -263 0
497 207 390 0
-221 -360 -413 0
142 402 -272 0
