c Large 3-SAT formula for GPU testing
c 2000 variables, 12000 clauses (ratio: 6.0)
p cnf 2000 12000
-12 1126 225 0
-5 -231 1631 0
939 -70 1141 0
328 1518 1415 0
-1422 912 -509 0
-969 -1543 1435 0
-730 -1233 1678 0
1793 -1484 1099 0
-700 795 -78 0
-1649 -1772 876 0
174 -618 -1529 0
138 -1078 -909 0
355 -1976 1321 0
-1049 -1785 75 0
980 1248 1935 0
444 -979 -1268 0
197 732 111 0
1731 1714 -522 0
-473 732 356 0
-1644 939 -1839 0
-1315 1938 -565 0
-1045 226 1004 0
-1652 -1036 -440 0
450 1920 627 0
-1630 -872 1554 0
1605 -549 -1130 0
1077 -314 1203 0
1873 1859 1811 0
-1518 -896 -170 0
-601 371 -1051 0
-270 -1796 689 0
-1134 -136 687 0
770 716 -359 0
-499 635 -17 0
-454 995 76 0
376 -580 -848 0
-100 1553 1098 0
-710 1197 899 0
-358 -670 142 0
-1758 -1944 -265 0
1244 -1553 -192 0
-851 -342 -560 0
1158 1139 -1764 0
-838 1217 -1378 0
-919 62 983 0
1724 1914 669 0
-988 -438 -109 0
-225 1385 1477 0
1942 1526 -1021 0
1538 -1546 -750 0
1196 -1193 -1103 0
-737 1332 192 0
-495 -528 -1466 0
-1174 316 -434 0
1360 1989 1857 0
937 209 -1388 0
-1341 -1173 -379 0
1589 -93 460 0
-208 -1457 1203 0
1791 -1123 -1988 0
-1184 -846 1938 0
1245 -1620 1896 0
-1678 696 1216 0
769 1087 1264 0
-1816 -647 -116 0
1189 807 1178 0
826 238 1828 0
1083 -1841 1345 0
612 1621 -964 0
-886 -561 -278 0
-458 1963 -141 0
-508 1383 -1040 0
719 -361 -1903 0
-1796 476 1612 0
97 -1916 918 0
536 -816 1183 0
1208 -401 954 0
-1269 647 -991 0
1423 683 839 0
-1007 -1788 -387 0
-1207 5 -1814 0
1649 -1730 -534 0
823 484 -493 0
119 355 -1247 0
1040 -754 -448 0
188 1856 963 0
827 1958 -1051 0
-1232 -716 1921 0
587 -476 775 0
231 -1437 363 0
-6 -1356 993 0
-1295 132 -161 0
-1749 -525 58 0
1104 250 1198 0
429 -367 -857 0
119 1030 -117 0
727 1270 1248 0
1892 1001 351 0
519 -229 1400 0
420 1300 -1681 0
-1365 -559 -1142 0
1703 -1022 -1554 0
-930 814 950 0
1097 -1660 -1324 0
413 -1399 -1621 0
1677 -871 -284 0
1389 1968 -754 0
511 -1322 1795 0
-923 -1851 353 0
-750 -1060 -1721 0
1473 -229 -1200 0
476 726 1109 0
-1406 -347 -1880 0
1541 1560 136 0
1615 -281 -835 0
1921 241 -860 0
1402 -1893 1618 0
1199 707 1708 0
-1702 -321 887 0
-701 1880 1053 0
1151 1603 330 0
-1384 948 764 0
-1725 1018 831 0
-1398 1500 1512 0
957 -1812 -1957 0
185 624 980 0
1751 -720 1397 0
1449 1569 1965 0
-83 -1855 -1288 0
-501 -1575 1822 0
1967 -1663 -1941 0
1607 1362 705 0
-1629 -45 475 0
-1130 1357 -726 0
948 -1851 1049 0
1782 55 593 0
-593 -1372 97 0
1905 404 -829 0
1317 -1796 -1908 0
-972 -807 697 0
873 1837 199 0
-1296 -249 387 0
54 -1651 1756 0
-1840 1762 1193 0
436 -1794 -1186 0
-1568 -1476 1181 0
-1853 -621 -610 0
1624 -836 1044 0
1079 -145 -364 0
-517 373 632 0
-680 1563 212 0
500 142 1331 0
-1233 1259 1368 0
-1212 1277 -373 0
1262 -777 -704 0
-1702 -1065 -733 0
1952 -1472 645 0
-1215 -108 1483 0
105 -630 1710 0
-663 -990 1977 0
1834 317 1122 0
476 -167 -421 0
-154 -352 550 0
-11 1531 1998 0
829 568 -1277 0
1437 1292 1395 0
1705 -1428 1574 0
672 106 438 0
-1909 -1422 -910 0
-155 -1452 -74 0
483 1251 1629 0
1699 -1942 -516 0
-1340 -1313 -1449 0
390 1165 865 0
1933 1884 782 0
-783 -988 -1922 0
-996 398 272 0
28 588 1450 0
-601 1824 -1308 0
724 1983 1087 0
-889 -1120 243 0
-1922 -693 -1547 0
1696 -89 1915 0
1250 404 175 0
1978 791 -515 0
-11 -974 -524 0
1419 1052 371 0
-566 983 407 0
1169 -1549 -1066 0
-458 569 460 0
976 998 -1944 0
1992 127 -788 0
807 -851 509 0
1868 1426 27 0
-1954 128 1022 0
-620 374 1229 0
670 -1817 722 0
608 -1629 1741 0
-731 -127 1875 0
-1338 -1658 -272 0
-606 -1159 -1919 0
1569 -35 -1711 0
799 1402 -861 0
760 -1403 1532 0
-58 1219 914 0
954 -1724 -646 0
-835 -1850 1011 0
-1038 -1728 874 0
-22 1072 -780 0
-89 1632 -1871 0
1620 1048 252 0
-900 390 20 0
358 -623 185 0
-946 1976 -1889 0
1829 1494 1972 0
-1256 371 448 0
878 -369 1558 0
1051 -184 262 0
1615 1686 -358 0
-849 374 -986 0
-302 -1903 1051 0
384 -1998 -562 0
1975 -747 424 0
912 -1412 -1381 0
1168 -427 753 0
146 -727 1166 0
-901 1488 -1124 0
-583 1854 -1958 0
-1982 -1885 1093 0
-1735 1278 1929 0
221 -468 931 0
1293 -327 1071 0
-1910 -1403 -349 0
-1682 -278 -651 0
-278 -1667 1652 0
630 -305 1544 0
1686 1543 -1815 0
-1910 632 894 0
1831 -85 1101 0
-1971 1319 -336 0
-1375 -1176 645 0
748 1479 -1223 0
1511 162 1909 0
15 1558 -829 0
-1314 -787 1290 0
-710 -209 1410 0
1409 1894 -966 0
1676 280 1142 0
-1029 3 -1050 0
1207 -1134 -466 0
-370 -1913 1980 0
-101 379 1625 0
1495 -995 -1355 0
-1588 -1115 359 0
-205 447 1112 0
-717 -303 -1701 0
771 1904 -653 0
-1192 -288 350 0
1329 -1797 -541 0
-974 -237 -397 0
1496 570 -1701 0
-1495 1195 1942 0
-222 313 441 0
562 -631 1946 0
-1279 1728 606 0
264 -8 -289 0
404 1501 1494 0
-527 1137 1527 0
966 1291 814 0
689 -812 379 0
-829 1559 1990 0
-1587 -715 1755 0
-1649 -841 663 0
-800 1086 777 0
10 19 1750 0
1394 1992 -1597 0
-1377 -424 -245 0
1402 1352 -1040 0
-1880 289 -512 0
-1551 -1690 -381 0
261 -538 864 0
-1405 -1488 552 0
182 1608 1484 0
-527 -61 -1743 0
1907 -572 263 0
-293 -1900 1307 0
-450 1099 807 0
-431 -934 103 0
-1578 911 -460 0
836 -497 1530 0
947 -1039 1254 0
808 732 529 0
113 1200 1076 0
1185 25 -1676 0
1980 -1412 -1658 0
-1839 -14 -91 0
316 742 963 0
-1960 1981 1599 0
1152 -1203 -1063 0
1984 1023 -1069 0
812 462 447 0
443 -308 -735 0
703 42 -1799 0
-1351 -656 1912 0
-568 -1011 -839 0
-1143 -1122 -890 0
-164 -448 -1032 0
-402 -490 -505 0
1470 1029 444 0
829 651 -1569 0
1964 -1735 -693 0
-1946 1516 823 0
754 -476 -474 0
221 551 -1052 0
1785 1089 -985 0
-1706 -444 1032 0
1543 -439 -1591 0
1531 1174 -245 0
-434 1042 1296 0
1665 -1334 -1465 0
990 -607 1433 0
-438 -1372 508 0
1230 128 1961 0
1421 538 -1730 0
1488 -1685 -195 0
646 -1834 -1432 0
-1897 -937 -381 0
-1687 674 1829 0
1582 -1726 -929 0
671 -997 1418 0
-174 1642 -54 0
728 1203 -1035 0
-138 -565 -913 0
1441 1502 155 0
-510 405 678 0
705 -226 -1240 0
-332 1603 1099 0
-1148 -102 1143 0
391 143 1529 0
359 1947 1339 0
319 -1157 1407 0
-1201 873 -1721 0
1205 815 -167 0
-13 -1108 698 0
-192 1804 182 0
-1920 -794 358 0
-495 -1505 1767 0
841 1846 -1910 0
-118 -138 -1697 0
-1038 -406 -197 0
-334 557 471 0
-1467 1103 -391 0
1206 -1883 1859 0
-265 -1761 1367 0
-1318 252 -1834 0
1305 89 -571 0
-141 1117 185 0
-630 -145 1134 0
1279 -195 -208 0
-383 487 -849 0
-175 1357 183 0
-1598 -1865 -608 0
1731 1813 -1239 0
-34 -782 -340 0
1534 -1021 529 0
697 -659 -839 0
1041 1467 -687 0
-1702 -510 1579 0
-1125 1737 1494 0
-356 960 -527 0
-1051 -1528 -1792 0
432 -1057 1212 0
1927 -1608 200 0
1132 -621 -24 0
-431 187 -1184 0
-1482 -1902 42 0
-104 -1355 434 0
-576 -1456 647 0
-279 -682 1540 0
-543 507 980 0
-658 681 901 0
-926 1567 -1093 0
1006 -580 -1388 0
1727 -972 518 0
-1419 -1972 -1956 0
1352 -86 -1348 0
573 238 1115 0
1078 1984 697 0
768 -1711 1515 0
853 1854 -436 0
1052 -1777 660 0
-1704 228 -1247 0
-1724 -161 -575 0
854 1940 -1464 0
747 -1133 -517 0
-1161 949 1207 0
-1174 -1992 -399 0
1336 -1513 1706 0
-300 -1215 -1504 0
472 -1915 -1759 0
-50 178 -82 0
402 652 -1916 0
-1648 -780 -1734 0
350 757 1770 0
-1241 -1973 1346 0
-1378 770 -535 0
-79 -607 -1849 0
-735 1113 -122 0
-452 3 -1509 0
1669 853 516 0
-1726 132 -1077 0
-979 1886 959 0
-992 -704 -1674 0
-888 -608 1971 0
905 459 -716 0
-1172 -206 272 0
-1348 -630 -544 0
236 1248 1191 0
1219 1295 -1075 0
-1389 785 970 0
-70 -206 1250 0
1769 -1402 -1473 0
-1470 865 -509 0
1239 -858 1516 0
-1001 1415 -1829 0
-1904 828 580 0
158 -540 -1260 0
376 322 1445 0
-461 1602 1547 0
805 1790 -1095 0
1681 -1420 606 0
-1378 -1201 1221 0
-281 788 250 0
-1906 306 -414 0
-871 -774 1233 0
1338 264 -1349 0
824 -117 -1281 0
-890 -335 1841 0
130 -1590 -1410 0
-1258 426 -966 0
-907 -1015 1059 0
841 -1734 1696 0
937 188 870 0
104 1056 -280 0
234 1271 -339 0
-1983 1004 -421 0
1165 -1123 1041 0
1950 -39 -874 0
-1243 -943 1343 0
1535 1439 1316 0
-1064 746 1090 0
-537 -395 931 0
652 1075 -1501 0
249 686 1849 0
-1629 -1203 -793 0
1000 264 -281 0
-1338 -1496 1794 0
-1322 -362 -1718 0
-856 853 262 0
1220 -1174 -1490 0
-464 127 -1528 0
536 116 -1970 0
1854 -1577 -1584 0
-867 614 1229 0
-1635 -1951 -704 0
1564 500 -117 0
-230 1889 969 0
-1720 680 -193 0
-1800 -1199 -1785 0
-267 -689 -1560 0
1007 1702 -1292 0
1733 -1160 -840 0
-1955 -1056 -1698 0
1624 275 -243 0
1227 1044 71 0
1311 -837 -1216 0
21 -916 46 0
-919 1328 -368 0
921 -1623 -369 0
-1518 461 1373 0
1123 830 -864 0
522 398 -466 0
1680 -968 52 0
1670 1441 1516 0
275 634 -831 0
1058 -1212 1792 0
-1316 1548 -1364 0
811 339 -1438 0
434 -413 -448 0
1682 -1887 564 0
1584 1287 1247 0
76 472 75 0
478 -453 -149 0
-1723 -1058 -1501 0
-1827 -1514 -931 0
1304 -472 -910 0
740 1994 1155 0
1284 -1928 905 0
-1396 -522 -727 0
-298 1156 -1608 0
1168 1351 1823 0
1199 626 -538 0
1351 644 1681 0
-1122 170 207 0
-574 -1648 -1447 0
1675 -1825 21 0
33 1836 -1959 0
-324 -1729 908 0
188 -430 -1949 0
-1743 -1697 1295 0
-883 -1504 -558 0
949 -673 -703 0
-377 -1217 -930 0
1903 -594 -562 0
163 -902 -699 0
1648 602 1754 0
-966 -591 -1508 0
612 1864 -1178 0
-1678 1730 -937 0
-151 1712 1143 0
-630 -412 -576 0
-134 1683 -1179 0
-1301 -719 1665 0
-1420 -1093 991 0
611 372 467 0
-308 -1041 -1967 0
575 -186 1442 0
831 1752 1424 0
1292 -351 -1118 0
1486 -1778 98 0
203 375 1426 0
-190 764 -1572 0
731 1384 -900 0
555 -1737 -1647 0
189 -607 660 0
607 -1131 1095 0
1355 1781 -1813 0
-806 -525 -1136 0
-343 -1486 1431 0
555 1951 213 0
1778 -355 -131 0
-1330 -361 1785 0
-64 -633 -415 0
-1854 -512 6 0
1669 -657 -1244 0
1791 1834 -1291 0
956 993 866 0
-23 1535 366 0
1957 -169 1776 0
1501 -120 -1661 0
-446 1432 1562 0
379 -1843 1238 0
-1604 -341 1024 0
1247 601 -392 0
394 -2000 289 0
-333 954 -813 0
176 -1131 -1727 0
1492 1022 -854 0
-147 730 1226 0
-1672 491 -434 0
-1769 663 -180 0
1542 -1188 845 0
-1767 1486 993 0
115 -1865 1642 0
1782 -691 1852 0
-476 155 1912 0
-363 479 1111 0
-1994 1168 -988 0
1540 -922 229 0
-1648 337 -1226 0
-1796 1496 1412 0
1549 676 -980 0
-561 1202 1872 0
1029 598 -1499 0
-444 -490 -1522 0
578 -1865 -395 0
796 -742 594 0
726 -40 1259 0
-543 -440 1520 0
-929 1311 -728 0
662 767 165 0
1941 1656 611 0
1622 -161 -198 0
1736 -1056 447 0
-373 -399 1495 0
-141 -1322 -1398 0
-551 1876 870 0
1238 1242 -1287 0
497 535 -1708 0
-116 -997 -425 0
1459 -219 1422 0
1756 1290 -818 0
1008 1558 1445 0
1985 -1357 953 0
1456 -1842 1757 0
1929 -269 220 0
-463 741 718 0
724 -1333 -964 0
1257 -444 -103 0
1727 647 -831 0
-1319 341 -634 0
-1850 1085 292 0
-1157 976 -1143 0
115 573 -1157 0
1506 -671 -686 0
-159 360 -16 0
-1402 212 -506 0
1732 -1743 -1254 0
254 -1480 1216 0
71 -243 -413 0
1743 -1059 -1113 0
-790 851 32 0
1970 -953 1083 0
180 -1779 -975 0
-1019 -1301 267 0
-16 614 737 0
-1743 1243 -1840 0
-1155 -691 -242 0
1025 -678 -765 0
421 -1395 -116 0
-1600 84 -265 0
-648 1682 1571 0
1569 -270 -481 0
-1273 -1507 1859 0
1621 -34 300 0
1319 403 37 0
693 -1273 -1340 0
-1613 1361 1787 0
-1716 502 1295 0
510 1923 1782 0
-1702 -1328 -1456 0
-1566 -1321 1516 0
-324 -1179 -1074 0
364 521 -754 0
1221 -198 -1940 0
-943 1155 -661 0
-1413 -1163 471 0
721 -1257 738 0
-866 1321 1428 0
264 -16 20 0
-921 -1168 -1325 0
-919 1281 1649 0
549 -736 749 0
503 -1043 -1549 0
-1496 1169 -997 0
-1604 -1549 1197 0
-1837 -1210 -1621 0
-792 1151 -652 0
798 368 894 0
-576 821 1167 0
-1882 27 -1249 0
-427 -626 1625 0
56 -1555 -1833 0
599 1317 -466 0
43 1655 -375 0
-1873 -67 1764 0
-1184 -606 -781 0
412 -1450 -841 0
-1130 -857 -1324 0
440 -1556 -1666 0
-159 -1026 471 0
1574 468 1931 0
1501 853 49 0
1603 -677 422 0
-117 -8 -1223 0
-1038 -10 1373 0
1295 -1794 -306 0
-562 -157 -1384 0
-1049 1013 -501 0
-1535 -1750 -1219 0
384 -1571 -1603 0
1580 -743 1372 0
-1277 254 808 0
-695 1273 1551 0
672 -1960 -192 0
-287 1508 570 0
1356 -1008 -1322 0
-384 -1358 -387 0
32 -673 -1517 0
-1003 -1171 336 0
-1480 -1068 1222 0
1855 -380 1452 0
1404 -1166 -1545 0
-466 1955 -1167 0
-318 -1815 1771 0
-856 -1350 -1953 0
-1692 -244 -571 0
43 -747 -173 0
463 1579 1213 0
-634 -623 -717 0
519 147 -1809 0
-976 -541 423 0
218 337 -646 0
-1746 -432 -716 0
848 -1670 1089 0
1333 -3 1850 0
-1156 1833 -614 0
-128 1602 -1268 0
1894 -1130 1796 0
-1202 -1051 -534 0
1907 -1623 -1289 0
-729 -104 -1687 0
715 1830 637 0
1619 -717 1396 0
-309 -585 -1160 0
418 -699 79 0
-1558 -376 -378 0
-1359 1977 -658 0
-1740 -41 -1937 0
-177 -1712 -1907 0
-274 1175 -1876 0
1521 568 1257 0
-649 -977 -1275 0
-1405 -1990 1613 0
-195 -1955 -459 0
1806 -488 -721 0
-1680 -1461 -886 0
-8 1407 -802 0
607 -1523 186 0
836 -498 -1434 0
-700 462 -1159 0
1206 -1352 -901 0
206 19 -1023 0
-999 -1141 -322 0
1437 -524 -967 0
1364 119 -1593 0
873 331 -868 0
-933 -1493 -1360 0
-1327 -430 -1239 0
-1695 1807 26 0
-1274 1912 952 0
-346 -301 1798 0
-1547 -1854 -1541 0
1892 398 -774 0
-1301 887 -25 0
1110 -75 1968 0
664 -1786 803 0
180 -52 -132 0
-692 -1978 -604 0
410 323 857 0
38 220 257 0
-263 -572 750 0
-1352 -1961 1626 0
-420 -1665 1698 0
278 969 1818 0
-1334 -1971 1674 0
-596 -370 -1230 0
1697 -1472 -357 0
1894 -1566 841 0
-1286 -1428 -229 0
-1119 1780 -1618 0
197 -1838 -147 0
-738 393 -1685 0
-804 698 1289 0
1331 -1478 -1849 0
71 -714 1866 0
613 -694 -813 0
1139 766 426 0
1009 957 -1253 0
1957 -507 885 0
1184 578 1433 0
-1596 -1093 1362 0
446 -1057 -567 0
636 644 1271 0
467 -416 342 0
1625 -1193 930 0
773 364 573 0
-509 -1956 540 0
-1969 -1930 -447 0
-752 -88 1098 0
1314 -448 395 0
681 -1208 -400 0
115 -1356 14 0
497 1108 1356 0
-956 -1286 -326 0
821 -1411 -1 0
-1083 -1390 222 0
299 -653 -1041 0
1509 -1432 555 0
1143 1572 -372 0
1742 20 808 0
201 1041 564 0
-892 93 407 0
1268 1264 -892 0
1490 -1161 111 0
438 202 -1654 0
-870 804 -509 0
-809 -395 164 0
-1829 -291 -1513 0
460 -221 -1435 0
333 -514 356 0
-1927 1814 1287 0
64 -1161 -1641 0
625 -1682 -1489 0
166 519 120 0
65 -1422 805 0
105 1084 1685 0
1672 1916 202 0
-278 -216 1176 0
1956 1433 -347 0
-838 -124 564 0
1022 -1555 -1620 0
-473 -679 -1662 0
-1523 -1700 -1849 0
-954 -42 741 0
1010 919 -1007 0
1381 -582 -1979 0
-1796 -633 1921 0
909 -321 -836 0
-34 1926 -1949 0
-68 -399 -1335 0
-267 88 -492 0
-1389 -1700 1779 0
480 -112 766 0
-548 1519 -311 0
1588 839 -1267 0
-1174 -703 -466 0
751 1764 -1427 0
1275 -465 -842 0
-1221 -1789 805 0
-1852 1298 742 0
458 1761 -438 0
-621 219 -460 0
647 1488 -523 0
-1204 283 -1569 0
1245 -57 -498 0
-1232 -73 1109 0
-1414 -1037 -474 0
-1811 921 -1571 0
396 -1654 915 0
1904 225 -1505 0
-562 -1335 -1582 0
80 368 -1115 0
418 1679 -1144 0
1697 -165 1718 0
-1668 1329 -1283 0
265 1971 485 0
420 622 525 0
-948 801 -219 0
-1538 -395 -1216 0
-1211 1576 349 0
1152 -202 -1367 0
1039 1420 -88 0
958 -1510 -1970 0
527 -878 -349 0
1949 1990 1663 0
-427 904 367 0
-1764 -1780 -1514 0
1126 -1847 -1383 0
-890 1646 1311 0
1452 87 -1328 0
574 922 -1763 0
1922 1662 64 0
176 595 -1851 0
-1100 1559 1671 0
-522 1823 -1232 0
1596 1301 1432 0
-831 -1039 -1788 0
-824 -287 -1696 0
-670 1853 35 0
859 -1124 1056 0
-1965 -1074 1314 0
-580 -1964 -662 0
424 180 1857 0
72 -1190 -436 0
-258 -1088 -1412 0
1383 -44 1369 0
-1387 936 928 0
-567 -491 361 0
-913 -1561 1538 0
-715 1954 -1518 0
-762 1928 82 0
1333 1872 1306 0
-331 1743 272 0
528 -1701 184 0
1160 -292 1379 0
1707 -379 870 0
-591 345 1128 0
-354 220 1439 0
-603 1743 239 0
470 313 815 0
-872 562 -1514 0
522 200 240 0
1074 -1872 -980 0
1553 822 -1260 0
1435 546 442 0
61 1680 1077 0
-205 840 -1995 0
1050 1613 1535 0
-397 -1048 549 0
1574 1024 -1329 0
-628 -1735 -867 0
697 -782 -986 0
-245 1865 -723 0
-1671 -132 -138 0
1308 576 -1718 0
-1574 -309 -1642 0
142 -1951 925 0
-1450 1086 -512 0
-1435 -1364 771 0
261 832 233 0
534 695 -1200 0
-1434 -1366 -1494 0
-341 -1640 520 0
-530 -362 951 0
882 687 306 0
1469 -543 -127 0
-1806 532 746 0
-1486 -1332 -588 0
384 1708 1496 0
1723 -887 879 0
-1179 -1660 -46 0
38 1863 -1682 0
-876 1036 1729 0
-130 851 -498 0
-1395 451 276 0
664 1363 -1800 0
1542 931 119 0
577 81 -661 0
-984 -1979 -566 0
-1474 491 -399 0
-214 -1174 -1489 0
-1052 -595 -879 0
1743 1351 391 0
-328 289 -714 0
-1748 -523 623 0
-604 -420 -1833 0
-1655 1736 -1561 0
-1755 -1996 1904 0
-1096 -1819 -1519 0
-1444 27 1191 0
1814 1606 1160 0
-238 -291 1982 0
1560 705 312 0
-507 -1463 -338 0
1185 1529 -952 0
-918 301 54 0
1664 1962 -1120 0
1512 -1131 393 0
-232 97 -1702 0
-1249 -1979 1810 0
7 -889 335 0
671 -642 1478 0
-377 -1852 207 0
-148 392 904 0
-1379 -840 1628 0
946 -1913 -406 0
-653 79 331 0
794 -1796 644 0
-1509 -1046 1341 0
1376 583 1795 0
-209 -1051 1468 0
-152 1785 -1893 0
1037 -214 -1606 0
1127 -322 99 0
1758 -663 1040 0
-1837 461 -1591 0
-779 -1417 -632 0
413 -379 677 0
-1695 -273 836 0
1388 702 1920 0
-149 567 -1091 0
1045 -332 1841 0
-726 948 968 0
921 1734 -1216 0
-1836 -1286 -1956 0
-1166 177 972 0
-174 -1208 -149 0
-1708 909 -637 0
-1844 -547 -534 0
1502 552 -1432 0
-322 264 1846 0
-1351 1713 1222 0
-1166 -1445 227 0
1294 800 -1719 0
1413 470 -1073 0
1861 1738 795 0
-1586 892 -273 0
-204 -1965 -319 0
-1061 1047 -540 0
1728 -1552 1524 0
1581 -1503 1079 0
564 1200 -371 0
-209 1407 -145 0
-1748 1870 1073 0
-466 1867 730 0
-652 -1159 1523 0
1423 -927 -1490 0
-20 -1994 1563 0
-1578 331 1956 0
1755 -653 1421 0
896 1838 -1315 0
108 1147 -1642 0
-483 1623 -1210 0
-1653 108 398 0
-1403 1231 780 0
659 -1262 1211 0
-490 -334 -1093 0
520 -798 -811 0
551 155 448 0
-1421 -1980 396 0
-201 -952 557 0
-1665 1206 -1223 0
-818 1537 -703 0
-1819 1752 1483 0
1799 -67 -1452 0
1654 598 -500 0
-496 -1124 -138 0
-692 1459 -1844 0
463 -1312 720 0
1554 -1463 -57 0
-484 1827 1596 0
1140 808 759 0
1338 1631 -1851 0
85 600 1270 0
794 -326 -1525 0
-243 434 -445 0
999 -1030 1864 0
1683 -1570 -274 0
501 -1619 -1752 0
1887 1005 615 0
384 15 -1405 0
1450 -637 -1822 0
-304 281 -37 0
1651 -765 -665 0
1722 -422 -560 0
-64 -951 -1247 0
1359 1372 -1930 0
717 -828 1315 0
1142 1643 -439 0
1673 291 769 0
-725 -1105 -523 0
-1147 -1385 568 0
-881 344 -1772 0
-1234 -980 899 0
1587 1119 1283 0
-1629 245 1185 0
1614 1681 -1470 0
-216 1821 -521 0
659 -694 456 0
1664 -1446 80 0
1075 -1606 1967 0
1360 1131 -1890 0
652 -826 -1618 0
-1802 -90 1472 0
-1231 -1815 265 0
-826 -971 -1315 0
884 871 1140 0
59 180 1565 0
447 1618 1835 0
-1136 -484 -1547 0
-1037 470 -79 0
-1951 72 -1337 0
-1883 -1270 -1738 0
1629 -1303 -1506 0
534 1647 932 0
-335 631 -697 0
488 -433 1650 0
1116 1819 1593 0
-1302 1041 380 0
-790 406 -240 0
-1437 -1921 111 0
710 1027 1853 0
-1401 -1185 1225 0
532 669 993 0
-1254 -1768 1985 0
-564 1743 1833 0
-1597 -1392 -1567 0
-1457 -1584 -892 0
-1980 754 -193 0
-1869 1400 -1985 0
153 -1352 -755 0
664 463 -549 0
1939 -452 886 0
-31 -883 -286 0
321 123 741 0
1724 -1153 1227 0
-1021 1447 1314 0
1847 1819 1582 0
1643 1935 767 0
1304 408 335 0
-981 -110 -1567 0
853 -1870 729 0
494 -1373 -1290 0
1286 -886 1048 0
-1561 -1411 -458 0
-1378 61 -1576 0
739 946 1981 0
-537 -1091 1730 0
-774 -657 192 0
-591 -1806 -729 0
-1328 -1460 1537 0
75 652 -16 0
674 -128 633 0
-405 1733 -958 0
1212 1763 293 0
809 525 680 0
706 -1702 -1011 0
13 -1025 -1097 0
1718 -1467 544 0
1331 1662 787 0
769 1124 99 0
-1926 351 1716 0
429 751 1765 0
733 -1628 412 0
-1039 -1244 962 0
-683 -1426 1608 0
-1604 287 1072 0
-78 -1955 -1808 0
-1142 674 1551 0
-1799 -1080 -351 0
-1591 -92 -585 0
-301 1122 1338 0
128 1847 369 0
-1581 -1625 1072 0
-465 1109 1828 0
-1056 824 1604 0
-495 -387 1139 0
915 632 319 0
-286 662 744 0
-1147 -526 712 0
91 -1435 1781 0
-130 324 1928 0
-264 -1863 -587 0
1348 591 10 0
634 -1028 620 0
-1566 -429 835 0
173 1978 -81 0
-1866 1246 1618 0
1293 546 -1077 0
1266 333 1913 0
-144 298 188 0
715 296 -1471 0
-209 -790 301 0
1337 792 38 0
1814 -108 -1957 0
-429 146 -1406 0
-1478 1454 -61 0
-1279 -1491 -1147 0
-571 -400 617 0
-831 -1420 313 0
1588 -1885 307 0
1363 2 323 0
244 1677 539 0
1782 -760 -1716 0
-265 -1647 -284 0
1339 -1356 -1752 0
-1366 -470 1874 0
598 596 1688 0
-1539 -1412 -1436 0
-783 -287 1201 0
-1142 868 1515 0
367 701 1965 0
531 328 -953 0
-668 -1617 1623 0
-46 -835 -679 0
-308 -1913 -516 0
-166 -1898 -518 0
160 40 -1025 0
-1398 -449 -153 0
-1925 -313 -994 0
-1695 1483 732 0
-1083 -707 582 0
-1405 -1236 -852 0
323 -633 -1150 0
775 -473 1634 0
234 -733 261 0
-1933 553 673 0
-837 244 -1613 0
-954 -623 -424 0
962 1748 1804 0
-639 1397 -1792 0
1200 -770 1058 0
535 -1910 -147 0
563 -1056 1575 0
-1935 -1328 1019 0
-1942 1251 1352 0
934 -1547 -651 0
-1744 565 -227 0
-132 44 -1125 0
-705 -1185 -548 0
-202 910 83 0
369 -531 -1499 0
330 1034 -1161 0
-1737 -420 618 0
-337 954 -1063 0
273 792 1676 0
1884 1368 -785 0
-1115 -521 -910 0
812 1360 -1371 0
-1787 1439 102 0
-1983 -317 -1724 0
923 1799 -866 0
-1834 862 -955 0
975 -1296 114 0
1393 -409 1484 0
1845 -1493 1976 0
-406 -913 804 0
-505 1782 -747 0
-1791 576 556 0
770 1836 500 0
1405 1696 -1803 0
-541 1004 1582 0
1407 34 1968 0
1382 -1817 353 0
-183 1376 1683 0
1945 -668 1377 0
-458 119 -655 0
-1047 -779 -1120 0
-1623 1490 1920 0
-1204 67 -49 0
1872 1096 911 0
778 -1861 -522 0
993 1028 550 0
1214 1042 -1197 0
890 -262 520 0
1754 -933 157 0
-1570 1462 -1467 0
150 -1857 950 0
-227 -1142 -219 0
1375 -776 -1840 0
-1151 -811 -1686 0
1030 26 -268 0
-1107 1995 -342 0
-331 -1381 94 0
454 -60 -1518 0
1697 777 -1259 0
440 -291 1681 0
765 -1646 -404 0
1501 1463 -1789 0
931 251 -1356 0
333 -1843 1335 0
173 1908 -1891 0
491 -1157 1567 0
-963 1618 -1979 0
1073 -376 121 0
-420 -744 978 0
158 658 -238 0
229 -1752 1172 0
-111 1818 -1406 0
459 427 925 0
473 1369 -1922 0
-1530 -1373 1596 0
-576 -1380 724 0
1339 1977 77 0
-729 427 1210 0
-374 -138 -1397 0
-1861 101 523 0
207 1190 1727 0
-858 -876 -1781 0
568 91 -1150 0
-806 1945 -493 0
537 -43 789 0
-766 -1930 -1958 0
-1435 -1540 631 0
33 1441 250 0
1772 -225 -190 0
781 1646 -1037 0
22 -555 865 0
-1414 171 -1767 0
1939 1879 -569 0
968 -1838 138 0
-1029 835 -1238 0
-1865 1849 1220 0
304 423 1590 0
413 -154 433 0
264 -1412 -94 0
-82 699 -150 0
-1123 1965 -1477 0
-1683 -1898 1171 0
-513 -976 -1691 0
-692 -1490 -1947 0
-673 948 1144 0
-1094 1849 -1322 0
1265 -1796 -77 0
860 1735 -763 0
-763 -1741 -1824 0
1974 -1495 -171 0
-1219 1847 395 0
1761 345 -444 0
-751 -1918 -979 0
-164 -1480 435 0
-758 -202 -394 0
1400 244 -765 0
1604 -689 1770 0
741 600 -1038 0
528 -1356 469 0
543 348 558 0
-1193 1272 -184 0
-1858 1929 566 0
-1189 841 1911 0
162 -1506 -650 0
-1476 -1099 147 0
-69 -496 -978 0
1218 -1016 156 0
-688 608 -59 0
1061 831 300 0
700 -404 -1140 0
1195 1894 28 0
1246 -1718 -571 0
-275 1382 1565 0
-1269 1131 -1075 0
1272 1440 -1910 0
1614 1433 504 0
-1806 1913 1452 0
1117 -1874 -1314 0
845 -1432 1728 0
-1173 566 483 0
197 -377 635 0
1789 -1790 -346 0
-1702 1186 1085 0
1112 1570 -1562 0
891 363 1975 0
664 1219 1985 0
-1677 1561 969 0
-168 -1200 1127 0
-1822 -1228 804 0
-300 -1362 240 0
1992 1656 1454 0
711 -1981 -1628 0
-1474 -1799 -1191 0
-236 -1433 1854 0
-550 26 -1484 0
-394 563 -850 0
1338 1853 1669 0
1018 -1986 -512 0
-1905 1839 923 0
884 1283 -1287 0
135 1235 1835 0
1627 1066 1700 0
1530 624 683 0
1150 890 1052 0
1468 -1914 729 0
1877 832 -1564 0
915 577 1493 0
-1827 1917 -919 0
-1446 -673 -403 0
77 -1545 -1959 0
-897 -1732 -1731 0
-144 -296 1424 0
1618 -1869 105 0
1756 164 1355 0
825 -915 541 0
-1229 1192 1003 0
1113 -284 -1302 0
-1507 -1262 -429 0
605 1192 1990 0
368 1284 -629 0
-1276 -99 1059 0
-213 -1330 -1661 0
1795 -393 -748 0
611 923 282 0
-1866 1505 -1186 0
675 1811 -1016 0
1078 -767 1791 0
-219 -491 1810 0
1698 495 -1591 0
-1762 245 -653 0
-788 1458 1883 0
-487 667 1091 0
-987 -350 -981 0
-1720 1671 1614 0
-615 -41 -1052 0
1283 578 372 0
-1116 -7 1828 0
1494 1011 860 0
-700 1189 363 0
1251 -1270 1408 0
-124 -600 866 0
-762 -142 1996 0
-119 -1610 -1910 0
1505 -611 483 0
-1814 -1 1237 0
-473 -1578 -117 0
-801 117 1281 0
1478 1045 1360 0
-277 -773 713 0
1698 -986 -139 0
1828 -1179 934 0
1576 584 -69 0
1584 44 -1226 0
344 -71 782 0
-332 1541 -68 0
877 -1064 325 0
1234 -1106 -1909 0
1349 1912 307 0
1544 1504 -1402 0
597 -1206 -591 0
926 538 -767 0
435 -224 1650 0
-441 334 67 0
-534 54 1068 0
408 -1651 -1491 0
-1411 1487 2000 0
615 -338 1093 0
1119 -1832 -1518 0
-1363 1547 -948 0
-616 583 714 0
-1350 766 489 0
521 281 42 0
-327 1248 -135 0
-474 1277 -732 0
-1348 -1528 296 0
624 -1327 -1394 0
968 -1885 289 0
421 1674 -1500 0
-1265 1957 1021 0
-245 -764 -332 0
1427 554 1229 0
1863 886 711 0
-1383 1631 239 0
-565 -1304 -1224 0
-1306 -448 1364 0
-1198 1433 1883 0
28 -1684 494 0
365 -1487 -449 0
-1103 -1942 -550 0
-1347 1898 1945 0
512 -1342 1980 0
-686 595 -826 0
-581 999 1419 0
-1692 1190 516 0
395 -1912 -1497 0
1309 1801 -1885 0
473 1125 -1207 0
1924 70 -854 0
-419 -531 -1610 0
-1416 -605 1287 0
1228 280 -726 0
-1823 -86 -727 0
-543 1850 664 0
-122 1369 1378 0
1145 1839 600 0
1614 285 -934 0
595 -397 -875 0
1140 770 1086 0
1804 1260 -1338 0
-1383 -281 -270 0
1978 -48 -1950 0
442 -88 617 0
-202 -1366 1597 0
-1461 287 -929 0
-423 1714 -1628 0
681 236 -1519 0
-954 258 168 0
-1869 -1141 1676 0
-574 1820 1064 0
1443 -123 348 0
-1443 1318 873 0
80 -709 -299 0
216 1254 598 0
-1591 513 1184 0
-1726 -1291 -659 0
-250 94 400 0
-1419 -135 1922 0
635 1400 551 0
-1510 696 -359 0
-470 -1401 913 0
-693 -1370 -1116 0
305 -430 1967 0
-1304 685 -1594 0
-605 1007 1110 0
-262 647 206 0
-412 993 1094 0
-105 -302 1166 0
941 278 -316 0
346 1882 1454 0
-1550 -674 -1046 0
29 -592 -1235 0
857 1634 -709 0
341 626 -458 0
-1190 409 669 0
758 173 975 0
-276 1110 -605 0
-1730 -1004 -1500 0
1700 1285 1273 0
-1105 -77 -778 0
-1675 1393 656 0
1343 -1057 1483 0
-565 1184 1606 0
-1829 -1929 -404 0
1473 -95 731 0
-92 -413 -1009 0
-1536 1110 -640 0
660 -765 -850 0
-423 -1377 -1477 0
-1358 1328 193 0
-1938 466 324 0
919 15 -118 0
1500 578 1356 0
-1736 201 -8 0
-1924 801 483 0
24 219 1939 0
-1590 1898 -1947 0
127 -1193 1014 0
1684 1324 -509 0
-989 -814 -1136 0
-1080 388 -47 0
465 718 -645 0
1809 1141 1315 0
1092 1232 1350 0
1446 -171 175 0
39 1022 -1160 0
856 1592 920 0
-1506 -1801 -434 0
1102 856 -322 0
-1392 1191 420 0
1201 -936 -152 0
-573 -1712 -1908 0
-272 1541 -208 0
-1720 427 -1848 0
916 1836 1415 0
1767 1137 -1014 0
1418 1915 1889 0
578 1200 1070 0
-193 -772 -1575 0
-1382 578 -1386 0
-1115 -40 1557 0
1852 995 5 0
-1308 -836 -202 0
-1323 942 -1768 0
-1867 243 709 0
-495 -1968 1447 0
942 1593 7 0
1354 483 1529 0
1082 807 1591 0
391 -129 -1377 0
1431 -1594 1905 0
1355 -1220 1402 0
-179 328 -1360 0
-478 -1742 -103 0
-1827 852 1327 0
-1790 -998 -1311 0
-758 948 1435 0
-799 2 -1864 0
-1436 -1147 1363 0
1028 -1056 19 0
618 1918 1907 0
1667 1476 -903 0
376 -1776 1872 0
-265 -1365 -1405 0
-1497 -1673 -432 0
570 -1689 -427 0
1590 -371 -1708 0
-1632 1845 -1968 0
122 -426 -1905 0
-169 1320 -1397 0
-19 -89 759 0
-1761 -1164 -1790 0
1324 479 487 0
-776 -1952 1481 0
-1461 -1807 811 0
1970 1443 -1909 0
-478 -432 -1398 0
1350 175 508 0
-1894 -816 201 0
-921 -487 -486 0
-262 1716 -1042 0
-1152 234 237 0
787 -991 1106 0
-92 1998 807 0
-1942 -24 -292 0
1683 -1823 -360 0
1271 -1036 1414 0
-1475 -1416 1409 0
1241 1735 -1205 0
-1060 1073 -1896 0
-1540 271 997 0
-1608 1293 132 0
-127 -1925 781 0
647 1314 -1159 0
1913 -492 574 0
-888 656 -111 0
-105 832 -1363 0
1619 -350 130 0
-1115 -1359 361 0
-1908 -405 1311 0
-122 -766 -367 0
115 435 1877 0
1487 538 1078 0
519 244 -1582 0
1190 -1501 -448 0
-1779 389 -929 0
-1030 -1093 1184 0
547 -1004 -1120 0
-1052 -1903 543 0
775 678 -122 0
-1316 -477 -624 0
892 -1919 -1601 0
724 -1146 -287 0
408 -23 -855 0
-937 1343 65 0
1535 -372 -1007 0
-1424 -1715 1478 0
1988 -1436 -564 0
-83 -817 -735 0
-201 1204 -350 0
-1110 1336 159 0
-695 1409 502 0
1360 1365 -1894 0
1777 681 -1520 0
-380 831 1539 0
1994 1670 -1782 0
-1269 -1705 -1603 0
-1689 453 1144 0
1587 1762 222 0
-695 -1781 620 0
1319 -281 -676 0
1425 -1587 -973 0
-1794 1654 1220 0
-211 304 -515 0
659 1381 1338 0
1484 -1699 -1425 0
-237 837 307 0
-862 901 256 0
1657 -1793 -421 0
-1238 -1980 382 0
1883 1927 987 0
1927 -1268 1416 0
-206 -554 -1373 0
-1146 -1816 1219 0
-1676 838 -1140 0
1212 1709 1959 0
1878 829 766 0
1743 552 1249 0
-293 1068 567 0
636 1764 -1469 0
295 -1377 -42 0
-1257 -1384 1364 0
-962 263 1785 0
1245 -1402 -825 0
-1312 -1458 -1051 0
1603 -1755 1212 0
1178 -1081 704 0
138 1025 406 0
1887 108 -1155 0
-61 1383 -870 0
1843 -932 1535 0
-1812 597 1524 0
1470 -39 1942 0
197 1943 1140 0
774 -946 22 0
265 -677 312 0
920 -1629 -156 0
-139 -1613 -460 0
-1165 668 -1452 0
-1798 865 -1846 0
1228 -950 -1327 0
1534 664 -1907 0
335 -909 -1107 0
962 1049 247 0
1137 1786 -940 0
461 -341 858 0
1398 146 984 0
651 -1255 264 0
537 -790 716 0
-1973 644 -1044 0
-520 1881 1623 0
-674 198 -785 0
-930 -757 -831 0
-407 -1852 -289 0
251 -215 -952 0
-908 -1525 -1896 0
-1931 -1263 1416 0
775 -1606 940 0
688 -1463 -467 0
226 41 -777 0
912 -494 1244 0
918 522 -246 0
112 383 -1047 0
997 -1406 390 0
1217 1106 -1784 0
-236 -1800 240 0
-1514 625 347 0
-1095 -1708 -1431 0
291 373 -1742 0
286 444 -347 0
1019 1630 1456 0
-792 -1471 1688 0
-954 -1422 -1326 0
-343 1652 -1758 0
121 998 -1740 0
1964 -1655 1649 0
593 -585 787 0
-61 313 -1561 0
-754 -479 1591 0
-1085 280 -425 0
-99 1768 1121 0
-24 232 -120 0
798 -1153 39 0
-308 -1339 1028 0
1251 420 435 0
-1316 -1736 1302 0
-1963 -124 -1027 0
537 11 -84 0
-783 846 -1252 0
661 1551 1696 0
-237 -1440 425 0
554 -1276 -1581 0
695 -1531 632 0
1077 -1110 974 0
64 -741 980 0
1729 715 -212 0
1694 1618 1330 0
-1387 1107 84 0
1952 1724 -1982 0
228 446 183 0
-1103 -420 1696 0
1969 -1385 749 0
-224 -404 -1641 0
-1194 -33 276 0
354 1701 -1532 0
1519 -1617 1954 0
135 -1061 171 0
1049 -1705 1294 0
721 -859 -1827 0
1395 1294 1406 0
-1202 -1552 -1533 0
-92 -1293 1676 0
-423 -817 716 0
766 535 1170 0
1085 536 -1381 0
345 928 -915 0
-1133 -1531 -1188 0
-1865 -1324 -188 0
-496 -155 -1812 0
1509 1567 1760 0
-225 -1013 598 0
-1141 1367 847 0
37 -620 -1017 0
-239 -718 -916 0
-1571 -380 963 0
-1348 -820 -656 0
1588 -685 -1454 0
1541 -1393 -198 0
-1884 -1018 1930 0
-1563 -1023 -1891 0
-1041 1154 -137 0
870 -38 1339 0
1068 -1660 847 0
1456 1243 1445 0
1655 -424 425 0
-1439 -1068 8 0
-1911 -1082 1814 0
-1734 -1803 325 0
-1435 1879 1380 0
-971 -1771 1059 0
615 1395 166 0
-1260 -1591 -1705 0
-274 754 1882 0
-1429 397 23 0
1815 1353 -224 0
1895 585 80 0
1049 -892 -224 0
66 -1923 345 0
-790 1471 -371 0
-940 1812 -104 0
-92 -615 -708 0
-1924 -248 1288 0
-316 1040 -1897 0
1819 160 218 0
1189 -1798 -1671 0
731 1938 -367 0
219 680 -188 0
1866 -1337 -1084 0
905 -1234 -1764 0
-1831 647 619 0
1764 622 -182 0
185 -510 1107 0
691 1761 -702 0
1794 -1025 -470 0
1793 -288 -947 0
-35 -277 -1540 0
-24 -1571 3 0
440 1534 -638 0
442 -1788 214 0
-1483 1074 -914 0
-1434 -1997 -780 0
1894 1992 1605 0
1421 -1967 -1844 0
1927 -800 -567 0
-121 -1657 68 0
150 658 468 0
749 311 1601 0
-1890 -1903 -844 0
-10 1346 -351 0
-366 -100 -840 0
-327 -1089 -1297 0
859 590 -734 0
-1035 -842 1225 0
-529 -1488 -13 0
1206 -16 1990 0
626 -618 1436 0
-187 1951 -611 0
-339 -1544 386 0
-1958 -261 1147 0
1676 -1284 -712 0
-601 -338 1091 0
1569 1372 1010 0
-1959 -195 -245 0
1617 1040 707 0
960 -1219 885 0
-1036 -97 -159 0
-265 -1709 -1291 0
488 -1841 283 0
1695 -1248 -1808 0
-1940 1792 -1066 0
-1884 284 1177 0
-1601 629 -338 0
-1782 297 -961 0
-288 49 398 0
-838 -996 -462 0
-1221 898 285 0
-1302 -255 1122 0
1467 64 412 0
-1002 -917 143 0
132 1140 1465 0
-1430 1931 -1604 0
1509 797 1800 0
-897 277 1353 0
-831 -929 471 0
-1182 1173 1378 0
-574 -727 -130 0
-1881 302 -831 0
-387 -1958 -1028 0
-141 1265 1952 0
1799 -1554 -126 0
1145 -1283 1593 0
-636 -51 -1660 0
-1649 -1762 -1412 0
1231 203 458 0
-345 930 -224 0
741 -889 -1184 0
-1999 437 1247 0
142 -534 -841 0
1435 67 -1000 0
1215 1618 -1502 0
-1862 -1562 1850 0
78 468 1649 0
-87 -1123 1063 0
333 -1357 -1227 0
-758 1546 1046 0
393 -158 -1373 0
-613 391 793 0
1907 -1100 -991 0
196 1394 399 0
-1208 805 112 0
-132 575 484 0
-330 -605 -1988 0
1659 1563 891 0
1732 799 1129 0
1922 -273 -1846 0
-1103 767 1401 0
-340 357 478 0
1655 247 -424 0
1547 -1663 30 0
-1779 1155 95 0
-1261 212 -307 0
1790 -276 -476 0
1160 -1113 924 0
-1455 -531 1460 0
-190 -377 1879 0
-1895 -1976 466 0
-1182 1097 -1645 0
-120 1807 1182 0
-682 -804 -165 0
-1998 -35 -952 0
3 1011 1157 0
-1387 -1900 -267 0
-1645 1469 624 0
-27 552 -881 0
1625 -1514 -946 0
1991 1333 -55 0
37 -1021 1084 0
-1346 -677 1564 0
535 -1961 -826 0
-22 610 -587 0
-1907 921 1873 0
-1157 -1485 315 0
-836 -1019 511 0
775 -1694 10 0
-1752 -1129 363 0
-1768 -1602 1965 0
-1861 1333 153 0
-735 -192 -1912 0
1201 170 -1847 0
450 -419 -1581 0
1982 1095 -1008 0
-1817 252 -1321 0
1656 -265 402 0
128 -601 -1821 0
215 1170 1209 0
-1162 251 670 0
1823 429 -34 0
-1309 -123 365 0
1959 -449 878 0
-261 -1134 1962 0
287 -1668 1662 0
-850 -1235 1983 0
-218 1454 934 0
-942 -1302 407 0
1083 1559 -992 0
1485 -1561 1482 0
-1032 -1209 -505 0
739 -53 588 0
1219 1498 -542 0
1196 -1369 -1743 0
-1845 1172 -895 0
-796 1952 503 0
-1134 -943 1053 0
-1475 1563 252 0
-607 640 690 0
-168 -973 -1661 0
409 -163 -633 0
-1675 1514 70 0
-1633 -614 1839 0
1354 1892 29 0
1960 -1682 1237 0
-818 213 1657 0
1543 -1199 -456 0
-1997 -550 -1804 0
1869 1481 -1235 0
-747 -379 -1852 0
1603 -495 1551 0
1280 -1546 -34 0
-1976 1798 406 0
827 -717 81 0
-772 264 -1184 0
1901 236 773 0
-678 -162 1725 0
1768 -1599 -1431 0
-1335 740 1247 0
-811 -1785 1627 0
-1515 -1582 740 0
285 1113 -735 0
782 1296 1864 0
777 -1748 1087 0
497 1983 196 0
-204 1635 853 0
-806 -1292 -275 0
34 -1023 1984 0
926 395 1398 0
2 849 -586 0
-1886 -801 -730 0
1053 1605 -82 0
-1537 -1788 1823 0
-1053 865 -344 0
-545 1793 1416 0
578 -114 999 0
-481 288 598 0
-64 -866 1183 0
-183 -1701 1337 0
480 1320 -1150 0
1057 418 -457 0
-165 -1188 -1324 0
-1553 1427 -557 0
1484 807 -1818 0
183 -1700 1075 0
-790 1804 -111 0
-326 1085 -1032 0
-678 16 -390 0
-1503 927 -673 0
-402 506 -401 0
398 -702 -1726 0
1195 755 -327 0
-1133 1292 -688 0
-1502 -1650 629 0
-1247 833 -101 0
1060 1674 772 0
-316 -1471 1807 0
1113 -991 -1043 0
1611 -996 1781 0
734 -931 -120 0
1550 1442 -1676 0
805 872 -1499 0
1156 -537 1173 0
409 849 -420 0
1811 -1834 1759 0
-711 557 385 0
1708 -848 1183 0
-1811 -1391 -216 0
537 -1561 1482 0
-1751 -1114 1998 0
-753 -106 797 0
-126 -82 -250 0
-1942 771 1000 0
1716 1460 -75 0
-1977 1972 -483 0
-1311 -1957 -1019 0
-1857 -1968 -56 0
1990 -1422 1317 0
1462 256 330 0
330 1832 1403 0
-1404 -460 -119 0
-1210 -1564 543 0
-596 102 -1445 0
-1994 630 -1761 0
1454 1744 1143 0
1868 -864 1269 0
-469 1742 -419 0
-1361 921 1376 0
-88 12 -1089 0
-824 47 -541 0
-717 -1293 1080 0
687 -1871 600 0
1886 1067 -778 0
-1587 1044 1663 0
-1615 791 1568 0
1297 -1365 1621 0
-1952 -1725 -1298 0
1092 -692 684 0
-1439 204 1301 0
260 -1974 398 0
-334 -1576 708 0
263 -609 265 0
1239 457 -461 0
-574 -135 -1074 0
1546 -1904 1811 0
-580 -818 75 0
-1675 -1135 1115 0
583 1715 1307 0
-818 -1478 -520 0
854 -1578 -1386 0
960 432 -940 0
1638 -505 1147 0
1543 207 -1838 0
-1075 -1432 -1885 0
-116 434 185 0
-65 1489 132 0
-512 -198 -1 0
1301 1119 728 0
1844 -334 -551 0
109 -324 1413 0
404 430 167 0
1219 1640 1528 0
-1226 33 1569 0
-1879 -73 1705 0
-998 1453 -1296 0
737 607 1769 0
-1915 544 1873 0
-209 -897 -435 0
-1060 1883 1872 0
-1040 358 -1168 0
583 -161 -1447 0
-1399 1955 1050 0
1040 -1227 -393 0
1439 1055 1987 0
-1175 1223 1136 0
1877 -508 -1271 0
-1365 -418 1264 0
-1073 1967 -1741 0
423 794 -1034 0
-1147 174 1106 0
1187 104 1527 0
988 1453 625 0
1207 -369 747 0
1973 366 -1123 0
1575 919 -586 0
-752 -1859 -984 0
-339 -413 -418 0
659 704 1303 0
1276 1378 1595 0
-501 -1096 -1687 0
626 692 -1325 0
-1287 -996 -78 0
-561 -1713 1149 0
1568 -1497 403 0
-1374 -397 821 0
1651 1589 303 0
-1348 -1727 -422 0
-1637 -1086 -181 0
-1352 -827 1638 0
271 -1698 -246 0
1529 -1318 -1882 0
-1729 1878 1923 0
-27 -1181 -15 0
1877 -1222 -1122 0
1589 20 -259 0
-1489 -1676 1236 0
300 91 183 0
332 -136 1630 0
-846 613 432 0
559 677 1605 0
1744 -752 -589 0
1059 718 -1406 0
-929 -645 -1263 0
786 -1133 1967 0
379 -1688 1718 0
-759 1414 -1498 0
444 -760 163 0
1246 -1164 1564 0
1617 -1112 -1089 0
-1037 -1288 1416 0
-1295 -1428 132 0
592 -179 -1955 0
-1639 1333 -18 0
-1403 -582 -697 0
-1259 1471 -1249 0
901 1723 -1093 0
743 1721 -871 0
972 -949 888 0
-565 1251 285 0
-1486 -1912 -1829 0
-500 1140 -677 0
1522 61 -403 0
1292 1471 942 0
-902 1561 -1031 0
1239 -980 339 0
-1916 -865 630 0
1902 -173 1483 0
-570 268 -1422 0
1946 -1427 370 0
1566 -1298 -278 0
309 1919 400 0
258 -1790 -237 0
-556 1572 -1556 0
1806 1266 -1505 0
-1947 -1086 -1160 0
1208 -92 -1469 0
145 -1435 990 0
-286 1440 1797 0
51 -1135 -503 0
1808 -1404 -1819 0
1541 -435 224 0
-1562 -1444 -781 0
723 1333 -497 0
-1175 741 -135 0
-1703 -551 834 0
-699 -782 397 0
-502 -981 955 0
-811 70 613 0
-997 1137 -1026 0
-691 253 1510 0
-1261 -444 1012 0
1468 -1648 -1561 0
311 -1095 -1040 0
1045 -265 -1589 0
1988 -1727 -1565 0
-290 405 35 0
647 1360 1991 0
2 1361 -1725 0
-1242 -508 -1794 0
-497 1826 462 0
1925 -1697 1268 0
-1095 -161 -131 0
-1758 1385 745 0
-1449 -1752 -499 0
965 83 362 0
328 -1519 -1805 0
-320 498 -740 0
257 625 -976 0
1568 353 1338 0
1811 794 1902 0
-359 1276 -942 0
-90 1178 -1549 0
1181 109 1022 0
829 990 1354 0
1851 1269 1929 0
-1778 -1730 -1653 0
-148 -1581 1037 0
567 -1744 -1867 0
-1885 -83 -1773 0
851 -386 -313 0
-836 -1131 -1528 0
-1335 1352 -728 0
771 986 1470 0
-1621 -1971 -1590 0
-853 -358 -1898 0
1373 -1722 1041 0
1351 -1509 -324 0
507 484 -879 0
1780 1064 -1216 0
1546 -342 1755 0
1663 -1114 -1037 0
-1093 -388 629 0
-348 -35 1429 0
1616 -1632 1535 0
-1664 1975 846 0
-1469 -14 -185 0
-58 -1162 -1779 0
-1261 -1977 -957 0
-1599 120 -823 0
37 -1035 634 0
-1587 -986 -1927 0
1695 -946 -11 0
-1404 -1772 -1337 0
181 593 -423 0
-1493 -1775 824 0
1395 1907 -1940 0
1635 -1331 247 0
-197 -785 -1720 0
-390 100 -654 0
1221 -1559 333 0
1302 -1217 -1441 0
-421 1001 -701 0
-1704 67 -1908 0
-747 132 -1586 0
-733 1802 -1850 0
-1137 -54 1641 0
-288 267 1566 0
789 1077 926 0
-1313 902 1613 0
784 1229 -761 0
-982 913 1526 0
-715 432 1494 0
-119 772 447 0
-1503 -272 1430 0
-1543 -248 -1011 0
783 178 -259 0
-95 798 -47 0
150 675 891 0
-638 1667 -1927 0
-733 -139 -961 0
1240 1715 133 0
1281 258 1478 0
136 -1607 1582 0
379 1144 -831 0
-1004 -126 -93 0
1783 -1824 186 0
1261 18 -396 0
-303 974 -215 0
-446 1771 -212 0
-129 -1108 1591 0
529 -270 826 0
-921 -955 -826 0
1732 -1433 490 0
-1148 -1895 1169 0
959 1749 1994 0
-1461 289 -686 0
396 783 52 0
-1692 -608 -934 0
-1497 1105 -442 0
19 -1175 1724 0
975 1919 -1934 0
-1909 36 -55 0
1582 1798 1304 0
120 -1101 -594 0
-1278 1667 -1319 0
1172 1872 1324 0
1327 1968 -464 0
-970 -400 1364 0
246 323 1187 0
-1693 -191 -434 0
1352 -745 -484 0
-33 -1410 -1584 0
-1346 -1190 672 0
181 -42 -588 0
-690 1694 1058 0
587 224 1887 0
-1797 1568 694 0
407 1980 1386 0
-1988 -470 -894 0
1651 931 560 0
-284 1563 303 0
-83 -385 212 0
1290 1365 936 0
1494 1156 -167 0
1518 -218 -295 0
-1769 1645 -964 0
801 -1237 1894 0
-1762 -1467 -291 0
-421 1883 1297 0
1390 696 1059 0
-1046 6 947 0
-1937 -1549 714 0
-894 -76 -1273 0
-1017 -1271 852 0
-1470 1930 866 0
85 1495 -1338 0
-562 -1727 122 0
1249 40 -1259 0
1166 921 1647 0
885 1857 441 0
-1624 23 437 0
-570 -142 -347 0
1442 -1895 1670 0
795 -509 167 0
-1010 -471 1145 0
-144 1820 -1940 0
339 -424 -656 0
-1980 -1900 1577 0
-741 -1130 -1232 0
7 -1572 425 0
593 257 884 0
1099 1205 653 0
-306 517 -1231 0
43 628 -122 0
-297 499 -1787 0
-1406 1846 -1461 0
286 -905 -1712 0
-732 1558 -1030 0
1667 -845 -1139 0
-1959 1780 -1706 0
56 1101 1004 0
-1997 -377 1938 0
1060 -735 -361 0
-1819 -379 -1901 0
-1450 347 -453 0
-816 125 -1004 0
1766 -571 423 0
1662 1743 1924 0
871 -1793 -1871 0
1959 1408 10 0
-1476 -459 -477 0
339 -1506 -1346 0
1683 -1024 1988 0
-1384 -1026 404 0
1191 -522 1793 0
-1895 1187 -913 0
-292 -1302 -1439 0
1439 -1191 1762 0
1209 1207 -148 0
-260 1479 -1342 0
611 -1118 -1555 0
-482 715 -55 0
1681 -1228 -1876 0
5 1208 -1743 0
443 -1681 473 0
-573 1301 1162 0
-1582 1413 -1474 0
219 826 -847 0
295 -1906 -1007 0
165 -265 -523 0
-585 -648 1159 0
1844 -1530 -493 0
1983 798 434 0
-1699 -1475 683 0
-1804 -1367 5 0
52 -695 -613 0
1041 1962 790 0
-1066 -1339 289 0
-122 602 -1579 0
-1181 -1105 831 0
-1756 -1902 -1706 0
523 398 744 0
337 -795 1963 0
121 -98 -740 0
-869 -1064 846 0
341 1415 1738 0
-717 1622 -1624 0
663 1724 1877 0
-232 1258 982 0
-239 -1026 1854 0
-1873 -92 -107 0
-178 1553 965 0
-862 -614 -891 0
-639 -933 867 0
-976 -993 661 0
-1329 -734 -454 0
1727 -1903 1717 0
-1977 568 1430 0
-1789 205 -605 0
1635 -1934 1727 0
-411 201 -11 0
-706 -628 1967 0
-270 -937 -730 0
1124 1926 -94 0
-1946 682 -974 0
-1715 1425 -454 0
1090 -547 956 0
36 -1467 493 0
-1456 1987 -646 0
646 488 -1842 0
-1064 1709 600 0
-1074 -1638 1994 0
-1636 -467 1316 0
112 519 -79 0
-1913 -21 1538 0
-421 168 -1078 0
-1399 -1949 743 0
332 -105 -1205 0
1183 267 464 0
655 1118 -106 0
-990 -266 1404 0
244 966 -70 0
237 833 -102 0
65 -556 871 0
-1653 1622 -141 0
-1635 1031 -1182 0
1130 -1297 -844 0
-903 -1190 492 0
373 -1713 -1087 0
-309 -776 1244 0
838 -17 1306 0
-1331 -1608 1743 0
-172 1428 928 0
1631 -677 -1449 0
-1897 405 -1110 0
-1624 -892 -1927 0
836 -1327 -438 0
706 616 1199 0
-1815 -468 1168 0
-501 1079 1287 0
-775 112 1185 0
-355 450 -1230 0
-136 -214 -897 0
1087 -465 1956 0
876 28 -1072 0
-1912 -990 -1818 0
602 -1686 -474 0
1121 1447 -598 0
622 1266 1340 0
1492 1894 -108 0
-196 1523 -817 0
1843 -761 1556 0
537 463 -1833 0
361 1763 1149 0
-1944 -132 -685 0
281 823 -876 0
1714 -1030 -1708 0
-1607 -376 1967 0
1984 540 917 0
1387 -894 227 0
949 -137 -1669 0
1405 143 1917 0
69 -1080 -483 0
-1726 -966 -1645 0
-133 -1598 601 0
-535 857 -1867 0
-1985 304 -1248 0
-1598 -444 -1252 0
458 -1386 -933 0
-1554 1686 525 0
436 -1875 681 0
645 -1408 1988 0
1608 -1240 1125 0
-737 1234 1902 0
418 1260 -980 0
-1594 -1032 -1253 0
1129 1272 -843 0
-1018 -1141 1570 0
-159 -896 140 0
-1179 -1084 -381 0
684 1891 -1685 0
-682 -1017 -1525 0
1997 -1852 -1344 0
1721 -655 -1184 0
1390 1190 1022 0
-1925 -203 1732 0
343 866 -1365 0
-941 1346 -558 0
-1624 790 -919 0
1684 1792 -1223 0
-358 -1089 -1617 0
-696 1784 -1966 0
-1361 1972 1604 0
-1110 1317 284 0
37 -1938 947 0
-1797 -1526 -196 0
1989 -1937 989 0
-1932 -753 447 0
642 1361 -691 0
234 1508 392 0
-1904 -1356 55 0
-281 -1435 901 0
-1310 125 -1277 0
-453 -1590 -1569 0
780 1385 426 0
196 -712 1790 0
625 -1287 -1813 0
-1285 633 -1899 0
946 141 434 0
1682 1429 1949 0
-192 1686 -1898 0
-553 -1333 141 0
-1901 -426 -222 0
101 1444 -1093 0
-307 -1834 -442 0
-620 37 197 0
538 -245 1045 0
1544 -1358 -1291 0
-1664 1736 -507 0
216 -491 -958 0
1995 1724 -1519 0
-1176 -577 -1578 0
-87 1818 303 0
-1744 -1573 640 0
595 -691 -1617 0
-1076 -401 -1572 0
-546 -287 563 0
1347 605 -817 0
-1934 -393 -555 0
1489 861 380 0
-389 -1732 -103 0
-1093 1413 -580 0
1345 -146 -656 0
414 244 -1801 0
1797 1779 -295 0
-747 -214 1560 0
478 1142 -1101 0
1679 454 1986 0
827 -645 59 0
-897 -1646 -1164 0
242 -305 179 0
1990 1781 1159 0
-1252 -864 -1266 0
937 -244 -1967 0
-1892 1105 -1473 0
1153 -1105 1633 0
-83 1939 1415 0
-1744 -1079 807 0
17 -1343 135 0
-1849 783 1520 0
-1333 677 -1664 0
1162 -910 1626 0
-237 854 888 0
1171 1372 -589 0
760 -67 -1096 0
1977 1927 933 0
1419 -1995 1934 0
-1639 -664 1401 0
52 -583 1697 0
-712 1814 1576 0
-1355 1921 -990 0
-546 -1723 -1335 0
1315 14 1196 0
1022 767 531 0
156 -294 1199 0
-1188 421 680 0
565 586 1883 0
-400 248 1972 0
-795 -863 901 0
126 1079 -1808 0
-1908 -1594 172 0
-76 1713 1641 0
1202 -940 -957 0
-1858 -810 500 0
-606 1912 770 0
-106 809 1366 0
-176 -1862 -1907 0
-966 1008 1640 0
-1296 -319 -1388 0
1588 -1188 -534 0
1064 -1963 1956 0
1491 759 310 0
629 -180 1263 0
1245 1294 53 0
-443 1747 269 0
-1786 216 -1621 0
-430 1626 -132 0
898 -975 -1362 0
793 407 1680 0
-1420 1845 336 0
-497 1601 1954 0
-1318 -1395 391 0
761 806 1498 0
-1666 1308 1374 0
-1104 -1937 -1647 0
-805 30 -1266 0
581 979 1163 0
-1453 381 809 0
1144 1443 665 0
961 1749 73 0
1703 -41 918 0
472 -1056 711 0
738 970 1894 0
-343 -1535 1859 0
893 1959 -1081 0
-878 74 -407 0
148 942 -1582 0
605 -1036 -80 0
1656 570 1136 0
1159 -164 1610 0
834 1126 630 0
-1076 -823 1424 0
1392 492 -156 0
459 553 -1379 0
-360 -794 850 0
-518 -152 308 0
1650 1336 1664 0
-1373 -745 -1977 0
1755 -1374 244 0
-182 867 291 0
1304 -1202 556 0
937 -1430 1918 0
-678 1502 -1640 0
276 969 -385 0
666 -1098 -464 0
-1064 1111 -1718 0
861 128 -1645 0
-278 -1812 -184 0
-1786 -273 -846 0
1111 1307 -1396 0
-578 1544 1225 0
251 -1057 1967 0
-105 -1796 -329 0
-135 -471 -437 0
937 964 -1510 0
-633 -705 237 0
-1722 -862 1396 0
215 -270 531 0
798 -1523 -913 0
422 1461 1889 0
-1020 -1088 123 0
1984 -1613 -326 0
-927 -237 -1266 0
-398 1260 662 0
-1132 1852 -1333 0
-306 1578 10 0
726 -1767 847 0
47 -40 1963 0
912 902 1051 0
1507 -991 27 0
-1077 -665 -1873 0
434 612 -758 0
565 196 417 0
1740 -596 1864 0
-620 -1931 1232 0
1993 -573 181 0
-124 883 40 0
1278 -1028 -1893 0
715 -497 -273 0
1334 -1365 865 0
1353 1548 -729 0
1209 493 -396 0
342 -520 1279 0
1729 -1442 -1908 0
-607 -32 1374 0
-1538 -156 -632 0
-672 -682 -409 0
-327 1225 -454 0
-989 -1899 -1893 0
569 -112 1017 0
58 -917 -508 0
-601 924 -1747 0
-1118 1221 1157 0
-1171 -710 1391 0
651 -221 1955 0
1052 -1049 502 0
-413 439 574 0
-1704 1549 -303 0
737 1878 -1966 0
1376 -474 1799 0
1477 1834 541 0
567 408 1431 0
-1779 -111 -1836 0
-2000 1998 872 0
-261 1389 1803 0
-1338 781 1892 0
-1526 1681 1582 0
-518 1814 -164 0
-1826 -443 -797 0
3 -254 -1745 0
-258 238 1004 0
-1461 1896 1404 0
-718 -1948 733 0
-162 -320 -223 0
448 -1504 1570 0
508 -1571 -905 0
-939 1163 1718 0
1362 -1943 -1764 0
1442 1062 -943 0
553 -111 44 0
-1685 -552 -2000 0
1834 26 -1573 0
-1707 -952 -406 0
-958 847 1975 0
1164 1317 398 0
1989 1622 -1413 0
-1679 897 1540 0
-1519 81 -1575 0
1426 -1385 1985 0
-1789 1821 -1987 0
-1257 932 -382 0
594 -466 -948 0
-1245 -202 -1431 0
1726 945 -553 0
1262 419 -41 0
1369 572 1556 0
1752 -1496 624 0
1768 -1193 1946 0
970 -815 651 0
-410 -1153 318 0
1928 706 1540 0
947 48 396 0
1022 -183 -437 0
1846 926 491 0
-1158 1846 -1591 0
-84 -666 1868 0
1709 770 -1252 0
529 -1593 -1018 0
214 423 1458 0
825 -623 221 0
1948 -460 -230 0
793 -1918 -994 0
-1862 183 -1620 0
1882 -1542 -250 0
407 -186 -1962 0
1501 1183 1286 0
463 -608 -1580 0
-424 -1943 730 0
1386 -263 28 0
1901 307 -1928 0
1777 1472 508 0
1877 1145 -464 0
-1641 1834 -1556 0
459 549 -947 0
-1120 -689 1388 0
217 1465 1280 0
-552 -566 -281 0
85 -1356 948 0
-80 -1451 -1618 0
-1491 1800 541 0
-186 -1903 -866 0
827 -1025 -176 0
-1725 1692 398 0
207 -457 -1146 0
801 -1637 1424 0
1445 -1499 978 0
-1810 -1091 -61 0
220 -1524 -1030 0
-450 1131 1871 0
-847 1206 -84 0
1063 -347 1881 0
1819 -734 -1097 0
-1436 1832 -567 0
1095 1417 -1113 0
-598 1900 -641 0
726 1719 544 0
712 -1606 -1622 0
975 70 1532 0
366 -1666 1306 0
-1622 198 1124 0
-1259 1322 822 0
-102 -1982 869 0
1237 1331 92 0
1601 188 356 0
576 -1252 1578 0
-921 -1210 1339 0
-138 -698 -900 0
1379 -1911 -1276 0
1084 -545 1656 0
-1617 -1021 1082 0
-210 -1510 -286 0
-167 1801 1661 0
-440 1586 -1571 0
1054 1610 -1119 0
-477 1159 -1595 0
1285 212 -242 0
-850 -1223 -1498 0
1956 -1863 -363 0
1898 1578 -1242 0
1711 47 1443 0
1892 -1411 -981 0
-74 1165 -548 0
-93 1742 -816 0
-349 1344 -284 0
-655 1367 -6 0
354 318 -714 0
1399 659 -1037 0
393 -1495 1697 0
-700 -1379 -1643 0
-1600 -996 1991 0
-488 382 -209 0
-1028 -1019 1088 0
1331 793 933 0
1356 1933 207 0
596 279 -1249 0
-857 -1588 -589 0
736 1339 -1620 0
-1491 -1705 -1873 0
313 1966 -862 0
-717 841 12 0
983 1651 -34 0
-892 1385 1020 0
1117 -499 -484 0
1918 -1302 -1364 0
-903 -164 427 0
1544 888 10 0
142 -1724 1915 0
-555 -438 1462 0
767 1098 -1340 0
1861 -676 1294 0
-1475 -966 394 0
-173 1676 1106 0
614 1146 -1722 0
543 1067 295 0
837 -74 1777 0
-1082 -194 960 0
-381 393 -1237 0
464 -15 1105 0
-185 1385 1233 0
-1593 -682 749 0
-76 -1807 -1895 0
-1739 -1597 907 0
592 -711 -1567 0
675 -1244 -71 0
1529 872 -1312 0
1148 -1324 -1481 0
-614 1514 112 0
318 -1977 1398 0
1591 1330 1892 0
-529 236 263 0
-1798 1840 -628 0
189 -1146 313 0
989 -1405 -11 0
143 1759 -949 0
1265 -1175 -531 0
-1111 -1710 -1717 0
998 1623 -28 0
216 1322 1274 0
196 -1868 435 0
-1758 1155 -1699 0
-429 -1061 -1334 0
-980 1267 -429 0
-66 1462 -321 0
-1232 -635 -544 0
170 -136 588 0
789 857 1224 0
319 -410 577 0
112 773 -1158 0
-811 695 -481 0
-1962 -1363 374 0
-527 -858 -297 0
-1203 1939 -865 0
1239 1018 -1555 0
17 274 1070 0
1658 -1968 -1604 0
-1344 183 794 0
-834 1437 809 0
859 1719 210 0
-449 -1812 281 0
1521 539 -546 0
1934 1128 -615 0
-1567 -700 733 0
1102 1524 -1653 0
-1427 -713 1030 0
-1077 -603 -878 0
259 372 1984 0
-334 -1895 292 0
-940 1720 154 0
-1024 1412 -534 0
1407 1843 -743 0
171 -1166 678 0
-1561 -1284 -381 0
-189 1879 -753 0
-428 -947 -1920 0
5 232 1650 0
479 -1688 -896 0
1113 -144 1571 0
875 -1661 800 0
1035 868 -380 0
1092 537 -1898 0
1422 1651 1539 0
1855 -1322 406 0
1339 -1337 1079 0
1910 1318 1511 0
430 1782 -705 0
922 -1842 -238 0
1765 59 653 0
1718 -245 -50 0
-1640 -1732 -1922 0
1049 1789 -1055 0
1156 803 1973 0
-6 -1549 753 0
-889 -1023 -814 0
-481 1901 -725 0
-1169 535 1695 0
-555 1078 -574 0
-251 599 -1772 0
-1381 -1464 -416 0
-591 544 -810 0
-159 1441 1826 0
1733 640 -369 0
331 -1710 195 0
-1621 -1749 -617 0
387 -787 1049 0
343 1488 1657 0
-198 901 -1239 0
-487 1370 951 0
-1679 -85 -546 0
-301 1429 265 0
-125 -402 1507 0
-293 -1687 1887 0
-1581 -682 1632 0
643 -420 -1718 0
1699 1267 336 0
-1682 -1024 719 0
1290 1605 -1741 0
-648 -1111 960 0
1642 -452 1846 0
-1128 1132 1325 0
-783 1980 -724 0
-324 -52 559 0
1148 798 312 0
-1013 1704 149 0
-364 -502 -1911 0
-1065 1996 1460 0
-1209 -776 1099 0
1972 422 -484 0
1691 1192 -867 0
-1780 -1293 1327 0
-1648 740 550 0
-590 935 123 0
1964 1823 1678 0
536 -640 -1570 0
-1751 -74 388 0
-969 -418 -1338 0
347 -312 -1694 0
1461 1786 1629 0
1002 158 460 0
1033 -809 1781 0
-1407 -1340 -139 0
-764 -1090 -1153 0
813 -828 630 0
-1986 -1220 1578 0
-95 -1946 177 0
1826 -856 1676 0
-1169 1822 -331 0
-1265 -1442 -763 0
-981 1982 -155 0
511 -157 1050 0
701 -784 915 0
-175 -1118 563 0
1710 -467 -1721 0
635 -1531 -1196 0
-369 1331 1892 0
1558 80 50 0
1770 -786 1062 0
684 -1114 355 0
-1674 -263 734 0
1939 459 1107 0
-1020 -1532 1457 0
-569 -642 1039 0
-1765 91 252 0
-743 -209 635 0
-1179 -1167 72 0
1035 -1889 611 0
-102 -1674 -1653 0
-1517 -524 1797 0
-974 -148 390 0
-895 1897 862 0
-199 -1804 -1396 0
-1464 168 561 0
-733 -1141 296 0
-29 -872 -226 0
1415 -1272 1803 0
964 -1643 123 0
-1988 558 -966 0
445 1647 494 0
-255 -1436 885 0
-53 -22 -335 0
-559 -1636 961 0
-1471 650 592 0
1798 -470 -1935 0
-1039 -1667 -46 0
207 1224 -1893 0
-43 1760 921 0
-865 1508 -922 0
-31 1232 -1036 0
701 -1444 -1682 0
1877 -1789 148 0
1345 1132 637 0
-1810 853 -249 0
538 1286 -1139 0
248 -979 123 0
1794 388 504 0
-901 923 1045 0
455 -1213 -1668 0
-569 1532 1269 0
-1059 -549 942 0
-1680 1846 -1080 0
899 619 -1819 0
679 1506 -312 0
827 1977 1605 0
485 511 -1311 0
-397 -1733 636 0
1453 504 1122 0
-1354 1887 784 0
423 -1974 -1583 0
430 877 -1009 0
-1766 -320 -19 0
1660 629 1067 0
1963 -1049 128 0
-1560 -1746 809 0
622 -1465 -159 0
1008 -717 -1432 0
1716 -1077 -295 0
-498 1590 -1012 0
154 -1996 -542 0
907 -195 -669 0
-248 -92 1893 0
-255 1736 -488 0
1776 -431 -935 0
1021 1759 -1724 0
-652 -1325 1027 0
-672 1292 1142 0
446 268 -1168 0
-1806 -1916 -1549 0
-861 -939 -60 0
842 -553 -1329 0
232 1007 -1284 0
1112 988 -856 0
1802 1441 1626 0
-1214 -259 1996 0
381 -166 -1094 0
1119 -1061 1046 0
-466 45 856 0
1880 -23 -1987 0
-205 760 -351 0
1733 1475 621 0
1055 934 -1112 0
-772 1599 218 0
39 -727 -1904 0
414 1912 643 0
-1768 -1443 -257 0
-976 145 1519 0
546 -1 1895 0
1294 555 1697 0
898 -1416 788 0
1811 595 -439 0
590 -967 -1830 0
628 -1423 737 0
-74 -136 1419 0
-1337 -1724 1211 0
-1249 -1237 1605 0
188 105 -1280 0
-106 -255 1813 0
1598 876 -1780 0
1291 196 -164 0
142 1616 -711 0
980 -1558 -1881 0
1412 -1127 -1441 0
-406 379 -1405 0
1603 -596 -347 0
1682 -1989 -1320 0
1832 1156 1172 0
-609 1704 422 0
-1510 1326 -1187 0
992 896 -1005 0
1281 498 -1743 0
-1908 -682 1608 0
510 -1206 872 0
1588 -1612 -882 0
-1409 -1354 1916 0
-134 -1842 82 0
-1284 290 48 0
894 1409 1241 0
570 -1256 467 0
470 119 492 0
1010 1468 1764 0
-763 1164 1876 0
-1254 1904 -734 0
-689 472 -125 0
599 -176 -1757 0
-1496 1468 1719 0
-411 -1452 1101 0
-1146 1228 1218 0
-1669 -1257 -1235 0
678 -1162 1017 0
13 1698 -388 0
1172 1611 -1750 0
815 1051 -1141 0
718 1284 510 0
-1479 -1300 -690 0
915 1031 -1779 0
1980 50 1987 0
817 -1486 -923 0
1808 164 -136 0
324 150 1734 0
-135 -790 701 0
1274 1160 1896 0
1587 390 602 0
1650 1761 -147 0
-1727 618 -1686 0
1305 604 1469 0
890 691 833 0
534 -1248 1914 0
-1403 -1592 1841 0
-506 1342 1021 0
-41 -487 785 0
1406 -1517 1627 0
1493 1620 -1181 0
-1420 -1461 -1319 0
1379 -1121 -540 0
747 -1789 1205 0
-204 -403 -1079 0
-825 533 1895 0
-1992 1403 -1522 0
-579 -105 210 0
-1297 -1742 1188 0
-624 -1206 1297 0
308 -1472 -1052 0
1935 -1189 -1534 0
-1102 -1685 -563 0
936 -432 1826 0
-269 -553 1901 0
1284 1525 665 0
1573 519 -937 0
174 935 1787 0
1792 -796 1445 0
-1869 1773 -890 0
599 -1941 693 0
1816 -289 1262 0
-318 -1805 -868 0
-1785 735 271 0
-758 -1459 284 0
-1974 -1218 966 0
1363 -1152 -1596 0
1275 -1556 -52 0
137 -1496 609 0
1139 677 1742 0
-1606 -1282 488 0
1829 1600 -1323 0
-1599 -1170 1939 0
-1363 244 413 0
290 1009 -1982 0
990 -1527 -234 0
236 1983 88 0
698 -1479 -266 0
-1941 -1430 1832 0
1878 954 1604 0
1748 1367 -372 0
805 1843 -1580 0
1974 876 -1670 0
1953 -881 -1978 0
-1915 1905 -680 0
770 -1160 741 0
-1174 175 -297 0
-150 933 -1289 0
-1943 997 -1506 0
-661 -807 667 0
-50 1175 1324 0
-16 1405 -1825 0
15 41 944 0
-944 -510 1907 0
1209 701 -384 0
-18 -1651 1142 0
-1504 -1603 8 0
-294 -1884 299 0
1472 1234 200 0
-1949 23 304 0
1306 -862 1031 0
376 -933 -978 0
-1300 369 1195 0
1395 -1867 1193 0
816 -746 790 0
536 667 -181 0
-97 -952 -1739 0
1133 -1610 -383 0
-1977 100 1321 0
1622 -645 -1583 0
-966 -313 -1483 0
1636 -32 -1074 0
1799 -1133 -1779 0
1687 -990 747 0
-1613 575 1828 0
-1881 -1128 1922 0
-824 -668 -856 0
37 -1696 -1609 0
-1818 145 -961 0
-1164 -869 -1485 0
1034 334 682 0
-83 -371 1894 0
1142 -579 -1059 0
-320 -259 650 0
661 1096 940 0
-1108 1535 -1848 0
1691 151 -751 0
-1950 -803 -1148 0
1679 1340 -295 0
1527 -1652 786 0
1031 -1831 1507 0
581 1239 531 0
-1965 -115 1439 0
-1387 -919 1527 0
177 -1219 -1864 0
-393 -1756 -1162 0
634 132 -1203 0
-1904 818 -1170 0
228 1386 180 0
-1555 1077 1338 0
-1561 1227 -845 0
-211 140 1417 0
812 -900 -802 0
-214 -466 -737 0
-763 547 -632 0
873 -1444 417 0
-100 401 -305 0
-692 421 1736 0
1175 787 855 0
-651 144 -639 0
-51 -1564 -1563 0
-331 808 617 0
1282 267 -416 0
278 -1094 -14 0
-1668 -1662 1119 0
-1314 1657 -473 0
1820 -1819 -302 0
95 674 121 0
-1796 772 -1586 0
595 362 -780 0
-47 -583 -1294 0
-1910 -370 1702 0
-1206 829 282 0
1394 -1472 -586 0
907 -1794 -1594 0
1609 -1580 -1095 0
614 94 411 0
-45 791 -388 0
-1755 1928 -1410 0
-150 324 -1847 0
-558 105 -429 0
830 1422 -275 0
854 279 13 0
-1054 1365 692 0
309 -385 79 0
144 1682 1812 0
-1540 169 240 0
-968 1361 371 0
-1059 580 -899 0
-1457 -1319 -979 0
613 -176 -468 0
1531 472 767 0
1434 1222 1671 0
-1232 1948 930 0
-1646 -1540 -739 0
1063 -1417 825 0
-147 819 637 0
-773 -682 -1510 0
1518 527 1024 0
1870 1592 55 0
1655 770 -1252 0
180 -1884 1024 0
1342 336 -1461 0
-1752 1050 -648 0
-1191 167 1011 0
-448 546 208 0
580 479 1862 0
-1935 1449 863 0
-1526 -1606 -1430 0
1275 -839 -1830 0
-344 1735 -1035 0
-1412 707 1999 0
-667 778 -1640 0
809 15 1557 0
-638 -453 402 0
1809 1213 335 0
821 -1489 -1507 0
-1190 -1786 -1311 0
-1300 -1484 326 0
1983 595 472 0
756 146 -1147 0
-1282 263 1736 0
1789 1722 1535 0
1109 -1288 -1200 0
931 -1711 453 0
-21 -846 -267 0
131 240 -1004 0
1000 522 -136 0
309 1889 1421 0
708 -868 -989 0
893 1987 1775 0
-1695 929 -1022 0
270 719 -412 0
400 1754 -792 0
334 1442 1821 0
-153 453 1592 0
63 -1606 -1967 0
-1135 -4 -118 0
-423 309 793 0
1050 187 -1027 0
981 -387 -611 0
1879 -1935 -1934 0
-828 47 -1866 0
64 -1440 -700 0
124 1024 1445 0
-515 -393 1436 0
1060 -578 -538 0
-230 -583 -1271 0
904 -1443 573 0
-1366 1334 1576 0
432 -350 890 0
824 -1434 -910 0
987 -1166 -1838 0
-1550 358 -333 0
24 -1887 445 0
-108 -1996 559 0
-258 -1506 -369 0
99 1572 -1805 0
-1141 -1608 -1062 0
1742 1437 356 0
944 1741 1541 0
-1882 -1260 1849 0
-1914 -1726 -1483 0
-970 -273 1818 0
-1777 -706 592 0
-1890 -1063 -121 0
-67 -862 1769 0
802 -407 17 0
574 -132 22 0
-700 1559 1601 0
1331 1799 -1355 0
-1993 -1349 -992 0
1744 -1636 1867 0
-938 -1883 -419 0
231 629 -1027 0
-1997 -488 -661 0
170 -720 -853 0
-951 -1262 -1555 0
95 1522 -1148 0
-721 1129 72 0
602 1123 -1220 0
1961 415 1124 0
1996 1869 -1117 0
-628 396 1510 0
460 -1927 -1020 0
-1802 -1737 1418 0
564 292 129 0
952 -1888 1999 0
-1289 315 -1860 0
-1397 -1502 -383 0
384 -141 27 0
1550 1236 1202 0
1677 1801 -1122 0
486 1515 -854 0
-1892 -1581 1032 0
-1041 -1522 -1016 0
-24 -819 985 0
501 1507 1882 0
364 -886 -369 0
1184 1466 842 0
-492 -1577 -962 0
-1626 -1498 -714 0
1611 566 1873 0
-552 1027 1246 0
-441 -109 696 0
-153 -1008 631 0
1378 -20 -875 0
-698 -1814 -1424 0
1754 -1559 -1632 0
984 4 -1505 0
687 463 -91 0
-1118 -1346 -242 0
13 1279 -164 0
-911 -942 -850 0
-403 -1114 -237 0
1980 241 -1544 0
-1938 -17 409 0
1088 -1990 -1509 0
176 1829 -105 0
-1243 220 -1828 0
1144 71 -702 0
-236 1556 962 0
-435 -1023 373 0
29 407 -1296 0
1000 -1 -737 0
-1719 -1656 378 0
-1203 -1849 -1474 0
-685 891 -1706 0
-1077 1098 125 0
-1120 1056 532 0
-522 217 -976 0
960 1910 -1600 0
632 1738 702 0
-1624 1847 -1357 0
1774 1467 -1040 0
1776 -378 751 0
304 -753 -438 0
619 -1265 81 0
-113 1368 1335 0
-257 1265 543 0
767 1470 -1631 0
-1848 -1616 1454 0
-1524 250 1447 0
1031 463 -1452 0
-1617 -1096 -1267 0
305 -1464 711 0
52 -1676 -1767 0
-1594 -1471 590 0
767 -1431 1263 0
1234 1274 1436 0
1785 1089 1998 0
-347 987 1259 0
-1276 927 115 0
-257 398 940 0
1640 1491 -477 0
330 770 84 0
-1975 1834 1868 0
-540 942 -1922 0
-1371 1938 -514 0
1112 1076 -41 0
140 -1779 59 0
1174 1890 1804 0
-848 -1852 615 0
-789 -768 -1878 0
-1271 -1451 359 0
608 564 1412 0
-429 -1727 1028 0
73 -334 -1416 0
-812 -623 -332 0
-570 -1059 1468 0
-1817 -886 686 0
-1320 -1322 -1016 0
438 273 -1914 0
2 -1165 -197 0
1043 -510 -306 0
-1787 473 734 0
-1759 202 696 0
-1845 -341 1699 0
1941 1448 677 0
-1762 756 -1699 0
1533 -541 -867 0
561 -767 -868 0
-1011 981 1184 0
-715 477 1553 0
1544 -1562 -389 0
558 86 -305 0
-1511 487 1453 0
1235 -22 308 0
769 -572 -18 0
-1161 -913 1909 0
1908 -10 -75 0
970 -1118 527 0
-1714 1783 672 0
-1822 1660 -1719 0
-1599 -1302 -1762 0
-620 1519 -889 0
1541 821 -1878 0
1202 1571 957 0
-1662 -658 -1544 0
392 1326 1166 0
-871 285 239 0
1658 -915 457 0
648 -765 -1997 0
63 1220 1893 0
-849 -145 -474 0
1459 1954 -362 0
-951 1680 -267 0
477 -566 -393 0
191 -849 -1217 0
-297 -1547 -1887 0
-1666 -464 959 0
-193 -84 448 0
-1602 1137 437 0
1168 -487 -1017 0
729 1056 787 0
759 1923 1229 0
-1980 1020 -1957 0
-1275 -301 478 0
-570 970 1248 0
-624 -789 1000 0
-1935 -1030 992 0
-1293 -931 -808 0
-812 1419 -39 0
-1983 -25 336 0
-323 -974 -280 0
-1485 1826 474 0
-663 327 -88 0
1526 754 -785 0
-1579 1056 1708 0
788 -543 -440 0
-1174 1325 -1779 0
896 139 -1561 0
1976 887 996 0
-1393 -103 1078 0
1759 -1045 1963 0
-1040 411 758 0
-1494 251 1658 0
-1875 -1030 299 0
473 1169 -1534 0
-1812 -954 946 0
-1825 1973 51 0
-1186 1930 -636 0
-641 -356 1568 0
-1596 1626 247 0
1867 -715 494 0
-514 267 106 0
-483 -1416 -591 0
-353 -636 137 0
1902 -31 -1741 0
-945 884 -126 0
1978 561 -1041 0
-1121 415 -1081 0
-1689 -600 -1778 0
1423 -470 -999 0
-249 -881 488 0
1616 787 -1570 0
-1903 -532 -1589 0
567 -1365 -843 0
-299 -845 1666 0
1090 -283 -145 0
263 144 1369 0
1668 -60 111 0
1739 29 -1095 0
-763 904 -1716 0
223 -1843 614 0
-934 1370 1128 0
-1885 28 1694 0
1635 -791 -324 0
-982 -1729 -1089 0
1762 -1988 -410 0
-47 -1722 1528 0
-1052 -1004 -528 0
-1900 1772 138 0
-1246 -1676 -872 0
-761 269 1190 0
1706 1940 1501 0
1790 -161 458 0
-1128 -1979 1692 0
1521 608 74 0
1247 -389 -1090 0
-448 832 -743 0
381 -1396 -1569 0
-1950 643 1097 0
119 1770 236 0
495 281 1340 0
30 -1438 1825 0
-1151 -1222 -1742 0
-93 -159 1353 0
477 -794 -1450 0
1389 1620 -865 0
-106 -802 -510 0
1358 1650 -1340 0
-34 -1319 -629 0
1726 302 -154 0
-356 -1726 250 0
1123 277 1277 0
-1055 1412 -5 0
60 -1431 699 0
514 458 131 0
-1937 -979 1185 0
1509 1847 -866 0
-666 1064 1676 0
130 -546 854 0
-1751 1199 -540 0
692 1759 1521 0
2000 767 1973 0
-182 -1776 19 0
-24 -126 871 0
1868 693 391 0
-138 684 -1382 0
1686 784 1584 0
-5 -1118 -261 0
-845 -813 -1105 0
1522 1536 209 0
1723 -1098 -1081 0
-8 115 -1070 0
-1667 -1792 1026 0
1840 -720 447 0
-1662 177 668 0
1417 -1381 813 0
-424 -1964 -310 0
1059 1741 -60 0
-1300 849 -227 0
1636 -232 487 0
-1814 708 -438 0
233 -140 -999 0
-1642 231 1459 0
-962 -955 141 0
-832 574 -1134 0
1424 -1688 -334 0
-744 1996 183 0
1758 957 1285 0
237 891 1312 0
582 -1808 -1600 0
-156 -70 -1579 0
-1835 -430 1595 0
-1602 -1543 1785 0
-998 1666 420 0
-1349 -836 -98 0
-1529 -673 969 0
-862 -625 1492 0
1958 -152 912 0
-529 -1634 1359 0
-952 -1493 1232 0
-109 826 -1112 0
523 115 -1549 0
60 -1460 -140 0
-694 1717 -1881 0
1894 27 -1814 0
1917 583 -579 0
-1144 -1432 701 0
1392 1374 -1429 0
764 -1350 1641 0
1601 -1113 -478 0
-968 1179 710 0
-1982 1181 -9 0
-50 -1516 -1508 0
-784 788 -1155 0
693 -428 -1556 0
-273 -1683 1908 0
-1409 1272 573 0
-1737 234 46 0
-1870 -1619 -1466 0
1639 -1230 1965 0
-1121 1576 1613 0
697 1943 1278 0
237 -760 1116 0
1717 -90 458 0
1261 -91 1389 0
-870 -1398 59 0
1759 125 1405 0
216 1543 1226 0
295 808 -1880 0
-874 -315 1317 0
-792 589 -979 0
529 154 1053 0
1983 1366 -118 0
1799 1038 -724 0
819 -1848 1328 0
-543 -1898 1398 0
1654 1616 764 0
-40 1844 490 0
951 248 1412 0
-166 -1783 -1465 0
314 13 -511 0
1362 -1330 164 0
-289 1358 -1682 0
854 -67 1477 0
-502 570 -841 0
1168 -705 -994 0
-1606 -172 -1832 0
627 1996 1886 0
-1099 1996 -1852 0
-1694 -299 -744 0
-1174 -57 1683 0
37 -1060 -753 0
1760 791 -1644 0
689 -94 -194 0
-1091 1534 257 0
1117 -1690 -1436 0
-1594 439 -853 0
-1594 -1484 998 0
867 1372 1209 0
-782 -269 1966 0
-1505 1502 1486 0
1417 -571 -1785 0
-149 1385 -157 0
789 -127 -99 0
-83 -719 -853 0
-1259 -1735 -923 0
1892 861 1552 0
1889 -1926 686 0
-283 697 1666 0
-356 -1654 -955 0
1922 1273 -1147 0
1716 709 -712 0
1947 -1878 -1287 0
1540 -1081 405 0
1056 -371 -135 0
630 1747 1305 0
1992 -1579 -1087 0
1918 1919 -707 0
1568 1545 224 0
474 251 -1501 0
729 -625 816 0
-1536 1919 643 0
-1346 -1806 -999 0
-1087 -583 -1079 0
-1366 -876 573 0
1165 -386 -425 0
1266 1348 -1476 0
-1089 -1123 -161 0
-685 -1516 -740 0
-342 447 1453 0
1367 -413 -399 0
1008 -185 -115 0
1024 319 -1721 0
1423 1159 1065 0
1270 -471 622 0
432 1586 737 0
-346 1768 -1373 0
-587 771 -182 0
360 321 1380 0
1306 -16 -412 0
-1139 347 141 0
-1895 715 474 0
-23 1400 -1605 0
-1636 9 92 0
747 1492 876 0
-342 407 1020 0
127 -1769 -866 0
271 1049 1060 0
-866 -619 1588 0
-592 -1971 1310 0
240 1052 -221 0
1572 -1926 802 0
1629 1142 -1664 0
-993 1035 -456 0
-437 -855 1746 0
1944 1007 220 0
-67 -1244 -238 0
767 -1587 -110 0
-1925 -896 1015 0
-851 1916 -1974 0
975 974 -1250 0
-45 294 1148 0
-397 -695 1555 0
-429 -1040 -1694 0
-754 -538 1189 0
-1447 1305 -1902 0
1281 1848 -79 0
-1512 -562 843 0
-1816 -375 275 0
668 -460 750 0
-1759 1313 -1167 0
566 -656 1285 0
-734 -171 502 0
-523 1395 446 0
-327 1713 -1820 0
-1811 -1730 1013 0
-1971 312 1433 0
1696 414 788 0
-1706 -769 -1525 0
-314 -709 -1709 0
1006 -1823 628 0
-1783 -1567 1614 0
-42 899 -950 0
-1833 1175 -1408 0
-1177 1572 -1635 0
1450 881 -838 0
1675 1409 564 0
1921 486 -868 0
1047 -232 1468 0
1248 -1629 855 0
-97 -1058 -976 0
251 -387 1946 0
1432 -769 -1552 0
-77 305 1435 0
-1931 -157 -807 0
-2000 553 18 0
539 687 -1491 0
971 -1613 1672 0
-204 1680 -394 0
-622 1995 1884 0
-1677 -1962 -987 0
874 1805 694 0
1040 1752 -1808 0
-1573 -1385 -433 0
445 -521 804 0
-139 -1707 166 0
82 225 1798 0
1679 654 -161 0
-159 1275 -740 0
-873 856 -226 0
1208 -655 -1812 0
-1801 69 -1017 0
635 1321 -1791 0
-572 -1883 -170 0
-1480 663 -1555 0
224 -334 1820 0
198 -1922 586 0
1329 1816 -1714 0
-1037 -755 -1127 0
1 -1711 545 0
1178 92 -1471 0
1640 384 66 0
-1584 -548 -1315 0
375 -630 1149 0
1918 -299 -724 0
-314 1381 -1819 0
-340 -1579 -1375 0
-560 203 1639 0
-522 -1755 1323 0
-413 -172 1153 0
-1056 -342 -174 0
1293 1024 288 0
723 1337 1948 0
-151 -1343 -460 0
240 -768 520 0
1404 -972 453 0
821 1290 770 0
-146 -232 -899 0
292 -711 -694 0
257 -201 947 0
-494 -383 -1394 0
-296 -348 433 0
-1284 -1725 1203 0
-1429 947 1629 0
1213 1030 801 0
1755 -1362 244 0
-497 1554 1972 0
525 -1887 1706 0
405 -1036 1878 0
-867 -872 1756 0
1590 -830 692 0
1667 70 -1207 0
996 1008 1893 0
689 1942 -945 0
1383 472 -1211 0
1690 728 558 0
156 -273 -391 0
-1418 1181 -557 0
-617 -1570 -1277 0
-630 999 410 0
531 -1418 673 0
1443 -1405 372 0
1082 -1897 -1604 0
1047 1730 -425 0
1020 85 -1395 0
-1053 1490 437 0
43 1322 1739 0
-1199 419 1477 0
-1203 1079 279 0
-921 -364 189 0
2 -1255 -1522 0
849 1071 -542 0
-1458 1936 70 0
-1357 -386 6 0
-756 -1341 106 0
1884 -602 -104 0
1627 -1279 -1062 0
-696 931 860 0
-1319 615 1417 0
1239 -565 930 0
896 1429 1632 0
1891 620 1644 0
1392 1948 -1607 0
1893 894 542 0
1315 -674 705 0
-1823 1879 -1919 0
975 1326 734 0
-250 -999 586 0
-465 -828 -520 0
675 -1302 114 0
-25 1953 -10 0
232 -79 184 0
275 382 -1309 0
1464 1354 1908 0
-1709 1197 -1666 0
770 1166 -135 0
1426 -1484 731 0
-901 -1770 1088 0
787 -898 -800 0
1475 456 1109 0
-360 1963 1554 0
40 -1301 -1725 0
-129 1266 -1239 0
-802 202 299 0
-1946 -191 -131 0
-1785 1795 186 0
-1876 -13 -519 0
1361 -1622 125 0
-1614 1666 -459 0
-1132 -520 1222 0
1844 102 -460 0
-958 561 -1172 0
557 1044 -1762 0
-788 1573 855 0
-1946 830 -1919 0
583 -1547 -552 0
1420 -1724 -643 0
1043 1127 254 0
-1909 -1700 -1534 0
-1178 -423 1131 0
-1388 667 664 0
1444 -1378 -1689 0
590 4 -1784 0
-1471 1244 -1584 0
-1372 612 -1274 0
584 582 845 0
-1089 18 -339 0
1903 -540 -1302 0
-666 1749 1231 0
-1027 -360 -758 0
-488 911 90 0
1704 965 -481 0
-1112 -1440 1887 0
327 439 -592 0
798 -515 133 0
-200 -1665 1733 0
-1059 1557 -710 0
-176 1461 506 0
1579 -884 199 0
111 -1770 -984 0
-1200 1770 351 0
1189 -593 -197 0
-470 1919 569 0
849 -915 980 0
-1049 -910 -590 0
-1624 -59 1892 0
-683 1625 -1956 0
779 1340 1966 0
1003 -1367 508 0
-486 1736 -1328 0
1491 1802 -1438 0
-166 505 630 0
-1827 1745 204 0
-20 -1 -189 0
1288 -1497 -357 0
1689 826 240 0
422 -883 -1680 0
-739 35 -757 0
-417 -1000 -185 0
-1915 -601 -1241 0
1409 -16 1429 0
-1759 -272 1031 0
1635 -6 501 0
1245 1015 -589 0
740 -465 -1256 0
1589 -648 1208 0
-213 -61 586 0
478 -1503 1725 0
904 1922 739 0
-20 -1443 -1883 0
468 251 1189 0
1891 -352 -1272 0
1602 -675 1927 0
891 1497 -1097 0
-1830 1346 1404 0
-1497 -1061 589 0
687 1815 320 0
1854 14 -572 0
1013 1332 -1335 0
-1375 1741 -672 0
-484 -1902 -624 0
1025 -1059 1990 0
-745 -737 -1056 0
-271 -1602 1194 0
1852 -253 485 0
1781 -897 1144 0
1427 1259 686 0
-1626 1386 1241 0
-369 -1716 -927 0
1064 -1895 940 0
1210 1745 -1473 0
822 -1133 -1913 0
730 -921 1392 0
-1668 706 1435 0
-1011 634 -975 0
-1529 1312 1975 0
-1998 -1918 -1467 0
1902 -531 1955 0
1995 1933 664 0
-421 473 947 0
-1555 -1198 75 0
-1944 -1784 551 0
-1840 -1412 -1202 0
1016 -1030 226 0
149 -413 1718 0
1323 961 4 0
-813 -1382 544 0
878 684 1843 0
-1095 -1876 1463 0
457 -680 303 0
717 -338 595 0
-1960 993 1159 0
-1438 -1349 -367 0
745 990 -179 0
1290 408 -554 0
22 -1740 -555 0
588 -1935 -1417 0
-1202 -1374 -1671 0
-1790 501 -1367 0
-1606 1769 -141 0
-119 1178 -1731 0
-1968 802 -1477 0
-1259 -1537 -130 0
1398 830 711 0
-1190 1688 -1189 0
-975 -416 -1759 0
-1720 1595 -1588 0
-208 800 1149 0
-79 -1360 1079 0
104 373 1073 0
1653 -463 -1214 0
-657 1626 1833 0
1268 915 800 0
1878 43 -1432 0
-796 945 1764 0
1269 -1418 -1199 0
-614 1620 -1543 0
1216 734 -246 0
-57 -721 -315 0
1865 1743 -1568 0
-1350 1004 204 0
333 1062 1017 0
-1033 1381 1418 0
-1131 873 977 0
860 1958 -1261 0
-584 -213 1696 0
1046 410 1380 0
-1188 -1105 1790 0
178 -1169 385 0
-791 1620 939 0
113 1922 -482 0
-1348 -1121 1950 0
1498 310 1244 0
563 -1292 -1199 0
-1856 -1531 1337 0
-445 -1890 -1493 0
1988 -654 1668 0
-1964 1167 1171 0
-1136 -493 -562 0
-59 -464 -1940 0
-457 1000 995 0
104 1615 64 0
-1858 -806 832 0
-744 69 1038 0
1327 1159 1505 0
337 -654 -252 0
-383 1645 -996 0
1572 -356 -214 0
155 -1062 -292 0
-1090 1024 688 0
-1989 164 -798 0
-1246 1186 785 0
1966 -189 451 0
130 -1998 808 0
739 1201 1381 0
-1803 -658 -1118 0
95 1786 -1547 0
1746 -890 -861 0
-30 1951 1315 0
1009 840 838 0
-1837 -348 -778 0
-1116 -1294 -1043 0
707 -1970 -1567 0
233 713 -1129 0
1896 129 583 0
1485 -1627 -1069 0
-280 -1059 1182 0
106 -388 -315 0
-1062 -112 -858 0
-1276 -826 -1312 0
-1727 -1185 694 0
1529 280 1027 0
464 1032 -1225 0
135 137 -1207 0
-1491 -1339 -21 0
-966 -421 192 0
-646 1526 1074 0
1731 -478 1417 0
1227 423 630 0
-633 -26 -761 0
-1777 -1341 1802 0
1660 -497 -1542 0
-957 1566 -1007 0
-972 629 171 0
1338 -1552 -769 0
-1220 -143 490 0
-897 962 -148 0
-547 -97 385 0
-1801 -1617 -846 0
-1227 -610 1278 0
1164 1082 1285 0
-1632 824 -1387 0
1399 -658 -244 0
400 1672 -1894 0
1612 -909 -1743 0
-1583 -756 806 0
1153 533 1613 0
1373 -1729 482 0
910 1828 1485 0
-1670 201 1592 0
1786 485 -914 0
391 1869 -544 0
1460 -198 1110 0
513 264 1007 0
1189 -1587 -1429 0
344 -1399 1872 0
1800 127 809 0
-1976 -181 325 0
1765 134 -1928 0
940 -1778 564 0
448 60 -411 0
-1923 933 640 0
-120 -1743 1659 0
1958 1495 974 0
1136 1237 -985 0
-246 -827 1112 0
-1862 -403 -453 0
-1627 -1151 -1894 0
638 1411 -1731 0
-1822 114 -1176 0
1601 -808 484 0
1958 -268 1504 0
-440 -1901 -1976 0
-1477 621 2000 0
1304 515 348 0
1866 165 -1347 0
940 -361 913 0
-1540 -1722 1493 0
1705 -1880 626 0
1912 -197 -63 0
1315 -1496 -70 0
-1195 -962 1268 0
506 246 -778 0
-47 480 -1075 0
395 1894 533 0
1724 -1242 1919 0
105 -666 488 0
-1018 1001 1541 0
-912 131 827 0
110 -481 1451 0
-1707 -1656 5 0
-1063 162 -756 0
44 271 667 0
-585 -1361 999 0
-1465 1735 487 0
1662 1454 -640 0
185 1961 -1570 0
-1450 217 246 0
-1049 1915 951 0
1768 -952 1027 0
1796 -198 -999 0
-1403 -1672 1602 0
1476 -832 -1124 0
431 -1312 639 0
1625 994 -1998 0
-1272 -1288 311 0
442 1166 785 0
1927 -1001 -710 0
1856 -1432 1299 0
1918 -257 298 0
-743 237 1614 0
1497 -286 512 0
1391 404 -208 0
-764 -1599 1874 0
-1248 -769 -1292 0
-1128 -1045 -1054 0
-1614 796 922 0
-1053 -53 -197 0
-1143 -16 323 0
-1600 608 -466 0
528 1041 -1798 0
-241 1060 1768 0
-979 1941 980 0
1933 -1211 -1272 0
-53 703 -284 0
-1766 -588 1887 0
-444 -1325 961 0
396 -1345 307 0
1293 -685 -81 0
1562 445 1948 0
-1326 -572 413 0
433 1634 -34 0
-511 756 -220 0
1987 -1286 1785 0
1033 -208 875 0
1253 -1910 -1529 0
316 1660 951 0
1241 1257 -1757 0
-965 750 20 0
1183 -1878 -1511 0
1711 1617 -1368 0
-1278 1982 -1635 0
1410 286 -295 0
-1780 -1913 -80 0
-1264 1673 -818 0
-293 -17 1587 0
1291 -1347 181 0
1947 -932 -1846 0
748 -1694 -386 0
-1352 -809 -472 0
-593 18 -1577 0
-215 145 954 0
689 -1383 1608 0
-621 495 -921 0
573 1316 1853 0
-274 794 996 0
1038 1058 31 0
467 -1005 -764 0
-356 -1922 1634 0
-1148 -730 1342 0
-675 -1979 -976 0
989 -1805 790 0
73 209 -430 0
-1375 1212 548 0
841 1825 50 0
125 -1128 1844 0
-1408 1031 -1081 0
1186 -1131 230 0
-819 -1995 1838 0
-665 788 -76 0
-384 1766 1757 0
1139 851 -1674 0
157 -1507 -1417 0
204 182 570 0
-1861 -717 -258 0
-275 622 -1087 0
1315 1528 -1368 0
1289 1900 -1440 0
887 -1443 1363 0
1780 -1466 -910 0
1920 -1935 -1759 0
1608 1117 -1877 0
-951 1338 404 0
984 1679 -116 0
-1639 421 1986 0
1774 1233 1723 0
-415 353 -1133 0
-1613 1883 1067 0
941 476 244 0
1780 357 1486 0
850 -1244 -789 0
1346 1555 1273 0
571 -1279 1172 0
222 1659 -162 0
-912 -659 1284 0
519 1511 273 0
-635 1988 -648 0
199 -1198 1962 0
605 1808 1540 0
976 306 -1936 0
-1728 1835 -635 0
1271 1467 -1461 0
1111 -472 -1784 0
-1592 -1060 -1955 0
511 969 -1916 0
-883 -1973 -1021 0
-1765 1228 745 0
673 -1968 -198 0
-658 -1819 -244 0
-1982 -858 1747 0
-1831 -344 -1958 0
-1636 -1769 -1196 0
-1913 -1497 -249 0
832 687 -523 0
-631 -523 -194 0
-1673 1995 -905 0
1128 226 1031 0
-1877 -964 -188 0
1893 461 -631 0
-819 1070 1012 0
-737 -1282 1232 0
279 -1397 -865 0
1818 -1700 1998 0
504 1240 405 0
-838 155 -1461 0
1075 1971 1050 0
-1329 1612 735 0
-964 -1442 144 0
-1833 412 -980 0
740 653 833 0
1191 -1930 -1548 0
-1997 202 -430 0
42 -1877 -225 0
-1494 1189 102 0
-266 -1250 606 0
1491 1154 -390 0
1061 -1878 -1629 0
-1976 1897 -262 0
-85 1175 1291 0
-310 372 1769 0
591 169 1266 0
684 1956 -1632 0
-642 -1269 524 0
-241 -419 -601 0
1770 -1060 -789 0
-1376 1372 1791 0
-164 -421 952 0
381 -688 -1727 0
1296 -1726 1845 0
550 868 -1927 0
472 1859 331 0
-1962 -749 1251 0
-1758 1264 -1377 0
1241 -1421 962 0
-218 184 -336 0
-1274 759 235 0
438 -1628 1975 0
-301 -1388 -1414 0
-418 -1242 -445 0
-1173 -1318 114 0
1874 -1284 -143 0
384 -713 68 0
-1987 1061 -1067 0
-672 -952 1759 0
-1591 -1109 -757 0
-1485 -1074 -1972 0
-964 -1365 1555 0
-1728 -154 1554 0
-213 324 -1350 0
1619 1487 1658 0
-219 243 -1153 0
1823 51 -558 0
-1648 850 -1421 0
881 1318 1936 0
-1115 994 -1676 0
1831 -124 -1417 0
1864 167 602 0
265 -413 -1435 0
648 1172 1780 0
-1759 1585 1781 0
635 -1536 1652 0
-1093 -1457 -1259 0
304 1368 1494 0
993 294 350 0
112 -239 -113 0
-64 932 1694 0
1417 1476 -735 0
-1 -1107 -1115 0
1985 -1936 -72 0
493 616 -1750 0
63 1910 -1707 0
-626 532 -215 0
-1426 1786 1505 0
581 1684 -1784 0
117 1683 -1263 0
-1682 634 -1666 0
755 991 -1876 0
1800 572 -1348 0
1239 546 -1768 0
-613 517 1306 0
900 421 793 0
-1654 365 -1028 0
1949 -654 -53 0
1603 508 -1545 0
251 554 1054 0
1796 -1543 -924 0
836 107 -1498 0
-1915 1388 654 0
179 -1605 1637 0
1322 931 -1368 0
-390 -343 -427 0
-464 -1047 -1492 0
1108 -1261 -827 0
-609 1481 -1834 0
387 -1794 -1989 0
-790 1401 -936 0
75 -1266 -1528 0
1224 1976 878 0
-1558 -918 -563 0
-1951 -70 565 0
-137 1750 179 0
-133 -477 916 0
-1113 -1547 -780 0
-790 -1844 -1015 0
1479 1305 -1545 0
479 1806 -777 0
257 1354 -1769 0
967 -1563 76 0
1488 -440 1906 0
1314 -1956 -714 0
559 -325 1786 0
-626 -1380 1759 0
215 -503 1297 0
1377 97 -1713 0
-332 1463 -480 0
299 1892 -92 0
-787 37 1007 0
1633 -802 -1422 0
1279 -1366 201 0
-576 1866 -72 0
1245 -1362 1183 0
-364 -197 1734 0
-1619 -1292 -1448 0
-1780 -1347 -1117 0
929 -570 -1483 0
303 1740 1292 0
-926 889 245 0
974 -104 1814 0
-1161 1278 -803 0
1009 185 -1279 0
-1689 -709 131 0
1785 -1938 -1591 0
-624 1638 -602 0
713 -34 185 0
1459 -1828 -163 0
-635 501 1542 0
-1323 1826 -36 0
-906 -417 -820 0
1496 278 1871 0
-659 386 -1617 0
1996 -1892 -183 0
-742 498 1216 0
-934 977 1704 0
-1503 -1674 743 0
-1628 999 -638 0
158 -234 1962 0
-383 1689 -1941 0
787 76 -1882 0
-1365 1290 -1917 0
1508 -1430 -115 0
-767 1334 -1797 0
441 1715 219 0
540 834 -510 0
-747 -356 -1970 0
-246 -1498 -1 0
-965 -1163 559 0
904 -1321 -576 0
235 -1727 -420 0
-1261 1251 460 0
-782 -1267 -1777 0
-1211 581 -1845 0
-1374 -1199 -344 0
1040 1409 1459 0
-1957 1099 -1984 0
888 -1510 -1865 0
-362 -511 1737 0
689 1467 1935 0
309 -45 -332 0
-95 1086 198 0
-808 -394 -631 0
-927 -1093 -1618 0
16 1686 -1554 0
1565 -648 811 0
-1730 102 1822 0
615 1872 313 0
1346 1846 -199 0
-156 1311 -1830 0
-529 -1599 1244 0
-68 232 -80 0
-888 410 -1975 0
1271 1546 -165 0
-1723 -882 1439 0
-1533 254 1280 0
646 1153 1942 0
-181 1601 245 0
1341 -265 -1695 0
1448 -924 -715 0
-479 -159 -1684 0
672 -1632 -45 0
-1486 -1335 845 0
-1169 -837 -104 0
516 1601 -586 0
-836 461 1182 0
-70 -1539 -1640 0
879 530 -1753 0
1490 1167 -1700 0
1362 -1064 -1500 0
620 -1307 -252 0
-1448 -1810 1878 0
-600 782 -1498 0
146 -1934 1862 0
-190 1468 -366 0
1641 -1941 -200 0
641 517 -1565 0
-1387 805 -1479 0
1639 1986 1329 0
405 -778 44 0
25 -406 -1820 0
217 766 -870 0
1280 -1235 -813 0
-991 -1152 1817 0
1582 129 -205 0
1611 929 664 0
-1362 -148 1046 0
-827 -1130 -1230 0
1442 -544 -1841 0
1751 -1220 36 0
391 1929 984 0
171 -1987 16 0
589 -1287 -1835 0
1975 1488 -1683 0
1830 -1058 -561 0
490 -1192 150 0
1482 1196 -1420 0
281 -369 -1306 0
-1437 -292 190 0
65 337 -1430 0
-1991 -1938 1027 0
1699 1971 -32 0
1697 376 -405 0
-1668 1393 435 0
1048 -1950 -1934 0
-690 76 629 0
1019 -613 -959 0
-313 -486 -790 0
1981 1288 -958 0
-1623 -1377 -1819 0
-858 1422 -1578 0
397 687 -1447 0
-1178 1390 -301 0
-519 286 -2 0
-680 1152 -364 0
-1766 -844 -1718 0
-166 1977 109 0
1959 -849 -521 0
69 1805 -1975 0
486 1578 1520 0
-31 -842 1429 0
1421 -1551 576 0
1373 -313 -500 0
628 1735 -1409 0
-484 1689 -1371 0
1582 154 843 0
1134 485 -622 0
1613 -1185 301 0
713 -509 -1855 0
16 1235 -10 0
258 321 -158 0
1753 1665 1685 0
-1406 -1313 1849 0
-1815 -495 1964 0
-772 -1445 -714 0
1938 938 -1428 0
1974 1021 243 0
100 1380 -1558 0
684 -540 872 0
-709 1902 -1716 0
1985 1773 836 0
-674 1413 1023 0
-277 -1273 -463 0
1463 1727 1840 0
298 713 600 0
727 689 -1738 0
-1503 457 1263 0
1735 1933 639 0
1938 -1905 -916 0
1848 1957 1468 0
-543 1499 -321 0
175 344 -882 0
-1473 1357 854 0
-763 1872 1108 0
144 -697 1427 0
1949 -237 206 0
326 -1011 237 0
1645 -1105 1047 0
-313 604 -399 0
-1493 -1467 -1752 0
1612 1568 153 0
1920 -901 1938 0
-1003 -924 95 0
1321 1478 -1765 0
-506 1073 347 0
-1313 -192 -1782 0
1263 -1256 1552 0
-1421 1970 423 0
518 532 -1383 0
1561 -1958 716 0
1822 1030 -1155 0
-301 1954 -494 0
511 -1374 1346 0
-1434 -1058 -1974 0
487 -558 1760 0
-1494 1343 1691 0
-1135 -1862 -332 0
-469 -1803 -1252 0
-772 -802 -1301 0
1386 -1518 1806 0
149 -843 1613 0
-1810 -665 155 0
884 681 1066 0
815 1154 -1393 0
-1339 1622 1379 0
1436 1648 106 0
831 1464 679 0
549 1306 -1698 0
-500 -1228 295 0
-413 -883 118 0
8 354 -1395 0
-1727 1542 -761 0
626 -1967 1415 0
-592 -548 -528 0
-230 -1592 -961 0
-1326 616 -1044 0
-439 -240 -755 0
-227 641 540 0
297 1391 -454 0
316 381 1448 0
1677 -1877 -1236 0
-447 817 77 0
1971 -1483 1485 0
-807 1968 479 0
-1121 -50 70 0
-1205 -1260 1616 0
-1604 -1028 -1102 0
-1120 1569 1818 0
200 1757 -341 0
1873 -585 928 0
-702 -697 -1649 0
992 -1171 1051 0
-1060 -858 -123 0
1524 1043 -1679 0
68 -985 1552 0
68 -594 864 0
830 -100 808 0
-411 -1729 -1413 0
-1855 -490 -1667 0
-599 1214 1854 0
1394 1926 -1254 0
-1886 1724 1584 0
-869 683 885 0
913 -1463 -1466 0
1827 -438 625 0
-1654 1062 -190 0
1618 915 505 0
943 1392 -903 0
-1469 944 837 0
791 -1260 861 0
516 1986 639 0
1863 1033 689 0
-553 -778 -668 0
801 687 -1594 0
-1838 -872 -1349 0
844 1676 -56 0
716 1575 1365 0
-1448 1359 1391 0
601 1037 1159 0
-1300 1963 504 0
-896 -334 -1343 0
-893 516 -1110 0
458 579 1610 0
-1305 47 -41 0
-1115 -123 1772 0
-1962 1363 -766 0
1360 174 688 0
-133 -820 -96 0
-1333 -1967 1910 0
666 78 -1557 0
-425 1556 -968 0
332 -15 368 0
-342 -1823 1105 0
-1741 1831 -1455 0
-101 1286 -675 0
-1895 393 1376 0
1067 979 -1647 0
555 -1062 566 0
-452 549 1079 0
-1341 1825 1412 0
-1476 -1035 -1442 0
-1018 54 781 0
103 -1359 -1121 0
-498 -1659 -715 0
1401 1235 -897 0
-1370 -460 1181 0
820 -1306 -2000 0
-1693 -149 1608 0
467 -1286 -118 0
864 33 -298 0
553 -1750 750 0
954 747 -1770 0
1611 -1764 -1756 0
1138 -1587 -1375 0
996 1861 -1922 0
-1844 1093 1314 0
-708 1515 337 0
1140 -771 -214 0
-168 1895 -826 0
-1643 643 -1371 0
523 -322 -1116 0
-1184 79 -663 0
1140 -509 -45 0
-325 -292 1573 0
-80 1814 -972 0
-1010 835 870 0
-1876 -160 -172 0
-1171 -1416 -381 0
-923 -1737 1064 0
-183 508 -1247 0
749 -1874 -1936 0
1427 1181 -1062 0
-611 -1453 -1225 0
-509 980 677 0
353 -58 -80 0
314 -1358 1700 0
39 537 -1525 0
-857 1890 -1687 0
-1993 -1986 603 0
815 1893 689 0
653 1821 -353 0
513 832 1824 0
799 1735 -1164 0
64 1569 172 0
882 -1057 1227 0
-215 -503 -1803 0
1893 -1494 1572 0
-1677 -265 -1300 0
-1420 1348 -314 0
397 291 1542 0
808 -114 201 0
1271 -1738 -64 0
523 496 390 0
466 1552 -529 0
-322 -352 -313 0
655 -625 -669 0
-1711 -632 1585 0
853 -1252 -51 0
-1364 -996 605 0
-1297 -996 934 0
445 488 -1769 0
1025 -141 641 0
27 553 691 0
146 230 126 0
476 -178 1277 0
-1458 378 1089 0
455 -981 1632 0
-258 98 1235 0
-811 521 -1290 0
589 928 -776 0
-255 1722 -1518 0
-29 -652 180 0
1563 1370 1075 0
1266 -1931 1400 0
-289 -915 -914 0
1314 -1241 638 0
-137 -1556 1308 0
-831 1863 -29 0
1313 -1368 -1169 0
788 869 771 0
1882 -291 -74 0
-1193 -1089 -95 0
1619 -1274 897 0
-523 1188 -1206 0
127 1280 -1927 0
113 -508 -1740 0
-1258 -1815 -104 0
1877 -830 -1210 0
-1898 1835 -158 0
1182 -1233 1405 0
772 -441 -536 0
459 -980 -922 0
1241 -632 795 0
1336 -850 977 0
1721 -1942 -250 0
1258 -1106 1891 0
-946 1571 -470 0
864 203 -1908 0
-1298 -1926 -1511 0
-1135 717 1026 0
-1515 -221 -1503 0
-1867 -82 -546 0
-1144 -1296 -293 0
1091 -1707 1848 0
829 -1127 1361 0
1563 1270 -635 0
-235 -89 -852 0
-1072 764 -1247 0
172 206 290 0
-422 1937 -1759 0
-90 1937 496 0
-1202 -860 112 0
-1331 -213 -129 0
482 -534 1358 0
1290 -1151 326 0
-1229 -1954 325 0
-1842 767 727 0
1457 -837 991 0
649 151 -1994 0
-1978 -117 -1539 0
-1696 -1271 533 0
29 1737 298 0
-404 788 1602 0
1833 -1643 -949 0
313 529 -842 0
138 334 -611 0
763 -234 -738 0
-1980 74 -1754 0
-1294 -760 1072 0
-375 -1111 1510 0
1322 286 -1313 0
-1078 1676 710 0
1052 1998 -1343 0
1811 -353 -1166 0
1088 359 -1082 0
-438 1036 -231 0
-606 1029 390 0
1524 -732 1616 0
-1299 740 -854 0
-1890 -1421 -1539 0
-1864 -171 -436 0
883 125 1183 0
-1232 -1131 59 0
-1480 -255 1672 0
-518 -480 166 0
1773 1633 -580 0
-730 453 -1922 0
588 -1355 -1113 0
-1560 942 648 0
1394 -904 1169 0
-1664 -754 -1129 0
1931 1514 1883 0
1997 74 -1370 0
-1672 1140 -209 0
-305 1594 -492 0
1089 1692 1055 0
618 -359 522 0
-360 1722 677 0
-78 -51 -867 0
-605 -1006 -1055 0
681 528 940 0
238 -618 -701 0
-1752 280 167 0
1662 1448 -670 0
545 -160 -1043 0
519 -1538 1071 0
-534 1880 968 0
-164 1568 530 0
-1309 330 758 0
-22 -1386 650 0
1695 1522 818 0
559 -1596 -1668 0
121 750 1739 0
-552 687 211 0
1893 755 724 0
-367 612 918 0
499 188 -1080 0
513 26 -1938 0
-945 -871 1027 0
-621 -1682 -532 0
-523 96 -1 0
-201 1154 -522 0
1024 1612 1608 0
-1161 -1127 -1653 0
-316 -1191 85 0
1900 1109 -233 0
-958 32 -1277 0
-966 -5 -1038 0
799 -1159 621 0
850 430 -972 0
-1928 -1787 1755 0
-1919 -11 -619 0
-1628 -164 -309 0
-599 -113 -151 0
1462 897 1909 0
163 -655 -421 0
344 -1666 129 0
1840 1173 -470 0
121 46 -350 0
1659 -1696 98 0
174 -1415 1376 0
23 -973 1247 0
-131 -145 1188 0
-1625 1317 731 0
868 -1171 975 0
-1933 -71 956 0
551 -264 1787 0
159 -1499 -1613 0
-570 840 164 0
-870 1180 -590 0
-169 -676 -1674 0
648 1359 -941 0
-1260 1138 -862 0
1730 -738 -651 0
125 1752 -1662 0
-1448 1558 -364 0
-1055 631 288 0
619 -741 1592 0
697 835 -268 0
1318 584 1833 0
1823 794 881 0
124 -1663 1565 0
-355 -1009 1138 0
712 576 -129 0
-1458 -1705 1396 0
1222 -1163 -658 0
1805 624 1983 0
947 829 -1801 0
254 -840 -1074 0
-1081 593 -1732 0
-1609 -1050 1385 0
-1489 -1798 18 0
-1797 1302 -1904 0
123 -1831 887 0
-792 1713 1106 0
-2000 1148 -1070 0
1379 1203 -34 0
-444 1261 -387 0
1575 -1536 1220 0
630 -713 -1880 0
1334 -617 1131 0
1613 -507 1015 0
1752 -1911 1617 0
863 1015 -26 0
-183 -46 -1377 0
1597 1953 -261 0
-1964 175 1043 0
533 -1941 225 0
96 1475 342 0
-572 -1934 -822 0
-1036 370 1871 0
-369 -1684 881 0
1475 -1689 -572 0
-1476 -826 -238 0
1074 1146 -1864 0
-1041 -1399 -1013 0
-929 -612 -1847 0
1453 -1973 -1332 0
342 -624 -1346 0
-1734 1211 1853 0
1577 1187 1706 0
-1239 -263 286 0
-1033 -796 205 0
546 929 272 0
-83 -893 -207 0
1527 51 -588 0
635 -1174 1117 0
641 -1889 958 0
833 1443 -774 0
26 -1684 -1106 0
9 49 -311 0
-1000 -507 374 0
-1320 402 115 0
-44 928 1239 0
-181 554 -834 0
-440 -1517 -450 0
1831 1420 -37 0
-663 -1977 -1205 0
-895 918 -267 0
-928 1196 -1835 0
1174 729 1278 0
-357 -1439 -1608 0
1408 -103 311 0
-948 -973 -770 0
1179 -1675 -1815 0
-1824 -1863 -818 0
1683 -91 912 0
368 -511 -411 0
271 447 1739 0
561 -1685 293 0
1928 -608 -130 0
-1867 -860 -313 0
191 1719 1608 0
1334 -1313 412 0
516 747 -1978 0
-1024 254 -63 0
-342 -1890 844 0
413 -1099 1418 0
857 1668 -917 0
716 303 -1376 0
403 935 64 0
-1975 -1735 -1207 0
-754 1554 -533 0
1935 -1558 -279 0
21 646 -1329 0
-1753 1782 466 0
-482 173 -857 0
338 68 978 0
-12 -1164 -579 0
1842 -326 -1109 0
1847 -1855 -1782 0
-1795 -1172 -1068 0
1126 153 1092 0
1690 -1492 -1361 0
1562 433 -160 0
1661 638 -1263 0
1162 -973 1384 0
1037 -1760 1868 0
-33 390 601 0
263 -1548 -261 0
1689 -144 -1871 0
1808 1593 -907 0
-115 936 1001 0
1454 -494 961 0
226 -517 1277 0
201 604 -1022 0
524 1995 -1848 0
718 1883 -1975 0
-1570 1582 -1771 0
606 1474 -1868 0
1176 790 819 0
1632 -1378 -768 0
-417 171 -544 0
1541 -395 -485 0
422 -1709 161 0
1448 -696 -1716 0
-1003 -1726 987 0
-205 1328 1349 0
-904 595 -1110 0
738 1555 531 0
1383 1724 -519 0
-1869 -1520 1526 0
747 -1992 -1406 0
720 -1408 987 0
1268 -524 362 0
-702 -117 -290 0
-919 -1114 -1000 0
904 -1845 902 0
-1633 1766 1145 0
1269 1943 -1355 0
-1236 1621 338 0
1295 127 -806 0
1065 890 1528 0
-43 -752 899 0
-1288 -1523 1372 0
225 -1197 370 0
195 1716 -496 0
198 613 -1997 0
-1513 971 1280 0
-574 528 78 0
-736 773 -1570 0
1234 -673 -342 0
-1362 -1304 -1509 0
-1828 -1102 1868 0
478 -579 -957 0
-1561 652 -1986 0
-674 -1799 -1 0
-403 -1864 -392 0
-603 -1394 -705 0
571 811 -1687 0
-956 -251 1476 0
-318 74 382 0
-1419 -621 192 0
821 -572 144 0
-1033 -382 966 0
978 1834 -1094 0
1044 273 -1686 0
-1466 -87 1216 0
1526 -1776 96 0
-706 2 -829 0
-178 -959 -478 0
-1183 -22 1483 0
1241 -1501 -77 0
-1890 1460 827 0
23 -1822 -961 0
-251 -1873 -1015 0
302 1794 852 0
-895 -1993 -1304 0
-1368 860 -824 0
467 1632 82 0
22 -761 1032 0
820 858 -85 0
1774 -1534 -1731 0
-928 1437 -1857 0
1756 381 54 0
-672 -1951 445 0
81 988 -1771 0
-1611 552 -1079 0
-83 1354 -720 0
923 1581 -374 0
388 -302 -941 0
1540 -20 161 0
861 -553 803 0
800 -380 -1449 0
-729 -974 -1058 0
-782 -428 1030 0
1398 520 -1421 0
1033 -1497 -245 0
922 1485 -108 0
-1615 1709 543 0
-384 234 1611 0
-990 458 388 0
1915 -759 -1197 0
1357 -917 -1281 0
-1490 -1451 -1890 0
-1781 -845 -567 0
-650 810 1402 0
-535 78 1947 0
-620 979 347 0
-878 481 1592 0
866 920 246 0
646 74 1717 0
538 382 -354 0
-753 236 -641 0
-1386 -1406 -690 0
124 -1062 725 0
122 -594 -12 0
119 1532 1442 0
-218 -1088 203 0
94 633 855 0
-316 -889 -1156 0
-1514 -1012 187 0
510 -1625 1342 0
1620 1821 -1915 0
1967 -583 68 0
-1512 -670 1353 0
-1347 -1040 -1333 0
599 -1154 -1952 0
-1021 32 520 0
-1992 -1484 828 0
-1985 981 538 0
277 356 680 0
1722 -1535 -524 0
50 -273 1530 0
-708 1465 -1996 0
752 -1951 -1476 0
-1481 -1652 -148 0
-894 1963 -790 0
-1860 -1429 -715 0
-1790 664 -1034 0
1032 589 1063 0
1570 1756 313 0
1480 690 682 0
620 -895 621 0
113 1936 278 0
1109 -756 326 0
1676 -1413 -118 0
-218 -743 -1864 0
-1585 541 -1109 0
-645 -1530 391 0
1608 1989 1474 0
-1813 147 -1810 0
1585 166 -1737 0
-535 -126 1715 0
1229 -76 -1224 0
-1438 -290 -1377 0
161 1238 -384 0
1763 -1378 -157 0
-1240 -513 953 0
-1549 -346 1907 0
837 454 173 0
1589 -23 1286 0
1122 -827 1009 0
258 775 1158 0
-239 1062 -1284 0
1969 -690 906 0
-1454 81 -869 0
1119 -438 -1455 0
490 1601 -191 0
-1142 -1405 -555 0
1178 110 -1106 0
866 -1595 1128 0
235 -1550 1164 0
-800 1959 -493 0
-378 -202 -1635 0
-1973 283 -801 0
1500 31 -1339 0
526 -839 1102 0
-1394 -103 1186 0
-241 -1682 998 0
1297 -1396 1088 0
226 1099 384 0
1339 -1818 -1309 0
1741 153 807 0
-1026 -1211 -842 0
1690 1234 -933 0
-1501 -1139 -1823 0
426 -1270 -1898 0
1335 386 346 0
1304 506 -1300 0
-1836 700 1732 0
-1832 800 774 0
1279 -176 1678 0
-488 1094 1680 0
1424 1616 -681 0
1498 -1554 -1427 0
777 -358 -1795 0
-1299 -1416 855 0
49 1590 -260 0
719 -1385 389 0
-464 -716 1502 0
-279 -1647 737 0
-1953 -1390 683 0
-843 1395 -1658 0
1041 819 1335 0
486 -1725 390 0
-590 -1469 -1819 0
-1028 582 -558 0
-477 -1285 1477 0
-286 1548 -660 0
-1383 490 -954 0
18 -379 -1410 0
-523 515 -1357 0
-1648 1531 937 0
-1066 -1021 1569 0
-1186 -1635 1068 0
375 1496 255 0
-1890 612 -130 0
-1216 -34 1743 0
203 329 1532 0
783 -610 937 0
825 -405 599 0
1688 511 1644 0
1074 -613 1041 0
1838 -690 -1208 0
1317 -837 -257 0
755 1428 324 0
-1933 509 1575 0
618 -1469 1154 0
-909 429 -1561 0
1006 312 -401 0
601 -274 676 0
-1164 491 547 0
-1285 -638 -1004 0
1277 -295 1593 0
41 1692 -1034 0
-108 -440 1497 0
-132 1959 -780 0
-445 -631 -1378 0
-1022 -590 1656 0
-1654 292 1879 0
349 -1933 313 0
-1599 -1270 54 0
1109 -1937 -1636 0
1851 -1538 -1991 0
1500 -1606 1176 0
-392 -449 126 0
-293 -1445 -1252 0
-998 -1445 1639 0
-1903 1056 614 0
1398 -1465 1821 0
1107 1935 -1413 0
-1511 1972 463 0
1977 1549 -917 0
453 -379 -1030 0
-883 524 -1678 0
-243 759 984 0
1240 -794 -1022 0
850 -1420 24 0
350 -1851 1871 0
-1251 -93 1442 0
-1382 -52 504 0
-1205 -1136 1630 0
1011 -288 412 0
-486 457 -1553 0
1826 -370 -1016 0
-527 -1024 -1932 0
672 608 -1675 0
730 -471 516 0
-1685 876 -940 0
-1194 -1450 1675 0
518 -941 7 0
-1065 653 -1188 0
-1994 1275 -1237 0
-1587 -1876 786 0
-1799 -1561 -1542 0
-1283 -1249 -388 0
1740 -1164 -804 0
1564 -1612 1249 0
944 -53 22 0
1189 -1098 1495 0
663 -89 -1380 0
1083 108 326 0
-1789 -1213 -1220 0
-1499 -59 -1743 0
1082 -1141 454 0
-863 -1077 -1185 0
-413 -268 1220 0
253 427 751 0
-817 -1842 -1376 0
-1120 236 -1077 0
-1629 -753 -287 0
1912 1769 -1791 0
-695 -68 -1251 0
998 570 82 0
-1604 -826 448 0
1664 -731 1634 0
840 1040 -1305 0
36 1003 1735 0
1403 361 286 0
737 -526 -671 0
-800 -19 -1243 0
274 -1666 1832 0
-644 205 883 0
-1646 902 -1210 0
-130 -328 614 0
-425 127 1416 0
-15 13 -26 0
1513 56 629 0
660 -1418 129 0
710 1582 -1880 0
-1145 -674 804 0
54 461 -1399 0
23 1788 -449 0
-597 -1637 -827 0
1303 -1612 1979 0
-1387 787 1634 0
-1184 463 -703 0
-1454 -1417 1609 0
-1818 129 1689 0
-431 -1731 -1273 0
213 771 498 0
825 158 -1271 0
342 1870 1656 0
-1197 819 83 0
-1374 -43 829 0
-1214 827 1847 0
557 -323 92 0
54 -520 10 0
857 588 -1778 0
641 1783 -1184 0
1726 1292 1701 0
-1507 -1428 -302 0
-159 -1548 120 0
-687 -904 116 0
-1196 -571 -614 0
1719 1569 1035 0
-1349 601 1537 0
93 -1729 -1516 0
1668 -1571 -237 0
-727 -1330 -1449 0
1197 1442 -1196 0
685 636 1399 0
464 -1531 1680 0
-846 328 -102 0
-1888 1311 628 0
1002 -579 -887 0
-1533 -1490 -144 0
776 1780 1103 0
1143 1622 -50 0
-1855 -111 -1973 0
-804 1930 -244 0
-530 -894 1462 0
616 -1329 -660 0
-405 787 -1329 0
945 -146 665 0
-601 -630 507 0
1417 1190 -1176 0
1032 1493 363 0
123 395 -455 0
-1842 881 1483 0
71 -1576 1031 0
-255 -1018 1496 0
1270 745 1781 0
326 -492 151 0
-78 1629 -18 0
-1635 -837 -1241 0
1832 77 1991 0
-1420 423 116 0
-473 -179 889 0
59 -262 -1546 0
511 -1133 -1070 0
-1778 -1538 738 0
-309 1827 1541 0
-327 -278 -837 0
-1444 1018 1542 0
1727 -1662 1368 0
-98 1460 1679 0
-566 -1617 -1087 0
-718 -1288 1249 0
-1941 -441 -445 0
192 -366 -1671 0
1231 -784 1408 0
-522 -1561 -455 0
799 337 1582 0
1549 310 64 0
1850 -1348 -638 0
-1466 -220 682 0
548 -64 -281 0
-767 -956 427 0
862 726 -575 0
-171 915 -73 0
-154 1561 -513 0
-1703 -1804 -1879 0
488 -307 -247 0
-1789 994 -542 0
516 -955 -1015 0
-546 1775 695 0
-1709 1776 1536 0
-806 -372 -1257 0
-861 456 1950 0
-1238 -1252 521 0
676 -1015 -630 0
1126 -438 -542 0
317 352 1432 0
-237 902 1510 0
-1294 -268 272 0
-983 1663 -978 0
1477 165 931 0
-494 1953 -497 0
-1751 804 962 0
220 894 1302 0
-1974 -501 1425 0
-1267 -130 -1642 0
253 1455 -938 0
-1749 887 -518 0
1620 1596 1116 0
-644 -55 -386 0
1778 352 512 0
-538 -1722 952 0
-416 -493 829 0
-593 -339 996 0
333 876 1937 0
1031 258 -1752 0
-698 1753 -779 0
1819 1810 8 0
-1772 1190 -1168 0
-1033 -983 1552 0
-547 1962 -1611 0
-1346 -1821 265 0
526 -416 -1912 0
-1063 -486 -839 0
597 947 -1281 0
143 1507 -1272 0
1847 1364 -1734 0
-1808 1389 1126 0
1509 -1655 1602 0
-1054 174 -1938 0
-1404 869 -1343 0
1179 1476 1360 0
1467 -343 -314 0
165 -1386 906 0
1636 -1655 -1878 0
1062 301 -789 0
239 1696 1284 0
-1898 1584 -1722 0
-510 1531 -1658 0
300 -1826 938 0
-1067 -799 -1437 0
-994 1261 -342 0
-1530 106 -1491 0
-1665 1489 1287 0
-267 1980 384 0
110 -924 86 0
1049 1925 825 0
571 -514 -465 0
1978 -1908 -1263 0
-236 -1963 -774 0
1598 1984 -833 0
-1010 1280 1515 0
1301 1213 -1473 0
1966 -1888 -1632 0
-1477 1956 -1895 0
917 -111 275 0
930 -571 342 0
-1407 -1902 345 0
1262 1157 -270 0
-1656 -195 -1659 0
1397 1685 -1636 0
847 1152 1501 0
685 1905 -510 0
-1101 261 -1285 0
1346 -1869 1313 0
838 -1774 527 0
-171 -535 1707 0
574 -216 1175 0
-1681 -580 725 0
-475 375 1532 0
15 -1693 906 0
-1800 601 -373 0
-6 634 -1616 0
-1817 1168 264 0
-1502 1855 378 0
-201 -1585 -1319 0
-1530 374 725 0
1274 -823 1584 0
1522 712 -465 0
1946 1779 132 0
-156 -827 1280 0
-1860 1030 -1506 0
-1706 -161 -492 0
1210 -1611 135 0
921 -971 1536 0
501 699 -1605 0
-1068 -84 29 0
322 -1742 -1062 0
834 -96 39 0
-1200 1917 1801 0
-1645 -1388 -1180 0
489 1557 1315 0
-489 -1927 -241 0
-815 -1173 1302 0
888 1128 1165 0
1248 -284 446 0
291 -1991 -1628 0
1150 -617 650 0
-1515 -932 -497 0
607 1060 1412 0
-959 1209 633 0
1408 -1304 314 0
1500 1098 -1207 0
-220 812 -1943 0
-82 -354 252 0
686 1940 -1832 0
-652 1092 -150 0
1565 -590 -1723 0
70 -1119 -723 0
-362 1974 -935 0
-1429 941 582 0
1277 -1743 -455 0
-1393 1072 199 0
1551 -1383 -602 0
-1603 1042 -1581 0
-507 -1215 -1103 0
39 541 -1046 0
-1616 1456 313 0
-323 1247 1100 0
-358 826 1408 0
-1358 -227 1086 0
-478 -1934 266 0
-370 -975 595 0
-1121 -1590 53 0
1235 -1194 -1762 0
-4 -1615 1123 0
-1356 -995 250 0
-845 -1629 -689 0
150 -130 244 0
-1402 -897 1450 0
134 -1541 -1876 0
1806 -1732 515 0
-1802 755 137 0
-1130 1373 1926 0
1967 -1901 1400 0
-346 -1725 -105 0
-383 -1291 698 0
596 -1869 38 0
-1179 -73 -1669 0
697 1651 426 0
-449 1332 1596 0
-1934 1247 285 0
-111 1598 -1735 0
401 -38 955 0
-691 -384 -22 0
1519 -1955 169 0
839 1901 -321 0
726 -1084 -1038 0
1261 1897 -1941 0
139 -1161 61 0
-714 1163 -1035 0
-840 -1838 472 0
762 1827 498 0
1821 1851 -863 0
138 17 1562 0
-883 1496 -1940 0
-600 -152 1097 0
97 115 -195 0
216 1148 -65 0
858 -1835 1886 0
489 -258 -51 0
-785 651 719 0
661 516 -1885 0
442 -1723 -1112 0
952 1279 -1125 0
-1812 -445 81 0
814 -1122 1434 0
-1375 988 1216 0
-1843 1854 1558 0
553 -1855 1849 0
-772 -1935 -1088 0
-1698 1442 -1907 0
1862 -21 -1551 0
1652 -530 -1841 0
525 1984 988 0
1403 1874 -1747 0
838 -1281 -1569 0
848 1066 192 0
1106 -1694 1473 0
107 1583 377 0
407 -269 -388 0
1556 -1224 508 0
-931 1176 -1928 0
-361 -1500 -784 0
-459 1885 81 0
-68 -7 -592 0
-402 -886 1073 0
808 1134 -1304 0
855 -1879 476 0
832 1207 1010 0
237 172 -370 0
-560 -1713 416 0
-866 1586 -1940 0
227 -106 -945 0
-1029 1511 1285 0
617 1410 -51 0
1218 -1713 1475 0
-1398 -1799 982 0
-812 -1229 -929 0
-202 858 -233 0
-324 -1802 -697 0
689 629 1998 0
-168 1598 1373 0
-1980 1211 -1541 0
1114 1088 -597 0
-1917 -1836 -296 0
-666 -622 -1033 0
-1494 577 1024 0
921 -1633 1709 0
-6 -178 46 0
-1904 -1910 -972 0
-2000 1855 1215 0
-964 -590 218 0
-925 -599 1596 0
1136 -653 -1270 0
-1761 389 1195 0
-1439 -1071 -1441 0
-1621 1520 1854 0
-1139 -618 495 0
-658 963 156 0
253 1325 404 0
-1262 364 -356 0
1609 -1405 468 0
398 -786 328 0
1249 250 -106 0
1940 -520 -46 0
-411 -894 1774 0
-1273 -1556 252 0
-1448 1820 1180 0
445 -591 1798 0
1452 282 -1382 0
735 348 1229 0
-1179 -205 -1710 0
-1091 254 -1890 0
-1894 -1166 1597 0
495 -1858 570 0
530 -788 1308 0
-1893 -620 1003 0
737 674 1892 0
-20 1730 -1941 0
-1944 -1164 1654 0
-649 819 1098 0
1534 -1440 -1427 0
-677 727 615 0
846 -1845 1947 0
1869 330 -57 0
-214 1647 -209 0
119 -1514 654 0
-643 -993 -172 0
-1946 -1548 -1945 0
1755 735 623 0
-1594 -660 1670 0
-1224 1681 -676 0
-1700 -1082 1021 0
729 -177 -258 0
-1089 -1251 -1338 0
-1185 -1624 -1174 0
-305 1319 1862 0
41 1105 -1786 0
1847 -1722 -981 0
-36 771 -304 0
1170 1095 -271 0
1378 381 561 0
544 1518 1240 0
1520 -591 559 0
605 996 1165 0
1780 -924 1191 0
1432 -1673 1064 0
-1116 -1465 1326 0
-495 1264 -983 0
-957 1260 -631 0
-171 -715 -1059 0
-1184 -1094 1994 0
-1010 -81 -743 0
1626 768 932 0
-1958 -348 -312 0
1744 -438 1443 0
336 709 -167 0
-646 809 -555 0
690 -433 -1651 0
-1015 638 336 0
-1737 -1620 1735 0
1459 -1824 1830 0
-359 -1402 383 0
-188 1122 826 0
-1583 -781 -1128 0
237 1553 1750 0
1424 -1875 -1398 0
1066 -1511 854 0
-949 -1570 889 0
652 1276 -1789 0
-9 -839 -344 0
-807 -66 -1742 0
-1211 -662 1995 0
493 -173 321 0
-110 761 724 0
-706 1161 1827 0
-672 -536 -630 0
-683 879 1468 0
1640 707 1381 0
976 -410 910 0
-906 820 -805 0
-143 720 -63 0
-1444 -1664 -681 0
252 -1352 -1620 0
658 58 273 0
467 -315 1927 0
1673 -1862 -974 0
-1796 1322 448 0
534 1499 404 0
-490 756 1821 0
1694 -1264 -633 0
-1393 1103 1976 0
155 1991 -1908 0
-508 -20 -1022 0
905 1026 949 0
693 -1665 1039 0
1090 -9 1405 0
1304 1236 622 0
359 -1110 -1474 0
930 180 -219 0
-118 -557 -810 0
-1274 -632 396 0
898 996 799 0
378 -315 -653 0
1097 -968 -1960 0
508 1885 860 0
-1798 -349 1764 0
620 -563 -200 0
-789 -283 -434 0
-102 14 66 0
-771 841 -733 0
1868 -1148 167 0
-1267 845 -1385 0
-661 -140 -1981 0
1915 -1674 -1018 0
65 -219 -1807 0
1930 -1155 240 0
-1360 1303 305 0
1915 817 -1187 0
1405 -1998 -1141 0
-1278 1640 20 0
847 858 -518 0
461 -1505 -507 0
-309 1940 -1924 0
348 463 1233 0
1921 -301 -529 0
-442 1533 -1601 0
-235 1965 -593 0
287 1894 -766 0
1457 1682 836 0
-470 1449 33 0
-433 1565 -120 0
1623 337 1438 0
-881 1274 533 0
-100 -1206 -1392 0
1856 -604 229 0
1988 -465 983 0
-1297 -851 -1795 0
-339 226 1096 0
551 -319 1373 0
-1829 -869 730 0
-1452 -1636 505 0
-23 1527 -441 0
1526 -88 1918 0
-1739 1466 -578 0
330 412 -95 0
-217 888 -660 0
-631 581 136 0
1732 -859 -141 0
-508 -665 1022 0
-1871 -1578 -202 0
-923 271 -657 0
-155 759 -814 0
-278 -1810 690 0
-1053 903 1975 0
532 645 -1411 0
-83 854 1085 0
1719 741 1062 0
-1000 -731 678 0
1097 -896 408 0
-1039 1128 1510 0
-538 -1791 1353 0
-272 -448 -1448 0
-975 -1294 -501 0
-121 -76 465 0
1958 1586 1385 0
871 1688 -1982 0
231 -1437 1555 0
-897 -1228 1267 0
862 508 1279 0
375 -949 -1921 0
-823 1518 -1751 0
-343 133 1179 0
1135 1378 -974 0
-105 132 -1578 0
475 205 19 0
1991 -550 -1754 0
-1317 872 860 0
1847 -450 525 0
-927 1582 -316 0
22 1680 868 0
-1022 1631 1101 0
137 1803 772 0
1031 513 1377 0
1201 1000 -853 0
-421 -1820 67 0
-1905 1162 679 0
1683 -66 -163 0
-1656 -328 -414 0
-629 1166 -1024 0
327 674 1120 0
672 -826 -1426 0
-922 1474 -1465 0
-880 -1797 -1606 0
183 293 184 0
-964 1019 703 0
-1613 76 1283 0
1604 -1998 1298 0
1290 -1779 862 0
1523 758 1999 0
1953 -1964 -674 0
-1615 -504 -819 0
-1437 -842 -1910 0
493 -861 509 0
1696 527 203 0
-376 1943 1479 0
-1945 -30 867 0
-1498 -318 -1164 0
-1074 -1589 428 0
-1420 1891 1960 0
-1780 -209 -6 0
580 1699 596 0
-20 -90 1396 0
-1253 471 -106 0
460 -253 -1100 0
454 -522 -1266 0
-89 1853 1262 0
881 -1958 -785 0
1882 -994 -149 0
994 72 -1210 0
-289 -1293 241 0
105 1312 -1890 0
1573 1449 1848 0
-89 324 -1557 0
587 1104 1630 0
440 1915 -23 0
-1159 1640 171 0
111 -1401 824 0
1810 -502 1401 0
-1860 1531 -54 0
-1971 332 -711 0
761 1635 519 0
-675 -270 -1588 0
1437 -721 1059 0
1621 596 -1035 0
1208 -552 -1863 0
731 1969 -360 0
49 -1556 -69 0
1468 -94 -1802 0
-966 814 -101 0
-1717 916 44 0
144 -301 130 0
-730 585 1832 0
1197 1723 99 0
-483 1255 1720 0
-1197 729 1978 0
-1139 -566 647 0
1345 -1200 -909 0
1459 -212 465 0
-280 1400 -520 0
1541 743 -1550 0
-1502 -1892 -159 0
-1089 -726 1800 0
-1829 1846 -1766 0
1928 -1845 -78 0
-1635 -835 1479 0
-1388 -1030 -1648 0
1186 -574 1495 0
-183 1659 596 0
-1428 -1054 -1686 0
197 1303 1087 0
1563 975 1945 0
-1101 -47 357 0
-1895 1270 -1956 0
-1322 -753 -134 0
-457 1531 -1182 0
1411 -45 -1062 0
697 -201 -937 0
-414 394 1040 0
319 891 -449 0
-1065 -1081 1928 0
-1047 1062 -1839 0
433 804 1942 0
-223 -566 -1503 0
-554 1260 -262 0
-171 -44 1004 0
1404 1593 -475 0
367 -1680 233 0
-1442 -868 224 0
492 -613 1148 0
-1522 -574 -1512 0
958 -395 -1577 0
1074 516 -1062 0
662 852 -899 0
-1854 1928 -504 0
-1699 990 1516 0
-907 892 -1711 0
1460 -1440 -334 0
-1067 1398 819 0
-1646 -1807 -1018 0
-1687 -1325 -701 0
1850 -276 -1165 0
789 -162 -196 0
267 -101 -1236 0
1865 -767 1946 0
1279 -1969 702 0
332 440 -136 0
1757 1431 -124 0
-71 -1137 336 0
-1358 1232 363 0
-1090 618 1864 0
794 1734 -425 0
-255 1405 -1534 0
-896 -1939 -1264 0
1200 1493 -998 0
-1207 1145 -332 0
-826 635 -1408 0
859 -156 -933 0
-1962 1956 -218 0
222 18 818 0
1973 -1684 -802 0
-963 -87 9 0
-1385 1304 -1721 0
-616 247 1371 0
-42 1976 -463 0
-1663 1426 1013 0
-804 -679 1743 0
-1663 -592 1022 0
1413 1250 -871 0
1239 9 -776 0
673 1499 -835 0
-1652 -1601 78 0
421 1844 -250 0
-1997 522 -1082 0
-1235 83 1444 0
-1854 -410 329 0
993 590 1643 0
-1830 -1634 800 0
-1270 454 -1889 0
-955 1422 133 0
-415 1883 147 0
843 -1631 -1056 0
613 -986 -167 0
-1305 997 1944 0
804 -1172 -1702 0
1589 1740 -1410 0
-1534 -1417 -283 0
1940 124 -1544 0
-1900 -1984 313 0
792 1537 -671 0
-1902 1810 799 0
1973 -1104 1766 0
-796 -1068 -411 0
460 -1889 -1592 0
1024 1326 -906 0
660 -847 580 0
1260 44 -408 0
-341 253 -926 0
-792 -648 -293 0
-6 599 1338 0
784 1109 89 0
1852 869 -95 0
-771 -654 710 0
-1772 190 684 0
-770 1191 -833 0
-605 -976 -647 0
140 -601 -1225 0
-1135 670 322 0
-777 -680 -614 0
1252 -1911 878 0
1501 293 -138 0
-1554 -1770 -654 0
1949 837 -1530 0
-948 -1901 -284 0
-815 -384 -682 0
1108 -1660 473 0
-1486 -359 -2 0
-22 -1249 -135 0
89 1131 -1342 0
-1924 -1590 96 0
-909 1031 -1986 0
-1569 -555 1229 0
-1839 -1116 1969 0
386 -167 -967 0
-1936 -1869 -1647 0
263 1226 -1815 0
-1205 392 -191 0
-1169 179 915 0
-1697 611 1917 0
-645 632 -911 0
304 1406 -1139 0
1021 -772 -951 0
-185 1218 -1105 0
1108 9 -123 0
1212 -490 702 0
-1939 -1521 1313 0
1745 -1932 -345 0
1812 725 -361 0
283 -635 1737 0
-1113 479 249 0
-1174 465 -1826 0
-138 80 -1637 0
-1510 1728 275 0
645 -1388 40 0
766 -1100 394 0
1080 762 -791 0
-573 1676 -993 0
21 1996 -1252 0
-1208 -228 -1755 0
592 904 -591 0
-801 -933 839 0
390 -1581 -1470 0
-905 531 -1105 0
-1936 638 -113 0
-253 -1437 -1677 0
-1550 -1345 1900 0
46 -1781 -1381 0
790 124 -1633 0
1649 -347 589 0
-708 464 -639 0
1784 -1480 -90 0
637 1040 -593 0
1314 1484 419 0
1809 1172 238 0
1765 1440 -1137 0
-1833 -61 1714 0
-1609 -74 -1869 0
-908 1302 622 0
62 -1741 -1282 0
1441 810 1647 0
-890 1396 -1272 0
404 509 1102 0
1181 175 -1125 0
880 1843 -1686 0
891 -1411 780 0
1044 1858 -1736 0
-856 409 812 0
-915 -2 -1270 0
185 1354 -950 0
-537 -1647 393 0
-1936 570 -16 0
1899 507 1930 0
1545 -1972 -663 0
-476 1543 225 0
-112 1436 -370 0
1421 -336 186 0
-1490 -1693 1782 0
367 -978 -432 0
1954 1870 -1496 0
1212 -1474 288 0
-581 943 235 0
-696 685 -474 0
947 -1695 -1618 0
377 -829 336 0
-1401 578 -1716 0
702 -1994 -629 0
-1598 253 -1339 0
686 482 -942 0
1680 1745 -875 0
1953 1901 767 0
-1241 -280 -233 0
-796 66 -1539 0
-1122 1468 -1158 0
-915 -1861 -295 0
-255 -679 1838 0
-1098 -364 1516 0
-1859 -1041 -1070 0
-663 -618 197 0
957 264 -180 0
1401 868 255 0
-1401 396 1798 0
706 -1749 391 0
1961 -1494 -1828 0
-615 -755 1415 0
1866 -1090 -1429 0
-1383 -335 -682 0
-1034 1583 1278 0
165 -1634 991 0
-78 -913 -399 0
1975 1458 276 0
-1572 1802 -885 0
-197 1585 -1124 0
-116 1405 625 0
-900 1695 146 0
1886 -743 1828 0
1887 -1271 -718 0
1907 -1999 442 0
1679 -715 -726 0
-1584 999 -893 0
-1774 1033 -222 0
-969 -377 -1883 0
776 1931 -573 0
-165 52 -922 0
1215 1968 779 0
-230 -1920 -1775 0
-1632 -680 966 0
-1154 1256 -1234 0
-1149 -678 204 0
1480 84 -1803 0
487 -1160 -1189 0
-912 1672 1991 0
703 1142 622 0
693 815 -1765 0
569 1873 -92 0
301 1267 -1171 0
914 1034 273 0
-71 -480 734 0
-1640 -1856 1451 0
442 -1826 -151 0
998 -1748 -350 0
-267 -297 -1699 0
-1776 1351 -1970 0
-741 134 1986 0
-1399 1570 -1701 0
107 -804 1538 0
-517 -824 -355 0
-650 894 203 0
84 -153 -1588 0
-1945 -292 -1959 0
-1892 -1080 -569 0
1611 167 33 0
-349 691 -1221 0
1279 -147 -1793 0
63 1833 201 0
1853 -1246 -491 0
-107 -1465 -449 0
-467 1845 -1113 0
999 1032 -1390 0
703 -1258 -719 0
1476 -1040 -1918 0
-752 -529 -564 0
-872 1130 -1009 0
324 1364 745 0
-926 -256 -712 0
-187 -539 504 0
1764 -502 -1564 0
-821 1024 1038 0
491 849 -605 0
1629 -1297 1583 0
922 -1986 -429 0
1235 146 359 0
1312 202 -680 0
-569 1194 186 0
-212 -419 783 0
-1521 596 -1800 0
-461 -715 -467 0
1145 -1683 20 0
-235 -1677 695 0
-1825 -1657 -1144 0
-433 430 132 0
-1735 1604 473 0
-810 -963 -823 0
1157 -1273 -1895 0
-929 -987 1003 0
449 1368 -231 0
1775 -1606 139 0
243 686 -1533 0
938 429 1962 0
572 1680 1368 0
-287 -798 -262 0
676 -458 -1429 0
-1687 -791 -354 0
763 -1512 -962 0
-1963 -607 -1467 0
-524 1725 690 0
1807 520 -1931 0
-303 410 -192 0
1113 796 -529 0
-326 336 415 0
-1852 1320 980 0
644 1945 -1305 0
-211 1571 1759 0
412 673 -581 0
-407 504 -220 0
143 -777 -757 0
-121 -1021 -997 0
-1179 -542 587 0
1402 875 1771 0
1258 1232 -888 0
714 1954 -147 0
-1273 954 -1941 0
442 -1402 -353 0
1113 508 1700 0
29 480 -1761 0
-1687 -917 1093 0
-1828 -67 295 0
-1076 -1545 1644 0
916 731 -1724 0
1525 784 1630 0
-709 -728 -922 0
347 91 -842 0
1188 759 -1071 0
1108 -1120 -808 0
-1083 704 -185 0
521 -1654 1665 0
-976 1097 1870 0
-37 199 -500 0
-210 -556 -458 0
982 793 -563 0
-1770 1856 392 0
-1303 -1644 -929 0
293 1098 -233 0
1817 -820 -1293 0
-199 -898 1766 0
729 -70 1608 0
670 270 1764 0
258 -592 11 0
620 364 580 0
-150 -1252 462 0
-443 -1761 630 0
-52 1584 500 0
1336 -737 1173 0
-769 373 270 0
441 -906 -1727 0
1942 709 -502 0
-843 1563 1446 0
942 287 -1352 0
-26 -13 696 0
-1388 -1346 -1395 0
-322 101 98 0
237 1523 -1815 0
1060 -726 804 0
-982 1703 -616 0
-58 -957 -320 0
-531 1141 -538 0
-1139 -1709 -873 0
580 -1053 -724 0
-1693 -1270 1101 0
-644 -1320 1314 0
1449 -1816 1512 0
1612 1798 -64 0
146 -900 -905 0
1984 -1325 -457 0
-1179 -1411 -230 0
1264 -1633 -1439 0
-1654 -695 -1896 0
-1455 -226 -1500 0
-116 -15 1838 0
-934 402 -1149 0
588 -1428 -1059 0
1248 -781 1381 0
758 832 -1304 0
1050 223 -221 0
-304 217 -1072 0
1559 -1961 -1369 0
-285 -305 -210 0
-302 -734 -1702 0
-1217 -630 1261 0
1219 870 -71 0
-1605 -1301 -1721 0
-475 1590 1703 0
-512 -1113 754 0
1234 1996 1850 0
-1775 -1741 1517 0
1141 1202 936 0
1913 1273 -338 0
-932 -1920 1354 0
-1959 1365 -1747 0
1306 676 1420 0
1926 1907 -1723 0
-388 -849 1805 0
1976 -167 -166 0
524 996 -864 0
1902 1716 -416 0
-1188 424 984 0
1615 -666 -1106 0
-383 873 -993 0
143 677 942 0
909 -201 -78 0
1922 -1342 1167 0
-578 -1294 -1912 0
-620 -1902 -267 0
1685 393 -1120 0
680 1151 -1706 0
1270 1516 -1135 0
226 -797 1060 0
342 78 -397 0
1940 489 -926 0
-1661 -243 1646 0
-52 211 590 0
-1500 172 -331 0
-768 1992 1824 0
-910 110 -33 0
492 174 -706 0
1255 261 -1446 0
-204 -1516 1188 0
-1178 -346 1328 0
228 493 752 0
-231 -1365 1794 0
1354 256 -1578 0
1738 -1841 -1197 0
-380 662 -211 0
1848 1308 1833 0
751 1959 342 0
40 305 541 0
-465 547 392 0
1984 1508 1950 0
864 -1257 -324 0
-346 1096 1784 0
653 -1692 1884 0
752 -1444 576 0
-11 1500 -675 0
-268 -480 -796 0
1325 -1274 724 0
1508 -1519 1829 0
352 -755 1388 0
1272 -1913 -795 0
-786 -874 -1911 0
27 -706 1993 0
1328 -1861 875 0
-506 -1371 1544 0
-1260 561 1999 0
1428 -152 -1506 0
204 -1512 -586 0
-442 885 1813 0
-1757 1076 1547 0
-517 -490 -1260 0
1083 14 -1880 0
1151 -1959 -192 0
822 -1598 -80 0
-537 -125 -9 0
-872 -1906 -498 0
878 679 -651 0
1619 823 -1764 0
1863 681 335 0
1196 705 -1055 0
193 -802 -1268 0
859 1441 -490 0
-143 -205 -1282 0
-66 -1897 951 0
-1917 1557 -1360 0
575 -660 567 0
951 777 -1397 0
-1630 1960 97 0
791 -1594 103 0
1108 -852 1196 0
-282 -1788 -1632 0
-840 1179 -758 0
693 -247 265 0
927 -1823 -494 0
-605 -291 652 0
1753 -1378 1961 0
-1605 287 -1069 0
-1433 -1822 1051 0
1859 -1373 -1684 0
1302 1543 -1545 0
1533 531 499 0
-2000 -1629 -242 0
348 1600 15 0
-738 -540 249 0
1177 221 989 0
1152 773 1150 0
775 -1555 -1672 0
-803 -353 -858 0
1440 -406 -118 0
-1116 1587 -947 0
-817 547 1083 0
-781 1212 -1042 0
-98 702 -728 0
-587 1524 1273 0
257 -1489 -660 0
1080 479 413 0
-569 -1540 -1771 0
895 1572 1241 0
1347 -905 -118 0
-1116 322 -127 0
648 1536 -1208 0
-113 1567 -390 0
-842 1521 590 0
1718 -637 -1747 0
1024 224 1929 0
-28 940 -1900 0
-1625 -1229 126 0
1365 1115 -1078 0
-1461 -1813 -389 0
-491 1121 -1869 0
-950 202 -1336 0
1576 -758 1645 0
994 -1628 -1112 0
-376 -1654 120 0
1358 -549 -779 0
1035 -1325 -1898 0
-1106 691 661 0
-1413 -610 -9 0
-1021 541 735 0
636 585 1356 0
-1039 1544 1020 0
-1653 -1755 -531 0
89 549 358 0
-1223 -992 -799 0
-1958 1358 22 0
-1896 911 -775 0
-1927 -611 -629 0
1511 1781 1725 0
-1745 1213 -100 0
-1910 383 127 0
1422 -995 367 0
-341 -1503 684 0
-1309 468 -1425 0
116 -215 -1318 0
-1436 1123 -942 0
-1709 -1134 -1567 0
789 -1988 1737 0
1171 -227 -665 0
-1928 -846 -145 0
611 988 999 0
-963 1580 -1306 0
-245 99 1994 0
-1795 -1880 -891 0
294 146 231 0
519 403 1420 0
-705 -655 -106 0
-1125 -1580 -645 0
-1396 275 58 0
103 -1320 133 0
-477 -997 1800 0
1556 1487 -1573 0
985 967 305 0
466 805 11 0
650 1236 -179 0
789 -1677 -1223 0
-1696 447 -1818 0
1090 198 35 0
1035 -1411 1274 0
-1017 -84 1869 0
1542 1913 1351 0
1096 -764 -24 0
-2000 -735 340 0
74 1705 1636 0
-1265 -893 1330 0
453 -1448 -461 0
-397 837 1061 0
249 1557 1661 0
-1331 -1750 732 0
1430 -681 -1390 0
32 -1089 -695 0
1606 -942 -593 0
206 -1056 -1665 0
-1171 -733 -1640 0
-272 -1132 303 0
484 509 900 0
93 -1725 -134 0
490 1397 -1059 0
-845 -983 -1410 0
-81 1908 1224 0
1313 89 995 0
192 -1471 -953 0
20 1122 -1213 0
884 47 748 0
1261 -458 1464 0
431 -599 1701 0
-1632 764 -1598 0
445 1818 405 0
-1366 851 1715 0
1374 -699 -131 0
746 727 -1556 0
-1248 -1187 557 0
-969 291 1198 0
1220 771 -284 0
-1435 1522 -203 0
-1382 -1561 409 0
78 -314 -1515 0
-1364 1938 -1018 0
-989 -50 1996 0
-724 1477 1089 0
586 -138 -1204 0
-1258 -624 1632 0
874 1100 -475 0
1531 -190 1432 0
428 522 768 0
-838 -268 1204 0
1028 1079 -138 0
-1026 1084 -665 0
612 970 912 0
-1403 117 1351 0
991 -707 1176 0
-368 -1582 57 0
1268 -571 457 0
-656 136 1873 0
-939 -812 1626 0
-1433 -1330 -1424 0
-1264 151 1646 0
-1297 -240 1661 0
1111 -1912 356 0
-1043 1922 1954 0
-665 -1101 1361 0
743 1346 -1429 0
-579 587 -606 0
1679 -1333 1476 0
-834 626 -837 0
1424 335 -616 0
1687 -838 -610 0
-1157 -1679 -1599 0
-531 -1958 -501 0
-252 221 1708 0
-1577 -22 1845 0
-1462 -124 -1853 0
116 433 -1668 0
-795 505 -1910 0
91 1972 -376 0
1363 782 -1987 0
1934 668 1492 0
-375 -1150 1952 0
-80 106 1477 0
-1115 -29 -727 0
1659 40 1494 0
1692 1550 1718 0
1969 -558 152 0
476 792 1567 0
-1961 1532 714 0
417 -1660 590 0
-1654 138 -1080 0
546 -851 -240 0
1697 1497 1753 0
-992 -1620 732 0
626 1496 -583 0
-1625 1349 -1815 0
1983 882 1499 0
1962 -1412 297 0
-1843 -458 302 0
-73 -332 1673 0
-215 -495 1239 0
-165 -1863 -1676 0
-152 1249 -443 0
-997 1750 1428 0
-1714 381 1432 0
-28 1346 1510 0
1317 -517 1117 0
-326 7 -1063 0
-837 674 -188 0
716 -696 1743 0
-736 1023 -507 0
1176 -606 -444 0
-1799 1908 -398 0
528 245 -1158 0
558 1767 1711 0
323 -1952 931 0
-740 393 1175 0
1498 -1873 1107 0
1055 545 -1689 0
-139 -392 1784 0
1698 -686 664 0
1112 -881 -1954 0
981 -1381 245 0
107 -496 -506 0
264 -295 -50 0
-631 -616 1338 0
1721 723 1382 0
121 1718 -953 0
937 -615 1858 0
-1839 -360 -358 0
-187 1334 1779 0
1746 -1643 789 0
-1225 -29 -1749 0
-1901 100 745 0
-1579 272 1907 0
-1031 -1999 1293 0
1395 811 -1600 0
428 -121 -251 0
-1209 1971 1605 0
-140 1912 13 0
-337 787 1488 0
-1082 966 1309 0
18 1979 -1767 0
1577 -1157 1024 0
352 -696 -1995 0
-490 -100 -1178 0
799 648 -379 0
-1612 -1083 1787 0
-957 1578 1308 0
310 539 -617 0
-443 1483 1671 0
-1240 1914 115 0
-909 907 -1123 0
555 1946 -729 0
-1645 -1487 -691 0
153 616 100 0
1542 -772 519 0
-1419 323 -62 0
-419 -951 613 0
1858 472 -1167 0
1517 -1810 1389 0
-987 -1216 946 0
1975 -1047 521 0
1381 -610 -266 0
1147 -1608 1623 0
-616 -387 -822 0
30 -885 -1812 0
-1082 945 -1610 0
1279 -1320 -1366 0
-175 894 -1261 0
496 1084 1456 0
-1873 -384 -1114 0
755 -1621 641 0
-1177 1514 1608 0
853 -874 193 0
706 568 1585 0
-250 -305 1184 0
1276 -513 568 0
1058 -948 -720 0
-573 -233 499 0
-1013 -705 1644 0
-768 -1476 -1344 0
-1962 1389 1829 0
-563 231 1330 0
746 300 -1305 0
-608 1978 1762 0
-1240 -1799 1592 0
-506 -1397 -885 0
-1876 1460 -1844 0
1700 1266 617 0
442 -1328 -1556 0
1220 265 357 0
-1905 863 1653 0
1198 1886 -835 0
-231 -1111 125 0
-1634 -1498 241 0
-929 -1101 1906 0
-312 353 756 0
-667 -507 946 0
1746 -898 144 0
-511 -1545 1245 0
-85 -1689 227 0
-1855 -424 1162 0
-636 -1791 1216 0
-1509 -1847 -1237 0
1621 -334 -1910 0
1096 -1236 -500 0
1399 556 145 0
1030 -6 1470 0
916 -1319 1536 0
-1538 -779 -529 0
-144 1580 4 0
1882 -1584 1721 0
-708 -571 -131 0
952 802 -177 0
857 -160 444 0
-128 284 -96 0
1137 1227 1571 0
-1779 -74 -429 0
-680 -992 -413 0
379 1494 1793 0
817 727 763 0
1068 383 1763 0
1316 -1519 -479 0
-318 -1106 -1469 0
220 -348 -3 0
679 1268 -1166 0
-729 657 920 0
-1480 -582 1492 0
1428 1236 1130 0
1020 -1375 -1893 0
-1533 1781 21 0
-238 -272 125 0
482 -933 1856 0
-1318 891 -1537 0
1552 556 -1547 0
814 1789 1284 0
431 230 -1928 0
268 -1773 753 0
1767 -57 1940 0
-1037 1821 311 0
-629 1891 -321 0
1330 309 1790 0
-1935 -81 581 0
723 -75 1234 0
596 1228 -1181 0
1827 -271 -1243 0
-1888 341 1369 0
1974 -51 -1414 0
426 -1233 1411 0
-1132 -1991 297 0
-1569 -449 530 0
-1811 -1791 -64 0
-423 -1888 -1989 0
1344 -652 1293 0
-1362 539 1343 0
-1497 -452 -1021 0
787 -310 929 0
-105 -346 -1394 0
-1472 1650 -1365 0
1378 1109 -384 0
-1556 222 -1378 0
-1436 1166 -121 0
1396 255 -245 0
-1996 -1118 214 0
-1370 1147 -1704 0
-558 -157 1595 0
-364 1892 -1782 0
-503 -340 984 0
1619 1453 -1223 0
1593 1212 -286 0
-1889 -42 1014 0
1995 394 -943 0
66 -1475 343 0
-260 -203 1769 0
1192 1433 669 0
565 -1891 -1666 0
-1184 -509 472 0
11 -1039 1245 0
649 574 -1443 0
1426 994 46 0
314 1393 1077 0
1522 -1604 656 0
-588 -1953 -1305 0
-1332 -606 -307 0
403 1624 1729 0
461 -512 -1304 0
1013 -990 1771 0
1500 1856 1851 0
-1197 -1722 981 0
1008 354 -121 0
-1971 1909 -1152 0
392 -1204 812 0
503 1343 428 0
904 -852 -1160 0
77 -168 -245 0
-1954 302 815 0
839 178 -1327 0
1264 1219 681 0
1532 224 -200 0
-1937 784 966 0
4 1521 1668 0
-560 -1641 907 0
90 -1933 812 0
1214 -1427 911 0
-775 -471 -1947 0
-383 -622 -337 0
1442 -1321 -1935 0
167 20 1719 0
419 -465 673 0
-1278 367 990 0
-1161 -63 -840 0
-742 -452 150 0
-1357 -254 -1247 0
-1057 1693 -1846 0
-763 -1969 -953 0
-1771 -413 -458 0
-152 769 -940 0
1631 -479 -1052 0
-541 100 -324 0
-1996 -1432 -1990 0
-571 -821 1597 0
592 1089 -1894 0
-511 -57 -424 0
-1965 -439 1479 0
-1618 -1249 -440 0
-1943 -1002 -1092 0
-870 1422 -919 0
763 -347 1906 0
1782 1046 -1470 0
-1528 -825 -1168 0
-1143 834 254 0
-1685 -878 1664 0
-1486 748 434 0
-752 -107 551 0
1918 -903 -665 0
158 -1159 462 0
1195 1241 -605 0
-1465 1706 1244 0
-28 -1530 -548 0
1212 1142 1074 0
-1920 -1959 1127 0
1023 1555 709 0
-1443 491 -1019 0
769 1730 -131 0
-780 694 1896 0
-137 304 -1201 0
882 28 320 0
1700 494 789 0
-1719 1005 -1258 0
-1036 -385 -1223 0
-946 -1945 242 0
-49 -1706 -1949 0
-470 1383 -1477 0
-385 371 -260 0
584 486 1338 0
1412 -1269 1043 0
-472 -433 922 0
-1534 -46 394 0
1630 -697 -835 0
-1565 805 -405 0
500 1142 -1965 0
-1092 243 751 0
-1789 -1103 1849 0
-712 1683 207 0
-176 -1777 1985 0
778 -1128 -1161 0
-527 626 -1825 0
1767 625 -297 0
90 -384 650 0
-692 -1323 -139 0
1990 1979 979 0
1508 464 -656 0
-1036 -524 628 0
1549 1686 -680 0
976 -881 -1693 0
-1055 -948 -839 0
1618 -691 1914 0
1227 -847 893 0
576 -1736 923 0
-1356 1539 1670 0
-1151 -645 489 0
498 77 1407 0
924 193 -151 0
-907 -950 -118 0
-31 -906 -585 0
-73 -951 1581 0
625 858 921 0
-1675 1432 -609 0
10 -636 -1311 0
1510 1155 -591 0
826 -1761 1535 0
-1438 -489 430 0
1042 -1901 -1754 0
1502 1216 1710 0
-845 -1020 1032 0
-1315 998 -776 0
-1937 1787 -1828 0
-1730 898 684 0
636 1985 1368 0
1957 -208 798 0
-983 -1589 -1911 0
-1650 -1356 881 0
1258 -1854 1803 0
732 1770 142 0
1092 1227 892 0
-1616 -1379 235 0
-1898 1007 -1436 0
767 -838 126 0
-1718 -516 -1968 0
-853 -186 1171 0
1431 -1332 137 0
484 -1756 -1853 0
-1480 1043 423 0
-174 686 1526 0
-51 1440 -893 0
-465 1126 1364 0
1881 244 -1345 0
348 205 -1251 0
-1776 -1421 443 0
1904 207 -1424 0
1356 -1855 420 0
-467 -1844 1593 0
729 1550 997 0
-764 566 -311 0
43 944 -1716 0
1772 52 1479 0
-536 451 1685 0
-596 -716 322 0
1403 1995 1901 0
-1655 -270 883 0
-1783 398 -121 0
1879 -536 -1232 0
-1217 1636 -537 0
1423 97 931 0
-143 -1689 -575 0
-1722 -39 495 0
-1502 -1386 -660 0
-763 1587 255 0
-1858 -611 -61 0
15 -1772 1409 0
1842 1805 83 0
-252 -932 1450 0
-987 -998 1695 0
-1502 1739 937 0
1963 467 1664 0
1946 625 1727 0
-63 -1901 30 0
-891 804 -635 0
1333 1914 394 0
-1398 -1640 -1964 0
1436 1902 -133 0
935 -50 -842 0
1384 -1251 -1745 0
1518 543 -712 0
615 1525 1944 0
-1970 396 268 0
1442 511 -310 0
-340 -160 -1664 0
1080 -1832 1619 0
1541 978 587 0
-1306 452 -1064 0
959 830 393 0
1726 -897 1153 0
-1963 -694 1894 0
-529 -1971 -1855 0
-1389 183 534 0
-1161 -1749 1575 0
-882 -760 -255 0
-679 -1312 -1513 0
240 350 -498 0
-842 -285 -1741 0
1259 231 683 0
777 -1585 -568 0
372 -1519 -1880 0
1396 456 -1511 0
-1559 -1741 1520 0
300 386 1029 0
-497 789 1632 0
-99 -208 1769 0
-881 -1700 1780 0
1751 154 1913 0
-1884 -1579 -1947 0
-659 1338 430 0
737 384 1059 0
-1941 898 -542 0
-430 -925 -1842 0
-321 1285 -172 0
1868 -28 632 0
1636 -851 -767 0
-707 -426 1902 0
-317 -382 219 0
-1014 1353 -1265 0
-454 1301 562 0
214 13 1973 0
-1020 996 695 0
-1375 -676 132 0
27 198 -1546 0
609 1997 -564 0
1239 -278 1349 0
1333 1747 1085 0
1126 -1047 -1074 0
22 -1632 256 0
83 936 1167 0
1633 -1509 474 0
-883 -585 271 0
1365 -1289 267 0
835 1362 1334 0
-1989 -417 -19 0
-1188 1052 390 0
463 322 -1478 0
-525 -1820 1410 0
1524 987 -297 0
165 -399 32 0
-1768 1506 -1479 0
-1625 -274 840 0
-782 -619 -1998 0
-485 1856 1765 0
932 1294 -1666 0
549 -1621 104 0
544 -1444 1857 0
-562 987 -33 0
-62 1445 358 0
1582 -1609 -601 0
-1798 -1196 -866 0
-1184 -1250 -1218 0
1669 879 1477 0
827 157 41 0
-1105 -1863 1059 0
824 206 -48 0
-805 1616 29 0
-119 480 428 0
-113 920 1727 0
-537 -246 1917 0
-1676 -272 273 0
-1707 -786 -796 0
464 1954 -289 0
1873 301 1301 0
1787 -1543 1107 0
-1523 -899 -277 0
-1777 309 1946 0
1821 85 -39 0
-683 -684 -291 0
-436 385 -1309 0
-818 431 -723 0
508 1271 -1227 0
1403 789 15 0
-294 -214 -1223 0
-349 -623 -92 0
1397 -247 -324 0
1619 1090 626 0
621 600 863 0
1774 -1734 -626 0
1083 -558 -422 0
-1682 280 2 0
1458 723 -603 0
-829 1929 1337 0
479 -1053 1124 0
-455 202 452 0
1849 -797 -562 0
1511 -219 1903 0
-769 98 -1306 0
1805 1540 -608 0
-1337 806 -265 0
1465 591 653 0
-1476 -1345 -528 0
-408 571 326 0
1908 218 -72 0
-1303 312 1684 0
651 408 -1780 0
664 -179 1415 0
1943 401 -1242 0
890 -182 1148 0
-1214 428 -944 0
879 -1694 -214 0
1611 1405 -1551 0
1286 640 -330 0
1036 -1435 -284 0
-43 1310 272 0
653 -949 675 0
1285 -1505 -1716 0
1516 1430 -1661 0
349 -15 455 0
-440 347 780 0
-1114 -1636 -354 0
867 -1161 1997 0
-838 -1831 1666 0
479 241 1659 0
278 1583 1396 0
693 -326 -4 0
629 1105 -955 0
382 1005 -477 0
719 -601 1575 0
-1481 482 -654 0
1150 -1307 -1365 0
1453 -1082 -1821 0
553 16 1236 0
-1704 412 -499 0
-1750 -1717 1817 0
1215 -39 -1796 0
34 -1970 843 0
-320 150 -806 0
802 560 -1377 0
-42 1552 -682 0
-927 827 -1037 0
-1559 -1039 1261 0
-453 1042 -1870 0
1502 1501 1439 0
-562 1865 -1648 0
-1377 612 -690 0
-1184 -281 -1893 0
-983 982 831 0
-845 1377 1864 0
-947 -1672 -1251 0
1152 -1449 1132 0
-18 -1159 -1739 0
803 -1194 1011 0
79 1490 343 0
1589 27 -1785 0
-515 -848 -451 0
-342 772 1902 0
804 -1708 -1861 0
-1451 -1245 188 0
-515 -956 1743 0
-1806 -630 1328 0
501 1518 1271 0
1852 -400 -1242 0
-1636 1132 1201 0
849 -65 341 0
-1188 1331 912 0
508 613 1031 0
-1110 -1915 1616 0
-137 1203 1358 0
-36 1103 591 0
166 1330 -604 0
-553 -628 90 0
749 1358 -1570 0
-407 281 1247 0
700 -1960 -1768 0
435 1460 -1689 0
-1173 -1167 1747 0
-342 1002 983 0
1488 367 1615 0
-95 249 -1431 0
1810 -661 1264 0
811 1138 1322 0
700 1618 -854 0
445 586 917 0
1262 1143 1821 0
275 -288 323 0
502 -1447 1253 0
-736 42 35 0
-464 690 -446 0
-709 -1645 -397 0
1971 430 -387 0
-873 -1364 -1783 0
1997 -88 269 0
648 -1846 -374 0
-329 1943 -603 0
143 -1918 -151 0
1792 1795 1936 0
-1143 -155 -1867 0
-1246 586 445 0
1709 740 6 0
-934 1047 -832 0
-1603 458 1678 0
-722 755 -1841 0
1452 713 1665 0
875 -1863 1352 0
1882 -883 -1871 0
-942 512 1774 0
-1138 -1427 1430 0
-110 85 958 0
999 1099 -919 0
-441 787 -1847 0
1115 -1643 -54 0
161 1079 1913 0
1379 -619 -719 0
-722 1785 -1667 0
1026 -1040 -145 0
-297 923 -971 0
1729 -1612 55 0
1040 1469 888 0
1852 583 -731 0
-1901 -357 -840 0
-1552 -344 -866 0
-469 -268 1409 0
-646 -660 -911 0
-587 1309 467 0
-1508 -1469 667 0
193 469 -493 0
1858 -1293 -629 0
1436 1375 196 0
1511 33 -1160 0
494 1450 1461 0
233 274 -1289 0
1963 1429 1968 0
956 335 -526 0
-961 79 -453 0
432 -901 1982 0
1787 1989 -286 0
-1405 -1935 1534 0
162 1421 210 0
-440 994 1839 0
771 -101 -1127 0
-231 -634 91 0
-826 1090 1698 0
1901 -911 -391 0
-906 -704 859 0
1427 -689 1113 0
-1989 -1075 -1070 0
-1629 -199 1326 0
-549 605 -1191 0
-27 553 -298 0
1382 -818 1841 0
66 1950 365 0
48 764 -1744 0
-1218 790 947 0
585 -1386 1322 0
1023 -1869 -307 0
-991 -672 1834 0
-577 722 968 0
-1871 -144 1740 0
1731 -536 1930 0
12 -1566 -560 0
586 -393 615 0
8 -1902 1613 0
-1502 1714 390 0
-1896 -286 927 0
680 946 682 0
-776 -594 595 0
-346 -310 1735 0
-933 1519 -850 0
-133 1457 123 0
-668 -564 433 0
-768 1099 1911 0
1500 1558 -969 0
1207 -403 1091 0
-1720 999 1642 0
353 395 -585 0
-1123 -466 1771 0
-1674 105 431 0
-1685 1667 1291 0
-710 -1763 -737 0
1489 731 1645 0
225 -327 -1878 0
-468 1356 -1443 0
-1440 -984 -514 0
-416 1932 1630 0
-294 1125 -1731 0
-431 -495 1864 0
766 -39 1281 0
155 456 1188 0
-1782 1064 -537 0
-456 942 734 0
233 -1710 -1311 0
-1333 -148 -258 0
1241 -1732 1214 0
522 1350 92 0
-1065 198 1863 0
-1789 -99 156 0
-750 621 -21 0
331 -1723 -482 0
-162 835 155 0
72 -971 1239 0
-1456 -860 1634 0
1594 -1930 -131 0
1097 77 -1072 0
-743 -1978 -1501 0
-1713 299 -1063 0
50 -1742 -301 0
24 -320 887 0
1946 -1296 -100 0
1974 733 1347 0
1297 -438 -1492 0
-1928 1711 -1728 0
-1476 546 -1002 0
719 270 -1366 0
-1855 1255 -1067 0
-1926 1616 -852 0
709 -1582 -935 0
-481 -1027 -1316 0
-154 1040 -799 0
-1701 1949 469 0
345 -1480 243 0
-131 -54 -209 0
-1372 -473 108 0
-364 1828 -438 0
-86 -1377 -1011 0
524 645 1164 0
1742 -971 1221 0
838 4 -1798 0
193 1076 166 0
-1264 658 1231 0
235 -1025 264 0
-97 268 -1349 0
-1531 -1155 1733 0
-177 1329 1960 0
218 408 1766 0
-42 148 -1675 0
726 -578 1027 0
1677 -859 -1264 0
-1726 1733 259 0
-1124 1959 428 0
1276 1331 1093 0
-1500 -524 1712 0
1928 -1785 87 0
-1520 894 -1612 0
-854 -465 -1854 0
-1376 1407 1244 0
-1511 -411 1027 0
-1624 1616 1292 0
451 -1676 1719 0
384 -398 1476 0
1340 1212 -1616 0
-748 -1824 -274 0
-870 -1420 -1762 0
-113 1460 1028 0
-1416 650 -767 0
-1638 -320 894 0
-976 1395 1518 0
-1427 1051 -899 0
1420 -315 480 0
-244 1647 54 0
964 -1866 -414 0
-1764 428 -43 0
1918 535 51 0
-794 -711 -1157 0
-1088 -1296 -1107 0
-1205 1743 -1889 0
-749 -1708 -219 0
1552 499 651 0
-380 -1235 455 0
-1008 -1269 239 0
1777 1637 -1038 0
892 -1178 -1875 0
-532 -461 -1206 0
-1380 349 449 0
-1250 -1266 1078 0
1480 1344 533 0
-1551 -1957 1689 0
-893 1402 -1403 0
1420 1797 -1395 0
-684 -14 -870 0
1683 -1315 883 0
186 -744 -1492 0
-1310 -1069 -1194 0
1474 -825 30 0
-1181 1367 351 0
752 1931 587 0
1495 1067 -1775 0
-1897 -1107 -1888 0
1606 -534 1402 0
-18 1853 792 0
-1187 72 -251 0
885 -408 1900 0
350 -1893 429 0
977 1158 1073 0
-342 -1649 -1301 0
1209 1379 977 0
1713 405 1763 0
510 1359 -719 0
-1224 926 1564 0
-797 1193 1060 0
-1093 -1885 -746 0
-959 159 -581 0
-1486 -1018 -997 0
169 -1243 -643 0
-732 468 1863 0
1982 -1977 -1896 0
1303 -1656 -1233 0
853 1257 303 0
1318 71 139 0
1292 1142 -568 0
410 -1099 -326 0
1281 1355 1610 0
-879 -904 1193 0
201 -1950 1544 0
-750 1319 753 0
-1071 -21 -243 0
-1806 1384 -750 0
-423 1120 -773 0
1680 585 -1139 0
-758 -2000 84 0
-292 -389 146 0
-1236 -236 -1435 0
-425 -1268 274 0
1144 375 938 0
-310 1552 -1211 0
20 -62 232 0
-439 -966 -865 0
-896 -1156 630 0
919 -1209 -567 0
1791 -1777 -829 0
150 36 816 0
-1523 -90 1511 0
835 -1906 139 0
876 -1936 452 0
510 -669 1227 0
-467 718 1395 0
164 307 404 0
1355 670 -1009 0
-1603 1127 -1812 0
-568 126 -103 0
1788 1394 -398 0
704 -437 509 0
-586 -1105 -1471 0
-911 -274 -1196 0
-798 -1895 -189 0
1772 -163 -1889 0
1298 -382 -1725 0
-348 1013 -1730 0
-294 -1372 1331 0
652 1623 -570 0
1159 -107 -1411 0
-552 -741 -1831 0
1192 -18 1140 0
-994 339 -222 0
443 1706 -1206 0
-335 -81 -1979 0
742 -1073 367 0
-711 1935 -580 0
1324 1627 522 0
-175 1841 -1008 0
-458 1779 550 0
391 -117 1707 0
-845 -1252 -283 0
1656 699 1098 0
-452 -1510 354 0
1981 1754 119 0
670 -1678 1133 0
-1698 384 -236 0
1928 469 757 0
-1249 1878 -641 0
1115 -1831 608 0
559 -1553 -1859 0
1828 1917 543 0
-365 -1214 1664 0
-328 -232 -1307 0
121 -1833 -1766 0
-803 559 -473 0
-1673 1009 -1927 0
-1257 -421 1968 0
128 765 -129 0
1950 -917 397 0
1722 1044 863 0
1747 1522 -442 0
-690 579 -1223 0
832 -593 854 0
-1342 -1215 -646 0
-1640 1500 -1867 0
1713 445 176 0
118 1938 -905 0
1761 1218 -1610 0
-1922 691 309 0
-441 293 -104 0
1179 531 1263 0
-1169 8 1502 0
699 1692 1724 0
1237 397 -1587 0
-1887 -861 252 0
-1485 413 1623 0
1031 -589 -80 0
-1527 1820 832 0
1520 34 -1554 0
505 -955 1797 0
-1726 445 1448 0
1833 357 -1182 0
-68 1609 492 0
1807 1323 -1446 0
-90 1056 141 0
-193 -83 -140 0
535 122 320 0
1731 -1416 203 0
-1466 1111 -1583 0
61 -1593 -1322 0
576 1014 -433 0
43 345 -770 0
418 -617 -572 0
502 -1617 -133 0
-977 420 -1557 0
-1290 600 676 0
1755 1662 999 0
1165 1678 615 0
-1423 135 -580 0
-289 -576 -1831 0
-443 1239 -1502 0
-67 1051 -1232 0
1991 -741 1712 0
911 -170 -648 0
1431 -688 -1333 0
498 531 -1876 0
-881 236 525 0
1288 -192 -765 0
1785 68 501 0
1859 881 690 0
1429 296 -553 0
1854 673 -1210 0
815 -1891 -14 0
67 -1864 -618 0
-1050 -1057 -304 0
1217 -1682 1033 0
1499 -1446 -1150 0
-1392 31 -1100 0
-1502 1883 -820 0
-1897 -542 952 0
-1908 -1084 -967 0
-1659 -505 1273 0
1494 -1668 832 0
1644 1711 -347 0
-307 154 -1250 0
961 -645 -204 0
-1666 858 1355 0
58 -1746 -641 0
-1683 1812 334 0
-490 -1413 -731 0
-1220 1216 -1854 0
151 722 -361 0
-1454 477 -1164 0
-130 39 1797 0
1438 1752 -963 0
-1722 -96 239 0
1354 774 456 0
679 -764 -215 0
1031 1150 491 0
-48 1500 1890 0
860 -1809 -391 0
1331 -353 -1953 0
-474 -1673 -415 0
807 1839 -1148 0
-560 395 -503 0
-705 1437 -1097 0
-944 -1311 1351 0
330 895 269 0
-464 -1446 820 0
-938 432 -1312 0
1347 -724 -112 0
-1049 143 -1843 0
1117 -1009 -923 0
-1422 991 1183 0
-1047 1072 543 0
1050 -1989 -1633 0
796 -1837 1561 0
-1355 847 -777 0
1647 -1632 523 0
-216 1919 -1600 0
415 -1329 -823 0
-65 1291 -1063 0
1611 -1055 695 0
-1419 -1108 1760 0
-1335 1427 -1061 0
-1794 -27 1539 0
-1526 -1293 851 0
483 -78 -582 0
-943 -996 -793 0
822 303 -1241 0
698 -1355 -1908 0
-1975 -1194 973 0
-362 1928 1075 0
614 -101 -578 0
1819 -934 -69 0
-1266 -1182 1797 0
964 1522 719 0
1421 451 1084 0
1256 -1428 -1240 0
-1056 52 280 0
-1699 -1199 426 0
-1774 -666 1619 0
1217 1085 1189 0
-451 -1832 -679 0
385 461 -576 0
-685 -530 1319 0
552 1661 -275 0
986 1704 1838 0
1816 229 1780 0
855 -1972 1256 0
1716 567 303 0
-1675 -1698 -860 0
29 -1092 1446 0
664 828 -1643 0
577 682 -1606 0
745 58 1178 0
-1438 -828 1647 0
-855 -380 -1130 0
1332 207 1653 0
-1450 -728 -313 0
-485 -1663 1811 0
295 353 783 0
93 -1301 -868 0
-4 -313 -727 0
-1985 -190 -579 0
135 -161 188 0
-1107 730 -321 0
1367 1608 -706 0
918 775 -368 0
-1155 698 1150 0
-1861 1590 -1287 0
-1209 1951 507 0
1407 334 1805 0
1706 -1263 445 0
99 -883 -570 0
-323 1725 -45 0
73 -1375 -783 0
1049 1710 -1394 0
-1183 370 1323 0
1153 -1516 -792 0
986 -531 -1504 0
1879 867 796 0
231 1898 -259 0
423 -1039 1487 0
-542 866 798 0
133 328 -1849 0
-692 1541 725 0
350 943 -642 0
-353 1622 781 0
-166 1226 1817 0
384 1937 1871 0
-553 -1087 -796 0
9 1603 -651 0
759 1097 -1059 0
-1283 -1943 221 0
1832 628 -1324 0
-1873 1637 -1801 0
-1660 -563 1832 0
1450 396 -1491 0
-1721 -1134 -21 0
-1925 21 -338 0
-745 924 -1115 0
-908 1082 1607 0
660 -1984 188 0
1556 1411 839 0
-654 333 -442 0
1139 266 25 0
1793 -118 1219 0
579 310 -1295 0
192 337 -1740 0
1423 -1888 1139 0
-413 1317 266 0
-1957 464 -1386 0
1281 568 -144 0
-919 -1358 -1636 0
884 633 -593 0
335 -1052 348 0
-38 -1715 54 0
-838 -882 1341 0
-179 450 1558 0
1721 1084 1639 0
-911 -947 745 0
-1363 1480 -358 0
-217 -718 -646 0
1497 1858 581 0
-256 -1592 1627 0
824 -862 1093 0
-1962 -188 138 0
958 -1270 1296 0
944 19 1497 0
-751 1295 451 0
-1301 -1514 -744 0
1122 -1937 -1093 0
1700 -79 -556 0
1987 1408 -1708 0
-1572 1232 -657 0
1880 936 839 0
-485 1905 1247 0
-1810 -1633 1277 0
-1098 1489 -873 0
-81 1776 1258 0
-706 616 -1372 0
1738 643 -1829 0
644 -1574 612 0
-1094 -1595 -1391 0
-1956 -676 -1327 0
834 -776 1714 0
959 -1027 1900 0
-1320 1001 -1377 0
-900 -872 -1768 0
-970 937 578 0
1866 1028 603 0
910 -1178 -43 0
1766 -795 -1328 0
-1641 -1789 1812 0
-1586 -1405 519 0
-1825 236 -1580 0
-83 690 1110 0
244 683 -63 0
1456 -1846 1095 0
-713 527 -1707 0
-377 -1283 -1537 0
314 -717 -1741 0
-1104 954 -582 0
854 -853 1149 0
1714 -844 -206 0
-741 -1811 -670 0
1616 -927 -729 0
319 1388 -1430 0
-630 -1331 250 0
470 -1269 139 0
-1896 -621 1445 0
-313 -1485 -1353 0
1216 -1699 1732 0
523 -555 74 0
403 992 -358 0
468 -1236 1154 0
1584 790 -738 0
-1594 -118 603 0
1634 706 593 0
1008 -347 -793 0
220 -1303 1272 0
665 -1078 952 0
-1261 -933 413 0
-702 -1578 -315 0
1879 -1128 -1558 0
-1824 -1220 -1042 0
-182 -915 -1282 0
-1236 239 1963 0
925 -1687 -886 0
-281 1547 1516 0
324 -1987 -8 0
-1260 -31 821 0
-435 1198 1732 0
-1573 -298 1694 0
-120 1327 357 0
-309 1242 1894 0
1912 778 1084 0
-664 1159 139 0
1508 -827 1354 0
407 -1599 -287 0
-1634 1933 -846 0
-1167 -1129 -416 0
-865 -986 -1311 0
-900 1194 998 0
223 843 1778 0
-1456 -364 -686 0
-1104 -1743 -1165 0
-726 992 -589 0
344 80 121 0
-231 275 -208 0
1467 1463 -1683 0
1578 -977 1205 0
-662 836 751 0
1368 -1466 347 0
-1399 -1935 -308 0
-154 1560 -659 0
1574 15 1350 0
-19 1905 -978 0
-238 728 894 0
1275 1155 129 0
-386 -833 -1506 0
-579 -730 1096 0
-858 428 536 0
-1652 958 648 0
1455 1656 1786 0
820 -1676 -1650 0
-8 -428 1898 0
1316 -1442 -727 0
1837 1785 -458 0
1203 293 -308 0
489 -1828 -500 0
635 1968 -794 0
-1472 -1102 793 0
-1804 -1833 1229 0
-141 1043 -680 0
-678 499 -242 0
-1533 834 129 0
-1105 -1517 1509 0
-1954 -1645 -16 0
58 1554 1719 0
-925 -1503 1920 0
152 1309 1161 0
-111 -667 990 0
386 -1015 -1330 0
857 1932 -1714 0
-805 79 829 0
-154 -628 -1768 0
298 1278 -568 0
-1481 -1557 1240 0
1125 75 619 0
-53 730 -1339 0
-433 -290 -1141 0
1622 108 -1299 0
1611 -1973 -1096 0
644 868 -1797 0
-1544 1598 683 0
1051 -1471 562 0
1678 -1361 -1115 0
-1824 1507 1897 0
-1386 -1180 -1147 0
812 -484 870 0
-521 -1558 1005 0
1778 -525 -459 0
-90 1297 1173 0
184 1559 -1375 0
1775 232 1988 0
1826 1909 -378 0
-453 -264 -1441 0
-610 -1582 -283 0
-46 -1967 1754 0
527 861 1191 0
673 202 1295 0
-835 -499 1530 0
-1650 1844 1865 0
1492 -1070 499 0
-197 -1202 1649 0
1797 -41 -756 0
-1514 -1537 -792 0
-1245 544 -41 0
1025 1785 938 0
-1248 1883 1463 0
43 -1485 766 0
1007 775 20 0
1992 801 -847 0
-1937 -430 1663 0
-282 817 -8 0
217 1277 593 0
-1635 -136 -3 0
788 -816 -1272 0
385 1555 -1628 0
1879 -1169 235 0
322 545 -1347 0
353 -333 -1463 0
-119 467 94 0
745 1908 -1239 0
-1039 702 1067 0
-1864 882 1029 0
1669 1815 824 0
-1208 -741 -1141 0
1075 -153 -938 0
1433 1137 -1964 0
1816 971 -345 0
1679 -1043 -194 0
-1867 -1079 -1424 0
854 -1746 -1237 0
-576 -1087 1237 0
656 1126 -1489 0
-195 -834 -566 0
35 466 -1792 0
533 -885 1414 0
942 374 421 0
-1644 -1263 -539 0
-540 -928 47 0
-737 -1922 937 0
1930 1161 1763 0
-277 439 -1112 0
1990 1540 -943 0
-917 1958 -373 0
811 -407 1546 0
-1198 474 86 0
-684 -1489 583 0
1856 1093 -1130 0
-1793 1896 766 0
-468 1093 -1773 0
-1878 -1462 -517 0
1066 -922 1887 0
-899 -823 -1159 0
-1256 282 702 0
-144 -189 -1494 0
1280 1858 1220 0
1302 1048 -138 0
25 -731 1063 0
-901 1268 1230 0
698 -884 -717 0
1995 572 1217 0
1722 1930 -899 0
1369 1983 -1815 0
405 1841 -490 0
-642 -352 -732 0
-204 -1429 888 0
-1118 639 -125 0
185 788 1120 0
-647 -1341 -1922 0
-1245 1346 -71 0
-1708 1333 949 0
1406 -1745 -1196 0
1431 -1174 -216 0
414 -308 -679 0
-349 -821 -929 0
729 -1698 415 0
-941 -890 -1153 0
-323 426 45 0
141 1851 -313 0
1426 -1481 630 0
-738 -944 -1546 0
159 -180 189 0
112 -44 1418 0
-1378 211 551 0
-1595 990 -518 0
-1719 1318 1125 0
-396 237 -656 0
-901 799 -1540 0
-1418 -348 -184 0
-1442 -1026 1317 0
-1768 -1233 272 0
-1354 1608 -379 0
978 -1967 761 0
1657 -170 -440 0
-488 -1616 1598 0
1760 1004 -1522 0
817 647 971 0
712 1176 -367 0
1258 -1565 1174 0
144 -1660 -868 0
-1276 431 -536 0
-1448 -1894 1453 0
944 563 -605 0
-989 -1576 -988 0
-1688 -1360 1510 0
-1886 1439 -1961 0
813 -1211 376 0
-582 1767 -1022 0
-1647 -964 854 0
-1113 142 -1648 0
-1191 373 -1770 0
511 -463 548 0
221 81 310 0
-1674 -1861 609 0
41 1827 -343 0
1015 -1176 950 0
-355 -744 -1082 0
1798 413 1114 0
-1803 1564 -881 0
-608 -762 1174 0
1502 -529 934 0
-1252 890 505 0
-68 -1379 -721 0
1134 265 -326 0
-743 -907 -1106 0
-1712 -1019 -1109 0
189 1059 820 0
-1129 -766 18 0
-779 -1941 1432 0
241 166 131 0
849 1406 -1798 0
-416 1535 1484 0
-219 -1090 -1287 0
502 995 1631 0
308 478 583 0
-960 1462 1976 0
1639 1011 102 0
-445 156 -51 0
-1101 -667 -594 0
1888 1754 1486 0
-1772 525 1781 0
-789 -1856 -1481 0
-595 -179 1979 0
1675 1109 -1284 0
-1156 -1499 606 0
-1654 -1947 76 0
451 1897 386 0
613 -14 -690 0
1134 -1578 1667 0
1148 1825 429 0
1359 -631 1405 0
-1577 873 -632 0
1971 -1336 1033 0
-1372 1258 660 0
-821 -745 -1432 0
-944 1663 -606 0
1279 -1480 -1036 0
-1546 -1353 155 0
-883 -1037 -1610 0
-1494 1311 1603 0
-214 1879 1498 0
279 1725 -763 0
-246 -1736 -40 0
-441 1270 -1029 0
1850 1889 -1409 0
1528 -92 874 0
-1248 1970 -402 0
136 739 -1805 0
476 1517 -501 0
-771 1627 1468 0
1646 -1380 1523 0
1389 639 797 0
146 -423 -1951 0
8 1777 -854 0
842 -1489 1028 0
1287 -374 1232 0
-1569 -1478 333 0
1296 -1396 -854 0
1790 600 -944 0
1028 1986 -1327 0
726 -1968 743 0
-1606 951 225 0
-186 819 -582 0
1569 -359 -908 0
-1289 1089 -1646 0
1243 -911 -82 0
1815 1658 -161 0
1259 270 -1478 0
1983 339 695 0
-1255 1569 -1489 0
-682 540 1027 0
-1723 -634 114 0
1698 -1209 1659 0
-263 97 -1165 0
477 -545 722 0
1044 599 -564 0
-1986 -897 430 0
698 895 957 0
1769 -1232 1205 0
-1124 -1659 -1839 0
-134 1998 -662 0
1926 -1498 -252 0
478 -1711 1723 0
1326 717 -1600 0
-1446 1332 190 0
-1544 -12 440 0
236 1730 1196 0
-1146 -1827 -850 0
273 -918 -1571 0
-936 -1125 -1369 0
-1512 -74 1670 0
1698 -495 898 0
173 -451 84 0
-1216 -1337 -372 0
994 -1120 -451 0
895 1881 1330 0
-288 36 45 0
-252 1710 1354 0
1074 -927 230 0
-1857 -154 180 0
-66 -1912 -1031 0
-38 -1177 -744 0
165 -917 -1425 0
-92 -1182 -1014 0
-954 1721 1600 0
-1465 -127 831 0
-1660 161 -281 0
104 -567 -245 0
-286 1574 949 0
-453 -1735 1500 0
-990 -1951 402 0
-1104 -406 -1627 0
1234 -469 -1877 0
-1003 -1333 33 0
-78 945 -1610 0
400 -421 -261 0
86 -1384 -830 0
-1295 1148 335 0
1088 -1094 1541 0
-1988 1296 -90 0
-1884 287 -1829 0
-299 1022 -1194 0
1062 -1393 286 0
-1669 91 167 0
1495 1245 1834 0
451 1797 1969 0
-339 1477 -1900 0
1275 1836 -110 0
216 689 988 0
-1518 181 -1426 0
1091 884 294 0
-963 1375 1095 0
796 -449 -314 0
1466 351 801 0
-1897 163 -511 0
1601 -1628 1206 0
-60 -359 51 0
-1459 1202 -11 0
757 735 -1929 0
800 1239 -1738 0
1248 -545 401 0
1139 -633 1708 0
1060 1433 -1440 0
-499 475 210 0
453 -210 -1202 0
-969 -69 -28 0
-414 1709 107 0
1300 -697 962 0
1314 183 -748 0
813 1318 -308 0
1632 520 -918 0
1107 1501 -1886 0
256 -1110 -604 0
766 -1063 -521 0
-289 -1246 -1899 0
1099 1574 -1631 0
-1296 1995 -1528 0
-1059 976 -268 0
-7 -1279 1365 0
20 -1443 1202 0
-787 -1776 -238 0
-1255 -1641 668 0
-976 1284 1162 0
-154 -1273 -222 0
-190 -284 1962 0
1454 1995 1241 0
-228 1307 536 0
-1279 1851 1569 0
-1232 -140 453 0
1881 827 1616 0
-1785 1089 -1133 0
1953 154 746 0
-583 -285 -1978 0
-1994 -1578 -926 0
-1793 -1795 -1682 0
-1251 879 -624 0
-360 -583 -170 0
735 -110 804 0
-593 167 1125 0
-1269 -173 1216 0
381 -1205 -271 0
-1931 -1306 -1601 0
1973 -1179 -85 0
-1854 182 -1102 0
1258 -1576 802 0
-1556 -515 -1693 0
272 -23 1076 0
1237 -1256 -1456 0
807 -125 -701 0
-121 2000 1764 0
516 -566 1408 0
758 1218 -1439 0
-184 23 -587 0
-1173 1742 -1546 0
-483 381 841 0
697 1476 1411 0
-321 -1724 876 0
1453 -805 -460 0
-1342 1755 -1015 0
-362 1825 -723 0
-1223 -529 -1150 0
-1616 -1922 1264 0
-1012 -597 -873 0
-179 204 1134 0
-379 -98 1171 0
-1603 516 -802 0
-1754 1610 -1049 0
-1258 217 460 0
396 -1301 1696 0
-185 -1484 -1031 0
-1750 533 1425 0
1435 787 -734 0
-1548 1343 -1732 0
1940 559 -194 0
1409 486 -1320 0
1169 1056 1779 0
-1292 -1677 -780 0
-1971 1045 -1954 0
1682 61 390 0
854 -418 332 0
-1546 667 -172 0
1669 -110 -1259 0
1632 757 75 0
1212 402 761 0
-1121 -697 667 0
213 -1628 396 0
-1363 69 1538 0
1781 1873 211 0
-1735 1283 -85 0
1550 -988 -933 0
-1356 1431 668 0
-13 -1138 -1904 0
587 -1560 -1449 0
1885 1451 1597 0
-1083 -302 -158 0
482 -1677 837 0
-1334 1286 1024 0
926 1913 -133 0
-1605 -807 -138 0
-1150 343 -1396 0
594 -1648 324 0
1724 -832 -328 0
1082 183 1021 0
68 626 -1064 0
-448 1367 1575 0
-474 -1045 991 0
-1487 896 -521 0
-1598 -300 889 0
-819 350 -1335 0
-1276 -1187 -562 0
-103 272 -1482 0
1153 -749 -1949 0
-1909 -158 -1454 0
74 265 49 0
-373 -1090 -398 0
1363 601 -1887 0
-522 742 1663 0
1079 686 630 0
-797 -835 213 0
-358 577 897 0
-1967 1888 730 0
-1882 1606 -679 0
649 -1658 -680 0
-1802 1892 -383 0
-1568 774 246 0
1630 -662 -601 0
-994 -221 1991 0
-1054 -739 -1248 0
-1596 1967 -290 0
1711 -1627 1892 0
-410 386 -1164 0
437 -1840 -858 0
1451 -1172 -1719 0
-1163 -1368 -502 0
-732 -50 -1056 0
1341 -105 -1274 0
-64 1819 -1599 0
873 1746 -632 0
855 1705 826 0
875 1161 752 0
-644 1471 1866 0
-1812 -660 297 0
331 442 320 0
-252 1784 1309 0
912 536 -157 0
-1786 387 -1954 0
1946 -1033 1174 0
-734 487 1014 0
249 -1323 -1300 0
-1831 908 1014 0
-650 -691 -1593 0
-1416 1546 1474 0
1090 -1752 -89 0
-156 260 -1263 0
1483 944 274 0
-488 -1753 -933 0
-514 -1090 1013 0
1014 -1498 -488 0
-373 1551 -528 0
1227 840 -1651 0
-1993 671 -567 0
1865 1775 -1276 0
-1419 26 -602 0
-1437 -1273 1924 0
1715 -1036 1946 0
1006 -55 205 0
1140 1393 128 0
145 -947 -1269 0
-1315 1116 1457 0
1548 -99 -1224 0
932 -1219 -595 0
-327 -929 -267 0
130 -1887 621 0
-1843 930 -380 0
-172 1088 1770 0
-1484 144 -165 0
1461 -677 -1078 0
-1652 -1852 425 0
-661 -1697 1704 0
117 1566 1357 0
169 -881 872 0
196 -1478 1540 0
-1377 -1548 -64 0
877 -307 1952 0
1208 1008 563 0
-1070 281 -822 0
-853 892 1967 0
634 -1020 145 0
1757 -765 -1902 0
1235 763 1274 0
-1501 339 1742 0
-438 -122 1233 0
1029 -1727 -1052 0
-874 1491 -316 0
-1625 -335 -909 0
-1889 878 218 0
-220 1755 -301 0
-978 -1803 12 0
-1994 -276 1879 0
-1551 -1474 1806 0
1334 1049 -469 0
168 119 -1818 0
-1213 1276 -445 0
-46 -1785 895 0
642 1446 -245 0
1037 -1907 1947 0
1336 1132 1285 0
-1135 -1024 940 0
95 -542 -1279 0
-1445 -1592 -523 0
-1319 1474 -1067 0
651 -1037 -870 0
-1872 774 1626 0
1344 -1264 235 0
230 -373 -1260 0
882 686 527 0
1035 -1321 452 0
-244 161 -1267 0
-1658 -1045 1672 0
337 151 1143 0
-1285 -317 -1602 0
1636 -1720 1415 0
325 1799 -1170 0
1630 -750 -1189 0
200 -129 1556 0
-1619 -836 508 0
234 822 -1749 0
23 -74 -1113 0
222 1081 18 0
-1059 -1151 1658 0
-1672 224 -801 0
1956 -1359 -1631 0
-856 -1660 -618 0
1306 -403 -1455 0
-756 379 748 0
-579 -1622 -545 0
1970 6 -133 0
-1374 1143 -630 0
-352 247 201 0
-460 1053 1536 0
-629 82 1547 0
706 646 524 0
-115 278 452 0
1189 1056 718 0
248 -1941 718 0
1588 -808 1851 0
776 1804 -1307 0
-1213 -755 -970 0
-1805 1399 1557 0
-1228 -1197 632 0
848 1422 -125 0
1054 1003 1435 0
1885 1546 -1802 0
-187 -1459 82 0
920 -961 1233 0
897 -1027 -1269 0
1295 -325 208 0
-756 -372 -661 0
868 589 762 0
593 -1498 687 0
-17 -1454 1556 0
627 1681 685 0
-1465 -1466 1547 0
1990 -584 -1563 0
-1964 -685 -311 0
-1341 1619 280 0
-1660 373 927 0
1466 95 -981 0
1468 -781 130 0
5 691 588 0
-191 1091 -48 0
1985 470 -1720 0
619 92 -190 0
-46 -863 1059 0
966 -794 -1890 0
1960 1475 -1424 0
-1787 1368 1371 0
76 -882 954 0
-1004 -1742 -1249 0
-96 -475 -79 0
888 79 552 0
1714 -1233 1728 0
-1632 -169 -419 0
-1927 149 427 0
1980 846 -1795 0
1355 -1105 851 0
-695 -1215 101 0
1870 1894 -1786 0
438 1606 -1160 0
-206 1165 412 0
-194 155 1778 0
-33 2000 5 0
1809 1701 -1055 0
560 240 1776 0
778 1124 -1727 0
946 543 -51 0
-1391 -389 1414 0
599 1158 -1838 0
-362 9 1565 0
300 1456 25 0
1872 177 322 0
1179 -1837 -580 0
-1022 -386 1722 0
-20 -630 -847 0
-1692 -1278 -1065 0
238 1860 -849 0
48 -195 917 0
1715 1617 1396 0
222 -149 1708 0
1835 -1289 1945 0
-598 -1272 514 0
674 1371 -678 0
-631 -1595 587 0
-1570 80 -1306 0
1424 1810 -1741 0
-1771 1850 186 0
-245 -1503 495 0
-833 -869 -226 0
1754 130 743 0
1315 -1574 1701 0
-138 1022 -1678 0
-1889 -649 -1466 0
386 -745 850 0
1394 -861 798 0
-1664 856 -1728 0
366 1817 251 0
-73 -893 -1919 0
491 1430 184 0
-1693 1277 -227 0
-1319 496 1417 0
1642 -506 -344 0
1893 1410 1209 0
576 -1752 1593 0
1946 249 -518 0
-1842 -609 1008 0
-860 530 68 0
53 -1646 -1480 0
-1879 1698 -1481 0
-1751 123 1361 0
1799 -1145 451 0
-700 -643 1756 0
856 -1347 -736 0
-1686 116 16 0
-1190 1417 724 0
-275 -256 -1721 0
106 -1586 792 0
-214 622 390 0
-638 -1191 383 0
793 1505 -975 0
1932 -337 -757 0
-910 -1936 1865 0
1168 -1971 -695 0
5 -110 1500 0
-1329 1944 -1620 0
-1245 261 -1692 0
1590 589 -239 0
-648 1851 1129 0
806 398 -1493 0
-189 296 -1163 0
-1761 32 -1410 0
908 78 1199 0
-1187 780 -439 0
-1734 304 1659 0
-1543 1626 365 0
-300 782 1609 0
-730 -887 -1617 0
-403 320 -822 0
-1789 -187 -1723 0
1917 -1524 586 0
74 -1091 -53 0
84 520 -1927 0
-1022 746 725 0
771 738 1080 0
-456 43 1170 0
-430 -105 601 0
-456 -849 -1034 0
513 -597 1180 0
-1850 -1922 -41 0
12 -1048 -548 0
-1326 -1140 1484 0
-1974 -768 1557 0
-669 -1702 -1514 0
-218 1020 -1126 0
953 1408 -1051 0
1735 -1237 787 0
-426 1894 334 0
1290 -893 -406 0
550 -1106 576 0
1846 -1866 -1290 0
1879 -523 1924 0
890 -653 -1598 0
454 -890 1661 0
-910 33 1013 0
-1906 94 1072 0
-290 1577 -736 0
-371 -630 496 0
-1448 851 -103 0
-1085 744 -1859 0
1941 1049 1754 0
128 -1868 -49 0
-1408 -547 -785 0
-800 655 -730 0
418 1317 -548 0
-1171 1044 -1369 0
-1107 -1221 1995 0
691 1996 -140 0
-52 1205 103 0
683 1847 200 0
-372 -961 -891 0
-460 243 -1973 0
-1607 -1575 1334 0
-361 1500 -994 0
1401 -120 1263 0
1351 -1150 1331 0
1580 -1100 -1168 0
608 -1541 1022 0
-1611 -109 1167 0
-1490 1424 -1418 0
-881 379 -1326 0
-284 -983 447 0
921 -1571 -1638 0
1302 562 -358 0
1833 296 741 0
-793 300 1569 0
256 1729 -1714 0
-428 -1305 -1410 0
-1956 -1891 1304 0
-1426 -498 -43 0
-1188 1113 -681 0
1396 114 791 0
-1146 -127 632 0
-345 630 102 0
1748 -631 697 0
1516 -1729 -1788 0
1453 -255 -1373 0
-157 -750 1684 0
-1885 1859 -915 0
469 -238 -1597 0
1326 1783 966 0
159 1420 820 0
919 -468 -394 0
-616 -1662 1561 0
-1009 462 1608 0
-665 1042 -755 0
1480 -231 403 0
419 -674 -23 0
-970 530 350 0
73 505 669 0
-215 -1872 1731 0
-150 -250 1330 0
-970 1353 -1375 0
1070 799 -1787 0
-919 -900 1462 0
-831 974 -564 0
610 1325 938 0
1505 932 652 0
-873 1794 1195 0
-1774 1078 542 0
1548 774 1649 0
806 937 -1258 0
1557 -653 233 0
-217 510 -1626 0
25 602 -498 0
-1947 -1229 -402 0
-929 432 -24 0
1149 1987 -1229 0
739 601 471 0
1531 -1632 1032 0
-1544 522 1390 0
-1081 -705 -1200 0
-1082 1837 -1526 0
639 1618 1881 0
-1266 -1560 1284 0
462 -176 -409 0
-1303 -171 -595 0
-1543 1790 -245 0
-868 60 -1487 0
-1779 71 -1237 0
1326 1473 -1734 0
-633 -1971 981 0
1833 -245 1832 0
-1498 -1551 -753 0
-462 -1183 -407 0
-362 1345 1210 0
1380 468 -1925 0
-1747 -18 -1134 0
-249 1678 -1322 0
681 -326 15 0
975 1211 68 0
-1351 401 -598 0
-831 1383 1005 0
-34 1446 1789 0
407 825 1354 0
884 -26 1619 0
168 -1814 -1035 0
840 183 -815 0
839 -1968 371 0
-878 1404 1998 0
1554 1772 342 0
521 -1695 640 0
-1747 -1812 -1201 0
1811 1149 -352 0
297 1901 -1770 0
-1952 296 -1322 0
369 -1301 1517 0
638 -389 -927 0
1415 -1886 1536 0
-974 80 1879 0
48 358 -1660 0
-588 -172 1861 0
-1074 1998 376 0
1436 671 1602 0
796 -957 1735 0
-1678 1013 -1529 0
-1772 -186 444 0
-204 1774 -1665 0
-623 329 -1904 0
-837 -199 1280 0
-913 -6 -331 0
1799 -1469 -1649 0
501 334 602 0
-1328 -224 1597 0
180 490 -195 0
-810 1693 -1843 0
-547 1796 330 0
-897 -178 285 0
1475 809 -1021 0
939 120 -898 0
-389 -893 1987 0
-548 -1603 1360 0
-705 968 -869 0
-1074 -480 -1421 0
-1558 -410 -463 0
1137 -1321 1857 0
132 1364 -1768 0
-129 1206 1898 0
-1385 1844 958 0
565 -162 -902 0
-1716 -1701 989 0
1296 1202 814 0
-1193 1599 1192 0
-152 -1468 -1432 0
-1119 -838 1670 0
1010 -2000 -1949 0
-441 -261 555 0
-1067 389 641 0
917 818 -342 0
-1977 -831 1451 0
1365 -1731 1950 0
-1900 -1621 1668 0
-1248 -267 1193 0
1144 225 1127 0
-1296 1569 -341 0
533 1336 1753 0
1678 1822 -1187 0
529 178 -794 0
-173 1698 -1003 0
1136 -1953 564 0
-1389 -1903 649 0
-1519 1198 1524 0
-1583 333 1036 0
1515 -1852 -479 0
209 1538 -1781 0
-1828 -361 -219 0
-245 1268 -1038 0
-673 -1349 1565 0
-823 -1766 -1917 0
-464 1406 -322 0
-1010 661 1573 0
-1571 209 607 0
-453 -452 1433 0
873 329 1855 0
-1577 -1395 -830 0
1208 1601 -739 0
1102 -1273 -1529 0
1563 403 -1170 0
556 -47 1523 0
-730 935 607 0
1169 1190 1914 0
-1991 971 586 0
-575 453 -326 0
626 -229 -323 0
1944 1719 -1323 0
1526 -91 -1462 0
-450 -1425 1201 0
1841 281 1502 0
-356 -616 1568 0
-1706 -47 211 0
-727 1050 -1510 0
-1115 1897 -336 0
-1772 -1744 1063 0
175 1054 1941 0
1699 1412 -1598 0
-450 1839 -815 0
-1423 112 1274 0
691 -105 1469 0
-753 1840 -456 0
-1007 1823 -1735 0
554 629 1995 0
1983 -1089 -1849 0
-1477 1789 1902 0
1205 -1987 -1528 0
-1078 12 1778 0
-1950 -1817 -1407 0
745 494 328 0
-606 -1017 1676 0
1478 -1491 189 0
1874 268 196 0
1554 673 -702 0
-1178 -677 1709 0
540 -1090 -1702 0
-431 -455 -1170 0
1370 -399 -676 0
827 13 1796 0
1310 -1733 -450 0
-59 -1864 -1623 0
218 753 -549 0
-14 -1735 158 0
-609 1756 -894 0
-1943 -1421 -373 0
1500 -1251 -941 0
-23 -300 -403 0
936 -1026 -553 0
356 -294 -1343 0
-1427 411 1312 0
1141 -15 755 0
1013 240 -544 0
-780 763 -833 0
1283 -106 1053 0
-1782 1634 -409 0
3 916 1932 0
1648 362 -1256 0
-1806 219 375 0
-1547 1033 -667 0
581 -641 614 0
-981 -437 1615 0
-1570 1357 -1713 0
-1952 490 751 0
-483 -1851 1842 0
387 -292 -1719 0
28 1422 -1494 0
1171 -1376 -193 0
1554 959 607 0
692 1950 353 0
-582 813 -1919 0
395 -1119 -629 0
225 -63 1517 0
-1435 235 1175 0
-476 1098 -1990 0
-1104 -704 322 0
-542 -1548 -1117 0
-347 -231 1335 0
32 1402 323 0
794 -1026 -1987 0
-639 -502 -381 0
-922 -891 708 0
1431 458 1366 0
553 42 -773 0
1795 848 -1305 0
-1425 -1470 -1634 0
1866 1289 -160 0
1114 -1501 264 0
-532 513 -836 0
1094 1792 -22 0
1415 -825 -1660 0
-1203 1026 552 0
-383 1669 -1229 0
-1823 140 803 0
-34 -1054 -84 0
-1925 1656 -1854 0
202 -486 -381 0
1789 -698 -635 0
196 1852 836 0
1511 866 -431 0
-1871 341 -123 0
130 -250 -1936 0
-415 1506 -1136 0
993 -1427 -712 0
-719 -884 -1128 0
-1700 -789 1483 0
1474 358 1561 0
-209 1352 -180 0
459 1177 -1891 0
-1868 1760 -1692 0
2 -1227 -244 0
1371 1971 -506 0
-978 -166 -1456 0
-1779 276 147 0
-428 -1750 1938 0
-649 811 -819 0
-1436 515 790 0
-689 -1474 219 0
199 1728 -1851 0
-151 -1753 680 0
-1324 -410 962 0
-1414 -456 -137 0
-590 -1015 -1765 0
1194 -1291 1854 0
1641 -1987 -1718 0
956 -759 398 0
-1793 1483 1285 0
-1652 -1850 647 0
1387 1989 1879 0
102 1070 -1511 0
367 -120 -1050 0
567 -1850 -1017 0
-464 740 -1962 0
-1851 -855 -1904 0
1667 -1165 -1779 0
369 -1700 -577 0
622 1313 -559 0
473 1517 486 0
410 1242 634 0
730 71 -913 0
1695 -693 446 0
811 -1398 1367 0
-1346 -1029 -439 0
831 1189 1188 0
679 1660 1943 0
-1280 247 443 0
1688 378 305 0
-639 -1485 1694 0
-675 -168 -1539 0
372 -1842 -1098 0
710 -1579 -1376 0
-458 850 107 0
1316 735 -1994 0
282 1097 -1433 0
1577 -1496 -1857 0
-127 -671 -908 0
1551 708 68 0
-48 1341 -1339 0
1791 -965 1459 0
-1152 -1985 1757 0
701 -1865 1296 0
-1502 1544 -37 0
-1047 -769 1787 0
-1245 -226 -160 0
1117 1907 1008 0
775 -151 1492 0
1451 -225 -355 0
707 1937 -847 0
-1176 -1052 477 0
-1876 779 -646 0
-957 -975 347 0
841 1053 -901 0
-1300 1208 264 0
1477 -186 -1597 0
170 1193 -825 0
-1975 1697 1994 0
-1551 -1045 -567 0
-1066 1173 1758 0
1120 -1602 1059 0
1931 1212 -1300 0
1311 274 1893 0
1838 -672 -551 0
742 -1982 -545 0
-1844 1920 954 0
217 433 -54 0
-6 -272 -615 0
-1157 1874 1998 0
-748 -1471 -1457 0
1152 -990 31 0
-1303 -1726 909 0
1432 1048 -1313 0
-1507 -297 -1095 0
-399 -124 1753 0
-223 -1937 -1275 0
-1027 -1840 1954 0
-673 303 270 0
-797 970 33 0
82 -1522 -1333 0
-1961 1294 1213 0
-188 1300 1144 0
1493 70 -316 0
484 -1359 -1609 0
1844 -1657 319 0
1649 -1322 1348 0
1683 -445 -294 0
1140 -1653 -819 0
-1562 1927 760 0
-1185 -985 88 0
792 645 704 0
1668 1238 -1207 0
-1764 -535 -1622 0
1990 -192 -1466 0
815 1433 1044 0
-71 -956 800 0
667 -811 1955 0
681 -338 1697 0
-334 -1382 1386 0
-1725 944 -53 0
-915 -1569 -1140 0
165 1438 -1581 0
-772 -647 979 0
1636 -660 -829 0
582 -1954 -1089 0
-1138 -129 -78 0
-1502 619 -1521 0
1504 335 -442 0
450 -1632 -872 0
-1712 784 719 0
-630 -962 385 0
157 1929 855 0
-1658 -987 710 0
-1223 242 -132 0
138 -774 -1506 0
-918 314 -810 0
606 -92 736 0
1292 -35 1062 0
131 -954 1523 0
852 -345 1121 0
-1439 1625 244 0
21 757 -230 0
424 1718 -1252 0
1647 448 547 0
-1709 726 -146 0
1633 -1660 734 0
-1491 1068 -484 0
1146 -1609 -1683 0
1228 1361 -1339 0
-1565 1591 1659 0
1822 1323 45 0
-1556 1233 337 0
-1036 -1026 -864 0
1537 -1394 896 0
-921 1383 -1694 0
-746 188 -235 0
1977 726 1916 0
-29 692 -567 0
-1946 1933 -833 0
304 1629 -1443 0
392 1465 -704 0
-1388 12 650 0
1423 1305 -1442 0
-820 1264 -1592 0
-1153 1498 546 0
-749 -1306 1300 0
1500 -1237 1571 0
-325 386 -1298 0
-1691 299 -111 0
213 1153 693 0
-1956 -471 274 0
-778 -788 670 0
-1519 -831 -1323 0
-111 -1858 -1986 0
384 -1717 676 0
-975 476 1482 0
391 1270 -749 0
-606 920 1113 0
-444 -1202 1897 0
-1129 1635 -1362 0
-316 1800 41 0
1847 739 -1626 0
-30 1933 -424 0
1641 1215 1697 0
41 -1723 -389 0
-268 -570 -973 0
-290 191 -482 0
1077 1926 1695 0
621 -1618 -1877 0
-130 1049 951 0
149 -1856 454 0
1191 1334 597 0
603 -825 -193 0
-1444 -370 -663 0
-1271 -1147 -156 0
-946 -433 990 0
-1404 -1166 1177 0
1787 1083 90 0
1397 521 967 0
-131 1324 1806 0
345 416 -1578 0
1849 766 1639 0
-344 -686 59 0
1222 -341 -1193 0
984 410 1283 0
-410 -526 1504 0
-1319 -109 1006 0
1390 1536 1428 0
-322 1503 1602 0
-874 1837 -1351 0
-1736 92 -1066 0
1852 1080 -1824 0
-1950 1752 -168 0
929 -1063 -1047 0
-1335 -1038 303 0
1030 -118 1665 0
-1844 -299 -678 0
-1496 1211 -1911 0
1950 -86 -1559 0
-389 -1693 -1986 0
1793 -1274 1593 0
482 1656 -559 0
-1411 -1176 -1469 0
-100 236 -1828 0
921 -303 266 0
-1236 1020 557 0
1215 371 1996 0
1087 -254 462 0
-1824 884 -3 0
-985 -1565 -242 0
1282 1652 -814 0
1842 -104 1428 0
-325 1403 -978 0
-1107 1139 -202 0
1403 -1333 210 0
1199 1768 1160 0
1035 -758 -145 0
-855 -1803 -246 0
1511 1045 733 0
-1420 -656 219 0
-1160 -1685 1981 0
-1891 1954 1283 0
1799 406 -1551 0
-312 -903 937 0
-1337 -1484 866 0
1311 -394 1130 0
1675 668 1089 0
1318 -1858 -1093 0
-1181 -1836 -1294 0
1100 1116 1977 0
-1215 1411 -788 0
1641 1729 874 0
1897 1185 1249 0
699 -1754 1966 0
-1392 -1849 -911 0
-781 1144 -1879 0
1539 955 538 0
-1140 -647 -1888 0
1318 -687 866 0
1798 -855 -473 0
590 474 1006 0
921 230 97 0
-417 1464 1717 0
1593 752 1636 0
359 -499 -192 0
-248 -1801 -42 0
1183 -126 -589 0
67 455 -568 0
-709 -213 1847 0
-381 493 1323 0
-1618 -1562 551 0
-727 1318 -1818 0
-1511 473 -829 0
1748 -1747 1845 0
-806 1055 -995 0
1771 1866 1880 0
338 1419 -597 0
102 912 -1403 0
543 1850 54 0
256 144 947 0
-1647 -1667 1105 0
-1528 -1258 979 0
-802 -691 1676 0
68 -338 -1726 0
-739 654 -1663 0
-349 -1421 -413 0
1507 -303 1866 0
810 -413 -1060 0
-6 -965 -1305 0
1797 1287 -383 0
-1391 597 -948 0
-1508 -774 -340 0
128 1094 -117 0
234 -934 -1017 0
1940 -1879 975 0
-1956 1068 -425 0
-1906 -73 1125 0
-405 -1296 77 0
386 -643 -1764 0
536 -61 -138 0
-340 -1409 1541 0
-606 -1036 1185 0
-1544 -1867 -290 0
1090 -1521 704 0
-2 -1604 -106 0
1220 -1807 -1569 0
-1094 -1497 -1614 0
230 1418 1158 0
766 -967 773 0
826 1423 -1873 0
1606 -633 1645 0
261 -28 565 0
-98 1252 -703 0
1488 -410 71 0
73 -444 1504 0
40 -1564 -1981 0
-599 444 -1619 0
1033 -772 -514 0
698 325 1530 0
1353 -1738 -98 0
-896 1658 -1692 0
-831 -1129 -1564 0
1891 -938 1692 0
802 1882 1306 0
-245 -8 1719 0
-126 -1500 549 0
1712 1823 1679 0
-490 169 1426 0
250 534 -786 0
-554 -1578 -1431 0
614 1564 572 0
517 1828 -394 0
915 1322 -1252 0
-1548 -1135 159 0
1341 -1417 660 0
436 -1902 -1242 0
-1683 1590 1798 0
1861 1464 -1693 0
-361 1259 498 0
-642 -1314 1582 0
1475 1413 -477 0
-219 1128 1444 0
702 827 -1121 0
-1972 -1501 -1017 0
719 -1984 322 0
1859 -1829 1872 0
-716 498 -1166 0
-771 -337 1273 0
-220 -645 680 0
-1266 691 379 0
976 574 -716 0
-1068 1206 -1986 0
1406 -735 -1121 0
495 1814 1567 0
-923 -143 698 0
-1986 -1438 52 0
1044 1710 -211 0
1811 1984 1231 0
1821 1224 -898 0
690 -442 -1551 0
-706 -438 1214 0
-439 -1633 1180 0
-1503 1817 47 0
1680 -1539 -589 0
-827 -881 -583 0
1093 1018 520 0
-1321 1832 1117 0
1791 -1223 684 0
554 171 259 0
-1039 531 933 0
-483 131 869 0
-946 -1917 1573 0
-685 1288 673 0
1877 734 -328 0
1522 21 -806 0
-522 666 -1965 0
-2000 -1763 773 0
1942 -863 651 0
-1346 -1695 1771 0
-794 -79 180 0
-489 -566 581 0
1039 -1388 1562 0
-1945 499 588 0
479 397 1331 0
-243 -1949 21 0
1885 -1459 -221 0
1880 -495 243 0
1269 -368 -287 0
262 -461 -1219 0
564 -615 100 0
-1593 942 1291 0
-1495 -112 -1847 0
-1482 528 -1020 0
-451 1119 -220 0
1541 -1674 1370 0
1519 -932 -355 0
1228 -532 -1303 0
217 -1156 1271 0
-1922 1234 -1170 0
856 -1103 -1915 0
677 -246 571 0
-1784 -1823 -1867 0
1479 1734 1165 0
1217 -1235 217 0
969 -267 -1295 0
-814 -1933 136 0
-1395 -1214 -54 0
-203 -920 -1156 0
-13 -1699 -1453 0
1663 -472 1648 0
-468 1309 8 0
475 1990 -733 0
282 -445 -817 0
-1587 -1440 -490 0
-1835 -1139 1483 0
-733 -406 -955 0
-1410 -195 -102 0
1259 -20 892 0
-310 -902 1895 0
1243 -1294 1477 0
-1734 -356 948 0
-1356 1579 1964 0
103 -1165 -1659 0
-316 -661 1442 0
-252 -1521 1657 0
47 1977 522 0
902 -1958 -1197 0
-663 -1315 -1941 0
-1163 -853 -666 0
250 -1398 162 0
-109 -1058 1730 0
787 -1755 296 0
-1360 -129 -1720 0
-1173 -1486 1899 0
1634 -777 1318 0
-681 -1872 -1708 0
-1607 -811 70 0
-461 -1119 1182 0
660 -852 -1359 0
-192 -1757 -1125 0
1643 -1892 -525 0
-64 685 -1880 0
-415 1014 -1679 0
-925 993 986 0
-683 698 -1023 0
-1421 9 -669 0
167 1967 -201 0
1487 -1388 1582 0
550 1647 942 0
231 -766 -524 0
809 -853 -1961 0
607 -155 -915 0
1348 -1166 -760 0
-826 1687 -663 0
1458 -31 237 0
312 -1623 1542 0
1811 61 44 0
1099 -1801 -486 0
-1075 808 -573 0
1923 360 1246 0
1585 167 1299 0
-1520 1066 -1604 0
-1352 -1950 -941 0
1542 402 -1256 0
-895 1357 -969 0
89 1654 1638 0
230 -180 1404 0
-216 -1774 1614 0
1431 -583 896 0
-1304 866 -1384 0
-1147 -812 -1405 0
-1013 -421 162 0
1598 788 1498 0
1331 -915 -1063 0
1165 45 978 0
141 -1278 -52 0
602 803 -1048 0
1249 1954 -1094 0
-1014 4 -1691 0
274 210 -1625 0
-101 353 -74 0
690 -617 -615 0
-1284 -1290 1347 0
-375 -49 -400 0
-1206 -1732 1168 0
-1378 -976 -831 0
-293 1921 1146 0
-1862 -1850 595 0
-1160 -1186 1288 0
1866 -1651 990 0
1644 1022 -1068 0
480 -1631 779 0
-1713 -1132 817 0
1715 -460 -631 0
-825 1170 1538 0
-1098 991 -206 0
345 32 880 0
-180 -482 -1624 0
-1652 847 -716 0
497 132 -87 0
1139 1967 1150 0
-27 1966 -427 0
-684 3 38 0
316 -1186 634 0
1975 1366 -1285 0
-1552 -745 521 0
-1343 -132 1672 0
51 -1973 -1202 0
1316 82 986 0
-1747 -906 1325 0
-107 -1407 -1454 0
1056 1916 1011 0
648 1223 966 0
-320 -1902 1753 0
-1941 -1667 693 0
1898 1094 58 0
519 415 -1894 0
-1940 -1301 -1748 0
530 675 338 0
1751 -622 -36 0
681 214 -907 0
-332 -1390 -258 0
-1413 719 -646 0
-1715 203 1004 0
1965 194 -1120 0
291 -1104 -1736 0
1938 -613 -431 0
417 347 1178 0
1405 -148 477 0
562 1111 1991 0
1802 440 1011 0
-1902 -6 -302 0
-1164 1023 440 0
1243 518 123 0
1044 1998 -680 0
-463 -739 -1756 0
16 1790 873 0
1357 1220 -1887 0
-1389 858 1801 0
1194 -1597 1163 0
-1240 1747 -10 0
849 -98 -33 0
1498 -1019 1130 0
-1810 -814 1360 0
-758 958 -1864 0
-411 285 -395 0
903 -1485 685 0
1608 -683 1897 0
1491 1224 -1367 0
-464 328 682 0
1535 -376 -1802 0
317 -1324 667 0
490 1225 -339 0
-1315 -580 821 0
301 1393 611 0
-1694 1488 1012 0
-1168 -1181 379 0
358 1043 -1760 0
1306 1002 -1285 0
-1932 -838 1530 0
1794 -423 1146 0
-721 -531 -1967 0
1288 797 -1753 0
753 -1684 1243 0
-1184 486 -1105 0
-1689 311 -92 0
-458 1900 1759 0
-495 1611 -715 0
455 -1963 1721 0
1361 -475 1183 0
980 -1177 1343 0
-1868 -285 1223 0
-717 934 -1917 0
304 1348 -52 0
1771 -945 1588 0
1185 -1054 -611 0
74 -799 623 0
-1038 -1569 -485 0
1461 -1490 -1849 0
-913 477 1514 0
-880 1063 -632 0
1369 -1319 -730 0
1379 1775 1655 0
1229 741 1199 0
-1822 599 -174 0
-1546 -758 635 0
1856 1693 -714 0
486 -1070 939 0
1580 -939 -213 0
-933 975 1180 0
-1004 -1099 976 0
1634 -961 -363 0
-1953 314 880 0
1021 -1599 777 0
1990 1086 -1644 0
-596 -1104 -925 0
1525 1598 -1747 0
-273 37 854 0
-1166 -836 -40 0
-547 1064 -1081 0
-1534 655 451 0
1649 -270 1400 0
-1351 583 -1047 0
-313 -1555 -1267 0
-6 1056 -201 0
-842 1236 -1756 0
892 1735 -505 0
-591 791 -1291 0
-792 -626 -1951 0
98 319 -1994 0
1392 -128 540 0
1165 -915 -1968 0
495 1604 -526 0
950 141 932 0
432 -400 1676 0
1452 1284 -713 0
1764 -1963 1907 0
151 615 -376 0
-1017 -1201 -847 0
1453 -499 916 0
-1908 1206 -707 0
1654 503 1335 0
1880 1503 -1410 0
-1800 438 -874 0
-504 598 -642 0
-1260 -611 1599 0
25 378 1371 0
1974 920 -1046 0
-1346 -1323 943 0
817 -1401 -1471 0
431 -1720 -952 0
-1013 622 1064 0
293 1051 1914 0
-1405 1657 -1652 0
1497 -205 75 0
-428 1921 1735 0
1770 -242 699 0
-216 -905 1711 0
505 -1802 -1619 0
1914 957 1657 0
-987 -751 1055 0
-861 -666 1447 0
-1292 1592 1609 0
-1245 -632 -1715 0
-464 1865 -1786 0
-1654 1020 -551 0
-1611 986 -1740 0
-873 -1832 -1786 0
1065 -667 632 0
-1171 -1621 1138 0
-50 -1102 -588 0
-1272 -508 80 0
966 521 1815 0
-1220 -1684 -1927 0
1016 1262 -1667 0
-1181 -1651 -1576 0
1443 -556 -903 0
1185 1382 -707 0
1810 154 -1765 0
-551 1402 -114 0
1370 -647 -1774 0
687 1052 186 0
462 1527 1767 0
579 1872 98 0
-496 177 554 0
-1680 1557 -795 0
-857 -978 1822 0
-1717 1870 471 0
1534 1041 -341 0
1068 -832 1542 0
522 -785 1880 0
537 -531 337 0
-1115 1326 -1125 0
1043 -1842 -1460 0
319 -439 -567 0
1583 -1361 -184 0
-337 -804 -107 0
-1981 1557 -469 0
-1055 531 1785 0
-1405 496 -1485 0
613 -556 -435 0
1497 -1507 -864 0
929 1286 -1618 0
-27 1478 128 0
-549 413 849 0
1881 -1841 231 0
837 -1103 63 0
1862 977 1991 0
-205 1198 737 0
1413 -1673 -1574 0
-1524 1437 -585 0
-847 -1782 779 0
278 484 1615 0
-902 698 -1180 0
-164 1183 -1003 0
-1207 -375 -501 0
903 -1536 -210 0
453 -1691 -279 0
-447 698 1423 0
-1822 -508 64 0
-584 -928 992 0
630 1190 870 0
1518 106 -1247 0
1720 -1569 -1260 0
-488 1665 -690 0
32 -1264 743 0
-65 1710 -1843 0
-905 -374 -684 0
1621 -1525 1077 0
627 1294 1336 0
1198 -377 -1128 0
1426 1648 1324 0
1993 -1604 -777 0
869 -527 -725 0
-1901 1339 -625 0
-581 -483 187 0
-336 1303 -155 0
-1945 -134 460 0
1950 -685 -372 0
1281 -508 1793 0
886 -1593 -1091 0
1177 -1589 1351 0
599 -271 948 0
965 -1244 -1747 0
-658 -94 -1157 0
-775 240 421 0
391 -913 -908 0
-673 589 339 0
-535 -848 1830 0
722 1253 -64 0
-1806 1866 499 0
903 186 770 0
-1967 -731 824 0
994 580 -1529 0
336 -187 585 0
1038 -569 995 0
507 -1218 -1276 0
1629 -29 1904 0
1684 440 309 0
-755 950 1824 0
1104 -319 -46 0
-528 -35 1556 0
1962 1453 -558 0
958 -1671 -547 0
1651 -720 666 0
-1786 -1103 -1831 0
677 652 -1050 0
1947 -1039 -1276 0
-1982 -1149 -1475 0
-164 -1306 -1470 0
-152 -1755 1696 0
1784 1209 1301 0
-404 969 -1827 0
976 -949 1611 0
-1219 249 -1131 0
-274 -1577 -736 0
-1104 1018 903 0
1287 261 1727 0
-1013 1360 1981 0
-234 -1589 744 0
-921 771 -687 0
-126 1363 399 0
1328 288 -1916 0
1093 1789 946 0
-1187 -1977 -1270 0
1827 -1338 -1695 0
1291 -961 -1369 0
86 -1616 -968 0
1562 1895 -743 0
-447 774 1418 0
552 -348 960 0
930 1689 1825 0
-959 -777 -350 0
810 -1675 -498 0
1264 117 -936 0
-1838 -1230 -674 0
1047 -220 209 0
-1291 -835 1298 0
1453 275 598 0
887 940 -1557 0
-1586 -1020 -899 0
1518 -215 162 0
-818 -123 1203 0
-944 706 -532 0
858 -936 -1228 0
154 721 24 0
-223 736 423 0
-843 -855 -1703 0
-993 1799 -1023 0
-392 358 -1350 0
115 -1529 1505 0
-1080 1567 -1828 0
-1686 1065 1018 0
-1751 -123 -736 0
-436 -1842 -1945 0
155 533 1595 0
-1739 229 1001 0
1892 616 -1295 0
293 286 -828 0
-611 -40 -826 0
1648 -743 -1792 0
1548 -895 1701 0
419 1383 -394 0
-544 382 1735 0
-1765 1758 -1654 0
-911 1478 -1687 0
-516 183 952 0
-1436 881 1954 0
-1650 509 -1637 0
-1892 624 -946 0
1823 638 1458 0
360 414 1034 0
625 -1164 620 0
985 396 34 0
709 -998 724 0
611 361 1217 0
1532 -1580 -665 0
-1810 589 -725 0
355 -8 -1461 0
-1376 -1317 179 0
-463 -511 -1667 0
357 -111 -1497 0
-667 -145 1690 0
-1671 -532 1929 0
1838 406 -1265 0
-1951 930 1542 0
-662 1655 -342 0
-643 -1469 -1968 0
955 1437 -711 0
1668 1720 720 0
1886 -1316 1439 0
1998 -140 1358 0
-1948 -1306 -927 0
398 -96 -372 0
-1729 -71 53 0
301 969 1507 0
-1235 -6 1503 0
382 -532 -800 0
182 -901 940 0
-1459 -670 854 0
-1107 -1030 1537 0
-438 1810 847 0
-1793 923 -1028 0
1599 -1689 -1899 0
1911 1717 -1610 0
-1982 198 703 0
1267 1292 884 0
-1576 365 1014 0
-1629 -656 1353 0
-1729 -794 -1457 0
1043 709 871 0
-1 1045 -1212 0
-1324 1083 1615 0
1227 -1370 -780 0
230 367 -687 0
1258 506 -308 0
-1417 1140 1936 0
686 566 1504 0
-1522 -435 1906 0
957 1829 -34 0
-1042 -1673 -1743 0
-1129 -1888 527 0
-1614 91 1677 0
-1640 990 -1937 0
-1922 1116 43 0
-656 -1206 -819 0
-128 -1104 1564 0
1160 53 1993 0
208 -43 1828 0
-1478 -240 -594 0
598 450 904 0
1327 1340 -1632 0
1197 -1115 427 0
1836 1151 -955 0
-1113 -223 -18 0
516 1214 929 0
1251 -1553 -148 0
190 -1116 1053 0
1349 -1614 -1285 0
1073 -821 -1665 0
-1279 -1305 -1347 0
-1838 -607 1918 0
-964 96 115 0
758 -1478 -197 0
285 751 -1629 0
1186 -405 1789 0
1741 -48 221 0
-145 -1673 -1228 0
947 73 1730 0
-56 993 1949 0
-1150 1890 -1533 0
-833 1547 -1450 0
-756 147 998 0
-1256 830 -1391 0
1230 -201 1084 0
1306 805 703 0
1318 1016 -838 0
1407 -1163 1776 0
-1222 895 -1757 0
-1928 -975 -1832 0
-215 -514 -1899 0
1017 -1987 -30 0
340 209 -367 0
-1242 -1583 -1563 0
749 -1227 1338 0
1931 -1651 1629 0
97 1965 293 0
1982 452 449 0
322 728 -1876 0
1157 446 -1603 0
-1519 -183 279 0
88 -67 -1599 0
1894 1289 1672 0
1923 913 1916 0
1587 -314 -1786 0
-1589 -1843 120 0
720 -326 -1670 0
933 1044 325 0
-383 1956 -129 0
-1921 -1535 1826 0
-1902 1298 1487 0
-1806 -364 -965 0
1796 -4 29 0
-1970 625 278 0
-1104 -177 -1998 0
-1027 1137 1686 0
-1748 1478 -1724 0
-1911 698 -381 0
1917 -839 -945 0
-507 -709 -578 0
935 -845 405 0
-1763 1392 -763 0
-733 -242 232 0
1911 176 890 0
1003 335 340 0
1329 1184 -650 0
241 547 -1598 0
952 442 -774 0
-698 -1151 -1456 0
816 1776 -1602 0
445 1584 1940 0
-1175 1522 221 0
1376 -884 -1244 0
-1923 1675 1617 0
1902 204 -834 0
959 -880 1121 0
1517 1652 -1981 0
1620 -330 -1980 0
-716 -280 -856 0
-1521 -1547 -982 0
308 1157 99 0
1822 1722 202 0
-667 1124 -326 0
742 1805 -1726 0
-613 -287 1514 0
1673 -970 1123 0
-1946 -897 -151 0
528 -664 1294 0
705 1165 -114 0
-278 -84 -1183 0
518 -82 823 0
1694 -952 87 0
-1481 409 -1668 0
13 1568 1809 0
835 1631 504 0
-1204 -286 426 0
876 448 1655 0
-1154 1233 -314 0
-1672 1874 -933 0
-1767 1604 433 0
378 1862 -1291 0
-538 1298 -1179 0
152 1752 779 0
-289 532 388 0
-114 1412 1543 0
-154 867 1653 0
1364 -931 1909 0
-1482 -1712 63 0
400 -767 -766 0
-1739 50 -738 0
629 -1302 -1795 0
-544 -1475 1504 0
-1518 1479 473 0
935 1430 610 0
644 280 1899 0
455 1554 -1841 0
1756 138 -1387 0
-255 617 1570 0
-1361 500 -1715 0
-1639 629 -1650 0
-1554 1754 1947 0
-727 -1822 1823 0
1414 -285 734 0
-691 -803 -180 0
-808 -655 1713 0
1570 1806 -1546 0
-849 -1706 -155 0
1633 1929 1686 0
-1023 -1229 1303 0
1864 -1157 1419 0
1408 992 -893 0
-1884 -420 -976 0
-221 152 904 0
-1789 470 -1259 0
-86 -1339 702 0
398 1553 -1460 0
-1633 -1157 1378 0
-1363 1872 -782 0
-217 -1755 -714 0
579 427 107 0
1490 -1955 1486 0
-1066 -1745 -686 0
-1231 19 735 0
593 1807 934 0
1880 1185 673 0
656 -482 1263 0
-134 1939 -1615 0
1151 -1176 1653 0
-566 -853 -237 0
-1912 536 -742 0
974 -622 739 0
-1739 -206 1670 0
-106 620 -751 0
-1084 799 995 0
-1099 568 -1568 0
-1321 -437 -1857 0
-1591 -1286 1192 0
-78 892 1347 0
-703 933 -957 0
823 1426 1672 0
-1307 131 983 0
600 1521 -1604 0
141 -256 1693 0
-757 -628 -1996 0
186 -214 -210 0
684 -161 -805 0
-1900 1070 602 0
404 -149 713 0
-358 -1277 -892 0
1390 -1370 1906 0
-1421 1042 1336 0
1447 -547 1634 0
1771 1275 -1078 0
397 -1700 -1514 0
487 279 863 0
-1102 229 611 0
1268 -777 1123 0
617 1738 1449 0
1686 1439 1093 0
-1525 -1202 -1396 0
1627 185 1042 0
1460 -934 1794 0
30 578 -240 0
1433 3 1459 0
212 -1241 1421 0
791 1871 -1655 0
-1901 1752 -1010 0
322 -723 1830 0
1227 -1928 -272 0
-1473 1873 499 0
1852 853 -1629 0
207 380 881 0
922 -251 -1095 0
626 1871 -1201 0
-224 -1767 -1969 0
-800 795 1814 0
-855 -1934 152 0
-241 527 -596 0
-700 180 1065 0
-1718 -660 -1830 0
-768 1086 514 0
195 -438 887 0
46 258 -172 0
801 1233 1153 0
939 1609 -896 0
1697 -1546 -703 0
-144 -1798 844 0
-1535 -1599 1390 0
695 -1153 -233 0
7 1390 1272 0
-1207 -23 771 0
-1564 1935 1252 0
-537 520 -1353 0
1594 -1096 -76 0
1047 1838 -659 0
1330 -801 165 0
1797 -949 -1367 0
1721 -744 1685 0
-828 1664 673 0
-153 276 -1489 0
1312 1211 1570 0
-981 -439 1409 0
371 -128 673 0
-1229 1910 404 0
63 1860 663 0
545 -785 -45 0
-658 352 -857 0
-1567 1261 -135 0
60 1775 -1933 0
-1831 694 1630 0
71 1051 -529 0
-1481 1957 -38 0
-670 940 765 0
-567 -990 -491 0
1290 -191 -437 0
-36 -1354 -762 0
1346 -217 -30 0
1848 -763 1351 0
-770 -1036 1904 0
-85 1027 -127 0
-909 -1832 630 0
-1700 -1920 1895 0
-804 -1409 1417 0
212 753 -930 0
785 1551 -1365 0
-1519 20 1814 0
-1211 1647 -1835 0
932 -1745 1532 0
498 1004 -461 0
-1551 -1948 1920 0
-1931 -1368 -1465 0
-1571 1107 -1152 0
1851 434 661 0
971 -131 -1444 0
-1967 668 405 0
216 1356 1897 0
-1 -1198 -614 0
-51 -421 -1463 0
-1967 515 -1653 0
-242 647 1598 0
-1172 145 779 0
-315 -304 60 0
-1365 -1692 -1655 0
1862 -1466 -980 0
-1199 1712 -250 0
-656 705 1525 0
-532 1178 -1189 0
-1567 -1034 -203 0
754 459 -1613 0
-397 -180 1261 0
-552 -1990 -44 0
1907 1192 -684 0
2 438 -99 0
-1392 1640 -1443 0
531 1813 -1871 0
-1740 1539 1756 0
-1762 938 1334 0
284 -1431 1459 0
-1246 -1656 -261 0
-644 1194 1394 0
-304 1212 -1661 0
1546 512 -1911 0
-809 -1243 481 0
755 1230 375 0
1136 -1552 -49 0
1982 565 -1742 0
1610 -860 296 0
-1088 -531 1282 0
1245 1783 -933 0
-516 -591 -1853 0
870 137 -3 0
627 1633 -1111 0
1403 -1264 -153 0
766 1005 191 0
-723 -712 642 0
625 -1972 -1519 0
212 -628 -602 0
-1883 340 843 0
-1318 -365 -1852 0
-172 -867 -1054 0
-921 1710 -1351 0
1400 333 -1288 0
977 -51 -221 0
1561 -1720 1498 0
1772 -1255 1562 0
-546 -645 -1726 0
-539 -1862 184 0
1212 -272 -1258 0
1827 -1717 236 0
1716 -350 -896 0
-1280 -1086 -1760 0
1874 -1745 14 0
-1783 915 365 0
-215 -458 -1704 0
978 -488 -1156 0
1854 -1456 1527 0
-1554 881 1056 0
1257 1043 893 0
-816 -1830 153 0
-1569 -1830 -1009 0
-1823 471 -962 0
-234 -651 -1163 0
189 -1212 310 0
918 -1740 49 0
-47 -1361 1824 0
-841 -1433 1678 0
-916 -513 1944 0
681 1688 -1155 0
-942 -37 1750 0
-410 -1337 46 0
-1200 -139 869 0
-1185 -1150 -1311 0
565 422 -74 0
645 1212 -962 0
-1786 -1603 -1890 0
611 -231 1333 0
-1381 1046 -780 0
1717 424 1836 0
-84 -1919 590 0
-1402 -619 -959 0
-1481 -1408 -206 0
1360 578 -736 0
-1013 -22 -93 0
1661 1938 1908 0
-1813 1337 556 0
642 977 48 0
-531 -632 817 0
103 853 1466 0
-943 -1595 1980 0
-1426 1430 -924 0
242 -1333 -1774 0
-1300 1913 723 0
-772 1849 27 0
98 1105 -1786 0
-881 -1802 -787 0
1815 369 -1082 0
1533 1857 -528 0
-1996 105 482 0
1418 381 -762 0
188 1713 408 0
1301 -959 -1456 0
-1052 -1910 -1758 0
-1236 -1707 1775 0
-1261 904 -248 0
-989 1587 1631 0
-534 -1662 -983 0
-1523 569 686 0
1012 -189 1713 0
-1192 -1729 576 0
-1224 -96 1679 0
1060 -1269 717 0
439 -1280 -762 0
-1977 -1028 1628 0
768 19 264 0
-481 1140 -1770 0
1226 1265 941 0
900 -947 -1538 0
-1722 -591 -1174 0
810 -260 -561 0
1283 -1211 -1104 0
2 1753 -1862 0
93 13 1716 0
1405 1986 -1772 0
812 -1103 -1337 0
346 -1489 -1930 0
-46 469 -1074 0
229 -205 1848 0
-26 1962 -1719 0
25 1550 -1914 0
1003 1757 -409 0
-1582 -811 -1050 0
-360 -1096 -1534 0
1981 543 -942 0
802 820 1263 0
-782 -1914 1262 0
-1024 504 812 0
-1983 1620 104 0
1240 -685 170 0
337 1696 -1170 0
-102 1100 -791 0
1224 -417 -1034 0
1745 -336 -747 0
-1216 -1414 260 0
-896 -895 1558 0
1286 374 245 0
511 -1761 1969 0
-646 1651 -1740 0
511 -1561 -1305 0
268 166 1492 0
820 -409 -1415 0
1267 727 -1063 0
1676 -564 -449 0
274 817 -489 0
-635 901 -1195 0
-1086 -1732 -859 0
-1457 1455 -500 0
-1149 1167 454 0
-1416 758 -267 0
688 -1046 -208 0
-1048 1013 -643 0
944 -831 -28 0
1899 1093 990 0
-353 -464 1384 0
856 1037 -921 0
-693 1015 1358 0
752 -1566 -78 0
-716 -267 -1250 0
375 -1399 -61 0
1132 451 -1133 0
1574 -171 1124 0
1336 -1439 -1622 0
1616 -656 1024 0
1855 1308 1138 0
-149 -766 747 0
-249 636 1434 0
-824 -298 212 0
-106 -45 872 0
-1908 1875 -1460 0
-1013 -58 1438 0
-900 503 13 0
-1142 1472 -26 0
-1763 -1093 -434 0
-1500 -1978 -1540 0
1299 -246 -530 0
-1478 275 -798 0
1733 -568 246 0
-905 -940 604 0
55 568 1520 0
-1862 45 -903 0
1673 -1845 -1969 0
1198 -1807 -1036 0
1130 -274 -981 0
1402 1426 689 0
889 -1227 905 0
642 -154 -1829 0
-808 -302 1383 0
-1183 -1061 300 0
-1953 598 -638 0
1584 -1552 -1815 0
1700 1529 -503 0
-1028 -466 1764 0
443 -192 -1898 0
-1596 -1379 101 0
1839 -946 356 0
-611 666 -14 0
1411 -1485 1523 0
1156 -1176 -1646 0
-797 -549 -1579 0
-946 -121 1116 0
-1980 -837 892 0
145 -321 731 0
-779 -1075 836 0
546 -73 84 0
-593 1993 -1735 0
-786 -1476 -466 0
-411 1525 -1748 0
-861 1432 357 0
-574 519 972 0
379 -1093 1144 0
1367 -1255 -417 0
1932 1286 1182 0
382 -1022 632 0
1726 373 -1418 0
1237 -1681 683 0
1158 230 56 0
-244 1192 760 0
-548 -172 1604 0
-80 1093 709 0
491 1572 697 0
-516 -1573 -1737 0
-1078 1358 368 0
1501 -1169 -1909 0
402 -232 1155 0
-1688 1510 1668 0
-1133 1208 -1488 0
653 -1591 -1643 0
-1842 390 -1753 0
-1650 -1649 -1375 0
314 1553 1689 0
-1796 -1084 534 0
1326 -471 -1074 0
-704 231 -1614 0
1759 1670 -742 0
-1550 661 -1731 0
-1177 194 625 0
-1879 1929 61 0
-1610 1394 -407 0
1804 -1851 -1562 0
-1063 -993 1326 0
-1289 -1783 -1511 0
1626 -517 -937 0
1362 1750 1197 0
1367 -1153 -1917 0
473 -1102 917 0
-1230 160 -1054 0
1678 1163 12 0
-1810 -656 224 0
1865 -427 756 0
-157 -714 -992 0
400 -1194 -1488 0
199 -1126 -1909 0
-1339 220 925 0
-832 -670 -97 0
610 -1031 140 0
-714 818 -1001 0
-1898 1550 -1955 0
1779 470 -1376 0
-26 78 -1659 0
370 -649 -750 0
1576 623 -1163 0
835 -1546 -720 0
-1995 1233 -351 0
1372 -1314 -1515 0
1515 911 1225 0
-1448 741 1496 0
-1613 -1259 -275 0
1238 1025 979 0
-1960 664 1036 0
-209 -121 1653 0
1443 -1782 1111 0
638 -161 -1904 0
114 -1156 1551 0
1701 -1512 1868 0
922 1595 1570 0
1013 -1550 460 0
-150 -902 -387 0
-1417 1096 619 0
865 1146 -1306 0
-1210 877 -1843 0
312 1077 -1696 0
-679 -1929 -1750 0
-1788 1254 1235 0
-795 93 295 0
43 1411 1270 0
1391 -792 1881 0
1516 13 -1607 0
1466 -1710 1989 0
-365 -1228 -951 0
1682 1780 742 0
758 -45 -1545 0
1651 540 1966 0
-261 -686 -277 0
-873 -1815 -770 0
1739 868 197 0
1320 -158 825 0
-691 535 -602 0
1803 -887 969 0
138 901 1485 0
766 -1568 -1916 0
-1542 108 1531 0
747 1486 1815 0
-1826 -34 702 0
-433 547 -551 0
-1173 -683 927 0
1377 -297 1303 0
548 774 -1984 0
915 1731 652 0
1045 -1750 -1386 0
532 697 -353 0
-303 -215 857 0
822 1505 1942 0
-223 249 1175 0
-605 444 678 0
-959 320 1174 0
-478 -1244 751 0
-692 1198 892 0
1909 322 1109 0
1547 -1154 373 0
-119 1603 1617 0
-989 681 937 0
-1228 -1642 -525 0
1381 23 -902 0
391 -814 -1801 0
297 -1445 -862 0
-1823 -243 1075 0
1955 1718 -619 0
1201 1234 1979 0
311 378 -299 0
-649 721 1012 0
-1275 1569 -1832 0
573 66 1735 0
1212 1413 134 0
805 -1942 1578 0
1898 -24 775 0
-1751 -1336 317 0
408 729 -444 0
909 -713 -302 0
717 829 -1911 0
745 -663 1922 0
1499 1376 -588 0
837 -222 -64 0
924 1873 -138 0
-830 -1677 859 0
1512 1759 -1924 0
671 -456 1635 0
778 509 -403 0
-1951 -1414 -1137 0
-564 -891 270 0
-569 -428 -1663 0
-357 1124 -832 0
1702 -608 -1081 0
-256 -918 1573 0
-923 -227 -902 0
-20 1414 -519 0
184 -1974 993 0
-1338 -1753 960 0
1833 -200 -1844 0
-1568 -1874 -557 0
-482 576 -154 0
-1221 1829 1268 0
1569 14 -1665 0
1286 -1195 -1374 0
355 1102 -230 0
-1080 -360 671 0
-283 -1627 1679 0
438 -1543 199 0
169 -1125 -1191 0
673 -846 486 0
638 858 -782 0
-712 -306 485 0
-1967 1533 530 0
558 -1920 1481 0
935 -372 -49 0
-1321 -118 1925 0
-1912 -1028 1738 0
-1573 1610 472 0
1272 1834 -1877 0
-1305 859 -861 0
1525 -142 827 0
-1054 -191 -179 0
-635 -1982 -381 0
-13 1553 1143 0
620 -606 626 0
1405 1182 1469 0
-803 1036 -1944 0
-965 396 -65 0
1264 -15 -355 0
544 -560 -1876 0
-1350 897 -339 0
1050 -1811 1135 0
-996 1555 367 0
-775 1799 1541 0
-673 1310 1452 0
-20 662 -66 0
-732 -1495 -1058 0
-952 1420 1609 0
1552 -176 1359 0
780 579 -1231 0
1223 -687 -1724 0
-718 -570 566 0
1504 1005 1173 0
-293 -424 1957 0
1953 -1394 -1233 0
993 824 1502 0
-628 622 -1284 0
-751 1840 -1544 0
-125 -529 1116 0
-343 1802 -226 0
288 1994 361 0
720 -953 -1918 0
965 -1267 1346 0
-1426 -1842 -909 0
888 -1682 1425 0
-1235 262 -649 0
978 1290 103 0
1127 81 -1038 0
858 864 1442 0
841 -397 -807 0
-956 -545 608 0
679 576 1301 0
-618 -123 1535 0
1805 -1407 1954 0
1031 -1796 1726 0
1316 -668 201 0
-1411 281 -1988 0
1285 113 368 0
1561 -1681 778 0
-790 -1942 -1092 0
-864 669 -1437 0
1045 -1244 1356 0
-230 1545 -67 0
192 -175 -811 0
-171 -943 810 0
-479 -620 -1557 0
-228 156 -1315 0
245 1431 -1888 0
-1931 -144 277 0
-1575 -1473 1115 0
-1815 547 703 0
-1126 813 1369 0
401 1311 -1301 0
-690 1376 1488 0
-1808 511 12 0
1511 1505 375 0
-376 -940 224 0
105 339 -1526 0
612 -927 636 0
1567 919 552 0
-1694 -1827 -1012 0
1564 -1139 900 0
258 -1610 -1789 0
1577 -949 -2000 0
1709 1193 892 0
1861 -164 160 0
1037 -1415 -1067 0
-360 1432 35 0
187 -221 1405 0
329 -1399 1338 0
-1004 -740 31 0
-1104 52 1575 0
706 1010 -637 0
-1153 1203 1102 0
1831 -694 -1388 0
-1381 1064 679 0
1931 -270 -949 0
-1821 200 305 0
-406 -714 1520 0
-386 -288 -270 0
1373 -1513 1742 0
1940 727 1295 0
-288 1152 -730 0
-952 214 -1652 0
317 -1836 -128 0
-78 -530 1917 0
1099 -538 1908 0
-641 -1029 -1068 0
135 -850 -1305 0
1069 1312 1994 0
766 -1021 -503 0
-1288 -1186 -1105 0
-1744 138 -1806 0
-408 75 -829 0
1864 -1242 1394 0
1600 -1179 1171 0
238 -1577 -276 0
1507 -1880 1946 0
1289 -1826 189 0
878 1851 959 0
590 -227 1081 0
-1611 516 -1831 0
1187 1436 805 0
-325 1285 -1095 0
-1769 1653 1342 0
-204 -1844 -422 0
203 -1090 -1741 0
-1578 1279 -358 0
-1866 342 124 0
349 -1232 -448 0
-65 -673 263 0
1185 1758 -551 0
-1609 -1576 377 0
-1980 1536 -424 0
1881 -1597 338 0
-1907 881 -1376 0
1569 1222 -221 0
537 868 -386 0
409 1597 1590 0
-609 523 819 0
-541 -768 1228 0
1508 -1050 1231 0
-1940 -1548 1854 0
904 1166 1369 0
-619 652 -1344 0
-1245 -1588 707 0
517 -750 774 0
-1154 723 1139 0
-626 1056 139 0
641 -357 -44 0
-805 -618 17 0
-1933 -1918 1097 0
1315 1829 -1587 0
586 -587 -1634 0
-628 -1261 -1 0
42 -1764 871 0
-447 -1414 106 0
1044 721 523 0
1401 -185 -1234 0
-1067 -1685 1000 0
987 954 -1862 0
-118 392 1222 0
340 1685 778 0
-1061 -692 -285 0
-1488 1013 1277 0
1711 -286 791 0
1836 -614 -1823 0
-343 1630 1489 0
-1928 -362 1772 0
638 -1630 -539 0
-1559 -1438 1904 0
1773 1742 -1756 0
869 -1745 -1692 0
-609 -1558 1679 0
100 707 -1978 0
-367 1142 946 0
-12 1754 629 0
-769 767 774 0
-675 74 768 0
-1103 449 311 0
-465 -776 271 0
1002 1171 986 0
-750 -847 -1057 0
1907 1479 -1560 0
-1185 383 1241 0
765 516 -870 0
-1018 -1719 -476 0
-623 -1460 -608 0
-1952 -743 904 0
-627 450 1344 0
-787 1268 368 0
-1671 -1212 3 0
117 1793 542 0
263 520 1516 0
-799 -293 -1848 0
-151 1870 -503 0
-1138 -414 1771 0
951 1817 279 0
1594 1301 847 0
1714 -1297 -1809 0
1180 407 1651 0
1427 -1458 -343 0
788 -1769 -779 0
1268 1602 236 0
-566 1163 1736 0
-180 1433 -1091 0
1149 280 -1044 0
446 1851 1778 0
1647 128 609 0
-396 1517 -1066 0
-1801 -1204 173 0
262 284 273 0
-572 837 1457 0
151 -738 1277 0
-1186 -1620 1177 0
-991 -1631 745 0
1940 1214 1410 0
-1792 864 -1283 0
1302 -1511 -1229 0
-1639 204 200 0
-367 -516 1491 0
-584 -964 1583 0
-25 -1339 838 0
-1341 1239 -1924 0
397 -1124 -1659 0
1785 -771 997 0
652 1601 68 0
-1172 -1835 150 0
-1539 151 -1277 0
511 1935 1922 0
-91 -283 -769 0
-377 1491 -59 0
69 -1477 1419 0
1607 -256 1277 0
1228 1032 -1111 0
1190 427 -946 0
-528 1827 -702 0
-792 431 -769 0
-762 -622 1277 0
384 -557 -1621 0
1553 -743 1614 0
-1699 -351 1332 0
-653 1315 -998 0
-1162 -1987 -1455 0
1240 1390 -344 0
-1047 209 171 0
-532 1444 -1214 0
483 667 -940 0
606 -591 -1978 0
292 1383 -630 0
-282 -755 -967 0
1328 -751 -1642 0
855 27 360 0
-126 -597 -1841 0
-777 1922 1043 0
742 557 380 0
-1744 -1701 -79 0
157 1657 -616 0
-1825 1977 -780 0
309 -1482 -29 0
-1763 730 456 0
844 1694 1672 0
737 785 1964 0
784 246 731 0
-192 -1708 1306 0
701 1329 624 0
-565 -1669 -1629 0
1777 1585 -159 0
1454 -120 -1975 0
688 429 830 0
-1560 -1048 -420 0
1552 -1382 1275 0
362 -270 385 0
-962 -1409 -1702 0
590 -405 1957 0
1415 1797 1112 0
425 1178 1784 0
1745 132 858 0
1871 -1336 1137 0
942 -383 -834 0
1004 939 1297 0
1590 -1316 -38 0
-930 1110 -340 0
1435 88 -704 0
1378 -1364 1129 0
-549 685 1247 0
-1529 -1843 70 0
1858 -803 -111 0
-351 -104 425 0
-709 -969 -1752 0
-1159 -531 53 0
1822 1970 -171 0
411 -1409 1057 0
-925 853 643 0
-1279 978 -595 0
1422 1319 -1462 0
734 -403 1088 0
1773 843 -1183 0
1444 -517 -1389 0
-1495 557 -1038 0
1702 47 -1448 0
-1475 1023 1470 0
-987 -992 1147 0
-10 214 1027 0
776 -578 1563 0
1163 1685 -650 0
-1397 -516 1524 0
-51 538 663 0
1719 877 -465 0
953 -435 -730 0
-32 -215 -1173 0
564 -776 -1018 0
-167 1586 466 0
719 548 -1561 0
1943 936 1341 0
532 1186 -496 0
-879 -437 1219 0
-1922 -138 764 0
-1189 -1487 -80 0
-457 958 1454 0
21 1391 -1020 0
1074 -783 -750 0
-1059 290 -470 0
-1966 -1344 -121 0
226 1562 923 0
1939 892 1440 0
193 -1358 -722 0
694 1631 -1465 0
-147 -559 -624 0
817 -1078 1708 0
1145 1865 397 0
-1994 1094 1050 0
1273 1444 516 0
1220 -89 -1104 0
-220 353 -397 0
562 1391 -242 0
-1894 345 -678 0
-1168 957 1737 0
-529 1160 -1985 0
1025 -1484 -1204 0
410 983 -1518 0
-1566 860 690 0
-1456 1110 525 0
695 -250 966 0
873 766 786 0
-312 764 -1024 0
1860 -6 376 0
621 1792 974 0
-200 1909 558 0
1785 -1699 -333 0
1617 -200 211 0
911 -1921 487 0
-952 1488 -118 0
1648 -1746 357 0
-1644 -1042 -1707 0
-1348 345 1786 0
1493 174 -1536 0
1712 1535 1898 0
-1467 -1985 -842 0
1820 352 -1996 0
-1313 -355 700 0
1884 593 75 0
1614 550 1462 0
-1783 1436 -581 0
-1472 -1170 -1115 0
-582 -187 -801 0
-1089 -500 -836 0
997 1052 -196 0
358 1413 -72 0
1806 -1546 -1173 0
-1387 668 254 0
-1580 630 -171 0
-1234 -502 -625 0
655 -744 1659 0
1182 -520 -120 0
181 -122 -1163 0
-1066 -953 -1835 0
-1104 -1811 1935 0
-466 -445 -1153 0
1645 1029 -774 0
1253 84 -127 0
1389 -1236 -221 0
1145 151 1819 0
-408 143 200 0
1556 -909 -991 0
-1456 -773 730 0
1164 794 970 0
-455 -742 -1465 0
-402 -892 156 0
1873 -1423 -1578 0
1084 1450 -199 0
-1873 631 833 0
393 -1739 -5 0
1826 1312 -226 0
447 -1645 -635 0
-1335 1417 684 0
-505 1341 -1168 0
610 -594 172 0
-83 -886 -212 0
1429 -1042 -561 0
797 324 14 0
-358 -673 1976 0
-651 -1367 1754 0
-894 138 -1684 0
-48 1782 -1982 0
933 -640 8 0
14 -679 -1871 0
461 -493 1696 0
146 1111 -593 0
626 447 1044 0
-1455 1308 37 0
-684 143 -1241 0
-251 635 -323 0
1531 -462 744 0
1024 -1544 -353 0
-1821 802 -1472 0
1674 -485 449 0
-518 235 -949 0
552 87 -255 0
-576 -976 -1176 0
-1775 -682 930 0
1526 -955 40 0
-1174 -1851 11 0
-1917 250 -830 0
1160 -1489 1220 0
-508 -1041 -884 0
1678 -1509 -1638 0
1981 1825 -859 0
936 4 579 0
1712 -1157 -1138 0
1262 -71 -140 0
-1524 -1906 244 0
1220 1143 935 0
737 -1352 -62 0
797 -1894 -341 0
1746 -1115 -536 0
-1735 -550 547 0
1925 -1319 1842 0
187 -1808 1917 0
-420 769 371 0
-322 384 1904 0
-655 303 -1505 0
-1461 -886 534 0
-1184 1219 -1867 0
730 -1420 -1352 0
-1602 1490 -363 0
-1318 1500 -999 0
875 -33 1587 0
-1145 48 1872 0
705 -491 -394 0
-1519 53 -1913 0
229 -1409 -1958 0
-1481 -618 25 0
1567 -1705 -1610 0
-1770 -753 594 0
1187 -87 1519 0
-283 -514 273 0
-62 -979 -501 0
411 73 -78 0
-428 -941 -134 0
100 -885 -1848 0
262 507 -954 0
-221 -385 684 0
-824 -438 927 0
326 -111 -891 0
-869 -915 831 0
110 -1629 -772 0
-1911 -937 407 0
898 -683 -1397 0
1015 -1718 84 0
348 -1460 476 0
-916 1823 924 0
-786 -1105 -1261 0
-1928 -134 -973 0
1840 -522 1584 0
815 1998 -436 0
1133 -197 1459 0
-1787 100 767 0
-1013 323 305 0
1052 -1653 209 0
1250 -222 -1007 0
959 577 -573 0
210 -1308 606 0
1570 1707 1042 0
-157 901 -488 0
96 -1837 -111 0
-1765 19 92 0
770 -511 -1991 0
-594 1395 1472 0
-1615 905 1855 0
-78 -1135 -1051 0
-1929 1218 1867 0
-1565 -1663 -1503 0
1617 -113 1800 0
1198 844 -1071 0
-1138 -1817 547 0
666 789 -1288 0
-1284 -783 -1590 0
-772 641 1232 0
396 -118 -488 0
1503 -956 -526 0
1601 -129 950 0
209 -1384 1639 0
1129 1986 -187 0
620 -928 1360 0
156 735 1719 0
1682 1576 -398 0
995 877 -364 0
-1292 -551 -223 0
1174 2000 1108 0
1199 -943 617 0
-808 288 -239 0
-1931 -1997 -929 0
448 -583 -1809 0
-156 741 1233 0
968 -45 -421 0
920 -1231 -1658 0
-665 300 1285 0
-677 -1494 -32 0
1277 612 -1139 0
76 1842 1404 0
-1158 -1258 -1686 0
-1917 823 -188 0
1668 483 -1366 0
-501 -1259 1511 0
-1759 1084 1382 0
-1156 1643 1145 0
1977 991 -1014 0
-491 -1788 -617 0
-904 -119 -640 0
-909 -570 -1231 0
-350 -97 1051 0
-1976 1198 98 0
-622 -506 -71 0
-702 -1082 -1639 0
1437 -814 83 0
1352 251 -1547 0
564 -261 -561 0
412 -1812 -615 0
979 1952 -904 0
991 1878 -934 0
-1029 1981 421 0
1082 -1297 424 0
-743 1788 -658 0
-542 992 1900 0
-741 -832 1221 0
1192 1537 -72 0
-1786 -285 194 0
-60 1254 -1652 0
-795 -41 897 0
1699 -859 -456 0
1279 -775 1119 0
-1037 -269 733 0
1135 523 334 0
1716 931 -28 0
205 1233 556 0
-1434 1668 1465 0
13 1799 -1722 0
1255 -353 -1892 0
-1730 -1518 642 0
1465 1781 -1703 0
-886 -42 629 0
-144 814 -365 0
1159 1426 -530 0
-1020 -1446 1503 0
-1193 1897 1917 0
-1428 657 1241 0
762 -1574 1008 0
-24 595 340 0
-1634 -1043 1227 0
-1182 -633 1882 0
-510 -1680 1720 0
-857 1946 596 0
-1229 514 255 0
901 1438 1635 0
4 -1308 -1072 0
1409 1167 939 0
-1191 -305 -777 0
-798 174 1438 0
-1084 1999 -623 0
463 -733 1056 0
719 604 491 0
677 921 -573 0
310 1411 -1685 0
-980 -339 990 0
-593 -769 1001 0
84 -1818 -70 0
-450 1294 986 0
924 1126 -1768 0
1009 158 -1456 0
564 -799 389 0
1630 1976 998 0
-945 -420 -731 0
1523 716 -1908 0
614 -1017 128 0
-976 -124 1053 0
-652 -565 -1071 0
-1983 -1829 862 0
-950 -681 -1865 0
-484 26 -1679 0
1230 -1429 -1637 0
262 1651 898 0
893 1589 499 0
948 1226 328 0
562 1101 1711 0
1283 1489 522 0
-933 -525 -1467 0
-1561 1733 220 0
972 -365 -1844 0
559 -1345 -1241 0
-1001 38 951 0
-541 -326 -1165 0
1481 -1852 -1463 0
-901 -1983 -862 0
-978 226 1657 0
1730 -383 -263 0
-1554 -1401 874 0
1084 343 1652 0
-128 -846 1905 0
-1388 1295 -1636 0
-1508 -1194 1068 0
619 1727 -55 0
-1690 168 -500 0
1895 1262 760 0
1441 295 1053 0
-1436 1955 176 0
-1161 -924 814 0
-66 254 -259 0
-227 1093 -278 0
-175 -361 -1354 0
-1278 76 1836 0
-217 1175 -180 0
-220 -620 1074 0
-538 -1632 -1445 0
-73 -1157 -407 0
276 -1355 343 0
-1506 -1175 -283 0
151 392 764 0
556 1144 -320 0
-190 -1397 937 0
271 387 -1027 0
1551 -1186 524 0
-666 1608 1413 0
1293 -1829 -507 0
-1908 672 -341 0
1851 565 -1324 0
-396 -1032 -220 0
-1346 -931 -993 0
-1686 477 -1750 0
-935 -1966 374 0
683 -765 52 0
-791 -494 1245 0
869 47 -1133 0
1341 -352 1266 0
-673 234 1174 0
-213 -814 -864 0
542 326 -862 0
-316 -702 -1907 0
1240 946 1537 0
-114 -1595 -970 0
138 -583 1728 0
-964 600 474 0
-469 1208 1317 0
-780 461 204 0
-469 1373 -883 0
550 55 234 0
1091 -36 -1644 0
91 1067 1183 0
-1952 992 1918 0
506 572 -109 0
1651 31 1531 0
547 -1071 -744 0
1838 -1491 -1032 0
-1602 1558 -521 0
-470 -636 -475 0
-441 1700 -727 0
-156 577 219 0
1146 -67 442 0
762 279 -1267 0
-1711 759 -1960 0
-70 -1351 -62 0
1165 1869 449 0
1621 -1257 -856 0
1268 1521 -1608 0
-1813 232 911 0
308 1575 1546 0
1726 -1760 -464 0
946 -1527 -52 0
1325 -1052 305 0
-1753 -171 1051 0
-881 842 1610 0
490 -937 -1443 0
1062 981 -1150 0
630 1465 491 0
-858 1720 707 0
479 -1716 -1464 0
-1687 -1904 -160 0
-1977 571 1403 0
-287 838 1975 0
171 -474 1302 0
-188 -27 987 0
-1146 -425 1604 0
-985 -845 152 0
862 153 -980 0
-1794 -257 -1700 0
-1325 -1539 -998 0
993 662 1792 0
571 -1946 1373 0
-171 1499 541 0
-268 -1417 21 0
-17 -238 -43 0
1370 1230 -725 0
962 -909 -1666 0
-1027 1745 1974 0
727 1988 -210 0
912 577 -594 0
1313 -995 -497 0
-1796 328 -86 0
-884 1354 -1169 0
-792 1761 -1453 0
-963 699 -1852 0
1306 -767 -1606 0
230 1203 -1421 0
-1153 -69 -1668 0
-1577 1584 1419 0
-64 1407 -1038 0
-1959 1327 -829 0
-1264 433 -1112 0
52 -852 -1427 0
-1220 804 -1538 0
1174 -1877 -205 0
-1495 -911 -1484 0
-1960 -1998 -1798 0
1363 1040 1821 0
-595 -1153 1277 0
963 -1673 -637 0
-1804 -890 1023 0
267 -1627 2000 0
-934 -1379 -900 0
1980 -602 -1078 0
1769 -629 1568 0
-1697 -1046 314 0
856 -973 750 0
376 -192 759 0
170 740 654 0
-1610 -741 -1294 0
-141 579 1881 0
-1017 -76 -1458 0
-679 41 1358 0
775 -840 1534 0
173 1893 -1267 0
1446 -809 1718 0
-1827 773 1713 0
998 -1762 710 0
302 -1285 -1700 0
1242 -1827 1645 0
-172 -1679 1180 0
751 -1793 -384 0
951 1027 -1252 0
1817 789 -314 0
-974 -1919 -1087 0
50 412 1851 0
482 1791 -514 0
1587 -1129 1522 0
-1207 -353 -1048 0
-19 1057 275 0
-1804 -1934 -1569 0
-401 1298 -39 0
1846 42 -1421 0
-1178 -1230 83 0
1411 1142 -797 0
-1095 1731 -1728 0
-887 -167 1488 0
-24 -1265 1554 0
1357 1257 -562 0
1408 580 1275 0
856 1850 1315 0
-1757 -539 1987 0
-1242 1107 -1423 0
-1333 1271 -787 0
1195 -1928 -1105 0
-262 -1391 -92 0
-1411 539 -800 0
-1437 1653 733 0
-955 -1432 429 0
1164 -694 -1127 0
1503 1984 -1120 0
1453 -339 440 0
1546 -965 211 0
597 -359 1723 0
647 -1495 -1583 0
1390 -458 -1457 0
1899 -319 1467 0
-1490 719 -1728 0
1221 959 167 0
-1911 1836 -1248 0
-331 869 1587 0
-1573 3 -317 0
-801 519 -1963 0
480 555 -1282 0
365 728 396 0
-80 1442 300 0
1238 1495 -67 0
-1229 1314 -1890 0
-1277 -1649 360 0
1202 816 -378 0
539 110 -1825 0
1318 1959 480 0
1189 450 488 0
1991 285 1077 0
1558 -693 70 0
1989 -1365 1827 0
1270 -1220 1056 0
1792 -498 756 0
961 107 -1482 0
-1472 -1234 -20 0
1377 -966 -313 0
1448 718 1586 0
1786 1436 234 0
-1966 -689 530 0
-460 -1361 -1175 0
-1037 -1301 1399 0
565 326 -712 0
1147 417 -1113 0
386 -1720 -634 0
-1545 926 -1391 0
1421 -1270 1178 0
-1883 822 -1481 0
-727 739 -965 0
-716 -1781 -430 0
757 -105 746 0
1879 326 1705 0
616 -221 656 0
-1621 884 1498 0
359 -1992 1680 0
-994 49 1397 0
1705 1553 -1919 0
-1516 -1823 -1225 0
-1449 1483 1864 0
-926 -1757 1577 0
76 683 684 0
472 725 1466 0
-1955 459 -1171 0
506 970 1947 0
411 81 1444 0
-1052 752 363 0
1530 -1393 137 0
-1066 -408 -1156 0
-1550 -1247 -1454 0
-1768 -1915 -307 0
1018 757 -1029 0
1496 1617 78 0
1425 1833 -169 0
-663 711 -1429 0
636 -1275 -1290 0
-1325 1610 -72 0
-807 -1803 -788 0
45 749 -1760 0
492 1408 -213 0
-781 -992 1676 0
-514 -820 1123 0
475 1977 -1922 0
487 1366 1353 0
-1625 -1092 1280 0
325 -117 1807 0
1134 -1653 -917 0
-849 447 711 0
-58 1712 -1874 0
349 1968 944 0
-102 1240 -519 0
-1737 1915 -400 0
769 -979 597 0
1205 -614 -1193 0
-1808 -980 325 0
-380 -1084 -584 0
369 -965 1127 0
-566 -1635 -628 0
-1903 814 1142 0
-1579 -534 -1463 0
-492 -1284 -1708 0
1978 -571 1367 0
-1095 29 -1066 0
329 -1366 9 0
-1505 -161 701 0
580 1419 -1450 0
1894 936 1172 0
1527 1191 -1642 0
1704 -71 1520 0
1628 -1681 1661 0
719 -324 958 0
1127 821 221 0
1244 -121 1756 0
-322 1622 801 0
-462 -526 -1167 0
450 1310 1888 0
371 1831 801 0
-1146 -781 1032 0
1053 -359 -493 0
-95 195 -10 0
-1049 -1250 -795 0
-70 399 -1920 0
1510 -15 -829 0
-588 213 -993 0
-1137 -1971 -1876 0
712 -1255 -600 0
-825 1731 -885 0
-958 -502 -1576 0
879 -908 -170 0
-500 1428 -704 0
1854 -226 303 0
-1271 608 -1871 0
-1585 -205 -867 0
-632 -769 1701 0
-1781 -483 -900 0
1980 1424 960 0
-644 -61 802 0
-582 1200 1736 0
-1938 1629 1087 0
-247 545 836 0
1443 -24 1829 0
-805 1531 -1993 0
-1049 -1382 -409 0
153 -584 1702 0
901 831 1040 0
-1118 6 208 0
-123 1775 1772 0
-1469 -1434 1658 0
-955 1410 -1195 0
484 -1459 224 0
-251 -1655 -1664 0
-407 -1950 1315 0
653 1791 1620 0
1445 -1412 568 0
1451 1174 -1239 0
135 467 -1520 0
-1226 502 1882 0
-1779 136 -1897 0
-18 -101 -1630 0
-923 -1879 1638 0
312 -1540 -1444 0
-1751 -394 -1257 0
1184 1165 -1425 0
-929 1795 -705 0
-1486 699 -1728 0
228 -205 736 0
-571 1818 -370 0
-1873 1449 1548 0
476 -1870 -217 0
526 -1515 1432 0
1089 297 -1329 0
1459 -537 -1253 0
-568 -985 -464 0
1920 -440 -1067 0
1937 -1796 -911 0
-734 -1371 -211 0
788 -118 479 0
1319 -1971 1210 0
587 -342 1597 0
-459 -956 1007 0
874 145 -1139 0
1687 853 827 0
-1923 -119 1620 0
-329 1200 606 0
1254 -1489 732 0
-1737 -499 884 0
-1689 1139 -1856 0
1527 1171 1024 0
-731 -178 1916 0
-286 -1590 1069 0
734 -232 -1332 0
-1311 -1378 1697 0
71 -585 1425 0
-1900 76 270 0
684 -1244 -1291 0
440 1927 -1634 0
1400 1849 629 0
481 -125 -1426 0
1847 674 -1929 0
65 1490 -1210 0
693 1517 -69 0
100 1879 1675 0
361 -1038 -708 0
-1541 -312 -305 0
15 130 1315 0
1226 1025 -1745 0
-893 414 639 0
1363 -291 159 0
-1193 332 1890 0
491 -874 327 0
-847 -504 -144 0
-1829 634 968 0
-393 -1765 1217 0
-1855 -1807 419 0
-1949 -1513 -207 0
121 920 -1692 0
-1807 -1052 548 0
-1187 1974 -1492 0
157 -763 -327 0
-1658 -1158 208 0
1237 -732 1461 0
-551 -1044 1058 0
-1323 1335 396 0
793 1083 -211 0
-1139 984 505 0
-442 -1695 1921 0
1034 -435 -1308 0
-1290 -1570 -246 0
-1972 1025 1411 0
-160 -231 1460 0
-859 -1335 1757 0
-1370 -328 463 0
1823 -1466 -1937 0
1295 -1640 711 0
-867 -195 -1561 0
561 -1434 -97 0
-1241 441 -1135 0
755 -1941 -1430 0
-175 845 223 0
1862 1848 1452 0
3 -153 -1329 0
1874 -1452 -1027 0
338 667 -240 0
-288 -1311 -966 0
-78 1709 559 0
-150 1447 1189 0
840 -1232 1936 0
238 1064 -1974 0
732 -1250 -1165 0
-487 181 1297 0
-255 -1501 1459 0
1928 -1216 -1227 0
1236 1914 -1764 0
-1133 1111 444 0
-527 -951 630 0
1934 -1303 97 0
-413 -309 -1416 0
1712 1617 -1354 0
904 -1122 -316 0
1601 1613 -700 0
314 -1722 1512 0
178 1457 418 0
-243 -1463 355 0
-1981 1807 -981 0
394 -281 373 0
526 1845 1767 0
10 1262 228 0
-475 -131 1318 0
-1665 89 -589 0
877 -1872 300 0
-1872 -390 1912 0
-60 1633 73 0
-1852 -546 1256 0
-485 -552 -296 0
966 770 633 0
-378 -672 -1707 0
-667 602 -1955 0
1525 -1988 -1080 0
-452 -1948 -179 0
-813 75 -818 0
-1157 523 -754 0
-20 -703 851 0
-1762 -275 -404 0
-1718 606 -1215 0
-505 -131 196 0
942 131 1223 0
-1723 1269 518 0
875 -1490 799 0
-1043 -1944 -668 0
866 -235 -471 0
-464 1859 236 0
252 1786 515 0
729 -912 -1478 0
-1146 -1036 966 0
1785 268 1628 0
1001 446 1242 0
1179 413 -1640 0
-1677 481 -1063 0
-1240 -116 -878 0
1390 1682 264 0
944 1136 -530 0
1105 1019 339 0
824 1264 796 0
-556 -661 -535 0
1101 875 -1123 0
982 1937 -1327 0
-342 -1065 -1743 0
-195 738 1951 0
-1792 460 -499 0
-1886 1226 -931 0
1668 1605 -1748 0
-1143 1374 509 0
925 1272 632 0
439 -1230 -339 0
-1114 1023 -763 0
-835 -1578 742 0
572 -1915 16 0
-1702 -893 -1760 0
-1805 -767 934 0
372 -1945 -768 0
-640 1670 -1236 0
610 -1807 -1204 0
1242 1286 956 0
1362 -1137 1510 0
1232 218 835 0
767 -1623 -300 0
359 -115 -1702 0
1729 1619 914 0
-315 1950 1213 0
-1106 -584 -1326 0
-1605 139 1228 0
-424 1779 -1519 0
1238 -334 1588 0
521 1141 1065 0
179 293 562 0
1443 346 -1783 0
-595 -451 -386 0
407 -178 156 0
-283 -527 134 0
-1547 285 -1124 0
92 626 -149 0
-1480 1250 -1332 0
-1288 -802 -1074 0
-788 1432 -928 0
-1134 551 -820 0
-1738 -1204 363 0
-1304 -659 -112 0
-452 -1014 -1700 0
-549 116 -452 0
-188 -549 -1927 0
831 -1087 -1133 0
-711 -1782 -265 0
-1462 -1812 -507 0
37 -422 -1389 0
-395 -1739 -1749 0
868 1028 471 0
1023 -1514 -1704 0
1944 6 -391 0
28 256 -772 0
-491 -1405 -865 0
34 1527 1468 0
-206 -261 1810 0
1254 1533 263 0
499 -104 1912 0
-1866 -1121 -1449 0
293 -1104 1952 0
295 -1087 -290 0
125 557 493 0
1240 613 -478 0
-794 -1738 1621 0
-255 961 -946 0
42 1836 670 0
-1580 960 939 0
-681 -1483 1721 0
1261 1087 717 0
1924 349 -1274 0
494 -1653 -1692 0
1460 -605 -742 0
-776 -1429 503 0
-813 138 528 0
-1105 -1618 -1020 0
1196 -1275 1780 0
-100 -474 -687 0
-1186 1913 -1711 0
890 1601 414 0
435 -644 -1008 0
881 -1364 747 0
-1506 -1806 686 0
-777 -1221 -1183 0
-1963 -1668 1646 0
1053 -72 -1530 0
1908 1266 -263 0
-1003 -1044 721 0
215 -1179 1753 0
866 1461 892 0
60 57 975 0
808 475 84 0
-720 -1370 1595 0
502 526 692 0
-1412 1933 1339 0
-1464 -739 -1679 0
1897 -795 1085 0
703 328 818 0
251 -1134 -1293 0
220 1378 -1748 0
4 256 -454 0
230 26 -1039 0
48 104 -1018 0
-422 1483 -884 0
-701 -599 -538 0
1673 1347 1219 0
838 -700 792 0
-167 -527 1527 0
-195 1299 1970 0
427 789 -1949 0
-495 3 32 0
343 -849 677 0
1589 441 1381 0
633 -1669 1179 0
1205 638 -234 0
1418 -1190 -1718 0
-1323 482 1472 0
1208 1729 -180 0
1207 126 -915 0
1201 -676 -1268 0
-59 -890 28 0
-1612 -1497 1103 0
-785 1811 -589 0
-827 1595 -1497 0
407 369 1273 0
-1329 69 -1173 0
-1748 -1094 1494 0
-683 -546 -424 0
-598 1982 -810 0
-1625 1242 -1423 0
-591 -217 666 0
1607 -1512 107 0
839 175 481 0
-557 -1280 1697 0
184 -296 -146 0
-629 1377 1539 0
880 1283 369 0
1016 -888 -1093 0
-1 1424 -1299 0
-1659 -441 -460 0
80 -863 -881 0
536 1807 211 0
-56 -1861 132 0
-144 -530 -1367 0
1296 -37 -146 0
-7 1967 -551 0
-714 993 -1693 0
-1445 388 926 0
-862 -702 -262 0
-1695 -65 1018 0
-1736 -868 -1969 0
-1815 1005 -629 0
-513 1192 -1800 0
-1776 -489 765 0
646 1932 1162 0
-1406 1740 1475 0
1475 -1561 -1195 0
-1155 -1557 1010 0
-1286 -1531 -957 0
-216 -1483 -40 0
1315 1765 -332 0
-1442 1397 -1067 0
-1495 1551 -597 0
-1391 1756 -111 0
1313 -447 1151 0
1863 1223 735 0
-1441 -1298 1087 0
-1725 905 98 0
1113 -1839 1714 0
1412 -486 1101 0
-1362 -1818 -1329 0
-1570 1789 63 0
961 1470 1054 0
311 -1782 -600 0
-745 -1454 -1392 0
-1951 214 -1691 0
901 -1095 1410 0
-1246 86 -1967 0
-1517 -611 1603 0
815 -623 -653 0
-1175 -1100 -633 0
-398 -1308 -347 0
-1634 1906 1362 0
1503 1926 -529 0
1907 1865 234 0
414 -1004 -407 0
579 1421 -161 0
-1369 1677 1046 0
949 -1967 1144 0
-1105 126 1424 0
-729 -1779 -1477 0
-1045 -110 271 0
1252 -1628 275 0
-887 225 -1344 0
-1985 1471 522 0
1321 -328 1452 0
-1815 522 1499 0
-537 -1619 -439 0
-93 -1587 314 0
-117 1470 1303 0
1575 1188 1180 0
-224 -1592 -177 0
546 457 -426 0
1090 1407 -1836 0
-1482 597 1083 0
1988 -322 592 0
1247 -1863 378 0
-1472 877 -869 0
1991 -411 -679 0
-778 -1437 -1660 0
-414 1670 -786 0
826 -1691 -1734 0
-43 -643 -922 0
-1443 1675 871 0
847 692 -500 0
970 1696 1911 0
1375 774 1270 0
-1943 791 779 0
789 -735 1961 0
-1350 -1521 -1413 0
919 1084 -683 0
-1924 597 1384 0
-538 -781 12 0
-1889 -1194 1932 0
-1819 11 1749 0
430 942 1723 0
1262 -1340 -1652 0
162 -184 -1883 0
933 1023 1453 0
-729 -96 -1751 0
-1679 -1231 1528 0
-1013 -1022 -639 0
-937 222 -1215 0
-536 1184 -1397 0
-1615 -1835 -254 0
-770 -509 1307 0
-940 1975 -226 0
-293 768 1027 0
472 -1916 1769 0
1516 258 121 0
-399 -1735 -482 0
1743 -1359 -1342 0
1107 -513 1213 0
-1897 -1394 -1643 0
-773 1474 1058 0
-171 554 1715 0
-402 581 -1896 0
840 1453 1672 0
479 -1926 892 0
-1928 104 -1916 0
6 1945 -899 0
1081 975 144 0
-1075 1554 202 0
1659 -1758 311 0
-1645 -1424 -1298 0
-744 417 -1526 0
-404 1381 -601 0
-142 491 -568 0
-1531 1248 -923 0
-536 -1004 1375 0
917 -681 757 0
-1334 530 -153 0
-285 1258 1370 0
-1339 1925 -1349 0
-67 -1271 1860 0
1503 -540 -1638 0
529 1991 804 0
1459 -267 -442 0
-1385 -1170 492 0
971 406 251 0
-1439 1984 1519 0
147 1114 -612 0
1854 -1784 23 0
1288 224 1828 0
-624 -1550 198 0
-590 1146 -1769 0
-1165 -1536 -1328 0
92 -172 -1678 0
-1295 -790 1099 0
-1100 -541 1434 0
-1799 -790 58 0
1506 -1882 1685 0
746 1494 660 0
133 1458 1485 0
-101 1327 1759 0
-616 1546 -1770 0
-1645 748 261 0
875 464 82 0
-1828 1181 -580 0
323 -577 -1109 0
-1959 -1723 -792 0
-1367 1473 -83 0
657 1184 1168 0
1403 -1268 -773 0
-242 -1204 1012 0
-432 -1721 -876 0
1649 1648 1916 0
64 67 1698 0
57 1707 -1112 0
412 -1471 1636 0
-1013 -1373 1195 0
-1501 -1493 299 0
942 473 1518 0
-50 -404 -415 0
1108 -633 1128 0
-1528 791 1019 0
-454 -763 417 0
497 1343 -1872 0
1692 -740 -1555 0
-1390 -964 -790 0
-1885 -1339 -1682 0
1158 1504 -837 0
-1064 1303 1039 0
-555 -1684 -156 0
-764 1242 -497 0
138 1621 -210 0
934 -842 88 0
-1585 1934 859 0
949 -1646 -1951 0
-73 -1128 -1469 0
-1097 -1965 779 0
771 1466 -1945 0
1661 -774 1053 0
87 -448 -1906 0
-540 -406 1245 0
-554 -573 -67 0
1727 -1407 2000 0
-1627 1937 1107 0
-1581 -1676 -322 0
1857 1421 -1908 0
1143 -898 1263 0
337 447 -116 0
-1072 181 1454 0
-336 -1236 -653 0
1716 -1593 370 0
905 -1627 -1805 0
-1369 -835 -1774 0
-1166 -196 -1916 0
1469 -79 -409 0
771 -497 1074 0
1571 -1757 1264 0
-669 1165 1072 0
1521 -1702 -399 0
1057 797 -47 0
1480 860 519 0
1969 618 1816 0
146 -1746 14 0
-1272 970 1733 0
1473 -1913 -1112 0
-961 1418 -1060 0
52 -900 1523 0
1595 -1201 1016 0
-1016 737 -538 0
1304 -371 -1499 0
988 112 634 0
1120 -1484 -1936 0
-1619 93 -636 0
1289 -894 158 0
-80 1037 -748 0
698 321 1819 0
1616 -207 -400 0
1337 364 157 0
-977 -833 944 0
-858 -261 -650 0
-1802 354 -518 0
-1633 -827 1804 0
1302 1072 612 0
-1994 -1365 1568 0
519 1285 1174 0
20 -65 236 0
268 758 1370 0
691 -1462 -1671 0
-1004 -1412 -514 0
-1482 -1419 705 0
1518 -1777 -493 0
-1636 -222 1037 0
-376 -1434 -750 0
304 -130 307 0
-67 -1596 359 0
-1290 -46 611 0
-814 -1459 421 0
-182 -396 1472 0
638 1797 1539 0
-1368 -399 99 0
362 -1238 1069 0
683 528 -1672 0
-1024 1445 -530 0
-561 295 -984 0
-1662 510 -1359 0
-531 1118 56 0
1610 -1450 -467 0
1814 1474 1272 0
1556 355 -1850 0
522 1566 -1046 0
928 -1403 551 0
455 478 -15 0
326 -1200 -877 0
755 -1745 -271 0
488 -1419 354 0
395 -322 1208 0
-1153 311 -1634 0
1108 -1386 -1567 0
1012 1196 -1213 0
1146 1401 377 0
990 734 1051 0
1270 -1307 164 0
1552 -1937 1077 0
442 -466 -206 0
-238 1179 -1677 0
1711 -1457 -1606 0
-122 -1485 98 0
1102 1763 562 0
246 -1446 618 0
1471 704 -116 0
-791 1318 486 0
-636 -112 -1582 0
606 -1313 -479 0
136 1056 -325 0
-1208 488 16 0
1058 1552 -1279 0
-863 1814 1281 0
-1598 595 911 0
373 620 1668 0
-1016 -1495 1511 0
-913 -504 463 0
760 638 -69 0
1874 -1972 591 0
-1129 1476 1728 0
-1614 479 864 0
-693 1611 231 0
-1158 -229 25 0
-1652 793 -911 0
-1676 -907 -1957 0
1276 -1891 3 0
-1221 -1898 -575 0
963 -325 -1647 0
179 -1647 1057 0
1595 1189 -1163 0
1174 -1993 6 0
900 -1110 524 0
-573 -822 756 0
1815 644 -1791 0
1027 -1927 1098 0
-620 685 1140 0
-719 -1968 -1789 0
692 -1224 1789 0
462 519 -1377 0
1104 996 -1547 0
-640 -542 -448 0
1946 -1139 -1143 0
1760 -1831 -895 0
-550 -1876 1072 0
-746 -1387 950 0
1259 -1620 -1915 0
-1782 -948 -944 0
-1575 -1914 -1499 0
-1154 580 1855 0
122 261 -840 0
-1448 -1478 391 0
-1066 113 -431 0
-6 -1792 345 0
230 -1254 1706 0
-461 -1060 -199 0
-272 -303 -1936 0
-139 -1721 362 0
-21 -943 -809 0
1717 1128 1744 0
-1276 1837 -13 0
-290 480 1988 0
-807 -281 1307 0
-736 1469 -192 0
691 1102 274 0
-1987 -1867 -975 0
-101 281 -750 0
-1038 644 -135 0
784 954 162 0
414 624 1881 0
985 -1352 -1426 0
-823 -192 -863 0
-919 55 -200 0
1017 -582 1083 0
-997 1871 650 0
1652 -1359 -642 0
1193 -1365 -1202 0
306 -1052 1257 0
1264 -715 -1309 0
1287 -1800 1807 0
721 1330 -1268 0
1139 358 -860 0
-726 882 1619 0
-387 827 -457 0
-796 -517 -181 0
-618 -1684 -655 0
1574 747 1069 0
758 -849 619 0
-39 -983 1588 0
159 -981 644 0
-1600 605 -1640 0
-141 7 1202 0
888 -1631 -1342 0
-1379 -1087 299 0
-366 102 1561 0
-1930 280 1352 0
935 1503 -621 0
637 -149 1195 0
724 169 584 0
1128 1241 -1372 0
1966 -726 -750 0
1557 616 1855 0
530 1934 1994 0
590 -769 -1124 0
-1236 -664 -1187 0
516 372 1089 0
1820 -1650 -1376 0
-1633 -1031 737 0
128 -300 -902 0
-1240 1106 -1969 0
-374 230 1636 0
1959 -634 30 0
-461 -1379 1293 0
543 251 540 0
1516 -1692 -578 0
928 1070 -1498 0
-1570 -864 -679 0
-388 -1747 1780 0
-892 1351 -67 0
-740 1764 -1635 0
-1073 -776 685 0
-1460 788 1348 0
672 1351 -940 0
1314 1368 -1669 0
-510 929 1772 0
481 -32 -236 0
40 620 561 0
-1765 687 663 0
-1959 -1136 163 0
-170 1 1076 0
928 1894 703 0
624 -1839 -484 0
-603 -282 1271 0
1346 586 498 0
-1457 810 -1242 0
-601 1922 -1461 0
389 -70 1048 0
1775 -1107 -803 0
-1244 1261 -1382 0
-1268 1820 1476 0
-1956 -197 1557 0
151 323 1965 0
1870 -1624 449 0
-1903 -1633 -292 0
305 1476 301 0
-602 -1940 1872 0
-1219 -1069 -1777 0
-393 -535 -918 0
-634 618 -1188 0
1913 1383 1264 0
1048 163 -1969 0
-1878 -1634 -1077 0
1290 1364 -607 0
-1353 1146 -1782 0
1683 -1527 1729 0
-537 -326 1213 0
-42 1666 -1692 0
1795 1284 684 0
1272 473 1138 0
1851 1051 898 0
1529 -1107 -1131 0
1853 972 402 0
768 -591 -1026 0
1318 497 -818 0
-451 153 -1035 0
1600 -1032 -1027 0
534 -1698 -1677 0
-1688 -451 -976 0
-479 -1769 -993 0
-1345 -894 1324 0
-1153 1477 -1502 0
-706 1176 853 0
378 1589 169 0
898 1799 645 0
-627 633 1125 0
-1022 1317 343 0
-1211 905 626 0
-530 941 -1371 0
70 1609 -799 0
1151 71 -79 0
-770 1833 -772 0
-24 -1447 -198 0
219 1698 1655 0
54 -1252 -350 0
1945 1578 -1052 0
1791 -216 -509 0
1726 -1178 -1724 0
-1508 -944 -90 0
1968 -457 465 0
-425 51 1681 0
-1211 -1732 -835 0
-1363 -1711 1062 0
-1814 -1856 -1720 0
-1930 994 -56 0
-421 170 -566 0
-1958 -1859 1512 0
-166 -952 -1183 0
184 258 -705 0
1934 1744 -1442 0
1755 338 -1547 0
-156 1786 -1361 0
-1840 -667 87 0
-1870 -1508 -823 0
1751 -96 54 0
-1454 -797 -1353 0
-1018 997 -518 0
234 205 1790 0
746 1319 -1713 0
-1930 77 1182 0
549 1902 -684 0
1247 1891 56 0
67 1627 1309 0
1367 960 943 0
1753 -402 -609 0
190 817 690 0
1096 407 1713 0
1575 -1055 863 0
752 -1039 25 0
1400 661 1667 0
628 894 1674 0
-277 -65 -270 0
633 -1059 820 0
-773 -339 191 0
716 -227 321 0
1955 -1302 -1806 0
536 1873 -784 0
1105 -1574 -139 0
-1536 425 1117 0
604 241 1434 0
-1525 -1791 -1178 0
-372 -361 -793 0
-1631 -1457 680 0
-1279 807 1453 0
1536 644 -1277 0
-715 927 -1387 0
-809 1479 573 0
281 821 -592 0
528 -1211 -1187 0
1296 -1820 -1136 0
-1553 -785 -1799 0
1149 -1258 -128 0
836 -1805 -967 0
-297 63 242 0
-668 1690 -1040 0
-427 1460 1706 0
816 824 1281 0
1179 1867 -1217 0
1311 -1183 1323 0
544 -1415 1218 0
-321 968 -1045 0
1547 -973 64 0
584 692 1214 0
1626 1542 804 0
-850 -947 -124 0
1635 1344 506 0
-1459 -866 -588 0
-1415 1737 -66 0
-146 1400 668 0
503 -1777 1143 0
-713 1844 -667 0
165 20 1243 0
-1020 -829 1508 0
416 473 1116 0
1065 -150 -1725 0
-60 -883 1216 0
-752 -363 1768 0
579 551 -1424 0
1315 -234 1978 0
-1645 1031 1416 0
1144 1400 319 0
-1130 -1373 -1712 0
1527 1883 -1970 0
-409 -36 -691 0
-911 917 -60 0
-260 -1759 -877 0
1447 441 -1215 0
1730 -523 -1238 0
1800 1576 -141 0
-147 1779 240 0
-1094 -1932 1622 0
-268 452 1738 0
-230 -117 1812 0
1787 884 579 0
-1388 -1285 -1482 0
-776 -1913 -753 0
-322 -455 995 0
-1515 1378 -1259 0
-662 -1747 1228 0
-183 1787 -1833 0
1407 262 -616 0
-1891 -1939 715 0
-512 893 1199 0
1032 -1045 757 0
1759 -734 226 0
-1882 -1641 1295 0
-1990 -1605 383 0
-1608 -901 1617 0
5 1823 -1806 0
-21 -362 -1857 0
1724 1087 1816 0
697 535 -1058 0
495 -1483 1068 0
-1228 -739 1400 0
-816 708 -49 0
1141 866 -1968 0
-489 278 -970 0
637 -1343 1104 0
393 -1051 1688 0
-1033 -330 -509 0
140 -436 1480 0
-1164 4 1096 0
-914 -1146 -934 0
461 1772 -14 0
1051 1525 1658 0
-515 561 1163 0
-649 221 1510 0
-172 1622 1851 0
-1153 -1072 401 0
1451 456 496 0
-1212 -1693 -421 0
1280 928 -1498 0
586 -866 -1471 0
362 -293 -865 0
22 882 1202 0
-798 -704 1171 0
1309 -755 -1908 0
1927 1101 1229 0
-109 -1701 -323 0
1541 1288 1651 0
-690 -829 -1328 0
-1523 -1626 -666 0
-1050 1134 -737 0
-685 635 555 0
-1449 277 -1656 0
1241 1075 -394 0
1934 530 1261 0
-1516 -1044 1853 0
-1537 727 912 0
488 948 159 0
-1737 -1914 -1073 0
1070 -1877 879 0
1587 -1558 1824 0
-1958 -1780 999 0
1164 -1710 -1010 0
661 525 -1034 0
-1112 12 -1672 0
-199 940 -1760 0
-535 996 -743 0
1673 -1147 1445 0
219 -524 -1282 0
-857 -699 766 0
1668 -296 -18 0
1902 759 -202 0
-1766 1203 -43 0
-1161 -219 1754 0
-125 -898 1601 0
-779 -160 -701 0
1959 -181 -539 0
1822 1525 1388 0
363 1416 93 0
129 -1499 1519 0
-515 -92 1030 0
1023 1429 -803 0
-276 -1473 -49 0
-1217 -1405 -603 0
-845 901 -1503 0
1981 690 -1380 0
725 -128 -1250 0
1748 -1669 177 0
1483 1960 1891 0
84 1814 -1382 0
-72 -406 -1965 0
-1637 1493 133 0
-1147 1825 623 0
-755 -14 972 0
-841 -1445 487 0
-1157 54 -1930 0
1911 -1565 1470 0
-624 -1251 -1085 0
-1191 -687 538 0
1351 -1570 -585 0
934 890 633 0
862 1733 819 0
1548 655 -1488 0
-1309 230 807 0
1689 -1746 909 0
-784 -816 1573 0
1097 -1688 -580 0
1240 -205 -933 0
-1843 -1644 156 0
-633 5 -804 0
-103 194 779 0
967 -1854 -1063 0
482 -918 -1463 0
1755 -145 -1160 0
1866 1930 1208 0
-6 -302 400 0
1892 1530 1199 0
141 -100 -944 0
806 99 -239 0
227 -1720 -959 0
295 1446 -1515 0
341 455 -1100 0
-500 -1886 -1505 0
1123 1730 -106 0
1943 -1766 -1362 0
1007 911 1274 0
-1932 -1919 623 0
-907 -1595 1419 0
-1715 57 427 0
-655 1565 -358 0
-1755 114 597 0
-750 1785 -964 0
1398 -186 -452 0
-1515 599 452 0
