c Large 3-SAT formula for GPU testing
c 1000 variables, 6000 clauses (ratio: 6.0)
p cnf 1000 6000
-714 80 276 0
668 -882 -466 0
57 914 265 0
-33 -579 -567 0
-111 -421 -211 0
277 -543 468 0
-990 389 -886 0
127 -370 -509 0
511 -274 290 0
672 -835 519 0
21 620 310 0
328 76 -618 0
746 -112 727 0
843 -484 63 0
438 -321 -68 0
-455 327 599 0
394 999 544 0
-255 -810 357 0
-707 -984 -50 0
337 -258 435 0
-314 731 -41 0
127 -61 590 0
468 -444 429 0
51 -248 253 0
-135 41 -880 0
461 -337 908 0
-384 -205 952 0
628 -570 120 0
-634 -757 770 0
-3 -797 -897 0
390 626 724 0
143 -79 719 0
828 18 785 0
-154 -190 366 0
-222 -28 -932 0
-88 236 382 0
46 -641 -345 0
602 -644 923 0
-102 -306 895 0
-333 709 -803 0
-903 -245 -369 0
-620 -773 -97 0
60 757 291 0
689 -224 221 0
477 -94 -529 0
-123 806 -601 0
-40 628 614 0
-36 -183 115 0
870 222 430 0
745 618 -298 0
-310 432 843 0
-621 -580 -904 0
404 -86 -800 0
44 -136 -874 0
309 200 708 0
-384 354 -261 0
604 -794 -319 0
169 -481 -5 0
802 -418 -330 0
-120 691 -380 0
-279 810 128 0
-385 -704 -410 0
742 -876 530 0
-781 -586 -606 0
467 -426 203 0
-927 -646 898 0
-792 815 912 0
-703 -411 -456 0
299 -908 807 0
441 390 -616 0
-923 -508 -472 0
831 -52 -637 0
881 573 950 0
-343 -515 -868 0
297 -966 390 0
-636 578 793 0
-944 609 675 0
428 -30 889 0
-384 225 706 0
646 -304 710 0
-84 -850 699 0
-795 -717 -956 0
-43 -153 -389 0
-699 714 217 0
-770 844 -98 0
-198 -435 -372 0
362 337 -510 0
735 -369 -843 0
796 -845 -580 0
696 502 652 0
219 832 -630 0
-262 247 524 0
-237 459 -293 0
-291 108 -376 0
797 578 772 0
-379 755 -109 0
-644 833 247 0
840 330 723 0
468 -150 759 0
720 -38 730 0
971 668 -452 0
158 -719 -333 0
323 -78 -877 0
-494 -954 -501 0
348 746 749 0
973 263 683 0
380 836 908 0
399 220 -785 0
-356 388 -78 0
-815 889 50 0
404 -540 -372 0
739 -76 -549 0
122 367 360 0
-631 459 -286 0
810 317 870 0
-695 -302 468 0
756 862 168 0
394 -204 531 0
-719 -246 -626 0
902 -39 431 0
-934 -212 17 0
-105 -377 -711 0
-211 -577 318 0
487 -44 -704 0
493 -207 114 0
367 42 -559 0
228 -807 70 0
-762 -490 832 0
-464 810 681 0
430 470 -113 0
553 -524 44 0
-910 9 399 0
418 885 -576 0
-343 -210 181 0
-410 412 -350 0
246 -960 -929 0
-71 -568 513 0
714 -144 378 0
794 810 -92 0
-715 -997 -399 0
-341 937 830 0
508 31 -791 0
821 309 -458 0
894 111 -216 0
756 789 669 0
719 150 -320 0
-643 -982 782 0
435 563 -839 0
525 -266 877 0
860 -261 -14 0
728 -188 315 0
212 -605 228 0
-554 820 717 0
-874 -129 -508 0
199 -303 -538 0
513 -564 263 0
133 829 20 0
997 -173 -58 0
-479 641 257 0
835 984 -609 0
915 89 -434 0
401 704 -165 0
672 732 41 0
939 -257 -4 0
-730 567 903 0
936 715 -129 0
-678 246 273 0
-909 873 418 0
899 923 -631 0
-416 -519 46 0
-166 709 -524 0
-818 -655 -715 0
-770 -660 392 0
629 -621 906 0
-251 -509 261 0
133 338 951 0
786 167 -823 0
33 -280 -988 0
-871 -770 291 0
580 -531 325 0
97 170 358 0
1 -835 -565 0
49 630 -877 0
574 -861 750 0
388 -420 561 0
606 332 -786 0
741 55 -689 0
280 756 836 0
-178 -853 500 0
774 -576 -111 0
-613 2 -752 0
251 473 84 0
590 879 871 0
-936 -551 487 0
92 -198 -790 0
819 732 133 0
768 -751 -942 0
-308 704 -215 0
256 435 -394 0
-24 123 -126 0
-571 986 -14 0
-516 -153 439 0
716 671 -298 0
-172 -655 -996 0
421 578 -694 0
-115 -139 944 0
950 -719 -591 0
-36 938 -962 0
-598 -638 -912 0
704 38 903 0
-690 -364 672 0
706 -260 -463 0
-622 -586 -788 0
-638 -437 944 0
-447 208 -44 0
91 -519 -365 0
683 295 486 0
-466 521 -814 0
-678 -435 -107 0
476 819 237 0
-82 848 11 0
701 -811 -166 0
286 -16 288 0
-62 -143 -345 0
574 445 -279 0
-545 -58 -577 0
119 730 -973 0
-238 -846 490 0
-833 -589 -146 0
-299 25 -65 0
-129 -34 -262 0
-24 -943 -506 0
702 -277 -228 0
-423 222 -910 0
-603 526 -605 0
504 887 -199 0
-154 -626 -63 0
-516 -702 397 0
329 -566 -942 0
507 118 -19 0
-560 -561 888 0
829 -310 209 0
702 759 -387 0
900 105 163 0
-471 207 646 0
-814 -713 -198 0
-203 893 -95 0
-333 939 -566 0
542 479 -931 0
-522 899 -247 0
925 381 583 0
809 287 558 0
-516 -377 232 0
-648 566 -403 0
334 729 913 0
-851 -998 -589 0
785 2 -275 0
499 -709 -387 0
489 -808 -612 0
728 740 441 0
707 940 -327 0
-502 771 -7 0
-128 -23 485 0
-8 -272 -468 0
-198 -233 107 0
419 -304 -443 0
627 900 -816 0
321 267 -814 0
-673 -470 564 0
-207 -429 300 0
282 749 591 0
836 -607 147 0
960 -208 295 0
-171 55 -579 0
554 -271 906 0
-50 719 636 0
-182 -945 940 0
446 -934 333 0
151 -343 396 0
-249 -345 935 0
-765 -960 -425 0
-528 452 372 0
-936 111 -540 0
793 414 -961 0
567 -612 741 0
256 -744 475 0
344 460 373 0
605 762 -586 0
570 871 475 0
612 474 797 0
-91 -143 -541 0
-550 -255 755 0
747 239 -459 0
-102 -641 -930 0
-205 -234 732 0
818 -900 22 0
-303 885 -817 0
922 149 -865 0
162 520 -626 0
-674 -307 742 0
300 -351 857 0
50 -37 -347 0
760 -211 544 0
836 -433 895 0
998 294 -850 0
-17 490 -777 0
183 -457 -741 0
-837 212 -317 0
-41 -966 153 0
180 288 727 0
811 -465 -785 0
-660 -562 -896 0
726 -251 629 0
656 171 482 0
-105 160 449 0
670 624 -309 0
674 209 -509 0
-337 -304 -755 0
-150 -566 -869 0
-967 770 860 0
53 -305 -744 0
-914 872 -328 0
632 -724 212 0
-573 290 372 0
-130 401 639 0
359 -370 338 0
-436 -220 -414 0
658 541 14 0
931 930 292 0
563 320 368 0
330 932 36 0
-23 65 -606 0
560 171 -326 0
-396 -296 -503 0
-861 -683 589 0
913 -642 779 0
-352 -289 559 0
-537 517 433 0
-137 367 -448 0
852 -904 809 0
-467 928 -304 0
-906 -72 908 0
21 69 -314 0
161 351 982 0
897 129 78 0
274 -762 604 0
382 -353 -89 0
995 -360 952 0
-474 -340 -623 0
166 574 533 0
967 -655 -802 0
-670 501 -225 0
-78 246 -72 0
946 713 752 0
-585 -290 -848 0
423 138 -862 0
-319 792 -20 0
-566 953 -785 0
-515 315 -746 0
-282 -996 -724 0
432 209 -267 0
-411 -723 -825 0
-733 32 411 0
242 962 784 0
-505 344 714 0
198 982 -932 0
-568 602 87 0
883 162 -215 0
529 212 -425 0
348 -694 12 0
-115 509 683 0
152 62 -531 0
945 33 -793 0
151 -407 489 0
-979 65 -402 0
294 -899 752 0
344 -876 835 0
480 -724 -594 0
-718 318 336 0
925 181 -208 0
-733 -198 784 0
291 740 -724 0
-879 356 150 0
-240 519 -486 0
379 792 340 0
872 -831 342 0
-131 972 766 0
-703 -454 437 0
-989 -740 722 0
-471 -191 -408 0
620 -762 -982 0
457 598 343 0
-534 -965 -633 0
-742 -332 465 0
765 440 -994 0
-323 600 762 0
630 -596 -623 0
-953 917 385 0
471 225 741 0
-791 -265 268 0
-854 364 321 0
-329 -668 343 0
147 -356 349 0
988 182 -747 0
-156 -770 714 0
132 -953 -895 0
-176 -340 -151 0
155 241 -888 0
-433 523 874 0
673 -379 604 0
-27 932 -68 0
492 321 -485 0
-264 619 258 0
920 793 249 0
-492 315 -440 0
-450 -124 -2 0
-573 -856 847 0
285 359 530 0
912 -714 503 0
-235 -834 -242 0
-405 201 294 0
362 976 -174 0
-922 -518 53 0
273 -347 -721 0
857 620 -380 0
-705 -569 48 0
20 76 177 0
-579 -792 -951 0
870 -405 -503 0
-977 -203 -962 0
-873 -661 -769 0
782 879 -626 0
-904 520 -906 0
-883 -999 -90 0
-310 -412 -405 0
95 -648 744 0
952 -42 945 0
217 -265 -201 0
-501 -763 899 0
-119 -913 -784 0
281 500 -522 0
-428 347 -594 0
-785 408 382 0
-111 446 -971 0
711 884 62 0
749 -683 778 0
618 -759 -633 0
-172 -824 739 0
-676 919 -328 0
-960 831 186 0
-657 -86 -310 0
95 339 590 0
-743 -765 -538 0
-209 821 720 0
-964 957 -609 0
100 -199 -245 0
-87 -973 -156 0
92 302 712 0
-383 940 -516 0
-867 -713 -857 0
-877 238 854 0
164 855 -521 0
-99 388 -426 0
-134 855 -960 0
256 134 765 0
-218 488 37 0
-294 866 643 0
127 568 560 0
719 6 802 0
-754 54 107 0
122 14 596 0
-145 893 144 0
815 495 938 0
-348 -785 -770 0
193 174 -710 0
-476 629 187 0
470 893 -880 0
256 -111 721 0
424 317 877 0
-217 987 713 0
-938 840 584 0
3 -962 -571 0
-466 -493 552 0
-798 -49 -211 0
-859 654 -28 0
225 350 -106 0
828 756 -42 0
79 279 151 0
-15 -328 696 0
53 -556 -578 0
-735 -89 -125 0
-632 -870 -605 0
663 782 612 0
-867 -762 -878 0
175 -499 916 0
303 631 -813 0
-576 -933 -999 0
378 -389 800 0
97 -484 -305 0
-980 431 924 0
-682 -541 -570 0
-518 240 415 0
-856 -695 978 0
165 640 -483 0
186 -703 10 0
-300 -148 -483 0
234 397 900 0
-808 -753 746 0
426 929 -197 0
-298 500 -432 0
-221 877 423 0
-897 -49 597 0
771 -61 76 0
-294 -10 -500 0
-12 725 -209 0
-421 136 -453 0
-49 157 495 0
-667 691 -122 0
728 178 -235 0
-995 -334 821 0
690 -571 660 0
218 -250 484 0
431 -410 -377 0
-84 -818 798 0
-545 -138 233 0
-373 -490 -221 0
60 675 -768 0
446 -382 -651 0
-845 652 79 0
-216 -975 -797 0
-540 489 -518 0
-891 -795 -385 0
222 349 310 0
340 950 45 0
-755 57 823 0
912 770 371 0
-118 658 -811 0
-401 489 760 0
49 -190 -664 0
952 555 286 0
-9 820 -789 0
499 -653 563 0
-891 667 360 0
-280 389 -734 0
-58 722 776 0
-601 18 -638 0
593 -234 267 0
962 -711 -34 0
83 -862 821 0
-11 -471 -332 0
440 138 -200 0
-492 191 -89 0
-471 363 823 0
-778 -729 -273 0
-82 717 -747 0
676 98 -399 0
-631 321 452 0
-941 -94 340 0
-537 995 -527 0
-736 -968 -74 0
518 -957 -336 0
-397 711 862 0
-366 436 584 0
-863 -511 -184 0
445 456 -548 0
992 259 -385 0
-954 617 205 0
290 891 -40 0
-380 -657 -169 0
-928 253 -227 0
-665 -283 -369 0
580 -815 691 0
232 988 468 0
468 -641 -984 0
943 -266 -846 0
567 -676 -736 0
-570 -576 648 0
-485 -668 766 0
-25 -617 191 0
731 -684 444 0
109 46 -170 0
902 -720 406 0
-37 -455 -465 0
472 -133 577 0
529 33 -712 0
-487 -482 908 0
83 -62 -998 0
99 136 -547 0
-36 73 575 0
-398 28 326 0
-331 -346 -356 0
-561 452 53 0
453 35 -850 0
-58 -112 914 0
-710 233 -991 0
-815 315 856 0
429 -708 -627 0
-42 364 222 0
-860 -476 913 0
961 230 985 0
-522 -62 -958 0
-936 957 -360 0
-486 -534 -404 0
62 -705 -800 0
994 835 -161 0
-127 -244 -431 0
929 -699 165 0
-662 -109 -577 0
-787 -859 198 0
-591 571 36 0
813 -643 -648 0
311 -838 431 0
-542 -708 -892 0
833 -846 -47 0
-671 -331 -594 0
-62 -184 -244 0
841 526 -972 0
-766 374 -774 0
-612 -532 -116 0
235 854 -652 0
371 394 -404 0
904 939 -334 0
-453 -225 866 0
-929 939 914 0
246 -329 -919 0
728 312 -864 0
-903 316 377 0
652 -683 628 0
681 -626 -654 0
471 -103 342 0
605 -147 -861 0
-241 522 -334 0
-671 384 -89 0
251 64 -684 0
-698 943 -434 0
-366 -736 302 0
-871 -697 -93 0
15 -100 -761 0
-452 288 -10 0
-48 -709 -290 0
62 911 258 0
-13 -664 878 0
-930 -402 -401 0
-167 651 -827 0
120 -29 707 0
-373 829 392 0
67 113 -444 0
-535 967 -47 0
-774 -852 -682 0
-917 -230 164 0
296 -507 475 0
732 84 -871 0
285 -418 47 0
325 331 -123 0
89 -851 474 0
853 430 -305 0
343 -571 -374 0
440 -417 -481 0
183 -457 -441 0
-578 201 485 0
579 -763 468 0
-897 612 -684 0
665 -604 572 0
-529 -808 -153 0
-803 243 321 0
-116 -687 76 0
447 644 -390 0
-482 -975 -843 0
33 -224 531 0
507 987 -6 0
-829 254 828 0
-293 -321 -415 0
-834 -880 -298 0
-863 570 -627 0
-220 210 11 0
400 699 678 0
-735 534 -117 0
-829 -734 130 0
954 860 530 0
-501 851 856 0
194 326 -398 0
217 -103 476 0
-520 -301 152 0
737 508 615 0
-970 144 475 0
351 566 506 0
984 713 -18 0
186 993 560 0
-998 -754 712 0
33 -98 -150 0
833 448 -215 0
-121 -480 675 0
323 -384 -834 0
-425 266 -926 0
-356 -638 192 0
-167 -710 -448 0
610 314 266 0
533 -634 -568 0
955 -363 849 0
508 -16 -550 0
-188 715 416 0
46 352 -242 0
-432 -299 434 0
828 866 843 0
115 935 -507 0
149 474 453 0
147 -287 471 0
-149 -828 605 0
-233 3 -742 0
815 -936 951 0
-905 668 895 0
-768 -225 938 0
813 149 287 0
-239 26 100 0
-735 -529 921 0
-315 -297 40 0
904 499 -305 0
2 -317 -799 0
211 -787 103 0
587 695 112 0
-702 -91 -820 0
-640 971 466 0
923 192 637 0
-738 965 264 0
-39 -856 -507 0
177 -790 379 0
-952 661 238 0
132 297 -454 0
16 -511 -570 0
891 -600 -571 0
20 423 591 0
-235 20 -469 0
426 784 -960 0
332 -595 -631 0
-837 27 -976 0
650 -8 647 0
-812 -720 -978 0
-841 46 -757 0
-83 792 -949 0
329 297 868 0
-111 585 -453 0
371 813 792 0
-65 557 -863 0
-831 -41 849 0
26 933 -898 0
-599 224 -647 0
-218 483 -553 0
-677 765 -893 0
-691 -10 354 0
635 540 297 0
-298 172 876 0
-532 -542 7 0
414 -253 -350 0
490 834 362 0
20 -566 295 0
-565 365 931 0
984 172 118 0
-556 -715 -656 0
-122 416 180 0
495 799 172 0
-836 -26 -31 0
647 -983 272 0
903 963 -595 0
-238 -822 -309 0
479 559 483 0
998 185 354 0
-187 -227 -423 0
-436 -642 957 0
-216 -446 -93 0
-970 -162 55 0
32 574 451 0
-854 103 -224 0
465 563 -283 0
7 896 575 0
-738 -529 215 0
-480 159 300 0
-61 -240 -153 0
-530 47 585 0
-677 625 -380 0
266 -113 920 0
-283 -648 324 0
339 674 -387 0
245 869 474 0
-667 -678 -248 0
225 -675 833 0
-809 536 -874 0
305 -718 -288 0
-114 -991 -499 0
661 -675 726 0
556 42 -941 0
-280 -628 -525 0
-431 219 -159 0
-169 732 601 0
-807 373 814 0
83 -757 -235 0
-388 614 -981 0
116 93 532 0
-622 606 1 0
743 642 -738 0
-613 -84 657 0
-609 48 645 0
-463 390 -541 0
615 -263 -461 0
678 12 -414 0
305 -9 16 0
226 -349 -987 0
447 618 -957 0
-755 -535 -286 0
-65 184 -193 0
-10 -159 -240 0
873 152 -688 0
156 -698 205 0
-435 861 632 0
645 336 -372 0
299 -479 -715 0
-973 109 -806 0
14 187 892 0
-17 -335 28 0
-86 -375 -55 0
258 -621 -531 0
-243 -810 154 0
-18 -901 -552 0
320 -984 -362 0
371 -534 -250 0
135 -91 913 0
136 633 -620 0
241 145 308 0
718 837 264 0
-864 -712 623 0
684 686 -450 0
621 -758 749 0
-882 51 568 0
-957 -475 57 0
293 831 -669 0
887 -141 -405 0
-908 -517 619 0
-540 180 -600 0
104 52 90 0
-471 572 -223 0
974 -409 145 0
-742 815 8 0
-407 886 587 0
186 565 904 0
523 -841 -763 0
-105 269 128 0
209 -679 -624 0
-190 -298 23 0
-902 -172 60 0
-451 -372 534 0
672 575 -113 0
-837 505 11 0
131 970 81 0
900 136 1000 0
-823 219 291 0
-834 641 -524 0
-813 557 753 0
458 288 178 0
-392 -918 294 0
743 -687 732 0
519 -761 -159 0
618 -608 -382 0
865 -818 837 0
-931 747 -325 0
-79 109 -47 0
265 -952 -18 0
226 681 492 0
-425 -615 -371 0
151 -557 875 0
-447 -898 -973 0
-713 659 93 0
851 224 613 0
-518 -973 930 0
-786 476 -986 0
391 -50 -537 0
316 -786 -199 0
-289 830 -236 0
-298 47 234 0
335 -895 -128 0
34 497 638 0
-318 -721 87 0
342 -139 -135 0
548 -436 511 0
-401 -451 799 0
561 -100 -264 0
53 -196 827 0
-383 -33 434 0
396 307 -415 0
-195 944 747 0
-374 306 -93 0
861 791 536 0
572 428 -272 0
154 -9 -882 0
445 869 700 0
-520 -841 -406 0
-377 -368 -705 0
-407 -837 -159 0
-435 491 266 0
-540 281 -991 0
-939 94 418 0
330 -995 -694 0
847 -675 -964 0
964 425 457 0
-11 982 898 0
513 -474 413 0
48 -576 -690 0
640 -434 331 0
-791 59 677 0
-325 -74 -536 0
-680 -850 969 0
-760 -568 783 0
-729 -448 278 0
349 -791 507 0
-68 989 873 0
420 -165 -87 0
460 -263 934 0
-113 -318 907 0
481 951 913 0
551 -822 -546 0
-13 -893 472 0
312 -949 381 0
344 -959 795 0
-420 286 746 0
1000 480 -361 0
99 -699 -418 0
-454 -965 -459 0
-577 404 776 0
-104 -209 215 0
-118 -762 50 0
383 504 -948 0
16 570 866 0
-294 -289 881 0
3 211 -920 0
-118 651 -538 0
67 331 45 0
85 -576 36 0
741 250 -563 0
677 -346 -595 0
828 -278 423 0
-370 -935 955 0
-73 19 -315 0
-613 441 -344 0
597 210 -872 0
-312 458 -95 0
-23 404 -689 0
-151 111 512 0
108 -561 673 0
-838 932 156 0
208 -581 -381 0
-164 -61 -134 0
-71 -453 394 0
-756 -284 555 0
-496 777 114 0
62 92 295 0
-561 636 -100 0
350 958 -931 0
-271 -476 636 0
-245 669 788 0
-221 -567 484 0
668 -336 56 0
522 -393 -492 0
-928 -426 -796 0
-800 152 -628 0
-918 555 864 0
406 61 649 0
685 147 811 0
-863 -878 -985 0
366 -672 654 0
808 9 356 0
520 510 674 0
595 810 10 0
-495 -631 453 0
-785 961 -191 0
157 227 -511 0
953 -962 707 0
799 469 174 0
24 -420 -205 0
-522 -248 -326 0
-136 418 384 0
131 481 676 0
-784 -394 -340 0
-384 358 -214 0
208 -813 -937 0
621 697 -567 0
366 801 824 0
269 286 577 0
-285 -248 -392 0
642 861 688 0
916 -820 97 0
-394 35 -508 0
-188 -718 -617 0
451 -60 -567 0
-593 -885 -785 0
-593 -631 -895 0
-831 411 176 0
-775 -850 2 0
-213 706 932 0
527 -509 -624 0
-353 -478 -468 0
-430 619 -765 0
-791 936 207 0
-670 -522 -275 0
-985 -947 612 0
-435 -185 479 0
-461 -988 603 0
-989 948 -426 0
-856 -801 197 0
-710 960 -217 0
-581 511 -423 0
387 71 -611 0
955 -447 313 0
353 266 -721 0
-62 -3 473 0
989 333 -727 0
-884 -573 -627 0
-128 87 39 0
999 -286 -532 0
631 -732 829 0
-858 154 787 0
792 349 -114 0
266 412 -760 0
899 987 -457 0
334 603 601 0
222 -707 -260 0
84 -194 699 0
-592 687 779 0
801 -442 -408 0
925 825 -153 0
665 475 -536 0
-496 -670 -664 0
216 -680 638 0
-639 334 -242 0
978 852 393 0
-539 156 87 0
-714 -996 465 0
276 227 763 0
256 367 -598 0
-896 -108 -146 0
-669 -774 -560 0
492 805 -329 0
805 683 462 0
-350 826 -582 0
557 -959 -15 0
622 -788 -654 0
983 -589 317 0
-778 868 -98 0
-296 -26 685 0
230 164 -53 0
754 -98 199 0
440 -378 -742 0
-838 -404 737 0
-371 946 -310 0
-287 -675 -168 0
-228 -969 234 0
238 -319 871 0
-243 -536 167 0
-947 447 -303 0
-951 800 306 0
47 -940 606 0
739 914 928 0
-749 16 681 0
-767 124 -623 0
183 824 601 0
-484 -347 806 0
41 -376 261 0
-337 -480 -897 0
961 -300 -883 0
649 294 337 0
596 686 -788 0
47 -220 882 0
-471 -255 539 0
-15 -17 -309 0
-848 166 601 0
-137 105 -429 0
636 -482 882 0
-653 150 -721 0
838 -680 950 0
34 -860 151 0
714 -482 526 0
674 365 -805 0
172 -692 531 0
-573 146 645 0
-761 -244 -821 0
278 45 924 0
-612 386 -733 0
518 -620 587 0
-318 39 -544 0
-760 650 451 0
348 -338 247 0
665 -297 85 0
-912 504 379 0
536 -106 990 0
-229 -624 -452 0
302 447 978 0
734 -809 687 0
-822 -337 -939 0
47 -15 801 0
724 -727 17 0
-201 -279 -69 0
-278 -811 -903 0
1000 919 520 0
-873 -268 667 0
169 617 238 0
-468 902 -660 0
104 -535 -53 0
-449 592 -49 0
-628 547 -181 0
641 -771 942 0
228 -147 209 0
198 885 904 0
-596 984 -94 0
-103 749 406 0
335 770 810 0
-682 -474 357 0
-108 -540 -526 0
199 -575 257 0
-347 -447 -788 0
-937 544 -860 0
-427 1000 435 0
-800 -347 519 0
215 -86 12 0
614 -518 -547 0
-188 -334 -84 0
577 714 -223 0
-769 -470 439 0
81 703 496 0
524 -900 656 0
-61 131 -718 0
725 -678 381 0
264 -508 713 0
-807 -259 77 0
916 -380 210 0
39 880 -890 0
-268 -921 -14 0
-329 700 886 0
532 -752 625 0
-459 -878 612 0
-38 -554 -70 0
761 674 416 0
-757 -435 -987 0
-514 -895 -182 0
879 377 510 0
-523 -985 195 0
274 308 921 0
249 640 -624 0
432 597 -386 0
852 -59 719 0
157 65 14 0
493 25 837 0
-521 -316 -717 0
-985 -310 492 0
687 961 423 0
-822 -494 -796 0
782 -395 -926 0
250 -166 120 0
-851 129 317 0
-73 455 202 0
451 -760 994 0
521 189 430 0
51 262 -428 0
-193 481 -656 0
618 494 772 0
699 -723 -308 0
544 682 -422 0
-471 -89 -269 0
146 610 -219 0
-221 -622 358 0
-886 51 -279 0
-793 -640 546 0
652 161 -266 0
135 -700 806 0
-92 -764 616 0
-113 11 41 0
-823 -205 662 0
64 -86 -133 0
516 -689 -469 0
-463 806 282 0
961 92 799 0
416 -339 -364 0
679 -26 -495 0
-684 -971 765 0
993 550 545 0
-668 648 -425 0
-834 -414 821 0
869 982 187 0
-615 668 755 0
929 20 -559 0
-270 -470 -512 0
-369 331 -470 0
629 836 409 0
-228 -997 -892 0
354 -919 -474 0
-794 803 950 0
-30 542 -969 0
65 192 136 0
-52 747 -636 0
169 -240 -306 0
-752 -458 -69 0
849 -23 961 0
-230 -564 -847 0
360 -421 -554 0
307 164 891 0
89 -552 922 0
-179 -808 321 0
216 214 75 0
119 401 596 0
-668 963 -1 0
-293 -113 388 0
-856 282 752 0
-489 557 1000 0
691 -178 523 0
-925 -670 -390 0
507 913 547 0
475 -153 949 0
-581 -527 765 0
-651 462 -371 0
-830 -306 -680 0
-384 73 329 0
692 -808 750 0
-381 974 78 0
461 -632 147 0
-973 497 -959 0
128 -337 73 0
-646 496 -608 0
-6 200 784 0
-599 -521 960 0
-164 -741 -86 0
288 23 -237 0
-434 -66 -238 0
315 -472 -872 0
-852 -613 341 0
674 -614 594 0
-738 -845 995 0
223 812 303 0
-480 117 -960 0
-359 -493 -172 0
708 957 -159 0
-894 862 115 0
1 892 -610 0
245 212 -876 0
357 -604 842 0
-787 -610 853 0
-614 -613 -993 0
-699 -537 12 0
-329 -459 239 0
-720 373 519 0
-136 -271 550 0
-615 31 -993 0
-379 525 582 0
-894 -55 414 0
-715 322 -59 0
670 -395 649 0
974 -487 567 0
-475 -345 -243 0
983 462 -232 0
-407 -642 -272 0
-508 -550 579 0
-723 255 118 0
104 555 461 0
980 234 356 0
-197 929 7 0
-919 -240 -117 0
-947 4 -737 0
-307 -593 884 0
-420 77 -471 0
944 984 44 0
416 -899 -194 0
812 861 927 0
-825 -255 -44 0
389 -437 373 0
-415 705 -417 0
441 567 330 0
-644 -669 35 0
-350 -4 940 0
649 -93 -995 0
57 -297 -576 0
667 -652 -598 0
189 568 -761 0
-781 -264 318 0
929 -87 967 0
-727 -8 911 0
-706 -263 775 0
384 822 753 0
176 387 40 0
-121 493 -576 0
-635 239 -95 0
414 681 -85 0
-903 633 -683 0
-215 971 748 0
43 -990 842 0
-866 -771 -69 0
559 912 -611 0
880 340 -769 0
569 -632 -861 0
753 -333 -900 0
7 787 -376 0
-137 295 -5 0
617 247 655 0
-308 -607 489 0
130 -975 -721 0
254 901 -573 0
286 -746 602 0
-407 -569 -174 0
-847 69 302 0
671 142 -446 0
-542 526 -832 0
581 127 -715 0
-888 -421 916 0
-405 25 173 0
-792 303 -677 0
832 -668 -902 0
-45 -880 998 0
719 -867 -4 0
594 577 152 0
-522 568 -554 0
135 -539 -626 0
682 -131 783 0
-120 -95 399 0
-278 31 39 0
64 -447 -680 0
730 -260 910 0
-183 95 768 0
-456 492 114 0
447 -220 883 0
-277 172 87 0
408 752 -528 0
114 -182 -779 0
-863 -157 733 0
583 798 799 0
-213 643 270 0
-601 668 234 0
-459 717 752 0
-94 459 -252 0
-277 -471 -470 0
-307 -826 800 0
-501 -878 -326 0
-348 532 -396 0
277 536 -98 0
-463 -709 849 0
-709 -816 666 0
-772 820 766 0
-854 946 511 0
998 190 999 0
533 -236 874 0
-981 194 742 0
-782 608 -37 0
942 -294 -420 0
-328 32 440 0
-349 856 277 0
842 808 927 0
-654 686 698 0
-875 497 547 0
870 659 -820 0
-648 165 45 0
-764 151 -648 0
697 -974 415 0
559 953 -195 0
209 709 402 0
-858 716 -34 0
2 169 549 0
-413 -442 130 0
-816 -355 652 0
-453 796 254 0
480 -853 -122 0
355 272 146 0
-447 525 149 0
371 835 734 0
539 681 295 0
486 -980 424 0
712 -964 696 0
229 -490 480 0
-820 -527 704 0
756 -468 -379 0
516 -754 750 0
507 -200 663 0
712 -116 -354 0
-692 -782 424 0
283 -249 872 0
-661 79 -409 0
803 -74 -538 0
-833 667 602 0
-457 137 -970 0
-63 -980 -146 0
-222 452 -493 0
-749 525 690 0
-740 17 204 0
-31 -785 -730 0
916 195 -213 0
-393 178 -129 0
478 -331 -398 0
-403 242 567 0
734 -525 -955 0
-735 4 479 0
-963 147 -229 0
611 45 468 0
84 -725 -671 0
-968 -707 984 0
-741 417 688 0
-452 427 724 0
419 -387 -138 0
832 -72 183 0
-642 303 -539 0
228 -307 712 0
-883 -693 362 0
-996 -312 -676 0
-623 -545 690 0
-830 983 -510 0
-408 -560 801 0
876 -144 -435 0
754 -750 -863 0
-576 243 -299 0
-144 -550 549 0
841 -246 833 0
-47 -943 -444 0
-113 151 -158 0
513 -400 320 0
699 790 -315 0
372 -59 -909 0
108 181 -743 0
77 -805 505 0
519 -880 453 0
168 -358 -456 0
442 346 203 0
960 430 605 0
832 227 -544 0
671 -758 268 0
-807 -890 -273 0
-222 941 883 0
234 170 434 0
-77 -718 107 0
909 568 -808 0
-286 227 76 0
612 -289 -597 0
200 -533 -449 0
652 145 633 0
187 -462 -457 0
30 170 385 0
-247 -710 127 0
765 623 450 0
-275 -193 -330 0
-39 816 634 0
-670 408 -287 0
-542 817 -994 0
-359 -903 -60 0
401 -1 -18 0
509 -164 -160 0
-182 -205 615 0
198 921 317 0
-119 -440 150 0
402 617 -754 0
151 855 764 0
896 -245 931 0
-191 -144 -833 0
-682 -146 88 0
471 935 -812 0
791 -236 584 0
53 719 498 0
-26 92 782 0
958 649 881 0
38 -465 52 0
332 545 619 0
-57 -653 286 0
-942 -50 113 0
-337 -667 19 0
-820 508 -251 0
-310 -688 388 0
235 -213 -124 0
252 800 695 0
292 -588 795 0
226 -169 -738 0
-604 -724 900 0
359 -136 -905 0
954 411 -554 0
975 -491 470 0
-921 -790 -899 0
-553 284 -702 0
681 536 379 0
787 -636 730 0
351 -828 -780 0
-541 800 -630 0
-682 877 -39 0
-313 -555 196 0
605 -308 509 0
630 788 -118 0
518 -171 -574 0
-195 609 760 0
-555 -147 226 0
833 -691 -113 0
504 -40 318 0
-504 219 670 0
-306 -794 -556 0
942 344 593 0
-918 -549 -107 0
24 -321 -437 0
-886 -26 226 0
-713 -419 655 0
638 -727 408 0
135 -605 -121 0
-910 394 147 0
-817 -771 -421 0
114 -767 809 0
-739 -383 -425 0
656 -408 411 0
255 -504 184 0
-853 -42 211 0
464 225 946 0
-419 660 -77 0
-211 -656 -20 0
-812 -545 -62 0
-9 -286 225 0
64 -695 847 0
933 -896 -65 0
-316 347 312 0
221 75 -217 0
-22 735 -790 0
-582 360 -428 0
-753 181 697 0
44 714 57 0
542 -851 -225 0
-376 785 -677 0
-98 -232 -499 0
55 -102 -527 0
-242 -714 -83 0
-692 -760 -8 0
-495 -823 -317 0
797 680 947 0
-140 -117 605 0
656 -926 363 0
727 -220 -707 0
708 -390 -200 0
-540 -584 -886 0
164 -445 -236 0
-658 251 -883 0
883 -919 -126 0
-950 806 -533 0
810 -867 -873 0
590 -160 261 0
-618 70 307 0
-315 -529 745 0
-702 995 976 0
913 -742 -202 0
-247 637 -899 0
-889 361 357 0
-673 747 173 0
-883 151 787 0
-330 -245 53 0
331 800 451 0
45 706 287 0
-950 169 92 0
-858 927 -679 0
373 733 430 0
-880 -825 731 0
817 860 343 0
752 -969 342 0
-238 799 986 0
167 674 -890 0
34 385 437 0
-67 -653 577 0
770 -88 638 0
-348 460 12 0
573 221 -393 0
-301 -741 -656 0
-809 -458 -743 0
774 -804 949 0
-770 -649 -456 0
-154 -161 139 0
-141 489 25 0
742 -439 -20 0
-711 331 -748 0
-562 838 174 0
403 55 547 0
294 -614 -615 0
520 -194 -269 0
-195 205 182 0
690 694 -329 0
-633 -814 -735 0
-202 -767 54 0
-624 -77 350 0
152 -217 -260 0
-281 -930 -246 0
18 -23 -547 0
-878 -395 396 0
961 348 -478 0
-232 -558 735 0
-495 339 146 0
-636 965 -579 0
738 -928 268 0
-626 918 767 0
-608 -199 -437 0
85 305 344 0
109 669 -568 0
-989 730 584 0
451 349 -81 0
677 273 144 0
-938 -264 895 0
369 -904 -862 0
-331 -938 942 0
-714 -988 -584 0
775 -392 -582 0
683 -576 -109 0
-751 924 -752 0
880 -876 284 0
63 56 -304 0
570 -268 -577 0
-620 950 -1000 0
-897 -163 741 0
729 22 -738 0
214 665 672 0
-796 -964 434 0
810 -203 -568 0
800 587 -359 0
-163 617 855 0
-723 -877 962 0
906 318 -574 0
-764 -853 4 0
802 565 574 0
-400 -305 -845 0
-539 -726 776 0
-269 496 -124 0
695 -182 -322 0
-918 -508 -947 0
300 -284 620 0
-473 733 220 0
-922 673 -395 0
-448 124 -66 0
-407 298 -319 0
471 480 141 0
-988 -907 904 0
79 -269 -64 0
227 568 -296 0
689 379 -322 0
-66 725 -968 0
-758 832 -329 0
-308 787 297 0
258 -3 389 0
-192 -391 -720 0
-399 -649 -626 0
303 -13 -707 0
635 -211 -519 0
778 -371 86 0
249 656 -910 0
-39 -865 -367 0
689 -260 -743 0
722 973 -60 0
-423 -389 -252 0
622 338 125 0
997 723 -360 0
-635 -826 -881 0
529 358 714 0
-358 -469 360 0
-317 808 557 0
-317 -40 339 0
9 910 -359 0
-882 -614 -292 0
-942 269 -179 0
949 922 348 0
466 -185 887 0
181 174 -516 0
409 428 77 0
-827 -368 -298 0
-141 643 -981 0
971 -659 -416 0
-555 -221 -590 0
794 322 936 0
680 -591 903 0
340 -15 731 0
862 -60 -587 0
572 536 -792 0
124 -10 623 0
-130 305 -822 0
-900 551 162 0
-162 -778 440 0
314 976 837 0
739 966 -579 0
836 954 -450 0
979 186 -594 0
-649 98 -821 0
128 -365 -895 0
-60 -543 417 0
228 818 -815 0
332 -806 33 0
53 -358 -314 0
-659 812 -11 0
836 372 458 0
644 94 464 0
-432 -698 831 0
-804 683 681 0
-759 1000 -174 0
-600 -94 799 0
-864 35 -856 0
-479 -806 -474 0
460 614 516 0
-344 -691 -148 0
-623 -180 -995 0
-821 851 -305 0
-244 -392 -632 0
-242 977 -193 0
300 -139 -856 0
-693 -596 592 0
-423 -102 -765 0
-376 166 -467 0
-420 -68 -900 0
470 871 -510 0
664 467 -280 0
-156 997 -126 0
-88 -341 -216 0
-853 -4 -427 0
196 109 -822 0
555 505 -467 0
999 207 41 0
-978 -311 972 0
-713 -929 810 0
570 361 487 0
-264 -219 -420 0
-163 454 368 0
374 -754 812 0
-207 -511 688 0
-12 -843 -177 0
832 -572 -154 0
708 -190 -744 0
343 -983 -871 0
992 579 826 0
-843 131 870 0
-837 142 603 0
-866 116 723 0
-66 -549 -436 0
50 -620 501 0
877 -488 394 0
53 -18 170 0
673 -943 -418 0
-743 618 -885 0
-47 664 79 0
433 827 941 0
-442 -806 312 0
177 -180 612 0
84 -323 -88 0
-306 -89 -867 0
-454 550 662 0
222 -564 -702 0
-865 -695 174 0
56 -165 -323 0
-128 -158 -602 0
-999 -265 906 0
-264 906 624 0
916 -561 -113 0
798 384 152 0
-48 750 -518 0
-323 -724 706 0
-498 -522 126 0
-231 -237 779 0
794 -821 -69 0
-913 -56 310 0
-6 283 -452 0
-571 -895 795 0
450 364 -413 0
586 -87 -258 0
67 -314 -872 0
-220 14 -980 0
-467 -966 822 0
-628 833 813 0
-854 -130 -451 0
-997 -725 527 0
686 -159 900 0
-435 -192 -763 0
957 667 -136 0
-731 -318 781 0
-899 717 692 0
16 373 -850 0
601 960 -570 0
-213 203 16 0
578 803 -525 0
135 -477 379 0
290 -359 -477 0
-724 300 928 0
-447 521 412 0
-473 568 -308 0
-199 129 -660 0
-524 682 -819 0
509 -94 230 0
917 550 -982 0
-549 -434 910 0
583 97 328 0
606 -248 346 0
-962 105 277 0
8 -992 158 0
713 -489 -709 0
579 -225 -499 0
-881 11 -397 0
250 415 -803 0
-782 192 327 0
-435 190 -215 0
-184 -496 705 0
536 809 839 0
800 -455 76 0
-789 309 695 0
3 -356 483 0
-983 859 -792 0
-427 -684 -394 0
-811 976 -326 0
735 -592 -891 0
-151 -489 677 0
-184 576 436 0
890 -156 399 0
-930 -738 440 0
-986 -873 744 0
-235 -54 -928 0
-73 847 928 0
192 -839 77 0
483 721 17 0
-112 -777 377 0
945 -38 51 0
585 144 -548 0
5 -260 -409 0
-354 164 -935 0
-324 -230 -839 0
-754 753 -109 0
264 457 -689 0
14 589 -223 0
-151 11 906 0
-984 -851 -25 0
854 505 817 0
881 -70 865 0
-860 -19 -343 0
-37 969 -503 0
-78 -255 121 0
372 467 -108 0
692 538 -562 0
-434 -658 -565 0
992 -204 647 0
-947 632 -136 0
881 886 572 0
-524 644 799 0
-924 -456 944 0
985 -958 319 0
-701 410 241 0
-840 -373 -160 0
-938 -948 -999 0
276 -117 471 0
183 486 -325 0
660 153 -865 0
-360 -456 374 0
-783 -193 -291 0
-546 578 -359 0
-219 896 958 0
388 -176 -117 0
-726 587 548 0
-296 -475 488 0
-884 322 -790 0
392 387 763 0
382 -814 -351 0
-480 666 -468 0
-808 -282 -956 0
-992 876 -883 0
-184 -352 247 0
557 221 -269 0
932 789 108 0
-33 711 726 0
280 -182 -101 0
236 661 -226 0
790 -525 192 0
-307 634 -306 0
491 -991 447 0
-293 -696 -952 0
-401 12 -189 0
-889 770 206 0
817 108 -858 0
-987 -960 435 0
827 243 981 0
443 -422 580 0
-110 419 -544 0
-2 3 694 0
-306 -498 942 0
-919 963 912 0
-772 -287 452 0
777 693 697 0
258 190 -800 0
575 -917 -866 0
-601 669 411 0
541 -567 -745 0
-237 -372 890 0
262 142 627 0
-579 346 429 0
-68 325 290 0
591 57 -780 0
-35 650 829 0
-499 -367 -818 0
-694 -876 624 0
-625 -476 -567 0
-752 136 162 0
-998 92 -198 0
905 299 -516 0
-50 696 -962 0
627 -791 812 0
-783 -857 -181 0
-633 397 301 0
-131 -270 867 0
938 -691 441 0
535 -247 409 0
460 -691 -878 0
-631 -2 619 0
241 736 820 0
29 -863 -733 0
-605 671 81 0
-22 809 -605 0
-250 -12 -298 0
-46 -406 581 0
-276 -376 233 0
-826 932 -586 0
-944 355 805 0
-307 -56 470 0
-267 -383 -577 0
781 -132 126 0
641 265 674 0
228 -750 -831 0
953 147 552 0
669 -973 -975 0
-185 908 937 0
-194 627 288 0
450 913 -13 0
-129 -789 -437 0
551 -672 77 0
-942 -533 -432 0
453 -75 -53 0
365 -252 233 0
695 -333 -906 0
861 -123 232 0
-776 346 393 0
624 178 -973 0
787 -118 373 0
-613 588 -884 0
874 -421 886 0
-270 46 811 0
73 -974 870 0
-53 113 -916 0
363 759 170 0
161 -170 -552 0
617 879 949 0
-229 -584 773 0
-216 -91 179 0
665 -650 -944 0
-397 -269 -133 0
-499 -339 -552 0
209 878 -686 0
173 321 -25 0
-334 -162 -223 0
-408 908 -894 0
-835 455 467 0
676 60 -934 0
-668 321 -324 0
572 962 982 0
4 706 818 0
11 286 -338 0
577 -986 491 0
-555 -417 -582 0
-557 818 722 0
-277 -882 -867 0
368 613 -903 0
883 -960 279 0
-738 648 -991 0
-903 608 -177 0
316 -558 -313 0
623 76 -548 0
989 745 -107 0
661 876 354 0
-980 -728 64 0
95 -354 -895 0
-939 -710 -983 0
952 -794 -858 0
-272 -209 -819 0
470 -603 302 0
-148 -162 -242 0
-692 573 -423 0
862 -278 -547 0
-14 -480 582 0
489 -243 -598 0
-752 -719 417 0
-151 -665 850 0
474 -706 -914 0
150 -430 -204 0
-875 -494 928 0
300 -704 -932 0
-113 59 -1000 0
-752 -732 -521 0
-266 191 -673 0
-607 -374 295 0
-881 983 -615 0
-349 256 644 0
94 472 -607 0
-439 -855 -150 0
52 -17 168 0
-425 -858 -896 0
-898 263 292 0
348 -36 861 0
-164 369 192 0
-538 985 150 0
-566 915 77 0
270 504 -361 0
965 -653 57 0
-442 711 11 0
-843 681 777 0
-986 -825 -409 0
77 924 -782 0
464 -57 945 0
-957 132 417 0
-589 -35 232 0
613 -530 98 0
153 882 703 0
923 198 137 0
-820 -469 106 0
294 619 -566 0
927 501 -741 0
-997 -867 -558 0
578 476 525 0
-39 557 -56 0
-379 557 985 0
-435 -21 634 0
811 -756 -617 0
426 646 182 0
-461 569 -524 0
-832 747 -230 0
-736 -957 103 0
372 -644 476 0
-671 846 -939 0
-583 374 -907 0
-330 -750 -308 0
-848 495 -14 0
485 221 -596 0
-630 -631 312 0
336 -348 864 0
-527 193 -540 0
759 -548 487 0
618 66 726 0
136 -271 -295 0
-458 269 720 0
-393 147 601 0
-921 -117 502 0
-261 -542 735 0
638 285 830 0
217 -724 360 0
-719 -66 -588 0
-750 -569 286 0
-627 995 756 0
-747 -612 872 0
-501 -274 886 0
-304 -211 922 0
88 -269 688 0
286 -490 -444 0
-914 -645 495 0
-237 -17 -842 0
630 -748 801 0
422 352 -829 0
923 -230 72 0
-776 860 -497 0
-714 -990 -411 0
-811 -356 444 0
211 677 -976 0
-999 734 -372 0
379 886 -628 0
-339 -41 -288 0
552 -743 -411 0
217 519 79 0
738 -319 -531 0
65 742 677 0
973 817 -171 0
-628 961 217 0
152 673 -764 0
15 336 -390 0
773 488 -469 0
76 25 -731 0
-483 -626 683 0
394 773 799 0
-753 -135 841 0
577 694 530 0
-422 -365 -223 0
-768 49 -398 0
-857 -32 223 0
-993 -678 68 0
861 -409 -425 0
965 -919 79 0
772 -29 497 0
-114 -821 -532 0
-894 735 627 0
795 756 -453 0
-955 -81 -705 0
-1000 -32 -853 0
-740 94 -628 0
-15 -265 715 0
-887 347 696 0
425 -14 123 0
231 -434 290 0
464 166 -144 0
257 46 498 0
-204 -191 -533 0
-676 777 -741 0
-884 420 169 0
651 192 72 0
-223 514 827 0
232 -94 -776 0
-588 284 -979 0
11 -44 565 0
540 -578 -182 0
-372 987 336 0
-835 754 928 0
721 -223 -849 0
-678 257 -767 0
-37 956 132 0
859 960 -884 0
546 605 80 0
-827 -968 -144 0
864 -783 281 0
869 -848 231 0
799 -746 512 0
159 103 -367 0
214 274 -474 0
-933 52 -598 0
129 -993 -923 0
-261 -621 -623 0
974 370 -118 0
-305 850 -714 0
181 -545 746 0
658 373 960 0
733 998 -151 0
-224 838 -863 0
-117 -281 119 0
567 -933 353 0
-659 417 195 0
768 -834 -393 0
-522 -458 -310 0
-115 -715 580 0
-141 -545 874 0
-929 -931 -892 0
668 98 -838 0
-930 477 -577 0
-19 -507 -114 0
678 -187 -178 0
546 714 -157 0
919 -516 480 0
-104 970 343 0
-503 -993 923 0
230 948 -62 0
-179 -434 251 0
-473 -997 299 0
-92 628 -870 0
340 -510 -433 0
-458 -819 767 0
104 466 609 0
-585 863 -570 0
708 406 -390 0
841 -969 746 0
-426 746 -519 0
261 955 -310 0
693 -721 -328 0
561 435 359 0
51 997 -166 0
877 299 7 0
936 -199 -379 0
-830 774 851 0
-599 651 277 0
839 -996 -991 0
854 553 -667 0
-740 -191 -508 0
-907 -732 689 0
241 -246 963 0
-946 378 740 0
-656 823 566 0
385 813 -187 0
382 261 -318 0
-123 -476 -944 0
573 -240 -712 0
788 720 -456 0
365 -326 260 0
46 -826 -162 0
-473 481 697 0
-582 396 434 0
853 -548 165 0
138 529 620 0
889 709 224 0
455 720 -272 0
263 -856 795 0
849 -434 758 0
-310 217 833 0
-671 -528 -240 0
-110 -777 -546 0
-92 -959 -177 0
20 461 787 0
663 -26 -56 0
514 -362 389 0
-500 -897 509 0
-387 366 -842 0
879 -892 468 0
-448 -909 -760 0
-652 756 606 0
-816 -713 -731 0
-982 -837 -645 0
-992 -520 328 0
817 516 -79 0
707 479 564 0
216 -503 -934 0
284 365 -420 0
-42 518 920 0
-842 361 -665 0
801 37 333 0
-305 985 -494 0
-441 580 -956 0
621 -773 -168 0
-93 -556 273 0
-118 -60 954 0
-945 67 -541 0
-394 775 -563 0
-580 29 -651 0
-454 -551 -772 0
661 167 -455 0
202 -928 286 0
321 -594 13 0
419 314 -127 0
118 577 -985 0
-31 -62 14 0
-170 589 -973 0
59 785 703 0
-304 202 -434 0
-312 -97 -796 0
-427 22 -744 0
-846 -727 -354 0
480 -463 -924 0
-661 -883 -495 0
-1000 -57 589 0
287 882 292 0
-530 -443 825 0
314 84 77 0
-345 328 -163 0
882 -419 978 0
-408 671 -284 0
500 -690 -333 0
207 126 -159 0
527 -111 560 0
16 842 495 0
-453 -874 -474 0
758 462 -294 0
-910 -281 135 0
742 -601 -59 0
219 139 -955 0
-428 820 -124 0
-472 -240 -458 0
-562 58 -573 0
-405 266 -900 0
656 -443 256 0
-507 -964 638 0
-458 -251 -903 0
469 -548 597 0
118 778 706 0
-193 870 -230 0
766 -305 278 0
231 -191 -924 0
-958 403 518 0
929 -789 -15 0
237 953 -103 0
-973 -86 396 0
-388 -455 -549 0
-89 -436 -701 0
-798 471 618 0
-159 -415 -310 0
-200 -689 -941 0
78 -945 -417 0
-386 472 -57 0
-993 -429 -670 0
-882 -459 793 0
608 -868 197 0
283 518 -724 0
-876 -564 -660 0
167 -296 -969 0
-438 718 254 0
411 576 -148 0
255 -804 987 0
882 -409 -36 0
300 932 622 0
851 328 -161 0
886 752 973 0
65 -957 -994 0
862 -944 342 0
443 -262 -455 0
-362 389 -771 0
-482 467 593 0
436 903 751 0
766 323 -296 0
-1000 326 -867 0
-438 -780 536 0
-81 -122 -657 0
942 693 49 0
21 499 -721 0
369 928 -326 0
-927 81 892 0
788 -662 -803 0
-95 -209 468 0
343 -610 928 0
160 -553 582 0
784 437 -932 0
-17 601 -154 0
-646 -354 377 0
933 -819 -417 0
-644 -651 360 0
-321 -622 583 0
342 197 -417 0
55 -389 690 0
244 -514 443 0
-607 -141 785 0
901 -860 -746 0
-74 -605 -327 0
-772 503 138 0
471 -962 -634 0
-838 -168 611 0
323 -134 840 0
936 554 164 0
-693 -252 931 0
787 -473 -169 0
-123 420 988 0
-131 -67 -829 0
-866 -695 -276 0
-449 -948 -881 0
533 -887 -842 0
-956 -400 -102 0
408 33 -66 0
482 -251 -194 0
-256 590 472 0
570 -716 979 0
-578 -977 554 0
-366 753 -20 0
219 -989 579 0
-101 -388 -626 0
991 97 -823 0
959 -587 -807 0
353 598 40 0
-766 641 828 0
-281 -164 385 0
783 -171 -87 0
-519 -693 947 0
714 -523 -457 0
-631 -239 -49 0
460 347 830 0
-1 -757 -680 0
71 164 -984 0
-70 -227 722 0
944 253 784 0
965 -273 -23 0
331 569 97 0
-846 -81 -563 0
483 -314 709 0
657 250 273 0
-243 -341 131 0
-754 -17 485 0
-732 616 -385 0
306 145 -836 0
-316 -103 197 0
-197 359 -183 0
561 -913 -23 0
200 252 882 0
337 -755 295 0
770 111 196 0
359 -887 -89 0
-267 922 535 0
-242 347 705 0
-356 144 820 0
292 329 448 0
-469 -263 804 0
-973 920 -551 0
-69 584 709 0
-257 -365 -780 0
-952 -86 681 0
-689 121 -820 0
-773 707 303 0
-566 329 -289 0
-798 785 439 0
481 -607 472 0
758 147 -376 0
-345 -871 941 0
-460 10 -806 0
-763 -35 173 0
-677 532 -98 0
684 113 964 0
91 -772 -311 0
206 451 -744 0
704 -475 91 0
428 -17 220 0
507 962 -768 0
-272 -331 -368 0
-782 18 311 0
78 -502 -131 0
-90 -921 -130 0
885 -873 574 0
930 -778 -87 0
-861 680 -873 0
-904 -852 539 0
430 145 -327 0
488 237 590 0
295 -368 -735 0
764 -96 -737 0
257 -883 -874 0
569 -823 977 0
816 440 -978 0
-316 846 -823 0
-782 -874 -57 0
-421 -860 425 0
-268 475 754 0
-992 501 107 0
851 -47 -700 0
-354 960 -468 0
145 -50 -919 0
678 668 998 0
786 33 -413 0
-8 593 600 0
-934 -524 -928 0
692 -718 59 0
-376 -726 -317 0
-867 -761 404 0
280 -799 144 0
304 8 250 0
55 -889 -302 0
407 -196 -618 0
-100 -773 -338 0
483 -401 726 0
-540 -190 247 0
924 -28 -745 0
513 473 951 0
331 -171 815 0
24 506 -33 0
-107 950 -674 0
-936 190 -452 0
-37 746 179 0
500 -80 475 0
-357 -187 122 0
-645 -782 655 0
671 306 11 0
788 546 -943 0
-834 -11 -593 0
-595 568 -869 0
-99 38 -661 0
-559 -830 906 0
-471 343 700 0
165 605 -614 0
-663 6 -935 0
661 398 766 0
-712 -899 145 0
996 86 -488 0
-780 482 307 0
539 -625 -383 0
413 325 877 0
-843 -741 -368 0
-727 587 -224 0
-529 -30 24 0
652 -359 -131 0
-195 -373 358 0
-762 181 -664 0
965 -546 850 0
64 -330 737 0
296 -166 727 0
-154 -503 -540 0
-734 -828 368 0
-397 109 -527 0
614 -933 940 0
758 -718 270 0
55 -395 286 0
-937 -338 550 0
-531 -580 396 0
469 535 934 0
486 -31 636 0
950 234 844 0
-684 -590 -341 0
246 -37 -988 0
-690 -407 542 0
-283 -214 -321 0
227 306 -195 0
-322 -596 367 0
910 -822 860 0
-419 -634 122 0
-39 711 -651 0
-645 -78 593 0
-572 -863 76 0
310 -647 756 0
527 261 190 0
-672 794 683 0
570 545 603 0
657 -250 993 0
-498 603 -480 0
192 858 -309 0
431 -235 -612 0
-476 403 -930 0
-734 -438 -21 0
-530 918 601 0
494 798 167 0
803 913 561 0
810 224 -342 0
-229 -28 -318 0
677 591 -431 0
481 -964 101 0
-187 -146 -47 0
392 -656 -995 0
-950 550 875 0
585 300 250 0
-375 622 -584 0
-723 409 730 0
666 -700 -314 0
-702 374 649 0
-948 -177 -800 0
64 -166 114 0
-20 645 913 0
714 -586 190 0
-769 -385 505 0
-533 238 -450 0
-496 637 406 0
-376 -175 -20 0
-869 851 -845 0
-437 -315 528 0
732 -271 442 0
82 -821 388 0
282 -711 -148 0
276 -855 -544 0
-42 511 -575 0
-731 438 -78 0
-560 208 -390 0
817 -342 754 0
303 -154 511 0
-647 -755 -359 0
-198 398 -752 0
20 739 -361 0
310 -568 -278 0
917 -589 -156 0
942 592 -750 0
-819 209 -965 0
-421 -250 721 0
-997 550 370 0
-490 84 -595 0
893 824 -390 0
-745 797 -769 0
121 -383 747 0
-420 530 -720 0
300 887 350 0
-600 959 -973 0
-161 450 646 0
-343 600 150 0
-659 499 -844 0
-770 -832 860 0
870 -890 -981 0
-960 -809 -48 0
554 131 420 0
-116 -231 -420 0
-670 -798 543 0
640 -555 455 0
160 -190 109 0
433 400 115 0
876 543 442 0
-969 -661 835 0
582 470 -321 0
657 980 -828 0
-898 205 978 0
-923 78 -707 0
40 706 549 0
398 -233 -272 0
-597 38 -826 0
-784 -606 897 0
-750 416 -763 0
929 -514 -778 0
577 -823 -92 0
-91 581 183 0
10 399 -239 0
706 84 186 0
-4 -418 -407 0
513 -77 -537 0
127 284 -962 0
-452 -80 199 0
431 519 301 0
-427 352 854 0
-208 650 73 0
85 734 142 0
488 762 315 0
-456 -642 -472 0
892 925 277 0
-744 -102 -34 0
987 -877 -972 0
622 763 811 0
-147 468 -377 0
418 -176 281 0
-823 -756 513 0
-970 504 -395 0
-35 169 -613 0
836 -321 398 0
191 846 -875 0
399 697 -755 0
108 137 -905 0
-843 -258 332 0
-348 44 575 0
-471 746 246 0
865 760 830 0
561 -869 152 0
990 -146 -295 0
-355 813 193 0
-754 627 399 0
-984 -595 -816 0
-774 -542 -69 0
-123 418 550 0
884 386 -193 0
-383 -911 -468 0
329 673 686 0
-349 -121 -622 0
-954 -73 -828 0
-218 -745 300 0
-985 645 -265 0
118 -399 -277 0
632 601 -102 0
-928 -8 -512 0
-300 217 701 0
176 34 464 0
-845 905 -382 0
125 325 -866 0
306 71 -684 0
63 -920 -844 0
-674 715 275 0
-901 85 343 0
171 -140 423 0
-369 -683 41 0
-381 -811 -988 0
440 25 -313 0
-145 -548 -308 0
-38 906 158 0
-46 792 665 0
715 -93 904 0
418 491 712 0
561 937 -92 0
429 689 505 0
-776 -408 963 0
-569 188 234 0
643 356 665 0
-22 -623 226 0
113 100 -625 0
-47 482 829 0
-705 276 -960 0
-691 -19 -503 0
-400 -896 572 0
665 -208 32 0
-331 -108 -217 0
303 -986 676 0
-721 783 -215 0
734 498 -524 0
96 -552 141 0
-902 558 812 0
207 -30 -182 0
-194 -929 360 0
-547 770 -887 0
314 -979 74 0
542 -292 -757 0
-435 162 -575 0
-465 -462 -5 0
-483 989 -89 0
222 -233 -66 0
459 295 98 0
-663 -392 64 0
101 360 96 0
-39 -601 372 0
-490 178 -730 0
914 -191 -295 0
-253 128 -481 0
872 -575 846 0
-547 -338 -442 0
273 -520 341 0
-651 836 -921 0
387 893 -633 0
52 -1000 -994 0
762 -783 324 0
178 250 448 0
216 -541 -230 0
-92 988 -545 0
-124 -271 -627 0
-611 -664 632 0
63 421 -509 0
-509 -578 -594 0
-63 -226 781 0
679 662 -806 0
465 -881 820 0
315 110 -524 0
-975 493 -373 0
-975 623 -693 0
-951 -611 181 0
459 845 -400 0
727 -857 -708 0
5 510 -314 0
943 -808 502 0
-233 5 -904 0
186 880 410 0
-426 405 650 0
-367 -226 -186 0
755 -677 166 0
555 371 101 0
17 -867 -516 0
101 240 -339 0
944 -840 -174 0
11 839 -612 0
457 991 2 0
94 -320 469 0
590 237 779 0
948 -140 944 0
-769 939 -257 0
-749 649 -562 0
-961 265 -85 0
-410 -486 444 0
580 -22 85 0
387 737 -676 0
477 892 314 0
-230 -53 724 0
-124 -327 -95 0
127 505 279 0
-789 4 -219 0
-723 -785 -829 0
-260 548 94 0
617 918 -724 0
135 855 -603 0
859 222 -280 0
244 -545 959 0
-591 -665 -905 0
312 -154 -127 0
-358 212 782 0
-244 164 -411 0
-938 26 -775 0
861 242 -350 0
-214 -398 687 0
-731 371 -297 0
523 645 -937 0
453 210 772 0
-700 238 -670 0
682 -581 854 0
-136 650 -771 0
788 -755 -706 0
-619 650 120 0
-381 175 -449 0
874 -77 280 0
327 986 10 0
-647 -558 -503 0
-513 20 -11 0
747 -709 515 0
-63 15 412 0
-465 136 -600 0
397 -428 598 0
42 188 208 0
846 -948 -497 0
926 -53 70 0
-668 938 769 0
-791 512 948 0
792 -364 378 0
908 106 373 0
-609 -152 915 0
-633 -249 709 0
-275 643 -341 0
-421 712 -60 0
337 -233 -97 0
629 -31 -154 0
879 875 -418 0
-863 -859 -117 0
682 -514 -646 0
463 923 225 0
624 -816 -108 0
-823 -429 -267 0
497 -275 -4 0
605 137 649 0
556 -444 -265 0
60 265 753 0
-42 682 -312 0
-194 -660 200 0
926 -770 -442 0
772 -33 430 0
215 -590 891 0
759 -496 124 0
631 -161 626 0
-974 690 -777 0
-586 75 650 0
-408 -915 161 0
373 -194 279 0
628 -818 992 0
-245 61 800 0
-969 -20 609 0
-404 336 337 0
-591 311 -812 0
-269 -795 -973 0
-489 -286 969 0
-235 299 753 0
-842 -693 -853 0
760 264 774 0
-494 62 421 0
744 -524 -681 0
155 -711 745 0
151 -297 493 0
971 -579 -196 0
366 -957 -127 0
-141 -709 724 0
292 90 960 0
5 1 492 0
-965 858 707 0
264 974 -874 0
-73 -275 -113 0
-836 811 -785 0
272 -173 892 0
512 769 952 0
569 -47 -932 0
10 677 -318 0
432 -654 -225 0
838 -444 456 0
-589 282 960 0
-651 581 825 0
-193 338 -253 0
842 980 502 0
-919 311 620 0
-579 -928 620 0
-371 -958 -24 0
-881 -305 -853 0
-563 -136 -921 0
-90 -45 -847 0
725 36 257 0
393 757 -153 0
200 439 444 0
274 54 942 0
781 261 -27 0
863 -838 928 0
754 363 -38 0
950 359 943 0
773 -567 -137 0
-65 636 2 0
-811 126 -641 0
442 616 -733 0
-967 367 318 0
-814 375 221 0
-685 -935 -836 0
946 -871 -637 0
969 -801 505 0
-354 549 439 0
-282 837 668 0
-763 -800 -579 0
798 -765 -772 0
-278 700 573 0
-40 -939 822 0
88 -944 -85 0
-649 -565 -927 0
-883 197 -576 0
535 -145 209 0
-773 170 -922 0
-317 913 297 0
-341 965 199 0
251 298 684 0
-300 -657 -957 0
-63 -973 304 0
-231 -332 -686 0
-639 955 506 0
939 762 708 0
399 -563 -216 0
-440 942 592 0
213 624 -111 0
403 -357 -154 0
211 -53 157 0
218 121 987 0
778 805 168 0
-95 -980 -826 0
-668 -789 -86 0
312 -950 -370 0
533 -930 -939 0
-43 -350 -118 0
988 22 197 0
84 848 22 0
-804 -442 -674 0
-452 -513 -762 0
534 -263 428 0
25 72 285 0
-846 -736 -350 0
-615 -134 666 0
234 788 300 0
-198 -481 -353 0
792 394 466 0
-135 -26 118 0
474 -287 160 0
684 600 783 0
947 -755 980 0
-93 -245 55 0
722 889 719 0
164 -688 101 0
-698 903 -116 0
-948 -963 -571 0
-9 512 -228 0
-929 775 227 0
-215 -946 854 0
492 -50 537 0
-624 134 280 0
-603 -966 -43 0
248 -24 -834 0
439 -170 796 0
-406 -415 -112 0
668 -497 836 0
-995 382 -476 0
641 534 -550 0
40 -309 99 0
602 118 990 0
-579 506 -116 0
472 265 -515 0
-485 820 -829 0
-558 -920 -10 0
-338 -527 -544 0
-549 763 -884 0
976 601 961 0
243 -565 -381 0
592 939 133 0
-796 -311 901 0
-510 -193 219 0
716 329 -829 0
-916 -446 657 0
197 -763 816 0
319 -33 -830 0
-130 600 103 0
-819 -797 -290 0
895 712 -394 0
629 -440 -362 0
347 -617 630 0
-690 -203 404 0
493 705 333 0
167 -349 -383 0
455 -672 682 0
116 -64 -115 0
-609 616 724 0
-726 -354 -265 0
-338 601 -482 0
285 -765 823 0
816 476 351 0
-274 -33 243 0
865 604 -532 0
261 832 863 0
-889 -845 56 0
271 440 639 0
-575 121 -392 0
533 523 648 0
-397 400 535 0
-967 -719 -134 0
812 715 772 0
291 -214 323 0
-120 -229 828 0
724 -683 -299 0
788 -274 862 0
315 59 439 0
-424 -446 525 0
967 641 -326 0
-276 -172 666 0
459 418 -137 0
248 -887 -789 0
-626 -809 765 0
-129 211 912 0
-94 644 -731 0
134 -726 -966 0
-976 -180 -827 0
-997 297 815 0
515 -768 248 0
67 -399 531 0
420 -760 -965 0
-967 530 -440 0
-314 164 -184 0
-453 -474 173 0
-266 686 129 0
605 140 315 0
287 386 222 0
-315 290 960 0
-62 581 -762 0
244 90 805 0
-569 150 -979 0
369 -513 399 0
967 -812 347 0
-273 -495 317 0
476 793 625 0
-549 540 827 0
-556 870 551 0
-974 450 -943 0
601 485 -882 0
767 -19 -660 0
622 108 409 0
-287 -444 742 0
-447 773 632 0
181 258 -74 0
829 980 -22 0
684 249 -596 0
604 58 -769 0
-954 -327 -769 0
-280 867 -211 0
-849 -822 -792 0
-31 808 869 0
142 939 103 0
119 694 691 0
-995 -510 -997 0
93 886 -214 0
-530 655 -680 0
-42 -79 366 0
-854 26 -427 0
-111 134 9 0
-748 911 -148 0
-266 817 -592 0
-240 323 -194 0
930 -13 199 0
-361 115 -146 0
-168 414 767 0
129 -723 974 0
-330 896 -474 0
606 543 -130 0
380 -935 -60 0
994 -606 773 0
679 659 -416 0
945 -607 487 0
514 23 -441 0
918 -815 -708 0
-93 574 -631 0
708 20 -933 0
539 -970 -568 0
738 -239 505 0
-740 297 -158 0
751 -321 -722 0
-635 658 395 0
-993 -583 -954 0
-331 -713 256 0
-461 -764 88 0
-109 899 796 0
-723 -154 -512 0
809 -460 -826 0
650 880 -975 0
-751 -617 -644 0
-47 200 -642 0
358 70 2 0
114 644 920 0
926 -570 -488 0
-911 -527 356 0
-965 702 158 0
576 858 776 0
766 -133 676 0
109 -196 478 0
-803 -541 -176 0
-643 601 -20 0
575 301 -286 0
-428 287 446 0
-865 -972 696 0
353 -613 -287 0
921 863 -519 0
777 -954 439 0
84 -917 912 0
745 -616 735 0
-801 -228 -377 0
571 880 -656 0
-693 875 -140 0
981 905 674 0
964 8 -102 0
-585 -398 369 0
574 312 852 0
-710 162 -416 0
-162 -32 348 0
-671 275 377 0
285 187 610 0
416 411 672 0
361 630 -604 0
968 -203 -762 0
-512 -461 914 0
-27 133 -197 0
279 -232 -9 0
-802 547 871 0
-488 -473 299 0
-597 -824 105 0
-930 -896 787 0
134 -707 -295 0
440 989 -919 0
863 -594 612 0
876 -796 843 0
932 436 -934 0
707 736 -388 0
651 -979 -761 0
-472 -8 390 0
65 -659 -231 0
263 826 -395 0
775 287 630 0
317 -772 -647 0
-362 -20 -105 0
-773 660 -716 0
440 158 -691 0
209 -378 -516 0
-738 411 -254 0
-631 -956 495 0
-4 -676 -599 0
404 -933 -36 0
301 -663 -502 0
920 -254 -97 0
-632 -578 -803 0
679 155 651 0
-68 -829 728 0
407 410 553 0
-761 -753 -530 0
-83 677 108 0
607 -625 -708 0
-776 -956 581 0
-433 921 842 0
91 428 891 0
-893 175 -901 0
888 220 318 0
28 -741 -802 0
650 312 -114 0
-953 -394 -303 0
127 942 -789 0
-899 553 -659 0
68 370 610 0
-889 -532 -356 0
747 -727 -758 0
101 357 628 0
-690 650 123 0
-21 -907 550 0
-799 459 -320 0
6 -626 864 0
-327 -536 857 0
-695 162 650 0
547 400 -535 0
-123 366 -821 0
687 -64 401 0
-459 581 788 0
-481 -211 623 0
-882 925 -720 0
-720 830 -175 0
-57 846 -908 0
-530 -596 -633 0
-492 -903 427 0
-682 -550 972 0
-6 -444 -513 0
760 250 -118 0
692 237 698 0
-761 -103 535 0
802 637 -114 0
-44 -391 -723 0
1000 -241 -234 0
-254 901 -870 0
-485 819 -572 0
-255 40 -826 0
640 -63 676 0
-412 502 -172 0
-936 -125 -744 0
599 422 -759 0
-81 -188 883 0
673 -822 -726 0
86 96 -145 0
167 -56 57 0
-525 540 233 0
-919 18 256 0
-868 -213 -208 0
787 959 548 0
388 997 -145 0
-398 -279 658 0
-757 742 503 0
-162 180 367 0
-817 -836 -384 0
-710 -912 473 0
627 698 -19 0
83 -332 -341 0
-729 -960 110 0
-678 894 640 0
326 683 663 0
369 171 -123 0
965 402 498 0
176 -141 199 0
-350 775 -840 0
-695 -515 969 0
-314 375 750 0
-201 -485 -414 0
-63 210 -70 0
35 -849 -537 0
792 -81 43 0
-440 -634 544 0
909 226 -303 0
-348 816 -261 0
819 -968 88 0
-98 -977 -458 0
-416 -228 -708 0
-865 758 883 0
990 302 555 0
-687 4 -186 0
-199 -309 868 0
17 749 -316 0
-726 -388 7 0
-409 872 127 0
167 329 78 0
850 189 415 0
142 -884 334 0
772 208 -502 0
834 355 89 0
930 -465 -547 0
802 -88 -673 0
222 -737 836 0
649 -277 -654 0
315 563 827 0
-516 -461 -314 0
651 954 -781 0
-357 -374 -669 0
-26 38 933 0
-58 35 460 0
971 -514 207 0
-260 881 740 0
363 198 -771 0
653 -634 -149 0
-694 -5 -742 0
-606 -411 -661 0
-454 15 -118 0
-538 614 -870 0
-485 812 389 0
383 -700 970 0
-778 -703 206 0
820 -651 -208 0
-607 -190 -339 0
-1000 884 -473 0
718 -537 871 0
994 112 574 0
409 497 -851 0
-359 -292 769 0
380 569 -31 0
-481 -4 923 0
812 295 -118 0
-129 -375 255 0
-220 -541 -152 0
-152 386 502 0
-341 -239 233 0
-378 828 -175 0
438 641 464 0
916 -460 368 0
-743 -944 73 0
-456 340 -506 0
-170 947 -637 0
825 314 -830 0
-731 620 -185 0
925 -138 503 0
925 87 -720 0
425 32 -2 0
151 157 380 0
483 -656 199 0
-673 -368 -363 0
-997 188 -822 0
-671 943 928 0
460 270 444 0
748 882 -833 0
-298 -94 359 0
815 -794 660 0
-699 -492 -349 0
-418 -11 -202 0
-382 465 -458 0
924 -756 -927 0
634 -21 -745 0
-157 -705 -1000 0
-956 784 733 0
572 78 -149 0
-278 -608 191 0
-143 -654 674 0
776 -90 642 0
-119 400 -991 0
-653 742 -426 0
-516 -737 -274 0
-240 -980 512 0
-526 -190 -551 0
-148 -755 -846 0
-310 -614 -287 0
-334 643 616 0
-371 554 349 0
694 -936 347 0
-193 -984 199 0
479 376 951 0
-116 957 498 0
-991 637 -297 0
349 -584 194 0
764 -454 -754 0
-304 514 402 0
-533 134 742 0
441 40 886 0
418 611 658 0
702 -786 -586 0
521 -105 -518 0
624 297 -64 0
485 -785 -245 0
68 205 397 0
961 969 927 0
722 -46 -792 0
-783 59 -673 0
179 677 -403 0
721 -281 -372 0
482 -721 -963 0
898 405 -896 0
651 614 -317 0
-3 401 816 0
-785 -2 514 0
-857 -964 521 0
-28 -865 -399 0
-194 -451 955 0
690 -530 -915 0
123 -853 -583 0
217 599 441 0
-31 -240 833 0
-334 -116 -839 0
-388 268 -654 0
898 395 369 0
-295 929 -244 0
373 968 291 0
-662 -258 -204 0
241 297 892 0
-680 -709 -448 0
268 -466 747 0
-453 408 -638 0
-105 -702 -308 0
-448 425 208 0
-33 -358 -727 0
-393 -629 563 0
358 958 -854 0
-765 -987 -579 0
693 15 526 0
-220 -105 -470 0
598 -124 -434 0
463 932 435 0
16 155 145 0
-282 877 -155 0
-107 86 -794 0
277 216 166 0
663 -989 -608 0
47 -972 622 0
219 196 287 0
711 -844 387 0
-830 -139 234 0
-596 860 -931 0
-612 241 -490 0
-659 -407 638 0
-683 -371 299 0
-589 -957 -180 0
-457 -737 834 0
136 -993 992 0
-24 499 918 0
265 -963 -934 0
327 26 163 0
-510 108 -769 0
231 -356 -245 0
-864 158 -392 0
-437 267 -75 0
713 -590 -218 0
343 -97 700 0
909 745 104 0
-617 390 70 0
176 -92 -750 0
-38 279 521 0
-618 -239 -72 0
979 -964 559 0
-744 267 -996 0
-326 -186 310 0
609 -244 -913 0
-42 32 -108 0
-880 -321 691 0
-357 -483 -134 0
910 -68 -934 0
-696 179 -745 0
-338 -433 321 0
744 -263 315 0
-662 234 -247 0
-157 174 740 0
-864 367 -365 0
931 146 -214 0
-805 -907 -549 0
346 309 692 0
128 -235 456 0
675 205 -69 0
360 599 411 0
-794 80 -143 0
872 -716 758 0
-262 915 -230 0
-425 -65 670 0
-694 67 150 0
-986 194 622 0
-641 -529 887 0
-848 923 -826 0
-704 215 808 0
616 807 876 0
17 -747 -65 0
597 -725 -453 0
755 -661 684 0
978 -885 723 0
-668 770 -966 0
-894 433 -639 0
-923 -769 -44 0
738 -494 524 0
428 282 147 0
-433 -947 -28 0
794 -375 884 0
267 346 352 0
-33 82 -539 0
449 527 279 0
778 301 -271 0
807 279 995 0
-326 245 -603 0
-218 125 -909 0
-198 105 777 0
380 -612 -97 0
-912 633 -230 0
185 501 388 0
956 35 279 0
332 712 907 0
-980 710 590 0
618 -649 877 0
-210 175 979 0
965 256 490 0
310 -341 708 0
-12 538 653 0
498 -67 141 0
84 672 990 0
692 535 -593 0
392 223 -924 0
345 260 -87 0
-841 132 901 0
290 -63 727 0
-765 -696 -471 0
-564 936 -718 0
-298 114 -532 0
-335 -874 580 0
-397 -439 -667 0
-392 -14 -979 0
831 -390 802 0
780 -726 -727 0
-442 -227 644 0
435 -673 -993 0
-388 790 -42 0
397 169 -68 0
-958 -521 921 0
-568 832 -41 0
367 891 -109 0
-345 977 -645 0
44 -623 590 0
389 -140 956 0
719 -630 -192 0
720 -653 -657 0
-268 -782 -75 0
-678 600 -710 0
122 -995 44 0
-480 30 183 0
-109 693 343 0
947 451 -295 0
873 364 1 0
-660 -523 910 0
-301 -236 -82 0
45 962 832 0
-993 -5 -44 0
51 -686 -640 0
-830 250 517 0
-250 584 -130 0
-431 546 516 0
329 164 212 0
-144 -619 815 0
718 35 -33 0
901 -240 70 0
234 -262 947 0
-441 -866 -293 0
-68 606 807 0
860 941 11 0
684 -773 223 0
-757 -282 806 0
-876 339 734 0
800 624 878 0
-234 27 -426 0
-362 -954 -369 0
419 635 -412 0
426 909 -697 0
-429 663 68 0
-206 497 -257 0
-198 -821 -225 0
922 991 93 0
375 -572 -741 0
941 -843 151 0
198 -681 439 0
-536 410 218 0
-795 473 970 0
932 -196 -42 0
-392 461 -797 0
-259 -81 -821 0
415 173 157 0
-622 290 454 0
-455 -458 784 0
35 17 662 0
107 -812 64 0
531 -268 -852 0
216 265 534 0
667 -451 844 0
-216 531 -825 0
-507 -484 204 0
144 -169 296 0
912 974 -853 0
-316 378 952 0
-169 -270 -718 0
565 -195 929 0
447 867 -288 0
823 -351 473 0
188 748 308 0
-739 489 -542 0
812 719 -932 0
390 490 130 0
-712 -659 -220 0
-711 727 -873 0
283 899 -661 0
222 -756 890 0
-748 -192 -478 0
-99 956 899 0
635 -261 -583 0
-937 -874 -490 0
352 -333 -394 0
839 977 -40 0
-905 -235 484 0
-914 703 201 0
227 -875 -223 0
-126 994 -894 0
-200 -898 5 0
702 -927 214 0
-26 59 210 0
688 546 113 0
-743 -746 -894 0
-373 -383 183 0
726 -175 -280 0
624 -7 887 0
-306 -826 252 0
-28 630 -165 0
482 815 -519 0
-608 -479 516 0
-760 845 -223 0
-850 -678 -319 0
917 160 -760 0
-275 895 808 0
596 -119 388 0
970 -73 -276 0
460 -763 -599 0
-453 716 216 0
-944 -250 -984 0
-170 -115 568 0
-738 -350 951 0
-370 217 -152 0
-470 688 304 0
-358 -920 -34 0
207 -203 -177 0
-941 828 113 0
907 481 588 0
54 -414 -394 0
-726 31 750 0
-191 -162 -136 0
-616 321 -837 0
215 328 -973 0
-266 -120 -327 0
753 654 -475 0
-687 758 960 0
419 -883 429 0
-284 -577 56 0
685 682 803 0
436 865 -259 0
315 -93 -173 0
481 473 537 0
412 468 167 0
304 -747 953 0
-569 599 469 0
-420 -551 -881 0
-761 376 -825 0
-331 15 -170 0
520 604 158 0
869 901 -390 0
383 85 -573 0
626 -828 864 0
738 -160 337 0
68 -681 826 0
-211 -954 -591 0
-183 -906 23 0
-248 -199 -11 0
162 -512 -650 0
-42 -178 486 0
540 -975 -140 0
-808 -585 -937 0
-348 986 -249 0
-690 474 977 0
641 -487 294 0
87 -105 969 0
-588 815 -784 0
-5 356 -282 0
-812 359 -595 0
-367 -660 358 0
-937 708 -240 0
835 -469 -413 0
842 -483 232 0
13 -919 -664 0
354 841 389 0
-903 220 177 0
-991 -354 -1 0
471 628 798 0
-943 883 -551 0
-177 -476 -479 0
-916 842 -795 0
43 -152 698 0
542 38 937 0
-420 -933 264 0
229 141 -876 0
-474 403 276 0
56 -751 -779 0
34 703 290 0
872 -358 -637 0
598 -620 52 0
-584 -824 427 0
-262 -58 809 0
-403 470 449 0
-943 306 -34 0
694 447 735 0
192 32 -854 0
-496 -292 680 0
842 -632 626 0
-384 967 49 0
-747 -341 -434 0
-557 -1000 -698 0
-887 -481 509 0
952 -704 843 0
340 362 -92 0
125 -748 646 0
864 -722 -974 0
854 -486 -950 0
-908 -471 147 0
775 -485 -914 0
-315 13 -485 0
953 -826 199 0
887 -946 -22 0
645 301 -183 0
500 -597 -240 0
-130 268 87 0
-270 883 -865 0
269 535 -890 0
954 -987 888 0
215 -788 -461 0
893 997 -788 0
120 133 291 0
-483 100 -864 0
-340 -382 -872 0
-162 -141 -555 0
655 64 800 0
374 -882 -598 0
887 -176 -489 0
-285 52 24 0
704 -876 -607 0
506 -260 962 0
-144 91 422 0
-284 306 52 0
-99 -144 -287 0
-468 -164 -98 0
273 901 595 0
935 -618 -743 0
-473 934 -90 0
954 -371 -486 0
547 324 444 0
-286 510 520 0
-384 996 -462 0
-74 -706 469 0
423 519 586 0
236 -966 -493 0
94 834 -535 0
479 388 510 0
335 -602 -689 0
-183 -334 -482 0
987 -528 -728 0
-660 965 -831 0
583 250 -490 0
-832 -608 -85 0
-184 -982 72 0
-418 952 812 0
599 111 -255 0
106 943 -841 0
42 787 28 0
-287 369 -613 0
-922 326 703 0
490 383 824 0
-780 797 -338 0
265 137 692 0
505 876 321 0
578 -399 771 0
476 50 -197 0
742 267 846 0
-909 -912 -120 0
263 -396 65 0
-474 -851 132 0
-963 -337 319 0
426 700 325 0
-918 -540 471 0
418 -202 -185 0
-350 509 555 0
818 140 -364 0
-913 -327 961 0
-588 -480 84 0
303 -941 57 0
692 196 715 0
884 -729 413 0
12 717 260 0
-371 946 455 0
-61 789 569 0
-715 -477 398 0
-947 151 238 0
-175 -286 -149 0
816 -117 894 0
700 542 676 0
-215 -436 -62 0
-294 -34 -775 0
461 -252 -669 0
-960 -569 185 0
-563 -881 552 0
887 221 -156 0
-976 342 -302 0
-372 794 573 0
-277 -711 867 0
-346 570 -344 0
-610 66 -890 0
575 475 247 0
-157 -312 -613 0
534 -167 -572 0
-435 438 -463 0
753 261 -843 0
591 762 993 0
-21 -196 -470 0
-365 -999 -793 0
-903 -671 305 0
-525 -3 546 0
-825 -71 -580 0
-331 -867 -8 0
-354 28 -565 0
-427 -62 -483 0
-872 -960 -199 0
149 184 283 0
-278 46 -808 0
303 -98 -5 0
904 -115 -696 0
885 -509 448 0
-254 635 -802 0
-121 402 -387 0
924 -520 679 0
-129 28 -864 0
690 -762 -141 0
-947 791 -788 0
-36 -122 -343 0
-770 715 -776 0
-176 95 16 0
418 -107 908 0
452 -548 -970 0
728 891 922 0
-227 763 -947 0
822 -439 -825 0
979 380 832 0
351 880 362 0
-905 -33 -91 0
-662 -97 -990 0
970 -755 -719 0
-778 -685 71 0
15 -38 -574 0
-381 41 369 0
677 837 -937 0
-452 252 -859 0
208 -642 -539 0
896 380 -804 0
-88 -355 600 0
645 -474 204 0
-390 723 734 0
-121 -304 -703 0
-333 260 137 0
518 955 -713 0
-13 -135 -720 0
413 -209 -71 0
-485 409 -292 0
-975 -692 999 0
797 69 538 0
206 -300 -586 0
-957 -455 591 0
299 -594 37 0
377 502 961 0
426 -394 950 0
-18 -453 814 0
520 946 8 0
946 -255 -527 0
-32 -947 93 0
672 -221 118 0
940 -119 -369 0
-910 -542 -424 0
835 -11 -601 0
743 -824 30 0
981 -842 44 0
-571 569 76 0
-739 -777 951 0
-939 154 -537 0
539 772 373 0
809 91 100 0
74 437 -463 0
-717 543 5 0
857 -285 181 0
744 -263 -163 0
-195 389 138 0
-489 321 -754 0
-115 127 -402 0
328 -84 -781 0
-412 -948 -12 0
-621 526 -629 0
822 -511 326 0
999 632 -828 0
-848 -804 -56 0
-360 62 -36 0
542 821 709 0
364 -998 777 0
454 698 563 0
750 174 -867 0
922 390 530 0
-31 -402 120 0
-78 30 485 0
-506 -374 -603 0
141 -923 -123 0
-818 -52 -174 0
499 850 290 0
51 415 -507 0
-896 709 665 0
241 32 -16 0
427 -547 721 0
615 -464 -161 0
-73 -763 348 0
915 334 -728 0
955 638 653 0
541 -775 -366 0
68 -802 -38 0
-509 -179 -932 0
-253 -624 618 0
580 -675 30 0
-444 -607 -642 0
-412 -800 -139 0
716 -340 -746 0
503 160 -738 0
439 -565 111 0
-505 225 -673 0
-104 537 -343 0
-510 377 826 0
-258 -181 -68 0
-824 -566 202 0
-350 965 212 0
-269 -361 982 0
-951 -41 606 0
545 -389 296 0
240 -960 763 0
-766 -204 -716 0
-763 635 652 0
-116 -805 -842 0
871 717 301 0
643 875 393 0
698 -337 692 0
-951 -426 -91 0
290 -32 -316 0
567 491 -376 0
-939 125 110 0
-175 117 543 0
-233 -616 702 0
-467 -758 684 0
738 -631 305 0
679 82 149 0
-571 -959 -701 0
-18 -313 127 0
-121 109 -669 0
-933 -909 -335 0
965 661 4 0
-736 -602 386 0
117 -41 -466 0
609 346 396 0
-100 -486 -55 0
371 -221 214 0
-201 -351 -731 0
462 711 103 0
804 33 326 0
-735 20 681 0
-897 628 -963 0
-84 -237 -373 0
539 -289 -770 0
-205 -612 -69 0
312 830 372 0
703 368 975 0
311 -432 380 0
-916 468 308 0
388 -616 -563 0
96 -623 -977 0
-473 -454 -297 0
-371 640 -250 0
-749 672 220 0
762 -356 -682 0
-632 385 -895 0
-388 -660 -707 0
278 -910 -207 0
-309 407 -564 0
-902 775 866 0
-384 -297 935 0
697 -737 229 0
796 811 464 0
-66 -487 -584 0
235 -887 444 0
767 -918 192 0
171 137 607 0
967 764 646 0
-888 -941 74 0
-762 419 453 0
-542 -900 -142 0
876 -560 -504 0
-339 -978 -847 0
-733 602 266 0
736 -978 584 0
-260 -412 791 0
962 -853 639 0
-291 -244 38 0
-596 674 -756 0
259 -463 425 0
-587 -504 260 0
-859 746 24 0
357 561 -263 0
-541 -473 977 0
-911 -269 145 0
921 441 259 0
-511 -518 -443 0
585 -550 -954 0
-699 999 -983 0
-433 507 -689 0
-806 -894 99 0
-472 592 -151 0
-894 -816 -844 0
-186 -583 703 0
980 993 -619 0
-241 -107 356 0
-405 923 836 0
76 -257 -852 0
-592 -350 798 0
232 167 -792 0
235 609 -108 0
-990 -981 6 0
-540 -708 -790 0
885 -500 738 0
856 -478 919 0
433 271 -453 0
856 628 428 0
-112 50 808 0
23 376 402 0
848 717 -803 0
573 639 -937 0
-991 384 -108 0
-19 34 -690 0
302 -791 125 0
616 750 -364 0
-128 -285 -713 0
410 -677 326 0
-30 569 750 0
-968 616 318 0
467 -735 -207 0
745 815 584 0
122 -404 -697 0
175 -547 -438 0
986 148 795 0
-379 204 -137 0
165 -374 428 0
-361 -225 -868 0
-878 -132 67 0
369 -118 852 0
326 318 796 0
-55 -442 233 0
-246 -488 846 0
51 212 -526 0
-448 -21 458 0
262 -330 869 0
-694 510 -973 0
754 -227 197 0
682 220 462 0
244 378 -342 0
-232 181 777 0
-212 225 28 0
-400 -861 -2 0
474 727 953 0
-344 -663 751 0
-663 120 641 0
854 -4 755 0
701 135 281 0
595 866 -864 0
-747 -888 -741 0
811 528 651 0
685 652 635 0
32 -234 -826 0
-804 -427 190 0
966 -765 -143 0
-164 27 -167 0
193 -548 -8 0
-342 -949 -48 0
760 525 -937 0
-949 208 859 0
-89 -419 213 0
38 780 -878 0
-960 195 465 0
974 525 953 0
826 97 400 0
-846 -391 -257 0
-333 384 909 0
-790 -19 -927 0
583 -233 -804 0
-664 -417 33 0
-270 -609 283 0
396 832 708 0
799 492 436 0
-978 363 515 0
-809 -391 919 0
867 -100 -720 0
411 921 -988 0
753 474 -268 0
-853 347 849 0
-736 908 520 0
-709 223 846 0
-953 -750 410 0
-651 -144 192 0
110 523 -342 0
-160 -730 388 0
-7 -112 -24 0
-192 -70 658 0
-739 702 833 0
-161 -370 -608 0
-597 78 6 0
593 -353 -528 0
98 -480 -454 0
-76 35 378 0
-124 -901 -638 0
513 42 -386 0
44 -162 -92 0
-744 -111 -645 0
846 548 -212 0
383 -978 899 0
540 858 -130 0
-577 -249 -882 0
353 -603 -13 0
787 -280 -956 0
-472 -59 -467 0
388 909 429 0
724 -929 809 0
104 468 -892 0
750 829 377 0
436 668 971 0
933 -985 -407 0
-930 -610 468 0
-161 -888 -194 0
521 -529 895 0
991 931 -910 0
821 -655 -874 0
-974 16 838 0
308 -436 -569 0
-580 -181 305 0
71 -917 -852 0
206 -588 -819 0
-919 172 480 0
-303 668 -399 0
-232 -209 960 0
-530 -512 125 0
-770 40 -520 0
-394 -96 -353 0
427 -618 -432 0
839 -346 -995 0
-263 -496 105 0
369 965 -890 0
-604 -342 189 0
-261 -552 933 0
-692 845 479 0
-282 779 -77 0
84 369 665 0
23 -836 -568 0
876 -624 330 0
663 -183 -603 0
-894 -606 287 0
-567 -995 -140 0
-158 -642 950 0
-567 -390 -863 0
46 -267 -666 0
-175 797 -234 0
-777 -277 550 0
-252 680 420 0
-158 959 -871 0
-253 880 -627 0
-906 -319 5 0
465 787 760 0
230 -148 175 0
287 -434 36 0
-266 -587 956 0
-139 231 -719 0
-176 117 -983 0
618 404 228 0
93 21 787 0
-840 355 -889 0
302 143 -650 0
-602 221 662 0
-343 214 -290 0
-284 -177 -673 0
-473 -947 -418 0
149 -546 82 0
-772 -577 948 0
-107 -885 935 0
823 299 -375 0
953 217 -42 0
-732 -50 -665 0
-70 354 584 0
-106 391 -688 0
-164 174 -124 0
-396 471 420 0
-527 -66 -614 0
785 907 -1000 0
-439 -964 -748 0
906 899 949 0
-48 147 -625 0
-43 -469 378 0
-914 479 31 0
680 -955 -666 0
-625 -107 371 0
848 785 -391 0
522 276 -24 0
-351 -67 300 0
246 -275 -781 0
-153 -857 256 0
-875 914 402 0
-404 -907 -500 0
-481 892 -290 0
-633 636 -194 0
-660 957 -73 0
966 -886 129 0
-111 778 843 0
-778 -7 407 0
381 663 -111 0
815 -239 237 0
361 975 366 0
492 -661 -594 0
900 507 -683 0
-614 -220 -295 0
-310 200 -101 0
893 101 -334 0
-991 -367 -787 0
211 -785 -514 0
718 739 -171 0
-897 -42 184 0
-313 -915 -683 0
848 345 -973 0
-233 -577 -105 0
-812 -332 839 0
424 -518 -39 0
-168 -485 771 0
-875 -437 -101 0
-799 417 -9 0
179 -291 -445 0
568 705 -237 0
643 -616 -34 0
-910 980 512 0
-401 127 -853 0
318 -666 -24 0
-614 594 577 0
144 449 -806 0
-522 -108 898 0
-6 -73 -867 0
-568 -863 203 0
652 -857 995 0
340 710 -234 0
863 -631 -812 0
51 602 -309 0
-713 -413 -427 0
642 -629 -75 0
-547 123 -505 0
-411 423 564 0
-344 -81 453 0
918 866 613 0
-117 284 -314 0
772 -176 -431 0
-966 520 705 0
223 -768 424 0
751 420 796 0
986 -205 -277 0
-208 361 194 0
523 -12 915 0
245 -516 -670 0
-268 -571 -82 0
764 -616 150 0
147 -260 388 0
900 802 970 0
-768 -939 971 0
394 -478 335 0
-439 370 -245 0
-489 990 348 0
396 502 558 0
549 -267 153 0
-99 -664 285 0
177 325 485 0
-725 864 -67 0
909 -818 -528 0
73 605 -305 0
-714 477 -433 0
857 403 -594 0
-462 -334 -871 0
174 -280 -538 0
-476 211 -971 0
-945 300 -328 0
-526 -217 -957 0
294 475 439 0
304 421 -844 0
-870 518 -242 0
508 -76 552 0
-944 716 -997 0
574 152 390 0
545 -746 636 0
412 -37 -34 0
-234 214 -415 0
262 688 -127 0
657 215 -844 0
-79 -759 706 0
-218 713 916 0
368 197 515 0
532 -956 866 0
522 238 105 0
-404 -297 883 0
412 -439 297 0
489 -363 -813 0
-819 -604 -250 0
-643 -1000 -770 0
738 -561 154 0
-31 753 -332 0
547 -291 636 0
217 -512 -474 0
-818 -623 352 0
291 -386 -920 0
266 -986 17 0
-957 539 869 0
-469 -250 349 0
393 -991 54 0
706 -410 935 0
441 676 -868 0
-875 -842 -927 0
834 272 325 0
-837 732 8 0
654 -16 405 0
684 493 946 0
-237 -656 820 0
-366 -735 675 0
260 -666 -978 0
850 -476 -551 0
-309 11 820 0
-844 -7 572 0
-872 124 -551 0
-878 -323 -84 0
-57 -212 -482 0
-724 -514 421 0
714 131 563 0
405 -553 -901 0
8 504 -164 0
208 -173 -413 0
-305 -667 -999 0
-206 821 894 0
750 -775 -625 0
610 219 154 0
498 -147 -193 0
-915 -849 735 0
-42 -586 602 0
-990 228 443 0
745 1000 -649 0
755 134 63 0
-231 -148 271 0
135 822 -583 0
-972 -566 406 0
-414 114 134 0
647 346 -656 0
485 -727 -185 0
101 -611 -253 0
481 -14 -302 0
-731 123 622 0
706 183 -914 0
27 73 -78 0
-584 776 -675 0
132 -758 566 0
-258 483 366 0
-170 819 485 0
973 -858 -524 0
382 420 303 0
94 -487 788 0
495 -932 874 0
349 643 828 0
709 -96 108 0
-892 -109 -127 0
1000 -921 207 0
-218 917 -346 0
-666 124 -261 0
576 244 44 0
116 -395 216 0
842 -76 -914 0
-266 -468 -964 0
-155 -830 -697 0
-369 -851 90 0
-10 -832 -26 0
145 383 697 0
-461 81 -215 0
-811 403 243 0
3 -729 593 0
-417 64 -374 0
904 -326 -997 0
-868 -345 -70 0
-5 -800 85 0
808 825 183 0
403 743 -356 0
532 -262 -896 0
-536 904 683 0
998 994 -419 0
-9 -195 -317 0
-42 900 -478 0
-743 430 -967 0
-260 832 593 0
-378 107 585 0
175 -750 -705 0
3 538 -844 0
834 -663 -38 0
-426 95 -594 0
-678 872 -667 0
-411 270 341 0
-485 774 669 0
735 -804 468 0
441 -387 -839 0
84 204 -384 0
-613 569 -767 0
785 -219 -600 0
-471 -700 -402 0
-114 26 783 0
-365 -559 403 0
920 708 -286 0
-99 382 -427 0
-391 376 -405 0
262 -688 31 0
-153 -762 -608 0
677 -838 -986 0
996 -178 -649 0
-641 -185 -684 0
-593 72 -371 0
942 838 690 0
-166 74 -516 0
-393 432 -411 0
-650 -925 660 0
175 131 815 0
-523 112 -679 0
617 815 984 0
-404 -371 -679 0
-350 711 184 0
-886 757 655 0
-835 -863 -642 0
-40 -580 -999 0
-558 -519 -888 0
161 -423 887 0
234 -11 545 0
749 -437 342 0
-285 -507 -669 0
72 -634 -364 0
600 136 219 0
986 593 389 0
-611 124 -415 0
-561 -118 736 0
868 268 -735 0
82 155 -951 0
-327 -325 557 0
163 -848 78 0
-495 80 483 0
849 258 562 0
-154 533 802 0
-356 -942 3 0
-162 783 -823 0
828 425 -518 0
-357 -5 -159 0
803 -109 666 0
-79 353 -124 0
31 662 390 0
-311 -8 -120 0
730 542 -42 0
-34 -446 283 0
93 -176 -576 0
772 -393 -309 0
-256 -100 -512 0
479 -33 120 0
141 -473 516 0
-773 -230 543 0
44 470 39 0
-902 492 -613 0
428 575 321 0
864 -362 20 0
-863 805 561 0
440 492 -333 0
746 -795 113 0
677 -814 -990 0
-272 -346 -824 0
-210 746 621 0
-269 556 -196 0
-604 72 -340 0
-711 -283 649 0
494 -452 -374 0
-601 -108 -334 0
202 110 -623 0
-717 600 580 0
-689 399 255 0
826 853 -528 0
-997 -473 77 0
38 -80 -831 0
535 -373 702 0
796 678 -371 0
278 -150 323 0
367 698 -676 0
420 173 -341 0
-128 759 -900 0
354 146 -565 0
880 491 -783 0
603 602 60 0
-125 657 -757 0
980 618 792 0
-449 -268 108 0
-388 697 -367 0
-757 -966 -194 0
-588 -600 24 0
-53 -584 823 0
864 915 482 0
-542 -893 -746 0
-828 862 -586 0
520 647 -267 0
641 119 979 0
-218 -953 -89 0
-852 805 618 0
-170 984 390 0
-465 424 -181 0
389 405 -441 0
-590 -21 -667 0
-498 -386 8 0
77 -863 -858 0
-111 158 -466 0
-4 876 89 0
-811 -563 -180 0
-127 188 -553 0
171 650 266 0
531 313 358 0
-186 -137 267 0
-309 -478 111 0
-524 448 662 0
-895 -817 -386 0
977 274 764 0
-897 -680 -613 0
539 215 725 0
-557 628 778 0
-237 -306 -785 0
-445 806 800 0
-263 -502 62 0
7 397 -240 0
-997 961 -833 0
448 -176 -710 0
763 600 -386 0
492 542 651 0
153 -750 -656 0
336 -353 90 0
685 -16 512 0
344 -986 -552 0
833 297 151 0
-832 -656 190 0
-957 -607 -158 0
506 748 371 0
-332 620 -638 0
-535 103 -399 0
839 887 161 0
-812 -827 578 0
808 -41 779 0
723 -624 33 0
472 195 889 0
-498 950 -299 0
-49 -587 -9 0
-490 -68 766 0
-624 178 355 0
448 -809 737 0
695 -214 578 0
691 -742 -763 0
213 584 340 0
-70 441 287 0
-439 54 948 0
155 -328 -394 0
-390 -141 798 0
869 977 -647 0
58 968 320 0
-709 -744 -390 0
-709 159 558 0
896 -787 917 0
-341 451 -556 0
-803 -973 -675 0
711 474 769 0
652 -617 -413 0
213 265 -472 0
-277 -360 -762 0
-749 -704 -730 0
214 268 513 0
-61 849 23 0
100 -325 -180 0
873 612 -721 0
748 964 -653 0
461 275 -150 0
438 -903 641 0
539 -942 809 0
405 -300 351 0
-709 346 36 0
812 103 -833 0
-633 -862 -856 0
-589 -362 185 0
-242 -47 -140 0
604 695 -620 0
181 701 193 0
217 -375 767 0
-973 186 341 0
411 -820 -74 0
375 -791 -762 0
-197 509 -287 0
-251 663 95 0
996 360 706 0
-744 172 177 0
488 -43 384 0
146 918 6 0
-515 996 -608 0
-327 456 475 0
370 795 -17 0
-899 832 -475 0
78 -590 -760 0
-913 450 -993 0
863 -218 192 0
779 632 466 0
792 -648 630 0
766 -454 -408 0
-440 536 -760 0
-262 -820 614 0
-438 -435 -619 0
374 870 825 0
211 -70 196 0
-168 -471 -169 0
-988 458 417 0
132 -993 -970 0
908 -995 -453 0
648 596 -967 0
-221 234 -686 0
-487 439 -516 0
63 -631 -407 0
-752 -883 491 0
351 56 637 0
773 -667 583 0
613 -828 824 0
765 -751 596 0
-598 -280 -469 0
467 -501 92 0
-632 -196 -252 0
535 -50 658 0
-400 219 612 0
295 63 -359 0
-842 557 -187 0
-576 362 647 0
874 513 -56 0
-983 -319 -138 0
327 -848 188 0
-834 516 335 0
541 -452 575 0
649 50 -89 0
847 -994 -84 0
-268 -66 -39 0
-809 724 -37 0
672 -501 225 0
364 -366 -95 0
939 -272 -410 0
-116 311 -751 0
473 62 -579 0
-452 715 947 0
395 163 567 0
-393 -991 -660 0
579 -455 781 0
-516 363 66 0
461 -517 -799 0
575 578 -908 0
-983 -15 -558 0
922 -878 353 0
-500 921 736 0
-289 785 -672 0
-686 -790 765 0
529 -661 175 0
-872 326 -130 0
-539 -817 -776 0
259 -236 -956 0
990 82 -686 0
573 703 891 0
771 624 -644 0
-380 811 107 0
68 848 264 0
794 102 486 0
335 -269 -646 0
640 -698 -951 0
-423 -213 801 0
-61 509 -628 0
800 843 -943 0
-408 -745 -371 0
722 631 750 0
-620 952 557 0
-730 -589 542 0
-227 -372 893 0
-850 -911 -236 0
449 198 796 0
-704 634 -28 0
126 169 -738 0
614 -227 693 0
551 -765 96 0
611 -684 -104 0
750 -267 -489 0
-225 -723 786 0
-219 521 360 0
882 167 581 0
-125 -709 608 0
827 285 -406 0
255 660 325 0
-249 563 917 0
72 728 -580 0
233 151 -189 0
-62 -248 -350 0
158 -922 -282 0
-215 -259 460 0
912 -675 147 0
-177 561 -951 0
935 518 -731 0
-771 681 -815 0
923 893 323 0
-867 -872 430 0
895 70 595 0
640 -571 -954 0
-985 706 507 0
-198 61 972 0
-532 944 -213 0
-10 596 -974 0
836 -618 401 0
341 498 -398 0
-185 -523 -383 0
-597 -228 -616 0
134 -200 934 0
618 -878 -440 0
-280 -884 -23 0
893 465 755 0
-513 -684 461 0
-642 673 581 0
-289 -660 -830 0
-330 191 253 0
-407 981 243 0
831 -478 652 0
-805 -32 611 0
100 -52 -890 0
901 -824 274 0
155 -142 288 0
677 283 -107 0
-975 -539 -814 0
259 -155 779 0
-162 800 476 0
290 281 -35 0
-561 -313 460 0
-499 -128 80 0
907 -741 530 0
276 844 805 0
535 362 607 0
212 841 -310 0
940 -714 -473 0
5 639 682 0
-955 -134 528 0
738 71 -548 0
784 -602 -134 0
598 -298 -871 0
-375 -325 649 0
719 -460 851 0
-453 -487 -112 0
358 -746 530 0
-809 196 -149 0
602 -272 -899 0
869 -51 -906 0
593 286 -79 0
497 555 -590 0
587 -858 682 0
-633 168 644 0
-678 -968 783 0
-89 84 -10 0
-167 -691 -903 0
-307 -188 729 0
-152 -291 -324 0
-165 -141 983 0
-247 -278 850 0
-633 -702 -182 0
565 382 881 0
537 -252 983 0
599 -986 47 0
-926 -32 427 0
-399 752 197 0
-34 -410 -97 0
879 -22 145 0
-624 -213 -43 0
-316 -121 217 0
-491 -320 -996 0
-907 848 -306 0
441 -781 -151 0
-760 -635 11 0
-215 -586 -525 0
273 -442 984 0
683 114 -792 0
796 442 346 0
-347 327 -484 0
841 -976 -376 0
478 84 -548 0
-584 -393 764 0
86 761 441 0
-15 -317 -381 0
-445 834 778 0
451 294 101 0
784 -305 251 0
-162 895 623 0
380 -959 -81 0
636 -910 472 0
-31 -555 183 0
-142 907 -230 0
667 684 259 0
-535 -419 -634 0
-257 -914 -531 0
-127 -646 -678 0
-958 787 -695 0
-341 7 -309 0
993 -79 871 0
-324 146 -961 0
-840 -413 188 0
805 -873 -62 0
264 -349 56 0
-469 -539 611 0
163 -884 844 0
190 948 -181 0
-245 602 -639 0
262 -970 1000 0
-132 867 -143 0
745 584 -671 0
-929 -773 -619 0
918 788 -18 0
332 -77 -841 0
-902 714 -690 0
277 97 -715 0
-293 -118 152 0
-161 257 814 0
196 -808 -388 0
192 -712 981 0
-733 88 -558 0
-607 -232 360 0
-404 901 258 0
758 -189 -544 0
-171 48 20 0
-132 -912 342 0
-115 -373 381 0
337 -947 993 0
88 548 -821 0
-268 -637 -953 0
-433 868 213 0
509 834 4 0
69 -490 629 0
-781 19 611 0
-388 -702 -425 0
-194 847 760 0
-847 606 737 0
336 511 441 0
213 900 -135 0
795 -442 164 0
-805 5 664 0
714 800 -528 0
671 -852 709 0
-29 -269 730 0
224 -608 -642 0
-803 388 478 0
913 117 707 0
-815 -686 -600 0
-664 -335 862 0
-362 -972 126 0
-540 -185 204 0
-786 -854 607 0
187 151 511 0
327 803 -21 0
-949 -223 595 0
330 -485 -136 0
28 383 -357 0
-577 -176 -110 0
-864 877 -980 0
-289 468 983 0
-439 847 401 0
162 727 553 0
361 161 -512 0
86 -47 524 0
836 403 -912 0
65 -129 -718 0
537 559 -935 0
327 -329 837 0
-181 129 -842 0
-597 566 -643 0
-485 -376 -585 0
41 -484 88 0
374 712 472 0
502 814 -326 0
-993 -916 518 0
965 -346 -872 0
-712 311 -320 0
863 480 -33 0
121 437 -446 0
33 986 -577 0
202 527 778 0
-623 954 400 0
-956 575 147 0
-928 -863 -5 0
-971 -285 -376 0
-965 -534 -411 0
-157 -814 248 0
-194 -715 66 0
-655 872 -856 0
-47 -54 -262 0
-449 -61 -95 0
-844 -793 503 0
-616 189 435 0
12 507 276 0
-992 -892 -331 0
-418 -135 -380 0
79 -509 -525 0
-758 -173 876 0
772 922 712 0
218 850 370 0
407 -306 -947 0
526 384 -1000 0
425 -403 736 0
969 -886 -850 0
339 816 194 0
525 798 -672 0
250 956 -197 0
559 265 -32 0
-592 -412 271 0
868 -964 -783 0
619 682 119 0
291 -324 -141 0
747 114 142 0
303 -934 -807 0
16 -280 -233 0
-608 -992 167 0
709 867 555 0
457 -411 47 0
594 -317 -135 0
-195 96 479 0
-414 -47 -824 0
-750 839 -751 0
-655 -367 589 0
169 -593 -393 0
-34 355 901 0
-224 -17 770 0
210 22 99 0
601 -886 1 0
725 -802 659 0
-852 534 -146 0
763 268 580 0
-51 74 -591 0
102 563 -286 0
311 -479 -752 0
-542 -921 597 0
238 904 834 0
895 73 -844 0
-457 577 320 0
312 316 156 0
-174 -437 -32 0
635 -739 560 0
553 209 642 0
964 -952 -46 0
-72 -190 851 0
883 -214 -819 0
992 -462 -615 0
39 -90 960 0
-707 471 -127 0
724 913 -291 0
972 -870 -839 0
362 -578 908 0
-816 598 -10 0
765 -953 678 0
621 -178 -601 0
408 -973 305 0
69 154 758 0
331 -994 -717 0
-833 137 -652 0
44 -824 96 0
-833 205 -892 0
148 -209 -493 0
987 752 178 0
-629 499 -805 0
-890 -440 641 0
506 281 286 0
-354 -148 380 0
188 210 -968 0
-766 -136 -161 0
-599 -280 146 0
-496 -751 -129 0
-622 -871 234 0
-13 993 -197 0
380 264 -553 0
-896 -788 502 0
-275 463 -363 0
-136 -946 559 0
969 145 790 0
989 -64 -507 0
330 -147 -973 0
441 -932 -951 0
320 -968 -197 0
81 409 -899 0
417 -723 -748 0
-738 -437 493 0
858 -386 937 0
895 -811 396 0
76 -871 -65 0
543 -141 724 0
544 -175 -163 0
151 147 709 0
-675 -782 -123 0
-858 -718 -594 0
380 901 5 0
-916 -847 320 0
718 347 -336 0
550 683 -37 0
245 463 692 0
-613 -690 712 0
187 -438 -617 0
-649 -495 713 0
835 637 -311 0
-388 523 6 0
885 -555 897 0
-235 3 -188 0
424 -765 -797 0
337 -96 529 0
959 37 49 0
-532 -315 -658 0
-549 605 348 0
-468 204 -271 0
674 921 578 0
146 -615 201 0
992 410 -786 0
-642 700 313 0
479 -917 794 0
549 937 188 0
607 -806 -636 0
-841 860 -176 0
511 173 -688 0
115 524 839 0
-486 64 -845 0
-517 930 478 0
-720 -681 -217 0
909 727 -314 0
-975 -834 -971 0
-321 -171 -25 0
504 326 74 0
-795 -800 357 0
-939 560 -324 0
-524 125 -285 0
809 439 -800 0
-115 787 596 0
-788 -991 822 0
-196 451 992 0
453 -161 -474 0
786 -23 -440 0
-653 683 -433 0
-667 -250 -400 0
-93 99 112 0
-288 636 -822 0
547 482 -514 0
166 -921 -207 0
933 270 591 0
-457 -654 -226 0
263 -774 362 0
-289 -882 -109 0
-51 150 529 0
-571 692 -141 0
97 858 -385 0
-655 658 -706 0
-469 -902 292 0
653 872 -324 0
-273 579 -618 0
-945 810 336 0
-797 -404 558 0
-402 -209 967 0
501 514 15 0
-919 514 970 0
-18 309 639 0
458 -92 540 0
-414 -711 2 0
-307 154 -888 0
-518 -743 -378 0
-175 -59 -751 0
-289 -36 441 0
-91 842 -622 0
405 96 -382 0
54 207 826 0
-51 156 205 0
994 -173 833 0
-783 41 -560 0
735 138 -450 0
412 38 977 0
-964 -340 -813 0
-583 786 -439 0
281 -353 44 0
-669 712 -391 0
983 851 -189 0
-812 -669 -808 0
58 864 -848 0
-215 325 -916 0
807 -604 955 0
429 -746 909 0
571 946 106 0
-868 -445 -42 0
-847 -501 -260 0
-217 -537 -364 0
231 458 508 0
333 960 -920 0
-544 -246 616 0
378 -828 555 0
629 202 634 0
-429 104 605 0
-975 424 -430 0
562 101 500 0
91 798 218 0
139 836 210 0
785 734 262 0
-654 -297 325 0
-246 -35 682 0
-545 -997 403 0
-628 534 953 0
-763 670 943 0
-295 -668 -976 0
573 430 896 0
406 -570 385 0
-742 129 -845 0
843 226 -266 0
-462 598 -55 0
48 172 938 0
717 -513 -394 0
-161 18 397 0
961 -290 35 0
627 244 787 0
-322 357 517 0
-429 -729 67 0
641 -901 1 0
-573 -106 915 0
-147 -97 808 0
653 -950 276 0
-377 242 -566 0
41 106 -300 0
928 407 -804 0
226 689 157 0
-664 -192 -499 0
-341 -898 -33 0
-46 -826 -293 0
801 -61 629 0
884 258 -685 0
156 901 414 0
958 142 822 0
-839 -869 850 0
-536 -148 -349 0
579 402 -613 0
560 -237 196 0
188 -756 -710 0
714 759 -127 0
-342 761 -742 0
-46 -670 -481 0
-31 993 433 0
-383 679 836 0
-972 642 993 0
580 830 784 0
41 928 -50 0
-458 -949 -692 0
-760 -887 -543 0
329 -98 444 0
-437 -768 -377 0
-548 573 -863 0
-710 566 923 0
224 -888 -742 0
-265 -676 154 0
884 137 -901 0
305 970 448 0
-826 -549 -101 0
519 22 -241 0
-709 269 -63 0
295 -57 -178 0
462 248 -839 0
505 729 -420 0
-354 157 -351 0
-677 -521 -989 0
-188 -395 193 0
932 -320 -532 0
-923 783 -576 0
757 369 282 0
149 -490 110 0
-252 -160 727 0
-609 853 393 0
686 -978 329 0
-915 -250 -267 0
-18 435 840 0
-740 320 -885 0
481 -87 452 0
222 603 -727 0
-318 -973 -464 0
984 -526 566 0
809 189 -484 0
-269 332 912 0
-532 127 842 0
-436 -58 -484 0
-58 147 -410 0
991 -964 387 0
934 -879 503 0
878 -504 -911 0
4 661 747 0
84 -737 -627 0
-536 169 -523 0
623 100 19 0
-7 31 365 0
-75 -540 -340 0
-119 -381 -981 0
809 487 406 0
668 521 -586 0
534 -315 -542 0
-150 88 -958 0
-389 572 -745 0
-778 625 -414 0
-268 -830 -385 0
987 975 -756 0
-136 -452 670 0
-171 -856 -612 0
586 -920 -50 0
789 435 -923 0
113 -657 -359 0
-15 -818 -905 0
263 -726 -701 0
185 107 -641 0
689 -764 218 0
-809 185 352 0
78 -206 -121 0
565 890 -165 0
359 151 828 0
394 -885 809 0
-495 -646 -961 0
153 771 670 0
-671 374 215 0
302 -118 -881 0
972 -697 25 0
601 985 -366 0
818 219 447 0
-67 557 -738 0
912 81 -97 0
-989 853 431 0
993 -807 -437 0
405 630 495 0
-301 -2 660 0
-574 -540 -780 0
-127 -778 -383 0
285 -582 449 0
472 313 548 0
85 -503 512 0
-174 699 160 0
-601 8 -890 0
959 -710 -913 0
-790 -361 677 0
908 -788 321 0
-205 678 740 0
-419 -46 302 0
-487 627 -478 0
-297 195 438 0
-142 -165 44 0
848 -783 312 0
657 464 11 0
867 -771 246 0
-621 -733 42 0
-887 364 -65 0
-432 -847 -621 0
-842 188 -526 0
54 514 -953 0
135 896 946 0
-341 -68 678 0
556 603 240 0
878 897 -158 0
720 724 708 0
524 422 -22 0
-536 -902 497 0
987 714 -309 0
698 -356 -193 0
-447 686 -404 0
169 627 -848 0
363 458 644 0
-149 -945 295 0
-985 693 239 0
-18 71 -326 0
-254 -285 -345 0
719 -821 -969 0
-411 -661 -233 0
762 896 797 0
868 476 -375 0
-515 -400 617 0
-918 -719 -786 0
-923 652 -989 0
-821 776 -178 0
818 327 -622 0
642 -576 394 0
425 54 -836 0
862 277 -557 0
-231 -933 -451 0
-649 -334 688 0
-235 -635 307 0
-105 -226 -72 0
-16 -100 160 0
-867 -6 359 0
-893 420 814 0
931 -702 -552 0
-121 490 371 0
-391 545 -948 0
753 858 465 0
559 79 516 0
-403 864 628 0
-623 469 -875 0
708 -997 -341 0
-905 112 591 0
-723 -271 -361 0
-935 -747 858 0
27 -594 768 0
676 27 -919 0
383 245 -656 0
-414 516 -759 0
-350 -115 982 0
-231 666 68 0
-602 -18 -909 0
-347 -782 998 0
-304 10 431 0
-935 388 846 0
373 724 -687 0
-231 486 -511 0
514 836 -609 0
629 60 130 0
-295 -836 -221 0
73 454 -494 0
-205 -494 -116 0
726 -463 -122 0
132 844 913 0
-154 929 56 0
-629 131 194 0
131 -600 -564 0
392 -732 -964 0
-500 506 -755 0
-259 -103 841 0
908 626 -57 0
528 -405 968 0
298 -355 -841 0
-764 374 631 0
582 -168 312 0
472 -553 -114 0
-967 -243 -965 0
-257 -632 334 0
-997 741 -441 0
68 127 -719 0
-965 -114 130 0
-450 -615 650 0
483 -88 44 0
-810 -423 81 0
-423 -32 449 0
-600 -471 557 0
-535 -12 777 0
229 586 -158 0
917 842 -395 0
247 799 -733 0
-241 805 -466 0
83 -703 176 0
405 86 657 0
729 -465 -130 0
357 -410 -619 0
755 691 -159 0
391 723 -778 0
-884 479 -589 0
263 -963 600 0
-613 -778 -103 0
-603 -279 988 0
-864 49 -802 0
-501 643 647 0
-338 -717 -182 0
-932 -156 799 0
748 908 -14 0
-507 751 -4 0
846 -580 78 0
297 592 185 0
873 561 477 0
541 -285 -41 0
-542 -870 960 0
626 780 258 0
-414 362 388 0
-829 -905 17 0
136 -861 304 0
-549 -375 -607 0
-608 -493 110 0
-381 977 643 0
-655 14 389 0
465 441 616 0
-618 -557 -348 0
90 -744 -758 0
-890 407 -88 0
-228 276 -441 0
-770 -699 622 0
817 403 608 0
-972 -292 479 0
-765 282 -304 0
331 -706 927 0
268 261 836 0
496 780 169 0
392 317 656 0
756 -289 -938 0
-393 65 -353 0
-102 616 -378 0
235 -431 -833 0
-842 715 -291 0
320 804 -780 0
-528 -827 -333 0
332 392 431 0
-122 -391 -130 0
337 -24 782 0
-266 656 -993 0
-677 426 522 0
-560 154 -93 0
379 925 -246 0
-60 -449 195 0
790 148 58 0
-163 947 -372 0
-351 -929 -852 0
829 507 -167 0
162 490 -806 0
135 -830 -463 0
-221 466 202 0
970 344 -41 0
612 -996 -588 0
29 -72 -423 0
614 -503 435 0
-221 250 491 0
-495 -572 833 0
-154 562 -429 0
660 501 18 0
-777 631 424 0
-854 132 -212 0
317 -972 911 0
679 -19 478 0
73 695 -79 0
862 -823 467 0
838 472 -668 0
-866 408 427 0
-314 340 958 0
-227 -761 -162 0
-771 504 -440 0
-983 569 -631 0
32 200 -666 0
71 -107 470 0
-985 -141 209 0
-76 390 111 0
390 -440 45 0
47 323 -1 0
-809 -113 -611 0
530 -349 31 0
-129 991 -566 0
-955 838 -307 0
-710 327 539 0
-408 -641 174 0
527 -195 243 0
414 -199 751 0
154 893 912 0
-231 -848 588 0
-141 -246 -263 0
-606 462 793 0
558 667 706 0
-415 632 -34 0
-774 -212 -918 0
36 -319 595 0
-912 -917 410 0
668 848 -52 0
484 627 -197 0
433 769 -811 0
216 298 205 0
-598 570 325 0
-793 75 241 0
-926 845 922 0
-118 126 190 0
-812 -144 649 0
702 258 -579 0
-269 -791 -473 0
63 -867 -827 0
-947 364 890 0
-887 -599 223 0
-767 -223 698 0
62 -106 989 0
-817 912 -483 0
965 721 -532 0
-547 207 823 0
-132 830 -26 0
-113 463 342 0
988 -623 725 0
838 886 731 0
882 69 428 0
748 -689 322 0
-829 151 393 0
213 -774 -226 0
-216 541 829 0
941 841 706 0
333 -398 -399 0
-242 -748 574 0
614 -468 70 0
-663 564 24 0
-377 14 -183 0
35 -370 -49 0
156 -286 827 0
538 -707 -644 0
708 -261 838 0
170 -555 575 0
377 90 334 0
-164 -200 714 0
930 604 139 0
-180 832 -429 0
19 661 438 0
-958 949 530 0
-869 252 -975 0
273 -72 -707 0
111 -338 118 0
-349 -872 910 0
-648 -770 -345 0
-890 390 610 0
987 -771 866 0
-751 -388 689 0
-294 850 106 0
721 -636 -785 0
441 -996 -299 0
675 461 676 0
200 -545 74 0
-566 -731 596 0
48 753 -930 0
625 -691 -501 0
-147 165 411 0
-229 -325 500 0
74 281 566 0
161 -672 -40 0
472 -498 939 0
-630 -135 19 0
-236 -713 142 0
-727 269 -308 0
319 -141 83 0
-891 -518 515 0
-329 296 -466 0
426 144 -914 0
-222 -564 -482 0
-55 -415 -790 0
-889 180 -189 0
593 654 -244 0
-452 588 -660 0
-613 -185 -532 0
-190 546 651 0
-764 830 749 0
885 704 512 0
-60 984 -519 0
-852 430 416 0
395 -64 -91 0
-673 -384 606 0
995 -523 405 0
540 164 393 0
-29 116 636 0
-327 809 396 0
907 -615 167 0
232 431 -321 0
-587 89 -510 0
411 444 -816 0
-499 -786 66 0
205 737 68 0
576 -409 -442 0
-227 -426 -504 0
-504 -814 361 0
789 893 523 0
-746 110 -837 0
-574 -441 564 0
-169 -176 -910 0
-181 -762 -528 0
-357 622 752 0
346 -659 -574 0
211 829 302 0
56 -650 -543 0
-547 477 508 0
106 305 925 0
-19 662 -217 0
-224 735 -205 0
651 -268 -156 0
737 -220 105 0
142 -725 -15 0
-411 314 343 0
511 -971 11 0
198 32 -634 0
-468 264 321 0
6 -690 970 0
376 -782 -545 0
-789 198 -164 0
19 716 644 0
643 210 278 0
111 -737 -759 0
-479 692 -653 0
-330 351 386 0
304 -155 -713 0
790 52 -321 0
-319 -601 895 0
235 817 -840 0
6 -636 -10 0
-825 586 -370 0
-593 264 -420 0
59 -8 301 0
569 527 313 0
719 -692 418 0
469 338 -177 0
879 882 -328 0
799 -212 494 0
-104 748 -717 0
842 684 151 0
-538 562 3 0
371 -57 260 0
762 -231 -511 0
982 -996 -505 0
-115 -720 -882 0
-594 995 -66 0
208 326 -817 0
720 165 -556 0
-114 748 993 0
-950 903 -506 0
477 -653 -247 0
-883 -145 254 0
971 -509 704 0
-851 -215 883 0
-682 -364 81 0
-570 533 107 0
-594 599 253 0
267 -959 -837 0
901 -579 123 0
-466 330 29 0
-32 -371 236 0
908 614 407 0
-47 164 898 0
-828 -685 -582 0
835 362 167 0
-955 176 -29 0
-780 -196 -912 0
-318 -598 -904 0
943 138 85 0
-960 152 879 0
-357 -347 -911 0
-423 508 493 0
477 429 645 0
-412 739 -3 0
-741 367 -839 0
-644 -213 965 0
-779 679 -555 0
-740 -696 -408 0
-146 -505 883 0
615 433 -296 0
-1000 935 236 0
149 371 -707 0
341 -878 340 0
-325 131 747 0
-706 -509 185 0
323 -347 -774 0
611 105 258 0
297 -226 928 0
559 -85 -129 0
-289 -791 -354 0
492 -140 689 0
-395 564 917 0
-285 782 -542 0
-517 -780 957 0
339 -16 -298 0
434 119 -663 0
-246 -363 -610 0
407 -936 802 0
149 -128 -551 0
9 -991 121 0
453 565 -677 0
-350 497 787 0
796 216 689 0
-809 -2 490 0
-625 527 991 0
-989 643 -433 0
310 767 855 0
-629 614 -506 0
782 -300 -470 0
-456 -292 284 0
-476 164 -357 0
-668 -627 636 0
971 427 -222 0
934 -401 803 0
552 162 78 0
-129 951 341 0
855 -573 -64 0
-346 -809 575 0
934 -215 -53 0
481 -3 695 0
-154 378 -778 0
-640 481 -553 0
-993 -650 -186 0
265 -598 -211 0
12 548 299 0
436 -930 193 0
81 -762 241 0
653 -598 -430 0
958 854 885 0
867 -486 334 0
405 904 -865 0
431 -842 -621 0
-181 -280 584 0
865 -575 -334 0
-697 335 906 0
-854 223 886 0
-493 917 -386 0
313 -740 345 0
507 -825 422 0
-683 633 -654 0
509 -60 -457 0
330 -38 872 0
-765 372 643 0
916 -444 -667 0
482 -839 -919 0
810 -365 -475 0
-889 55 -962 0
220 42 -979 0
-137 452 757 0
-753 357 -403 0
674 845 -33 0
531 613 -104 0
-868 -761 -291 0
-866 750 -576 0
131 544 66 0
-22 -626 -258 0
997 614 37 0
-611 371 -630 0
-414 456 -173 0
-705 626 -621 0
-394 -346 -2 0
186 -634 -198 0
-772 764 -215 0
-114 183 254 0
734 -941 -457 0
8 -141 -171 0
-139 290 -704 0
-35 -678 657 0
-786 28 560 0
415 -997 827 0
1000 899 562 0
786 770 -335 0
413 133 886 0
-582 -880 -17 0
102 403 -517 0
-797 -911 -652 0
529 -282 430 0
372 385 774 0
922 -45 620 0
-640 54 -92 0
109 944 606 0
-387 325 25 0
-476 187 -905 0
825 -650 800 0
-832 -402 480 0
-182 371 658 0
-552 -971 395 0
912 359 -699 0
-431 -642 -283 0
-118 -775 320 0
-670 -20 -395 0
435 -779 -98 0
805 709 -278 0
-217 -292 -403 0
593 371 -812 0
-83 -808 46 0
646 -333 771 0
933 699 352 0
-181 502 793 0
642 -463 -379 0
400 -989 577 0
958 -1 414 0
514 347 943 0
187 -319 -999 0
96 29 -891 0
-902 -269 -392 0
158 965 -233 0
357 255 659 0
-803 -395 230 0
549 114 -210 0
-189 239 -699 0
-868 592 207 0
977 -774 692 0
-380 394 752 0
-641 389 -536 0
275 419 365 0
-960 -421 571 0
291 -364 -306 0
830 -681 -856 0
570 27 -7 0
622 -941 -859 0
760 190 -319 0
-151 745 901 0
-147 777 580 0
811 -991 690 0
626 -456 852 0
985 30 -387 0
-598 840 -859 0
-407 -212 -394 0
901 -466 -722 0
256 -163 -145 0
-38 417 -871 0
-406 275 -63 0
23 -490 466 0
555 -966 594 0
888 -649 33 0
-627 -160 237 0
-557 -841 282 0
342 154 322 0
748 708 148 0
684 815 839 0
840 134 247 0
-646 -356 156 0
-530 -685 587 0
217 474 891 0
162 -53 913 0
-338 -590 -500 0
-128 789 808 0
247 -648 809 0
-731 468 948 0
352 643 4 0
181 728 -99 0
495 -233 187 0
941 818 -762 0
542 628 190 0
-225 -751 993 0
-979 863 -996 0
-88 -311 288 0
469 205 -876 0
395 469 909 0
800 -268 -752 0
674 640 -269 0
539 -947 437 0
26 -794 984 0
-101 -829 403 0
-646 463 242 0
-221 -827 -487 0
-580 -461 119 0
-780 720 -494 0
-623 -249 -314 0
-197 10 623 0
-356 775 -221 0
-347 -705 428 0
732 753 825 0
977 671 673 0
773 -578 -11 0
874 -968 -318 0
359 815 -120 0
-356 38 -686 0
-690 -686 869 0
933 -884 -838 0
868 378 -242 0
-920 396 549 0
668 -872 720 0
259 -918 338 0
-292 513 -155 0
-794 -864 -396 0
200 -666 -307 0
-19 -505 917 0
652 760 1 0
389 108 711 0
712 -806 -120 0
975 -430 -482 0
993 -380 -238 0
708 981 -945 0
-331 -542 -360 0
102 -749 -283 0
77 -624 -403 0
-121 801 -470 0
-305 -726 189 0
-489 -556 -633 0
112 -980 994 0
776 -545 -370 0
749 -844 909 0
67 -48 326 0
16 -341 -830 0
886 422 216 0
417 453 -203 0
-396 75 328 0
-236 -583 -609 0
793 -624 245 0
514 454 -359 0
-255 239 -318 0
889 141 399 0
466 869 315 0
-684 353 -150 0
-5 343 -554 0
383 -758 -470 0
617 -412 -246 0
339 725 -963 0
451 364 23 0
-640 -237 -478 0
-75 831 -513 0
-894 -638 230 0
-517 -872 -249 0
429 911 -760 0
-696 211 -415 0
-153 -768 -358 0
-869 -453 471 0
501 -273 -710 0
-384 -880 -124 0
3 147 -305 0
481 -115 49 0
-686 -141 765 0
666 232 702 0
813 -831 821 0
531 -75 808 0
587 66 -902 0
-289 36 -651 0
-862 832 -154 0
151 518 -588 0
591 531 675 0
272 340 982 0
-2 -472 376 0
51 -537 989 0
335 30 -712 0
-700 -678 -500 0
914 401 -526 0
-510 787 -271 0
-446 55 534 0
-225 -413 342 0
-233 835 -553 0
885 -262 979 0
887 739 610 0
983 -931 561 0
320 -28 236 0
520 862 480 0
-720 -356 364 0
-42 -286 -263 0
-645 905 -145 0
-254 -460 -588 0
-157 7 -425 0
256 -346 586 0
12 -763 492 0
-768 915 77 0
-790 -680 556 0
-624 542 211 0
-337 989 -401 0
278 96 150 0
-769 998 -666 0
-116 -472 -688 0
-995 645 -408 0
118 493 867 0
-979 -944 -700 0
-90 -935 854 0
550 -2 536 0
-379 346 193 0
727 -713 790 0
229 407 -649 0
610 233 -523 0
-600 -303 424 0
656 -441 377 0
-187 834 -137 0
-493 -212 -936 0
64 -684 139 0
-951 -125 -640 0
626 -728 413 0
102 798 721 0
-166 345 598 0
-51 294 -357 0
-333 405 976 0
-987 686 540 0
-639 845 -62 0
-536 203 414 0
52 -883 2 0
-673 338 252 0
-760 -380 503 0
338 344 -282 0
338 692 158 0
742 -100 938 0
792 551 106 0
-908 -328 570 0
653 -868 310 0
11 -161 82 0
-473 -894 -119 0
267 343 836 0
11 623 -696 0
-54 476 650 0
661 451 31 0
681 850 851 0
-821 325 -979 0
-176 -312 603 0
-579 104 -154 0
379 554 -915 0
466 -361 -35 0
-233 -845 -929 0
760 385 703 0
968 -135 573 0
146 810 735 0
761 901 148 0
98 -330 -817 0
-1 473 911 0
43 757 -780 0
-604 -777 -686 0
429 559 81 0
672 733 7 0
652 607 374 0
797 -642 -503 0
-884 741 130 0
-669 735 122 0
439 400 -694 0
555 24 -66 0
-798 -768 555 0
50 404 -431 0
861 -102 242 0
-897 -427 672 0
298 671 996 0
997 463 -791 0
-954 697 -972 0
555 801 -662 0
739 -471 139 0
-686 306 -705 0
-539 742 212 0
-340 -824 458 0
-68 -305 351 0
691 239 -304 0
-664 124 -9 0
-856 -995 -831 0
220 902 641 0
-56 -139 -681 0
281 -809 -855 0
273 -70 789 0
-908 -579 463 0
420 496 973 0
459 670 -717 0
-136 965 525 0
984 -219 -682 0
-516 -214 -992 0
-783 848 -117 0
150 667 -582 0
-79 -175 -212 0
-971 364 -30 0
468 -202 -549 0
721 -600 -255 0
-291 272 -564 0
-327 681 -22 0
624 820 676 0
-828 -827 102 0
-129 -439 587 0
-166 -841 -290 0
-349 581 488 0
68 -888 289 0
851 -403 -104 0
-442 905 474 0
-72 586 -178 0
-937 735 945 0
-779 875 -636 0
-235 -922 -434 0
336 331 208 0
-944 818 107 0
962 -236 906 0
204 702 282 0
607 39 856 0
119 675 796 0
145 166 -85 0
-281 -801 -571 0
-731 993 146 0
-156 71 -614 0
531 -938 -546 0
-129 -745 831 0
-973 -139 200 0
390 693 52 0
-42 983 -65 0
-419 -92 904 0
882 -754 -342 0
537 471 -46 0
-197 191 933 0
872 687 162 0
-415 -749 429 0
-730 420 785 0
-569 -482 -750 0
-755 -789 -737 0
653 307 745 0
-766 -702 364 0
-670 -31 469 0
-543 -854 984 0
-199 736 632 0
428 793 -803 0
-512 423 344 0
-96 436 -138 0
845 918 367 0
-414 -529 421 0
-845 359 -102 0
802 334 443 0
-341 -756 -279 0
312 418 224 0
-625 698 -28 0
293 592 -491 0
277 -619 434 0
531 -501 74 0
-722 616 -40 0
572 240 617 0
-482 -313 91 0
593 -26 602 0
-803 -591 -159 0
702 -114 -351 0
492 -213 -766 0
764 -505 198 0
803 -7 311 0
46 189 391 0
-919 -182 205 0
493 -842 508 0
-15 328 -797 0
-939 826 749 0
-347 846 36 0
-528 664 297 0
963 478 -187 0
427 -801 -802 0
