c Large 3-SAT formula for GPU testing
c 1000 variables, 6000 clauses (ratio: 6.0)
p cnf 1000 6000
294 -966 -508 0
269 133 -117 0
836 273 -593 0
-27 -100 430 0
-89 -905 427 0
-862 31 842 0
-665 459 -652 0
409 400 -891 0
810 -927 -780 0
-73 991 362 0
-449 251 -348 0
-603 -347 -89 0
-413 934 405 0
-287 -895 -44 0
881 666 -919 0
775 779 622 0
327 635 98 0
399 -248 718 0
-843 -63 -475 0
860 760 535 0
-138 -725 716 0
308 -861 288 0
-147 691 786 0
177 317 -145 0
355 771 -186 0
-414 732 -273 0
-822 296 652 0
207 603 -367 0
198 -813 -711 0
-591 384 395 0
421 169 -833 0
-256 670 -864 0
-523 -820 465 0
802 -928 350 0
-359 531 622 0
-506 -896 -60 0
-308 -211 769 0
683 -126 601 0
-627 815 -71 0
-345 -218 -266 0
-701 526 -455 0
531 367 438 0
-158 618 -567 0
-175 747 887 0
-868 120 990 0
651 -647 -341 0
288 680 -518 0
834 668 163 0
956 512 -768 0
944 209 -18 0
678 -638 -874 0
396 810 -558 0
-811 -873 266 0
751 -957 -497 0
875 -375 -472 0
919 49 -222 0
-214 -289 -644 0
-817 552 -919 0
-68 -731 -858 0
944 -412 -853 0
538 -746 909 0
471 393 -916 0
-321 609 791 0
125 128 477 0
72 887 -560 0
193 -724 -823 0
351 -539 -698 0
-396 -466 -327 0
-733 -647 -456 0
202 -88 40 0
-108 481 271 0
-470 -635 -664 0
-658 43 414 0
916 -264 349 0
-79 -968 620 0
174 -775 -968 0
320 -767 328 0
373 -310 -299 0
929 -105 277 0
-381 194 -503 0
277 -850 -230 0
470 966 -708 0
387 511 717 0
984 -55 887 0
-930 49 61 0
-933 -521 131 0
534 65 -255 0
956 219 -135 0
368 574 247 0
-376 611 385 0
858 495 -439 0
-731 -443 975 0
-773 -632 -812 0
-634 666 760 0
-437 -276 -119 0
-601 38 738 0
444 -966 -736 0
473 161 -765 0
-632 42 -23 0
237 496 479 0
380 832 310 0
-343 -271 122 0
722 -434 -895 0
65 -233 925 0
566 638 -562 0
500 -520 919 0
-760 -467 -600 0
814 -276 973 0
-995 726 507 0
496 72 665 0
654 -536 157 0
851 405 612 0
369 588 -208 0
117 -772 729 0
-998 -639 -171 0
-367 -789 597 0
67 190 -414 0
890 -350 582 0
397 -373 -514 0
437 419 397 0
-832 -687 -944 0
141 701 -622 0
236 877 -136 0
832 -46 446 0
-691 717 -339 0
-174 -78 186 0
621 -395 689 0
-573 -786 -436 0
-584 -563 -838 0
185 -46 -902 0
579 474 956 0
443 879 -55 0
-473 -349 589 0
816 -798 217 0
-972 466 -640 0
-931 -240 -167 0
-248 721 -577 0
-334 -686 598 0
646 240 828 0
-613 824 -251 0
-329 17 258 0
-439 433 762 0
-63 909 505 0
-548 230 -803 0
647 105 -662 0
32 -211 829 0
-184 815 -883 0
-880 -684 -162 0
983 -125 -973 0
-890 -667 706 0
-857 -555 -549 0
642 310 144 0
-29 607 344 0
561 978 -508 0
-404 -735 -76 0
944 -936 986 0
-447 -529 152 0
-348 703 77 0
50 463 -80 0
658 -465 366 0
523 170 229 0
529 847 607 0
181 -699 15 0
-199 90 -109 0
372 -121 628 0
-752 -659 -56 0
28 -308 -350 0
-896 -45 -492 0
449 -194 955 0
227 445 515 0
275 309 -227 0
-591 -543 829 0
521 254 -159 0
431 800 -859 0
811 683 -245 0
979 -927 -808 0
-420 -405 -53 0
-43 -357 -482 0
-326 -209 -928 0
-712 590 -83 0
222 993 665 0
-422 -885 499 0
-598 477 -313 0
899 -594 431 0
568 214 660 0
-457 -317 92 0
879 861 -811 0
138 999 278 0
128 -632 825 0
-826 763 -878 0
493 -212 66 0
-9 -262 -278 0
283 -805 -535 0
462 -74 545 0
44 782 965 0
-607 -753 -49 0
-562 338 -378 0
953 -74 -303 0
764 176 272 0
-41 548 483 0
975 -109 764 0
-448 -581 889 0
83 -49 748 0
467 902 175 0
-666 -196 518 0
-718 -629 673 0
15 -98 39 0
-10 542 382 0
-630 537 -19 0
797 600 -704 0
-800 902 -621 0
835 -851 -662 0
965 -879 -255 0
-45 571 870 0
439 -376 672 0
215 751 -392 0
176 988 -274 0
546 -940 -838 0
-700 80 -253 0
948 880 -938 0
978 633 -590 0
673 -460 56 0
456 452 944 0
467 879 585 0
711 -328 764 0
506 295 -680 0
-593 -400 -862 0
945 783 -81 0
768 -63 255 0
-256 -948 -828 0
606 -449 24 0
837 799 132 0
169 -45 598 0
357 -194 -373 0
-493 -834 -210 0
990 -673 374 0
195 573 265 0
-373 -915 151 0
501 98 208 0
-641 -476 -603 0
944 772 379 0
-845 -560 481 0
-389 382 -785 0
743 271 -829 0
707 386 344 0
-120 564 608 0
-253 -319 689 0
341 -719 -491 0
-385 333 171 0
760 -575 97 0
-117 -646 896 0
-587 320 205 0
986 -924 565 0
-324 91 498 0
-676 -374 869 0
-973 -283 376 0
558 508 829 0
449 -496 594 0
610 99 -188 0
29 231 968 0
696 -683 960 0
885 -210 -61 0
-791 837 441 0
-426 -469 -16 0
611 -685 -369 0
-724 -117 -928 0
-583 -362 574 0
-905 -353 -820 0
374 138 895 0
-996 -663 -689 0
-947 -108 385 0
93 951 -273 0
260 -622 385 0
-54 912 -298 0
505 -827 -96 0
949 -32 -62 0
864 13 350 0
-529 724 -245 0
-605 -123 849 0
487 -63 -576 0
203 412 64 0
284 930 -692 0
-687 -937 -335 0
-629 345 -966 0
-887 614 48 0
-821 882 595 0
-388 -169 -119 0
1 271 65 0
-303 627 845 0
391 209 538 0
-592 -472 -444 0
-315 975 -517 0
334 -151 763 0
-690 389 610 0
189 -503 -824 0
-907 -568 692 0
210 -469 101 0
-794 267 27 0
193 -792 -904 0
822 416 -121 0
91 -894 386 0
-386 546 -601 0
-479 -884 -329 0
-471 -133 -789 0
-861 -910 -37 0
-163 104 301 0
581 -163 -43 0
-122 -584 492 0
313 712 -762 0
841 742 351 0
988 -980 79 0
312 359 423 0
-202 -323 -398 0
185 657 -369 0
-863 -49 690 0
986 399 939 0
495 -667 -701 0
556 -942 516 0
196 -396 448 0
549 898 577 0
-958 -984 -433 0
-169 -457 655 0
-858 -151 -308 0
561 -365 617 0
-688 402 235 0
-993 333 339 0
-400 691 174 0
-67 -147 13 0
547 -110 -352 0
408 -2 534 0
118 -45 -579 0
371 215 311 0
718 390 -685 0
844 -37 -29 0
-837 38 296 0
-552 666 922 0
854 -152 -782 0
406 833 497 0
108 -567 -805 0
787 -337 900 0
397 -653 -229 0
604 874 999 0
-309 -337 -204 0
-426 -819 912 0
-142 987 22 0
821 159 248 0
193 -448 498 0
-603 -791 -578 0
-536 449 17 0
-381 -867 -689 0
235 204 -213 0
-200 545 -669 0
25 95 -962 0
674 426 776 0
-415 -450 697 0
-455 36 -723 0
-216 737 -754 0
146 862 -872 0
772 808 627 0
695 759 112 0
582 -557 795 0
-523 119 -641 0
-446 -56 -335 0
967 -58 543 0
92 -485 277 0
865 37 793 0
-213 -855 965 0
160 -963 -399 0
330 -880 -750 0
5 -254 -205 0
535 -200 -260 0
-243 861 319 0
-302 -235 691 0
-730 268 134 0
-689 -380 -160 0
390 623 515 0
137 854 -820 0
716 251 324 0
771 -108 -822 0
876 587 -374 0
-345 -783 814 0
-912 382 897 0
906 912 -289 0
-897 574 49 0
-787 -303 -557 0
367 -648 -388 0
-464 283 -569 0
190 275 -484 0
-542 950 836 0
-180 93 -546 0
787 693 163 0
405 -125 -729 0
114 -971 -191 0
-443 550 -367 0
263 284 -229 0
576 -156 786 0
926 -917 -741 0
807 838 936 0
-487 -441 -833 0
-89 -526 -266 0
470 15 -934 0
-788 -137 770 0
-636 -915 189 0
632 627 -738 0
988 -438 -134 0
850 -490 -379 0
-917 -578 72 0
-37 42 244 0
295 -597 388 0
-624 557 -549 0
-707 -561 791 0
-590 -364 520 0
-690 -364 90 0
-39 -95 273 0
351 -988 632 0
-896 -949 267 0
-832 -363 940 0
388 530 461 0
-299 632 361 0
102 1 797 0
-668 644 599 0
-360 -644 -889 0
954 688 -684 0
-889 505 -945 0
545 669 658 0
252 880 245 0
-500 593 -364 0
718 -28 -954 0
-88 -6 -835 0
-406 890 875 0
91 615 -350 0
200 -857 -384 0
484 89 955 0
-982 -953 986 0
761 932 -988 0
-393 931 -874 0
598 488 -843 0
-448 602 -632 0
379 616 -153 0
774 645 26 0
-186 500 -359 0
-485 -823 -308 0
-532 877 -981 0
-323 212 -483 0
515 258 343 0
-582 141 -907 0
339 92 -505 0
-267 480 -505 0
838 -11 351 0
-556 -803 193 0
42 -349 552 0
871 -715 -400 0
-427 -632 540 0
-43 146 772 0
15 276 988 0
957 -768 -85 0
-338 786 567 0
626 680 -712 0
729 -360 169 0
-10 26 -480 0
-127 505 -800 0
924 -153 -370 0
97 -17 -542 0
-53 148 493 0
-763 -818 -687 0
252 -813 164 0
-994 548 -559 0
-712 -446 -166 0
907 997 -601 0
-409 -570 575 0
-32 -888 935 0
-692 -407 -903 0
-190 -623 844 0
-811 -206 708 0
299 -859 586 0
-752 537 643 0
862 -837 385 0
-407 883 54 0
999 -927 115 0
801 -463 823 0
-728 981 -513 0
-189 558 802 0
-191 -806 -930 0
640 806 -404 0
-143 -677 640 0
768 403 -604 0
246 -326 -49 0
163 -676 28 0
471 -754 -653 0
-490 -225 273 0
913 -505 566 0
-560 -297 -882 0
-110 357 -340 0
-235 40 -229 0
-551 -343 121 0
-702 -508 -245 0
242 188 867 0
-649 -873 262 0
-322 503 935 0
24 -583 -579 0
382 -123 415 0
120 36 61 0
-168 -53 800 0
-210 356 791 0
-111 700 332 0
-290 865 -941 0
-307 -135 -785 0
23 -988 797 0
152 36 103 0
981 -720 -531 0
303 -484 153 0
-676 -404 62 0
207 193 595 0
26 959 -845 0
-378 -363 398 0
213 111 805 0
920 -632 668 0
426 -416 457 0
511 995 7 0
795 956 604 0
56 961 791 0
-33 68 -403 0
316 698 -128 0
-926 -711 725 0
-472 -740 828 0
723 899 -208 0
-259 139 73 0
30 238 -817 0
-816 207 -877 0
-524 642 457 0
-462 782 642 0
-238 -712 -889 0
-519 -889 -270 0
7 -479 232 0
151 735 982 0
801 -296 -535 0
476 535 844 0
827 -990 -60 0
993 -743 80 0
-201 -555 543 0
-967 880 -896 0
341 -745 -977 0
-545 543 -417 0
327 142 -718 0
310 -837 -928 0
906 -515 -560 0
-372 553 -617 0
931 940 343 0
510 -814 -55 0
-410 -808 710 0
-778 664 231 0
-784 772 -147 0
388 789 619 0
4 502 215 0
173 -237 385 0
-249 -554 -930 0
-596 446 -963 0
-848 305 599 0
865 822 -235 0
376 -786 -989 0
-629 -604 110 0
555 -756 -71 0
-428 -187 -903 0
173 477 828 0
373 211 -249 0
605 861 894 0
-574 -607 73 0
-745 959 -683 0
549 281 -702 0
-267 -982 -955 0
-836 794 662 0
-648 -698 -141 0
53 569 -389 0
-402 519 288 0
575 -885 48 0
995 848 -416 0
-120 -684 850 0
674 -315 60 0
924 631 -980 0
-203 -63 46 0
83 721 -373 0
-449 308 743 0
-437 -77 430 0
-851 130 227 0
533 637 642 0
-984 -701 -344 0
-500 -221 6 0
360 565 780 0
949 311 -509 0
443 -119 288 0
-892 -686 -852 0
-703 -944 853 0
-3 288 -792 0
-59 -334 34 0
-809 -583 -313 0
-879 91 -233 0
-467 723 -155 0
-405 465 569 0
504 535 270 0
322 154 -703 0
608 -751 877 0
-359 -451 -654 0
-891 -636 592 0
44 -662 -729 0
-125 764 582 0
452 609 986 0
560 -275 -542 0
-927 -833 -13 0
532 -979 464 0
-22 -761 202 0
-34 42 -864 0
-324 -919 -916 0
-539 -953 900 0
-652 -356 556 0
8 482 -56 0
93 -465 -206 0
-713 363 343 0
-783 399 644 0
-541 495 705 0
-422 -625 32 0
-797 -533 207 0
420 -738 -938 0
169 798 -888 0
-677 400 -71 0
398 -527 -391 0
-987 708 125 0
-860 -4 917 0
456 -346 -500 0
217 -614 433 0
-329 -822 -925 0
-343 -90 311 0
-579 473 -366 0
921 -162 -850 0
94 960 30 0
-4 -670 177 0
-371 849 -532 0
-359 917 643 0
302 -667 92 0
-909 -183 31 0
-23 -162 655 0
863 495 760 0
679 -286 -116 0
-673 457 -950 0
654 374 -163 0
275 -930 678 0
-715 -396 126 0
335 567 410 0
-18 -232 -159 0
992 -278 -240 0
-374 819 450 0
-79 717 -631 0
800 758 270 0
-21 -39 -452 0
-909 -402 990 0
795 -910 734 0
-157 753 -955 0
-337 -524 91 0
221 615 -774 0
133 67 804 0
997 200 332 0
984 699 -2 0
816 -606 505 0
-36 -655 861 0
-952 -335 -487 0
339 404 558 0
15 537 -64 0
541 -330 -137 0
-420 -896 737 0
483 -776 -89 0
-434 104 350 0
-958 998 -655 0
-990 -197 982 0
332 -845 -341 0
574 434 -298 0
631 -574 -546 0
-650 502 -177 0
739 401 65 0
-336 -192 686 0
-143 106 -638 0
863 -685 50 0
-579 59 -568 0
-553 -129 -975 0
-484 184 673 0
112 249 434 0
-338 424 19 0
-66 878 -589 0
702 223 695 0
-193 -352 157 0
-451 -173 -347 0
356 -959 145 0
73 -764 326 0
218 280 -498 0
818 715 200 0
126 434 557 0
-356 -472 764 0
623 565 490 0
-358 -203 -122 0
-568 -215 150 0
9 -333 -911 0
898 626 -510 0
-596 -70 440 0
-997 -618 965 0
-211 -64 -628 0
-968 402 156 0
-261 -748 557 0
241 687 354 0
462 -498 782 0
-947 989 -690 0
-9 928 242 0
-654 501 321 0
432 -229 -396 0
-804 812 -416 0
890 405 -644 0
-238 69 -697 0
153 908 114 0
272 82 -184 0
472 506 144 0
-396 926 215 0
-412 -846 -581 0
602 613 -480 0
-611 -757 328 0
-258 327 -42 0
-112 843 -297 0
-139 932 897 0
-889 849 -477 0
-553 487 721 0
-902 207 -405 0
-247 575 420 0
-105 904 801 0
153 -653 829 0
755 293 777 0
249 -647 -642 0
-466 -622 804 0
-214 -399 -354 0
627 -556 -281 0
470 349 -905 0
721 931 -7 0
-252 421 16 0
-891 -607 86 0
200 -795 59 0
846 -84 -204 0
-464 -939 607 0
685 -979 872 0
51 920 -826 0
-83 -171 258 0
633 -233 -972 0
-605 -914 -619 0
-28 -878 -462 0
949 -511 -812 0
828 977 476 0
800 804 118 0
177 550 989 0
991 884 -203 0
826 -308 186 0
276 -293 779 0
834 -752 -919 0
613 -296 665 0
541 -991 817 0
-794 -364 820 0
-475 614 -670 0
-31 -220 683 0
-525 942 70 0
-906 -541 338 0
610 -792 -97 0
-31 -93 484 0
46 471 -812 0
-340 935 -890 0
261 325 -86 0
296 -404 -795 0
-398 44 724 0
595 881 -318 0
670 116 649 0
47 -151 -297 0
80 -220 966 0
-108 763 524 0
834 -289 -24 0
-451 998 -232 0
-244 -252 566 0
-380 -59 -966 0
-671 -834 -99 0
-975 685 56 0
687 -607 153 0
-337 665 448 0
525 6 602 0
219 260 227 0
596 -78 921 0
-985 -235 493 0
486 729 -550 0
890 770 753 0
831 -59 335 0
-70 -619 -251 0
238 -966 255 0
-144 -667 492 0
629 171 467 0
484 -734 -964 0
907 371 511 0
-427 -445 223 0
-325 -873 -461 0
945 -579 276 0
563 -336 392 0
316 -50 622 0
9 -260 127 0
721 -906 220 0
777 -948 -284 0
-146 16 654 0
-135 770 -590 0
-20 426 -610 0
286 29 -453 0
405 -262 388 0
-566 246 691 0
-246 721 -927 0
79 -630 951 0
18 133 281 0
458 -282 -843 0
840 -385 419 0
939 -614 -169 0
574 754 -515 0
760 -730 824 0
-623 -162 669 0
987 735 -639 0
-708 601 -93 0
292 403 -964 0
-227 496 936 0
-736 -496 528 0
884 -320 873 0
744 191 270 0
-493 380 -662 0
-935 425 -383 0
505 170 571 0
-241 101 -783 0
-937 -349 412 0
-474 458 783 0
345 484 614 0
414 -750 354 0
273 655 994 0
559 -219 808 0
638 -710 -311 0
-357 872 -356 0
-16 921 -86 0
-797 -537 -863 0
621 600 709 0
-697 -163 -342 0
-352 49 136 0
269 -591 -526 0
280 399 313 0
-982 220 -809 0
383 -86 -257 0
-778 923 -494 0
-443 -698 545 0
-276 428 -849 0
530 -55 804 0
-955 -145 973 0
821 748 130 0
55 -668 894 0
-117 -667 -587 0
340 473 -607 0
397 -337 -987 0
929 736 451 0
-464 889 -580 0
-166 -208 747 0
-463 550 -402 0
277 -44 536 0
-730 -247 501 0
-536 980 903 0
960 6 730 0
-768 -45 882 0
-54 -799 132 0
680 -335 -564 0
-579 938 492 0
921 955 -84 0
-813 766 677 0
-215 -921 -17 0
466 299 -153 0
-1000 -541 -690 0
945 -456 -690 0
-494 -960 897 0
144 -128 -304 0
134 -37 -108 0
-246 143 -843 0
719 598 -645 0
-111 -828 654 0
-703 773 57 0
-820 481 835 0
-568 632 -679 0
-757 283 -376 0
-246 968 -197 0
-769 -454 445 0
-926 662 -189 0
473 304 826 0
-136 469 -858 0
299 -642 -528 0
-793 -115 -561 0
471 -839 343 0
826 573 244 0
892 -545 254 0
-451 387 869 0
-551 -53 -847 0
-621 -25 661 0
-130 776 -613 0
516 -980 -814 0
439 757 -45 0
-939 -384 -617 0
322 136 -482 0
-244 122 -941 0
-702 -836 -121 0
-543 832 277 0
-714 -219 961 0
-756 760 152 0
-856 375 498 0
581 -264 -924 0
-619 961 -297 0
522 356 -321 0
-228 806 -325 0
221 -852 -74 0
-233 -794 -101 0
327 68 144 0
332 98 271 0
-167 -674 523 0
-153 969 -142 0
-284 -876 76 0
808 -390 330 0
-506 -500 -583 0
234 -574 925 0
-325 19 127 0
-612 863 30 0
441 -102 -817 0
-464 531 -51 0
-546 864 827 0
351 -213 700 0
-909 137 -608 0
-131 -676 604 0
-656 433 689 0
-337 -727 301 0
326 807 342 0
43 -844 820 0
-88 535 -864 0
503 -677 223 0
-655 622 503 0
920 -404 551 0
68 640 -243 0
-815 -629 260 0
-599 -219 604 0
339 -471 737 0
-451 -852 -618 0
-963 695 90 0
-364 858 716 0
834 -156 -955 0
-913 -230 -388 0
628 295 968 0
-883 -449 -291 0
499 391 -113 0
-736 -319 578 0
729 593 621 0
202 -391 -857 0
759 543 -601 0
727 -920 -12 0
581 469 882 0
306 -757 -742 0
-643 658 564 0
289 -586 -421 0
-581 528 609 0
-542 -887 -793 0
711 -650 -846 0
172 -292 293 0
-118 728 65 0
783 -255 -185 0
205 961 -869 0
907 296 -523 0
-642 -567 6 0
-515 -232 251 0
183 -286 -294 0
-286 276 377 0
202 -975 -242 0
589 890 -440 0
-178 -828 -715 0
-771 -667 277 0
547 -434 90 0
-315 -799 662 0
42 -786 956 0
-706 -374 494 0
304 818 -695 0
349 871 191 0
-666 -375 207 0
-83 -571 940 0
-460 944 -579 0
634 -835 -704 0
475 779 -639 0
-212 -222 -44 0
216 487 171 0
226 -157 100 0
479 -970 613 0
-700 -640 874 0
267 504 794 0
-160 -368 -468 0
-596 431 -301 0
274 230 590 0
35 733 -858 0
596 718 -198 0
159 -806 766 0
160 -659 333 0
-599 342 -54 0
81 553 -273 0
-878 738 266 0
751 366 602 0
885 -952 -664 0
-762 676 346 0
107 231 -219 0
-312 61 -630 0
-954 513 122 0
846 -225 -691 0
-244 463 -278 0
-446 -43 776 0
663 965 152 0
980 101 77 0
788 460 -574 0
-417 -759 54 0
766 117 -963 0
-718 403 -98 0
517 516 -967 0
510 -66 268 0
-183 804 -236 0
-721 -560 898 0
-626 173 -533 0
21 -776 879 0
-321 -520 -266 0
452 133 -417 0
-657 -20 953 0
256 184 -386 0
-186 92 663 0
-452 -46 291 0
374 -945 -505 0
-980 -402 173 0
359 435 677 0
397 -287 6 0
-978 638 -282 0
501 875 -990 0
6 85 63 0
-933 -946 -925 0
270 -660 968 0
-75 -207 338 0
941 -990 396 0
-484 -58 -485 0
370 188 -828 0
-955 734 -210 0
-903 36 -291 0
-307 968 -813 0
509 -439 958 0
-971 83 -587 0
573 299 959 0
-269 -467 -396 0
202 132 -120 0
-866 266 156 0
69 520 -781 0
-820 97 171 0
-933 -369 348 0
491 -695 -734 0
-867 622 85 0
-512 -435 362 0
532 15 -256 0
-133 573 994 0
562 164 -246 0
-179 497 -58 0
-933 -43 514 0
-20 -850 -757 0
97 -323 716 0
249 -583 880 0
-932 119 387 0
-569 223 -609 0
621 -661 -632 0
72 -713 -447 0
-252 565 64 0
702 758 -301 0
53 798 -726 0
993 806 -111 0
619 -658 326 0
-932 -403 299 0
-727 -181 101 0
94 -84 -785 0
-484 285 522 0
723 -8 731 0
-374 810 -610 0
-410 714 -704 0
-845 142 -174 0
-498 625 -591 0
134 -139 37 0
130 -284 785 0
-120 -658 -525 0
-731 815 -337 0
682 427 189 0
84 -628 905 0
-10 -255 426 0
-983 181 458 0
-190 266 -836 0
615 644 209 0
795 -952 -608 0
781 -210 -410 0
10 541 -554 0
-295 293 332 0
443 939 -750 0
-921 259 -337 0
-352 124 -29 0
825 -95 127 0
138 355 471 0
-754 -619 -728 0
-136 196 460 0
565 690 -645 0
260 277 898 0
-128 -829 962 0
919 377 386 0
-407 -171 440 0
472 -58 839 0
-104 -585 939 0
-673 270 659 0
-286 44 -805 0
595 -640 -244 0
792 -586 277 0
-628 -232 -482 0
753 362 916 0
134 483 -745 0
527 244 -129 0
327 821 406 0
988 79 -404 0
685 -701 391 0
-380 -758 -909 0
727 696 -251 0
-298 68 994 0
-483 -921 514 0
-657 795 -742 0
576 -866 610 0
814 414 -687 0
-544 -234 -541 0
625 648 -921 0
-987 284 -372 0
-369 -991 -225 0
570 -468 -635 0
723 60 387 0
-388 687 273 0
462 825 73 0
-494 -378 417 0
-332 -150 -862 0
-964 -659 517 0
116 -861 733 0
337 -451 -474 0
-627 -804 -326 0
422 -522 934 0
141 989 544 0
175 -803 -45 0
108 -600 -432 0
861 410 -821 0
-5 -831 -141 0
42 784 738 0
57 -64 -465 0
56 678 616 0
-310 390 655 0
-101 741 843 0
735 -702 -310 0
-226 -599 -639 0
141 188 763 0
-466 840 -171 0
-661 610 550 0
826 972 986 0
489 -482 -25 0
-28 905 605 0
-244 -684 557 0
-649 808 292 0
-301 -249 144 0
444 321 -406 0
276 -614 -256 0
642 -182 -64 0
252 -629 204 0
851 415 855 0
225 691 539 0
-390 811 366 0
-572 -119 -639 0
-253 -371 -827 0
-394 430 37 0
-809 637 -329 0
177 887 837 0
-965 527 -491 0
-164 -88 -714 0
681 27 609 0
222 457 -860 0
930 -59 -412 0
-224 311 445 0
914 -196 -612 0
-786 502 926 0
719 626 -935 0
-755 838 298 0
796 182 502 0
-514 627 457 0
442 -28 -790 0
-391 -794 -471 0
-754 -449 431 0
-454 791 643 0
191 571 573 0
170 -791 957 0
-771 776 -606 0
975 933 432 0
-462 -748 745 0
-709 -784 -602 0
62 524 221 0
597 580 -724 0
746 55 263 0
420 -145 331 0
486 -882 -295 0
-219 627 743 0
287 843 387 0
658 -245 497 0
-876 -173 -41 0
1 -75 806 0
-706 531 -856 0
-560 36 -98 0
642 892 -701 0
972 -836 -540 0
-337 -224 262 0
642 -44 -633 0
-185 -620 -7 0
564 -250 910 0
-782 18 -340 0
-913 -931 -565 0
-348 246 -280 0
248 -646 750 0
885 541 816 0
365 -288 49 0
-584 253 305 0
550 253 609 0
231 -675 -854 0
817 -357 126 0
263 -369 751 0
945 -914 492 0
-578 -797 668 0
-36 -402 -496 0
381 433 -422 0
439 -685 19 0
491 831 533 0
601 -982 202 0
639 -543 918 0
-106 -392 837 0
-942 -708 905 0
-75 -299 572 0
-582 -247 356 0
-681 308 -30 0
-827 188 -424 0
902 -279 -44 0
-132 -427 941 0
97 905 -814 0
473 648 -817 0
-560 324 -178 0
-408 71 -634 0
-607 425 -746 0
911 655 -329 0
25 674 710 0
-58 -658 641 0
-48 -890 -288 0
-214 889 139 0
-354 -806 800 0
-255 -838 322 0
-87 931 276 0
-162 -652 95 0
944 -176 -137 0
566 695 524 0
-995 19 654 0
-113 391 186 0
989 871 -129 0
-249 -211 -654 0
352 518 440 0
-52 917 633 0
-317 -453 910 0
-192 -207 -411 0
-582 -94 -333 0
-139 -84 304 0
266 165 -850 0
107 -142 672 0
-722 -933 691 0
-882 -801 -744 0
-890 152 772 0
-909 -419 902 0
924 -100 999 0
97 -908 417 0
-890 -52 -358 0
-225 60 613 0
-861 646 -368 0
391 113 -7 0
347 -809 534 0
605 -770 290 0
-782 966 -380 0
-741 -888 -707 0
-385 285 614 0
-882 -408 464 0
94 203 825 0
-791 -61 -629 0
797 -82 745 0
185 -25 123 0
179 442 36 0
493 421 -174 0
-240 999 -624 0
-452 278 157 0
647 441 -701 0
-103 -553 -971 0
728 886 -682 0
492 67 246 0
-720 753 747 0
-633 -6 562 0
860 -49 -461 0
307 -227 -523 0
464 815 -809 0
-648 -354 152 0
432 -459 -835 0
192 -191 -651 0
-398 -782 451 0
425 -374 -255 0
-893 -681 -961 0
-663 252 154 0
-273 -507 866 0
-179 -709 -577 0
709 -152 -640 0
409 306 -289 0
666 -200 -6 0
943 -983 -596 0
748 -473 -951 0
101 10 -743 0
-502 684 57 0
-267 -83 720 0
330 -919 -95 0
-510 -74 -852 0
-157 -983 -199 0
-322 -986 411 0
-717 459 705 0
-218 291 -911 0
-354 -239 -265 0
884 706 880 0
186 948 -90 0
-296 -241 498 0
-805 -545 665 0
-196 803 -964 0
-1 76 -253 0
455 -292 -246 0
-44 -227 -793 0
-188 -441 145 0
-247 685 -40 0
-483 -26 -838 0
505 563 737 0
736 -925 -358 0
484 -949 -507 0
231 -977 866 0
-206 164 -369 0
173 582 -930 0
-117 -292 700 0
240 -333 -615 0
-81 596 -199 0
10 -571 -162 0
-434 -238 -76 0
346 -61 -122 0
-651 -871 423 0
980 -954 -812 0
323 -219 -519 0
534 -132 262 0
-760 463 916 0
758 752 -428 0
-579 -788 957 0
349 826 59 0
101 -194 -352 0
400 215 863 0
60 -218 991 0
-462 -408 -487 0
106 257 -397 0
727 846 862 0
-744 943 584 0
741 -482 -244 0
-12 918 916 0
-354 4 -567 0
-417 718 498 0
-125 333 687 0
202 785 9 0
377 -857 369 0
387 -286 -825 0
-54 -728 599 0
-774 -36 -884 0
202 -224 -718 0
220 93 606 0
920 -711 -283 0
340 357 518 0
452 805 790 0
283 745 498 0
-135 658 -208 0
912 773 -946 0
-317 48 538 0
814 -654 213 0
96 745 154 0
-376 112 117 0
154 903 921 0
984 -153 321 0
979 -156 -466 0
332 966 380 0
-907 913 604 0
-647 -970 -521 0
-610 956 -838 0
707 -210 -766 0
-602 722 601 0
-118 176 -590 0
979 -610 -197 0
830 887 -521 0
718 56 -511 0
-322 495 -250 0
-701 -568 -329 0
-142 -854 837 0
-710 639 963 0
30 580 865 0
391 429 251 0
392 -250 -832 0
431 651 397 0
173 -383 367 0
632 -945 934 0
987 -256 -785 0
-21 -344 504 0
-306 314 -520 0
-249 460 617 0
-326 617 223 0
-862 -950 -526 0
-264 -154 -809 0
-738 796 366 0
444 -152 380 0
620 237 309 0
961 249 646 0
-319 -708 172 0
792 -879 410 0
191 -274 770 0
-668 -983 -231 0
532 637 555 0
92 -128 -553 0
531 480 -459 0
234 -187 307 0
-893 97 -59 0
805 17 -310 0
586 -198 -455 0
-496 571 -873 0
-218 -608 -40 0
57 -948 -71 0
-405 -221 -153 0
-885 -737 -673 0
21 245 -462 0
367 -783 -934 0
328 -789 -855 0
-738 555 -300 0
-575 125 796 0
733 345 -464 0
540 -761 -977 0
-587 -477 -843 0
-596 931 809 0
937 -263 -548 0
-187 570 -867 0
-619 908 -495 0
-216 -341 -264 0
500 986 -743 0
-49 835 408 0
850 527 -583 0
52 875 -777 0
-743 -651 -377 0
635 -712 -6 0
-321 194 -542 0
-771 -237 -462 0
-89 -757 541 0
-144 -341 -767 0
-952 -20 -243 0
-534 959 -850 0
110 -262 20 0
224 -754 288 0
271 -782 -754 0
744 900 260 0
610 531 -77 0
206 -415 -715 0
574 128 -957 0
774 -229 -740 0
594 -248 -146 0
-149 285 276 0
107 572 -293 0
-927 -536 728 0
-253 -94 530 0
-835 -951 -567 0
269 347 -97 0
57 -181 -291 0
628 -744 -848 0
-260 728 -504 0
-91 -411 859 0
975 -37 105 0
442 830 435 0
-363 -970 484 0
879 152 433 0
651 -706 941 0
718 -475 -156 0
-136 219 829 0
179 -316 -590 0
-580 898 -563 0
-631 417 -354 0
-250 -577 -433 0
-52 289 -56 0
-990 611 -626 0
-209 -708 -688 0
-658 -366 799 0
463 -72 -803 0
-32 -116 -481 0
100 515 -569 0
926 632 333 0
372 553 491 0
286 886 356 0
-666 -876 154 0
-484 537 232 0
250 358 862 0
737 -771 433 0
498 -215 -58 0
-915 -103 657 0
719 684 -457 0
203 702 849 0
-311 -581 482 0
1 -832 -431 0
-52 803 947 0
-937 877 -749 0
818 -685 127 0
-836 -703 -601 0
16 -311 -577 0
-745 604 -111 0
250 -570 283 0
486 374 -913 0
566 764 -199 0
-425 888 -258 0
-814 -549 566 0
872 -597 -246 0
174 847 -180 0
779 95 269 0
756 -954 30 0
-216 -714 669 0
611 767 502 0
827 84 -531 0
556 -603 -701 0
-499 471 133 0
341 752 728 0
395 -620 -316 0
-947 -492 185 0
79 -576 -137 0
653 321 402 0
-650 -4 -992 0
-892 70 -896 0
131 880 -730 0
944 -151 468 0
-324 -556 -866 0
-806 -973 -509 0
-430 -45 -580 0
593 -383 -867 0
591 201 -91 0
810 872 315 0
-501 -443 -20 0
-692 896 -90 0
-402 -2 816 0
-280 778 -262 0
-303 236 -21 0
-912 960 -81 0
17 -932 -721 0
379 442 660 0
-220 641 54 0
743 17 -45 0
549 -431 -884 0
343 494 511 0
-372 746 -955 0
592 -780 458 0
-720 -683 224 0
623 792 -485 0
976 -324 -26 0
17 -637 -178 0
-869 -597 -408 0
-542 47 -705 0
679 -135 -717 0
435 -389 -892 0
-110 -974 24 0
-588 -472 -352 0
-459 160 523 0
250 -686 -906 0
-816 830 413 0
923 371 -186 0
-147 917 41 0
-37 929 -529 0
-6 384 505 0
812 -187 861 0
25 -435 549 0
749 191 339 0
-811 225 -851 0
-441 592 -122 0
128 -652 960 0
266 956 342 0
312 -367 -432 0
-751 -415 -811 0
597 -411 -81 0
-420 288 520 0
-249 564 -433 0
-445 -70 726 0
-985 -710 325 0
-170 -934 -837 0
528 -668 206 0
-14 -31 -596 0
455 377 -580 0
547 -695 -753 0
627 924 -915 0
-351 -121 724 0
694 -869 -310 0
-567 497 -26 0
-595 357 -436 0
498 -966 -158 0
83 -454 418 0
-367 750 -47 0
74 -638 -546 0
77 -244 -54 0
-277 387 950 0
762 -252 -780 0
461 -903 432 0
-465 147 -799 0
884 -691 -752 0
-460 -722 -667 0
-811 -983 -81 0
-31 1 290 0
363 729 -592 0
634 -533 226 0
198 -555 -318 0
699 22 352 0
564 34 -104 0
615 119 575 0
205 287 -850 0
-533 -694 -368 0
559 894 256 0
-406 247 41 0
-842 -737 -378 0
-556 438 -830 0
-303 -870 546 0
-685 840 994 0
783 343 -505 0
-233 997 872 0
-145 -669 -488 0
418 719 -64 0
-712 -709 438 0
-269 -337 -735 0
-777 -311 729 0
-541 -477 7 0
-763 434 130 0
-834 229 -866 0
613 280 352 0
779 -647 -193 0
-804 -12 -217 0
860 -280 -179 0
296 -768 -92 0
-794 911 670 0
-335 54 961 0
482 415 -247 0
155 -739 587 0
-207 -770 821 0
-600 543 204 0
-580 296 -169 0
-313 -13 -399 0
348 -859 719 0
-408 -227 -950 0
-510 -247 403 0
-733 919 -205 0
998 -171 -189 0
476 884 589 0
-541 -63 525 0
-736 -418 -713 0
-431 -802 -676 0
-19 -138 -559 0
-566 777 -312 0
-65 318 -38 0
-28 571 377 0
-760 821 149 0
810 244 753 0
-308 649 485 0
445 -396 106 0
-862 -431 256 0
604 -842 -541 0
264 931 -200 0
994 -330 -701 0
82 -513 203 0
-326 268 82 0
218 158 493 0
-874 225 -627 0
578 -375 -680 0
-544 -246 356 0
-441 719 91 0
888 -338 -901 0
-371 -466 -472 0
613 538 -414 0
191 -860 96 0
-342 200 333 0
-22 -638 -595 0
-656 966 -983 0
-274 -993 -344 0
-748 -469 -645 0
11 -591 812 0
702 969 714 0
-250 280 -670 0
-141 604 -953 0
307 278 610 0
-127 982 -60 0
55 -332 720 0
568 -312 508 0
-836 -709 -477 0
992 720 -604 0
-275 371 -511 0
-78 330 -772 0
-103 112 -994 0
524 -408 -538 0
-349 716 712 0
-287 353 -555 0
-73 668 -925 0
-257 -479 -929 0
357 -300 541 0
-789 805 364 0
468 634 860 0
246 405 -988 0
183 573 -425 0
-23 -118 91 0
-978 -183 277 0
678 -178 215 0
89 579 145 0
6 58 533 0
254 711 130 0
583 772 -392 0
996 -470 743 0
-371 -183 773 0
253 -370 365 0
633 -427 307 0
-721 404 -842 0
-522 456 723 0
-875 780 -394 0
661 440 -320 0
746 -808 -800 0
582 294 639 0
-297 -856 -746 0
502 749 578 0
-956 -245 -898 0
-916 -411 -115 0
836 -506 634 0
215 842 -321 0
968 -687 -954 0
132 423 698 0
164 335 424 0
893 -41 -864 0
286 -188 -848 0
-647 209 -99 0
-703 -763 522 0
666 729 340 0
-783 -711 -228 0
360 89 -211 0
-615 675 286 0
758 298 933 0
870 -595 -716 0
-49 462 -800 0
-864 -392 -185 0
704 -508 -999 0
-94 390 -121 0
-633 611 -502 0
-699 -111 -754 0
-821 650 119 0
882 -465 -754 0
-753 -3 -788 0
-861 429 331 0
32 759 227 0
-432 -292 429 0
177 -828 189 0
-916 532 -472 0
-794 38 80 0
-798 -910 918 0
685 49 289 0
-145 -453 -268 0
-713 445 -698 0
-797 753 -224 0
-98 -505 -533 0
448 614 8 0
801 -490 -802 0
262 256 -373 0
-503 780 403 0
943 -830 464 0
607 -178 -1000 0
720 -623 330 0
235 -687 -773 0
868 -889 619 0
976 805 -708 0
700 -88 441 0
746 253 919 0
341 -90 812 0
-998 877 1000 0
-152 -448 -605 0
711 922 -556 0
373 833 -375 0
-314 -686 -613 0
609 448 790 0
-478 -317 -13 0
-27 378 -161 0
-180 624 -996 0
181 982 386 0
502 -292 997 0
-983 409 -400 0
885 -49 -707 0
736 -737 613 0
457 -221 -130 0
586 -277 -458 0
-609 456 -289 0
258 -37 821 0
34 -764 -688 0
-275 531 -516 0
76 975 277 0
704 808 -675 0
593 455 -846 0
536 -682 45 0
35 311 -869 0
205 -994 -935 0
616 -4 942 0
-903 -488 887 0
-817 -793 -272 0
-26 -205 -443 0
-697 51 -546 0
622 96 -383 0
809 897 80 0
308 -940 -269 0
-199 154 -432 0
-714 277 -643 0
-862 -219 -725 0
-757 7 818 0
-259 286 58 0
-243 307 -211 0
-705 -469 -670 0
815 509 354 0
-764 -987 -10 0
-92 512 -973 0
599 874 -313 0
-472 -437 -542 0
-989 -820 16 0
908 -150 -655 0
-123 -579 -314 0
909 511 -694 0
789 -303 -923 0
-756 888 356 0
-862 639 -607 0
-870 799 124 0
-480 405 -439 0
-571 -590 197 0
188 -904 -968 0
-258 171 371 0
-969 -458 282 0
892 -795 733 0
-434 822 -527 0
21 831 703 0
473 952 -31 0
-261 -456 887 0
-253 -791 842 0
144 -656 -270 0
-479 -957 650 0
-863 -664 78 0
-547 -824 948 0
-106 -940 -833 0
-73 -482 -349 0
749 628 240 0
166 791 93 0
727 199 -176 0
281 749 309 0
978 -889 790 0
-679 867 -377 0
191 -986 -979 0
-104 261 773 0
933 846 844 0
-784 -552 492 0
448 21 135 0
580 -693 -448 0
-855 87 -584 0
715 -86 27 0
-797 -346 317 0
68 -659 -310 0
-648 978 -22 0
-631 -650 341 0
476 -272 -667 0
-272 779 457 0
-658 572 876 0
118 227 -100 0
136 -578 212 0
512 -318 -728 0
499 132 -517 0
134 -776 205 0
-54 35 248 0
377 400 -94 0
-940 151 395 0
134 356 725 0
439 18 38 0
-846 388 -704 0
-463 500 542 0
-311 -901 -218 0
145 -926 554 0
-832 361 -312 0
-616 845 -197 0
616 48 -385 0
-163 404 693 0
293 350 531 0
479 -998 313 0
417 489 -930 0
-187 -120 -929 0
404 977 998 0
842 -51 140 0
448 -214 478 0
-88 -420 -896 0
-108 339 -202 0
736 972 682 0
795 684 -967 0
-856 568 144 0
909 -816 -537 0
815 -938 -254 0
222 -77 -861 0
-849 -965 -440 0
527 355 -823 0
459 -441 445 0
-332 -93 -846 0
703 -528 513 0
597 -213 239 0
659 -973 409 0
916 878 -633 0
-331 -194 -558 0
-296 -532 871 0
-52 497 -344 0
526 354 939 0
-397 778 467 0
-230 722 -178 0
-194 928 -101 0
519 183 -940 0
917 -105 -381 0
71 -941 916 0
-717 374 489 0
722 804 -319 0
811 115 926 0
-767 226 -943 0
2 -337 -31 0
684 -505 -826 0
561 393 -623 0
-771 657 -813 0
918 -349 -273 0
-656 817 -822 0
-876 992 128 0
-229 -889 100 0
167 -247 -863 0
803 -675 -871 0
-680 -920 -263 0
286 -622 631 0
-346 -960 -147 0
-999 -283 -518 0
280 -693 -863 0
-54 366 491 0
-818 450 308 0
-646 -355 -126 0
596 -312 -668 0
520 -631 934 0
622 558 748 0
766 -547 895 0
-344 905 643 0
-274 128 298 0
-628 -420 319 0
697 -123 -421 0
754 746 -316 0
-843 -186 -494 0
-581 -106 -645 0
701 -304 351 0
-540 543 -721 0
307 -256 -472 0
491 -946 -868 0
-784 -138 78 0
96 -793 631 0
265 595 399 0
-694 888 58 0
-243 972 564 0
-344 -109 -490 0
-337 -887 -424 0
-808 41 394 0
-601 -564 245 0
291 671 276 0
-736 901 474 0
971 -580 907 0
-435 566 402 0
832 -365 939 0
-50 883 -207 0
-688 -826 -833 0
132 387 -884 0
-266 -173 -411 0
989 438 443 0
799 246 968 0
537 962 729 0
796 -691 253 0
321 318 740 0
438 36 -982 0
-213 729 -756 0
-219 -765 75 0
112 64 119 0
-35 -873 851 0
806 342 380 0
719 18 -507 0
655 -181 75 0
-573 -779 780 0
-517 65 -182 0
113 -409 -950 0
-160 -107 -458 0
148 -595 -388 0
-961 12 -916 0
-485 -93 181 0
610 -144 331 0
-108 -331 -67 0
778 214 -994 0
-728 353 201 0
987 -969 -103 0
749 24 602 0
-522 241 661 0
874 934 -937 0
-466 -641 -563 0
-67 -654 75 0
338 -210 124 0
584 -589 -194 0
-900 -266 -226 0
-137 -84 479 0
-64 468 -49 0
-211 -335 519 0
589 -637 -51 0
179 -237 988 0
105 -35 387 0
768 813 460 0
579 -897 -787 0
815 -20 732 0
-948 -72 -419 0
-52 -733 -225 0
-756 223 311 0
-301 298 -178 0
-679 -433 -22 0
782 841 790 0
993 -955 -953 0
-86 908 -857 0
-631 -588 88 0
-80 92 -539 0
-618 -738 190 0
556 239 874 0
187 -736 639 0
-432 -613 620 0
-24 -28 -298 0
371 -88 -215 0
560 -404 291 0
-808 598 -738 0
849 -234 11 0
-567 -398 321 0
88 217 816 0
434 875 656 0
-405 593 872 0
-102 527 325 0
-939 -544 101 0
-237 604 -730 0
-549 876 23 0
101 766 70 0
-348 696 25 0
310 721 -224 0
-609 -359 522 0
484 -72 -133 0
164 -858 -659 0
-599 -45 605 0
342 252 859 0
986 -788 662 0
608 -617 908 0
239 248 -211 0
-538 -777 270 0
-179 -682 -83 0
-649 453 325 0
472 -709 -165 0
749 -283 -773 0
-564 130 351 0
-547 137 -670 0
-140 -438 -304 0
345 996 -554 0
322 744 -201 0
-282 -47 352 0
-226 298 -695 0
305 617 715 0
-176 55 -11 0
840 914 40 0
952 -539 -331 0
-669 -46 600 0
194 198 296 0
161 422 -481 0
29 861 618 0
664 653 -771 0
-2 -898 -656 0
-547 -288 149 0
-86 -638 -607 0
-895 -78 -691 0
174 -660 81 0
842 -353 906 0
-832 796 132 0
-347 106 294 0
623 -471 692 0
-761 -244 297 0
-931 39 808 0
-739 72 966 0
263 312 863 0
979 -698 -662 0
986 -922 -593 0
-765 -664 -835 0
406 -545 778 0
796 -76 -248 0
243 -167 542 0
-58 71 -104 0
-490 20 564 0
295 197 -337 0
261 716 -772 0
-756 198 760 0
-944 -759 -130 0
876 -448 -573 0
183 -889 -145 0
-836 -172 -870 0
981 353 -368 0
-89 231 -442 0
-619 263 738 0
820 84 309 0
-598 -496 -374 0
-760 -572 716 0
-679 541 586 0
345 466 -9 0
-570 -512 -989 0
831 -460 -11 0
-678 220 207 0
-631 -882 -260 0
343 779 238 0
489 -449 -621 0
-427 -173 62 0
-543 -378 862 0
390 -817 -351 0
74 -962 -252 0
166 -497 802 0
541 971 11 0
-386 180 647 0
-886 -100 -409 0
-696 -720 -157 0
-353 -581 888 0
-112 -913 537 0
-21 -801 -228 0
-439 -497 -66 0
-626 495 -155 0
-100 160 -828 0
-13 -193 438 0
-577 -901 431 0
-378 -888 -826 0
81 7 415 0
408 323 616 0
-269 547 673 0
985 -482 399 0
675 616 287 0
-101 -889 641 0
691 89 397 0
164 923 -984 0
-987 -58 -83 0
-868 395 -591 0
724 -164 -171 0
-393 -124 172 0
-919 677 803 0
-694 -293 -286 0
-246 -955 665 0
587 -307 -800 0
-946 -983 716 0
426 17 -911 0
829 861 201 0
132 -281 -361 0
-381 494 510 0
-505 418 -30 0
237 -704 786 0
188 -27 -849 0
354 -117 -938 0
851 -494 -108 0
-697 -160 470 0
-812 71 22 0
-283 726 -551 0
224 584 566 0
-38 -959 858 0
774 590 927 0
537 401 -771 0
-519 -124 151 0
845 55 -173 0
547 -156 859 0
-640 -171 670 0
-505 -443 463 0
262 453 -978 0
58 -439 -911 0
759 651 521 0
-910 -152 -748 0
-113 -942 -490 0
-970 -944 -154 0
-52 -716 -72 0
-125 865 525 0
-832 430 760 0
-707 -229 -892 0
673 141 468 0
499 496 23 0
314 -992 572 0
476 82 -626 0
-615 -771 714 0
216 -502 -124 0
-524 -866 615 0
-41 -956 729 0
947 135 -709 0
656 350 913 0
666 436 944 0
-308 -82 -927 0
507 -326 -400 0
-610 -987 406 0
-252 179 -625 0
-549 -771 342 0
-77 -560 442 0
29 820 567 0
464 -460 -512 0
-221 -974 222 0
913 81 538 0
461 534 -936 0
-24 -76 144 0
-380 -896 793 0
-880 -705 -180 0
82 280 -695 0
393 -680 -316 0
13 955 -379 0
561 -438 -614 0
153 36 -741 0
-470 -906 228 0
703 -99 -575 0
635 526 286 0
383 -665 907 0
806 60 -951 0
-548 334 -954 0
15 -267 -158 0
490 -804 743 0
821 428 923 0
280 344 722 0
571 481 428 0
-933 -97 -194 0
291 -29 -66 0
-956 -841 -959 0
133 -466 717 0
-375 -40 -603 0
-987 931 348 0
-657 194 475 0
354 -921 -763 0
800 387 32 0
107 -689 -687 0
-878 788 942 0
126 -425 -859 0
272 874 289 0
-737 -195 -173 0
787 -287 843 0
-250 -158 -335 0
-487 102 -380 0
-374 -118 -911 0
-15 269 788 0
-419 743 -41 0
325 148 136 0
-154 -828 937 0
326 637 533 0
-761 -419 530 0
31 -750 702 0
702 -295 -292 0
4 -772 -395 0
-106 702 33 0
957 -467 728 0
250 -612 -398 0
-756 -347 311 0
-723 -119 777 0
-338 -61 884 0
216 666 -662 0
131 -43 -692 0
834 -437 503 0
875 -81 -2 0
67 -770 819 0
784 -648 61 0
-758 -737 -603 0
726 -985 -230 0
-130 186 126 0
-890 104 165 0
282 413 385 0
198 467 615 0
-169 426 -210 0
-54 -791 -641 0
600 -737 -144 0
-551 14 787 0
792 710 399 0
967 -680 -33 0
835 -511 -60 0
124 -258 -240 0
-111 1 285 0
-424 -713 353 0
-706 284 -395 0
-230 -853 205 0
-624 29 980 0
-171 -507 272 0
-19 -279 -493 0
-279 -137 432 0
-758 -751 -950 0
-195 218 54 0
-386 796 483 0
260 -598 -821 0
865 -735 128 0
578 350 -190 0
179 -572 874 0
-359 558 -696 0
-999 -437 263 0
-142 293 -644 0
-925 -784 508 0
-181 712 -534 0
-558 932 188 0
-112 125 -995 0
-459 -273 744 0
-210 994 100 0
430 112 162 0
497 -66 985 0
-393 -271 -148 0
195 123 58 0
755 893 -211 0
-587 -531 323 0
135 -605 266 0
504 6 -425 0
671 172 119 0
446 -89 560 0
-60 507 -309 0
700 408 670 0
14 -464 -567 0
836 859 -670 0
-404 142 -843 0
564 651 669 0
-988 931 73 0
74 947 -729 0
311 269 20 0
213 969 361 0
555 771 -625 0
335 -895 795 0
-601 -613 568 0
969 -189 -586 0
-377 322 -947 0
-246 336 -18 0
216 -26 -46 0
379 998 -611 0
500 548 -805 0
562 -302 -402 0
50 574 -894 0
-260 60 789 0
-698 -405 -415 0
-146 -718 233 0
-192 679 -268 0
-576 64 479 0
920 838 -567 0
-101 173 272 0
-20 939 -165 0
466 -624 -549 0
280 -292 409 0
-482 -455 -395 0
-640 -750 242 0
-443 83 -315 0
914 77 544 0
-737 -25 -136 0
-126 551 -498 0
-641 -861 838 0
852 -492 857 0
921 -222 -66 0
-498 -487 -708 0
-569 488 -88 0
2 -162 781 0
-70 508 599 0
183 109 977 0
-187 -671 424 0
-329 14 -816 0
-442 -814 -560 0
-706 585 -108 0
-92 710 -910 0
627 942 91 0
486 -780 437 0
854 900 174 0
167 632 -300 0
140 546 64 0
-630 507 590 0
201 39 144 0
-234 680 -995 0
-883 -688 143 0
-611 -608 -816 0
-250 588 620 0
668 -944 -455 0
816 56 752 0
240 -337 -794 0
294 -896 713 0
691 -700 -541 0
594 -36 -702 0
5 519 -549 0
589 -728 -588 0
586 -453 544 0
988 796 667 0
-398 -192 551 0
-988 -311 -698 0
-755 394 -446 0
485 756 -525 0
-883 -7 842 0
957 -282 -649 0
-520 -337 -269 0
-550 41 -187 0
560 301 -747 0
977 -492 841 0
729 -908 -595 0
-96 305 -155 0
-168 -575 971 0
709 921 110 0
58 763 -165 0
-138 -223 345 0
502 633 -496 0
-238 297 271 0
362 -59 -588 0
-237 -39 319 0
210 -597 656 0
240 10 611 0
48 251 196 0
890 79 747 0
-459 176 -936 0
-631 305 -292 0
919 -74 620 0
-342 306 -43 0
-915 -47 -779 0
-547 425 -17 0
-224 95 -452 0
-767 584 -801 0
646 779 666 0
41 -92 392 0
-453 73 732 0
495 767 -553 0
-711 -377 -263 0
134 -67 188 0
-574 20 -468 0
561 -436 -724 0
-126 -471 -814 0
-460 -45 -183 0
439 541 -211 0
202 66 -940 0
787 -271 469 0
-890 -5 -433 0
626 -893 -550 0
-45 510 -639 0
346 -214 334 0
128 826 -967 0
98 447 -166 0
-348 208 755 0
-226 377 -750 0
723 -905 -450 0
549 615 630 0
-106 -472 504 0
444 657 -348 0
894 -60 325 0
-725 996 -410 0
-488 -699 -913 0
783 -768 -672 0
25 366 920 0
219 -752 6 0
-339 478 -841 0
88 857 572 0
402 -487 -774 0
-821 -865 -54 0
-540 221 -952 0
-904 -913 -621 0
639 810 -488 0
-638 -824 746 0
86 -538 -910 0
-394 531 853 0
59 -430 75 0
-518 485 -138 0
-138 -924 -536 0
-120 -123 961 0
-309 -999 -627 0
-110 -202 524 0
460 850 -872 0
523 772 -441 0
329 -515 -526 0
-660 308 283 0
119 -295 -231 0
608 544 -848 0
-768 -426 -315 0
9 -82 118 0
679 58 260 0
989 718 -792 0
-150 289 796 0
686 -306 227 0
852 -64 412 0
-468 -605 942 0
-306 -160 -670 0
-165 -914 -892 0
-925 -268 -883 0
290 171 -682 0
77 -950 -467 0
-585 -613 438 0
895 -5 -288 0
475 799 658 0
783 830 -108 0
-354 -207 264 0
-966 -406 350 0
-41 -349 274 0
-597 -191 -356 0
-864 303 204 0
691 874 -578 0
-315 -340 119 0
-277 535 -650 0
543 -614 -179 0
-532 291 -487 0
678 -668 680 0
240 3 343 0
372 -938 227 0
-590 504 608 0
983 282 -596 0
-952 587 -840 0
-553 -74 353 0
-648 -67 -560 0
-727 542 -353 0
-902 417 -318 0
-579 638 -954 0
329 351 39 0
277 110 -414 0
-618 -343 -481 0
306 275 -262 0
-739 726 -393 0
-596 91 -857 0
-957 -422 -166 0
93 -525 -678 0
64 -925 -208 0
394 476 242 0
-130 -394 760 0
-289 -861 134 0
-231 86 156 0
-524 72 -832 0
271 -149 375 0
334 -814 361 0
-348 163 638 0
500 -930 836 0
-878 579 729 0
-347 977 435 0
825 254 -272 0
361 994 -508 0
126 407 869 0
86 -366 -157 0
-573 651 -591 0
567 -54 20 0
-803 -843 -343 0
130 10 -306 0
856 -520 474 0
-22 259 494 0
868 645 520 0
530 78 -122 0
638 -43 484 0
45 196 252 0
8 -493 446 0
-752 -121 129 0
-471 789 515 0
-226 733 73 0
490 -184 -719 0
986 126 249 0
-364 -340 960 0
590 945 780 0
635 -939 482 0
-753 594 85 0
56 579 -786 0
217 427 -363 0
-377 -969 574 0
-811 -794 -73 0
573 685 5 0
-9 -682 -803 0
-666 445 -45 0
579 -788 -713 0
506 -918 -133 0
-675 -520 -700 0
950 -268 -759 0
-800 311 -594 0
775 198 768 0
930 577 -743 0
235 -394 -232 0
-684 -609 -850 0
-34 -823 99 0
993 248 -863 0
164 170 -64 0
400 -546 929 0
-755 878 902 0
74 3 -527 0
152 628 -624 0
-474 33 458 0
-720 -171 -604 0
-662 -575 865 0
-756 -918 -324 0
-319 783 -590 0
-281 377 38 0
466 985 380 0
976 69 -972 0
-841 -503 982 0
-669 -17 -864 0
433 -637 -392 0
167 21 -462 0
145 726 -415 0
-278 -472 67 0
-806 -140 -313 0
786 233 263 0
529 -216 -806 0
-646 524 590 0
148 765 935 0
524 -987 202 0
-907 -619 108 0
521 -519 995 0
7 -216 802 0
-443 206 743 0
359 970 -100 0
907 647 298 0
-23 404 763 0
-704 721 -647 0
776 930 743 0
-273 -179 -562 0
-99 520 601 0
247 189 -784 0
-367 -329 -475 0
-332 904 -505 0
510 -254 -485 0
-270 467 -860 0
-103 -8 169 0
545 -924 527 0
-747 -969 249 0
-530 -885 761 0
964 54 629 0
324 -7 -453 0
-406 189 -897 0
689 -674 -568 0
-465 -996 -4 0
125 -459 -347 0
-254 -130 -443 0
199 873 -827 0
-27 214 -573 0
864 -788 -113 0
-504 -600 -363 0
-271 -862 519 0
400 932 227 0
-797 -234 355 0
103 70 133 0
-956 -576 -802 0
-764 -883 -243 0
787 116 61 0
-991 765 -355 0
-468 215 -16 0
297 -197 -982 0
464 -549 888 0
-927 798 -223 0
271 432 869 0
-76 408 -789 0
-531 220 47 0
-924 573 -390 0
526 -52 306 0
577 -521 140 0
307 -916 -215 0
641 313 -714 0
184 444 778 0
-903 -387 988 0
-578 -361 32 0
-12 868 -755 0
-298 -735 744 0
-95 -535 778 0
-258 819 149 0
-665 664 612 0
-286 -642 944 0
994 -434 -96 0
-876 124 106 0
-815 -399 -199 0
797 -394 -503 0
-707 -614 -779 0
913 237 475 0
157 627 -184 0
-459 -193 355 0
722 -912 -85 0
308 -396 -161 0
-844 -577 845 0
-32 816 -95 0
505 -331 -452 0
-540 -114 438 0
894 -449 -485 0
459 -395 -283 0
38 -838 657 0
795 -881 -705 0
-838 112 285 0
-70 -476 -313 0
-750 -828 499 0
-466 -4 659 0
-406 -659 883 0
-461 480 -847 0
-348 -507 694 0
-429 -995 -448 0
-971 -2 411 0
-257 -534 332 0
-839 -263 -903 0
580 18 920 0
703 168 468 0
145 471 -545 0
707 -649 -658 0
295 485 146 0
773 -820 -164 0
-319 112 -24 0
-105 -786 -373 0
-905 -259 -672 0
282 362 240 0
-437 27 -532 0
528 587 266 0
-561 413 256 0
-421 -511 418 0
291 76 -277 0
-262 47 -986 0
480 421 812 0
-727 175 89 0
-669 10 226 0
99 659 -815 0
56 467 169 0
118 879 646 0
-695 29 549 0
-541 -453 343 0
-436 -813 -154 0
198 -81 595 0
179 324 -941 0
293 -30 389 0
-650 -345 723 0
-813 -576 -228 0
-688 323 -538 0
883 -831 -838 0
-679 -282 69 0
-990 89 595 0
406 -733 -89 0
662 936 955 0
-191 170 862 0
703 866 500 0
969 872 -834 0
51 -822 126 0
982 -178 307 0
312 556 713 0
-459 25 -270 0
243 -401 -305 0
-46 -915 165 0
691 -110 425 0
74 250 982 0
-732 188 389 0
769 306 475 0
773 899 98 0
197 823 62 0
151 92 85 0
-690 962 469 0
902 974 -451 0
-453 -163 -592 0
-601 469 -793 0
882 244 863 0
-285 202 -686 0
827 -535 730 0
320 -257 -935 0
122 897 323 0
-363 -343 395 0
918 -631 602 0
-916 -809 827 0
-481 971 383 0
-730 -233 -674 0
-92 -958 871 0
-766 -611 972 0
-199 -883 -216 0
-453 791 191 0
-783 -76 916 0
677 -366 710 0
480 -24 961 0
420 192 952 0
745 -47 -394 0
40 -896 -370 0
-528 -570 401 0
-579 716 -498 0
3 -542 -639 0
-273 -937 285 0
423 250 626 0
-389 -211 515 0
-107 -999 742 0
-245 -170 544 0
-860 266 556 0
7 29 -893 0
-769 -493 -825 0
-220 713 143 0
878 -660 -624 0
-152 17 360 0
-925 -843 -262 0
-68 451 813 0
-669 -314 -561 0
-533 695 592 0
302 -384 859 0
-85 860 -446 0
-176 -641 146 0
540 516 906 0
239 999 485 0
-994 -365 134 0
640 -904 -846 0
-151 -17 124 0
-905 597 341 0
683 -594 -141 0
232 -935 -582 0
298 342 -301 0
252 -95 -43 0
394 -742 14 0
733 -401 55 0
201 498 -299 0
-269 -628 -116 0
979 -213 -842 0
860 962 926 0
107 -279 -529 0
796 -808 824 0
-440 943 -651 0
-101 447 -297 0
-154 -735 -517 0
-323 -700 791 0
555 334 -444 0
-648 -316 -778 0
-955 -782 369 0
-664 -431 177 0
-497 674 -659 0
84 -571 -662 0
510 365 955 0
-874 988 -746 0
-864 146 -4 0
-700 -761 -10 0
294 -75 -447 0
-500 903 -716 0
822 217 672 0
192 942 986 0
-242 58 573 0
-677 -407 -323 0
816 666 312 0
449 -771 719 0
744 192 704 0
119 -642 193 0
-459 954 -805 0
579 482 902 0
-144 -650 332 0
601 97 -560 0
525 -680 -858 0
796 -952 -89 0
-532 -90 -618 0
107 -313 -779 0
891 157 797 0
665 -242 -635 0
-712 647 -735 0
-176 608 978 0
404 -734 -774 0
-195 -320 -645 0
-469 -931 541 0
-968 -675 -621 0
367 744 -42 0
155 476 108 0
-460 548 182 0
-644 -836 -634 0
-521 714 650 0
205 739 -441 0
542 -74 702 0
83 -392 -214 0
856 455 -642 0
-382 355 145 0
-980 -10 77 0
-271 -968 -359 0
-482 -295 488 0
681 -134 -255 0
291 -395 -612 0
-273 711 370 0
-461 442 349 0
-763 915 113 0
7 842 475 0
-975 507 88 0
658 -252 -111 0
-455 274 -931 0
922 -249 -441 0
-765 606 -77 0
-461 142 707 0
365 411 -249 0
-161 -796 849 0
164 637 -800 0
492 -102 -415 0
-500 -825 493 0
-668 -793 -640 0
-901 658 83 0
-438 443 -725 0
-369 955 425 0
-66 13 304 0
-120 656 897 0
-549 -854 28 0
-313 416 997 0
542 227 962 0
901 -149 -29 0
473 -87 -962 0
-169 818 -369 0
258 219 93 0
-168 765 267 0
707 -54 -699 0
-895 -591 -67 0
-146 -592 972 0
36 230 -611 0
-652 722 581 0
-721 -828 749 0
342 -434 196 0
-635 -138 -632 0
-708 522 -752 0
563 -864 -950 0
-918 -990 91 0
-232 347 816 0
923 761 -602 0
-364 889 -323 0
-651 -600 -79 0
733 282 -273 0
962 -649 386 0
604 226 -466 0
-579 621 -915 0
756 -25 710 0
816 257 -446 0
-240 178 921 0
610 -376 994 0
655 -863 -601 0
-641 -384 -45 0
-226 -652 233 0
218 -744 53 0
-617 462 -656 0
-473 251 -132 0
-889 282 -615 0
-714 -287 28 0
-174 725 -217 0
695 -783 -914 0
417 762 -355 0
-314 171 -364 0
-104 410 -542 0
232 137 -825 0
-884 727 517 0
516 -746 -659 0
94 -107 -566 0
184 200 498 0
-453 625 219 0
571 -621 -306 0
120 -500 -381 0
-111 -317 318 0
188 -713 -524 0
431 941 629 0
929 416 -275 0
-554 32 -725 0
777 553 -701 0
-167 -946 -875 0
73 -477 328 0
42 897 -834 0
-986 -925 408 0
496 108 225 0
249 722 824 0
99 -788 -244 0
14 376 253 0
692 -492 -895 0
79 130 397 0
537 -260 504 0
59 -827 369 0
-749 -953 108 0
736 -570 106 0
-61 -122 -632 0
-616 -619 320 0
-512 -954 -743 0
-49 527 -477 0
813 -647 -132 0
881 253 714 0
24 -711 605 0
795 -288 -169 0
10 96 -570 0
-247 605 -258 0
562 957 -566 0
-813 -431 97 0
757 986 162 0
-859 863 772 0
701 311 165 0
-433 437 229 0
939 -475 -398 0
956 -486 -702 0
-756 -373 987 0
-486 -50 514 0
-591 926 -407 0
407 -491 -116 0
307 422 -726 0
667 -535 812 0
811 23 -991 0
-730 301 -937 0
-468 961 -757 0
568 -180 932 0
-474 597 166 0
896 257 342 0
675 313 -720 0
232 654 -962 0
-989 694 19 0
152 -254 858 0
-726 -558 750 0
-733 420 -689 0
193 970 -274 0
-823 -460 -468 0
955 997 122 0
406 -821 615 0
-16 -118 -938 0
644 -956 -970 0
517 305 -216 0
925 -130 -391 0
-802 -321 649 0
-908 889 394 0
719 -132 -512 0
419 -218 559 0
172 619 842 0
974 -579 978 0
-359 -422 110 0
430 349 -830 0
916 -15 -144 0
-313 -479 -895 0
-38 489 -374 0
-528 718 997 0
-276 378 783 0
981 55 165 0
537 333 -354 0
98 193 319 0
436 -316 -135 0
1000 404 -508 0
-344 677 -920 0
278 739 960 0
758 -582 229 0
-11 613 799 0
-170 262 -678 0
417 220 437 0
-729 -98 811 0
522 982 -196 0
-90 -947 -939 0
-987 -219 19 0
-811 392 501 0
477 443 -689 0
802 -677 875 0
-39 -393 643 0
674 404 160 0
679 -442 -187 0
-287 -847 -659 0
943 -803 -139 0
880 268 -395 0
-743 -431 233 0
-201 -919 -662 0
-432 850 -976 0
342 388 703 0
802 589 194 0
-479 514 146 0
89 655 330 0
146 448 -900 0
400 -454 868 0
412 935 657 0
498 -668 597 0
-707 370 -37 0
602 -240 -878 0
-712 39 -927 0
-789 355 482 0
-972 -32 515 0
648 -197 -861 0
-609 -882 261 0
639 585 -216 0
495 -782 -370 0
-543 289 659 0
-810 -4 338 0
-630 -750 -946 0
698 86 -81 0
-1000 902 537 0
87 -109 503 0
-44 -546 -244 0
313 -812 485 0
-985 969 134 0
-338 -304 696 0
-611 748 -26 0
-238 -15 -894 0
-494 412 801 0
491 -578 -26 0
-84 714 -857 0
219 -930 -994 0
-760 414 -658 0
-476 641 -116 0
30 258 -907 0
429 8 388 0
-490 -830 -554 0
224 -929 999 0
415 253 -546 0
427 61 451 0
-941 143 -670 0
-151 277 732 0
602 -613 438 0
-383 576 892 0
-535 -162 123 0
270 864 -54 0
-271 -233 -516 0
198 -516 -569 0
-662 450 -964 0
-33 495 -371 0
749 242 -90 0
675 -534 -619 0
601 -900 757 0
310 178 -165 0
-214 521 -172 0
456 -241 282 0
-820 -48 -498 0
-212 -602 -101 0
231 -562 126 0
288 329 -232 0
-946 428 57 0
614 -928 -584 0
-192 -26 303 0
-134 891 374 0
902 739 -970 0
-992 -808 -623 0
564 597 936 0
-995 972 884 0
-882 -891 928 0
991 118 -46 0
118 473 917 0
609 -89 -518 0
425 434 -224 0
670 607 124 0
823 -54 221 0
-244 679 -289 0
-2 166 58 0
-894 -559 -848 0
-594 151 -439 0
360 -880 -166 0
755 504 -773 0
69 579 -684 0
120 -68 799 0
754 513 872 0
-384 -466 232 0
459 468 -120 0
-32 681 283 0
754 -178 822 0
827 189 635 0
479 182 -948 0
405 -388 633 0
-84 -932 412 0
-537 669 896 0
964 899 -873 0
-936 -260 855 0
132 552 -958 0
49 -61 -199 0
-98 -91 -910 0
-41 123 745 0
-612 394 -511 0
-400 706 245 0
927 260 -299 0
-696 584 925 0
176 852 -97 0
773 511 -57 0
866 -412 461 0
664 -263 -12 0
-455 437 190 0
-714 403 371 0
134 351 -311 0
139 830 995 0
547 274 444 0
-822 -668 -568 0
-776 704 586 0
654 901 265 0
531 537 -117 0
792 899 449 0
-964 285 -658 0
-629 865 -773 0
599 -790 -5 0
345 79 -235 0
-837 -375 -933 0
-193 -705 287 0
9 -559 -45 0
-891 363 -304 0
-77 -349 -996 0
370 968 344 0
608 -501 -731 0
-733 -714 -763 0
660 -128 473 0
-7 914 270 0
-133 -38 94 0
-965 777 -700 0
-173 -635 -476 0
-72 521 -959 0
-174 773 892 0
917 742 -363 0
-735 550 895 0
-629 479 513 0
743 -111 -57 0
-289 198 5 0
-185 -682 -286 0
-334 -625 -591 0
683 -943 419 0
-198 -469 -332 0
752 69 296 0
675 663 -161 0
-605 -100 318 0
233 887 746 0
402 -350 -50 0
179 -552 -736 0
-430 149 405 0
-361 -608 28 0
85 653 -983 0
-387 -640 -458 0
-328 -918 187 0
-152 892 -196 0
197 388 692 0
-569 -51 -952 0
185 -362 -18 0
297 -646 -849 0
875 509 106 0
-98 491 264 0
964 52 -458 0
-391 639 934 0
255 -916 630 0
477 -123 -937 0
-834 -407 -46 0
250 15 677 0
-27 217 549 0
613 -806 -479 0
-499 -95 988 0
-273 430 519 0
926 363 352 0
433 955 -72 0
-681 -392 233 0
343 -194 -550 0
-954 795 208 0
-952 -757 -361 0
-359 -215 -516 0
-397 374 842 0
692 450 -696 0
222 -47 -243 0
-411 -779 668 0
-894 241 -625 0
769 -881 725 0
269 64 -278 0
937 -985 -360 0
335 -167 606 0
812 -419 112 0
-687 767 -948 0
-524 -211 53 0
885 49 -919 0
27 366 665 0
222 412 -496 0
94 707 -971 0
380 -101 -235 0
826 -357 -586 0
-137 539 36 0
159 -38 -324 0
523 932 -122 0
-810 -625 -226 0
-557 711 778 0
987 978 454 0
531 -500 213 0
-849 -305 530 0
-976 -417 -922 0
-38 -717 871 0
-813 483 -109 0
-282 133 326 0
484 -581 569 0
851 964 619 0
790 -950 865 0
-238 346 -94 0
-542 -463 338 0
-670 -739 633 0
-543 -982 -559 0
962 -645 -840 0
-420 179 -331 0
927 369 143 0
434 55 -880 0
462 -90 144 0
742 -630 74 0
-60 708 820 0
-608 -668 -995 0
-623 -599 903 0
-258 -872 -296 0
151 814 -122 0
301 -281 285 0
-39 627 -5 0
-548 -782 148 0
705 -219 830 0
-865 116 -896 0
40 -508 -313 0
-153 -847 -369 0
694 -116 -114 0
-634 -608 677 0
-711 241 890 0
-610 -974 -148 0
-714 343 222 0
317 642 554 0
-767 91 443 0
935 157 -437 0
878 466 210 0
895 -71 -870 0
23 -222 -216 0
759 422 -531 0
-325 -436 -836 0
837 252 -207 0
369 879 452 0
782 336 -728 0
998 835 751 0
936 407 -542 0
538 152 -535 0
762 89 -458 0
-123 603 696 0
879 -92 -795 0
50 -104 -754 0
690 -65 190 0
-52 820 -572 0
-393 698 730 0
651 542 -624 0
536 -175 -15 0
326 732 269 0
-578 577 -752 0
904 -145 -872 0
-572 245 351 0
780 -574 238 0
511 692 428 0
-732 292 471 0
-100 569 -198 0
384 697 -471 0
177 -474 49 0
165 392 -466 0
-49 874 156 0
693 830 671 0
606 -536 940 0
-829 -313 -911 0
504 580 995 0
144 422 613 0
809 -283 246 0
197 784 -955 0
-946 547 717 0
-309 -795 -872 0
339 -512 -802 0
83 311 825 0
-927 -252 93 0
867 -115 265 0
-608 236 975 0
-957 971 -216 0
-984 381 -391 0
351 427 711 0
153 -367 829 0
-226 -631 -454 0
498 773 134 0
-892 -192 -980 0
624 428 -416 0
444 330 -849 0
175 -223 169 0
-130 -412 340 0
752 828 -451 0
636 -723 -69 0
966 351 422 0
-745 23 -471 0
603 -49 -864 0
-482 544 551 0
-344 -341 -886 0
-194 840 99 0
658 -210 -564 0
-28 -178 185 0
-830 598 556 0
-601 694 303 0
-146 853 -330 0
-783 -404 -211 0
112 -189 -955 0
983 -192 874 0
-386 125 195 0
483 -580 969 0
1 575 -697 0
-619 -944 756 0
994 -900 -2 0
105 255 904 0
259 -947 -151 0
-571 -600 -398 0
-859 -168 287 0
-758 -696 -136 0
170 -875 390 0
-543 -66 584 0
-670 -682 292 0
498 153 620 0
751 -960 913 0
254 -891 -171 0
-232 -330 -222 0
476 239 363 0
379 -590 360 0
434 -233 854 0
973 -732 693 0
330 -682 -689 0
-236 982 909 0
-566 -514 1000 0
-435 -944 244 0
825 667 214 0
144 -565 -165 0
517 -606 499 0
278 938 -894 0
-822 530 55 0
528 -704 -811 0
53 605 218 0
776 -148 -621 0
90 856 -806 0
-227 808 -445 0
207 285 -219 0
264 697 -101 0
-116 -341 -159 0
662 130 -546 0
-165 -379 701 0
141 813 506 0
140 -284 217 0
-373 326 228 0
-337 -501 101 0
483 -657 798 0
-670 -769 617 0
-969 125 605 0
390 -716 -19 0
474 -478 -993 0
184 591 -277 0
961 -145 -820 0
-439 -315 -656 0
690 -522 -294 0
-450 -602 -1000 0
-597 58 -153 0
-618 602 824 0
407 803 -997 0
155 563 -282 0
-846 -526 110 0
-420 -711 -368 0
827 148 -34 0
-509 -381 983 0
208 -735 -162 0
872 648 672 0
725 4 -148 0
269 -481 808 0
511 328 325 0
-131 -712 860 0
761 -864 -454 0
-306 -389 -995 0
672 -8 970 0
73 819 511 0
344 -339 -292 0
834 -127 -762 0
-896 873 -185 0
-215 969 -220 0
-458 -212 -681 0
706 -256 890 0
-29 -441 18 0
156 412 914 0
-772 -359 358 0
8 985 159 0
457 100 511 0
707 794 -149 0
375 317 95 0
-433 923 719 0
839 540 376 0
154 484 40 0
-177 393 152 0
-75 331 -391 0
875 476 348 0
864 620 -394 0
-404 683 867 0
135 712 270 0
96 878 999 0
225 694 62 0
306 -395 993 0
770 -111 700 0
704 14 262 0
-925 -565 -392 0
732 -95 -945 0
-806 690 -961 0
-901 771 397 0
-965 -675 232 0
171 -194 271 0
-545 20 834 0
-377 -449 -880 0
466 -542 -595 0
395 868 -874 0
646 106 -267 0
322 -2 -114 0
-606 628 -554 0
166 327 711 0
555 -641 -414 0
842 -643 281 0
2 633 -695 0
139 -35 -274 0
-164 541 -702 0
-875 877 52 0
-3 754 900 0
-21 -707 -928 0
14 -865 -430 0
99 996 497 0
-616 -578 -914 0
-74 132 -580 0
-552 -473 -784 0
150 948 -288 0
-662 -657 -413 0
-902 899 54 0
664 -477 954 0
399 -49 945 0
-544 -286 -231 0
-921 -732 -793 0
-475 308 403 0
-906 -334 -536 0
-466 103 -791 0
-381 -455 556 0
-681 216 -977 0
-551 -121 -333 0
968 616 598 0
278 153 933 0
-399 -958 -311 0
764 56 -423 0
523 547 164 0
179 887 395 0
144 -488 496 0
-566 -921 -97 0
-428 120 888 0
-697 -523 -344 0
199 253 -961 0
769 -409 279 0
537 426 338 0
58 967 558 0
74 870 512 0
-971 33 214 0
905 -621 726 0
-920 -709 -169 0
211 -253 964 0
-586 -129 -505 0
-527 -847 826 0
-333 -879 -956 0
912 -55 282 0
33 -426 -851 0
263 732 776 0
338 931 135 0
-353 530 610 0
879 -403 -716 0
-951 181 208 0
933 258 932 0
-588 -502 -912 0
-592 109 -404 0
-668 51 42 0
202 852 -315 0
-893 830 -573 0
307 907 534 0
-940 769 805 0
301 615 844 0
808 540 179 0
768 -480 723 0
-454 140 -534 0
178 621 15 0
-961 -324 -362 0
-293 -962 287 0
-108 -505 -141 0
-830 172 230 0
-755 663 575 0
-9 -491 -331 0
355 316 -270 0
148 -461 -788 0
998 -435 262 0
-170 -869 637 0
557 535 -613 0
413 -555 34 0
-345 -744 641 0
-992 -161 326 0
-274 -407 -133 0
-379 950 806 0
368 369 40 0
-541 -153 520 0
-316 152 50 0
-552 702 845 0
-951 453 437 0
-496 -628 -931 0
-681 -957 815 0
813 370 -525 0
-896 851 -342 0
440 -113 -677 0
-389 -768 181 0
-857 309 841 0
717 -736 -583 0
954 -959 121 0
-80 418 -535 0
-283 -471 684 0
36 719 -980 0
983 -537 -992 0
-623 211 647 0
-500 -847 875 0
382 -297 225 0
-129 -959 -777 0
738 178 115 0
-297 95 663 0
-338 166 646 0
-7 -383 -967 0
318 203 -213 0
-832 -954 -143 0
714 -177 -410 0
-203 -19 -961 0
912 -629 138 0
-284 3 169 0
222 -720 -466 0
-561 383 -341 0
41 844 -385 0
984 -874 -335 0
-108 851 -652 0
324 -81 -527 0
399 -883 -366 0
-286 -664 378 0
-589 -363 766 0
627 -736 99 0
-914 149 -29 0
-324 746 -72 0
601 -631 -329 0
-811 464 458 0
375 -25 834 0
-677 -52 -551 0
-612 -927 -362 0
-909 -34 667 0
-82 -320 -430 0
620 -668 -52 0
-175 -524 -380 0
576 -549 773 0
888 759 815 0
294 467 -849 0
677 99 808 0
-972 -365 -489 0
427 490 -711 0
-450 263 508 0
-269 203 691 0
117 124 -370 0
645 430 747 0
-851 874 -244 0
-415 618 341 0
-10 -102 -924 0
865 -747 944 0
253 566 -388 0
243 91 -105 0
359 -6 -620 0
713 -266 -754 0
-41 131 -809 0
713 297 -954 0
667 -141 -662 0
843 -69 980 0
-793 -264 -320 0
-708 -191 353 0
870 531 -424 0
103 -944 -644 0
-748 -446 -789 0
446 -358 -510 0
45 192 -875 0
307 -18 146 0
-365 381 -561 0
-64 -948 255 0
579 -251 667 0
745 248 -870 0
291 307 186 0
517 244 970 0
-343 -507 -26 0
-846 -717 363 0
-528 191 -776 0
-901 431 731 0
158 -942 -385 0
-931 923 -771 0
823 -192 718 0
999 69 993 0
-178 -873 -722 0
846 127 -658 0
-230 -313 -955 0
-923 -542 -139 0
-534 -540 -14 0
401 -910 -857 0
-529 -955 -783 0
-252 -620 -427 0
-297 -301 -910 0
-281 -363 356 0
569 457 -71 0
744 -574 -134 0
-507 -211 727 0
-332 532 -681 0
-10 516 -494 0
838 862 -514 0
-270 351 5 0
661 -347 -7 0
-228 -403 -234 0
1000 -725 -854 0
349 754 69 0
546 655 -816 0
810 -849 852 0
-200 -168 663 0
663 405 367 0
458 326 89 0
-795 -799 -767 0
-192 -181 -768 0
81 7 952 0
400 -712 -585 0
-926 -769 306 0
660 763 76 0
-485 965 330 0
942 -52 608 0
594 -332 -737 0
-375 271 -494 0
97 151 461 0
-579 -522 -557 0
-908 -469 -382 0
562 555 720 0
234 -648 236 0
-670 431 129 0
-822 -431 646 0
-216 -414 -371 0
-400 -874 167 0
-373 644 -275 0
114 304 -790 0
-22 924 -13 0
340 671 -776 0
-82 399 235 0
687 -591 521 0
-739 431 613 0
400 887 54 0
-618 -908 -457 0
573 539 -855 0
-467 -69 -784 0
-882 -729 -129 0
611 -122 156 0
-100 -691 -574 0
846 133 579 0
-331 172 419 0
-184 -526 812 0
-164 298 -675 0
-804 -579 869 0
-511 610 272 0
-588 227 -885 0
127 -27 -355 0
-175 -261 593 0
-665 -452 759 0
301 -219 544 0
-292 458 355 0
-274 499 -766 0
-7 279 -314 0
-674 -942 77 0
949 -624 -915 0
182 -40 326 0
510 172 -460 0
-521 476 -247 0
632 921 167 0
938 280 456 0
-254 63 -290 0
554 -799 -377 0
-312 -792 301 0
-809 -209 -991 0
-127 614 -602 0
-962 533 -904 0
-801 -60 -538 0
-135 -55 -249 0
-331 322 -212 0
-241 553 -966 0
-131 379 -554 0
187 -863 -631 0
-274 287 481 0
450 -742 -902 0
-896 -681 654 0
850 -684 608 0
538 964 882 0
246 -730 532 0
-449 -841 213 0
-912 425 249 0
-420 -514 871 0
-394 -197 -444 0
-820 69 313 0
721 -499 140 0
186 60 -448 0
-742 510 853 0
896 -872 330 0
-493 -159 284 0
887 -828 72 0
899 -969 417 0
-92 776 -924 0
-16 -884 329 0
-879 965 -105 0
582 965 -720 0
-600 260 -91 0
519 278 123 0
-916 867 86 0
-371 -521 906 0
309 519 -859 0
-961 754 -319 0
-787 842 316 0
-711 758 -39 0
259 -232 -328 0
494 826 239 0
-685 673 -262 0
135 264 299 0
-834 293 -733 0
728 -380 472 0
139 434 -165 0
-361 310 -633 0
15 -439 75 0
-256 679 592 0
309 -722 464 0
-391 -113 601 0
573 -581 -855 0
-146 -222 -688 0
-231 944 838 0
227 -425 9 0
-978 165 -345 0
138 560 -472 0
-30 -915 -4 0
329 -466 -398 0
-533 -649 -62 0
257 238 -190 0
67 910 -307 0
355 -880 178 0
938 -772 -63 0
-331 630 524 0
484 -53 256 0
767 -122 -61 0
-874 -239 -154 0
911 -871 711 0
133 -748 365 0
79 985 -681 0
-796 7 42 0
-305 -222 -88 0
-371 459 -923 0
-63 -338 976 0
-183 810 -679 0
-719 648 193 0
45 -634 -190 0
-884 -655 -409 0
248 11 -66 0
-57 944 -169 0
359 -209 440 0
392 413 339 0
376 -22 637 0
296 -518 -219 0
798 -390 -464 0
-467 -862 754 0
682 -791 125 0
319 685 -513 0
600 324 403 0
995 873 -606 0
-985 181 428 0
933 -228 -74 0
928 821 527 0
-440 637 109 0
379 -847 -774 0
-246 751 120 0
969 -73 436 0
-393 887 96 0
213 -122 -292 0
571 -284 999 0
-45 16 932 0
872 8 -984 0
-470 296 -985 0
16 -630 406 0
-405 239 529 0
-476 767 312 0
674 -40 -18 0
164 -353 554 0
333 -489 -671 0
92 -431 -390 0
105 314 745 0
-91 379 -966 0
-397 399 -932 0
-997 834 552 0
937 -445 308 0
874 -498 -574 0
224 -421 -71 0
-157 710 -652 0
-953 -386 305 0
-69 -541 -87 0
798 -769 940 0
-776 -617 -306 0
625 -329 265 0
852 470 -304 0
756 -245 -570 0
-844 613 -779 0
-693 -181 -659 0
277 931 716 0
176 -177 -556 0
-933 425 -191 0
3 -220 905 0
39 871 505 0
-96 601 -632 0
-869 -578 -258 0
-356 939 -558 0
269 212 -172 0
-424 15 -250 0
937 -52 161 0
-563 150 -583 0
401 333 644 0
-81 -150 -524 0
803 688 -987 0
-725 765 30 0
-223 -642 810 0
27 -505 -777 0
284 917 -269 0
-872 439 658 0
-757 -703 -5 0
-199 -331 937 0
-113 -308 128 0
635 -276 -739 0
212 -780 543 0
956 -952 -310 0
-385 315 616 0
366 525 900 0
457 522 -676 0
510 -10 -447 0
-867 -719 -772 0
420 372 -211 0
953 -295 338 0
-801 -528 -982 0
-330 149 366 0
964 -734 -952 0
-712 180 -502 0
541 502 -373 0
-647 695 100 0
-832 -27 -356 0
-351 541 660 0
-255 -112 -967 0
-45 -202 954 0
112 566 322 0
-838 -520 -32 0
302 292 -113 0
320 -445 -686 0
177 -175 -208 0
-161 -947 -962 0
-951 574 810 0
-416 566 -229 0
462 -444 35 0
-379 -551 -679 0
460 -943 713 0
-400 -986 -124 0
191 840 -387 0
-881 -48 423 0
-703 -527 -132 0
-445 151 705 0
-384 437 -351 0
39 703 -909 0
387 695 428 0
138 618 -264 0
-83 534 -364 0
510 -470 -851 0
-286 -923 -947 0
976 -694 73 0
-75 593 824 0
287 433 391 0
-447 -251 467 0
-931 611 -411 0
-172 996 504 0
-390 491 -102 0
-560 334 -248 0
337 -877 -587 0
-173 378 -543 0
-853 202 455 0
481 312 35 0
279 795 -809 0
486 -466 815 0
-974 -113 -133 0
-975 -558 -911 0
71 -500 171 0
984 -871 -108 0
162 701 668 0
-107 -9 327 0
374 603 508 0
10 -683 -143 0
965 -422 -635 0
-787 176 -273 0
890 -210 -12 0
-864 -893 -243 0
-163 -22 -155 0
-257 359 417 0
427 -908 -507 0
-536 649 -569 0
858 556 452 0
749 -311 670 0
587 -339 71 0
-70 -436 -518 0
308 -604 -795 0
644 -531 903 0
-592 456 589 0
41 -561 483 0
20 785 -404 0
-539 773 -59 0
461 -80 -655 0
267 -506 770 0
815 -131 -425 0
927 585 -294 0
-281 -989 -266 0
-367 -481 -239 0
-303 -775 356 0
948 497 -599 0
911 -132 644 0
139 826 602 0
-525 -760 979 0
478 59 870 0
-994 -696 993 0
69 488 492 0
-383 627 -28 0
-74 125 769 0
746 67 -171 0
-28 -96 -353 0
-237 -646 319 0
-453 259 -333 0
307 -15 511 0
-374 454 121 0
710 514 521 0
-580 -270 -917 0
735 -599 -879 0
-118 -577 480 0
-231 974 793 0
29 -310 936 0
391 -979 124 0
-861 -190 424 0
510 -70 409 0
-356 210 635 0
-675 78 264 0
579 -326 723 0
562 -106 -895 0
984 -146 486 0
-190 -112 -1000 0
-352 -901 -517 0
205 970 -366 0
666 539 210 0
283 145 848 0
94 535 -31 0
-817 513 418 0
-960 613 168 0
-167 -337 -914 0
399 -986 -579 0
857 -414 -591 0
633 51 -146 0
494 905 -107 0
360 -330 674 0
131 330 -623 0
955 -302 -899 0
753 16 -246 0
-333 179 -614 0
-174 -261 19 0
356 370 -319 0
-381 121 239 0
441 294 287 0
72 -591 51 0
928 741 -293 0
-358 555 -846 0
-474 386 844 0
-567 -100 971 0
-439 94 174 0
964 -855 120 0
-28 234 914 0
-655 689 994 0
938 433 669 0
-476 750 -422 0
375 -164 -8 0
-666 747 43 0
-918 777 840 0
121 29 -8 0
-702 4 608 0
642 -219 549 0
-31 109 -177 0
-124 -574 852 0
-67 -922 248 0
-598 710 919 0
-923 654 305 0
-299 -926 714 0
324 868 930 0
45 -314 -108 0
-529 213 -357 0
861 361 518 0
387 -533 500 0
-192 363 -866 0
194 470 -260 0
741 9 -684 0
-816 -964 972 0
342 48 773 0
824 458 400 0
572 -621 -976 0
909 477 -283 0
-270 -21 -221 0
40 960 -766 0
192 591 727 0
453 612 -492 0
886 -150 -160 0
809 988 56 0
375 893 256 0
581 -106 651 0
-22 -180 -624 0
-889 -658 -827 0
797 800 773 0
-135 -507 84 0
-139 66 923 0
460 11 859 0
-95 637 -411 0
-247 -222 -216 0
-245 446 -817 0
892 663 129 0
-298 45 -721 0
430 -309 76 0
-967 300 -632 0
516 -180 934 0
-249 481 75 0
-444 -565 -136 0
-428 659 472 0
449 -949 804 0
101 -495 831 0
588 273 407 0
-95 -443 -733 0
423 -755 803 0
-521 922 273 0
56 -231 -353 0
-45 144 182 0
-645 995 -691 0
46 472 -532 0
889 110 -257 0
530 -575 -66 0
-790 889 35 0
-347 -310 -926 0
-533 291 28 0
106 -704 -981 0
-343 -591 464 0
913 -114 -43 0
-22 633 501 0
-985 657 917 0
-911 573 227 0
-485 -878 -444 0
-674 389 678 0
-82 388 -495 0
637 747 849 0
-955 222 595 0
136 -104 -997 0
-24 -368 -556 0
769 -495 -302 0
276 -916 -353 0
-148 296 166 0
945 457 732 0
924 674 258 0
-357 -352 25 0
929 -683 -14 0
-263 -153 456 0
261 -323 615 0
-263 -76 -265 0
-602 872 295 0
458 -762 -673 0
-888 47 279 0
-650 -214 -216 0
921 -773 114 0
805 -746 606 0
49 582 -721 0
-185 -584 735 0
-837 987 -623 0
740 -524 140 0
680 533 681 0
843 -465 -113 0
692 -440 645 0
712 108 290 0
-400 -558 -442 0
820 379 -830 0
-1 -131 -58 0
342 -202 -105 0
-390 434 -844 0
-787 -685 739 0
575 -507 915 0
184 -381 768 0
729 305 581 0
-160 179 32 0
-563 315 -801 0
-666 580 -3 0
-70 892 -554 0
2 -487 -506 0
301 -562 -452 0
414 -807 810 0
-383 -425 -836 0
752 -761 151 0
-670 441 506 0
-201 -6 -975 0
-739 898 -576 0
171 195 -33 0
-843 -365 952 0
623 -353 451 0
-791 835 -904 0
-279 851 -390 0
-627 648 -18 0
-435 44 -594 0
8 -895 635 0
690 940 -459 0
-559 -376 -363 0
-601 434 273 0
-451 -221 983 0
745 554 -592 0
486 -403 765 0
942 -699 -105 0
-323 154 -593 0
443 694 839 0
454 409 289 0
-264 -171 -610 0
624 303 11 0
204 901 194 0
-401 -480 207 0
-681 -87 -542 0
314 -307 -512 0
59 949 462 0
900 8 -298 0
-591 -43 -210 0
233 745 672 0
45 -986 -39 0
462 -639 290 0
-786 -910 -299 0
-366 475 598 0
-805 -507 -968 0
551 472 754 0
-696 835 740 0
-255 4 405 0
-945 43 -716 0
985 -646 -975 0
75 -258 -359 0
-664 -124 -441 0
-306 -250 9 0
-130 936 94 0
843 -526 -343 0
329 682 51 0
-486 -520 166 0
74 828 28 0
-468 -672 175 0
446 561 -255 0
612 -276 260 0
-323 -736 356 0
635 936 -954 0
-252 530 -140 0
856 39 611 0
42 -253 801 0
765 400 24 0
-262 896 -269 0
611 -858 44 0
585 -764 204 0
-706 -403 -784 0
-965 -659 815 0
-251 558 -427 0
-374 -978 -206 0
-180 -345 -768 0
-779 521 954 0
120 -711 232 0
-311 -40 915 0
-482 -676 261 0
246 -95 -737 0
-953 923 399 0
583 -58 -985 0
388 -391 747 0
97 689 -91 0
930 -434 685 0
-309 -259 -540 0
-162 -166 620 0
684 -39 64 0
-939 87 719 0
-282 470 698 0
-506 -505 70 0
-726 -711 606 0
396 -1 119 0
997 -848 -58 0
-883 672 681 0
-339 886 -687 0
414 -464 -428 0
135 332 438 0
276 685 -555 0
561 -308 -494 0
122 560 6 0
463 663 -818 0
192 535 375 0
361 295 982 0
-152 -497 -721 0
485 605 -48 0
783 -613 777 0
-532 -150 125 0
-572 210 956 0
-131 979 874 0
-59 740 -393 0
-55 839 117 0
80 414 140 0
708 -869 -492 0
-482 -244 -280 0
742 454 548 0
-7 705 -753 0
-568 -894 -572 0
128 499 58 0
-930 -502 396 0
521 -940 847 0
448 -824 -687 0
-218 706 -931 0
-484 -969 601 0
-518 -608 334 0
-106 610 942 0
397 -808 -88 0
832 761 803 0
643 -654 890 0
365 -730 919 0
385 -63 323 0
491 -750 232 0
-447 449 737 0
405 305 736 0
-392 -818 493 0
790 968 -593 0
219 -704 659 0
-530 95 -163 0
209 -34 -497 0
485 -972 414 0
699 325 -714 0
931 907 588 0
-940 397 -460 0
-218 -512 87 0
359 918 -406 0
-3 820 793 0
314 -234 -689 0
157 -308 40 0
-917 -215 163 0
894 310 220 0
624 903 -60 0
975 71 -843 0
-163 652 348 0
973 -740 -497 0
-598 -141 -587 0
575 -6 920 0
-741 371 640 0
-685 724 -934 0
-183 -443 -361 0
148 69 459 0
-706 315 -226 0
-561 661 79 0
-293 -946 680 0
-492 752 -484 0
-405 -393 -226 0
466 -747 417 0
-218 -354 -913 0
312 -56 -843 0
-289 374 -210 0
545 303 286 0
-483 664 89 0
-583 498 758 0
297 481 275 0
-116 -707 -250 0
771 901 691 0
55 836 -332 0
173 821 -284 0
-492 -165 200 0
-616 282 -607 0
-12 -897 -823 0
519 -539 817 0
801 -699 -524 0
-773 39 -662 0
285 -783 180 0
-369 -212 -375 0
912 303 -448 0
313 -2 998 0
134 -840 -139 0
-648 419 -368 0
167 -379 -162 0
-418 668 922 0
761 -358 -604 0
557 344 929 0
-273 352 408 0
-937 91 -24 0
956 -251 690 0
-231 -203 -85 0
319 374 -894 0
308 -903 170 0
-328 -392 416 0
-650 -420 951 0
-574 -723 950 0
-925 711 817 0
-895 310 -646 0
-584 940 -479 0
-388 654 -73 0
624 -748 798 0
315 740 137 0
-603 985 -371 0
-322 259 419 0
-390 522 689 0
792 565 -60 0
-727 689 406 0
-935 -181 543 0
-259 -458 -109 0
840 -123 -999 0
-947 -872 -601 0
-243 965 -947 0
-755 -26 329 0
65 -883 -308 0
-170 248 -993 0
115 628 -445 0
-343 536 21 0
-404 934 130 0
713 446 957 0
-638 -240 148 0
-738 135 41 0
-679 557 874 0
504 791 331 0
-1 -394 733 0
-425 -883 -362 0
-16 627 409 0
-6 -623 183 0
-542 848 727 0
633 -808 -327 0
317 672 493 0
-131 289 367 0
-955 805 -253 0
946 -569 -83 0
-368 -95 855 0
885 51 615 0
411 -337 -436 0
-602 893 -949 0
-38 632 -414 0
376 -144 -957 0
-568 -975 -732 0
-758 681 645 0
-13 642 556 0
-391 759 137 0
908 34 759 0
595 107 -994 0
-373 -347 -286 0
-873 -529 24 0
-255 -822 513 0
-925 -329 -283 0
-57 757 -727 0
468 -687 -859 0
-291 -107 282 0
-618 562 211 0
274 141 955 0
-315 -426 -89 0
-148 697 -460 0
-891 952 662 0
950 -917 -552 0
855 425 544 0
662 936 109 0
527 59 782 0
-648 446 -492 0
-407 55 -602 0
290 107 -868 0
17 781 684 0
-97 973 879 0
-284 569 54 0
140 639 300 0
724 12 -51 0
-641 -461 823 0
751 717 -511 0
73 -899 -196 0
636 -686 -679 0
-457 -492 -925 0
616 -221 -760 0
-400 -48 -936 0
637 53 703 0
-977 367 716 0
382 -726 601 0
-17 364 -821 0
694 48 855 0
382 227 212 0
-794 -759 -717 0
746 349 -17 0
-968 -671 -365 0
108 437 412 0
915 -416 423 0
-599 -750 850 0
660 37 -366 0
-757 -69 -842 0
-790 119 -277 0
792 -82 -992 0
34 -978 -153 0
615 309 990 0
543 323 -269 0
-644 546 -59 0
-798 -211 -402 0
37 21 769 0
316 227 -716 0
731 -72 242 0
-636 -208 162 0
-846 -640 83 0
822 -246 -228 0
-304 463 -302 0
-268 -407 -873 0
971 -997 535 0
-914 -37 666 0
-822 -472 526 0
-131 142 -604 0
177 -338 81 0
839 -706 -752 0
315 173 -447 0
304 837 -591 0
-546 -494 126 0
244 212 815 0
-768 -602 -333 0
22 -762 -284 0
121 905 509 0
413 -384 -967 0
561 614 425 0
-273 180 -603 0
-634 -593 -580 0
-993 -675 76 0
-612 426 625 0
-8 -101 382 0
-708 -299 47 0
882 -506 240 0
-192 122 -175 0
-75 150 17 0
75 316 228 0
-813 -374 -171 0
74 -773 -632 0
708 -541 440 0
-125 -745 166 0
-610 -715 -380 0
600 -296 -810 0
294 -191 363 0
-387 -252 -660 0
139 -519 -149 0
-695 -821 -425 0
-492 199 752 0
-495 956 163 0
-195 879 722 0
815 458 -998 0
-650 -220 727 0
258 746 526 0
532 -410 430 0
205 -934 -24 0
77 -642 760 0
-648 -547 265 0
950 153 106 0
-898 989 614 0
232 558 102 0
-417 927 142 0
738 546 451 0
885 -162 -684 0
46 -258 362 0
-666 554 622 0
-634 -567 -539 0
388 226 472 0
5 -347 14 0
301 -255 552 0
513 -766 -229 0
635 626 871 0
753 -109 780 0
-840 663 879 0
133 -799 -274 0
498 -616 583 0
182 696 410 0
953 168 339 0
-674 187 -176 0
265 131 500 0
-327 557 -917 0
903 -575 770 0
-730 840 -309 0
291 576 -339 0
-490 720 185 0
651 -800 714 0
-750 -464 165 0
920 -357 -241 0
-773 293 569 0
686 -876 -545 0
833 -824 960 0
-359 -887 63 0
449 436 148 0
-525 476 224 0
-325 309 908 0
-794 -873 731 0
-748 640 472 0
-97 -476 -72 0
137 -761 255 0
893 373 -116 0
-782 557 -411 0
119 -492 -144 0
569 -543 -124 0
-238 -473 -245 0
-645 -247 -943 0
-86 810 -228 0
-153 794 -573 0
-33 -972 -235 0
376 155 731 0
-289 -152 -383 0
174 147 576 0
-327 657 805 0
-223 -879 -623 0
-211 -414 433 0
883 702 -260 0
966 -535 -932 0
157 -579 214 0
107 -362 153 0
-260 -463 330 0
-741 172 566 0
959 480 -637 0
-362 825 581 0
29 -825 900 0
751 978 -914 0
-765 99 362 0
535 -564 294 0
400 689 -329 0
756 338 666 0
554 666 831 0
-820 378 -343 0
-391 46 172 0
-947 -999 167 0
-566 729 808 0
277 166 -989 0
-909 762 -911 0
157 857 -757 0
45 -589 235 0
439 -698 854 0
473 -540 230 0
998 -60 42 0
24 -539 487 0
154 -469 -329 0
472 -754 -502 0
208 -3 365 0
-96 752 -298 0
236 552 -885 0
925 -181 -593 0
-837 821 -746 0
-207 753 617 0
238 978 -448 0
-68 -305 4 0
-997 -589 64 0
140 -21 -448 0
733 -740 274 0
363 -902 438 0
866 -204 -113 0
-567 -133 18 0
737 -491 -899 0
-84 -855 -232 0
-200 -666 223 0
-316 -729 -12 0
582 -929 697 0
870 515 -343 0
-646 -110 100 0
-199 -808 292 0
-177 -667 755 0
-114 962 394 0
-689 -997 353 0
871 -591 -86 0
-21 182 -692 0
650 -591 -131 0
-149 202 18 0
-103 323 -495 0
674 596 189 0
816 -993 -487 0
-667 727 -621 0
463 154 -571 0
-60 -835 -560 0
-494 744 -294 0
-960 559 478 0
178 -4 -645 0
391 6 -416 0
-543 -167 888 0
-148 843 466 0
733 -836 60 0
-217 -532 -158 0
-894 -161 -137 0
397 -245 644 0
796 578 236 0
379 737 -326 0
-321 462 674 0
-876 129 -590 0
-663 -351 237 0
166 267 -528 0
-868 339 -954 0
-664 -397 783 0
-523 -623 443 0
-280 -641 568 0
-460 152 402 0
363 -391 206 0
326 -25 312 0
-348 -566 -806 0
-677 -911 -42 0
7 -118 -416 0
-189 -344 -529 0
613 957 821 0
410 -119 647 0
59 862 990 0
-341 -279 -602 0
-67 583 -124 0
-745 -726 -171 0
-934 -713 524 0
-205 -510 634 0
-645 -470 503 0
510 155 646 0
799 -168 -588 0
-351 -846 808 0
-797 -297 -812 0
225 -805 -720 0
110 124 109 0
426 -130 -717 0
-899 580 -797 0
-285 527 237 0
847 228 475 0
-158 -361 -675 0
-355 214 -220 0
-170 -162 -477 0
-442 -738 366 0
-154 -86 -857 0
483 217 641 0
-754 -683 579 0
-853 203 -457 0
-980 -509 -797 0
-808 843 -183 0
222 573 -22 0
593 124 915 0
50 977 878 0
-977 40 496 0
654 -52 -732 0
196 -596 527 0
-762 -385 521 0
833 -374 873 0
-135 -765 -24 0
-839 -807 962 0
-30 92 -283 0
-988 -869 -578 0
-677 126 389 0
832 818 -680 0
-911 -114 -652 0
-691 -109 -791 0
-646 -911 -122 0
-217 -898 -509 0
624 -459 -446 0
-473 -990 -492 0
-196 436 689 0
690 61 761 0
-256 344 -564 0
-788 -709 -677 0
-686 236 -851 0
-731 -101 896 0
-87 582 -612 0
360 408 776 0
-720 -939 128 0
10 -377 126 0
958 889 -577 0
282 -855 425 0
133 898 -926 0
-892 523 -104 0
-975 -722 197 0
866 -974 968 0
326 439 -822 0
-578 857 590 0
-404 -283 889 0
178 110 464 0
-131 -345 -304 0
-887 115 -723 0
-584 1000 426 0
326 -968 -319 0
535 998 970 0
352 -115 -228 0
-975 663 937 0
173 -27 -521 0
706 527 584 0
542 -337 -719 0
-264 -395 391 0
-202 -121 853 0
231 -381 826 0
272 -586 169 0
-69 -90 954 0
-285 -303 108 0
536 -146 388 0
-915 165 157 0
494 101 621 0
810 347 -502 0
-11 -713 -827 0
19 160 -401 0
-890 843 -75 0
219 951 26 0
-738 -368 -306 0
384 635 549 0
-872 509 317 0
-119 952 560 0
439 -224 -388 0
270 -125 111 0
-29 843 580 0
326 -894 628 0
-670 597 -28 0
885 -659 -182 0
86 -837 -650 0
694 -950 -612 0
180 -824 -351 0
-130 -487 -329 0
651 -425 273 0
-114 -428 -54 0
947 219 -99 0
-129 -704 678 0
-269 -559 303 0
-770 -808 705 0
-931 -741 -987 0
82 975 674 0
-985 -933 195 0
-346 541 869 0
538 -425 -799 0
-30 677 -357 0
-935 -437 547 0
520 237 -738 0
375 -999 477 0
-40 -185 337 0
798 903 -742 0
605 603 -542 0
743 32 974 0
-363 45 -608 0
195 639 246 0
-192 -585 -869 0
-418 260 -690 0
69 475 -54 0
-345 -90 649 0
560 -533 233 0
400 -801 -919 0
-171 812 -769 0
338 970 866 0
-901 722 -907 0
468 -694 798 0
-905 -755 219 0
-50 458 549 0
-144 -592 967 0
102 902 -115 0
951 -89 206 0
-928 762 259 0
160 -615 -256 0
670 613 -372 0
-998 598 502 0
-370 -392 -765 0
-960 -962 -33 0
84 -475 -242 0
378 -634 -775 0
253 -914 209 0
-939 -802 -625 0
34 -599 -2 0
153 62 -443 0
-665 -267 846 0
803 -832 -734 0
-482 161 -147 0
-51 -728 814 0
844 -680 -930 0
-699 -861 -329 0
-472 540 707 0
157 -627 621 0
-283 -985 -61 0
-675 -927 -734 0
414 389 74 0
-394 -776 352 0
469 -474 723 0
-935 973 239 0
736 -526 -612 0
62 -510 -67 0
-832 -482 -654 0
652 974 1 0
124 -748 -878 0
386 337 -853 0
-721 -257 604 0
-112 42 573 0
-694 -49 193 0
-138 -126 928 0
-416 -813 750 0
-259 491 614 0
343 239 668 0
-653 888 478 0
764 -697 -786 0
-271 -857 -751 0
-784 571 -803 0
35 347 251 0
819 73 -317 0
-526 -770 -762 0
956 -982 -849 0
-89 -149 620 0
425 -880 918 0
896 559 -254 0
-330 373 -399 0
-202 -75 789 0
-136 847 530 0
-942 212 -511 0
383 -581 -966 0
-403 553 -865 0
-191 -118 -571 0
130 215 12 0
-952 -782 -519 0
566 -815 -316 0
-432 588 -449 0
-412 894 187 0
319 799 -417 0
-418 -297 85 0
-35 709 -978 0
-242 426 -398 0
-96 -405 -313 0
518 -9 219 0
-442 -106 478 0
-406 -318 457 0
405 67 -261 0
-246 -635 996 0
-891 755 -730 0
413 255 135 0
-19 506 -563 0
176 -110 -617 0
-558 -535 -172 0
198 -556 39 0
638 971 -580 0
826 -739 757 0
-417 793 -443 0
-644 -382 824 0
826 -200 -260 0
-812 -535 313 0
-743 -611 -298 0
-486 -134 -208 0
35 -436 -839 0
982 282 -125 0
477 -698 958 0
331 -6 857 0
504 -871 -390 0
633 50 230 0
-672 -335 -580 0
-656 948 -970 0
-141 -12 -461 0
359 -329 811 0
-956 -475 998 0
252 387 379 0
-60 856 335 0
-540 396 888 0
45 729 -60 0
96 225 232 0
463 958 333 0
-284 -838 -547 0
344 113 725 0
-499 -428 61 0
-147 207 737 0
-624 -926 -183 0
295 305 978 0
952 -379 314 0
672 970 83 0
-337 491 -258 0
-331 116 668 0
-575 779 234 0
-714 647 -294 0
930 -898 -956 0
-998 -767 -794 0
-765 -810 499 0
-273 854 -291 0
440 810 -840 0
-637 546 686 0
259 -492 -966 0
922 764 -428 0
-647 -359 855 0
-174 397 -843 0
-589 -752 -805 0
353 576 -412 0
209 -898 223 0
854 916 -171 0
-397 245 110 0
16 676 -827 0
933 511 456 0
-201 423 -238 0
-752 -44 959 0
222 586 -56 0
-92 -321 -576 0
633 -346 760 0
54 555 710 0
-299 132 237 0
349 544 -192 0
-645 -565 319 0
670 -882 881 0
884 947 410 0
652 -472 -639 0
181 -557 58 0
845 -831 -496 0
333 -707 51 0
409 -164 -710 0
387 223 26 0
289 964 92 0
-730 -13 289 0
-910 -543 -889 0
-464 -626 -745 0
643 365 -950 0
648 475 71 0
934 321 -581 0
761 -986 -162 0
987 -799 -720 0
-47 -636 -461 0
401 572 -778 0
726 -656 95 0
134 997 -772 0
-867 255 857 0
356 -358 -490 0
-550 651 570 0
-123 891 453 0
-810 285 291 0
600 343 486 0
777 -638 -60 0
182 -315 -434 0
462 280 803 0
-907 926 354 0
69 303 -706 0
225 -13 518 0
-94 -523 -968 0
435 106 667 0
-559 -954 -189 0
795 -299 -5 0
-563 483 963 0
-50 875 -587 0
237 -599 -2 0
-356 -566 854 0
261 853 154 0
-517 822 -158 0
752 666 454 0
454 -254 497 0
514 -244 -561 0
498 -932 702 0
858 -88 506 0
767 -106 -191 0
-498 658 -589 0
659 -546 749 0
-844 224 51 0
-67 443 -543 0
169 639 -612 0
-572 875 708 0
371 262 -344 0
31 963 -601 0
-363 -972 131 0
-320 -891 399 0
-83 171 530 0
546 -275 -976 0
-309 794 -633 0
682 449 762 0
-319 -459 -232 0
657 521 135 0
-11 630 660 0
-312 -166 -892 0
336 46 608 0
920 856 312 0
892 321 692 0
-212 55 -104 0
277 -867 761 0
698 -919 -54 0
-919 -54 505 0
445 -35 -976 0
827 524 478 0
-200 625 407 0
-869 976 167 0
-889 45 -286 0
346 -43 -137 0
-635 369 109 0
-974 230 582 0
-862 292 -871 0
360 -258 -897 0
825 922 116 0
641 -404 106 0
129 -456 780 0
192 838 -983 0
261 -561 -995 0
-863 -883 177 0
832 -460 242 0
68 497 308 0
-28 -574 -475 0
-761 -821 -621 0
-461 -85 958 0
960 -231 -418 0
111 7 964 0
442 -560 618 0
665 647 -785 0
671 -395 154 0
-429 -279 -672 0
-180 540 356 0
968 183 -989 0
-613 139 242 0
604 523 -78 0
-89 99 -656 0
-45 497 -889 0
-851 354 -428 0
704 -848 -356 0
403 719 423 0
-252 -123 509 0
71 -568 -989 0
-430 374 638 0
-519 -108 414 0
-242 -323 -264 0
-593 -644 134 0
676 -658 294 0
-177 246 907 0
-67 -868 485 0
233 411 676 0
527 663 -298 0
-19 269 489 0
-297 -254 -850 0
871 546 -626 0
812 -818 479 0
-960 -587 -883 0
-903 252 -221 0
-328 -57 -997 0
-658 -744 210 0
343 -511 194 0
-701 -155 100 0
94 -535 190 0
-266 -282 -990 0
-218 20 207 0
-733 896 701 0
625 169 966 0
189 249 768 0
-8 -609 -939 0
-487 -396 -412 0
-568 -145 959 0
-412 390 276 0
-787 244 -348 0
-332 366 -666 0
-158 732 50 0
-304 419 124 0
-896 403 -493 0
-702 -81 342 0
-812 477 -674 0
845 674 -646 0
960 -274 -321 0
309 662 117 0
836 -417 224 0
-769 -257 853 0
616 -167 -955 0
800 -949 794 0
709 887 333 0
568 -563 -858 0
205 315 726 0
326 -489 -396 0
-186 836 -436 0
252 456 -726 0
-193 -306 521 0
421 736 -121 0
592 15 -412 0
-854 910 -63 0
74 -26 -295 0
-166 -473 301 0
-871 875 -980 0
-533 834 50 0
-903 369 959 0
358 -634 967 0
-458 718 986 0
781 -878 50 0
-336 -894 -969 0
931 -494 -62 0
939 967 510 0
-301 -825 929 0
936 917 -247 0
-151 487 985 0
259 -587 499 0
506 -758 523 0
316 992 884 0
-260 -484 -679 0
777 -275 22 0
476 122 16 0
837 439 -52 0
787 65 -834 0
388 983 526 0
288 291 359 0
-850 -557 -777 0
72 -76 -919 0
-118 103 -671 0
803 436 211 0
-124 -423 79 0
-914 628 786 0
-587 75 -753 0
926 -168 -829 0
-371 110 210 0
-830 -731 447 0
-781 -876 -39 0
932 -70 256 0
105 785 830 0
-1000 634 -572 0
-117 -209 559 0
-315 786 61 0
-496 -719 59 0
-889 -623 735 0
337 -580 -643 0
614 -646 661 0
100 -644 -921 0
-243 434 -739 0
-749 223 860 0
597 -987 -70 0
122 271 -643 0
67 -629 684 0
975 36 -413 0
29 710 -188 0
946 209 -545 0
349 -71 590 0
775 -446 -226 0
285 816 -467 0
346 255 979 0
343 924 136 0
947 344 -200 0
371 965 521 0
-718 182 -812 0
-661 -426 -706 0
-239 -505 699 0
-800 -153 635 0
603 693 -589 0
490 33 -792 0
27 333 -633 0
-572 -37 -279 0
382 182 -249 0
-692 820 -69 0
-758 -176 203 0
689 -322 -568 0
-682 538 709 0
-273 -379 -939 0
-163 672 -701 0
202 401 -922 0
497 -910 382 0
-648 660 593 0
648 -756 922 0
-498 258 44 0
583 -593 693 0
-279 -477 37 0
-417 -766 920 0
775 -739 -910 0
-614 715 -848 0
-314 524 313 0
-778 -248 743 0
-254 -346 -987 0
-479 -166 882 0
-426 684 163 0
687 723 965 0
-323 300 -717 0
-547 -481 -387 0
-911 -807 -272 0
-541 -808 -620 0
563 -801 -650 0
393 -738 337 0
-675 -556 -81 0
-461 904 -219 0
-359 472 -296 0
227 865 433 0
-636 -529 -313 0
-783 546 35 0
-562 -295 350 0
156 383 -870 0
9 652 -398 0
-497 272 -115 0
-945 -849 85 0
818 231 -938 0
192 87 -633 0
999 777 375 0
-487 264 607 0
-80 -417 -919 0
57 -626 298 0
832 -479 500 0
33 684 193 0
-984 310 458 0
-943 920 488 0
-844 -36 723 0
629 25 -692 0
290 -28 752 0
66 -888 468 0
186 -341 -546 0
112 622 293 0
-183 562 -424 0
-596 -556 -129 0
-366 -699 -773 0
-236 -420 451 0
-270 -627 -846 0
965 423 908 0
-92 -949 602 0
164 -352 368 0
671 -923 370 0
742 -392 -982 0
-100 -656 922 0
-670 -214 20 0
968 978 387 0
678 761 638 0
292 102 923 0
-848 510 -222 0
905 -729 435 0
818 -685 -504 0
172 989 703 0
-186 89 -745 0
-753 -497 620 0
-49 -935 546 0
360 -692 -303 0
-825 -514 866 0
209 -72 567 0
-53 -290 634 0
-262 -941 -181 0
-494 543 909 0
460 -668 279 0
-115 -946 -508 0
-871 -400 -65 0
-97 174 -985 0
304 150 962 0
362 846 69 0
715 726 -465 0
-444 722 -626 0
-74 520 849 0
-560 316 -577 0
-229 -261 106 0
-152 -566 396 0
884 502 -463 0
286 -244 946 0
162 511 -342 0
102 -705 295 0
677 272 262 0
-784 2 390 0
691 685 666 0
553 707 957 0
-18 -194 179 0
28 -855 130 0
-178 588 -475 0
-12 15 -621 0
578 -421 -356 0
-472 -821 727 0
-688 -534 -928 0
-29 -633 791 0
155 -480 383 0
-337 -178 -274 0
-453 -266 905 0
479 4 -980 0
181 807 -582 0
416 -987 -78 0
769 120 229 0
69 -755 -860 0
-766 593 578 0
474 653 249 0
-794 -110 487 0
-343 -798 498 0
108 -789 -994 0
548 -504 -467 0
-235 281 -995 0
-365 837 226 0
-865 950 -107 0
-917 -479 -816 0
190 802 524 0
189 7 -727 0
332 -723 578 0
-372 -263 434 0
-505 761 63 0
786 -93 817 0
-821 -370 521 0
-620 -680 -940 0
334 641 -613 0
-901 633 174 0
-406 -178 -681 0
-89 -112 -880 0
-383 -807 -568 0
-325 580 -954 0
997 443 413 0
745 435 469 0
569 -707 -381 0
-917 -945 -174 0
803 -522 343 0
-36 -958 -556 0
-399 -10 724 0
-927 -122 678 0
-726 -521 919 0
32 633 -855 0
768 -493 -858 0
739 562 834 0
-785 -431 -435 0
-290 -603 -837 0
228 154 -356 0
277 -532 99 0
-463 -574 -119 0
-847 -361 837 0
854 501 -405 0
-551 572 -363 0
-366 42 -181 0
600 -988 -495 0
408 -937 383 0
-869 -330 -942 0
-357 179 636 0
870 -953 28 0
-502 567 -456 0
376 28 363 0
484 656 -327 0
735 648 319 0
-620 -357 532 0
146 -779 211 0
-605 825 111 0
-427 627 294 0
-191 -427 324 0
-907 -523 765 0
-45 -772 81 0
770 953 -871 0
121 347 959 0
-902 122 456 0
893 -323 83 0
893 137 121 0
827 -981 190 0
77 27 -727 0
-244 -783 -566 0
538 -47 -559 0
57 502 -178 0
345 -22 -62 0
779 -693 949 0
885 568 -56 0
316 -13 856 0
445 -828 209 0
-194 -131 270 0
857 674 263 0
-134 -441 532 0
-822 793 42 0
-85 -792 102 0
230 842 118 0
536 466 553 0
-668 -935 -568 0
46 -364 -933 0
-739 -807 90 0
999 -840 -359 0
583 533 317 0
-182 -639 -593 0
408 390 -888 0
685 122 478 0
-786 664 -572 0
-790 181 347 0
-568 979 509 0
788 -945 -514 0
-122 916 978 0
-490 60 -245 0
992 304 740 0
-739 -563 -376 0
797 -391 -388 0
718 -691 -57 0
267 -922 664 0
80 630 -672 0
688 -467 -592 0
-666 -83 654 0
-344 974 367 0
230 -387 297 0
-534 615 551 0
787 -199 788 0
916 -640 494 0
-159 -916 -156 0
-5 -623 -136 0
242 455 350 0
522 -981 -152 0
921 -53 230 0
-945 -355 804 0
940 595 -216 0
-245 541 574 0
535 -612 717 0
426 316 -647 0
307 -314 640 0
-261 -475 -858 0
435 -994 586 0
-522 565 -246 0
101 -743 -874 0
66 -603 321 0
174 735 -285 0
-867 -221 119 0
-738 772 910 0
441 -646 -841 0
-192 917 -134 0
-881 -662 229 0
645 -908 978 0
470 -875 -920 0
812 -462 -315 0
260 766 -136 0
-115 -572 -78 0
313 773 -679 0
467 399 -423 0
452 998 -230 0
-395 593 -722 0
194 713 219 0
-729 186 -850 0
395 365 -448 0
159 296 -962 0
641 -642 -803 0
-334 428 101 0
461 994 -985 0
792 -648 789 0
237 60 353 0
-917 -485 -733 0
-290 -414 -291 0
-539 -444 944 0
-702 -650 -799 0
874 422 597 0
741 157 -878 0
-187 789 361 0
-72 -724 -132 0
373 -161 -339 0
-216 -850 125 0
878 470 503 0
-287 324 -477 0
-138 -611 331 0
664 -770 34 0
732 -142 -897 0
909 -777 -960 0
-917 -920 -192 0
318 -713 -140 0
-532 276 641 0
346 676 791 0
-918 -596 -639 0
-714 -79 85 0
-684 -251 682 0
-449 240 588 0
-496 345 -386 0
-775 626 -346 0
227 -978 241 0
-72 383 384 0
-334 532 702 0
-898 675 398 0
526 916 -939 0
636 -897 678 0
440 -458 -54 0
449 212 261 0
-673 -723 -1 0
-915 754 304 0
-449 41 -898 0
-430 136 479 0
-4 -538 -906 0
-830 -950 494 0
509 -187 821 0
358 112 278 0
-751 -515 -431 0
883 -204 -488 0
17 492 -240 0
-193 546 964 0
-312 670 886 0
-967 -359 791 0
381 -677 -943 0
212 -998 425 0
575 -560 714 0
-283 -245 382 0
448 -198 -492 0
-238 764 268 0
900 352 1000 0
-122 419 287 0
-723 -436 -546 0
600 -988 -920 0
-340 966 893 0
461 644 -971 0
-337 465 700 0
-382 96 -954 0
-352 96 239 0
-119 -191 -444 0
264 979 33 0
-182 327 179 0
-932 106 -963 0
431 601 -680 0
-696 743 592 0
90 -415 623 0
-864 352 -757 0
430 686 958 0
974 -966 753 0
872 -20 -827 0
372 908 -964 0
690 265 500 0
608 -357 -625 0
255 -181 827 0
889 845 873 0
307 -883 301 0
-129 -226 847 0
-480 903 403 0
-909 -200 -713 0
972 -642 393 0
-420 816 718 0
-52 43 286 0
396 536 572 0
238 -173 -735 0
-900 -172 -112 0
-967 482 -65 0
-512 -432 676 0
-356 588 60 0
342 -318 -178 0
-174 -348 71 0
865 366 239 0
-1 -904 342 0
599 155 818 0
-787 -152 -207 0
378 -401 719 0
210 513 -772 0
-856 -593 -455 0
865 995 505 0
508 719 122 0
-723 309 317 0
482 -251 -697 0
-183 -974 -545 0
248 -100 233 0
-367 653 831 0
-443 -192 606 0
939 69 571 0
328 286 -275 0
-55 199 345 0
-418 923 745 0
805 688 -752 0
-447 -268 -224 0
-515 -793 339 0
-628 75 -99 0
126 468 -951 0
138 12 209 0
51 969 136 0
904 -273 143 0
-421 593 -969 0
259 577 452 0
-750 -688 353 0
178 386 460 0
684 -811 709 0
-77 -379 143 0
240 499 -617 0
-187 -81 859 0
-656 78 -633 0
481 -506 -773 0
-549 -494 -681 0
246 -265 -995 0
-385 -502 682 0
333 732 395 0
-835 222 735 0
-332 390 746 0
-803 -266 -941 0
-699 160 230 0
324 45 847 0
403 947 -692 0
853 29 445 0
-777 -791 -120 0
-794 153 249 0
874 -244 -759 0
-391 -721 564 0
-454 -983 115 0
535 246 -509 0
70 892 -43 0
-887 559 -55 0
176 25 318 0
-431 -456 224 0
436 -901 33 0
-546 841 -893 0
645 735 -353 0
725 372 -244 0
-74 -700 327 0
893 396 788 0
-603 483 94 0
-455 -540 -358 0
-333 987 -742 0
757 642 876 0
126 -916 -352 0
-215 5 -949 0
-20 -415 881 0
16 -655 -200 0
362 1 -60 0
-80 108 -359 0
213 -824 524 0
318 -358 849 0
644 568 957 0
871 -589 -205 0
-411 -597 -223 0
700 257 956 0
-860 -690 361 0
697 -9 160 0
-346 581 391 0
588 -703 804 0
488 -563 490 0
-286 832 466 0
-626 -194 -826 0
169 940 561 0
33 -630 425 0
-314 -238 793 0
-100 -11 -518 0
-802 274 531 0
-167 979 -101 0
85 -30 966 0
126 538 -837 0
470 393 -186 0
338 1000 61 0
-807 469 -704 0
-632 -896 -404 0
-494 -81 -691 0
-69 -802 250 0
711 -998 -448 0
-316 -852 -148 0
967 671 575 0
638 216 -70 0
109 950 -529 0
-387 687 -294 0
-613 -322 -188 0
690 -426 900 0
811 198 -761 0
929 109 -15 0
-85 -440 720 0
363 -26 67 0
-275 -373 -760 0
465 706 423 0
614 849 -399 0
-883 279 -806 0
478 -195 782 0
825 -416 -249 0
-514 -827 -872 0
-445 532 -863 0
-532 14 -137 0
-395 -963 -574 0
156 -136 -13 0
124 190 938 0
-400 -280 875 0
347 -3 -579 0
-929 170 -918 0
-226 860 -843 0
-286 819 -32 0
278 -974 -457 0
210 850 -248 0
720 -415 787 0
-623 -562 665 0
840 652 -193 0
897 -72 806 0
-10 -528 419 0
394 -477 -451 0
498 583 -107 0
123 -366 -110 0
-797 -607 -423 0
503 700 860 0
-940 -200 -910 0
549 84 -867 0
816 -183 -771 0
-592 -989 690 0
341 -181 563 0
955 -335 965 0
-118 -320 -701 0
-249 949 -859 0
40 135 -772 0
-527 -964 -922 0
-967 -291 896 0
-636 534 -488 0
417 849 966 0
459 -422 600 0
-735 559 720 0
-554 -224 -25 0
-767 -896 415 0
594 -852 242 0
-317 778 -161 0
148 -983 -475 0
671 -270 -609 0
247 358 203 0
-469 -903 488 0
595 -320 -862 0
787 -715 -315 0
-405 994 258 0
511 928 -965 0
-601 457 505 0
-283 -579 483 0
-782 -350 157 0
111 -904 -132 0
742 295 273 0
948 -998 823 0
-140 805 415 0
403 -28 -980 0
-545 -35 995 0
375 -355 -935 0
-372 56 -309 0
916 425 994 0
-759 238 -834 0
-317 -972 -714 0
132 995 225 0
-644 829 914 0
-997 602 -185 0
-293 -985 -341 0
404 -403 57 0
-157 470 519 0
-402 17 -486 0
12 -453 466 0
-192 -624 -528 0
44 533 720 0
810 152 872 0
-601 -127 -475 0
990 635 -534 0
-794 868 392 0
867 926 -433 0
-208 -146 141 0
-822 317 -824 0
35 12 990 0
325 941 -367 0
-540 -761 -649 0
413 -289 -301 0
-871 -771 -166 0
155 751 516 0
-632 -82 474 0
651 93 997 0
883 -165 10 0
772 715 194 0
-367 -71 151 0
-755 664 403 0
-663 260 254 0
-913 -29 590 0
-430 -406 -279 0
554 117 924 0
-42 217 13 0
-360 145 469 0
-293 764 399 0
583 447 -215 0
-989 -908 -846 0
614 -72 -131 0
5 -806 789 0
-242 -318 868 0
-557 138 -867 0
-998 899 107 0
477 -770 390 0
-772 -516 674 0
621 617 -103 0
-825 -822 -445 0
186 -4 -428 0
939 212 -526 0
159 -919 -481 0
-888 -820 -980 0
-759 80 520 0
-324 580 -65 0
-108 401 121 0
-435 708 188 0
180 -237 973 0
-682 906 -850 0
-687 602 -232 0
234 193 -252 0
838 289 -786 0
355 -631 649 0
441 721 410 0
-506 201 -916 0
618 724 478 0
700 -845 -704 0
-619 -263 -419 0
-442 696 -593 0
990 895 600 0
-776 -631 -519 0
409 464 -583 0
-147 155 997 0
-702 524 191 0
-236 -540 -221 0
937 713 269 0
-973 187 -687 0
-211 -401 -311 0
-71 -189 -989 0
-911 313 -776 0
229 984 -452 0
-322 -348 566 0
643 -217 -501 0
521 294 -732 0
187 -470 -231 0
-713 -825 919 0
-263 -736 -785 0
618 -311 -280 0
-67 -972 488 0
-688 -214 576 0
-935 -556 -826 0
-622 -5 -646 0
433 449 -144 0
755 -412 49 0
-905 -101 -759 0
-551 733 952 0
-404 -908 686 0
-591 -24 955 0
855 -635 -531 0
277 107 -824 0
-475 -123 -935 0
-887 743 -801 0
-213 255 430 0
-488 -774 945 0
-783 273 -31 0
-861 -707 -998 0
715 568 316 0
284 763 537 0
686 -401 471 0
654 -334 662 0
-452 -516 -375 0
201 -501 575 0
-536 -633 11 0
-470 618 -42 0
364 54 -595 0
-145 225 846 0
-438 -551 552 0
358 -497 -826 0
-479 390 -449 0
-257 226 586 0
4 -652 440 0
288 -27 -798 0
-943 674 -62 0
399 26 900 0
65 -686 200 0
821 558 -785 0
126 -994 765 0
826 -513 475 0
172 -529 -451 0
-430 -431 -622 0
549 -380 -756 0
968 588 187 0
704 734 -648 0
113 927 932 0
418 414 62 0
-39 927 495 0
-245 839 -291 0
-190 861 -75 0
519 -195 178 0
446 965 -500 0
426 584 -516 0
554 510 -827 0
-190 -362 426 0
-886 -418 549 0
-963 161 -788 0
724 -26 -179 0
-336 -821 -815 0
325 -739 -20 0
-979 -115 437 0
909 -900 496 0
-995 -629 -119 0
-230 873 792 0
-288 592 -558 0
-48 -96 -120 0
-860 -374 -234 0
920 -986 -191 0
-886 -815 648 0
-469 253 -715 0
-51 -496 -382 0
-349 -710 12 0
724 -306 -548 0
-673 749 -901 0
-260 -436 -731 0
-658 348 -181 0
-720 831 -393 0
634 -43 -982 0
-728 214 -487 0
-497 -214 798 0
-942 -244 -19 0
414 -854 133 0
-658 -873 -778 0
-518 576 -378 0
602 -705 700 0
-234 -621 916 0
-172 -848 811 0
-98 -922 143 0
-486 -891 310 0
480 322 -54 0
401 742 507 0
-266 -253 -419 0
-523 -503 172 0
-575 124 784 0
231 808 -498 0
-493 -362 858 0
-829 -477 -520 0
363 -983 56 0
760 427 -276 0
707 -700 102 0
634 -991 824 0
-108 -666 663 0
-468 991 182 0
-247 820 693 0
233 -219 690 0
441 430 101 0
-236 -585 -89 0
226 -799 244 0
81 -282 512 0
305 -713 -762 0
-949 -92 -733 0
-786 824 -5 0
-325 -828 933 0
-222 -475 -925 0
507 -126 -505 0
876 -460 111 0
982 -647 463 0
-172 -758 -717 0
401 597 216 0
-113 439 -580 0
837 909 -757 0
99 -478 314 0
245 399 910 0
-488 -469 504 0
57 838 346 0
-747 155 517 0
38 -310 -63 0
-629 -882 262 0
916 -458 581 0
-432 -210 -302 0
-77 753 445 0
94 -858 137 0
83 250 -320 0
999 107 -231 0
-391 690 -255 0
-154 322 182 0
-690 -285 417 0
235 -275 604 0
768 -209 229 0
-311 -451 -318 0
500 536 623 0
-331 -185 425 0
-623 -470 115 0
-598 -998 -144 0
-102 499 -62 0
800 -107 -541 0
-670 -102 214 0
-697 -915 147 0
-578 -457 613 0
-479 -145 -867 0
-6 105 -314 0
-522 -786 491 0
-45 -931 -811 0
295 522 476 0
792 -838 -351 0
833 -36 735 0
524 -256 378 0
-772 606 -645 0
477 -442 -284 0
-400 294 677 0
-144 83 -368 0
-910 848 -40 0
-627 -885 -901 0
496 749 272 0
649 -70 -91 0
771 -567 536 0
564 746 987 0
995 887 455 0
536 -864 588 0
139 -419 636 0
423 422 -851 0
778 -518 708 0
-199 -869 778 0
894 417 -139 0
-858 -325 436 0
625 620 -523 0
-539 174 538 0
-726 -255 815 0
396 -757 -551 0
771 -211 894 0
414 863 -5 0
333 494 -512 0
-126 -787 -846 0
986 593 -114 0
-964 -630 796 0
925 552 832 0
-505 653 858 0
-735 -36 -600 0
-344 207 106 0
657 648 -679 0
741 -302 891 0
168 513 623 0
-731 954 -14 0
128 -94 646 0
-353 316 808 0
-289 -186 38 0
695 -725 -224 0
158 -65 -153 0
364 365 424 0
-607 -471 -775 0
-545 -519 421 0
40 -304 104 0
