c Large 3-SAT formula for GPU testing
c 1000 variables, 6000 clauses (ratio: 6.0)
p cnf 1000 6000
-741 434 -296 0
477 -944 -728 0
811 215 257 0
626 785 -792 0
-37 479 -543 0
899 -991 -702 0
-378 820 -849 0
882 647 -49 0
68 -838 107 0
260 -344 -956 0
677 875 762 0
148 -483 758 0
544 -181 -741 0
588 289 691 0
-287 984 -503 0
384 -848 -948 0
-865 480 450 0
-134 -231 -487 0
-186 -160 -440 0
-451 -167 -193 0
934 -922 469 0
-597 445 -144 0
973 -803 15 0
-451 218 546 0
230 -75 -767 0
605 149 897 0
-608 565 -195 0
-56 745 323 0
-452 233 -780 0
-76 232 606 0
-312 -595 500 0
308 -805 -21 0
506 -533 344 0
-219 552 -597 0
-472 771 716 0
397 -205 -145 0
488 -514 -99 0
-495 -755 537 0
-920 383 458 0
424 -118 -562 0
237 -78 -666 0
960 -151 -345 0
567 640 -138 0
-727 522 -253 0
-306 758 -173 0
742 -7 242 0
-820 -153 -24 0
-819 -517 564 0
-23 878 358 0
239 600 -184 0
-784 623 782 0
-13 -813 -741 0
952 -799 -437 0
554 97 -901 0
903 -84 547 0
-924 680 701 0
935 -392 528 0
-183 159 -751 0
815 234 -267 0
-973 -912 6 0
-274 -645 -155 0
-680 -454 662 0
222 -598 -366 0
818 -372 -221 0
872 635 146 0
-91 64 -964 0
717 593 271 0
-623 211 562 0
-830 82 639 0
-983 -13 701 0
-183 79 -12 0
713 66 -174 0
-940 -801 -975 0
-735 559 -160 0
-398 -27 649 0
-312 896 332 0
936 993 219 0
642 778 166 0
-257 -875 248 0
134 -900 -644 0
602 -610 948 0
444 450 102 0
520 -279 -179 0
484 454 -56 0
613 -157 550 0
211 -673 553 0
-580 -9 -599 0
-498 -136 -116 0
348 -446 -662 0
128 -677 65 0
574 -627 60 0
-644 -503 773 0
619 -639 -33 0
-163 -245 72 0
-126 -541 232 0
621 964 -620 0
-749 -598 -463 0
-305 881 705 0
-101 -521 -694 0
-761 -221 206 0
171 -29 -856 0
101 586 198 0
238 663 681 0
793 723 314 0
-82 -75 -751 0
889 -326 -910 0
851 -302 579 0
-73 -165 248 0
791 -376 300 0
-308 785 -209 0
244 -8 -814 0
-664 335 817 0
-870 300 471 0
151 266 692 0
932 -69 -315 0
715 980 550 0
-4 914 -612 0
-845 339 107 0
535 954 -489 0
-546 115 -216 0
56 -525 702 0
768 -620 -162 0
-762 407 -340 0
998 -302 -362 0
-797 309 -205 0
951 177 -374 0
-288 -155 -376 0
-67 109 670 0
209 -424 848 0
-68 -637 -740 0
425 628 911 0
-913 -504 341 0
521 -524 -807 0
491 -58 248 0
-783 -339 -935 0
408 37 246 0
-347 -356 26 0
-832 -533 86 0
-283 -606 -171 0
-274 452 -70 0
-698 -822 -26 0
723 344 -709 0
-532 -211 553 0
-823 356 492 0
-221 -473 -37 0
-996 -879 -555 0
-327 505 720 0
96 -345 284 0
508 25 712 0
-363 534 -980 0
307 272 -266 0
-753 882 -521 0
846 -158 -480 0
287 347 -199 0
-559 150 -840 0
930 511 199 0
486 -271 290 0
-875 432 -952 0
35 930 -480 0
209 380 -462 0
-14 -961 -811 0
579 275 631 0
-19 51 793 0
-296 -989 359 0
-336 -289 205 0
-245 -595 138 0
762 504 388 0
592 -6 761 0
800 -243 -761 0
482 612 -38 0
440 -508 -16 0
103 -218 800 0
-427 -946 887 0
-61 992 447 0
286 -867 497 0
723 236 -517 0
703 851 -160 0
176 221 895 0
719 -107 361 0
-591 -997 529 0
358 635 -156 0
-849 828 82 0
-303 551 12 0
830 24 -187 0
-653 384 115 0
922 -808 -976 0
-123 662 -597 0
452 -170 245 0
573 -20 531 0
646 200 695 0
220 20 149 0
103 -111 739 0
-989 -940 943 0
-451 -575 -837 0
411 438 563 0
512 694 743 0
701 -925 -257 0
924 -846 115 0
-876 -637 558 0
581 -419 -140 0
991 229 -82 0
635 -498 709 0
25 -412 -550 0
166 894 -500 0
337 31 416 0
-258 863 996 0
-525 440 -956 0
687 -971 -650 0
-659 161 -482 0
863 -709 234 0
486 905 640 0
881 398 -629 0
338 -844 -157 0
-592 848 -164 0
-755 523 -826 0
-598 -902 118 0
382 -799 -953 0
858 -433 202 0
249 -567 997 0
-59 48 248 0
-747 413 32 0
-10 581 -305 0
749 850 -605 0
-488 -905 -343 0
-614 -656 611 0
859 488 173 0
45 -173 55 0
958 -592 429 0
878 -115 -962 0
-588 -85 1 0
809 311 868 0
-533 -363 322 0
-940 74 -164 0
-771 927 -591 0
-500 649 -512 0
-849 -120 -420 0
-6 -3 -43 0
825 -994 -6 0
-433 975 -487 0
363 -57 -71 0
796 857 385 0
294 937 -603 0
806 -964 -904 0
844 -389 216 0
-999 -291 -437 0
-280 482 901 0
646 -586 829 0
266 788 246 0
392 -268 -888 0
603 -878 -614 0
-187 -624 450 0
-734 -674 -37 0
-318 -573 -788 0
-859 439 466 0
806 -604 448 0
-98 29 380 0
418 613 451 0
-768 206 -353 0
670 66 -273 0
664 453 497 0
946 -649 -738 0
-237 991 -808 0
449 422 717 0
771 847 -662 0
233 423 -121 0
-978 614 179 0
-27 -304 335 0
-580 184 -78 0
-94 835 -777 0
572 -967 158 0
-176 224 -799 0
-589 647 289 0
192 739 940 0
590 -709 -455 0
-891 62 205 0
311 -349 707 0
751 302 -677 0
621 203 -242 0
902 -44 -19 0
-901 -701 961 0
573 -345 272 0
974 -361 864 0
-407 -668 438 0
26 59 558 0
956 -947 -34 0
-714 -614 -652 0
-920 -562 862 0
-657 709 -14 0
194 -408 -914 0
-278 -300 961 0
544 -444 212 0
-690 75 -964 0
52 -963 692 0
-92 660 884 0
-895 729 -800 0
-421 107 325 0
937 -608 -716 0
883 630 694 0
-189 -166 -274 0
738 -523 829 0
-565 584 -126 0
-646 -687 562 0
92 215 870 0
219 281 255 0
-800 528 556 0
20 442 -824 0
804 453 -831 0
-817 -530 203 0
-798 379 -242 0
-30 -409 693 0
-262 848 -675 0
-86 177 -586 0
-60 -371 680 0
640 864 488 0
-879 930 646 0
12 852 389 0
-848 746 -603 0
247 -971 -415 0
541 -56 -329 0
-946 -861 -15 0
-888 524 405 0
24 -642 -536 0
767 347 -815 0
170 -809 639 0
777 36 -768 0
95 -778 500 0
961 -705 417 0
-992 984 -196 0
824 540 24 0
-544 643 960 0
548 -34 808 0
518 -643 196 0
310 -589 689 0
269 -846 -238 0
-678 305 317 0
203 236 -29 0
628 75 -611 0
-804 216 -636 0
667 899 -797 0
-277 -54 536 0
512 25 498 0
766 -656 33 0
-796 -148 56 0
891 -734 566 0
735 -668 -2 0
677 174 640 0
495 -607 654 0
-66 782 -658 0
-537 155 -885 0
24 995 637 0
486 -118 -77 0
-762 -722 -585 0
865 255 -676 0
-923 -150 124 0
71 -32 996 0
-99 919 -145 0
-320 -276 -711 0
483 779 -614 0
-855 -574 773 0
513 982 -976 0
-359 -216 140 0
929 -685 728 0
-215 532 -410 0
-953 149 799 0
-322 14 540 0
863 433 357 0
-450 -535 168 0
-54 -182 -651 0
6 -417 2 0
-940 363 -481 0
515 -110 382 0
590 -44 -947 0
577 -388 42 0
-627 -381 -167 0
-90 -833 399 0
-153 -175 56 0
-909 183 946 0
-96 797 27 0
-631 -492 386 0
603 624 676 0
-921 -935 -161 0
-950 351 -358 0
-190 18 -414 0
-429 200 -364 0
-503 654 -659 0
-538 -58 851 0
208 -698 50 0
-851 661 -650 0
568 -348 710 0
329 386 446 0
343 806 -735 0
-15 689 61 0
21 123 671 0
-879 243 -266 0
-599 788 -92 0
-881 -36 -305 0
303 710 456 0
308 667 -816 0
341 834 158 0
255 -561 593 0
4 -682 -530 0
-695 256 572 0
671 -331 -233 0
-851 -66 -220 0
95 -224 -91 0
-133 995 -598 0
508 -173 769 0
419 -20 -330 0
582 637 311 0
622 -217 170 0
228 832 -224 0
-146 705 -896 0
705 -293 297 0
-728 279 -462 0
405 -522 539 0
904 952 722 0
316 423 600 0
808 -282 -488 0
-1 895 484 0
-731 725 -11 0
310 581 -100 0
-179 986 582 0
-806 193 152 0
318 -764 20 0
976 -687 653 0
461 701 -766 0
470 -815 -891 0
11 -530 312 0
-420 327 -158 0
-246 458 -350 0
-362 -704 229 0
667 -949 330 0
-377 728 647 0
582 839 728 0
819 -772 270 0
-226 862 -907 0
-890 23 -38 0
928 -273 690 0
-62 501 637 0
-804 -686 460 0
761 -738 -999 0
-724 947 28 0
-138 860 78 0
959 919 -716 0
71 -153 -829 0
-405 -390 148 0
-229 347 -924 0
-419 -631 767 0
-82 458 534 0
29 297 778 0
9 -489 -458 0
745 627 -156 0
133 -360 -710 0
-582 465 890 0
-330 -265 38 0
228 564 -539 0
441 700 -728 0
-223 -107 -738 0
966 -668 -791 0
722 -349 -598 0
-422 -289 -376 0
-358 -921 585 0
426 -677 149 0
574 266 -58 0
-153 600 -52 0
-818 -777 798 0
-542 -261 -713 0
-553 77 -169 0
472 -855 542 0
-648 590 -207 0
-746 856 287 0
-487 382 -27 0
-122 229 -893 0
749 -339 27 0
191 667 -101 0
-884 -844 -311 0
156 143 452 0
-902 -749 -300 0
-711 -98 -107 0
272 -113 255 0
-783 -583 -924 0
241 405 217 0
685 -611 -17 0
109 463 -435 0
-41 476 338 0
159 -522 -758 0
217 584 752 0
-795 642 -276 0
876 -386 -530 0
-730 -949 -245 0
-403 826 -163 0
403 -161 417 0
658 497 845 0
97 -529 666 0
539 415 45 0
431 933 -939 0
-814 172 -302 0
999 155 -323 0
29 -325 144 0
-86 166 437 0
-318 420 -924 0
-9 676 908 0
776 -61 -401 0
-137 133 73 0
451 124 -487 0
-297 -119 365 0
909 -366 -415 0
-623 570 536 0
989 766 -636 0
-325 112 599 0
588 693 640 0
-270 461 769 0
131 -255 -651 0
458 -126 442 0
312 773 887 0
321 331 -521 0
-653 -192 593 0
-557 -256 823 0
-358 -246 -303 0
-338 -674 698 0
-675 543 -882 0
-761 204 -845 0
800 884 911 0
848 -941 374 0
684 -206 68 0
564 84 -981 0
-90 -732 442 0
-111 -330 -841 0
710 329 406 0
495 742 -89 0
-933 -660 -577 0
-158 -256 -166 0
-917 797 -569 0
296 -606 -68 0
-647 -692 -543 0
45 -149 -90 0
638 616 477 0
-823 210 419 0
57 854 894 0
-444 -104 -791 0
-717 -641 993 0
612 -297 -405 0
-517 518 878 0
483 -704 -396 0
613 -995 -389 0
-5 -875 941 0
-234 -431 614 0
-161 160 218 0
750 63 751 0
-128 683 919 0
-689 183 -881 0
-362 -622 -417 0
881 -466 598 0
-920 -578 195 0
-455 -760 -849 0
594 -116 584 0
-886 -871 186 0
600 293 94 0
401 605 -602 0
49 -391 585 0
313 -80 998 0
170 18 586 0
-145 -23 -698 0
-389 -617 220 0
929 728 897 0
-136 -605 870 0
900 168 -762 0
-460 300 454 0
814 -5 77 0
-671 -209 495 0
-19 -565 228 0
-206 680 548 0
425 517 -207 0
-425 195 -93 0
-573 -280 -286 0
-278 -289 -780 0
-216 278 229 0
726 700 119 0
-923 531 -453 0
-498 -155 348 0
455 763 -796 0
384 563 636 0
797 -868 60 0
-701 237 860 0
19 -892 935 0
-154 198 482 0
607 43 -49 0
-98 191 -202 0
-97 807 933 0
24 540 -811 0
123 -412 -585 0
-258 483 -671 0
328 -507 986 0
-498 -32 -630 0
861 96 -411 0
-118 -489 -694 0
-7 -749 -182 0
-814 -856 -225 0
-633 90 116 0
402 417 143 0
-872 -839 253 0
380 695 149 0
-201 -589 886 0
-397 537 -142 0
-137 232 311 0
388 678 362 0
-507 598 87 0
-651 587 -804 0
-618 833 -858 0
370 405 305 0
205 589 528 0
126 -211 516 0
944 -30 -919 0
284 -362 785 0
116 -890 77 0
598 481 889 0
-479 22 625 0
-692 -401 -242 0
-267 -65 607 0
909 -62 125 0
-942 204 410 0
-22 933 -784 0
-287 -136 832 0
-161 -368 555 0
629 564 -156 0
-606 -163 615 0
451 853 55 0
-130 533 -687 0
-878 264 -617 0
216 -126 939 0
-653 347 301 0
655 811 -894 0
-421 864 534 0
291 -374 927 0
-112 -60 -14 0
948 908 118 0
-424 -244 -774 0
-300 -679 -270 0
383 905 -599 0
-962 -937 660 0
895 837 -610 0
-137 -735 234 0
134 -573 -873 0
457 -891 972 0
-122 -178 -983 0
963 902 426 0
593 690 799 0
-137 -658 -178 0
-805 628 -665 0
-589 -818 858 0
-174 -463 -850 0
950 -889 -514 0
-562 -625 51 0
466 205 -235 0
729 -462 21 0
860 -901 488 0
857 -865 -778 0
453 -30 -188 0
-464 332 -71 0
172 -353 -191 0
-660 179 197 0
-598 780 -332 0
-864 28 881 0
136 -158 859 0
590 952 -27 0
-428 917 -351 0
-6 -576 236 0
-477 -481 -372 0
420 -245 -651 0
-986 633 -923 0
977 -799 -552 0
-430 469 -203 0
-874 719 732 0
724 120 427 0
872 -217 927 0
389 256 -943 0
216 808 465 0
719 293 -372 0
956 850 62 0
543 435 48 0
-694 -911 771 0
-271 506 103 0
365 363 487 0
854 -790 401 0
43 -394 709 0
52 -422 166 0
376 -260 -295 0
-400 760 -325 0
83 15 -866 0
-321 -183 -401 0
815 144 -154 0
-284 631 -263 0
-969 -114 76 0
87 -257 572 0
437 48 -895 0
348 -199 156 0
-780 501 -137 0
-583 134 513 0
281 771 830 0
-697 891 122 0
-359 766 -683 0
157 95 776 0
-586 743 946 0
-618 991 -114 0
-332 371 -302 0
816 336 -148 0
-962 -776 18 0
341 -937 519 0
-382 -106 175 0
-661 75 -180 0
-559 591 264 0
898 -337 639 0
-567 858 491 0
646 757 542 0
-926 -985 471 0
-86 282 -999 0
745 996 -746 0
811 -234 37 0
-627 -108 -538 0
647 -981 -486 0
667 -625 -398 0
-714 -175 524 0
769 216 -334 0
-844 358 -662 0
-475 -730 883 0
-342 -301 -853 0
602 -352 992 0
709 -1 504 0
-199 -2 122 0
-604 449 56 0
-66 -654 237 0
766 -295 563 0
925 -906 683 0
-529 877 299 0
-138 668 943 0
-894 465 985 0
939 -199 -756 0
391 -561 965 0
-436 326 636 0
883 863 337 0
-319 -375 -313 0
290 999 614 0
-743 -679 878 0
-87 -27 -752 0
527 -585 -783 0
-589 727 -698 0
-29 356 -786 0
-630 201 556 0
-997 -193 231 0
-715 229 -831 0
-218 -659 -421 0
-411 94 -883 0
404 -197 413 0
406 372 -720 0
445 439 -296 0
128 -210 304 0
487 724 -291 0
702 -246 416 0
56 334 919 0
-400 -807 -600 0
-656 424 -557 0
615 -352 122 0
78 673 -387 0
-274 -682 168 0
-908 26 966 0
-502 -642 456 0
994 -24 -938 0
-481 626 549 0
-807 246 700 0
151 330 -997 0
466 -281 777 0
988 -706 492 0
887 120 460 0
965 729 -680 0
-215 -340 -235 0
-812 732 -778 0
148 927 -591 0
16 -351 606 0
-608 -571 601 0
-525 -467 585 0
256 947 532 0
199 -542 686 0
-802 403 -29 0
-726 648 926 0
92 -597 -317 0
462 14 304 0
285 -178 620 0
178 844 -715 0
-411 -457 542 0
-488 644 647 0
878 -865 700 0
-10 368 540 0
757 -548 -361 0
303 441 689 0
-61 425 270 0
-449 -853 -292 0
-968 -126 571 0
-997 785 297 0
-788 -203 903 0
742 27 -165 0
410 -479 551 0
71 501 622 0
840 -553 806 0
510 721 -762 0
-731 -918 213 0
-81 -256 -837 0
-705 338 -980 0
-458 770 -599 0
877 691 -809 0
-136 -718 -116 0
42 -547 414 0
-474 -911 405 0
-735 322 512 0
777 569 -673 0
-509 731 -460 0
131 600 605 0
744 -343 165 0
-896 888 334 0
491 301 209 0
-344 -270 -222 0
-21 -100 25 0
250 395 659 0
18 449 -747 0
-556 -858 84 0
-203 -504 -195 0
-313 -607 -217 0
-804 317 -252 0
811 -212 -834 0
-230 769 -445 0
-450 551 851 0
242 -643 -394 0
441 -49 -296 0
-720 269 741 0
-809 -737 -483 0
763 439 24 0
193 911 -708 0
-342 -34 -377 0
708 412 -898 0
831 623 -435 0
-758 -174 625 0
-968 116 425 0
-188 627 -225 0
-577 -437 47 0
-632 386 -789 0
319 304 308 0
418 -485 58 0
-263 -22 576 0
-551 -700 323 0
-699 -911 -408 0
-821 470 385 0
409 700 -412 0
-260 472 711 0
-276 -335 -590 0
998 233 514 0
876 197 -522 0
-304 -654 -769 0
750 -819 57 0
667 672 388 0
496 465 692 0
831 -153 -322 0
-67 -787 526 0
-899 -813 -438 0
289 -797 116 0
-357 631 -618 0
-417 -458 746 0
977 808 -231 0
282 643 780 0
-658 584 -172 0
-434 819 -310 0
738 -476 -912 0
-991 -978 -585 0
-633 303 -45 0
395 976 987 0
728 -307 869 0
-87 289 -340 0
-327 -844 -999 0
-101 -100 -348 0
-995 -201 401 0
-418 969 450 0
-154 639 13 0
995 162 989 0
795 266 292 0
134 474 278 0
846 239 -434 0
734 -116 390 0
855 -688 934 0
303 242 996 0
418 -56 -854 0
-1000 -812 329 0
-170 -52 493 0
-957 -190 -651 0
-904 -372 -331 0
303 920 -740 0
-171 68 -202 0
-652 301 361 0
-317 962 -454 0
-624 -59 929 0
-962 -904 -256 0
-600 158 -563 0
204 -868 -563 0
-843 -578 56 0
606 -272 -845 0
146 -987 811 0
212 -915 -270 0
-964 -815 302 0
-328 -37 -420 0
-640 -129 396 0
718 -915 -453 0
74 -384 -348 0
-417 694 802 0
-159 305 244 0
-281 -9 990 0
507 -922 -818 0
955 132 928 0
-773 -237 624 0
252 -49 -635 0
-933 752 974 0
338 -597 779 0
618 691 -848 0
241 799 80 0
-944 -728 -1000 0
-184 -403 464 0
680 -444 -309 0
49 -772 490 0
-924 601 -439 0
435 485 -610 0
-574 841 -131 0
24 -205 -867 0
-483 -832 -187 0
735 -565 662 0
727 -909 -896 0
-32 -349 -455 0
-85 -138 -447 0
938 -875 -738 0
-846 423 -505 0
148 509 979 0
654 207 910 0
-351 422 -444 0
707 853 812 0
-133 965 895 0
-289 234 567 0
350 730 60 0
-153 -48 930 0
-426 -456 234 0
-683 -722 376 0
-967 -398 523 0
-729 512 -955 0
1000 142 595 0
-628 -581 580 0
-507 -250 454 0
759 -556 -936 0
-998 172 -961 0
-719 777 982 0
-436 598 397 0
19 -709 -335 0
-88 -344 435 0
-728 268 -172 0
-167 660 233 0
-409 551 -599 0
899 -261 550 0
-534 402 -373 0
116 -766 829 0
-209 -110 909 0
-743 980 -660 0
290 -126 457 0
123 -476 -763 0
899 647 -305 0
-130 -814 -104 0
268 -64 200 0
-255 -156 412 0
-451 -395 -684 0
-8 -729 -309 0
789 598 278 0
43 -858 -934 0
-211 -906 -918 0
-644 -771 -218 0
-495 472 -386 0
-268 -604 251 0
-877 663 887 0
377 37 -760 0
288 -983 -160 0
-315 -354 -39 0
-495 -33 88 0
-852 337 359 0
-690 -842 392 0
-515 167 -185 0
-788 -148 -205 0
-979 705 -554 0
-85 -136 -134 0
835 899 85 0
-438 116 -936 0
44 305 -927 0
-404 -609 -21 0
445 -659 -878 0
177 250 961 0
-883 -79 -366 0
-973 403 23 0
-708 782 -631 0
-951 94 225 0
174 989 779 0
352 821 -207 0
161 537 492 0
58 -174 -469 0
-159 510 -165 0
656 241 689 0
-127 -348 -525 0
786 -525 609 0
358 657 152 0
-957 -982 320 0
-349 311 755 0
-223 -509 -9 0
-197 -155 375 0
-355 -389 -90 0
-755 614 -937 0
-541 443 336 0
-178 446 -857 0
958 691 -426 0
749 -392 914 0
-733 -254 -788 0
307 971 116 0
-142 704 -156 0
-455 -291 778 0
-709 -875 -577 0
173 749 -60 0
389 971 -444 0
477 -316 114 0
955 -413 -266 0
99 159 -466 0
525 -73 430 0
159 -503 -734 0
-765 574 523 0
376 482 87 0
-323 600 771 0
523 -203 354 0
162 694 165 0
-75 -118 130 0
336 -859 -123 0
673 -603 262 0
-691 -690 -682 0
-576 -738 -830 0
973 -588 127 0
-372 673 -55 0
177 299 -941 0
449 -375 -689 0
-159 833 -529 0
-523 875 556 0
280 555 181 0
777 678 -914 0
140 -451 -447 0
-447 -385 672 0
440 -631 -130 0
51 -44 35 0
304 -695 716 0
-889 225 -562 0
649 -578 -289 0
126 856 -851 0
-94 822 -48 0
624 -247 -605 0
-566 660 -12 0
348 -338 -35 0
-807 563 -567 0
-49 -541 -606 0
997 -718 365 0
-799 -695 -455 0
-455 182 411 0
-896 -863 663 0
527 -433 -582 0
342 -786 -545 0
-306 284 -214 0
-868 -427 -554 0
-355 41 592 0
-574 -1000 -834 0
384 963 524 0
688 -976 206 0
-893 15 -267 0
211 686 718 0
-87 599 745 0
-42 198 -919 0
333 926 472 0
-139 608 883 0
-323 784 903 0
773 -76 -538 0
646 -122 -488 0
-20 855 687 0
634 -280 320 0
-98 126 -935 0
442 -638 805 0
539 -400 596 0
566 -841 -753 0
-199 191 755 0
494 -685 887 0
-210 824 927 0
-815 822 -259 0
540 -713 -161 0
90 877 258 0
-822 -430 -326 0
-279 577 88 0
-499 877 366 0
243 448 -205 0
-167 -824 217 0
176 -578 -933 0
-890 386 358 0
-740 -672 -101 0
-219 -831 -93 0
-638 143 -232 0
323 -577 -488 0
884 -381 -653 0
947 -422 809 0
-437 900 -549 0
-60 -31 941 0
949 780 -722 0
-839 755 -71 0
-834 -41 -441 0
-161 -444 -452 0
494 646 678 0
-833 913 53 0
16 615 899 0
623 904 -280 0
-752 -403 685 0
131 -898 704 0
231 -245 888 0
-146 890 -339 0
-136 939 412 0
-888 811 -137 0
-759 -635 124 0
-860 826 -993 0
154 -580 -401 0
-306 -117 539 0
-60 -894 -336 0
770 -695 -460 0
637 446 -476 0
423 -514 -199 0
-725 520 1000 0
-586 444 439 0
588 400 434 0
967 -676 296 0
417 -797 -675 0
-218 -448 42 0
763 580 -165 0
636 -557 -142 0
304 -324 -892 0
412 -336 -151 0
208 925 -865 0
604 -7 -361 0
-624 487 500 0
-659 -910 -574 0
-66 355 -2 0
-458 -147 317 0
255 -899 -345 0
-347 629 369 0
-36 818 -605 0
-792 220 -752 0
-755 -492 -7 0
-218 533 -630 0
-241 -46 168 0
-317 520 -434 0
-332 -961 224 0
-965 -18 -827 0
611 688 -725 0
-412 592 346 0
247 163 -698 0
497 51 465 0
779 -996 188 0
-909 -606 -443 0
517 137 474 0
-977 -673 662 0
-221 -795 -827 0
-543 959 -383 0
369 -881 113 0
297 672 404 0
928 834 -90 0
-507 -540 -188 0
395 588 664 0
825 444 245 0
29 -181 -440 0
-799 549 -620 0
-530 -511 -972 0
-544 -115 -514 0
-554 -238 -854 0
-500 -986 338 0
44 -88 714 0
-988 -107 998 0
110 878 305 0
-180 -470 -501 0
-109 875 -695 0
799 -832 -509 0
274 -29 844 0
-830 157 528 0
171 440 54 0
-615 -455 856 0
-20 -156 -365 0
36 -563 560 0
-243 -898 -897 0
-4 -921 498 0
-557 226 189 0
-317 924 -858 0
898 562 -755 0
588 351 128 0
779 901 355 0
-481 -686 228 0
-923 924 629 0
-718 329 -9 0
-584 251 -920 0
762 450 -893 0
385 13 -33 0
-494 -659 -246 0
-211 224 -890 0
-453 -654 763 0
-322 -836 -41 0
-651 996 -234 0
704 -713 -413 0
-233 -934 -119 0
372 156 433 0
553 795 859 0
-332 276 -584 0
-880 410 -75 0
255 253 -19 0
-616 -657 -19 0
85 -228 -72 0
440 68 -101 0
-910 39 853 0
354 652 -297 0
365 -182 -412 0
252 634 810 0
173 385 -761 0
-605 679 145 0
440 958 345 0
-182 227 -551 0
-959 -542 681 0
-988 -701 421 0
-11 272 114 0
-531 469 -183 0
965 -287 148 0
-117 -439 -964 0
-169 145 112 0
201 -442 -717 0
-595 621 405 0
441 39 -201 0
642 218 -579 0
549 622 -31 0
-558 -713 -731 0
-111 204 299 0
288 -35 -434 0
220 -982 -682 0
-193 -263 456 0
-228 784 962 0
430 459 -300 0
690 392 473 0
-673 -601 -822 0
914 498 -765 0
625 173 -501 0
946 -514 627 0
930 565 -1000 0
-912 820 468 0
248 -265 -861 0
-218 568 882 0
945 261 881 0
-411 -101 -795 0
248 -736 -603 0
800 963 -830 0
874 263 -566 0
-462 38 39 0
-652 -127 304 0
-823 83 736 0
671 -552 -504 0
-51 -398 -36 0
61 -366 -720 0
-626 875 -909 0
-601 -787 69 0
618 -537 687 0
-942 -925 912 0
200 974 -320 0
9 993 -112 0
-392 -615 320 0
-33 638 -779 0
-581 127 -91 0
-636 -23 524 0
269 936 -949 0
-908 -387 -654 0
771 -804 719 0
-534 -395 448 0
-486 -896 963 0
995 -549 -932 0
-451 156 -701 0
-20 484 22 0
-197 -604 120 0
571 706 -159 0
253 983 -17 0
-164 -691 457 0
74 -582 980 0
-758 209 -142 0
-406 492 -937 0
-21 -732 914 0
993 748 -909 0
-861 827 462 0
-343 210 -352 0
493 -424 -507 0
-384 188 572 0
244 -133 -271 0
-232 302 304 0
-257 -808 -42 0
-751 679 404 0
-342 522 68 0
272 963 -613 0
880 -199 -469 0
-947 -506 -882 0
-255 -376 -410 0
-686 -809 649 0
-29 -517 888 0
240 -541 -756 0
-66 104 -192 0
-821 706 -885 0
-101 783 379 0
-862 -672 754 0
-210 445 -883 0
-863 -149 -589 0
596 -778 38 0
758 -185 597 0
48 462 411 0
24 693 -144 0
-611 102 -778 0
798 -969 514 0
633 965 460 0
-131 -683 -577 0
556 -912 654 0
287 -316 -994 0
500 63 742 0
189 -809 -853 0
542 209 346 0
-220 754 16 0
991 -771 91 0
74 -611 -471 0
774 -925 613 0
-434 -754 -93 0
353 538 361 0
593 313 -417 0
825 152 270 0
321 287 -237 0
-522 843 544 0
-140 -810 -471 0
-496 348 -384 0
942 25 776 0
371 216 10 0
87 -863 172 0
801 -472 -735 0
781 -396 -308 0
-710 94 679 0
-453 146 155 0
558 -911 881 0
965 -591 759 0
-701 484 -911 0
33 -415 -72 0
-933 519 -986 0
-415 943 831 0
218 16 -358 0
126 -379 894 0
-315 866 -292 0
332 -942 503 0
-415 -500 845 0
-901 225 -324 0
662 505 361 0
-861 24 -376 0
756 -32 -894 0
121 -538 -675 0
876 -619 -762 0
-854 -220 -722 0
290 921 826 0
551 371 -83 0
189 -588 403 0
-526 803 -200 0
-140 -305 -349 0
-419 318 263 0
-308 -878 674 0
-824 963 -675 0
-808 589 -865 0
-284 634 895 0
805 935 746 0
529 -906 -139 0
81 -569 550 0
-609 600 706 0
-246 69 647 0
229 621 -524 0
-439 -247 831 0
833 804 -462 0
-466 -277 -670 0
972 86 485 0
-554 -547 -567 0
-814 403 182 0
249 -227 48 0
-461 -254 483 0
-501 390 -856 0
41 -979 204 0
-580 6 -175 0
808 809 -68 0
131 85 531 0
214 -557 -791 0
-107 -939 -852 0
-585 -448 -125 0
-878 893 680 0
-806 -518 825 0
531 -630 -559 0
694 965 -110 0
232 -613 -871 0
-863 -860 -308 0
-770 -1000 199 0
-89 85 536 0
5 300 -234 0
-577 -249 -49 0
778 21 -812 0
-755 335 982 0
-893 -133 -973 0
294 370 390 0
-964 842 -851 0
-827 -263 -740 0
533 16 103 0
-340 -152 47 0
763 -813 70 0
-434 925 557 0
114 -655 -389 0
-299 -270 -43 0
-846 -216 -884 0
439 149 110 0
358 309 904 0
-121 370 183 0
-910 480 949 0
948 559 830 0
1000 154 286 0
181 -731 -834 0
-119 213 -745 0
145 512 -379 0
25 -838 -353 0
-886 -782 287 0
97 319 257 0
707 472 -983 0
27 18 -61 0
286 128 -300 0
685 -304 -987 0
590 -991 -612 0
456 -933 789 0
975 -183 -420 0
369 472 842 0
908 437 -434 0
-576 -82 -684 0
581 -959 -303 0
-145 423 14 0
959 438 -122 0
-297 546 362 0
-887 473 -578 0
-639 668 383 0
116 -70 -87 0
532 704 -683 0
355 889 603 0
-394 927 -744 0
-742 -329 856 0
-376 -456 602 0
399 -650 703 0
475 953 848 0
-21 -627 122 0
-647 219 855 0
775 206 -543 0
714 -819 -297 0
-7 239 -237 0
-878 911 -860 0
189 99 535 0
915 644 32 0
55 61 138 0
525 675 -898 0
292 243 670 0
-867 -109 26 0
656 -691 -167 0
816 -313 -224 0
-857 843 169 0
879 -242 -337 0
-885 -585 583 0
-310 -215 780 0
74 711 366 0
-529 399 747 0
-657 789 -503 0
691 816 89 0
295 -528 -552 0
566 455 -412 0
25 118 892 0
-427 933 919 0
284 -853 74 0
613 -363 -768 0
350 -858 154 0
-568 101 -27 0
319 -774 682 0
994 355 597 0
-984 210 -415 0
28 752 473 0
-265 -50 -810 0
-291 312 957 0
303 -353 -862 0
493 577 -365 0
-931 -202 -263 0
733 -482 331 0
155 -85 -584 0
971 86 -175 0
573 265 179 0
244 277 145 0
-960 349 703 0
-310 -230 -202 0
-567 488 947 0
100 583 386 0
-41 -884 -262 0
457 -828 -615 0
-236 -255 788 0
-352 -219 225 0
642 584 762 0
175 876 737 0
90 680 -91 0
218 -416 -460 0
-517 -838 -639 0
911 382 -67 0
-865 694 -941 0
502 -650 202 0
-479 417 -93 0
-561 178 -301 0
-69 -725 807 0
-977 -113 -495 0
502 684 -464 0
-753 987 -563 0
118 123 481 0
-531 386 -679 0
814 -401 -582 0
228 -996 383 0
331 -418 124 0
417 -242 317 0
-858 960 964 0
-479 -365 2 0
-820 960 -644 0
-695 364 114 0
-257 -176 231 0
-117 559 360 0
-852 386 -490 0
521 -938 -694 0
-670 116 -351 0
-133 528 547 0
-458 637 546 0
274 -696 793 0
352 -891 619 0
-177 824 -958 0
-193 -512 601 0
-83 -696 173 0
453 -381 -287 0
975 -85 202 0
734 -145 492 0
-586 -900 380 0
-633 -847 -276 0
-834 -919 -370 0
170 889 724 0
-693 -333 527 0
139 -409 -901 0
-840 -33 -434 0
555 120 -499 0
-288 392 -963 0
-517 -179 -632 0
-698 994 -559 0
175 594 -294 0
-522 960 666 0
-578 252 -533 0
883 -198 -118 0
272 381 -143 0
77 -97 700 0
-578 -959 56 0
-367 435 -821 0
590 888 695 0
-413 -2 -938 0
476 -892 -473 0
102 -27 -232 0
904 581 -899 0
262 620 973 0
-446 -12 -921 0
-84 -426 532 0
769 869 -807 0
-566 892 -83 0
-231 812 456 0
697 -28 -34 0
20 -200 470 0
107 -799 -99 0
-980 68 479 0
941 -794 -162 0
821 202 -216 0
-889 238 547 0
-656 -267 -743 0
542 375 -374 0
-388 542 667 0
-797 -73 -207 0
955 -674 640 0
-508 412 -428 0
831 -123 -992 0
933 742 473 0
-18 -694 79 0
-522 725 375 0
-233 -38 150 0
-886 -769 464 0
629 -922 317 0
364 610 390 0
-653 626 29 0
-560 562 106 0
-475 218 -941 0
824 951 -719 0
-796 745 -759 0
672 266 630 0
822 -136 636 0
895 -8 671 0
-332 537 381 0
106 230 287 0
464 751 -380 0
226 -827 771 0
-209 -232 -850 0
-379 -547 754 0
-531 -673 520 0
-19 -649 845 0
974 579 -684 0
923 733 592 0
693 622 -271 0
-366 -133 -146 0
-500 -296 -916 0
234 -119 -187 0
54 543 -349 0
708 326 -586 0
945 -270 -633 0
-500 -683 188 0
772 277 -395 0
574 567 214 0
-181 -207 -292 0
639 -728 -385 0
167 -29 376 0
-535 418 -945 0
-344 -413 -836 0
478 257 70 0
604 496 -758 0
-977 -532 100 0
-287 -243 -126 0
816 295 -243 0
-692 -721 -921 0
52 577 981 0
-719 -180 319 0
54 -191 -737 0
762 -312 124 0
-779 512 819 0
917 -157 969 0
840 -351 463 0
905 -320 45 0
854 812 -961 0
898 135 316 0
174 524 791 0
878 25 -868 0
-755 92 195 0
846 -21 539 0
810 847 973 0
835 833 -512 0
46 754 -784 0
713 75 -211 0
981 445 657 0
958 -204 -372 0
807 194 -192 0
490 809 -780 0
417 -325 -32 0
-933 -274 370 0
-852 409 466 0
321 -497 553 0
838 -496 -709 0
395 802 -692 0
249 -658 328 0
-452 -962 525 0
961 -834 -24 0
-195 -976 808 0
590 749 126 0
-494 948 -47 0
560 -717 719 0
889 -136 535 0
-592 -190 -201 0
411 772 -30 0
529 862 -660 0
32 -472 -913 0
107 96 359 0
-783 -687 -51 0
671 -112 -330 0
83 -119 167 0
681 -569 -337 0
-671 798 897 0
738 -780 -944 0
-529 359 -410 0
939 -787 -401 0
488 196 -347 0
179 265 584 0
204 965 32 0
-228 73 -636 0
233 -486 -886 0
131 110 137 0
-78 -48 -683 0
-710 584 184 0
943 372 -52 0
-675 -374 -138 0
-809 -367 -876 0
825 40 -181 0
-988 -799 -930 0
299 -403 -545 0
45 -795 361 0
973 -131 759 0
571 933 729 0
-705 310 614 0
-699 -745 -335 0
-410 749 -628 0
464 -572 509 0
794 314 -367 0
-36 -955 -210 0
-381 -130 -434 0
-906 169 682 0
-203 86 178 0
-354 -820 -12 0
-644 214 110 0
604 -332 984 0
652 -149 224 0
-748 309 203 0
-303 721 403 0
-626 770 -422 0
801 412 883 0
97 682 871 0
-866 -107 -641 0
917 645 415 0
-434 -697 350 0
-676 462 -896 0
633 -770 81 0
413 -379 545 0
-886 -21 476 0
-680 -900 893 0
-434 -704 -387 0
-692 346 -161 0
319 103 -155 0
380 -186 -458 0
612 -529 357 0
973 -434 453 0
-520 -728 33 0
438 277 -915 0
-294 238 402 0
197 24 -610 0
-103 410 37 0
253 -465 -651 0
-865 492 617 0
-390 -89 -540 0
224 343 779 0
505 -886 867 0
683 48 200 0
-393 391 -32 0
588 837 858 0
-829 -640 513 0
714 328 -978 0
488 117 87 0
135 476 -755 0
-233 -577 -996 0
-463 401 -206 0
-530 -755 783 0
-199 -372 738 0
117 921 -876 0
-156 -108 245 0
-882 715 -276 0
257 -69 -740 0
159 186 225 0
-762 488 151 0
939 -398 -148 0
-487 -844 127 0
633 626 -235 0
-442 -382 -595 0
943 574 834 0
-544 35 -893 0
96 -584 -287 0
-316 592 -640 0
627 -903 715 0
34 -298 -53 0
508 -627 727 0
936 686 -474 0
982 962 -875 0
-573 323 269 0
462 610 -878 0
-364 27 -409 0
-811 -380 492 0
-669 145 485 0
-634 -636 -757 0
63 205 -54 0
283 -707 105 0
-44 513 192 0
-638 734 -720 0
804 -980 332 0
228 389 -892 0
-1 -370 -981 0
-745 -737 269 0
262 -953 -623 0
-203 -893 829 0
362 918 -401 0
760 964 -509 0
-765 -345 605 0
-232 913 541 0
-382 -569 -811 0
870 882 676 0
582 -721 527 0
887 -731 -523 0
333 -94 -557 0
98 597 -245 0
-595 468 473 0
-126 984 483 0
-271 106 972 0
-631 -600 -929 0
65 -579 -544 0
-582 -480 439 0
-222 23 840 0
-898 775 -289 0
-778 -985 -716 0
-406 551 460 0
763 -944 483 0
695 874 -51 0
154 265 968 0
643 -919 245 0
527 219 -441 0
936 -779 310 0
-166 869 52 0
-292 -551 -835 0
-947 -563 -655 0
-451 -12 819 0
-453 412 -970 0
-680 -513 416 0
-795 139 -101 0
857 83 -422 0
-527 -208 899 0
-806 -279 -980 0
609 -207 720 0
-947 827 -428 0
301 -11 -641 0
572 -345 685 0
-881 828 734 0
552 932 -536 0
-845 639 746 0
-58 329 -132 0
-54 222 21 0
-549 -237 -318 0
960 397 -710 0
-394 436 -987 0
-528 946 -61 0
867 155 799 0
148 840 19 0
226 552 -228 0
-293 445 -102 0
81 -565 385 0
-451 492 -709 0
-764 883 29 0
-934 -16 329 0
832 150 -103 0
-155 936 949 0
-569 -975 348 0
94 -479 861 0
-766 -847 103 0
-702 446 -150 0
-222 802 172 0
-634 838 890 0
668 -127 192 0
621 84 592 0
-761 95 693 0
898 793 -941 0
944 917 -683 0
571 -70 -629 0
891 976 -170 0
-11 -538 -443 0
323 -62 -894 0
-369 -357 -610 0
-415 575 521 0
516 461 -486 0
904 934 -608 0
-245 -657 -233 0
389 -387 13 0
171 822 218 0
211 -433 -214 0
440 -928 172 0
5 -105 478 0
-573 93 -433 0
-826 265 -983 0
-189 -128 221 0
234 -646 595 0
866 851 278 0
247 117 854 0
706 -506 -952 0
661 -761 -470 0
210 995 43 0
-277 -661 444 0
-867 67 -563 0
-501 -35 -976 0
-769 -344 -945 0
272 1 775 0
438 265 385 0
-664 52 -946 0
927 379 -3 0
-143 36 -343 0
-531 776 778 0
-795 -27 -808 0
261 -917 771 0
800 277 -972 0
-109 774 865 0
-97 87 -792 0
-386 -567 696 0
-527 -740 -676 0
694 -442 287 0
872 470 945 0
-13 -38 -414 0
623 544 48 0
158 399 817 0
998 134 -710 0
-395 -970 21 0
952 321 -897 0
-670 -955 -584 0
-656 335 259 0
573 582 81 0
-455 576 563 0
-602 -49 658 0
148 925 98 0
757 -789 -781 0
-924 361 420 0
321 -182 -4 0
-571 -482 475 0
-580 -525 579 0
-364 -967 478 0
-209 796 759 0
795 -270 753 0
-964 557 601 0
252 275 -108 0
462 276 -11 0
393 -434 -574 0
583 545 418 0
837 493 -394 0
972 -847 -905 0
361 521 -917 0
223 729 476 0
116 -98 620 0
380 590 919 0
610 -504 -626 0
-113 174 426 0
-425 -991 738 0
-574 -367 -630 0
936 406 304 0
-224 -288 296 0
-931 -316 -276 0
198 581 146 0
755 277 529 0
-60 -407 -376 0
-309 -558 -815 0
-88 949 -385 0
14 -546 -57 0
61 -536 990 0
778 376 -341 0
494 203 802 0
-233 -99 373 0
154 148 -257 0
249 684 -555 0
660 79 859 0
257 771 354 0
-410 -522 240 0
459 -821 -956 0
37 -137 -424 0
330 -706 -24 0
654 -135 602 0
427 441 -664 0
-307 51 942 0
-219 -941 -931 0
955 590 -619 0
266 373 -818 0
-381 207 578 0
-491 -357 750 0
-305 -445 177 0
953 496 283 0
-317 432 -396 0
-763 941 -399 0
-373 -391 577 0
270 502 -612 0
156 572 916 0
-329 28 736 0
480 600 310 0
-559 938 -313 0
736 -226 623 0
240 -236 212 0
-121 -150 -100 0
-611 336 623 0
638 -560 -786 0
520 -847 448 0
925 -975 626 0
733 -134 642 0
790 -991 -688 0
1000 -250 683 0
-446 -837 154 0
-157 -376 421 0
261 -713 -953 0
458 795 -603 0
904 -41 -751 0
992 806 -933 0
-12 -876 -332 0
-928 490 -774 0
323 -107 -301 0
657 15 980 0
708 -910 724 0
-5 -619 770 0
143 -453 -27 0
-253 558 792 0
953 -336 -32 0
-876 -994 -118 0
609 144 384 0
678 -356 -943 0
-53 161 -431 0
102 -818 18 0
-724 -954 -499 0
427 559 -972 0
531 -822 302 0
-195 -511 60 0
844 -345 -952 0
617 -974 -200 0
97 33 965 0
286 -9 -91 0
72 146 -84 0
954 -240 181 0
-15 569 -904 0
-513 -196 -490 0
26 -116 -979 0
418 -728 390 0
-65 723 -988 0
-394 -661 -182 0
-314 285 787 0
-653 -304 -908 0
752 -203 -173 0
-781 715 -723 0
-475 8 -606 0
981 852 215 0
470 55 -945 0
931 468 -285 0
219 28 35 0
143 648 -437 0
-431 105 761 0
-725 -590 -334 0
304 986 720 0
577 -59 -463 0
830 -155 633 0
-662 -622 396 0
-363 -82 976 0
-439 -24 891 0
800 -345 313 0
-750 -645 -493 0
-917 283 -260 0
-840 -457 149 0
140 -127 617 0
453 778 -412 0
436 -313 -495 0
369 158 773 0
-574 204 326 0
466 830 -709 0
990 -204 -285 0
-722 -817 884 0
-184 -262 -583 0
-895 737 -750 0
-177 -971 -977 0
-855 -313 962 0
225 950 720 0
482 -459 -717 0
453 -455 -969 0
893 -925 -217 0
952 217 -148 0
316 863 149 0
-334 158 927 0
514 184 -534 0
336 -13 621 0
-326 561 -160 0
-368 -511 -381 0
-768 904 813 0
628 927 -882 0
-908 687 30 0
-541 719 532 0
250 -745 4 0
-621 -732 -609 0
411 -56 -458 0
-83 -239 -128 0
-923 384 -704 0
-13 691 -150 0
-886 -801 -863 0
218 -456 178 0
-912 -183 375 0
848 784 917 0
612 -673 -154 0
204 -167 427 0
332 -117 -767 0
886 -617 256 0
476 613 -229 0
449 -830 247 0
-732 558 272 0
-306 -830 414 0
-632 -647 545 0
158 646 -726 0
-181 40 -682 0
40 -439 822 0
-414 -93 -814 0
-682 -473 702 0
128 -286 855 0
385 650 -261 0
-338 322 -198 0
80 -508 192 0
192 11 210 0
914 947 -412 0
-445 927 -446 0
-542 394 -823 0
-468 -351 -400 0
-767 -553 -962 0
769 768 -268 0
363 298 -871 0
-980 268 -793 0
-294 -262 234 0
-859 -427 -803 0
-607 27 -985 0
417 459 -34 0
285 -496 414 0
-85 -462 -241 0
690 -631 -103 0
470 -862 909 0
-74 -374 -664 0
688 866 550 0
105 733 195 0
197 31 -895 0
69 -773 -935 0
467 368 -916 0
771 -296 -358 0
-671 441 268 0
900 -710 679 0
-252 -758 -137 0
476 -389 381 0
420 -219 646 0
-146 794 -76 0
-209 103 -17 0
214 582 -106 0
49 -274 -295 0
-144 976 -221 0
-497 -615 -138 0
538 741 -459 0
-977 -568 -883 0
560 489 188 0
112 -268 409 0
-621 -471 -335 0
795 -364 17 0
655 -417 -430 0
720 125 321 0
-103 -749 957 0
274 -852 965 0
-790 263 -522 0
525 -122 -534 0
961 -748 428 0
465 169 323 0
13 249 548 0
-916 154 -16 0
-368 426 627 0
927 -302 -718 0
-889 469 -736 0
520 -500 -42 0
338 -934 -153 0
342 804 232 0
-631 405 337 0
-577 443 204 0
149 -999 712 0
501 -618 -215 0
-904 980 366 0
-738 874 842 0
-199 376 348 0
-139 406 735 0
-27 -472 -282 0
90 755 -894 0
-98 982 536 0
118 298 -33 0
-89 -990 -662 0
-89 455 -407 0
-20 -941 -205 0
-581 383 -782 0
-265 592 302 0
-81 860 924 0
349 299 934 0
-721 -974 -319 0
704 438 -839 0
672 987 566 0
-870 -104 -511 0
842 546 -229 0
791 221 -507 0
857 134 -883 0
-614 -941 569 0
793 892 -170 0
516 -780 159 0
-549 32 86 0
-684 -61 592 0
-948 179 713 0
-993 -186 98 0
510 -622 259 0
-174 -584 501 0
308 606 -841 0
-31 -451 -651 0
452 50 -658 0
917 816 -381 0
-840 725 -375 0
-297 406 528 0
982 346 -981 0
-724 891 294 0
30 297 -702 0
852 920 476 0
295 173 -112 0
598 -899 498 0
-554 -169 -443 0
672 25 360 0
710 -895 -807 0
316 -705 -37 0
-299 308 833 0
-45 -787 606 0
-870 -653 290 0
351 364 -917 0
-903 -576 223 0
-844 -830 -186 0
249 -856 127 0
286 -569 183 0
-397 -259 -721 0
-875 -699 -582 0
-898 803 737 0
-898 -571 -141 0
445 -516 605 0
588 233 -554 0
816 889 -32 0
424 110 -1000 0
-89 -844 973 0
-454 -797 262 0
-396 -173 -636 0
846 -939 -138 0
198 -534 -908 0
187 -977 -12 0
899 -468 752 0
159 -50 358 0
764 -374 -323 0
989 -454 199 0
-469 -910 -519 0
-790 -704 38 0
-446 973 -208 0
-498 846 -720 0
-62 -37 973 0
-170 -402 778 0
602 -479 -162 0
656 -211 -329 0
24 -638 -143 0
-320 -557 -554 0
-997 -617 -348 0
134 -455 -66 0
-228 -355 516 0
-388 -214 -155 0
920 -629 460 0
-888 739 -625 0
993 -889 -786 0
-157 34 682 0
-415 -196 -554 0
-380 837 402 0
-565 -30 -752 0
474 970 -848 0
-361 260 265 0
-35 648 -536 0
-774 -299 -724 0
-841 938 834 0
-780 250 142 0
21 370 -649 0
485 425 85 0
930 252 -537 0
-529 -365 -806 0
584 443 -152 0
-279 -409 144 0
-365 -910 607 0
593 -333 64 0
-388 472 581 0
660 -561 -670 0
520 497 362 0
-425 -804 856 0
-902 522 112 0
407 -427 98 0
-983 677 -51 0
788 188 -126 0
282 -381 828 0
949 229 -735 0
-770 -218 22 0
-571 445 -936 0
-296 430 452 0
407 906 666 0
-957 166 485 0
371 -64 -536 0
569 313 -207 0
-171 -245 -884 0
850 -6 -87 0
-295 -889 135 0
686 425 764 0
868 799 -588 0
816 -589 -451 0
602 500 -979 0
853 814 -530 0
660 306 -478 0
-850 575 379 0
-188 -456 251 0
355 45 -870 0
-329 -11 -338 0
-681 -592 -802 0
148 -425 -208 0
-581 -439 -180 0
145 659 91 0
544 -230 -977 0
-689 645 381 0
528 -336 488 0
-721 -917 72 0
509 610 -555 0
394 331 510 0
-611 -295 -884 0
502 880 -155 0
-905 686 299 0
-516 229 632 0
-596 -957 -285 0
891 -135 -618 0
445 -922 -549 0
-954 733 -806 0
-639 732 363 0
-341 423 881 0
277 720 -996 0
-492 -452 721 0
-231 162 -817 0
-465 655 -996 0
893 -729 516 0
-830 -299 -49 0
-854 496 -447 0
477 -764 382 0
-160 -148 116 0
974 789 -96 0
38 803 504 0
-189 970 680 0
959 865 535 0
-951 -838 -260 0
-493 -718 336 0
801 505 482 0
804 849 -91 0
-836 -542 439 0
231 759 410 0
-679 584 -93 0
-204 -377 902 0
400 -882 -954 0
965 -810 63 0
-540 981 814 0
-31 -304 -731 0
-623 -140 407 0
-442 -320 863 0
476 201 -475 0
-982 -784 -920 0
-929 -983 704 0
258 37 613 0
570 -404 135 0
-103 994 -443 0
-894 -81 86 0
570 -46 -925 0
-251 959 -441 0
-418 15 641 0
-12 824 -264 0
-625 -339 -880 0
284 937 772 0
242 165 -266 0
-78 -36 -899 0
-750 961 -471 0
-571 232 966 0
-108 885 -863 0
795 116 -778 0
-928 -808 -145 0
-307 913 503 0
771 638 -837 0
993 -965 -91 0
-744 -762 554 0
128 492 78 0
-660 869 839 0
-149 995 682 0
-569 -647 -63 0
437 777 977 0
-874 -478 -804 0
-603 -715 -317 0
-973 763 780 0
516 -962 -39 0
981 -153 866 0
492 569 -788 0
-83 215 -419 0
-560 -582 -156 0
159 -93 535 0
294 -845 303 0
690 668 268 0
964 413 174 0
278 -41 -185 0
888 139 -780 0
-955 277 -66 0
-871 240 77 0
-464 526 -187 0
-295 123 711 0
23 911 -217 0
-706 -141 693 0
-273 -990 -182 0
-729 274 -179 0
711 -128 -122 0
758 -206 -910 0
134 252 391 0
473 -423 693 0
-871 -800 695 0
637 -436 -403 0
522 93 -281 0
268 181 884 0
-745 790 -92 0
-458 157 782 0
85 964 642 0
627 -878 -923 0
-214 753 680 0
-197 -131 871 0
-492 -615 -964 0
-967 -642 -926 0
-912 560 -761 0
-875 -933 845 0
-254 209 390 0
816 513 -760 0
240 -880 437 0
-178 197 -103 0
692 -641 -514 0
187 564 607 0
451 33 -547 0
734 -275 -946 0
-775 -120 -82 0
116 -436 -821 0
413 635 541 0
-718 822 -271 0
86 424 394 0
-320 -801 207 0
179 -899 -822 0
89 464 643 0
-344 262 -231 0
68 -937 -620 0
-704 -464 -404 0
-640 -102 -172 0
-540 972 -175 0
-404 -556 938 0
-242 469 131 0
591 -884 851 0
965 -605 -268 0
-556 39 716 0
-390 670 -781 0
822 854 -870 0
-100 203 408 0
251 -880 -189 0
-345 -475 514 0
998 528 806 0
206 -911 -342 0
435 308 -211 0
-456 274 -426 0
477 743 230 0
971 -248 3 0
-664 586 675 0
853 -980 207 0
586 753 -832 0
621 -646 -763 0
-798 -938 839 0
464 47 -533 0
-158 250 377 0
354 333 318 0
943 -374 -171 0
416 165 -441 0
-812 372 973 0
-992 -417 -568 0
318 -839 -796 0
-883 1000 -741 0
577 139 359 0
-139 -405 -925 0
635 397 726 0
-116 -361 407 0
-900 396 -35 0
935 932 312 0
544 -974 -710 0
248 -770 -863 0
256 463 -327 0
-408 188 -29 0
-503 -455 -957 0
959 -474 294 0
201 -680 661 0
-413 -664 -766 0
681 -452 -668 0
739 -850 571 0
-319 331 924 0
-625 244 550 0
273 -788 -499 0
812 206 440 0
-652 -54 697 0
-544 -354 131 0
611 -741 843 0
-724 -317 -94 0
-14 204 -249 0
-882 280 1000 0
625 -895 213 0
-662 879 108 0
-55 -870 375 0
883 547 -281 0
829 522 -3 0
539 149 222 0
628 365 -916 0
-354 755 346 0
868 53 -91 0
-501 559 436 0
646 267 834 0
-89 -699 44 0
705 740 -517 0
871 383 528 0
672 -172 266 0
-18 -119 -816 0
-166 -287 165 0
-997 779 411 0
939 -685 25 0
-43 -947 571 0
-5 -480 -214 0
225 -52 -721 0
311 -115 -448 0
578 958 598 0
394 -904 792 0
-704 -166 -635 0
414 479 985 0
-533 -422 100 0
-545 -693 190 0
-434 139 -967 0
-281 868 -471 0
928 -649 389 0
-773 -803 -215 0
837 -769 74 0
442 -920 175 0
515 885 195 0
737 -69 -442 0
-886 -273 38 0
-975 437 87 0
740 -342 -330 0
905 -547 691 0
40 386 633 0
991 -985 618 0
302 896 715 0
-356 600 -19 0
57 181 -297 0
782 -596 -484 0
267 -12 699 0
661 32 -75 0
846 -878 -890 0
394 799 -223 0
143 398 -161 0
-712 744 416 0
739 903 -118 0
-683 962 800 0
-277 171 -549 0
118 -552 672 0
-802 913 379 0
60 -884 415 0
-298 768 -866 0
28 563 -394 0
864 192 -279 0
-797 224 -698 0
-848 -753 19 0
-287 -209 -574 0
73 553 -302 0
283 42 -20 0
970 -615 173 0
56 327 619 0
-4 352 671 0
835 658 -298 0
-812 -901 883 0
976 -515 -823 0
882 -344 438 0
-811 735 -129 0
297 -834 853 0
-253 -369 976 0
546 18 249 0
712 131 317 0
-695 39 815 0
27 -129 -496 0
261 -538 -99 0
-29 760 815 0
32 -1000 455 0
-227 206 -124 0
-620 -831 42 0
59 -72 522 0
732 492 998 0
-783 -28 -419 0
649 -626 -778 0
136 -517 -66 0
-993 -983 -283 0
435 -347 -335 0
-882 -20 -559 0
-571 602 226 0
579 402 -613 0
504 134 667 0
663 45 464 0
-655 19 -998 0
-823 689 -527 0
48 -790 -940 0
-141 -285 -630 0
-553 -220 639 0
-285 -786 921 0
79 60 -178 0
402 998 924 0
-428 946 -417 0
218 -314 -440 0
-866 17 -756 0
-31 319 76 0
-290 291 684 0
-53 67 553 0
-112 919 -746 0
93 967 542 0
121 -623 880 0
-6 -841 947 0
861 584 -359 0
-761 -642 882 0
272 829 -87 0
592 125 -571 0
-316 498 -721 0
-754 392 161 0
-594 253 -621 0
792 38 -291 0
126 773 973 0
-317 675 -627 0
-137 192 797 0
-43 -221 -257 0
-632 555 871 0
63 501 252 0
-122 -890 642 0
-658 555 -791 0
298 549 -69 0
395 -847 793 0
-967 -867 -938 0
-451 -59 -407 0
-571 702 -59 0
422 -1000 -446 0
-374 389 515 0
-412 580 22 0
614 818 459 0
252 171 386 0
676 35 -545 0
-369 207 -996 0
436 -842 -130 0
654 -897 70 0
309 122 -864 0
-745 -364 932 0
989 -597 -483 0
-493 647 828 0
458 -893 729 0
773 270 996 0
631 -638 868 0
975 89 -624 0
815 -160 -931 0
-727 -241 -761 0
870 -954 893 0
428 721 -253 0
-581 -306 118 0
-439 490 907 0
-321 528 397 0
-348 -809 541 0
84 -620 -387 0
539 -346 -77 0
-836 832 -720 0
58 689 386 0
-462 -424 -608 0
628 734 -404 0
-286 888 -624 0
-266 709 78 0
-739 -276 -476 0
-244 -692 364 0
121 689 -509 0
767 873 656 0
227 -252 453 0
759 -480 -443 0
30 -656 -825 0
-693 -911 7 0
936 406 182 0
-925 419 344 0
-925 903 573 0
-470 -930 -133 0
434 640 943 0
-638 -622 555 0
-413 86 -336 0
67 928 -722 0
-712 793 -341 0
-214 882 -487 0
995 -58 904 0
-634 -793 36 0
623 -624 847 0
735 998 -905 0
328 -804 978 0
-40 241 165 0
-938 715 284 0
-727 -7 650 0
-997 -689 -459 0
839 -164 -789 0
-982 -957 -36 0
-303 886 -69 0
-286 -645 -991 0
899 -419 345 0
855 -810 450 0
578 841 44 0
854 -265 -862 0
-691 919 649 0
947 755 -517 0
-100 -747 244 0
358 -684 -812 0
307 418 -363 0
211 -806 -614 0
587 599 320 0
781 -835 -651 0
216 -967 237 0
817 940 931 0
-49 -646 695 0
-197 767 229 0
775 666 -696 0
-753 783 704 0
540 -360 -937 0
-854 -129 986 0
650 607 -538 0
635 853 -168 0
526 -350 767 0
139 997 -290 0
-315 -426 -632 0
-670 -849 -248 0
-881 -834 -980 0
-277 -24 237 0
-977 792 -759 0
-652 383 -396 0
-462 -391 -934 0
910 -838 449 0
-770 -453 -231 0
411 -922 -832 0
2 -821 713 0
38 -94 -776 0
-103 -25 331 0
306 -37 -722 0
-777 -533 683 0
17 -888 893 0
845 756 -49 0
-659 -836 526 0
180 -947 -991 0
-849 441 -999 0
756 865 169 0
-997 121 -821 0
1000 597 -546 0
498 820 -194 0
193 -980 -703 0
-153 443 852 0
219 106 74 0
-631 609 -196 0
-935 988 -793 0
797 -307 945 0
-562 -714 180 0
-614 273 146 0
103 580 415 0
136 -760 893 0
-756 -381 -960 0
-829 -742 -543 0
-342 571 533 0
-910 249 -440 0
-950 -376 285 0
-182 99 -319 0
-576 873 58 0
-223 667 938 0
-70 486 -618 0
-559 -701 -493 0
-800 993 -486 0
968 -252 120 0
781 -328 -194 0
148 -154 476 0
833 -636 -808 0
-390 -927 948 0
901 -979 -646 0
288 -683 -535 0
-465 -856 631 0
541 -320 596 0
290 -168 -34 0
-976 958 -241 0
375 -784 170 0
184 784 491 0
-594 224 -586 0
-389 -39 180 0
-851 -308 -961 0
89 664 -416 0
432 285 -369 0
-390 130 854 0
-295 987 857 0
-775 -600 -756 0
-149 679 579 0
386 -239 -322 0
580 467 -724 0
-353 723 165 0
714 42 506 0
-789 929 770 0
309 858 300 0
92 -314 -972 0
387 422 -939 0
-51 -397 349 0
-910 -553 365 0
-147 -993 -976 0
206 192 -615 0
-15 276 581 0
400 -734 87 0
895 86 -899 0
513 -31 -206 0
265 -59 -133 0
-704 20 -404 0
-145 -182 339 0
603 -327 775 0
-525 -338 163 0
278 -383 284 0
-388 379 804 0
13 -722 781 0
-782 -805 -364 0
-836 -328 725 0
122 -511 113 0
821 209 -611 0
933 -89 -51 0
-750 -549 112 0
-112 284 -823 0
-874 -420 980 0
-471 178 144 0
-822 276 -784 0
63 -909 -25 0
-831 880 -641 0
291 822 -505 0
187 749 888 0
870 -637 48 0
-592 -453 596 0
83 59 156 0
-410 -731 -965 0
778 -709 289 0
-924 -92 -534 0
596 -682 599 0
-475 469 445 0
-340 -6 -528 0
-217 -115 629 0
89 -828 -208 0
627 875 -702 0
504 521 -290 0
-775 -331 515 0
769 -719 4 0
468 491 -722 0
-543 743 594 0
855 448 -680 0
49 -686 -22 0
-760 28 -701 0
-736 -518 163 0
-362 -929 162 0
-387 992 -185 0
971 555 697 0
851 -211 9 0
-384 146 -56 0
-873 223 -788 0
569 429 100 0
-977 504 885 0
222 -479 -64 0
-694 -710 -276 0
634 -32 320 0
248 501 -217 0
468 -1 -920 0
641 -856 -673 0
132 -304 -737 0
-615 -108 28 0
205 585 -918 0
806 992 36 0
35 -325 -973 0
758 930 575 0
-525 -286 -282 0
826 502 376 0
-439 -557 -719 0
-725 -27 -794 0
-681 661 -482 0
152 203 997 0
625 810 -526 0
667 -177 -717 0
131 -987 -891 0
576 -682 896 0
250 667 933 0
216 276 169 0
397 -984 890 0
394 257 242 0
-243 920 357 0
-863 -126 -576 0
928 273 -110 0
-128 267 -890 0
-885 501 420 0
922 -120 -230 0
549 -949 71 0
962 -904 -354 0
148 -818 -357 0
-152 100 492 0
-952 272 172 0
-271 493 -263 0
821 -512 914 0
885 443 -292 0
-558 195 -535 0
307 351 -102 0
-600 178 -853 0
-150 -12 -428 0
-715 949 177 0
973 305 -399 0
-180 63 -273 0
172 -154 797 0
-466 225 -163 0
-13 829 76 0
24 -340 -307 0
260 665 583 0
-453 -22 601 0
475 912 -361 0
-953 686 855 0
-526 -872 -94 0
44 -194 424 0
-369 576 -240 0
702 -939 -72 0
-455 -551 870 0
-881 -275 369 0
408 117 -611 0
100 385 524 0
536 501 -330 0
-432 772 -696 0
-686 -279 -788 0
568 474 -775 0
383 175 82 0
296 672 427 0
911 47 166 0
62 -817 -175 0
-167 188 55 0
654 -243 691 0
-52 -790 550 0
427 620 884 0
-13 -763 -294 0
378 96 524 0
199 -44 -12 0
-194 436 886 0
-786 274 -91 0
870 512 369 0
-295 545 663 0
561 879 -831 0
-9 -979 737 0
-185 -216 836 0
-440 -799 -367 0
-74 -855 -545 0
413 90 -966 0
97 -382 912 0
-387 673 89 0
-20 303 102 0
-47 -565 -641 0
284 850 -452 0
564 -264 -962 0
627 -781 -576 0
909 -449 124 0
-432 296 -966 0
783 -915 513 0
356 737 516 0
853 -693 435 0
-58 820 976 0
611 331 -705 0
723 -232 -600 0
781 288 -596 0
932 394 74 0
-672 382 51 0
419 -352 -643 0
-686 306 -347 0
468 -355 -739 0
-570 543 -867 0
-177 -970 524 0
-391 730 109 0
-64 31 -115 0
845 -600 789 0
-392 680 -22 0
391 -693 819 0
-389 -280 -352 0
-543 722 -395 0
-363 -867 -832 0
203 -123 -948 0
-958 357 -109 0
-779 -694 524 0
780 -420 45 0
687 843 22 0
-4 -808 -299 0
188 441 -772 0
-628 347 220 0
-31 573 -784 0
508 464 -334 0
767 875 -661 0
-12 -13 -139 0
306 102 -590 0
-990 658 -652 0
105 -643 760 0
968 -900 -537 0
582 332 268 0
341 337 -406 0
-929 237 -244 0
339 -785 713 0
320 293 -907 0
172 -431 701 0
280 -676 -352 0
61 -597 -64 0
27 651 -350 0
439 458 -760 0
800 120 -247 0
-6 -514 -245 0
-665 -663 -95 0
718 305 960 0
606 6 -437 0
983 -576 625 0
286 -729 967 0
85 45 62 0
-946 -393 89 0
69 -448 667 0
-937 -53 -457 0
295 -760 -652 0
-417 -358 753 0
879 -21 908 0
584 527 710 0
547 111 230 0
-706 133 -430 0
194 -656 -919 0
799 -267 749 0
-627 -647 -777 0
529 740 -665 0
-21 703 -130 0
896 139 650 0
824 -839 -282 0
92 684 629 0
-364 -300 277 0
332 -890 -494 0
-866 -342 450 0
404 -971 906 0
-596 -388 -831 0
-898 -959 999 0
692 808 881 0
108 -603 983 0
-649 -340 198 0
-757 -798 24 0
178 334 346 0
-44 897 256 0
-227 122 836 0
433 -850 866 0
-320 823 425 0
155 -389 859 0
-891 -774 82 0
-926 463 -441 0
-376 592 -516 0
276 -589 -897 0
-870 608 754 0
-302 292 -445 0
319 -988 662 0
-922 69 422 0
316 130 981 0
818 163 -358 0
-63 -558 695 0
253 34 -635 0
-967 663 -80 0
64 296 986 0
295 55 60 0
908 1000 884 0
-767 -27 -247 0
189 -809 314 0
251 -555 -140 0
-246 -608 892 0
314 -873 88 0
-680 -37 -158 0
510 -950 -600 0
448 262 72 0
-202 -400 551 0
408 886 -656 0
-89 264 -810 0
357 -604 645 0
189 501 -220 0
582 474 548 0
610 952 688 0
-55 820 814 0
-362 314 -495 0
603 -825 -72 0
697 654 -362 0
755 -515 842 0
65 -563 799 0
-738 203 623 0
728 -337 -360 0
-173 -117 -214 0
464 -89 131 0
96 -174 -457 0
-865 -950 520 0
-889 425 -98 0
165 624 728 0
791 -4 510 0
-997 -582 267 0
-406 -939 -151 0
387 -663 689 0
-905 489 -883 0
-826 -376 16 0
655 -55 58 0
-537 -539 244 0
-79 484 241 0
752 -354 -647 0
199 215 -72 0
494 671 -977 0
-373 436 704 0
538 -181 -594 0
-26 -452 -466 0
-550 -366 451 0
264 -630 -16 0
-715 15 147 0
-633 -582 -347 0
105 903 158 0
683 730 -890 0
469 -129 877 0
-700 -888 532 0
649 944 133 0
69 -124 -888 0
-140 -218 -1 0
389 -430 610 0
-931 784 167 0
-568 -402 133 0
-305 -373 -269 0
-992 -297 945 0
-306 534 722 0
437 149 -697 0
-30 -712 490 0
-437 -547 -701 0
-651 -797 -980 0
-530 584 -293 0
211 720 -9 0
197 62 468 0
-339 109 -639 0
-743 154 -959 0
24 -877 105 0
370 -141 747 0
643 -175 -568 0
416 -474 303 0
-784 -44 843 0
304 -454 -662 0
393 557 -371 0
132 -112 520 0
-234 -464 974 0
-203 -306 737 0
142 -388 -968 0
-392 660 678 0
-335 -719 -969 0
882 809 -917 0
-88 132 -788 0
-907 -997 157 0
-655 930 190 0
435 -869 767 0
763 755 171 0
-513 -704 -258 0
-189 640 -769 0
707 -754 32 0
718 554 -713 0
873 -658 425 0
303 622 967 0
-703 276 -107 0
317 146 328 0
-442 -592 -632 0
-469 171 334 0
219 -618 -514 0
-191 -979 80 0
-894 625 -539 0
-34 -295 103 0
960 607 256 0
492 386 260 0
-748 -736 -649 0
-581 33 -678 0
834 -596 129 0
-284 -949 -560 0
-135 421 -654 0
-988 -804 -976 0
-767 72 773 0
-72 782 828 0
-924 240 -23 0
927 -948 -929 0
836 -467 576 0
806 16 -486 0
531 -658 861 0
983 -149 -895 0
342 21 661 0
-794 651 -776 0
371 -910 608 0
12 -353 -848 0
-607 -580 -495 0
-605 755 -346 0
-585 -708 469 0
-290 338 239 0
-262 523 945 0
858 460 781 0
-871 978 -160 0
-440 903 73 0
715 175 626 0
792 -502 -617 0
892 -469 -85 0
-523 145 -154 0
-988 -874 -643 0
974 -473 839 0
734 885 -536 0
-755 850 -916 0
-747 -181 -460 0
-9 698 -905 0
-184 413 961 0
153 805 705 0
979 507 -944 0
-751 161 94 0
-405 545 677 0
886 -899 -481 0
-96 721 569 0
751 -945 475 0
495 801 897 0
325 863 436 0
127 934 990 0
502 18 418 0
992 321 1000 0
-818 371 -584 0
955 -520 508 0
-361 -47 557 0
-123 941 -732 0
-218 -972 576 0
-161 829 163 0
-873 614 -535 0
951 408 182 0
624 524 869 0
184 987 181 0
-940 -32 -488 0
142 -908 429 0
523 477 -6 0
-841 954 511 0
-56 697 -826 0
-378 749 804 0
-4 344 671 0
895 -604 -260 0
-492 -64 -591 0
-422 -390 632 0
-105 -209 457 0
46 824 -63 0
481 -588 -139 0
-341 -7 -497 0
195 -86 -559 0
146 764 80 0
647 -795 -687 0
12 -119 -766 0
-631 -559 301 0
815 -547 187 0
-746 208 156 0
-773 -497 -106 0
-508 964 489 0
-72 396 -707 0
-976 129 -762 0
654 -699 987 0
865 473 -665 0
-490 634 675 0
-765 14 -929 0
-758 -315 289 0
-114 -717 658 0
-263 249 759 0
-854 68 -110 0
-769 282 363 0
-33 443 -612 0
-296 -29 993 0
-317 546 -70 0
466 -432 -36 0
-234 -553 63 0
781 329 45 0
711 -123 -441 0
567 -532 -236 0
-818 -2 658 0
249 -403 542 0
-861 -863 -931 0
370 -996 353 0
943 -43 312 0
215 -430 -931 0
285 -428 724 0
-95 528 110 0
760 373 465 0
-488 -392 479 0
844 999 -791 0
921 729 -140 0
922 504 -814 0
-345 898 903 0
-456 283 466 0
743 334 -795 0
980 -814 483 0
859 419 -745 0
38 -456 -547 0
200 153 634 0
52 292 302 0
601 -633 249 0
23 260 817 0
799 -954 -342 0
813 999 390 0
646 689 -955 0
-40 105 31 0
583 609 681 0
604 848 721 0
-200 787 783 0
711 -385 531 0
-845 -904 -908 0
122 661 369 0
-399 990 785 0
978 748 426 0
504 287 311 0
-98 -738 180 0
-931 -142 426 0
-348 -806 -702 0
561 195 863 0
-106 221 296 0
837 -477 343 0
-160 588 677 0
-939 -493 -955 0
164 -15 -642 0
23 3 -578 0
-541 608 -913 0
-775 -222 -857 0
971 635 481 0
379 273 -917 0
-891 240 923 0
-389 442 170 0
-543 -63 826 0
90 178 62 0
564 777 -62 0
-892 -14 -37 0
-753 225 618 0
56 647 -506 0
446 -986 623 0
206 842 454 0
7 209 -250 0
-201 109 282 0
-856 378 28 0
324 -943 -606 0
729 -442 -474 0
46 154 -381 0
586 217 464 0
-424 -757 557 0
862 -954 662 0
-26 153 -820 0
527 -902 -995 0
278 -309 -488 0
-567 990 -802 0
528 -700 4 0
812 -123 -73 0
-889 -375 -917 0
747 207 -580 0
-433 370 -885 0
-79 963 -286 0
-482 711 126 0
66 -991 -198 0
764 63 -191 0
622 -851 -739 0
254 -356 -48 0
-363 672 688 0
328 -565 921 0
-998 -169 827 0
-94 -596 413 0
502 160 921 0
-324 911 348 0
572 843 -390 0
-143 631 125 0
570 138 -559 0
290 115 -841 0
-452 689 686 0
472 899 49 0
-221 -29 -229 0
-170 644 764 0
-3 -536 71 0
-743 58 -478 0
-241 869 721 0
-513 639 -412 0
-693 229 -62 0
-869 -336 159 0
-801 -81 76 0
41 423 -440 0
806 -327 619 0
283 513 -534 0
-104 958 -687 0
622 48 720 0
-475 -671 -656 0
37 -856 848 0
344 802 -496 0
410 727 40 0
-372 -878 461 0
929 716 -300 0
657 -504 78 0
788 -739 -524 0
516 -756 11 0
-186 -328 120 0
-781 -393 250 0
-516 -438 -988 0
102 -462 -359 0
-588 650 789 0
857 -24 268 0
-566 -59 54 0
716 778 175 0
498 451 359 0
911 -718 -378 0
274 399 400 0
986 -442 -114 0
538 406 -618 0
-704 -393 57 0
973 -738 728 0
-468 452 -53 0
-917 247 -22 0
-807 659 -860 0
-374 -727 -997 0
-47 897 -526 0
371 -680 -818 0
-441 -423 592 0
393 -570 -69 0
7 -220 839 0
-38 595 -655 0
849 123 357 0
516 -514 -746 0
-956 -269 618 0
588 982 755 0
75 -225 -41 0
-342 761 957 0
-429 -770 -216 0
-206 -193 -852 0
589 962 840 0
53 -534 881 0
-306 -368 -563 0
-746 780 994 0
901 764 -702 0
502 -94 634 0
777 750 -607 0
-490 282 -336 0
-588 281 -25 0
-749 -168 -752 0
-219 232 -360 0
-647 484 553 0
-671 -243 -867 0
454 508 -432 0
-292 -910 -939 0
-642 -847 -584 0
216 381 -46 0
118 689 -174 0
-688 -863 -87 0
764 295 730 0
126 843 -917 0
42 -118 -150 0
513 -645 -775 0
-240 73 127 0
126 -666 329 0
-521 -652 -677 0
109 -948 993 0
86 -184 -294 0
-720 -400 -254 0
229 -727 208 0
-74 -125 910 0
64 -715 -817 0
-882 839 -616 0
188 -634 -328 0
296 699 -150 0
-90 922 -763 0
497 637 271 0
519 -76 811 0
878 90 -891 0
-377 746 474 0
419 60 -391 0
82 12 -125 0
895 613 485 0
113 261 -544 0
192 -839 613 0
-565 598 -235 0
-66 -969 -574 0
-38 -412 348 0
-863 341 587 0
129 123 -969 0
-936 206 931 0
26 875 -450 0
-499 328 421 0
759 -215 -341 0
-446 -430 254 0
541 14 -817 0
-143 -873 545 0
-430 330 -18 0
-232 -1000 294 0
159 -539 491 0
830 494 622 0
989 -701 -120 0
650 671 520 0
-434 878 507 0
61 -408 111 0
-282 930 -552 0
218 -89 452 0
652 980 -854 0
867 -581 -133 0
-960 -457 985 0
491 -493 351 0
368 432 600 0
197 158 -673 0
208 424 -388 0
-52 164 -30 0
643 -385 -547 0
941 370 -252 0
-751 -432 754 0
606 -813 846 0
-339 -463 -149 0
492 596 134 0
972 685 -999 0
528 -349 -269 0
737 -951 -164 0
346 131 -362 0
-851 -246 943 0
-858 -106 222 0
-423 295 -435 0
792 23 744 0
-985 -957 36 0
-176 -232 950 0
-177 61 -40 0
-510 881 -879 0
852 683 -74 0
432 -8 302 0
699 402 868 0
968 538 -146 0
-20 -819 -512 0
-739 -214 -479 0
-942 -481 251 0
502 303 373 0
-63 -696 795 0
892 -275 763 0
364 887 -163 0
-644 593 -160 0
-929 -830 370 0
40 -229 -800 0
-522 -177 -36 0
-361 -766 799 0
-58 -572 180 0
54 -1 -419 0
-695 450 61 0
-634 474 -867 0
-392 -803 438 0
-558 -151 -785 0
135 -453 291 0
61 -292 -605 0
1000 -266 -128 0
926 -898 -844 0
-775 -649 201 0
573 137 -551 0
419 364 839 0
865 930 -340 0
139 -342 593 0
-127 -64 8 0
-650 388 -292 0
-739 285 662 0
516 -958 111 0
-135 83 112 0
-339 432 -739 0
-279 438 -165 0
35 -250 -963 0
-394 33 61 0
-456 -654 267 0
531 -203 360 0
-389 -664 395 0
83 -204 -208 0
456 -902 446 0
-983 212 522 0
3 740 -677 0
-781 680 130 0
868 601 -137 0
-804 110 -353 0
209 700 844 0
78 -743 -31 0
731 -628 -472 0
-529 -98 -855 0
206 -336 -610 0
526 601 -627 0
123 -596 27 0
689 -79 381 0
865 -793 -436 0
-528 9 83 0
-927 -314 177 0
485 -925 118 0
686 -294 522 0
-131 985 277 0
394 -574 799 0
685 857 586 0
20 106 -785 0
820 -88 -821 0
838 665 34 0
726 -522 -728 0
577 -336 -737 0
-267 512 241 0
-192 -601 696 0
911 -857 -132 0
-307 -484 442 0
-339 -821 -134 0
-922 -296 305 0
415 -640 -368 0
-683 -499 684 0
-514 28 -469 0
-115 742 502 0
-565 -960 671 0
-876 625 900 0
-692 927 652 0
-220 -837 908 0
73 855 -817 0
-987 -218 -751 0
741 685 -32 0
234 -155 -751 0
153 111 -678 0
656 -286 -582 0
650 627 729 0
917 -403 144 0
651 931 852 0
435 958 780 0
354 -470 -217 0
-346 313 424 0
624 525 575 0
-816 310 536 0
625 -149 -754 0
-601 -425 -367 0
-487 939 -725 0
611 -922 24 0
-969 -881 345 0
-347 747 -389 0
698 563 190 0
-624 658 -690 0
-486 249 611 0
264 732 980 0
-537 -724 -846 0
613 -879 239 0
491 856 -529 0
-126 434 669 0
-554 -845 -60 0
468 -942 -595 0
-884 922 885 0
-100 -612 789 0
765 -788 -161 0
769 317 323 0
671 884 218 0
997 439 941 0
-393 -547 381 0
5 540 500 0
36 -586 395 0
-315 -205 433 0
940 371 -70 0
499 -744 -393 0
-185 -235 853 0
456 -831 -613 0
-996 692 -748 0
628 364 -263 0
619 -56 556 0
-770 578 304 0
833 -715 -10 0
-589 -287 469 0
-356 238 -304 0
-985 420 -300 0
-761 468 942 0
-580 781 13 0
584 -560 -541 0
927 812 909 0
928 -296 57 0
-545 61 -871 0
45 -365 23 0
41 -672 -942 0
123 597 111 0
995 -830 609 0
-310 217 433 0
435 -810 -944 0
263 445 -565 0
91 -802 900 0
659 -610 -639 0
-496 -536 -57 0
-773 239 -927 0
-943 175 15 0
-557 459 963 0
-899 686 -808 0
-831 -220 846 0
-771 610 866 0
-536 965 481 0
-42 -200 772 0
905 611 732 0
737 -510 855 0
-708 103 -78 0
396 -781 882 0
286 -627 -397 0
-231 -395 419 0
820 707 693 0
174 -261 -943 0
421 -493 402 0
191 -167 160 0
-147 -220 -703 0
-177 -809 -26 0
-167 36 -846 0
154 60 844 0
-139 -836 -225 0
-895 440 -775 0
75 -512 894 0
-363 -364 993 0
891 874 -227 0
-189 858 648 0
68 422 -114 0
-632 -652 563 0
546 -434 -113 0
-126 -58 -68 0
681 644 643 0
-527 -163 -255 0
38 -706 -320 0
-337 -509 -853 0
-486 -362 794 0
763 144 374 0
793 -750 130 0
559 -901 577 0
851 -481 -703 0
-363 749 471 0
-354 915 507 0
-64 712 391 0
311 -127 -644 0
-145 381 151 0
-52 35 15 0
-251 339 -571 0
86 640 -601 0
433 -488 845 0
693 149 -997 0
-126 -835 173 0
-62 -837 -499 0
245 -242 748 0
553 -809 804 0
-468 46 302 0
484 -401 -282 0
119 -436 882 0
-436 42 -927 0
-342 -371 116 0
269 -489 -890 0
818 482 678 0
385 63 91 0
-546 113 591 0
921 280 454 0
651 878 -238 0
954 -210 -972 0
88 1 782 0
147 748 -460 0
-968 519 483 0
759 923 504 0
-427 -927 620 0
-120 539 -958 0
419 626 -648 0
-188 233 -684 0
502 834 740 0
-149 -84 623 0
-550 75 958 0
625 637 323 0
-646 -697 53 0
-25 93 -17 0
-490 205 500 0
-684 -455 -211 0
-712 808 754 0
-137 -518 -220 0
871 -36 14 0
-742 294 287 0
-652 -810 -168 0
233 604 -192 0
-500 669 -930 0
-952 615 258 0
998 -343 -580 0
-436 -919 -961 0
929 -36 340 0
-672 -208 -158 0
456 -891 368 0
-681 245 -244 0
99 -851 696 0
105 -281 280 0
850 -551 214 0
471 630 254 0
-164 -288 223 0
964 944 236 0
-182 655 -931 0
-465 -155 -941 0
471 -37 -83 0
-381 470 -130 0
-412 -599 -698 0
915 -505 708 0
514 -906 233 0
-835 -782 119 0
-777 -133 -852 0
588 814 988 0
-842 34 670 0
-819 476 -465 0
-130 550 244 0
15 749 -219 0
912 -364 915 0
-390 -750 -893 0
719 -839 -50 0
995 -480 641 0
506 311 866 0
242 -690 447 0
693 625 -278 0
-751 795 693 0
66 244 -983 0
-155 -147 -321 0
-854 685 393 0
-381 -389 -893 0
-380 -880 16 0
-616 366 482 0
-574 126 906 0
992 24 9 0
-323 617 -555 0
70 -830 -950 0
-264 237 -566 0
-390 -539 -655 0
774 -582 458 0
399 -682 35 0
675 255 356 0
836 621 38 0
-780 629 894 0
-116 -262 858 0
369 480 -21 0
437 474 855 0
-936 650 -662 0
420 946 -673 0
-55 853 -162 0
336 671 21 0
-534 -857 670 0
996 -675 521 0
357 442 809 0
-22 343 115 0
599 340 -518 0
-958 -882 598 0
-850 664 602 0
-826 -167 880 0
-306 284 527 0
998 650 -868 0
-194 -109 -653 0
-111 887 -697 0
-816 927 725 0
-894 -699 -395 0
768 860 2 0
-542 60 18 0
480 222 140 0
410 310 -443 0
966 -190 758 0
262 -449 -69 0
-828 -603 521 0
117 751 374 0
-606 839 -633 0
-207 -224 -106 0
235 761 655 0
-23 232 -876 0
-771 555 -202 0
123 62 -566 0
-522 50 62 0
-570 -842 303 0
694 -30 -605 0
-54 913 258 0
657 -29 -173 0
291 279 905 0
-207 -351 253 0
-414 533 -794 0
461 -438 -951 0
-513 -758 -786 0
-810 -877 937 0
165 -268 -425 0
166 -545 -229 0
-71 -361 -684 0
-105 777 -895 0
6 -853 897 0
426 -614 150 0
-906 678 -738 0
-697 645 -951 0
-878 867 506 0
985 933 -135 0
-263 -157 155 0
623 897 -956 0
715 705 -761 0
-343 -223 -741 0
-809 808 579 0
-365 321 895 0
31 856 306 0
755 -278 -280 0
402 -923 687 0
-841 -344 672 0
-696 769 876 0
-728 854 -746 0
-688 -306 220 0
-123 -984 80 0
202 -577 891 0
806 -289 -12 0
-252 32 689 0
863 152 991 0
-486 -629 95 0
-315 411 -934 0
-863 -305 -22 0
-938 -173 228 0
-590 -545 -191 0
327 573 -514 0
-174 -219 -187 0
394 -822 -55 0
-219 -888 -513 0
-375 -712 -349 0
-923 122 -712 0
800 -131 529 0
-376 379 -922 0
-696 116 -31 0
918 299 554 0
658 670 553 0
810 951 -426 0
36 -326 265 0
936 -909 648 0
-57 424 -294 0
804 600 -292 0
-588 -826 -989 0
-921 824 650 0
-463 828 672 0
-911 799 21 0
466 -229 981 0
156 -968 474 0
-311 -887 784 0
30 -857 984 0
263 5 -537 0
-486 -702 763 0
-35 707 573 0
-78 -329 -653 0
919 -27 -61 0
-365 92 -736 0
758 698 99 0
905 -741 127 0
-445 618 -335 0
-45 -265 86 0
-674 -853 993 0
-661 -678 -967 0
530 -643 -653 0
594 1 -287 0
-866 -838 367 0
349 -636 -95 0
267 672 863 0
794 -723 -593 0
448 700 81 0
534 -783 -942 0
761 -484 851 0
-942 914 395 0
-566 -382 -395 0
582 -293 221 0
-473 -521 474 0
-328 893 -166 0
886 435 785 0
-899 512 488 0
-648 880 689 0
-675 329 668 0
-65 -504 867 0
-327 -395 142 0
-708 -694 886 0
-205 348 -357 0
-632 662 205 0
641 -890 -705 0
-291 -851 677 0
-299 31 -74 0
-870 -740 -579 0
248 -606 -658 0
525 356 -485 0
181 -493 26 0
32 -496 332 0
-706 -714 925 0
183 -528 378 0
673 -345 238 0
-979 870 -667 0
490 -983 -1 0
-871 -123 718 0
217 -280 26 0
514 949 590 0
-297 660 464 0
-261 -226 -489 0
-72 172 -190 0
100 658 62 0
-133 953 299 0
155 214 -558 0
626 66 698 0
650 300 -978 0
-280 -848 291 0
-298 430 -802 0
344 -23 106 0
397 -654 387 0
-602 168 -532 0
909 46 326 0
-200 -132 715 0
-436 245 -232 0
-977 -228 -141 0
-13 245 333 0
-314 -212 -436 0
381 -47 -459 0
962 737 -855 0
-163 111 60 0
359 334 -209 0
517 -219 -558 0
-543 -652 461 0
-338 706 -589 0
-352 -275 643 0
848 -185 74 0
-981 845 620 0
740 -117 -615 0
182 -573 728 0
836 -883 303 0
-832 621 18 0
-574 425 -279 0
197 392 378 0
-461 25 878 0
-659 -701 -786 0
478 -549 -257 0
887 -32 743 0
-147 776 -67 0
987 308 -760 0
-816 724 -5 0
626 444 204 0
-710 436 -969 0
248 975 -152 0
-107 749 272 0
-745 -202 617 0
-313 -362 753 0
-11 -180 -132 0
14 -171 529 0
-477 640 277 0
946 -505 703 0
601 121 -609 0
-693 -964 -271 0
757 24 155 0
90 -56 -782 0
915 787 -109 0
-242 -456 936 0
896 -863 -497 0
-445 -20 -160 0
-555 -804 458 0
-999 -723 -360 0
-390 -778 -875 0
656 533 -754 0
273 -878 388 0
563 143 494 0
-442 -260 -248 0
909 -519 -472 0
-617 800 -359 0
128 448 411 0
679 880 325 0
-341 462 402 0
938 408 -520 0
607 181 -172 0
-826 641 -256 0
-9 127 -687 0
706 120 911 0
296 41 579 0
870 744 -642 0
-570 -364 -963 0
-519 147 -353 0
994 906 -763 0
-238 731 913 0
-454 939 830 0
586 888 826 0
598 -446 509 0
-876 -66 549 0
-591 829 117 0
-574 824 165 0
785 644 412 0
-323 370 33 0
-146 355 -315 0
744 35 662 0
435 -562 -889 0
-929 379 633 0
277 444 -68 0
-848 -913 -846 0
974 -938 788 0
551 462 -337 0
210 -153 473 0
379 317 696 0
595 808 -228 0
-817 -653 -835 0
447 -463 227 0
773 384 -671 0
-447 677 -180 0
98 824 559 0
-772 -978 -196 0
-26 132 848 0
156 831 360 0
884 -971 -188 0
10 -119 163 0
35 954 218 0
594 13 87 0
981 947 701 0
-645 -455 -715 0
207 376 -240 0
100 -692 -760 0
-318 146 57 0
835 714 -539 0
564 -838 -194 0
254 942 -838 0
-264 511 381 0
-272 -1000 -573 0
391 -375 -973 0
216 -813 -245 0
468 -73 -928 0
-59 -425 724 0
-391 -725 -583 0
-275 920 -813 0
-130 240 -248 0
-997 -5 313 0
61 -817 -944 0
-131 -538 471 0
-114 -843 -224 0
-639 -926 -688 0
-913 -17 -263 0
841 53 -48 0
294 299 749 0
-516 688 -924 0
754 -531 485 0
-966 -332 -291 0
653 -567 918 0
-283 541 -252 0
-229 588 -185 0
-382 -784 -590 0
-448 -61 -283 0
-918 113 -181 0
-706 576 -286 0
315 -263 50 0
619 437 849 0
229 316 -718 0
800 -143 462 0
-491 655 -134 0
-552 438 -582 0
-63 984 200 0
-363 463 761 0
-997 658 -225 0
-650 629 -266 0
12 -547 -556 0
-338 -353 -724 0
361 324 843 0
-755 -173 319 0
806 -427 -385 0
-64 -461 -665 0
-223 870 -168 0
-359 -622 -897 0
-237 -587 -995 0
-982 -199 -215 0
-478 -476 -54 0
-523 976 -762 0
911 451 -802 0
-485 -697 -981 0
-542 585 -748 0
-302 280 -963 0
-125 -341 -475 0
852 645 42 0
-75 -208 825 0
470 973 705 0
569 523 491 0
-397 524 364 0
584 -905 790 0
-88 -176 -317 0
-19 -272 21 0
-327 -403 -225 0
206 -871 478 0
399 -817 -239 0
959 -807 917 0
-8 -346 59 0
879 -600 -398 0
602 340 -728 0
-702 -809 -373 0
842 -262 -754 0
-961 -812 -955 0
203 248 395 0
-10 928 90 0
255 -850 -515 0
-89 -181 -409 0
-253 687 -639 0
-313 -553 272 0
-661 -537 929 0
-741 -761 -550 0
-190 -840 404 0
323 432 733 0
223 -209 936 0
-485 161 -650 0
-142 143 536 0
-563 588 -885 0
-895 -302 40 0
403 -442 302 0
-737 663 -540 0
-74 814 115 0
-387 628 87 0
11 99 -863 0
-884 461 422 0
-304 -671 -195 0
-417 -923 -555 0
233 449 -816 0
402 -423 -672 0
38 409 296 0
-755 -430 -576 0
-798 -559 107 0
-367 -642 -410 0
259 940 183 0
-352 -267 -369 0
174 59 501 0
-383 702 -69 0
730 735 686 0
-816 973 -43 0
-338 -554 -295 0
306 -25 -857 0
-211 600 -894 0
-427 -280 978 0
640 625 795 0
273 126 593 0
277 -647 25 0
758 -770 -354 0
674 774 -634 0
212 -356 189 0
-590 710 -570 0
-345 823 -613 0
838 -756 410 0
-555 -733 -493 0
-450 868 -181 0
450 55 973 0
-833 -13 -584 0
128 257 -688 0
-895 988 394 0
-607 759 394 0
-431 -419 479 0
-646 735 394 0
-128 105 266 0
-456 -143 197 0
758 609 779 0
247 -898 -682 0
-232 -177 209 0
-856 474 260 0
650 -552 623 0
-801 632 -523 0
561 -828 479 0
-394 561 -958 0
-61 552 197 0
912 422 -491 0
469 147 -177 0
335 -324 -749 0
-667 -935 693 0
-129 440 -731 0
570 -266 306 0
607 -596 -520 0
704 -740 750 0
-691 -932 -719 0
-463 25 107 0
-279 149 130 0
813 -407 497 0
807 -328 -935 0
581 -908 -144 0
-855 -557 471 0
-680 -259 -780 0
936 860 441 0
-660 -675 -140 0
517 65 727 0
724 -502 840 0
-565 -59 -878 0
-456 774 714 0
459 247 -140 0
-509 -921 377 0
54 -77 -909 0
-487 618 -339 0
1000 -451 278 0
-962 -17 790 0
-190 -684 -590 0
-176 -532 -83 0
626 281 -621 0
-419 -175 83 0
-958 707 900 0
724 -584 -879 0
-250 433 -47 0
-293 394 -267 0
-570 -817 477 0
-202 802 -959 0
-835 899 680 0
-203 877 -555 0
155 -545 -158 0
380 943 -557 0
-230 -795 -595 0
-129 301 -394 0
204 348 598 0
896 -317 653 0
658 39 -779 0
104 -768 905 0
39 -258 963 0
159 -959 -334 0
-544 -86 -225 0
-453 942 473 0
174 736 -361 0
-348 -475 -410 0
-761 513 -334 0
-352 -422 94 0
64 12 -862 0
263 416 -130 0
873 888 -210 0
-248 -798 171 0
173 -461 334 0
180 -512 -55 0
307 -345 697 0
-11 348 -940 0
-205 -404 631 0
581 -125 -623 0
-831 -460 -833 0
93 559 416 0
751 -599 911 0
857 78 -321 0
552 318 845 0
781 631 -920 0
-961 65 -898 0
683 -264 553 0
-210 906 -559 0
745 596 442 0
-33 447 -633 0
-321 509 -125 0
-951 919 376 0
-566 436 -751 0
465 227 -453 0
-125 457 452 0
236 77 -924 0
-30 -993 -478 0
419 -771 -529 0
884 368 -187 0
944 53 -311 0
-672 599 580 0
458 24 977 0
717 -174 -444 0
599 168 817 0
974 -264 783 0
-685 897 797 0
-704 -215 177 0
-213 592 500 0
-89 -110 199 0
59 -488 -583 0
235 86 673 0
-659 -461 -750 0
816 -862 394 0
137 -937 259 0
1 909 -79 0
418 809 -196 0
401 904 900 0
-108 513 669 0
771 -766 284 0
754 307 -144 0
735 -786 103 0
733 636 -676 0
-823 -84 451 0
-653 -193 267 0
-721 217 816 0
-789 328 446 0
-179 847 -293 0
717 -36 -793 0
-858 -728 583 0
568 -841 342 0
906 78 565 0
785 -338 189 0
856 -950 284 0
563 -710 695 0
-590 -677 -680 0
505 -724 -365 0
-828 -298 -406 0
179 6 -449 0
-829 -806 834 0
658 -508 139 0
-377 568 -660 0
-945 -38 950 0
-179 -188 487 0
-716 -500 911 0
113 -724 -722 0
-318 -296 142 0
245 1000 280 0
250 511 -380 0
-405 -660 29 0
722 -248 901 0
634 339 490 0
49 -853 -803 0
-114 -610 529 0
-59 -428 63 0
-460 708 851 0
-300 941 -259 0
-273 -805 -463 0
-594 -861 843 0
-512 -152 364 0
-237 888 270 0
-84 -308 920 0
490 -544 -215 0
157 -455 -982 0
-352 -654 -909 0
439 -679 199 0
-526 -622 647 0
568 223 120 0
564 -718 -438 0
454 -979 -160 0
-774 -273 -703 0
795 393 -549 0
-194 743 -970 0
-595 -264 -701 0
-475 -354 -287 0
-915 168 -833 0
346 237 794 0
320 482 519 0
934 -190 575 0
871 889 672 0
-55 135 -569 0
149 -298 -845 0
403 760 445 0
641 827 -466 0
414 -132 806 0
888 -123 833 0
688 646 497 0
684 246 -655 0
767 -526 -32 0
-266 523 732 0
-194 236 410 0
-660 -462 728 0
153 -199 771 0
260 133 114 0
345 -50 -831 0
449 -156 -280 0
471 384 904 0
-834 575 84 0
298 -786 714 0
-793 -82 -471 0
-721 -272 465 0
760 -202 910 0
-393 -239 -926 0
159 -570 311 0
978 756 -826 0
845 593 594 0
-182 -768 -922 0
503 -984 460 0
-604 759 59 0
813 798 158 0
-84 -340 -408 0
93 526 35 0
94 -732 213 0
-596 -325 904 0
239 441 271 0
17 77 -83 0
-252 -270 396 0
-127 865 718 0
-96 787 175 0
-89 806 809 0
-677 214 423 0
888 -486 744 0
-874 179 751 0
-197 -952 -675 0
584 -611 -144 0
111 -805 -45 0
872 -468 934 0
-532 478 -294 0
605 -825 -664 0
926 -335 -738 0
433 -242 -391 0
183 -82 -371 0
435 229 334 0
351 -830 992 0
289 787 430 0
-944 390 -889 0
239 598 112 0
371 145 802 0
-468 -756 -378 0
-993 -774 -139 0
428 850 141 0
328 -38 -205 0
-363 622 268 0
959 964 -439 0
479 378 924 0
735 -379 -62 0
-173 -271 294 0
-50 544 873 0
-500 -962 139 0
897 -790 -520 0
612 585 824 0
171 -178 452 0
-68 -603 904 0
790 -946 803 0
998 -481 -775 0
-230 598 303 0
248 -958 -741 0
823 -56 -765 0
762 677 355 0
170 -596 893 0
435 343 469 0
906 -886 442 0
-769 63 -369 0
44 72 660 0
-574 339 828 0
-99 -264 351 0
-247 353 597 0
301 -162 -445 0
-335 -836 -496 0
84 302 94 0
204 152 800 0
-21 773 73 0
547 -403 157 0
-615 223 -531 0
-934 150 -572 0
341 792 779 0
-71 -95 -721 0
347 415 957 0
-234 958 -196 0
158 810 -637 0
893 758 -602 0
-591 307 472 0
86 724 -707 0
426 245 636 0
-944 609 -541 0
970 154 -555 0
69 -966 320 0
-372 -642 109 0
-303 694 821 0
-246 591 394 0
935 -101 44 0
184 991 185 0
-994 -335 -433 0
-708 943 -793 0
692 -361 289 0
-333 558 -792 0
-940 351 -528 0
-471 -620 423 0
-940 -129 -119 0
732 225 343 0
-885 -287 461 0
-867 599 -681 0
37 -3 177 0
-84 470 -931 0
73 -366 210 0
322 -951 -568 0
967 -381 -440 0
623 -486 -159 0
-488 -987 -891 0
-352 -565 582 0
-861 265 -638 0
-679 -747 266 0
-618 743 580 0
-985 94 29 0
338 -831 -836 0
-823 -70 -166 0
410 -318 -485 0
-798 1 -920 0
743 917 135 0
-316 938 592 0
-861 557 357 0
295 -591 -75 0
511 343 352 0
781 714 -747 0
-371 -980 585 0
-905 -995 -290 0
675 -835 -956 0
-142 -521 -184 0
911 368 298 0
-23 313 -479 0
-539 11 817 0
-137 -21 -277 0
-69 -895 246 0
-375 876 -12 0
176 -169 894 0
-687 -436 351 0
-725 -170 -95 0
582 -195 -243 0
-303 -990 8 0
944 126 -834 0
281 341 671 0
-870 -325 707 0
-3 -638 783 0
-196 -946 283 0
-595 -272 239 0
-462 -88 -244 0
-19 560 865 0
-932 -367 -340 0
692 -810 96 0
768 -409 982 0
780 -567 278 0
905 -104 -54 0
529 691 761 0
197 278 -922 0
222 -594 -248 0
518 -636 -299 0
523 413 -849 0
490 376 -95 0
461 -294 162 0
-134 -78 -265 0
-233 219 -991 0
835 -912 801 0
495 -906 948 0
-36 994 368 0
-483 -6 -680 0
93 510 259 0
-728 315 545 0
818 -596 -196 0
102 -989 -461 0
796 516 964 0
396 -342 -366 0
941 243 -902 0
385 129 -38 0
-348 535 -994 0
-705 -449 -275 0
-961 292 -990 0
-168 -568 -969 0
719 -386 183 0
258 907 -508 0
-715 -524 -759 0
-208 808 762 0
-585 -776 -871 0
285 692 -905 0
-940 374 -752 0
-900 229 211 0
449 569 51 0
594 -797 500 0
-210 579 -358 0
782 819 50 0
-622 853 596 0
938 472 399 0
-429 -97 537 0
-766 571 -454 0
90 -187 -975 0
-797 -774 -481 0
-943 187 510 0
757 43 570 0
-506 82 -78 0
418 -600 -761 0
-722 -383 -128 0
-3 715 -556 0
-258 -84 986 0
-252 -146 -417 0
-875 68 61 0
638 -483 -539 0
-991 472 -864 0
544 -580 -509 0
723 797 -963 0
811 778 -336 0
-290 162 894 0
-302 -765 383 0
-994 -689 -473 0
-5 -227 268 0
-716 285 -185 0
-90 -669 -676 0
-160 -764 839 0
-68 -950 -743 0
-568 -816 155 0
686 -813 -329 0
-262 194 -156 0
723 -998 762 0
-315 -792 -913 0
-74 -705 -564 0
822 -15 -27 0
-211 -246 894 0
785 -281 -933 0
20 -206 -193 0
-31 107 771 0
-907 816 -581 0
-457 -892 -304 0
850 -41 370 0
-531 564 -908 0
587 -322 471 0
-823 294 -862 0
703 -505 113 0
-558 584 159 0
482 -793 -967 0
222 -221 -17 0
781 -554 950 0
546 -295 724 0
-529 -963 -304 0
-238 -293 450 0
622 -788 -284 0
-451 -887 -641 0
101 671 -76 0
-32 412 441 0
-964 -576 -671 0
-406 141 795 0
608 -280 333 0
708 -659 -600 0
-679 784 -957 0
-105 799 98 0
-528 -151 364 0
364 501 299 0
-506 519 386 0
-932 796 -487 0
514 323 235 0
-130 -141 309 0
-824 115 186 0
-806 562 -159 0
667 -310 250 0
-872 629 -992 0
-372 -590 -271 0
-956 -321 323 0
-521 987 697 0
32 -986 848 0
115 789 -34 0
-410 428 268 0
-841 290 -811 0
544 581 -894 0
-342 -916 -386 0
825 683 -988 0
-958 -748 406 0
-918 732 -539 0
-401 -551 538 0
-109 461 354 0
-730 812 -654 0
599 443 -24 0
-565 777 -268 0
41 339 -809 0
565 175 -30 0
-777 349 -379 0
648 -31 -828 0
-687 207 299 0
-916 -757 666 0
706 300 -226 0
-295 -274 -801 0
-925 -470 598 0
-364 -631 -458 0
667 -377 -823 0
574 329 -942 0
-977 866 837 0
-667 -611 906 0
387 225 706 0
-915 569 -448 0
811 -18 -606 0
-764 -942 -719 0
-247 317 939 0
-487 130 275 0
77 -832 891 0
628 841 -762 0
891 757 22 0
388 591 746 0
437 -910 -778 0
-523 -875 -596 0
2 223 -977 0
-20 -305 -408 0
-154 877 -125 0
-999 329 74 0
-561 44 879 0
-348 -362 262 0
641 583 -16 0
-390 549 203 0
653 -183 -235 0
754 725 453 0
872 -154 169 0
-922 770 721 0
698 458 413 0
26 -825 682 0
-542 -949 -819 0
990 855 214 0
-38 -941 717 0
684 -436 712 0
573 -47 -599 0
675 -161 -199 0
-824 162 549 0
639 -338 -501 0
-126 729 535 0
-1000 -105 -899 0
527 116 367 0
730 -648 -546 0
769 524 745 0
546 -699 582 0
-251 607 -794 0
-83 -580 327 0
377 -449 -546 0
555 -369 458 0
-91 873 346 0
-756 -891 96 0
-654 98 -917 0
831 -406 -623 0
-235 581 -889 0
-540 -421 983 0
-941 -303 -923 0
784 -660 -494 0
-345 248 461 0
-575 924 847 0
209 749 -57 0
-634 644 883 0
-136 935 -479 0
76 -537 -566 0
-424 -353 630 0
245 391 282 0
-854 -160 -271 0
-979 78 -795 0
-877 90 992 0
-95 24 -929 0
-583 274 989 0
705 548 23 0
-448 -186 -978 0
24 -696 -111 0
-426 -135 -780 0
402 475 -395 0
-471 970 863 0
-10 -998 -740 0
-858 886 25 0
57 17 -643 0
-583 476 -355 0
-274 -423 920 0
-616 -646 -210 0
7 -572 -713 0
175 -671 -959 0
-677 535 188 0
542 425 815 0
666 762 -474 0
-510 408 342 0
-707 547 516 0
-678 -16 -632 0
-652 830 -248 0
-946 -910 884 0
406 -402 -214 0
71 179 993 0
-407 -572 508 0
-38 683 -241 0
-739 -452 -222 0
-36 -747 -319 0
-513 471 937 0
-358 191 886 0
654 384 -751 0
994 -549 455 0
-624 -878 690 0
821 406 -540 0
-97 -925 965 0
884 498 -357 0
101 305 146 0
-558 254 848 0
366 -354 -139 0
373 79 199 0
-426 -808 311 0
-678 859 437 0
946 399 529 0
-305 360 362 0
737 136 753 0
-885 812 280 0
965 556 912 0
429 -325 192 0
-257 -982 -250 0
898 -313 615 0
503 -284 -11 0
358 247 -511 0
101 841 -121 0
-418 -908 -281 0
-736 -119 421 0
550 -934 699 0
542 -868 -918 0
985 -707 532 0
844 83 -223 0
214 529 527 0
765 -724 326 0
-494 -627 -552 0
-38 -812 815 0
342 909 769 0
717 -278 -339 0
-605 746 -213 0
12 -846 989 0
297 303 -662 0
-287 29 923 0
366 110 143 0
971 -873 -421 0
427 90 -349 0
-316 -412 821 0
-931 -343 -964 0
-74 -150 -564 0
149 -476 -308 0
-825 -635 -535 0
773 -685 435 0
783 938 157 0
294 -270 -20 0
-551 387 -752 0
618 -233 -103 0
666 -996 -715 0
146 -393 -923 0
-323 -497 858 0
-750 477 574 0
-375 260 -309 0
113 -381 275 0
309 574 926 0
913 320 604 0
-760 -607 -977 0
42 757 407 0
418 3 833 0
768 -25 320 0
64 447 715 0
-744 -889 944 0
-811 -149 826 0
-725 426 629 0
245 392 -919 0
-831 298 -181 0
-352 902 98 0
-562 786 -432 0
-730 872 66 0
-160 -683 -572 0
-27 -901 218 0
-536 51 -101 0
321 -504 -483 0
-34 870 -651 0
-187 -991 803 0
611 -990 881 0
-160 51 -155 0
697 627 142 0
7 269 892 0
-436 866 -251 0
865 -735 550 0
-503 631 -711 0
-654 -920 438 0
737 611 623 0
-928 374 346 0
123 -861 415 0
227 18 -502 0
858 874 -865 0
-937 996 837 0
-388 -657 -371 0
10 -122 476 0
-736 -954 -917 0
162 -199 -701 0
-149 -853 726 0
981 -44 345 0
385 -309 -143 0
-84 770 -898 0
556 882 542 0
605 468 951 0
-81 -167 -684 0
-180 84 -756 0
-915 441 -170 0
-383 738 -14 0
149 -546 869 0
-407 -915 237 0
64 -969 929 0
-718 120 -724 0
-822 728 708 0
365 133 679 0
93 -663 -595 0
407 835 -904 0
309 -206 -173 0
90 -735 -822 0
-415 -896 925 0
170 -592 -62 0
-688 -67 530 0
-343 775 184 0
453 45 244 0
-610 -570 -107 0
217 -60 -744 0
588 720 369 0
216 864 831 0
174 -972 179 0
-815 -621 457 0
-553 -998 -98 0
-276 -181 -803 0
666 -426 745 0
-468 288 -252 0
792 842 -945 0
451 585 -853 0
-535 228 455 0
591 211 467 0
252 -792 846 0
74 -196 -595 0
238 558 608 0
-421 32 -33 0
-353 558 -720 0
977 532 -151 0
-556 630 -25 0
420 -459 202 0
-28 -11 255 0
-552 794 -800 0
-381 434 -771 0
723 -999 390 0
-870 823 -384 0
513 595 -864 0
481 -991 -808 0
947 -817 578 0
941 599 451 0
-722 554 -185 0
-696 420 414 0
-788 -5 -675 0
296 -236 -487 0
-488 423 -751 0
-7 -171 247 0
505 163 20 0
-224 995 -253 0
621 936 -217 0
674 -222 -671 0
407 814 -263 0
-732 -241 745 0
-652 697 -135 0
-20 -226 156 0
-556 -627 -134 0
-163 956 -887 0
-740 255 -331 0
919 256 66 0
638 -598 793 0
910 -749 768 0
-752 -889 -703 0
396 -797 -806 0
-116 -300 933 0
532 310 -106 0
203 107 939 0
-212 646 -719 0
441 -892 735 0
422 448 753 0
741 -896 -743 0
342 754 -234 0
556 -657 856 0
-548 812 -413 0
845 988 970 0
-50 724 20 0
-600 168 164 0
354 -122 -478 0
-429 926 973 0
-34 519 29 0
717 -735 918 0
-676 -509 -375 0
-587 969 838 0
-811 121 508 0
-957 284 -906 0
-83 -547 549 0
-676 -540 384 0
-220 40 631 0
-637 208 -825 0
523 443 -967 0
511 189 9 0
-421 -60 -704 0
-221 121 -147 0
220 407 311 0
527 970 -315 0
-193 976 -456 0
-65 105 -38 0
-465 370 500 0
568 691 -888 0
132 -81 918 0
934 -720 -659 0
-860 -230 257 0
424 -685 222 0
-872 -212 687 0
314 -647 778 0
910 -934 -760 0
977 -319 692 0
671 363 74 0
133 -575 -874 0
360 299 481 0
129 385 618 0
301 -550 489 0
706 518 -295 0
675 -971 -945 0
701 -642 66 0
884 643 15 0
-890 657 -804 0
-283 663 -313 0
938 123 887 0
-322 567 175 0
262 676 -593 0
230 -750 -438 0
82 -602 237 0
33 -368 -48 0
-5 741 698 0
788 989 -525 0
-129 -164 -157 0
-292 264 122 0
834 189 228 0
-277 443 780 0
829 -949 893 0
-777 -791 -999 0
82 -854 -351 0
-57 -656 -979 0
-222 -999 963 0
-487 -876 -317 0
-777 -921 258 0
500 -854 -258 0
303 -283 214 0
-530 945 -518 0
-879 81 234 0
370 -697 650 0
-415 44 -441 0
179 -683 -218 0
-253 -713 679 0
-685 380 754 0
-399 -976 621 0
631 8 390 0
-403 218 146 0
123 61 525 0
-860 -249 829 0
-746 -492 -180 0
443 283 -571 0
674 -992 -774 0
-519 -336 -737 0
-829 427 -776 0
628 -5 -485 0
-944 982 -569 0
-980 -774 544 0
676 135 847 0
508 -153 891 0
-490 -318 -370 0
160 -155 -46 0
292 -103 569 0
-15 -50 277 0
276 -874 217 0
804 -719 -659 0
-740 -147 154 0
20 517 -645 0
770 -567 506 0
-541 -720 59 0
632 -323 -318 0
129 -600 -627 0
648 772 983 0
75 134 827 0
954 -844 -632 0
308 932 125 0
-959 -564 651 0
278 -420 -638 0
-381 -590 914 0
646 618 -22 0
184 371 -96 0
-824 -171 -866 0
332 450 -272 0
-5 -736 -545 0
232 -673 74 0
35 73 295 0
583 -219 -925 0
-667 273 -600 0
-95 527 -670 0
-884 852 -522 0
-686 -357 -924 0
-145 67 632 0
990 -912 -4 0
-526 -434 247 0
620 324 -906 0
-703 -850 978 0
254 594 198 0
-427 -153 707 0
341 -100 896 0
811 -172 -749 0
220 593 413 0
821 164 -811 0
-808 -24 -91 0
307 896 -144 0
987 623 -419 0
368 378 -475 0
-794 845 -21 0
268 560 -42 0
768 181 -844 0
833 -893 -343 0
-292 296 -689 0
206 615 -568 0
-952 882 404 0
131 -12 -7 0
-952 -848 40 0
-989 995 385 0
-107 -578 -170 0
630 459 622 0
398 -975 37 0
162 -575 -823 0
251 836 -818 0
-52 -567 517 0
-968 107 867 0
-802 830 -357 0
-186 -570 409 0
220 -467 393 0
491 710 800 0
979 317 439 0
706 -485 989 0
-906 -405 -351 0
530 -423 -203 0
716 770 318 0
-942 848 147 0
951 473 -823 0
-284 494 883 0
-12 -961 649 0
-413 -390 -170 0
-328 -741 265 0
-823 -816 -119 0
-85 697 599 0
4 -736 958 0
574 -918 -373 0
591 -916 -192 0
319 648 53 0
-176 -293 366 0
-991 655 387 0
-723 172 -296 0
-708 975 529 0
-625 -493 -825 0
-531 657 -759 0
399 -143 736 0
-761 -20 -805 0
-355 296 -914 0
-444 -974 -636 0
-960 322 9 0
3 975 529 0
-309 -638 734 0
254 -404 705 0
-435 -137 768 0
-538 68 367 0
-39 857 997 0
-852 -682 36 0
338 566 -973 0
255 653 -795 0
457 -194 289 0
-25 430 -644 0
-241 -532 348 0
779 663 776 0
-195 190 431 0
-119 -299 -5 0
455 147 428 0
571 -437 -454 0
988 -439 -229 0
-309 -440 742 0
606 444 -245 0
-869 -153 403 0
758 -880 700 0
-451 -592 197 0
733 -476 522 0
-978 -278 258 0
570 912 524 0
-305 679 93 0
-560 -725 -120 0
61 -976 966 0
-207 -268 726 0
597 -808 -636 0
-343 -606 -624 0
13 -167 -682 0
-175 569 -794 0
325 -463 683 0
828 -126 582 0
-965 284 69 0
-403 -134 630 0
311 101 -247 0
219 915 -655 0
-69 -806 452 0
-269 -734 -11 0
-345 -73 530 0
997 627 287 0
676 321 -232 0
901 989 -870 0
524 662 642 0
-529 -281 -515 0
-307 410 -465 0
-37 444 -1000 0
255 -282 96 0
287 817 490 0
-141 893 694 0
191 -64 -910 0
520 474 -270 0
-664 -300 -456 0
-949 9 -829 0
-503 56 743 0
-668 996 -655 0
-286 -16 540 0
-777 861 -272 0
-811 691 -243 0
-477 -467 823 0
703 324 189 0
-102 -157 -621 0
374 14 -813 0
390 -583 -838 0
-892 -619 -58 0
-12 570 547 0
914 -810 296 0
-578 -192 321 0
105 -189 -951 0
-283 307 -434 0
835 -241 -524 0
-655 376 -679 0
8 774 -466 0
574 970 -36 0
-196 -124 -918 0
-788 -558 894 0
-452 754 768 0
-482 -188 -753 0
479 332 521 0
850 -853 382 0
-291 -873 -475 0
-395 -290 -741 0
901 -420 758 0
2 945 437 0
798 -346 -429 0
-955 222 -318 0
121 -553 279 0
822 589 966 0
-752 430 391 0
-676 -764 5 0
70 -147 -313 0
725 536 -176 0
252 -516 -379 0
531 -358 -938 0
-208 -499 -438 0
-320 -671 -616 0
451 957 -88 0
-448 -215 896 0
470 -356 967 0
-969 544 968 0
-798 -360 -158 0
-589 -496 447 0
202 -549 972 0
636 95 296 0
419 552 818 0
852 -139 -551 0
261 -830 973 0
-904 -188 -566 0
928 -481 288 0
-876 426 -785 0
-231 413 -542 0
-681 879 -17 0
-56 -517 -498 0
-795 78 -312 0
-722 -282 -592 0
-972 -612 359 0
-631 316 -28 0
840 -597 -93 0
112 -224 -45 0
-62 928 -73 0
-978 -558 -444 0
170 -823 -84 0
160 -490 -692 0
364 -396 777 0
233 -382 -467 0
120 -466 965 0
462 946 425 0
685 -526 514 0
555 -251 775 0
-777 -684 -146 0
-37 -799 -224 0
-589 -958 -517 0
-98 605 434 0
-143 -305 -376 0
-616 841 998 0
-713 -681 -568 0
40 303 -118 0
-85 833 461 0
64 671 990 0
-229 335 -547 0
959 -492 -339 0
-324 910 -33 0
620 494 -639 0
890 115 495 0
-918 -640 -914 0
-321 740 348 0
-78 -409 -89 0
932 -733 -229 0
132 769 -761 0
858 -151 -18 0
305 -470 572 0
459 -757 510 0
913 773 -224 0
181 -762 388 0
-256 445 -44 0
-701 -303 916 0
681 -291 -907 0
806 -810 -469 0
-303 -975 -689 0
143 -900 -490 0
-39 247 341 0
-102 963 791 0
-614 -867 537 0
731 -50 688 0
-875 825 -732 0
-95 -818 726 0
-273 -397 9 0
783 -216 960 0
-506 -183 -22 0
854 -36 12 0
-676 956 744 0
-895 308 807 0
-70 -557 -71 0
-347 -901 -573 0
-926 -450 -67 0
-421 -619 846 0
-101 -714 -290 0
123 -489 424 0
732 879 658 0
-213 -903 -899 0
765 363 -418 0
-257 659 -390 0
-709 -89 -713 0
398 753 63 0
569 -82 -393 0
-519 499 -130 0
918 140 -64 0
-948 -796 381 0
388 -351 818 0
546 -256 -891 0
-311 -862 581 0
-452 -278 284 0
-562 -188 -733 0
-436 -307 914 0
-139 -530 -500 0
-229 -609 -697 0
137 270 -944 0
-61 454 -435 0
-322 -23 404 0
-236 -809 -669 0
-610 -156 217 0
-340 765 931 0
872 -513 904 0
316 345 120 0
-439 92 -876 0
-897 -426 -565 0
733 306 685 0
666 -272 886 0
108 738 242 0
-354 591 757 0
-756 -98 -734 0
344 820 936 0
543 -155 650 0
704 109 236 0
799 -864 -476 0
-67 96 516 0
-796 403 670 0
912 -367 -947 0
-390 288 572 0
70 508 -852 0
821 34 -622 0
141 -92 302 0
-369 192 -237 0
-717 -207 -848 0
472 818 -556 0
-517 -124 984 0
239 626 806 0
-90 -80 -253 0
-780 330 713 0
-748 715 653 0
-78 933 467 0
-418 -828 -845 0
-726 682 120 0
804 235 895 0
66 175 -215 0
-201 466 310 0
845 321 33 0
-893 735 -45 0
619 -398 873 0
847 -834 948 0
-600 48 -342 0
-259 923 277 0
-499 226 827 0
-316 -768 125 0
411 -875 540 0
-837 632 52 0
-224 -218 -981 0
463 -456 797 0
302 741 -175 0
312 -891 28 0
87 -193 342 0
465 -318 866 0
-517 250 -843 0
988 987 -500 0
-28 884 -565 0
37 -316 830 0
587 729 904 0
-442 958 -473 0
-96 902 383 0
-218 352 468 0
-307 -308 259 0
2 -925 -723 0
-46 984 307 0
-324 -889 -178 0
225 -744 -427 0
578 974 -128 0
-755 801 -321 0
-366 177 129 0
779 650 65 0
-211 551 -660 0
742 -141 -879 0
-908 -904 -679 0
950 -910 -299 0
-154 518 -684 0
-703 -405 -563 0
925 -242 -815 0
-52 216 790 0
758 652 -662 0
-191 216 871 0
274 -538 582 0
-952 23 53 0
-969 -820 -182 0
-23 658 111 0
761 -70 274 0
981 -253 -948 0
250 -141 -284 0
-431 -649 245 0
199 65 32 0
-672 365 -214 0
-64 163 199 0
-563 593 798 0
-173 -718 551 0
615 949 455 0
-709 -918 828 0
-432 -203 405 0
851 -894 -108 0
562 -550 976 0
-97 202 -985 0
126 -628 950 0
94 -226 -442 0
736 -346 976 0
795 -210 -779 0
-708 -205 -814 0
447 -659 812 0
-933 47 283 0
-500 448 -267 0
-293 -252 -244 0
-405 -183 -545 0
387 213 409 0
-660 577 65 0
-188 31 504 0
917 -820 302 0
-39 -822 724 0
931 74 406 0
-453 168 -225 0
-392 937 -455 0
-158 502 -28 0
-182 115 455 0
-125 569 426 0
-863 -551 -624 0
-655 -276 -137 0
-270 -278 310 0
495 -885 519 0
-454 360 -619 0
443 -525 417 0
54 -296 -986 0
-475 -787 283 0
947 -989 472 0
-266 -144 128 0
-1 968 -198 0
235 -192 -193 0
-291 801 -360 0
135 -442 -884 0
518 -370 443 0
-534 982 -69 0
-570 -574 70 0
345 -708 -748 0
702 -529 -680 0
981 599 506 0
126 -663 826 0
-513 354 952 0
33 -705 341 0
645 -73 -446 0
502 -136 960 0
-607 408 533 0
173 679 846 0
-265 365 656 0
682 649 -615 0
-984 -749 166 0
-905 176 -14 0
257 584 -249 0
458 -381 557 0
-990 593 852 0
-275 -702 -826 0
1 204 761 0
-889 49 185 0
-190 383 -71 0
976 203 882 0
779 118 36 0
-968 509 -563 0
-76 904 -705 0
-59 -964 34 0
567 575 -223 0
-720 -684 875 0
3 335 -929 0
-988 980 -562 0
2 -543 865 0
101 -872 38 0
100 25 -625 0
247 -463 -941 0
121 193 34 0
-713 -741 -264 0
-180 -937 -684 0
-681 -714 323 0
257 -795 528 0
809 -629 743 0
994 -776 -471 0
-112 -814 -965 0
420 -938 770 0
-703 264 511 0
551 856 51 0
426 131 -389 0
21 895 -845 0
-587 786 -609 0
646 586 -374 0
-258 96 777 0
97 17 925 0
-330 -546 195 0
687 -862 356 0
264 -894 325 0
-654 830 -367 0
-327 -260 -651 0
-153 -191 197 0
-604 -872 266 0
-519 -376 842 0
-843 -469 -900 0
456 -113 994 0
-95 -701 131 0
329 236 -381 0
525 876 -146 0
-331 396 732 0
350 -126 886 0
-854 -917 -18 0
429 312 -364 0
657 658 -476 0
-143 66 317 0
-663 -467 715 0
860 -464 -669 0
951 -95 402 0
294 -372 574 0
-568 -188 -495 0
-249 -9 850 0
-49 -354 -121 0
394 -674 840 0
-542 972 934 0
331 654 -156 0
958 -154 985 0
-672 -621 -311 0
-789 661 670 0
6 529 -747 0
211 844 -728 0
495 -690 -519 0
-943 584 603 0
-911 258 -797 0
807 -760 131 0
898 -663 -51 0
-822 841 53 0
610 87 782 0
237 -502 -749 0
414 659 -645 0
-321 342 -887 0
451 -846 -569 0
-853 -960 986 0
621 507 664 0
417 736 -237 0
-95 -587 880 0
981 -694 733 0
-379 -688 -184 0
311 -887 558 0
949 592 -42 0
-682 -776 -373 0
-647 -824 -245 0
87 718 -197 0
31 -805 -496 0
69 312 -795 0
469 173 -462 0
-534 461 494 0
486 834 -836 0
-211 560 -80 0
415 823 483 0
-115 -127 -248 0
434 -92 -337 0
998 897 721 0
893 869 861 0
-2 787 -533 0
-846 -357 314 0
-703 -612 -445 0
-439 355 -493 0
687 573 -833 0
-486 208 -424 0
62 -896 -619 0
-489 -573 -277 0
-3 383 -490 0
762 -221 63 0
144 977 -514 0
276 14 773 0
845 -401 -412 0
-223 543 79 0
852 -538 -611 0
282 663 26 0
121 843 -160 0
416 283 935 0
112 -967 -383 0
512 227 -816 0
-26 -838 603 0
257 879 887 0
150 -761 -740 0
-561 303 606 0
746 18 703 0
276 -285 -351 0
-973 -251 -128 0
-39 240 -327 0
-58 -487 284 0
346 -820 -113 0
-500 -176 146 0
-730 120 230 0
412 685 375 0
659 -809 -43 0
156 -403 -992 0
914 -667 -877 0
-820 -167 263 0
364 -611 46 0
169 -256 362 0
-22 -897 337 0
194 48 -337 0
470 -948 343 0
322 87 79 0
369 -562 -349 0
630 -287 400 0
-275 -532 261 0
927 -784 -996 0
-254 -992 -548 0
437 -823 -172 0
-244 -305 -507 0
-986 -755 719 0
-522 -152 -128 0
-726 -701 -287 0
-550 517 632 0
-250 107 -1000 0
-768 -574 -672 0
750 -682 -478 0
-742 99 -795 0
-57 477 -407 0
471 -575 -636 0
48 387 -217 0
281 -300 727 0
849 94 225 0
-170 132 -771 0
624 -141 -632 0
-468 -397 438 0
-852 -331 -931 0
-28 472 -839 0
480 -465 357 0
-561 -639 473 0
-22 -874 498 0
503 257 656 0
-676 149 233 0
-438 -678 -59 0
734 898 -463 0
-782 -187 -573 0
-661 -201 746 0
-441 -482 685 0
555 -175 -274 0
25 508 316 0
-306 -710 -713 0
-559 987 786 0
361 -754 136 0
-510 -422 83 0
951 -581 913 0
933 338 -921 0
900 300 -907 0
185 680 570 0
825 -578 -603 0
-883 -315 -19 0
-518 637 -441 0
-651 -932 319 0
-419 -650 -324 0
-138 16 359 0
-79 169 330 0
-954 -161 -238 0
569 633 -102 0
697 -279 -655 0
-650 -108 -453 0
-312 -939 862 0
-775 -218 409 0
-269 591 -857 0
696 265 784 0
810 -117 205 0
-414 -77 152 0
-308 -215 -143 0
454 424 38 0
177 32 987 0
-418 -924 -447 0
-782 -537 842 0
843 877 -21 0
948 -363 814 0
52 169 -26 0
-200 411 479 0
672 503 -556 0
158 -253 -542 0
455 -720 -633 0
-278 -479 642 0
987 -933 -347 0
762 -74 836 0
967 -195 -779 0
-618 434 -69 0
-112 -380 894 0
784 290 161 0
536 600 -431 0
-163 -863 -40 0
727 -682 871 0
52 -780 -434 0
434 872 -521 0
-180 -447 -694 0
512 -917 -525 0
-49 -200 -597 0
148 -630 -781 0
3 -931 959 0
-109 573 -541 0
-352 -408 317 0
-599 -69 -404 0
-918 -655 74 0
-799 -800 -605 0
333 -627 -298 0
-620 489 -30 0
641 921 -567 0
218 998 -354 0
-816 -540 673 0
-725 -949 -943 0
961 833 -611 0
-747 -439 -553 0
276 -939 -133 0
-167 -251 -570 0
-179 -485 -282 0
-855 906 578 0
94 -496 -10 0
977 -172 -261 0
-475 312 422 0
821 -173 939 0
-112 574 -944 0
-413 889 -457 0
-456 -963 902 0
291 -265 807 0
634 -792 818 0
-827 180 226 0
-455 -141 82 0
594 -336 -979 0
366 -285 -53 0
-734 -674 -187 0
-126 -967 -411 0
-824 -899 957 0
353 -316 -452 0
241 -943 -447 0
16 -537 624 0
-324 -503 -609 0
-929 114 -817 0
-652 -894 201 0
367 258 -432 0
307 247 -564 0
692 941 701 0
701 75 248 0
516 -569 606 0
59 668 175 0
-660 -271 267 0
-759 497 -315 0
-602 872 -285 0
-729 549 -990 0
278 -553 -822 0
864 404 248 0
-506 -800 107 0
342 -736 -202 0
447 -146 -432 0
-510 579 -362 0
637 -55 -549 0
883 -647 -52 0
866 -477 217 0
-498 -559 577 0
216 -400 -598 0
758 -631 418 0
923 128 736 0
-865 -632 -902 0
-76 -713 30 0
884 -575 771 0
374 -161 120 0
-431 161 -407 0
-591 157 161 0
-885 -808 -310 0
608 27 -545 0
256 546 -36 0
56 523 -550 0
561 565 -964 0
-574 192 99 0
-413 167 -971 0
-681 -43 -78 0
-894 -830 -258 0
416 369 -312 0
-995 -28 -466 0
-577 583 334 0
-43 -711 -785 0
453 69 261 0
-627 505 -257 0
987 508 154 0
45 -393 -981 0
-800 -144 -37 0
-185 -747 300 0
24 160 584 0
259 -91 -31 0
-879 -121 503 0
-437 298 98 0
868 910 -96 0
990 -832 970 0
26 -137 -193 0
-766 316 114 0
874 -231 -963 0
-706 594 666 0
-472 -684 -255 0
-221 292 -42 0
70 -284 -396 0
899 396 -320 0
870 -348 -990 0
-772 120 -789 0
-699 -299 256 0
-556 119 -357 0
-621 936 -545 0
69 155 324 0
660 634 -402 0
927 -438 376 0
-3 -215 -257 0
-379 801 -534 0
579 -236 -108 0
-328 709 670 0
-961 -806 129 0
503 117 -182 0
-467 -481 -953 0
-355 759 856 0
426 -613 494 0
-597 355 -363 0
-397 525 -276 0
-928 -92 616 0
-336 -795 839 0
-56 50 268 0
103 -977 -513 0
-885 415 -549 0
-111 -215 929 0
-643 -381 -151 0
-917 696 784 0
701 607 -177 0
996 -924 722 0
-117 -941 -359 0
-906 570 -755 0
-264 883 30 0
24 -731 -927 0
335 200 668 0
-501 815 -442 0
801 570 644 0
-904 -174 699 0
612 716 504 0
669 589 -393 0
768 -541 -46 0
658 126 -205 0
646 34 607 0
741 -393 -613 0
-456 -553 -798 0
-982 513 -645 0
-252 -884 81 0
699 -817 -823 0
931 -953 683 0
579 -389 -578 0
-771 -424 683 0
-424 346 763 0
-274 -322 217 0
108 -508 -219 0
797 -953 955 0
942 -165 -647 0
-675 -244 393 0
259 -403 -534 0
-799 542 329 0
709 268 -924 0
-334 91 360 0
584 90 -257 0
-238 85 382 0
920 -35 726 0
682 -448 -868 0
-834 -641 -212 0
421 476 -864 0
-905 174 -675 0
-576 176 -222 0
964 -458 -602 0
957 690 -626 0
579 -946 -153 0
-586 895 863 0
279 675 -904 0
-911 -505 112 0
551 88 814 0
-32 -278 -855 0
974 -490 -551 0
-583 90 591 0
171 -242 945 0
929 -369 601 0
-128 -526 401 0
-366 -768 402 0
-793 929 156 0
-655 -759 -180 0
857 460 -703 0
-682 240 719 0
-766 -230 677 0
808 -897 173 0
-457 -470 -702 0
-160 88 -709 0
-385 216 145 0
928 -478 -549 0
143 371 739 0
-465 -507 -227 0
-559 863 775 0
816 878 -67 0
689 282 119 0
-358 119 459 0
-191 -498 -387 0
352 -968 276 0
-28 -23 255 0
-337 206 468 0
-570 -564 756 0
449 -307 107 0
262 -940 469 0
-903 967 748 0
-136 -776 -847 0
785 -16 -46 0
726 551 -448 0
685 -316 -272 0
898 -525 339 0
-566 -52 201 0
669 142 89 0
710 -514 569 0
436 552 -680 0
1000 -324 -319 0
630 248 -158 0
-591 -17 -12 0
-464 -176 973 0
-660 -123 759 0
-993 -479 -238 0
-927 -851 457 0
-116 -483 -397 0
-121 -176 251 0
836 660 -334 0
74 -515 -774 0
838 459 217 0
-554 662 -143 0
-137 -988 -521 0
-202 -182 -380 0
-42 509 238 0
904 789 -879 0
-174 321 -410 0
-464 -523 615 0
-309 -27 369 0
-563 692 340 0
106 573 -326 0
148 -678 113 0
513 678 -145 0
-583 -748 -975 0
767 268 297 0
322 -880 809 0
91 872 503 0
252 442 -192 0
574 312 -749 0
984 -360 134 0
564 891 611 0
-520 713 431 0
-667 -794 -485 0
-980 -885 422 0
746 -160 -484 0
