c Large 3-SAT formula for GPU testing
c 500 variables, 3000 clauses (ratio: 6.0)
p cnf 500 3000
-467 396 308 0
-224 91 -12 0
-286 238 -444 0
182 81 -224 0
-430 -47 299 0
-436 -66 122 0
295 -239 -110 0
147 423 -136 0
130 303 362 0
-284 -51 -61 0
-373 -285 107 0
-76 223 115 0
220 10 422 0
230 315 214 0
-412 -90 291 0
-480 138 450 0
-39 442 65 0
212 -374 319 0
497 430 -405 0
370 319 -64 0
118 52 -378 0
-258 -438 -119 0
-60 196 -335 0
-200 -490 -360 0
124 -24 173 0
259 4 401 0
-399 130 -144 0
-69 -315 360 0
456 -35 214 0
-499 350 -200 0
175 85 230 0
-65 102 260 0
-404 173 -68 0
-386 -308 -465 0
-111 -116 -173 0
-413 75 148 0
48 -455 202 0
-232 350 -461 0
-37 -25 6 0
-20 93 -457 0
87 375 -45 0
137 -51 -268 0
-113 444 -15 0
-442 -179 -434 0
322 -75 224 0
420 -374 -277 0
-462 93 -371 0
348 -233 298 0
-389 461 190 0
429 136 -485 0
340 466 -444 0
223 -499 181 0
-115 244 -79 0
78 378 224 0
419 199 -332 0
464 -269 -19 0
-432 349 -229 0
-445 -305 -96 0
22 497 -345 0
454 282 433 0
-89 -351 -398 0
351 182 -459 0
-15 -400 368 0
308 220 493 0
495 -287 112 0
421 -175 -21 0
-21 407 -290 0
-20 -132 109 0
72 33 -491 0
460 326 204 0
-296 410 95 0
-401 -242 -160 0
-290 -349 -435 0
426 373 363 0
6 267 -140 0
-109 -287 76 0
319 112 360 0
11 -415 53 0
257 -448 181 0
32 -481 26 0
83 199 -431 0
-496 72 -213 0
130 470 -119 0
-105 216 -295 0
336 -212 62 0
209 380 -213 0
-264 287 -93 0
-399 207 -309 0
-174 296 -159 0
-469 272 -349 0
272 -358 405 0
434 197 439 0
382 449 301 0
389 -71 181 0
56 -50 -6 0
-4 184 295 0
305 -469 -290 0
7 268 -179 0
418 130 426 0
-139 392 302 0
238 -408 -419 0
-273 9 -410 0
-254 194 369 0
-176 347 251 0
-483 -486 -387 0
-359 -233 -55 0
223 -465 466 0
-159 -285 283 0
320 99 -469 0
-99 -39 -481 0
-47 -171 -378 0
245 -365 20 0
-276 375 117 0
-351 14 -112 0
-255 -51 -379 0
-27 -132 -261 0
-263 152 32 0
-307 -429 442 0
86 242 -212 0
-422 131 382 0
123 -176 -190 0
36 436 -355 0
378 -11 -479 0
162 111 379 0
-394 -196 469 0
-61 332 383 0
209 155 -466 0
369 -342 -432 0
351 12 236 0
402 -165 -333 0
-212 -48 -431 0
283 -500 -384 0
-311 429 145 0
190 -276 -45 0
245 496 -425 0
343 451 383 0
208 52 -77 0
23 474 367 0
283 -439 -287 0
119 21 427 0
-374 -290 -489 0
-66 -317 213 0
4 451 32 0
-286 97 226 0
130 6 -467 0
226 -88 -147 0
-148 422 -300 0
-1 128 170 0
-406 70 411 0
48 73 237 0
293 476 -276 0
120 131 224 0
-129 469 -371 0
321 -222 69 0
294 298 -270 0
-440 490 387 0
-118 -66 -160 0
-430 -103 -440 0
-391 456 401 0
457 119 -497 0
-239 -191 117 0
-460 47 77 0
101 428 441 0
382 247 45 0
-359 -125 -111 0
289 11 -2 0
18 -377 -265 0
-145 -118 -218 0
92 70 -199 0
-143 -381 -128 0
160 351 -247 0
-159 -49 -412 0
472 -25 -450 0
-461 -12 -473 0
264 -254 193 0
-200 491 -32 0
302 -198 498 0
-434 320 -262 0
269 -253 -415 0
298 210 -19 0
-281 195 -269 0
-320 112 -49 0
233 448 491 0
-111 -499 -40 0
453 -21 341 0
-114 -109 360 0
12 465 188 0
-111 -142 -293 0
-454 336 347 0
-24 224 34 0
-451 -390 -100 0
-134 -15 -205 0
-313 -218 -171 0
-41 -373 -466 0
-468 -394 -223 0
-440 126 -204 0
145 271 405 0
-468 -2 -444 0
-262 -358 160 0
436 30 316 0
179 345 464 0
-434 -71 54 0
295 54 -433 0
-474 365 -22 0
461 477 -486 0
-393 380 -22 0
129 77 -352 0
101 -82 107 0
-318 -262 194 0
-482 -153 432 0
-37 219 -19 0
176 -359 102 0
-400 -178 282 0
351 153 -414 0
162 -25 320 0
365 -149 -410 0
-390 -144 413 0
399 -36 -411 0
-111 -280 129 0
111 -182 373 0
254 -443 -152 0
108 -430 -52 0
454 -229 427 0
85 -10 346 0
-314 -48 -382 0
117 -190 479 0
391 221 -246 0
-20 127 337 0
-128 -410 448 0
490 174 -270 0
-426 32 -484 0
-420 367 476 0
435 -341 170 0
165 -238 -374 0
230 156 -181 0
473 149 -453 0
-419 -184 29 0
-138 455 -245 0
374 -381 128 0
312 369 427 0
-262 -11 256 0
-208 195 212 0
193 -424 48 0
-193 399 -472 0
385 436 400 0
-188 321 238 0
-423 -141 187 0
456 319 147 0
-117 347 389 0
267 47 329 0
454 -497 61 0
-143 -144 -93 0
39 -93 200 0
-57 -272 -149 0
-319 217 139 0
-361 210 355 0
-83 -473 491 0
158 -308 -495 0
-422 -286 -256 0
144 -192 91 0
405 -280 125 0
249 -90 -458 0
135 114 -463 0
-78 198 241 0
79 -284 -444 0
-30 146 305 0
-210 -68 79 0
433 -22 -98 0
261 -213 189 0
290 -468 453 0
-166 58 -123 0
-189 466 -18 0
497 -267 300 0
-57 -395 -262 0
77 331 388 0
440 467 -7 0
-426 224 -409 0
-219 -171 394 0
371 -329 52 0
156 195 379 0
-249 128 -149 0
33 12 397 0
274 302 -268 0
488 -214 5 0
404 304 128 0
-442 183 -127 0
279 -452 -225 0
470 369 -223 0
-2 -470 -370 0
31 498 446 0
316 28 -51 0
-472 -190 -486 0
311 33 270 0
233 -17 445 0
488 -443 -69 0
-4 -59 -245 0
-443 404 -109 0
-158 167 -344 0
-251 -290 271 0
-114 105 -352 0
319 -388 -116 0
220 348 -138 0
-474 85 432 0
99 -280 347 0
-117 378 431 0
158 -37 -297 0
-17 -196 292 0
-193 -99 -375 0
232 191 151 0
383 197 -350 0
457 395 -282 0
-308 162 148 0
-248 -253 -11 0
333 -29 -160 0
327 -457 51 0
364 -366 421 0
271 -31 13 0
36 237 -135 0
-254 -309 387 0
-244 292 -456 0
151 282 -95 0
-301 447 442 0
94 -183 402 0
153 422 351 0
-445 119 104 0
38 294 117 0
52 460 -269 0
-165 -158 -404 0
476 -257 256 0
184 466 -98 0
241 -267 -238 0
162 -453 116 0
-209 250 317 0
164 -479 223 0
346 -493 132 0
-439 -490 -79 0
-429 288 462 0
-297 60 -368 0
-474 370 -422 0
126 375 46 0
241 -312 -277 0
-298 -99 -315 0
19 489 -424 0
-280 30 75 0
236 -141 278 0
-274 -458 395 0
-466 -463 396 0
-347 -113 276 0
-124 -473 400 0
346 -494 178 0
93 339 -117 0
-141 295 221 0
183 301 118 0
491 123 39 0
476 341 -358 0
-143 -400 288 0
323 -425 -431 0
-24 -247 275 0
-300 412 46 0
-498 -279 20 0
3 74 95 0
481 369 1 0
22 496 34 0
66 421 -140 0
-472 263 488 0
459 -187 -203 0
498 -429 445 0
-450 -71 430 0
-473 254 -450 0
400 -73 -246 0
340 -77 -201 0
221 270 364 0
150 245 101 0
391 390 330 0
453 251 370 0
90 -341 -129 0
366 -39 -26 0
-78 495 87 0
-468 -99 -181 0
213 -217 -205 0
41 -428 -245 0
-129 222 471 0
443 487 -452 0
-415 -165 -13 0
-327 209 448 0
-308 -477 325 0
-160 -293 224 0
361 63 493 0
-122 -60 363 0
-152 431 -182 0
-382 -203 344 0
308 101 275 0
-200 366 -306 0
-489 -69 -70 0
458 -68 -88 0
-183 225 324 0
67 381 439 0
-30 -434 -42 0
-115 -144 -119 0
-391 -182 -231 0
-319 78 -416 0
486 -98 459 0
-17 37 200 0
-420 -332 -45 0
324 -245 -267 0
122 200 103 0
-69 -455 183 0
-135 -10 193 0
-330 -365 160 0
236 316 451 0
-306 255 -196 0
395 25 -152 0
389 -444 146 0
-256 -327 -79 0
-58 96 -65 0
13 -437 -74 0
-225 309 151 0
-185 150 -270 0
480 391 -326 0
52 -9 -242 0
229 303 484 0
-176 -363 -44 0
392 -429 -44 0
-46 -155 -122 0
-261 -252 245 0
467 330 -324 0
119 423 -320 0
404 205 61 0
147 181 -77 0
-135 431 -381 0
-380 -205 268 0
155 -392 -258 0
-260 431 347 0
-351 -451 -281 0
232 -190 98 0
376 -84 405 0
258 -17 -384 0
-390 171 -93 0
450 -262 -377 0
129 -148 -374 0
-406 -151 -332 0
369 -418 -421 0
-225 9 -101 0
334 495 -54 0
30 -296 -24 0
244 -452 264 0
-419 -292 -17 0
-419 64 -171 0
-435 -248 76 0
265 -127 -27 0
-64 8 -296 0
107 -288 350 0
-45 -440 39 0
-180 79 -341 0
388 -165 -177 0
165 -281 166 0
8 -106 -60 0
-414 151 -136 0
-6 92 336 0
-349 -129 490 0
-439 366 -92 0
-122 -113 -203 0
441 88 204 0
-479 245 -423 0
-329 -36 410 0
491 -330 -283 0
97 103 -219 0
91 9 -71 0
430 242 301 0
-79 -203 -242 0
-285 -481 -394 0
-163 92 32 0
215 364 441 0
-427 -241 95 0
86 301 351 0
388 -353 -271 0
380 24 -330 0
366 -297 495 0
-436 -293 -390 0
482 -422 -433 0
310 -336 -221 0
276 260 273 0
-47 -210 68 0
-471 -240 195 0
459 -251 -36 0
-362 -83 293 0
-258 -145 227 0
313 -393 245 0
210 377 454 0
118 -263 103 0
-312 -300 -149 0
-46 448 -236 0
-133 -138 -216 0
-17 466 467 0
-473 188 128 0
31 137 -396 0
-476 396 -343 0
-113 345 -342 0
-458 -195 172 0
-284 -301 -70 0
-195 244 230 0
199 453 2 0
-75 -225 -471 0
242 79 84 0
148 -29 3 0
-203 199 21 0
-482 -313 499 0
-300 1 301 0
-239 395 336 0
416 -474 488 0
162 -16 -403 0
-257 166 -490 0
311 453 -70 0
-127 -66 -74 0
-68 127 431 0
-468 -379 -92 0
-33 -343 -315 0
-330 130 -56 0
22 -77 -348 0
-464 197 31 0
460 -109 -214 0
468 95 -417 0
-378 -254 170 0
237 461 352 0
181 46 -430 0
196 -418 -382 0
477 49 235 0
465 352 -203 0
-150 -452 -481 0
-465 -132 422 0
148 -191 -481 0
187 409 -422 0
40 -359 76 0
-498 -195 249 0
-447 -95 -224 0
-145 474 25 0
481 -170 345 0
413 -474 -46 0
-139 -13 -73 0
-459 -394 -137 0
-80 -235 66 0
-209 257 -81 0
-440 -303 -52 0
-304 -243 -379 0
403 -370 -139 0
-3 261 326 0
260 13 26 0
-179 156 -316 0
-319 56 -306 0
434 -224 72 0
363 -278 -222 0
-181 -96 175 0
296 -180 -487 0
432 228 -133 0
-51 -455 90 0
-47 427 -201 0
-277 -133 -490 0
466 -393 -147 0
498 -208 252 0
190 -217 263 0
422 435 215 0
-408 -370 -157 0
224 139 247 0
-159 416 245 0
168 -18 -481 0
-347 -38 -87 0
-362 -395 -238 0
-281 424 131 0
65 408 22 0
208 262 52 0
294 -442 -365 0
97 -302 -350 0
-306 -49 32 0
-469 -98 -209 0
383 274 254 0
247 115 178 0
449 -409 -84 0
-387 -307 342 0
187 29 267 0
92 331 -170 0
462 -456 -434 0
-426 -132 -230 0
-89 -28 -184 0
239 136 21 0
-378 -484 -397 0
-322 93 -229 0
135 41 361 0
-197 90 360 0
-63 -184 231 0
-430 413 437 0
338 -124 -324 0
-288 427 -336 0
-87 -60 122 0
78 -238 -300 0
-358 71 -54 0
-294 483 -57 0
-439 -357 435 0
-51 41 411 0
452 330 -6 0
-259 -90 -189 0
57 143 367 0
-289 -234 -193 0
-273 479 -427 0
498 174 -426 0
-68 13 -283 0
-308 -69 354 0
490 46 -17 0
-421 41 236 0
470 -119 -269 0
-87 157 -377 0
-163 259 -294 0
-220 68 -423 0
-190 -274 345 0
-297 -239 -288 0
-296 -310 436 0
25 494 197 0
203 -137 -166 0
209 463 -462 0
236 328 -46 0
-174 -181 147 0
-186 -301 362 0
252 376 122 0
212 -22 -480 0
-27 -45 351 0
-129 -373 -44 0
-138 -445 -287 0
-385 246 413 0
305 315 -324 0
97 213 33 0
244 -280 234 0
-471 -181 223 0
-239 -304 -20 0
457 -126 315 0
298 328 -305 0
56 359 429 0
187 90 58 0
-287 -256 -196 0
494 58 -377 0
-241 348 -249 0
317 292 415 0
-287 -293 433 0
-126 494 -11 0
188 357 -317 0
-200 -119 -97 0
-17 -32 273 0
323 120 146 0
291 53 54 0
-330 -38 -143 0
-397 285 215 0
72 -466 -265 0
-377 -169 163 0
134 -354 163 0
-115 311 233 0
-174 374 42 0
311 58 12 0
234 449 227 0
419 425 -250 0
139 -173 489 0
-7 -411 -461 0
53 269 -241 0
-154 186 -27 0
-389 -183 -298 0
-276 -130 -456 0
241 -226 -359 0
-348 343 -337 0
-174 -311 137 0
164 -82 7 0
230 336 -156 0
-496 -7 164 0
362 -30 -238 0
369 353 384 0
324 333 -62 0
33 340 -4 0
-324 16 -256 0
-191 -189 -309 0
-69 388 33 0
329 310 -76 0
476 118 267 0
74 313 -328 0
-212 300 469 0
-130 -443 -347 0
-175 314 -93 0
-328 -179 -442 0
206 -51 -83 0
497 -74 -499 0
-237 215 360 0
-380 -26 -104 0
248 -436 84 0
269 -161 -334 0
394 -392 171 0
384 -227 -316 0
-492 -323 -155 0
-261 280 -101 0
-17 313 -218 0
-115 64 320 0
-428 -397 -320 0
-458 96 -184 0
473 470 -73 0
418 115 -356 0
185 -448 230 0
-422 265 427 0
-440 31 -65 0
-131 298 20 0
-486 307 384 0
211 -60 -408 0
-165 -35 14 0
-201 -293 380 0
354 404 -17 0
-389 329 -209 0
255 196 472 0
246 67 299 0
279 309 -303 0
-353 -102 -3 0
347 416 374 0
304 21 -192 0
-61 420 161 0
491 217 63 0
-253 -264 -354 0
-74 -282 136 0
465 462 -212 0
320 404 34 0
-33 -377 489 0
-216 -468 -95 0
392 -474 -322 0
-37 422 408 0
-211 -183 -352 0
-500 -417 201 0
478 290 107 0
-22 -500 -201 0
309 -274 363 0
117 -446 189 0
-192 367 -146 0
-263 -139 425 0
-77 -245 383 0
-414 153 -204 0
-51 462 -133 0
-359 -453 -127 0
-88 -278 465 0
-497 -340 -24 0
-219 431 192 0
-111 257 -322 0
49 313 -410 0
-266 -173 -239 0
362 -225 -342 0
45 380 232 0
-201 333 -283 0
409 -118 253 0
313 160 193 0
-338 -266 216 0
71 397 202 0
223 -289 -104 0
-285 -12 246 0
-267 -294 -255 0
428 -47 -382 0
45 434 -386 0
-148 -143 -288 0
23 96 -295 0
137 -486 77 0
89 -216 171 0
140 -66 -251 0
-407 267 27 0
-447 -125 232 0
-457 164 107 0
-321 386 -277 0
397 -486 350 0
199 448 179 0
-400 112 487 0
198 -86 -347 0
169 379 -4 0
-295 -213 -15 0
393 235 96 0
-190 78 -130 0
241 -76 153 0
-464 -342 459 0
98 -367 -12 0
373 430 -113 0
424 -304 337 0
-33 133 -422 0
-386 158 -423 0
-436 431 -391 0
-123 -183 407 0
-415 -231 -70 0
-301 224 247 0
-33 320 357 0
-47 3 197 0
117 136 -494 0
157 184 -143 0
-439 -333 -357 0
381 -491 -55 0
-165 -254 90 0
303 94 240 0
-224 30 -425 0
365 103 378 0
273 -449 -206 0
429 -335 91 0
336 -127 358 0
-385 -70 -73 0
-77 -187 -302 0
-337 19 -221 0
168 300 -60 0
-476 -284 149 0
459 124 235 0
-257 -281 -39 0
493 413 -51 0
242 -82 107 0
-273 -336 29 0
-24 -351 425 0
322 355 -145 0
245 400 306 0
-200 136 362 0
191 -140 -266 0
371 -439 395 0
-132 217 51 0
393 -70 -199 0
-492 316 475 0
325 381 323 0
34 273 91 0
-29 -377 -175 0
435 118 -158 0
231 357 -153 0
431 -31 -408 0
163 338 -460 0
-439 -82 -226 0
38 166 -146 0
-486 315 -345 0
347 127 382 0
32 -394 -291 0
-360 -440 116 0
206 463 337 0
-460 -493 -158 0
220 -6 449 0
163 426 139 0
-406 101 -144 0
-152 -148 428 0
-386 -307 445 0
-385 223 335 0
492 415 -326 0
-196 -478 -279 0
-95 -343 -162 0
89 385 452 0
134 -423 498 0
191 90 -129 0
62 -185 -476 0
-8 100 169 0
248 332 251 0
-93 480 -169 0
71 102 -332 0
-359 -43 284 0
-16 -355 223 0
-119 310 -170 0
221 -396 -367 0
-130 180 -486 0
494 380 -161 0
-312 -22 -487 0
-379 343 -218 0
-30 42 -119 0
-65 162 323 0
3 -303 -67 0
218 -165 -416 0
488 378 354 0
-458 461 410 0
144 97 249 0
46 -263 -198 0
-461 393 438 0
165 176 -22 0
-292 197 -44 0
-267 -452 396 0
435 -79 -36 0
-470 405 -78 0
40 -310 -135 0
461 476 380 0
-82 -109 433 0
184 358 80 0
-450 -451 165 0
-214 -42 219 0
-90 -321 -162 0
64 -414 -277 0
-40 -3 458 0
-151 -354 267 0
182 -244 -434 0
166 473 -326 0
12 -279 -415 0
-424 156 -168 0
-321 179 324 0
-386 -274 230 0
-308 -464 489 0
-450 -366 87 0
117 486 34 0
-1 317 -212 0
193 182 368 0
81 263 -161 0
-422 367 146 0
-289 -75 464 0
-495 35 402 0
273 -445 -441 0
-365 -287 130 0
182 -117 -292 0
-69 -172 142 0
80 -293 345 0
-369 382 193 0
85 153 -46 0
419 -225 -284 0
-115 458 -194 0
110 -383 176 0
-189 319 473 0
300 149 -177 0
481 -369 -210 0
-446 231 -417 0
-168 -49 -126 0
-115 28 26 0
31 40 482 0
374 -236 -159 0
332 -290 171 0
-331 350 -437 0
482 -388 -303 0
409 2 296 0
278 309 276 0
-39 -135 33 0
12 469 -225 0
259 36 473 0
-283 -499 272 0
-79 -321 344 0
20 12 333 0
46 -58 386 0
209 324 -20 0
32 137 404 0
-458 -201 429 0
-45 -499 -465 0
-427 -243 147 0
-274 -209 -419 0
-22 -422 210 0
51 233 -238 0
-284 -78 38 0
-380 -314 -239 0
453 244 492 0
-378 205 186 0
-191 55 -17 0
313 2 467 0
138 -497 -266 0
-390 -235 -89 0
372 -113 447 0
-99 94 -319 0
-247 445 212 0
170 182 -420 0
323 -468 464 0
415 -185 -373 0
-374 339 -316 0
-262 478 140 0
85 -101 397 0
-392 -96 330 0
430 -74 79 0
-403 -91 132 0
247 -214 294 0
242 -445 20 0
305 -52 356 0
-245 5 175 0
-123 -463 -167 0
71 -405 -109 0
305 -76 492 0
-289 -187 38 0
280 365 -349 0
3 369 438 0
-111 -81 107 0
-132 -423 -469 0
477 416 375 0
423 263 -52 0
275 -342 72 0
42 420 -300 0
-487 97 294 0
-226 194 38 0
-144 -265 -22 0
-327 459 -422 0
151 -14 8 0
-144 401 337 0
139 122 -435 0
269 95 426 0
-95 290 -284 0
-237 302 -338 0
108 221 -358 0
475 226 -3 0
455 -491 294 0
6 -488 -361 0
-174 -498 57 0
-164 -273 480 0
-36 31 -345 0
311 330 -315 0
-385 122 250 0
137 -266 -339 0
272 239 283 0
325 471 -190 0
174 -252 -92 0
491 13 191 0
23 -372 173 0
-138 382 360 0
-384 280 -184 0
-298 173 5 0
61 -427 -95 0
-205 271 -57 0
85 415 -324 0
459 -465 292 0
168 263 385 0
-192 -464 355 0
161 -164 461 0
-277 155 -369 0
-459 -321 -278 0
-262 -203 432 0
-272 180 399 0
497 292 401 0
68 313 -363 0
-151 226 -440 0
-257 269 168 0
379 -33 -144 0
173 427 -419 0
450 120 390 0
147 383 164 0
-432 -407 -275 0
-38 -371 -442 0
48 93 -192 0
445 -443 -370 0
90 -335 448 0
-241 309 -31 0
-90 -446 -212 0
-24 66 199 0
337 14 -367 0
-66 -91 149 0
-103 -148 -233 0
359 176 51 0
-156 -177 -224 0
-116 391 -236 0
-158 317 334 0
227 141 348 0
303 39 -184 0
-388 -280 478 0
-493 -111 -410 0
-116 -162 -347 0
457 -351 300 0
236 -91 -257 0
99 -493 -180 0
-432 -483 -136 0
-84 -35 -353 0
447 -42 252 0
488 18 -459 0
367 -51 381 0
335 385 293 0
54 2 -162 0
-118 -180 421 0
496 -410 -123 0
-346 17 329 0
404 107 60 0
261 -479 239 0
115 73 -75 0
-75 287 -337 0
342 159 308 0
345 -153 415 0
-169 309 379 0
-340 -165 183 0
38 258 469 0
-460 -182 388 0
-406 431 453 0
284 -115 -387 0
428 315 -454 0
-268 152 -28 0
-355 -176 300 0
268 343 110 0
-330 160 19 0
-396 -222 -311 0
498 372 198 0
-455 -24 -210 0
353 -221 -330 0
-344 430 20 0
336 409 -321 0
-96 -122 -52 0
355 212 469 0
-322 -231 468 0
-108 250 -389 0
222 221 127 0
274 -31 394 0
-354 -34 383 0
-235 -279 262 0
-468 -51 37 0
176 109 158 0
-266 -354 346 0
385 459 -389 0
458 491 -229 0
181 -373 277 0
-430 -382 -248 0
-314 -97 -469 0
-424 67 -353 0
80 -406 -211 0
-392 157 219 0
340 458 -195 0
40 312 -117 0
318 -218 188 0
-57 312 149 0
257 150 -408 0
-164 311 70 0
393 130 -478 0
241 -439 -144 0
-112 78 -217 0
-346 -325 -439 0
-418 22 -414 0
-279 -146 -217 0
479 23 -388 0
310 -316 -54 0
-117 -344 -139 0
-253 459 -6 0
-214 -233 82 0
-465 -117 -444 0
337 -18 293 0
-56 449 -330 0
-445 310 421 0
-212 481 385 0
-132 -282 -396 0
-233 474 290 0
90 -403 99 0
489 451 -70 0
434 -230 246 0
-296 229 371 0
162 -225 208 0
464 173 144 0
45 307 11 0
240 -252 397 0
-447 -224 20 0
395 -2 161 0
212 257 -157 0
362 485 404 0
310 167 183 0
-303 326 -305 0
-115 -265 -281 0
-52 16 70 0
177 442 53 0
-458 184 461 0
345 -330 -272 0
-428 230 -61 0
-84 176 -301 0
-308 -45 -408 0
473 -135 -424 0
-278 323 145 0
-110 1 270 0
316 -251 275 0
60 -78 -332 0
421 459 -487 0
-262 -31 180 0
187 -96 -134 0
-53 67 148 0
286 -107 -13 0
178 488 62 0
-3 9 409 0
-319 6 -24 0
-83 445 494 0
344 328 310 0
177 78 201 0
53 462 488 0
426 -470 415 0
96 269 254 0
-306 223 -84 0
-82 252 -58 0
265 -409 209 0
496 308 409 0
-153 262 314 0
263 165 166 0
-137 -294 40 0
418 178 -442 0
235 -45 358 0
207 -256 340 0
-335 -411 -37 0
-472 -76 149 0
-420 255 397 0
-24 -276 -491 0
158 -55 91 0
-172 477 379 0
295 -18 -422 0
-178 -65 -247 0
420 476 460 0
329 -491 -271 0
475 -158 56 0
-444 -413 14 0
-268 2 -425 0
-431 446 494 0
198 -401 -409 0
48 215 -162 0
363 151 -483 0
-133 -6 -159 0
398 -280 248 0
-143 31 93 0
-380 393 -23 0
121 85 193 0
453 -407 306 0
-277 -399 -99 0
-412 484 262 0
22 -466 -402 0
-102 126 -165 0
-49 -371 -422 0
-346 170 68 0
413 63 -98 0
-417 -378 -129 0
193 -387 192 0
399 -357 -454 0
282 38 466 0
15 -427 278 0
10 472 -345 0
430 -374 317 0
358 -465 386 0
-26 217 199 0
220 373 -77 0
-280 120 -139 0
472 -122 192 0
434 413 -286 0
-339 470 237 0
-56 -414 52 0
-58 -486 312 0
-145 322 -300 0
465 -356 326 0
-481 -34 -237 0
-121 315 332 0
-162 283 222 0
363 187 454 0
-300 -148 -363 0
384 -152 -284 0
-451 468 249 0
-123 333 423 0
-38 -280 -322 0
407 -472 256 0
396 59 -228 0
242 395 413 0
-209 -332 -228 0
-91 -361 337 0
294 -57 -475 0
181 437 -164 0
-34 402 439 0
447 174 -101 0
382 85 25 0
-181 436 313 0
136 347 -25 0
-137 -156 -266 0
-368 186 -59 0
-239 92 38 0
-241 436 483 0
-76 -20 -38 0
305 -429 -385 0
-149 -232 -92 0
164 381 211 0
-297 454 161 0
320 161 -478 0
130 386 358 0
117 -438 -257 0
44 236 128 0
-56 -37 -159 0
-252 -45 -322 0
245 -426 270 0
383 -91 21 0
250 113 -365 0
-343 -254 -483 0
218 -144 226 0
-195 -432 -430 0
-88 91 -116 0
253 -238 -456 0
-38 -142 -398 0
45 438 331 0
342 -242 303 0
363 472 -183 0
256 -102 -443 0
-86 99 110 0
66 173 60 0
-414 -461 124 0
486 -248 -423 0
453 96 144 0
-493 -384 -16 0
489 -406 190 0
277 389 -440 0
405 419 -21 0
280 -40 -313 0
181 392 115 0
-469 -52 450 0
32 253 -441 0
-254 -434 21 0
406 220 99 0
-354 383 -61 0
-26 -155 366 0
329 459 273 0
272 48 406 0
-342 -198 449 0
-285 145 -257 0
-81 -256 -427 0
406 -364 48 0
-121 385 311 0
499 446 241 0
361 -256 -419 0
197 -281 221 0
131 -320 -46 0
229 264 -426 0
50 192 281 0
476 114 171 0
-381 -65 253 0
-89 -288 205 0
-49 17 -292 0
231 104 35 0
125 170 446 0
-436 83 352 0
-253 250 406 0
-7 102 -324 0
-232 43 473 0
204 119 343 0
341 137 19 0
348 -173 -26 0
292 -23 -52 0
374 241 122 0
-395 -356 -61 0
455 276 234 0
-2 -187 -325 0
426 11 -182 0
168 182 -5 0
101 -196 -325 0
62 -273 135 0
-111 -103 20 0
253 -222 -422 0
-85 65 420 0
-51 22 420 0
-277 405 490 0
-471 -429 -290 0
-498 362 -318 0
-311 389 361 0
162 -168 447 0
214 -169 -367 0
-148 -272 -74 0
95 -391 187 0
170 -214 -396 0
-260 -478 370 0
291 -352 19 0
125 -429 281 0
-330 -400 -336 0
-484 -451 -176 0
-229 -384 150 0
319 257 405 0
473 269 484 0
-278 330 489 0
-182 -395 -398 0
-17 -52 -167 0
337 178 -467 0
29 367 -90 0
-20 219 463 0
-329 283 431 0
337 -270 -136 0
217 336 363 0
-83 -195 -419 0
246 73 495 0
289 -20 -253 0
-9 -73 276 0
-54 -86 -447 0
-209 203 359 0
-6 185 -34 0
-415 -159 -203 0
-453 205 -414 0
72 -346 409 0
-475 171 132 0
496 -3 -28 0
141 157 -17 0
499 -191 57 0
-286 356 213 0
-161 254 -378 0
399 419 -421 0
277 109 60 0
278 244 136 0
-270 248 141 0
-129 -47 -122 0
86 376 1 0
-443 -462 -30 0
-491 405 448 0
409 -36 434 0
-172 203 298 0
-396 266 274 0
-304 -374 -328 0
59 44 407 0
361 -3 -339 0
344 -78 325 0
-16 23 479 0
30 -166 -421 0
9 78 -250 0
-186 -371 295 0
-451 -442 490 0
167 160 -5 0
-188 -489 -194 0
-291 -230 -120 0
-107 272 133 0
311 446 5 0
267 -446 98 0
-196 -195 391 0
348 -73 357 0
-274 379 -229 0
394 -357 -206 0
-494 276 -89 0
-363 -339 -16 0
111 303 287 0
321 -233 -219 0
-255 402 -411 0
333 306 -88 0
293 316 327 0
77 282 -289 0
146 365 131 0
-129 153 -417 0
-43 -403 111 0
-452 336 -271 0
349 -465 -200 0
178 -339 -68 0
455 163 -371 0
448 -337 466 0
-96 354 -389 0
410 -170 -402 0
-449 132 -421 0
-10 -249 -168 0
203 -110 287 0
-81 -340 -349 0
301 232 384 0
380 -473 177 0
-431 177 8 0
388 -301 -109 0
-373 -254 -465 0
46 363 21 0
-494 410 132 0
-24 -376 216 0
469 51 -218 0
453 394 481 0
-103 -135 173 0
37 7 163 0
-65 444 -15 0
-151 265 -248 0
24 393 61 0
-25 -212 137 0
-86 444 -369 0
371 -493 -365 0
-242 -259 351 0
231 397 30 0
-24 466 354 0
465 442 340 0
-376 420 -268 0
-183 230 -247 0
-92 11 -107 0
-198 483 -252 0
-196 -405 -158 0
-374 171 -85 0
-465 -169 -445 0
-483 -331 445 0
-267 -220 278 0
267 301 -117 0
233 -89 -61 0
-335 273 -196 0
90 325 -50 0
68 -272 -9 0
-59 245 -442 0
-368 -415 -108 0
483 -215 -486 0
259 281 336 0
-257 151 351 0
-394 250 12 0
235 -210 -383 0
-497 -90 419 0
-357 -37 402 0
383 100 406 0
-457 -11 53 0
495 307 -130 0
-187 -399 255 0
449 -384 -116 0
326 -474 -455 0
69 -126 436 0
-331 447 163 0
-267 361 -77 0
441 -424 -435 0
-335 -160 58 0
362 213 412 0
264 143 -486 0
55 -465 216 0
290 -284 -431 0
-456 -23 -75 0
-426 17 345 0
-421 -366 -116 0
-42 192 55 0
452 494 -481 0
360 -269 -190 0
379 236 -246 0
278 -25 214 0
-191 -241 -445 0
238 -384 239 0
303 -342 8 0
86 428 68 0
-137 227 203 0
-484 382 415 0
270 -452 -266 0
246 162 497 0
365 319 -48 0
476 -266 -228 0
313 440 448 0
-169 239 -152 0
215 -15 434 0
-190 303 320 0
482 19 417 0
-91 -41 284 0
121 105 272 0
-414 -219 -43 0
-337 80 -194 0
-286 366 -57 0
404 -191 103 0
48 359 51 0
-19 -266 -277 0
49 439 483 0
122 -41 178 0
-371 234 -65 0
117 212 154 0
22 34 357 0
-125 -149 331 0
-211 447 -201 0
476 193 -326 0
222 -432 -496 0
-334 -417 -244 0
151 -280 -196 0
-350 492 -400 0
-141 190 193 0
328 -267 -277 0
432 224 172 0
-80 -421 -350 0
229 -428 389 0
477 -333 245 0
-160 -306 276 0
-327 -124 -486 0
-82 -86 -159 0
342 -215 -221 0
235 76 -101 0
64 -496 122 0
-81 -301 -54 0
350 106 421 0
-246 -235 -107 0
-100 -498 247 0
51 231 74 0
-334 158 100 0
163 -200 -435 0
-470 -226 -103 0
382 -48 -227 0
-316 118 491 0
-51 -228 -139 0
-397 -44 -158 0
-117 -40 -399 0
-37 384 -29 0
465 -81 158 0
-413 496 375 0
-500 496 -385 0
138 204 -499 0
265 -337 271 0
-95 299 436 0
-428 -289 380 0
-173 -53 -472 0
230 358 108 0
397 -393 48 0
111 213 -158 0
289 60 -103 0
455 -368 -458 0
-443 -244 -424 0
-154 -51 -263 0
382 -419 -474 0
-18 113 459 0
164 -273 -336 0
400 -466 422 0
192 435 -302 0
189 -324 396 0
-287 -67 -404 0
224 253 451 0
-287 -23 360 0
252 273 143 0
78 112 497 0
69 94 -322 0
-399 303 460 0
-138 467 -217 0
341 -97 -377 0
-210 420 371 0
-216 239 -407 0
-71 77 -198 0
101 -479 442 0
-294 68 144 0
-295 -278 -336 0
-107 280 -300 0
101 -347 -412 0
-261 396 15 0
-261 312 -106 0
409 373 -485 0
143 -495 -195 0
-460 -463 -296 0
-142 -488 -89 0
-184 89 328 0
-18 -286 -89 0
-147 244 492 0
468 438 239 0
95 -326 5 0
144 127 4 0
-324 351 -226 0
-169 -265 486 0
461 66 -303 0
-309 -482 318 0
-144 246 1 0
-251 327 -376 0
-293 -254 174 0
249 -295 331 0
499 155 -16 0
-363 198 150 0
23 -115 120 0
355 184 -423 0
123 417 266 0
137 -438 -62 0
-313 400 -198 0
318 237 -77 0
-486 -331 -405 0
410 35 497 0
-308 380 -408 0
-49 137 461 0
67 -34 105 0
-399 359 -212 0
348 -140 -260 0
226 -1 442 0
129 -213 -175 0
415 -495 232 0
241 199 221 0
-244 -182 430 0
-15 209 -26 0
100 -165 -109 0
-297 -72 293 0
-388 124 294 0
-434 -271 -95 0
255 -36 -26 0
-328 472 396 0
22 -7 272 0
-137 -173 -30 0
-141 -202 275 0
-122 443 -460 0
-36 -27 -39 0
329 331 330 0
42 -108 -430 0
-28 115 -23 0
473 -442 342 0
-374 -414 -215 0
215 236 -354 0
115 112 -433 0
-336 69 436 0
-276 95 -302 0
155 -59 -411 0
-316 -194 -13 0
331 318 -244 0
-234 -292 -112 0
-59 468 84 0
451 395 -204 0
-226 218 -154 0
171 230 233 0
-234 198 -119 0
-219 380 -49 0
63 416 341 0
210 111 119 0
40 -418 492 0
457 395 -375 0
-417 -269 113 0
334 113 -40 0
266 -52 -492 0
222 293 -50 0
443 -353 -310 0
40 194 -260 0
-468 282 311 0
138 -414 -424 0
95 464 388 0
-87 -307 -404 0
-349 -395 -354 0
236 -358 104 0
-475 329 91 0
-15 -431 160 0
-274 -406 -12 0
-121 -264 -244 0
332 -242 97 0
186 351 -347 0
-206 -406 -279 0
-63 261 416 0
359 404 238 0
-308 -426 414 0
-116 -202 -180 0
283 -445 119 0
-423 -161 333 0
482 -404 -78 0
20 483 -181 0
-371 -283 -466 0
210 118 437 0
-436 -418 245 0
345 353 332 0
-234 -377 172 0
363 214 424 0
-140 166 -293 0
170 212 393 0
362 -211 432 0
-434 65 -165 0
-377 384 107 0
-392 -442 -199 0
23 262 -303 0
431 253 -260 0
309 109 -52 0
-364 -315 102 0
442 -191 -422 0
-270 -404 100 0
-430 455 92 0
7 -380 -123 0
-328 -149 -226 0
-27 393 397 0
-17 265 93 0
-150 -231 326 0
59 87 296 0
-376 157 -420 0
-435 -36 212 0
-197 422 31 0
189 -78 320 0
-209 315 119 0
-405 -312 -279 0
375 208 415 0
324 388 353 0
-322 -470 -7 0
392 167 417 0
-129 430 -118 0
-389 187 142 0
38 -145 158 0
-161 46 -444 0
150 -185 487 0
-26 -333 -420 0
262 -180 -488 0
-24 -337 479 0
73 59 -126 0
351 -330 137 0
233 -33 -208 0
-69 -317 149 0
167 236 -277 0
4 -32 -497 0
255 -448 -417 0
351 -451 34 0
-34 -168 -141 0
-374 92 -349 0
410 -15 45 0
138 282 118 0
-336 -155 -176 0
242 445 210 0
31 306 -195 0
-134 -322 -367 0
13 -306 429 0
109 -392 -108 0
-124 -263 313 0
-67 179 -403 0
444 -387 -138 0
333 -470 -159 0
296 298 -237 0
-492 -142 409 0
-486 -71 -289 0
-25 -441 -189 0
-194 -385 -188 0
295 169 -134 0
-338 217 317 0
47 -324 -123 0
-40 -376 485 0
52 -268 -468 0
-133 399 383 0
133 231 -66 0
-232 10 -67 0
409 -94 -199 0
160 395 -123 0
-250 422 -4 0
-341 -149 215 0
-14 -215 433 0
307 100 -77 0
73 -182 -131 0
-155 -76 -431 0
-354 -209 437 0
-186 491 -488 0
261 25 -500 0
-7 -110 442 0
-219 -335 -98 0
-405 -261 367 0
481 -70 234 0
453 135 187 0
-156 215 53 0
-349 -276 -28 0
-79 -255 -483 0
172 148 273 0
484 -332 187 0
186 -473 -18 0
201 104 137 0
-296 101 278 0
-104 439 471 0
87 -153 363 0
344 -299 491 0
-101 -359 -211 0
202 -411 257 0
-396 347 142 0
392 -24 -397 0
186 401 -182 0
277 -83 -25 0
-111 -371 330 0
-310 403 49 0
129 35 43 0
494 -42 -500 0
-219 307 249 0
-366 407 389 0
-28 -142 -352 0
199 -123 178 0
149 -78 271 0
-466 196 -276 0
140 305 492 0
90 -189 332 0
-62 103 378 0
247 108 199 0
198 -369 -270 0
361 -271 94 0
212 -420 264 0
438 -213 464 0
-62 186 465 0
-229 -382 162 0
-256 -369 86 0
154 -415 370 0
238 186 340 0
-32 254 104 0
-392 171 244 0
473 -247 37 0
-179 -368 -211 0
302 166 397 0
-372 -345 287 0
45 428 -419 0
443 -4 378 0
353 176 269 0
8 -80 -163 0
378 -98 43 0
-371 -347 422 0
-428 -50 185 0
-487 297 82 0
-63 407 -123 0
-453 -408 312 0
-72 -257 168 0
429 37 -413 0
411 235 345 0
363 -361 111 0
199 -278 -443 0
-41 392 401 0
-201 -154 -196 0
-58 212 285 0
380 -225 415 0
-56 -59 490 0
-237 125 322 0
-204 194 -404 0
63 -80 -311 0
263 -352 372 0
281 382 53 0
117 493 368 0
79 -301 204 0
356 -91 -122 0
-431 -56 248 0
370 -215 482 0
355 99 468 0
3 426 -251 0
293 213 334 0
-142 318 136 0
-451 488 -433 0
-151 81 -133 0
396 -367 147 0
-118 -75 73 0
-490 53 -298 0
-386 -195 105 0
-467 316 -159 0
200 -272 305 0
281 494 263 0
-411 -275 -336 0
288 100 -411 0
-140 -203 284 0
-80 269 372 0
-112 -270 398 0
119 483 -289 0
413 26 -140 0
-182 240 230 0
-1 -394 -496 0
164 -161 37 0
-217 -10 499 0
133 -222 373 0
-414 -482 -221 0
-462 170 89 0
-377 489 -370 0
-140 -420 -96 0
325 119 424 0
-343 -275 -27 0
407 105 -331 0
399 448 179 0
-205 -241 -10 0
378 -381 -267 0
-248 -131 -155 0
-311 -494 -104 0
-228 65 389 0
92 283 94 0
128 257 -154 0
419 124 -226 0
-471 -175 -282 0
-441 -294 327 0
6 305 310 0
351 -470 -38 0
85 -427 343 0
249 440 408 0
-346 466 -495 0
87 25 -248 0
283 -318 457 0
336 -220 -133 0
165 -336 349 0
-500 -130 -53 0
-471 53 234 0
113 294 43 0
-473 46 -86 0
328 9 -354 0
-226 341 186 0
251 173 -32 0
438 453 282 0
103 -416 -229 0
-416 235 96 0
142 -134 -290 0
-353 65 6 0
-54 -157 100 0
426 -69 -241 0
171 -333 -175 0
-425 62 -243 0
-223 52 228 0
48 -435 244 0
245 2 217 0
-331 143 -428 0
22 -247 263 0
320 -61 -112 0
141 360 53 0
26 363 -283 0
487 144 248 0
-191 -23 254 0
31 275 475 0
78 -340 -65 0
70 115 -282 0
406 182 -426 0
230 50 -302 0
219 -330 -340 0
-191 -452 -238 0
47 -286 -101 0
-253 382 -95 0
374 -261 -372 0
369 -152 243 0
-330 99 364 0
-256 -64 36 0
400 306 -55 0
-323 -344 91 0
-69 -387 147 0
494 219 403 0
252 -273 217 0
-477 264 -268 0
224 427 351 0
-30 416 347 0
470 -322 -87 0
19 446 -328 0
-116 146 322 0
-28 111 -342 0
-117 -474 401 0
222 361 430 0
387 -445 -115 0
301 476 154 0
403 -34 209 0
151 444 266 0
-217 89 434 0
498 159 -386 0
103 -166 457 0
-190 -405 -218 0
323 -357 -259 0
-499 105 -89 0
-96 -336 -249 0
-240 -31 50 0
461 217 235 0
-52 -444 -413 0
492 -42 281 0
-65 304 184 0
126 94 -474 0
90 235 -57 0
-260 -440 307 0
423 366 -308 0
73 -112 -67 0
108 451 263 0
445 44 -420 0
-43 -361 -17 0
-362 338 -279 0
418 -225 -83 0
-413 500 -201 0
243 115 128 0
-362 -335 -119 0
57 32 -400 0
-21 -353 39 0
-468 422 22 0
-2 -95 -304 0
159 205 446 0
70 19 354 0
-397 194 266 0
318 262 99 0
-262 303 -106 0
220 213 310 0
291 -80 427 0
-151 -25 -49 0
384 -94 -42 0
481 -36 -460 0
309 -325 -64 0
373 -263 -296 0
11 -72 182 0
490 -389 393 0
-471 136 17 0
230 -433 -207 0
3 -223 117 0
-432 423 -453 0
470 146 -412 0
-378 70 -117 0
265 150 -175 0
-445 -433 199 0
-32 -400 86 0
47 -192 -428 0
-309 -25 -297 0
-410 -219 -237 0
-494 60 -147 0
-207 -459 220 0
-442 110 -108 0
-178 65 51 0
241 -251 -74 0
-348 -360 -195 0
235 -315 -475 0
-432 -477 -458 0
409 -81 132 0
126 308 -376 0
431 380 143 0
-420 437 427 0
-159 109 377 0
65 206 249 0
161 -246 -14 0
-62 -457 -278 0
126 106 -32 0
-436 77 -139 0
-469 -267 153 0
11 -277 -352 0
-97 -85 -76 0
214 -48 -268 0
-369 375 -195 0
-50 49 133 0
-299 224 -170 0
-307 66 -140 0
-17 -156 -22 0
7 410 -382 0
43 -224 -58 0
-90 297 -87 0
-239 361 -158 0
-279 -197 -331 0
-498 67 -448 0
-86 394 -108 0
307 -420 -68 0
-383 -161 -479 0
-449 104 -262 0
-256 -410 -268 0
-63 118 428 0
298 420 -62 0
381 -484 -292 0
-53 -180 114 0
-217 494 -438 0
13 205 -11 0
-198 -194 -277 0
242 -245 445 0
-321 -336 38 0
378 146 200 0
-280 -208 64 0
-309 -167 -5 0
-176 -456 -249 0
-316 26 -298 0
-245 -374 24 0
437 291 181 0
58 434 196 0
-80 401 -477 0
247 -208 491 0
-479 331 -495 0
339 -413 184 0
241 -355 238 0
-444 288 408 0
-379 -197 -100 0
-313 229 497 0
-214 442 396 0
-468 -192 -169 0
-76 -354 -286 0
49 -442 402 0
112 357 -484 0
426 -58 -206 0
-409 223 -403 0
-386 422 436 0
80 111 291 0
401 202 181 0
-181 -403 -113 0
74 -17 -83 0
329 -29 457 0
265 -438 -301 0
430 170 45 0
257 -258 -260 0
-98 241 134 0
-391 229 385 0
490 477 281 0
-181 287 -63 0
-93 -430 60 0
259 -260 189 0
225 216 -70 0
-70 -373 51 0
-499 -404 53 0
180 201 203 0
96 37 -279 0
225 492 -386 0
-60 -110 -288 0
-231 472 4 0
60 395 -28 0
-307 259 457 0
-38 -84 -324 0
308 -178 -303 0
70 200 -7 0
101 -383 -356 0
-336 144 -500 0
-375 -74 242 0
220 98 -303 0
-225 -402 -415 0
-407 307 378 0
478 -59 375 0
-374 471 498 0
-104 -176 -31 0
-10 40 -414 0
-254 -67 15 0
89 -77 284 0
294 -117 -34 0
-171 106 -412 0
-304 -401 -412 0
49 227 290 0
-427 -432 355 0
253 -393 -179 0
204 -138 -3 0
274 -427 75 0
-463 -171 -274 0
-496 460 375 0
-353 -92 135 0
-105 339 159 0
-349 408 -309 0
-282 316 -335 0
120 -453 -405 0
446 48 -194 0
371 164 190 0
-240 177 -145 0
-180 73 -474 0
-341 168 385 0
-387 -323 175 0
8 -47 -211 0
245 497 13 0
1 -297 466 0
-376 -207 186 0
18 -196 11 0
254 -85 -167 0
-439 -465 14 0
-267 241 -82 0
-92 -15 -13 0
360 242 -357 0
270 -232 -47 0
-262 -301 35 0
337 -49 389 0
447 -344 -362 0
-308 28 492 0
160 294 256 0
-66 263 -191 0
357 -105 -338 0
-377 -192 399 0
115 -295 -344 0
188 277 -164 0
299 213 168 0
-252 457 -382 0
3 430 475 0
-140 -351 371 0
413 -61 -200 0
497 64 -194 0
312 -339 -465 0
465 469 253 0
-323 -426 160 0
-64 -300 110 0
37 -470 341 0
-187 330 49 0
384 -117 -43 0
-449 -251 161 0
-384 105 -161 0
385 340 -205 0
-454 -278 480 0
-277 -258 51 0
113 -406 -449 0
-484 426 -33 0
273 93 168 0
-334 -237 -358 0
496 307 -225 0
-445 -306 256 0
-215 -367 -75 0
-323 389 -259 0
-451 -308 -148 0
-478 -280 -105 0
-2 324 480 0
-343 -229 -470 0
-411 -208 203 0
-59 179 -354 0
-376 383 343 0
-399 -261 497 0
-379 -229 381 0
255 295 -105 0
195 62 470 0
469 -68 348 0
201 83 -154 0
-285 198 341 0
292 147 -280 0
-349 -428 -85 0
-250 -189 229 0
340 398 -142 0
-282 356 -298 0
297 56 150 0
130 394 -377 0
-368 37 -51 0
412 89 -401 0
497 348 57 0
-171 12 344 0
466 -354 275 0
43 -328 210 0
-83 -365 205 0
376 445 458 0
73 421 -206 0
-234 4 -413 0
-147 -188 485 0
18 116 -89 0
-61 -359 52 0
49 -489 183 0
377 194 378 0
-418 51 202 0
-244 -92 -427 0
25 26 233 0
141 303 -174 0
-162 -427 -46 0
-55 -320 -326 0
121 -133 291 0
295 325 -84 0
105 -324 245 0
387 -22 412 0
-491 301 344 0
51 353 -202 0
98 -121 -276 0
128 -277 100 0
-74 294 478 0
-392 -238 475 0
188 113 -295 0
400 481 -398 0
340 -338 -368 0
-281 131 -33 0
-209 266 -406 0
327 -321 164 0
411 401 -347 0
-86 -332 -425 0
-428 -376 -330 0
95 266 -451 0
244 126 97 0
-262 355 122 0
469 -403 -201 0
-362 235 -410 0
-221 -328 -358 0
-154 46 -244 0
-477 -129 -452 0
164 -157 308 0
335 -81 -20 0
466 98 -55 0
-481 143 -163 0
166 272 287 0
-123 264 -320 0
462 439 153 0
-373 99 -370 0
-356 -497 -152 0
57 11 25 0
-373 -423 -268 0
-134 -322 -192 0
-444 438 302 0
342 -334 -11 0
62 441 235 0
-414 -148 -224 0
-146 -456 -320 0
-345 -325 169 0
308 195 429 0
422 -140 -434 0
168 314 -209 0
354 316 219 0
-326 214 223 0
-187 432 -141 0
-97 293 -397 0
-382 463 70 0
-55 -72 -335 0
-343 421 373 0
-406 -107 -343 0
-418 342 71 0
147 -395 -500 0
-36 -163 438 0
286 -111 488 0
413 407 -386 0
94 -234 374 0
-347 440 -297 0
-126 160 83 0
-2 -45 -59 0
5 -270 -274 0
-460 -133 201 0
409 -411 302 0
-143 101 360 0
-293 185 297 0
314 336 -138 0
-159 212 60 0
-92 258 -340 0
418 402 256 0
434 -404 -233 0
-48 280 421 0
-210 101 320 0
406 -140 364 0
-222 -156 52 0
229 -455 -383 0
-240 -257 372 0
-354 90 -335 0
464 -219 -14 0
-80 -490 214 0
-280 -127 142 0
258 -474 235 0
-473 245 -33 0
-367 32 -232 0
-212 -69 -96 0
-391 280 -226 0
13 -103 419 0
-313 -148 -6 0
15 -499 -364 0
374 66 -318 0
-105 371 111 0
-463 142 237 0
-130 264 -385 0
447 57 -47 0
-17 -276 89 0
489 -200 173 0
-135 211 -189 0
3 283 -431 0
314 433 381 0
-189 264 -486 0
302 142 495 0
113 471 -394 0
452 -375 -170 0
-112 -374 -47 0
104 -275 -425 0
499 -267 -16 0
-422 -30 -358 0
185 -264 78 0
-44 -288 208 0
-472 -2 450 0
-290 115 376 0
-423 -292 -66 0
462 295 -465 0
408 66 -263 0
-10 -443 -301 0
-276 156 487 0
270 -368 283 0
180 59 187 0
24 -62 -269 0
373 411 -309 0
16 19 -488 0
103 310 37 0
396 -322 224 0
491 98 -3 0
98 316 -373 0
69 -422 -485 0
126 255 427 0
-262 270 230 0
93 -273 123 0
166 267 443 0
-294 -274 256 0
153 -479 -492 0
-368 63 -396 0
-388 -248 -54 0
139 145 458 0
-19 332 476 0
-274 312 138 0
78 -109 53 0
-210 464 -364 0
498 -466 328 0
338 -401 372 0
94 -292 -448 0
-120 -159 -359 0
-67 -244 384 0
-138 19 51 0
370 -123 -21 0
-347 -47 -345 0
-346 48 430 0
81 356 53 0
261 171 475 0
228 -417 -246 0
-500 -43 81 0
-117 -204 15 0
178 -75 -76 0
-461 -131 55 0
448 267 409 0
-428 408 238 0
-96 46 -488 0
132 499 101 0
-319 -5 154 0
248 -490 -206 0
275 200 454 0
-30 -274 -260 0
-452 428 -422 0
-460 379 275 0
-248 66 193 0
-483 394 -268 0
480 -168 -467 0
-200 57 -303 0
333 -475 -224 0
-500 -275 40 0
-165 284 -116 0
268 -461 332 0
-194 -368 -183 0
-329 -24 -325 0
-220 237 5 0
-43 -65 -91 0
-91 -442 -40 0
320 -20 230 0
252 268 59 0
435 -165 -292 0
-85 -72 13 0
-320 497 423 0
453 320 41 0
29 -365 -6 0
117 425 172 0
-492 -419 332 0
-123 417 410 0
167 -424 183 0
-69 446 -29 0
-240 -364 105 0
-199 389 319 0
-99 -45 -62 0
-370 35 276 0
138 385 -205 0
-441 -249 -297 0
-436 -493 154 0
-303 -308 478 0
-357 247 193 0
-375 -7 304 0
-206 -286 447 0
74 -188 -408 0
-284 277 -138 0
486 342 260 0
-39 -137 443 0
-429 -381 370 0
402 139 -491 0
-145 321 1 0
-4 -47 -387 0
-74 -156 -268 0
-468 17 448 0
211 462 -55 0
66 -45 152 0
192 29 -169 0
380 -141 -126 0
198 -260 -336 0
419 -79 190 0
-458 -297 369 0
126 150 -432 0
192 -303 -313 0
222 -218 451 0
-420 -71 -88 0
-170 163 -345 0
359 386 -43 0
-472 211 260 0
-303 469 -133 0
-143 -157 213 0
-359 -134 -370 0
359 -67 214 0
-45 -432 268 0
-239 -471 296 0
118 234 -232 0
41 259 -231 0
-266 210 -458 0
-35 -73 412 0
226 418 -105 0
377 -58 -289 0
215 -447 242 0
-470 274 -386 0
-71 -188 192 0
104 -492 -172 0
131 46 295 0
8 -347 452 0
-184 -137 -319 0
81 -174 351 0
-326 245 344 0
103 268 -499 0
-107 -71 -390 0
209 171 89 0
267 -170 -496 0
-90 -17 -64 0
266 -315 487 0
357 -262 -50 0
-89 1 279 0
-472 300 -72 0
155 -36 176 0
22 -468 -419 0
-142 30 217 0
-32 -336 -453 0
-348 -339 128 0
353 368 490 0
469 37 89 0
-164 -302 -135 0
-108 477 -140 0
-142 -188 -350 0
-265 492 -480 0
-241 41 -306 0
-223 8 331 0
-412 225 464 0
-459 -388 99 0
-474 -441 -146 0
367 -327 -351 0
-42 -41 420 0
106 221 -338 0
3 118 301 0
124 -409 90 0
466 227 -316 0
175 -210 127 0
-350 -122 -173 0
-470 117 -113 0
96 375 259 0
-31 -451 450 0
74 -11 454 0
350 -108 -495 0
-417 -309 -492 0
356 440 322 0
252 13 422 0
-287 -405 -150 0
-268 -440 -282 0
-63 -299 -492 0
-28 20 -450 0
-399 -103 448 0
229 -109 -170 0
74 475 -484 0
-465 -124 459 0
394 46 348 0
-177 284 442 0
41 388 125 0
17 -123 -184 0
252 96 21 0
-116 58 105 0
61 -77 362 0
181 -123 -445 0
-492 478 348 0
-399 494 334 0
29 211 486 0
-30 -123 -102 0
348 -174 150 0
420 -116 230 0
387 89 174 0
-419 -344 188 0
-33 -219 -351 0
274 223 -33 0
300 361 -85 0
210 376 -264 0
-294 211 -311 0
301 -461 21 0
188 267 207 0
381 -137 43 0
456 339 -217 0
-347 279 137 0
-410 -355 -425 0
-81 476 407 0
148 -204 16 0
134 -10 142 0
-272 12 -203 0
190 -305 262 0
-374 -243 483 0
83 461 370 0
-402 35 -16 0
-211 -415 -140 0
-463 15 359 0
345 339 -141 0
-340 412 46 0
407 -45 435 0
-200 -156 -232 0
-65 -426 263 0
369 319 206 0
-346 -302 200 0
-319 -145 -362 0
328 -324 -244 0
370 397 50 0
-45 -83 343 0
403 -289 -158 0
-59 -30 -382 0
377 306 -175 0
401 -342 495 0
-441 131 486 0
-428 9 -362 0
418 286 348 0
79 -4 -241 0
64 206 -314 0
54 144 -220 0
-143 268 -13 0
214 74 275 0
-399 -5 -80 0
284 -446 -423 0
356 -325 145 0
438 171 -99 0
-187 -387 -231 0
27 305 -91 0
-411 105 319 0
366 356 -405 0
-102 -207 184 0
-70 353 126 0
420 -20 181 0
125 495 -14 0
-238 451 -287 0
-391 473 252 0
22 -303 -212 0
327 -461 459 0
-198 199 477 0
-422 71 90 0
312 261 -115 0
319 -186 -351 0
-358 30 31 0
-249 212 -195 0
64 247 178 0
263 284 6 0
205 -219 457 0
-488 240 -466 0
62 275 399 0
-304 103 287 0
-412 14 446 0
246 344 -11 0
295 -62 -292 0
-166 -453 -269 0
-153 333 -173 0
-461 259 153 0
290 42 -161 0
-145 -64 -367 0
-234 304 209 0
-338 428 59 0
381 298 58 0
463 124 -321 0
-233 -124 480 0
61 499 177 0
91 -459 12 0
280 -90 -140 0
210 -235 86 0
-176 38 -326 0
-294 94 -440 0
464 -231 -296 0
410 378 381 0
307 431 -361 0
380 -271 11 0
-52 495 -390 0
136 71 451 0
-314 -420 -459 0
-333 488 -101 0
197 190 -231 0
371 286 275 0
455 290 346 0
223 -261 268 0
167 -371 -50 0
-260 -450 24 0
-235 -24 482 0
477 443 -224 0
-331 -153 38 0
-109 84 240 0
-322 174 383 0
164 237 451 0
-9 362 50 0
350 480 396 0
-239 -315 101 0
-423 -411 -327 0
196 307 -271 0
-207 -331 -43 0
196 -482 -498 0
-46 -438 174 0
-346 -172 -50 0
-281 221 468 0
1 168 93 0
-13 491 -151 0
1 -499 463 0
-187 -367 53 0
-192 222 52 0
-150 -297 -410 0
256 69 -43 0
320 441 -390 0
-306 -269 434 0
301 86 294 0
-254 421 -248 0
-90 68 113 0
220 23 375 0
-236 372 121 0
175 405 22 0
378 -38 230 0
269 116 -180 0
-256 255 -76 0
-269 66 -65 0
-367 -319 159 0
-438 347 252 0
164 371 197 0
-90 335 13 0
252 -66 -243 0
161 480 365 0
420 492 294 0
-336 -425 -489 0
-270 94 268 0
-108 319 -172 0
-15 -352 -183 0
374 429 -354 0
386 -160 -487 0
-45 -89 395 0
-414 192 -10 0
415 -132 -302 0
-143 261 227 0
24 286 -207 0
-166 496 344 0
148 -194 -323 0
-89 177 254 0
-62 170 100 0
-316 -244 -440 0
387 118 -451 0
402 -271 366 0
-498 -30 -481 0
-334 395 246 0
-157 299 397 0
-492 -176 -471 0
-204 289 29 0
307 284 252 0
397 388 -116 0
-366 -111 24 0
237 -245 64 0
373 49 95 0
-153 -356 98 0
-408 124 -105 0
-308 42 -423 0
-160 -359 220 0
-335 -235 101 0
428 -81 47 0
-377 417 -224 0
303 486 -10 0
377 102 -355 0
236 259 29 0
381 104 495 0
-164 89 -24 0
417 -31 187 0
-97 403 -48 0
-228 -144 -95 0
-346 -292 405 0
405 490 202 0
481 245 -266 0
50 147 71 0
127 -237 451 0
398 -160 143 0
70 -279 56 0
347 312 -431 0
292 -160 142 0
24 218 -396 0
-423 7 -304 0
-315 61 248 0
408 -183 50 0
-448 208 437 0
-287 438 114 0
60 -41 -382 0
163 488 -180 0
357 -249 -158 0
416 -460 172 0
-309 -313 316 0
473 -484 -124 0
314 472 -172 0
-233 -35 126 0
-407 186 -107 0
-11 -171 -270 0
373 497 -494 0
-113 -362 67 0
363 452 -200 0
136 401 -297 0
318 -30 137 0
199 185 400 0
153 80 -33 0
79 -376 321 0
367 67 -314 0
420 -319 35 0
-270 -20 78 0
255 -106 -317 0
-121 -350 -183 0
-150 235 342 0
40 -168 -166 0
-47 205 -222 0
-28 -95 331 0
176 -84 -180 0
478 39 -359 0
-69 285 368 0
126 435 -86 0
-1 -214 -419 0
-168 -432 -74 0
-61 -237 -382 0
362 260 -333 0
4 235 -276 0
237 -488 189 0
327 -181 -459 0
302 -491 252 0
-472 82 -2 0
-275 -254 -218 0
205 -245 -479 0
-195 499 -344 0
-277 -421 -203 0
-163 213 472 0
-13 166 416 0
-228 362 21 0
-182 236 -317 0
165 -448 -301 0
241 -64 -47 0
-235 130 -85 0
471 209 265 0
473 -428 -237 0
-270 343 -134 0
-425 -33 269 0
428 375 356 0
-154 139 426 0
108 -490 -27 0
-492 -418 -27 0
-474 201 365 0
125 263 432 0
216 -255 86 0
-377 -120 264 0
118 -132 290 0
-26 134 -357 0
15 426 -345 0
-49 452 197 0
487 -316 174 0
-452 -323 -73 0
-72 274 389 0
-44 -454 -491 0
250 278 179 0
-176 -446 -323 0
-37 -390 -158 0
-158 445 -146 0
-429 -495 15 0
-407 427 481 0
-479 441 427 0
-98 116 -388 0
444 -287 -77 0
190 -379 480 0
128 428 -140 0
352 361 336 0
-85 -412 -340 0
-104 9 -386 0
278 209 -490 0
-439 114 -171 0
-483 -32 473 0
-195 364 -234 0
301 -454 10 0
-117 294 338 0
307 -230 101 0
-412 -57 -246 0
76 -19 -293 0
-21 9 -333 0
-461 -158 -93 0
137 -176 84 0
-93 -382 -41 0
-172 -197 -10 0
-211 -420 -6 0
498 42 354 0
-162 -99 -401 0
413 85 332 0
-354 247 172 0
-309 146 -495 0
-163 -247 131 0
-16 -135 167 0
420 80 150 0
-381 96 -165 0
-459 488 423 0
88 -320 307 0
-102 -375 144 0
-409 -230 417 0
465 -225 244 0
-457 -384 -469 0
210 -400 107 0
144 319 58 0
-496 -67 -410 0
-87 448 185 0
-53 306 325 0
-331 -300 -321 0
384 69 -278 0
-71 -270 326 0
-7 298 47 0
-109 -29 166 0
-298 -153 -26 0
83 431 -265 0
243 480 -35 0
9 -30 -289 0
-443 478 -232 0
-490 -290 -174 0
-389 -230 -326 0
-279 -318 77 0
-224 126 369 0
-352 120 -188 0
-328 261 -25 0
-396 -406 123 0
198 369 -192 0
349 -452 74 0
399 327 -410 0
-107 338 177 0
-248 359 196 0
-263 257 -19 0
120 493 -301 0
115 -140 -120 0
193 -27 154 0
-128 -86 -491 0
230 -309 -248 0
159 -309 -449 0
191 -148 -357 0
37 -250 285 0
-484 37 -420 0
-344 149 -153 0
173 -142 279 0
-470 347 333 0
467 414 -426 0
321 189 249 0
-428 -321 146 0
-198 125 253 0
-379 -440 407 0
-137 401 -372 0
-115 339 168 0
399 450 122 0
-140 -456 442 0
-102 -61 -129 0
203 -351 -136 0
-481 -360 -81 0
267 56 -90 0
369 456 333 0
-302 -227 53 0
-53 -360 380 0
-340 -234 -152 0
-466 232 -150 0
-4 267 490 0
-498 -192 313 0
-447 -386 308 0
-61 -334 -128 0
156 356 136 0
-472 306 -337 0
-123 -189 453 0
-430 -389 159 0
238 -473 435 0
316 389 -469 0
-13 261 -432 0
-106 -403 -441 0
13 -174 -113 0
52 -191 213 0
-270 135 -229 0
-165 60 281 0
313 450 181 0
-275 383 -445 0
-140 -204 465 0
-61 -236 -377 0
445 -245 468 0
-183 -434 475 0
312 -183 224 0
-3 -263 210 0
265 -73 -480 0
-102 70 225 0
38 -191 -418 0
-415 -432 -173 0
-176 -285 -496 0
-353 201 -459 0
-98 22 151 0
280 -255 18 0
282 -255 -121 0
-318 -148 -231 0
-7 469 251 0
383 -168 -450 0
-420 464 -115 0
421 -142 170 0
18 62 -388 0
487 -43 -459 0
234 -240 -381 0
-358 11 40 0
-497 281 -151 0
-342 -443 -178 0
166 85 404 0
476 -106 105 0
-415 215 -303 0
-417 -195 136 0
489 -308 165 0
-473 -280 -162 0
360 416 -98 0
-243 -7 -64 0
181 -23 157 0
358 -208 393 0
-333 91 126 0
347 315 -316 0
457 167 285 0
159 27 -380 0
186 458 406 0
-54 -38 -430 0
438 271 -65 0
470 170 51 0
9 -181 418 0
355 81 8 0
13 -463 309 0
337 -405 29 0
183 -49 -301 0
-318 -390 274 0
428 -125 -122 0
-110 -163 -273 0
449 400 446 0
-251 -122 325 0
