c Large 3-SAT formula for GPU testing
c 5000 variables, 30000 clauses (ratio: 6.0)
p cnf 5000 30000
666 4434 1148 0
-4566 1704 -3541 0
1366 -1268 -564 0
3848 2980 -243 0
-3586 34 -4691 0
1473 4906 2399 0
1614 -4722 1873 0
-776 124 -1690 0
1730 -2984 797 0
688 -388 -2643 0
-735 1633 -3955 0
3584 -4875 -4240 0
1026 -3261 4888 0
1717 3540 2285 0
-846 2447 -2380 0
4282 -2024 -1940 0
2798 -3624 -3790 0
-1896 1738 750 0
-3340 -4930 -2156 0
840 3122 993 0
-1413 3423 170 0
2118 -1034 266 0
4005 4120 -1438 0
4071 2607 2526 0
-623 -1903 4822 0
4432 -3455 -2632 0
-2040 3505 -2904 0
3017 4971 -4529 0
-1348 20 3650 0
4685 4673 -2413 0
2105 -3880 2127 0
-1526 3210 823 0
4652 -3251 -4849 0
769 -4139 -2633 0
4002 -3069 -4871 0
1506 1591 -2738 0
4886 274 -3550 0
-2526 894 174 0
4171 2310 1040 0
2864 -2696 2827 0
756 4431 2893 0
653 3401 4100 0
-1069 4907 -2520 0
2693 4427 -4965 0
2489 4876 -3974 0
-4713 912 3899 0
4009 -2806 -2539 0
1151 1432 4794 0
580 -958 -3581 0
-4782 1037 1543 0
-3115 -2058 2892 0
-4465 1044 4398 0
3504 2473 2428 0
-2764 -701 -540 0
-1283 -4764 -913 0
2089 -2346 3923 0
-4284 2411 -4912 0
-3080 -542 1667 0
-655 767 553 0
-2615 -173 -4480 0
3853 1165 -4271 0
1437 2255 986 0
686 -1601 -2632 0
-2809 783 2042 0
-4831 -1728 -1746 0
4277 -2399 -1009 0
-3639 -3403 -1198 0
-4103 -4492 2198 0
-3129 -2558 -3564 0
-4190 3990 -2999 0
2048 -3694 -3639 0
-1624 2637 -3045 0
2395 3445 2151 0
-3617 -1948 -931 0
2979 -2292 4230 0
-1420 500 -1586 0
2690 905 3859 0
-4274 1879 906 0
-348 2073 -3446 0
3938 -4709 -4282 0
-497 1323 -337 0
1425 -135 705 0
-4501 -390 -1877 0
4714 4347 -3078 0
4508 -4669 2162 0
1339 1505 -4267 0
-4951 -3194 3768 0
4830 1579 -3745 0
-1262 3774 2215 0
1876 -4978 -3298 0
3981 553 -1739 0
-813 -3317 3345 0
-1228 2587 -3170 0
-920 -3538 -4257 0
2032 -4590 -2736 0
604 2795 -512 0
3342 -1493 -3790 0
-1978 -2873 -2913 0
-2495 -1131 -1368 0
-4599 -3030 -964 0
1402 -4180 4326 0
1803 -3476 456 0
-3992 -3986 1511 0
-2299 -2062 1858 0
-2913 1708 -106 0
-3370 4669 4814 0
-2402 -2466 -1846 0
-1592 58 3389 0
4193 -4600 474 0
511 519 228 0
2620 -1288 2131 0
4730 998 -3435 0
-156 1850 3031 0
2491 -2530 3799 0
4737 -1004 4422 0
1265 -2030 4184 0
2803 -3756 2145 0
-2760 992 -4165 0
-4588 3902 -4595 0
-696 1952 2214 0
-3757 4834 -2650 0
-4390 3949 613 0
4578 -2780 -2180 0
2881 -877 -4201 0
-4693 -97 3546 0
2623 613 4573 0
-2808 -353 440 0
205 3857 -4894 0
988 -3480 -3435 0
2770 2624 1528 0
-2005 1364 2048 0
601 -4813 1456 0
4134 1603 -3343 0
4042 -616 -3656 0
-3029 -1083 -4715 0
2209 -633 -497 0
-2882 917 4256 0
3380 942 -3289 0
-3286 2143 -2487 0
-4763 3215 4974 0
-3605 2412 -4043 0
-2978 2200 -44 0
-4285 -2398 1730 0
1358 -1 -3914 0
1781 4554 2139 0
-4685 3107 981 0
-2439 -479 2872 0
3972 -1220 -3218 0
-1822 3715 -558 0
2165 2148 3576 0
4748 2554 -919 0
534 2462 -4624 0
3310 3192 -3147 0
4853 1447 760 0
4669 4665 -1306 0
-356 -2304 -2616 0
3949 3330 3760 0
-1746 1842 3847 0
-819 -1855 773 0
-1623 1746 3728 0
4777 2966 791 0
967 3379 -3582 0
-1718 -667 -4977 0
-175 -4981 502 0
2992 4467 3232 0
-1099 -4535 2349 0
3605 4345 2111 0
-1253 4630 657 0
-2852 -232 -2795 0
1423 2805 2146 0
-651 -2731 -3265 0
-668 341 -2986 0
2662 -423 -4457 0
-2552 -2412 3335 0
1159 -4534 -2692 0
1837 431 -1196 0
711 -1137 -1319 0
-2643 4349 -1310 0
-658 -3115 1677 0
-4579 -1432 3651 0
-218 4118 355 0
-323 1747 966 0
-1989 361 1215 0
1247 -3793 -3075 0
2492 3946 3501 0
-2933 1825 -3748 0
2376 3801 -3018 0
3000 -3961 -996 0
-1920 659 -2125 0
4705 3278 654 0
1197 855 2421 0
4116 1182 -4926 0
-385 -391 -2710 0
-1268 2781 -3950 0
271 -288 -2041 0
-3175 -331 1581 0
3871 998 1263 0
3902 -3514 -4238 0
342 -3113 -3482 0
-624 -1345 -3785 0
2759 2867 -2329 0
-416 2306 -4080 0
-931 -2146 -580 0
2129 -3961 2413 0
2142 -279 637 0
661 -101 3619 0
-2746 -3606 3695 0
-1070 2103 3895 0
1599 -308 -2520 0
-4213 -4138 1513 0
-712 3438 -1468 0
3279 -2879 4787 0
-766 4182 -4667 0
1072 -3404 -4580 0
-3400 770 2290 0
-2708 -4766 480 0
3654 660 4052 0
-1318 2751 -3958 0
-3221 4807 -4457 0
-1489 -3162 3217 0
-4700 -3719 471 0
-1997 2743 179 0
-149 -1770 -205 0
4377 1661 4195 0
2825 4040 1939 0
4221 -4186 -2829 0
-1955 2769 3737 0
-1229 326 3955 0
1265 -2208 2494 0
-1154 4749 -2343 0
-3649 -4098 -3387 0
-3368 2155 4425 0
1944 -702 1332 0
3944 3898 3813 0
4144 3705 -3281 0
4970 4150 -1352 0
-3637 -2726 -1074 0
2277 3113 -1268 0
2039 -4265 -566 0
-2435 2223 3202 0
3042 3529 2763 0
112 1020 4860 0
1555 -2437 -3033 0
1356 -3093 1554 0
-3038 -2219 818 0
700 2788 -1057 0
-610 4515 -4637 0
728 -1087 -893 0
-327 2525 -4104 0
4032 174 4444 0
-3455 1650 -1657 0
-4036 4665 2918 0
-3831 3284 -1600 0
-1702 -492 -3542 0
-2151 205 2415 0
2752 2527 404 0
-4012 -2068 -2086 0
-2998 801 1913 0
1341 -3351 89 0
-825 4881 1366 0
-1393 4891 -4484 0
2538 3502 -4271 0
3904 -42 1308 0
-180 -2677 -2076 0
1011 -3335 4214 0
-1734 -471 -4733 0
-2096 2773 -2627 0
4950 12 -1986 0
-3807 -333 -1365 0
4634 2391 3705 0
1123 4751 -2347 0
-1072 4963 3566 0
3244 -1771 2507 0
3097 -768 1197 0
867 -2012 -4016 0
-31 -549 -1634 0
-3060 394 1327 0
3154 -4407 -1429 0
-875 1845 -4751 0
3646 -4821 -3016 0
4553 4007 1875 0
861 -2591 2348 0
2871 -1212 812 0
-3024 -279 -1918 0
-2132 -780 2133 0
-1341 -3654 -4677 0
-734 1802 4139 0
-4719 738 -4855 0
-2063 3885 -2737 0
-4627 771 -568 0
-2024 -3491 -473 0
4072 2810 4483 0
4651 -1012 -4761 0
-242 78 -4406 0
-3107 -4010 -691 0
-4062 1158 -1294 0
4418 -1503 -639 0
-4535 -4152 1247 0
-1556 323 -4140 0
2415 2566 -3979 0
2805 194 -736 0
367 -3838 3410 0
2200 4510 1041 0
1049 -4110 3542 0
434 -1895 -213 0
120 3478 2327 0
2491 1806 -4170 0
-3684 -3935 -4713 0
3958 -4111 -3322 0
-4867 1540 1318 0
4892 2208 -4534 0
2715 4664 4323 0
-2186 -3563 -1777 0
1491 -4879 4843 0
-325 2186 -2144 0
4354 1826 821 0
-4862 1726 1526 0
3496 2409 -1676 0
1751 -4431 -975 0
4375 -3338 -4524 0
-4013 1485 4041 0
-3387 4350 1768 0
-4131 2574 2439 0
3479 -732 4463 0
-4692 4026 3609 0
1554 1490 1857 0
-1818 -4734 4687 0
-1041 714 957 0
-103 2191 3072 0
3802 4623 1675 0
4244 120 377 0
2795 -875 2022 0
1452 1033 -2354 0
4998 -4819 -1449 0
-4366 -1452 1289 0
3961 -467 2388 0
-4968 919 -1711 0
2626 -128 882 0
4243 -3 4138 0
4899 2700 -3936 0
-3253 -3066 260 0
87 3421 -2472 0
-1073 2524 -56 0
-4626 3238 -3245 0
-4449 -4923 286 0
-4102 -2912 3506 0
-1843 1246 2052 0
-4748 -1013 3854 0
1721 503 -3898 0
-4351 -812 1616 0
3025 -4983 -1075 0
-1210 800 -417 0
-4467 -1565 4248 0
-731 4512 1582 0
1562 3286 2241 0
-1038 -3237 2629 0
-4077 1203 3944 0
-4291 4264 -1247 0
3436 2939 -1185 0
-3792 -2542 3806 0
299 47 -1707 0
-819 -2597 -1667 0
-2837 3061 90 0
-4542 271 814 0
-933 233 4197 0
127 2508 1731 0
-4778 -2828 -4648 0
-363 -2379 -277 0
2836 4256 -2423 0
991 -4038 -782 0
3044 1645 4503 0
3314 2014 1678 0
-574 -3215 -1834 0
1880 1624 4951 0
-1397 -2503 -111 0
-4837 4402 1007 0
2762 212 649 0
2387 -2275 -128 0
-4987 419 -131 0
-2169 -3225 230 0
432 3844 4402 0
-402 976 2221 0
-159 4503 3372 0
-2812 -3693 3690 0
2867 2040 -2243 0
953 -660 -4796 0
-4105 -4522 961 0
-4930 -2031 918 0
-4274 -1710 -2765 0
4210 1545 -4527 0
-4447 -2621 -1853 0
-4441 -3869 -1676 0
3707 -2049 4018 0
-805 4513 -3919 0
2589 -3382 1999 0
-1556 3598 -3545 0
-3849 4037 1102 0
115 -651 -4347 0
-95 2097 -1253 0
1162 3219 -2388 0
1106 -4448 -3304 0
-4074 -3662 2827 0
3048 -4990 -4118 0
-2958 -4037 3261 0
2554 -237 -1866 0
985 4268 955 0
3951 -683 -2741 0
2241 616 -4114 0
4333 1007 4511 0
-800 3855 1081 0
3158 -792 1035 0
4154 556 -4616 0
-1732 3086 4118 0
304 -112 2279 0
-4089 1271 -2829 0
-3502 -1846 1484 0
-550 3044 3782 0
1056 -3776 1348 0
4896 1642 3159 0
2840 1854 -3241 0
-3316 3671 -1515 0
1283 -2973 2079 0
-2759 4929 3254 0
-4626 4260 4376 0
4116 1184 -158 0
-107 906 290 0
3164 2189 4275 0
2446 3926 531 0
2794 316 -3122 0
-1956 -4091 880 0
-4250 -4467 1703 0
1478 2429 3739 0
2194 -1042 964 0
1018 -337 -510 0
-383 -4412 2087 0
-1505 132 -157 0
-3009 4640 -4874 0
3767 -4093 -2057 0
2159 3319 3447 0
1195 -892 4714 0
358 4945 937 0
-3837 3474 2149 0
1040 4988 -4286 0
1001 -3726 3065 0
2470 -2259 2645 0
-2008 -2124 2772 0
-2412 1084 -4910 0
-2505 4611 -3479 0
339 -4615 4528 0
178 3725 1372 0
736 -3303 -3035 0
-2339 -4580 4881 0
3230 1452 3431 0
547 4784 -4463 0
1981 -1728 -832 0
4445 -2531 4506 0
-1578 2229 3961 0
591 -19 2713 0
-2924 824 -1627 0
-21 -2134 -4420 0
-4761 -4299 -3446 0
1461 4589 -3394 0
-3551 -2235 -2334 0
-2647 -1053 3987 0
3596 790 1224 0
-446 558 1350 0
-2146 4703 -232 0
1884 1764 -2573 0
-1531 1329 -4553 0
-1575 -4978 2129 0
-4952 1679 -4726 0
-1490 4409 -2874 0
-1116 -3571 -2403 0
-1522 656 3235 0
-991 336 -1318 0
-1086 940 906 0
-4312 -2231 -4240 0
-1787 48 -267 0
3901 1158 3456 0
-2877 3623 1818 0
-1128 -1195 2162 0
3233 -2277 1035 0
3019 -1035 -1797 0
-4702 -461 -4776 0
2113 2465 -3005 0
610 2059 -492 0
1294 2025 1944 0
-2407 3216 4908 0
3362 -1041 -2875 0
-1527 -158 3225 0
-4074 2676 -1919 0
2830 -1533 -3955 0
1053 -1828 3685 0
-2029 -2643 -16 0
2746 3520 4800 0
3431 -735 -3110 0
4312 4921 -2037 0
-2895 2412 -274 0
-4112 2677 3524 0
152 -538 -1959 0
217 1184 2951 0
-2117 -4441 -3930 0
912 955 -3909 0
-2453 -2739 4011 0
-577 -147 -1386 0
-959 -1999 -3795 0
-1737 -11 2395 0
-3428 1877 2640 0
2101 -2146 3963 0
3603 4844 -2091 0
-3982 -3051 4590 0
3109 3391 -1642 0
4492 2911 -2045 0
-1076 3281 -874 0
10 2288 2264 0
251 -2547 -3892 0
1070 4758 1869 0
-1750 -1153 1548 0
339 -1624 448 0
691 1250 -2896 0
3456 2841 1679 0
-1799 -4059 -3003 0
-2055 972 4203 0
511 2743 2886 0
-2826 -4930 -4408 0
-1266 -4884 1864 0
-3995 -2625 -1898 0
-3481 891 4604 0
-3590 4184 1874 0
2659 1163 4175 0
3354 4573 -771 0
4398 -4729 2347 0
-4059 -1536 -2094 0
-1254 3779 4510 0
4242 -569 -3507 0
-3914 -2093 3594 0
3967 -888 2161 0
1371 -3074 3574 0
2671 4068 148 0
-1561 -4067 -341 0
-320 1951 -583 0
3116 -1398 4051 0
-4614 -2532 1463 0
4854 -3903 -3908 0
52 -311 2019 0
-4822 2002 -291 0
-3484 -972 4652 0
4994 4159 -2939 0
1617 -3434 2844 0
1448 -3577 -4026 0
-1736 -1957 2059 0
-3885 -1343 -2791 0
-4355 -3493 3172 0
-92 2384 -1867 0
-3041 -3627 1140 0
2338 -4574 -1889 0
-3686 1529 897 0
96 3755 -3444 0
2992 -2382 909 0
3772 1504 -1804 0
4072 -580 656 0
1289 1119 -3858 0
2442 -2944 3244 0
1165 -2677 3446 0
2490 -3730 -2982 0
-3638 2507 -4863 0
1390 1457 3324 0
-589 2460 159 0
3673 4306 -1427 0
-4495 -2645 2665 0
-2324 1740 4785 0
4257 -4571 4259 0
-742 1358 1903 0
2026 3535 -715 0
-3659 2704 -2162 0
4011 -1658 -750 0
4573 -3626 -49 0
1579 622 4286 0
-1091 -1084 1678 0
4232 974 2616 0
1761 3167 -661 0
-4132 1082 -2238 0
-2228 -1931 -3671 0
-89 2967 2490 0
144 -1862 -2461 0
-2419 -2071 2798 0
-3266 -4664 -1443 0
-2406 -1350 3709 0
1800 -4642 -1992 0
780 -1726 4100 0
-3637 -3434 -333 0
-674 -447 1135 0
1424 -1774 -1403 0
-2731 -4448 -2898 0
-3724 -4750 -2502 0
-3537 -1255 -1087 0
-1205 4278 -4185 0
70 -4553 -3474 0
-2678 1083 -151 0
3915 4516 -1405 0
-1430 4361 3724 0
4345 -692 -4996 0
-2406 3153 -3947 0
4593 4532 3720 0
4497 3893 -730 0
-2579 4578 -2606 0
4871 1172 -3016 0
-1429 -2113 -3594 0
2240 455 4825 0
-3231 1498 2776 0
211 2402 -620 0
-72 -4207 -1370 0
-4157 880 -3397 0
4194 -4894 -226 0
-1923 4848 -3408 0
3127 -3850 3610 0
-192 -3485 -4428 0
3745 2862 899 0
4799 3597 2576 0
4002 -1661 918 0
-2528 4913 258 0
3852 -3604 -3756 0
2031 -723 -3922 0
2742 3206 -1715 0
1901 -4640 -2991 0
3032 1918 -3968 0
4919 -3148 -4655 0
-2137 -4231 588 0
-1279 3823 -424 0
3334 -3668 3845 0
1087 2673 3112 0
-1983 2304 342 0
1652 3069 2785 0
-3459 -3748 1620 0
913 2154 -274 0
-2527 -2316 -84 0
-1675 -4079 4899 0
3801 4646 3192 0
4005 413 -1703 0
4899 -3834 -1071 0
-150 4324 735 0
1117 -2511 2357 0
2400 -3281 313 0
-4969 -359 -640 0
3688 -1534 -981 0
3329 3198 -4682 0
-4326 -4956 1875 0
-290 -4763 2046 0
-4197 -1987 2694 0
140 -3853 3585 0
4029 4589 2270 0
2819 1716 3761 0
-500 2095 -782 0
-4010 -157 705 0
4482 -4652 -4795 0
4298 4504 -1923 0
-1311 4361 -4347 0
2213 -1272 802 0
4396 -715 -2541 0
-3749 3417 -4194 0
-4401 1564 -1698 0
3585 -440 3745 0
1388 -3336 3342 0
4574 -474 2925 0
-4783 -1788 -1750 0
-2919 369 -3496 0
2643 -74 -1016 0
-230 2748 500 0
1127 735 2063 0
-234 -2487 4872 0
-1070 -2492 4492 0
-361 -1727 1688 0
-446 -69 -4807 0
-2461 -4939 -2375 0
-2588 1961 -4312 0
882 2280 -3490 0
4727 847 -4981 0
-3940 3179 -548 0
786 -2901 1317 0
-4242 -4283 -778 0
3681 3562 -839 0
822 -4858 1635 0
-4575 83 -3383 0
-1866 3530 -4947 0
-4195 -2492 -1440 0
-4814 -637 -4772 0
-4106 3313 4261 0
-2222 3088 2197 0
-875 890 2591 0
-3911 3577 4824 0
-224 2847 -3109 0
-2170 -3147 2830 0
-1075 -206 3566 0
1600 3133 3240 0
-2805 -4025 2160 0
-527 2752 -4495 0
-4614 -2152 -2068 0
296 -1620 -703 0
3317 1028 -1991 0
3304 -3866 3109 0
-3178 1313 3513 0
-649 1261 3855 0
3899 3311 1207 0
1835 1271 -4880 0
-1632 1428 1531 0
-4010 4103 2059 0
2640 -3151 -204 0
-3104 -1471 3427 0
-2803 541 -386 0
-4818 4561 -644 0
-2315 -832 4740 0
-3563 -95 -1363 0
-3484 3719 -4172 0
-1577 2112 -3800 0
-911 -158 1407 0
2658 2120 383 0
1146 1761 -1354 0
-4276 4883 1726 0
1848 -3854 -2982 0
-5 4435 -4747 0
-2378 -1939 4433 0
-932 -4650 -787 0
-4016 839 3948 0
2844 166 107 0
-4135 -2440 -368 0
-738 -3323 754 0
3409 -986 782 0
-2503 -2895 -4442 0
1196 -2741 4234 0
1278 1668 -1762 0
4728 2897 4256 0
1216 -3602 4054 0
294 -2060 -1110 0
2444 -3266 -2656 0
-115 -649 -395 0
-1167 -1769 -1805 0
-4278 3975 4535 0
-1812 -823 4372 0
-1583 4838 -1952 0
-1620 353 -2353 0
-3770 -1361 -435 0
108 4170 -3548 0
-3549 -6 -2526 0
4668 1600 3420 0
4892 1770 4402 0
2824 104 345 0
-765 -586 -2562 0
-4307 3566 4287 0
-1797 3393 3702 0
3995 -2268 1308 0
3212 -4798 -4480 0
3185 1472 -3910 0
-4225 -1780 781 0
-336 -3521 -198 0
-1176 -386 612 0
-1366 -3986 -3443 0
472 -2739 885 0
1631 4635 -3568 0
4871 4734 -2132 0
4249 2673 391 0
2760 -3285 -2928 0
-3125 781 2757 0
2691 -4751 -2826 0
-1927 2468 -3382 0
3795 4679 2626 0
-3885 2345 2939 0
2323 -2840 2863 0
-4967 4238 2604 0
2685 4378 -3077 0
1498 95 -1598 0
837 -2086 3789 0
269 4873 1745 0
2331 4355 -4853 0
933 -4088 -3978 0
1637 -1495 -2373 0
2451 -3486 -1415 0
4953 4940 -2384 0
3876 -4260 2679 0
1199 1151 4814 0
1807 4028 -4069 0
-1572 -3327 -117 0
1624 -911 -2181 0
-640 -2171 2920 0
2747 4073 3460 0
-143 -3159 -2040 0
2003 -1804 -3957 0
-1306 2529 3327 0
-2727 3639 -2099 0
1170 -4978 -1051 0
4819 -703 -472 0
-3547 124 -4626 0
-1856 -424 -2763 0
1918 -2913 306 0
-4122 -200 -261 0
89 172 -4073 0
-1956 1695 -1236 0
1968 -2404 3402 0
3417 4042 4723 0
-3828 652 -4720 0
-3419 3900 4174 0
-2818 -3957 3869 0
-4615 -4642 4567 0
-3284 2488 -3960 0
2885 -2719 -3099 0
3604 2198 -4166 0
4098 4060 2489 0
3888 3616 -2883 0
-4995 -3026 -1240 0
2751 -3360 4006 0
4346 -2248 -412 0
-2578 2759 -3064 0
3856 3244 868 0
-343 -3073 -877 0
2278 -1001 4051 0
-3791 3321 453 0
-3873 4622 1240 0
-2482 3196 1881 0
-1314 -4898 4123 0
1957 1641 -2405 0
3102 4606 -1091 0
-1308 -3894 -2054 0
2678 -2420 -4718 0
3008 -997 1896 0
1222 2650 1022 0
-1607 1212 -428 0
4968 -1290 1629 0
1679 2762 -1002 0
-3457 -1965 -4132 0
4303 -1035 3949 0
-697 -4256 3139 0
-3998 169 1472 0
-2238 2144 4481 0
-4630 3331 -4557 0
-389 1883 3841 0
2976 -4607 -2113 0
-1625 2039 3834 0
-4685 2143 -4559 0
-4616 1326 -1783 0
-1460 755 4545 0
-960 4911 693 0
-3441 4958 -4135 0
-684 -866 -4771 0
-3036 -1402 4429 0
-2966 -76 -3522 0
2144 -3964 2279 0
1596 -519 150 0
-4828 -3235 -555 0
-2402 -1509 -2896 0
1932 -4354 -4075 0
-2744 460 -2379 0
-817 -4593 77 0
-2026 2239 -1016 0
3723 -1873 -2862 0
-1966 2077 -234 0
-2156 3970 -2214 0
-3291 2667 -2042 0
-2966 3128 2467 0
-2696 4593 -2874 0
-535 4913 -4361 0
2830 -656 -3406 0
-3982 -2801 1552 0
-2356 1477 -4420 0
-4148 432 3100 0
3715 741 -4002 0
-2491 -3472 -2811 0
-1460 -3096 3237 0
3976 -4669 -1495 0
-1355 175 -4564 0
1995 1070 1093 0
941 -907 3621 0
-4632 -3395 2638 0
-2655 2613 -3702 0
4909 -3587 -1758 0
-182 -760 -889 0
4192 2402 3930 0
-193 3356 2345 0
2599 3825 3124 0
2490 -1707 -1160 0
3428 587 4328 0
-4542 4702 2338 0
4291 3296 -3518 0
-4244 2931 4402 0
3662 3601 -1266 0
-2664 -1159 -899 0
-1875 3919 1490 0
-3967 659 -4491 0
-4827 -4669 2438 0
-2163 4568 -3478 0
-1346 2266 -1068 0
-2058 4950 -2221 0
-1849 -743 3103 0
1226 -3184 3839 0
4782 -4936 4504 0
-1935 4671 -1307 0
-1681 -4920 -764 0
1748 -1479 702 0
-1458 -3155 4907 0
3251 4890 3860 0
4533 -4613 2805 0
-3120 -4746 -67 0
3329 -859 -3227 0
3083 -818 2351 0
3916 -4498 -1106 0
4377 -3697 4605 0
-1635 621 -4983 0
518 3693 3849 0
2540 921 -660 0
-3200 -4217 4521 0
4520 -3711 -4692 0
-753 -1533 -2060 0
-3141 -4464 -1788 0
2618 1460 -368 0
-3858 3986 -29 0
807 179 2406 0
-351 2888 -1715 0
2774 -2957 2347 0
-3762 106 -1368 0
-3811 1541 2666 0
2887 -1997 -2623 0
-3593 825 -480 0
3786 -2282 -1237 0
-2368 479 -3718 0
2766 -2139 4535 0
-3373 -2458 1608 0
-3704 4175 2159 0
4605 2088 191 0
-2946 4552 4433 0
654 2515 3341 0
3976 -4218 -595 0
3235 -2834 -3515 0
3243 4274 2765 0
633 3599 -3532 0
-3305 -3897 -3010 0
-3908 1168 4737 0
1176 908 -2938 0
1871 -852 2556 0
-3185 4307 -2936 0
-4981 -4764 -4567 0
-3045 3889 -2556 0
2262 -4321 -4807 0
-1847 2113 -1770 0
4593 2563 410 0
2673 1058 -4646 0
1428 -1901 -4179 0
1809 2049 4439 0
1037 3964 1917 0
-4097 3149 -3931 0
-1868 -1522 -4448 0
-556 -2066 -758 0
-4298 99 1118 0
-2729 -4146 -629 0
1632 3851 4550 0
1029 1850 -3239 0
249 -2156 -1417 0
1187 -1336 -1954 0
2004 -826 -3150 0
-4008 -2893 4982 0
-2210 4654 -1793 0
-1538 3124 2603 0
1475 1570 -3646 0
3065 -2377 -483 0
959 1915 -2421 0
-1366 -3701 -1567 0
-2650 -2540 1847 0
4071 520 775 0
371 2684 -4718 0
-4095 -1675 4769 0
-4733 1014 -2889 0
-1459 -634 2600 0
-2965 -3427 908 0
3757 1448 -2706 0
2680 -532 1919 0
3194 -2621 1749 0
-4565 -2645 -1544 0
-4971 1180 -1387 0
-4510 1899 -1580 0
470 -4722 -4145 0
-1163 -2325 4331 0
-302 -3041 2913 0
2589 -1086 -4855 0
79 -4463 1034 0
-1851 1303 3317 0
-4548 -3764 3749 0
2248 2775 3934 0
-4 4820 -4124 0
3430 51 -3040 0
2121 2188 -4297 0
2725 1822 4374 0
1957 4915 -2253 0
1672 2881 58 0
2715 1492 -1416 0
-499 4450 -4870 0
2487 -779 2782 0
3484 599 2016 0
153 2866 -4372 0
4971 727 -3045 0
1064 3491 2087 0
3656 2288 3811 0
548 -2208 2161 0
-451 454 3211 0
-1253 -98 -1347 0
-2329 -4574 -1369 0
-4320 735 4889 0
3626 -4597 4687 0
3436 3309 -2258 0
4994 -3012 -4011 0
-2847 -2455 -341 0
201 2774 4173 0
-3839 -4492 876 0
-4415 2758 3533 0
287 -3215 4508 0
3078 2428 -3026 0
3471 2424 -3594 0
-3893 4743 4384 0
-448 -272 1819 0
-997 3669 -2413 0
-1038 -2572 595 0
3107 -1683 -3353 0
-2552 -4797 -417 0
637 -2419 1658 0
-2052 1979 -335 0
-1489 -1370 -3533 0
1719 -2744 3552 0
-3972 2549 -2664 0
-4479 3909 3544 0
4220 -2585 -4554 0
-556 -374 -4739 0
-1882 -540 -4039 0
-132 1262 4598 0
514 251 -3669 0
3864 -3978 -3428 0
4891 1208 2237 0
3438 4043 3500 0
-3662 3741 -1387 0
4504 -3385 2532 0
909 -1911 3595 0
-2648 -1481 -2367 0
4186 3793 -2779 0
172 -4395 4026 0
1467 4387 3258 0
-4510 4582 3164 0
1474 -4936 4207 0
1274 -1934 3195 0
4674 -1244 4332 0
1579 -3948 2029 0
411 4705 4246 0
-4141 -3760 -4690 0
2845 2499 -4828 0
4528 3193 -4540 0
3208 -760 -4752 0
100 696 1806 0
3561 -3738 -102 0
-4752 -3879 4290 0
3075 -4340 -325 0
-1029 -3904 1546 0
-4415 2840 2145 0
1808 3362 3249 0
-3672 -4792 3838 0
-2980 3127 -3559 0
-2824 2813 -782 0
-795 2106 -3687 0
873 -1030 -2135 0
1262 1352 -1635 0
-4777 991 -2758 0
4649 -3490 1714 0
-2810 1022 4567 0
-1186 -3391 2086 0
3633 782 -2554 0
-4009 4355 -917 0
-3268 -4263 2836 0
-3068 -1083 1101 0
3964 -1222 -2608 0
-3531 4806 1017 0
-1158 4704 1630 0
60 -1046 2425 0
-4548 830 4675 0
2299 3480 -3767 0
326 -4337 3730 0
-4421 -4990 927 0
370 -2135 142 0
-4181 -1009 -378 0
-2265 -3552 3344 0
4739 2627 3110 0
4630 -4844 3612 0
3049 -2992 3563 0
-243 1689 -304 0
-1934 3397 -3921 0
-3581 1926 -4261 0
-4404 1822 -3283 0
-854 -3363 -2830 0
2910 4351 -2634 0
2792 4939 667 0
4273 1272 4840 0
2330 38 -3548 0
811 3836 -1693 0
2643 348 -4162 0
1896 3440 -3187 0
1753 2620 -394 0
2712 -4415 -4044 0
4575 -2025 -3255 0
-4 262 -4977 0
-4062 1100 -2464 0
2954 -2293 3366 0
-1687 2305 2127 0
-3179 4551 -4835 0
-2532 -2971 4188 0
3231 3457 319 0
-1640 162 2457 0
389 1807 2912 0
-1303 -4588 -1612 0
3700 -1909 -557 0
-4592 -4619 2389 0
3520 -3594 4491 0
2728 1203 3018 0
-2585 1257 2849 0
677 3464 3141 0
780 -2157 824 0
-4745 3413 -2793 0
-4023 -220 1372 0
296 -4500 1025 0
-2266 -173 1778 0
23 1539 459 0
-1321 -4121 4480 0
1159 -4457 1378 0
1476 4125 1574 0
-4460 13 4833 0
-4657 -2002 -2726 0
3547 2926 1411 0
-3464 -4549 249 0
1397 -3541 2217 0
-1218 3061 -4515 0
-1410 -3002 -3965 0
3288 1134 -1988 0
2201 -475 2220 0
4958 3968 -4938 0
4478 -2048 -1613 0
-4515 -553 -4726 0
-4031 3656 1402 0
-1328 584 -368 0
2410 509 -3123 0
-3070 1772 2053 0
1285 -1366 2001 0
-2305 -1575 656 0
4123 -3590 4977 0
-1817 -3657 -1474 0
-3467 -1392 -196 0
-915 -4687 -1541 0
-4840 -423 4399 0
-963 2651 1552 0
223 -4998 -1410 0
-472 2608 1250 0
-1027 4670 3060 0
2553 -1150 -3862 0
-614 -1071 -2107 0
-766 3258 -1025 0
-2287 1185 -2882 0
2917 2744 2226 0
1176 2953 4338 0
3710 -1972 1767 0
92 4576 -2979 0
-1946 4122 -1641 0
-4376 3721 -4905 0
2125 3129 -735 0
-3804 3717 -4056 0
2108 -385 4255 0
2521 2822 -4076 0
-644 4379 1478 0
-1471 3457 -72 0
-1249 4107 3334 0
-2073 3521 1174 0
889 4880 630 0
3461 -1351 1695 0
-1442 102 3168 0
3892 1903 -3109 0
2398 4435 -4718 0
240 800 -98 0
2864 -4296 3480 0
3089 2478 -2538 0
4065 134 932 0
-5 -3269 -4359 0
-1132 2878 1871 0
-2689 -4010 3036 0
2604 3480 -1192 0
-2849 -4365 -1992 0
-2245 -2976 -4641 0
276 -879 -2237 0
3457 4133 2220 0
2595 40 3919 0
-2335 694 2327 0
-1141 2569 -3718 0
4675 -2603 114 0
-2788 4252 -2151 0
-1147 -4433 -3877 0
-4762 -2011 2567 0
3716 -816 4574 0
-4774 -779 -3737 0
1601 -3163 -3269 0
-435 -3161 -4215 0
3968 -1284 -4066 0
3370 -3275 -4810 0
3076 3807 -1048 0
3812 4567 1071 0
-2740 -2839 -2373 0
2696 2742 3312 0
3991 -2921 -3838 0
-3484 -816 455 0
-383 -1201 -468 0
-229 -4592 -795 0
1374 627 2952 0
-3833 -2303 -3851 0
767 2111 -4974 0
470 3688 4940 0
-2836 -1892 -816 0
3060 -2001 4558 0
-4092 -1785 832 0
-3162 4108 3698 0
2367 3513 602 0
3173 1483 -942 0
-4690 4151 -355 0
947 -1635 -4924 0
-4468 -2979 -755 0
2730 962 -1084 0
3806 1997 -374 0
676 -812 -4217 0
-1249 4374 1579 0
-1096 -94 -1655 0
3307 2193 191 0
-934 2974 1875 0
1837 1191 4159 0
729 2326 -2663 0
1563 -4409 -652 0
-1513 3243 2648 0
-152 1556 4367 0
233 1930 -1487 0
3194 -3007 839 0
-3738 2801 -2425 0
1830 2610 -4974 0
2218 -4234 -1029 0
-1407 -3235 -4662 0
-1862 -955 1145 0
2632 -1251 -903 0
1228 4618 902 0
-3333 -1910 -26 0
4160 1193 -2018 0
3481 4341 2600 0
3927 -897 3952 0
977 3084 -1029 0
3010 779 -2063 0
1511 3346 -243 0
4835 2732 1274 0
3469 -3560 723 0
1742 1516 -3078 0
-497 3242 -1432 0
325 3113 698 0
529 2698 2252 0
-1868 -4832 -171 0
-2426 3097 -1217 0
-4804 851 -96 0
1147 -1772 4520 0
2399 -1922 3064 0
3882 2482 -3203 0
-4778 2852 2955 0
-1241 -2151 1534 0
-2712 -29 4914 0
3232 1066 1250 0
-4593 2923 -1898 0
4127 624 -2477 0
3835 -4122 -405 0
4271 -1089 3812 0
-4290 -3168 1729 0
2365 3183 2082 0
-3091 -4531 4038 0
4143 1636 -3241 0
-1464 -3801 863 0
3632 973 -3403 0
-4671 3032 -4733 0
-2481 -2555 165 0
-3213 1460 -3683 0
-1765 59 214 0
-3243 1828 -744 0
3787 -1074 1770 0
-723 -454 1608 0
-906 2360 1584 0
-2951 -3815 -220 0
3599 1280 3121 0
-3930 -4023 -631 0
-3769 -1795 1576 0
2153 2448 1073 0
3099 2348 -2583 0
-3705 -4052 -3144 0
2321 -4607 -3998 0
1591 -3045 -2956 0
-2055 -3901 -1351 0
-1373 2569 -504 0
895 888 626 0
-3506 -4070 -773 0
-1727 17 2529 0
671 4495 -4359 0
-2493 2341 204 0
-2707 3569 -3060 0
-696 -4436 -4558 0
-1898 2086 3624 0
-4492 234 -3538 0
-4220 -519 -1516 0
-181 -1917 2304 0
-2345 1605 -4901 0
1403 -1789 -1925 0
-4573 2823 -4423 0
-2909 2437 -570 0
-702 -2766 -2133 0
1740 1790 -213 0
-3309 -489 1138 0
4272 328 3758 0
-295 107 -819 0
4857 811 1983 0
1850 4154 3939 0
-3549 -3818 -3207 0
-2035 -1428 1362 0
1389 -1952 -2349 0
-490 -626 1953 0
3441 -642 3959 0
2803 4737 -3035 0
1607 -4074 -29 0
-146 4170 -4543 0
-4628 -4386 1986 0
3303 -2035 -496 0
-2408 -4182 1961 0
4784 -540 -1495 0
2355 2544 -985 0
-342 -923 1229 0
3624 -997 897 0
-511 -3009 114 0
1535 1530 2351 0
1502 -2661 -928 0
-3177 1566 681 0
-1524 -2448 -2281 0
2337 3539 2124 0
915 -2199 -1518 0
-521 -3425 -4763 0
-670 -4543 -2864 0
4416 681 -484 0
-3862 -2184 206 0
1626 -113 -1682 0
4350 -3312 2156 0
1010 -3669 -1946 0
2586 -3370 2429 0
-3085 2635 28 0
779 3169 4690 0
-4621 3816 -2724 0
4905 -1928 3386 0
3798 -1987 -1981 0
-4316 -833 4424 0
-4420 3541 -194 0
-1004 -3913 -1654 0
3685 -914 -2094 0
846 4698 2662 0
806 -2465 1536 0
-3315 271 3354 0
-290 -2177 4935 0
1249 4070 -1285 0
2828 844 -1999 0
4794 -3532 -123 0
1521 4720 2283 0
-3317 -4168 2356 0
-1660 -1867 -4453 0
1020 -3652 804 0
17 4756 -4123 0
-3160 -1242 -438 0
-4198 -3397 1717 0
4055 2878 3660 0
-3237 115 767 0
-622 -1905 2048 0
-2963 2213 -3943 0
2556 1796 3265 0
-2194 -3651 -335 0
-401 -3432 331 0
4008 -3452 1916 0
2782 -558 -305 0
345 -4143 1807 0
-1373 -4493 3934 0
709 -3651 609 0
4377 -4530 -4226 0
-1452 4091 1046 0
-1375 673 4202 0
3343 -225 3145 0
4149 -1089 611 0
-4280 54 546 0
-2927 4128 4702 0
4507 3184 -2160 0
4021 3914 1830 0
3402 -3692 2750 0
62 2796 -1165 0
2802 -4818 -69 0
-285 3122 -1080 0
2913 -2447 -2726 0
-1755 2006 1124 0
2696 -4962 -777 0
-1880 4999 -445 0
4466 -817 -401 0
1202 -3653 2337 0
794 -3869 1483 0
2614 3359 2814 0
4048 4492 2625 0
-4576 2285 3941 0
-865 -1383 -4142 0
-3228 2498 2024 0
-4301 2567 3651 0
4569 -666 -1150 0
-939 2656 -1507 0
3361 1576 -154 0
4538 -1860 -1618 0
3349 2919 -1610 0
4405 -2385 819 0
-4309 3071 -1691 0
-1058 -3897 3497 0
-2528 -2627 -265 0
4 -2583 -3123 0
2911 1801 2999 0
4368 3576 1930 0
-3054 -3862 841 0
3203 -4618 -1931 0
-4768 -4304 -1838 0
-4240 3055 -1917 0
1340 746 3664 0
4825 4270 -2055 0
-4673 -3442 872 0
3607 -3908 1808 0
403 -679 4690 0
4481 1783 1008 0
-3597 -838 -1008 0
3728 -2853 -3516 0
-2874 252 -4833 0
936 -4811 -3689 0
2074 2154 1593 0
-3362 3953 -1705 0
1219 -2297 -1707 0
3608 -4178 -4609 0
-2555 -1679 -781 0
-1858 3876 -1040 0
3511 -1309 1144 0
-135 1169 4759 0
2865 -3891 -981 0
-76 545 4605 0
4379 464 -4893 0
-3640 649 -1628 0
4082 -3185 -770 0
-3624 -4355 -3914 0
1008 -4964 1556 0
3322 -140 2828 0
3659 -2892 2078 0
-768 3885 2764 0
2086 -364 -4638 0
-3014 41 -2419 0
923 -4448 -1509 0
-378 377 4101 0
-723 4194 -2802 0
-152 -2262 -2041 0
-594 3874 -1604 0
2447 -3690 1965 0
3675 1397 2279 0
1464 1305 -1267 0
1493 2436 -4871 0
-3826 -4616 4056 0
-4061 3865 -4552 0
-3257 3641 3493 0
4721 1843 4149 0
3128 2203 -1268 0
3992 287 741 0
834 -2976 -1208 0
1789 -3013 -745 0
-100 -2625 684 0
-4452 3100 1572 0
884 -1488 -3922 0
-2489 4955 -597 0
-1335 1536 841 0
909 -3079 4739 0
4230 -3948 -662 0
-4693 2693 -2567 0
-304 -1206 -1320 0
4461 1923 2055 0
-3616 856 1953 0
2063 -1606 2443 0
2938 1409 -1328 0
1434 1947 1394 0
2771 4513 492 0
-921 -3834 2374 0
-3944 2869 -4080 0
-2682 4331 -4332 0
296 4884 2586 0
-4275 4845 -4278 0
1958 1119 4311 0
-3815 -505 1923 0
1662 2641 -2340 0
-1892 656 -1316 0
-3572 789 -2446 0
-4600 1017 -1105 0
-3441 -1651 -2778 0
-3896 4489 2554 0
-1078 -1247 3360 0
1581 3529 1296 0
-2034 2393 347 0
-881 -1306 -605 0
-385 -231 4934 0
1140 1262 4742 0
3347 -4736 -469 0
1668 2043 1521 0
1460 -2530 3529 0
-2039 1842 3879 0
-1796 -3745 507 0
-893 4096 3300 0
1927 712 -4060 0
2188 -2359 -3408 0
-1553 -2793 -847 0
-2608 -2768 3778 0
2065 3298 -2143 0
-3651 3075 -3188 0
-3229 121 2745 0
2247 -1719 1251 0
1879 -1092 -712 0
4011 4896 1457 0
4446 -2617 -844 0
3753 -1214 -2605 0
-1069 2897 -4474 0
-509 3477 1050 0
3364 4299 -4017 0
-3293 -2921 4086 0
-3514 -1841 -3131 0
-1429 -4163 4853 0
956 1848 3589 0
-4575 2072 -2216 0
4848 -4233 -246 0
-2979 2412 1275 0
4354 4301 581 0
942 -2122 -1610 0
-4399 4725 -4348 0
-4943 3736 -906 0
955 478 3501 0
-4074 4407 -629 0
2449 697 2944 0
-2562 -3522 3702 0
-2230 3573 -3042 0
2021 1080 -663 0
-2207 -3222 3347 0
1354 413 1146 0
2043 -158 814 0
-2546 -3987 -2254 0
-4660 3742 -4765 0
-1059 -779 2821 0
-3532 -2387 -3142 0
-303 -3745 1338 0
-295 3656 -4659 0
290 -920 1524 0
4432 -297 -612 0
3823 4745 400 0
2591 2874 3595 0
825 4436 2736 0
-1939 -3916 459 0
-3089 2738 2348 0
-4884 1431 -3318 0
2063 -1811 4835 0
4186 445 -116 0
2686 1712 4609 0
-921 3555 4488 0
2765 -220 -1195 0
-2432 3030 3251 0
-4049 1518 2981 0
3345 -1266 -2982 0
-4932 3826 4423 0
2931 4163 3321 0
4533 -1679 3399 0
-3237 904 2133 0
1590 -4117 3674 0
3512 282 3802 0
4568 -4946 -844 0
3906 1889 1734 0
-3657 -3945 4029 0
-2881 3354 3632 0
4063 -4629 -3643 0
-2982 -1068 1708 0
-3128 -3343 -3294 0
-3276 3392 -1732 0
-2587 2893 -4003 0
1464 3247 -154 0
-3721 -4422 -4768 0
3061 -46 -1465 0
3306 1196 3910 0
-1727 2525 -480 0
673 -2728 940 0
1767 235 -1978 0
-3057 2738 -1349 0
3272 -1015 2649 0
2280 -4091 -2227 0
3864 -3034 427 0
143 1814 3805 0
545 3254 572 0
-3663 -2896 -3613 0
4854 3230 1016 0
-577 1266 2801 0
-3577 -2422 1499 0
-2309 -1976 4295 0
-1582 2860 4069 0
-617 -2545 4756 0
-931 -973 250 0
2405 2106 1931 0
4660 117 -393 0
1483 -1466 -3277 0
-4177 2958 -263 0
-260 3963 2397 0
617 -1154 3355 0
4609 -2342 -2583 0
428 4897 -4550 0
-3254 4881 4306 0
4165 -1250 171 0
1509 -209 -1748 0
4622 1428 -2152 0
-4039 3896 -3048 0
3252 1872 -2536 0
2092 -874 -3018 0
-1500 4946 -3304 0
-1647 -1363 4124 0
-2818 4605 700 0
2646 -2087 -3580 0
234 -3180 -2960 0
1286 3288 772 0
3650 -1966 3281 0
-2089 -3719 -3947 0
430 -1466 -3021 0
-2088 -2655 -1779 0
-1352 -3989 -3304 0
-3772 3718 -4328 0
2040 1137 145 0
472 1062 -685 0
3996 3882 4157 0
3282 3734 122 0
89 -2169 2474 0
4512 1978 2115 0
-3473 1750 1524 0
-1446 920 4318 0
4896 1871 -2700 0
1979 -4438 2291 0
2728 1281 2987 0
-3904 -2893 -165 0
1906 2536 -2954 0
392 4657 -3810 0
-2318 -2596 4627 0
-3896 -3844 -2879 0
-477 -242 -3711 0
1451 -1454 -3905 0
-2715 2894 3369 0
-188 -906 -693 0
1158 3680 3664 0
-1696 -1459 -1834 0
4153 -1179 -965 0
-2413 -1327 -99 0
4752 -1970 -430 0
-3514 -4562 -4551 0
3020 3142 1669 0
3910 -607 -442 0
-2983 1622 -4304 0
-294 -590 -4341 0
-1326 -3077 1570 0
3780 979 -4117 0
3288 811 4494 0
-3289 -2349 -4747 0
498 -1610 -2711 0
-561 862 3234 0
347 617 -937 0
-574 2901 -4375 0
-4090 3081 -3078 0
-3008 -1627 -3398 0
-1880 3529 3917 0
548 3431 -2688 0
-949 1803 706 0
2335 4672 1973 0
-1295 -1285 -3213 0
-682 -2090 4638 0
4073 2407 -313 0
824 4164 -1627 0
-3861 1087 -2773 0
2995 -4972 -881 0
-2991 -460 2906 0
-4685 1923 -3607 0
617 3037 2476 0
433 -1603 1190 0
3296 -1639 190 0
4973 -2035 4174 0
2676 2055 -215 0
-3439 2079 4 0
4578 4065 -4379 0
-1944 2672 1518 0
3427 1692 355 0
-207 -3400 -1855 0
-191 -1809 2304 0
4730 1542 274 0
3831 -2856 -4731 0
-2883 3397 -1868 0
3788 4445 2976 0
-4831 -2596 -4570 0
-2962 -72 944 0
1825 -939 673 0
-2410 -885 4929 0
2094 -2124 -2496 0
-87 4040 -4243 0
-1386 -448 -250 0
-1541 2878 -815 0
3286 -2662 2486 0
-1278 1738 -636 0
-3751 3153 -1690 0
3647 -539 4975 0
-1114 -4188 -2209 0
1287 -4694 3086 0
4872 436 2532 0
123 4811 3327 0
4722 -3620 -2975 0
-4392 -2401 1387 0
1350 4005 -2339 0
2392 4077 -1096 0
-2167 -1399 4653 0
1214 -1046 -4856 0
1489 2424 4579 0
-2807 485 -2647 0
1628 2344 4728 0
3718 4243 3001 0
-980 2326 1564 0
-4176 -535 -708 0
4365 4795 -3389 0
785 -1862 -4337 0
-372 -958 2836 0
-3868 1944 -1885 0
-986 4445 -3924 0
1254 860 1970 0
1582 -2303 3500 0
-1369 -123 -163 0
3291 2316 3306 0
-4084 -3916 -4524 0
-2463 3373 -3776 0
1471 -4988 2842 0
-4338 115 4528 0
-3656 -2185 4380 0
-2578 347 -1949 0
-2936 -3405 -3693 0
-3057 -4364 -1075 0
-2685 3514 -3522 0
-469 3475 -2234 0
4708 -3717 2696 0
2044 -3790 -4269 0
579 853 1127 0
1826 716 4789 0
2737 4413 4795 0
4603 -4749 -1855 0
-2875 -1270 -3653 0
-2794 -2097 -4070 0
2666 -3996 864 0
2731 2501 -592 0
3449 1182 4859 0
1483 -916 2877 0
3883 -4564 2853 0
2450 4012 2740 0
493 -4487 -2939 0
883 -2674 613 0
3274 4482 -3813 0
-4027 -1112 -3210 0
1604 -4979 -2893 0
-1423 4443 3926 0
86 -4949 -1676 0
88 2223 173 0
-2225 3003 -2685 0
1528 2079 -1340 0
2355 4687 -4714 0
-4653 -929 -2405 0
-1616 -2376 -13 0
117 -367 2563 0
-3722 -2096 -1653 0
3596 419 -27 0
3924 -2328 1078 0
-2952 2136 -361 0
-2777 1533 -2696 0
2797 869 -2121 0
-545 -4207 3175 0
-1660 4719 1324 0
4441 -3321 494 0
1597 -2681 -597 0
-501 638 -3264 0
-1312 1150 3611 0
4041 -126 4454 0
-952 -2176 -2304 0
3476 -3342 1926 0
261 3144 -838 0
-2585 -3890 -440 0
-2933 654 -4171 0
879 -2365 4499 0
-3344 4284 -3881 0
2779 1281 4021 0
2722 -3611 3191 0
-2928 1172 -826 0
2799 -708 -4881 0
-3314 -3870 4181 0
-2511 -532 -4010 0
-4840 -3791 22 0
1304 1826 4924 0
2191 -1752 -152 0
-1055 -1433 3596 0
-4945 -4173 -563 0
1262 4425 -4837 0
-3744 1683 -2835 0
2415 4224 -212 0
2400 -2574 665 0
2199 3661 4103 0
-2297 -4567 -4771 0
516 1296 -3351 0
-651 386 -2681 0
-2232 -931 1046 0
-3180 2877 886 0
850 -3012 -443 0
-959 -2530 -2385 0
1051 23 -4715 0
-2469 875 -4668 0
4616 3406 3332 0
1681 3173 -4 0
-4670 -1975 3402 0
4462 -4527 -3002 0
2559 -419 -3835 0
-4021 -1012 4215 0
3240 2594 -506 0
-4471 3279 3541 0
1984 4856 710 0
-3509 4854 -2722 0
-1998 137 -4328 0
3710 2921 -3768 0
1887 2933 3014 0
3269 2774 533 0
-3961 3203 -2075 0
-134 -2266 2323 0
1185 202 3815 0
-2239 3500 -2307 0
2081 1701 -3527 0
-612 4128 3537 0
3024 4068 -3561 0
-3399 -3444 1092 0
4668 4886 -3283 0
359 -1535 52 0
173 3097 -4944 0
-333 -1271 -2775 0
1656 544 816 0
858 -318 -1089 0
-1050 -1178 993 0
-4398 -4319 -2809 0
3303 1203 -3936 0
-1154 -4688 987 0
-1415 577 2151 0
1944 -3618 -3945 0
1481 -3348 -444 0
2539 2025 618 0
-656 584 3353 0
3389 574 -31 0
4710 2719 -2868 0
-3332 -2178 -2851 0
-3855 -4510 -173 0
-1567 3054 -113 0
3007 -4756 4427 0
814 1954 -3 0
744 2210 -1762 0
-4660 4991 -568 0
4898 1475 -1622 0
-2383 -1703 694 0
4713 -1258 1396 0
4234 -3845 -1484 0
-1463 -71 3422 0
-4649 4224 3782 0
3876 -1510 -3146 0
-2441 1682 -1118 0
1088 -3078 -3639 0
188 310 -3679 0
3104 -2317 4234 0
-2048 -310 -3565 0
2476 456 -2264 0
-4407 2078 3862 0
1175 2195 3313 0
844 -217 3337 0
-1047 -4285 -356 0
-2386 4191 -3473 0
3159 2586 277 0
2191 -3452 -2238 0
2430 3006 -1797 0
4731 4690 -261 0
3447 4005 -4337 0
-1431 2705 -4190 0
-1054 -2581 1737 0
-2683 4764 2449 0
2190 -4093 4783 0
-1998 1379 -513 0
-4611 2141 2182 0
-1890 -773 -3035 0
-3872 -4017 -2323 0
-2848 3655 4417 0
3741 -488 -72 0
2491 2614 -471 0
-1247 4123 931 0
-3222 4342 218 0
2926 -2012 -4441 0
-2849 3713 -3450 0
3233 4007 2059 0
4585 1803 546 0
-739 4587 595 0
1693 459 3532 0
2826 189 4831 0
3784 1781 2195 0
-4690 3462 860 0
2965 2000 4970 0
1791 -3692 -634 0
-4002 260 -3380 0
-832 2606 2023 0
1211 -3962 2361 0
-3806 1705 -1871 0
-2270 -264 3744 0
1748 -3563 2314 0
-2882 4341 3598 0
-2904 2188 2120 0
-3930 2645 2227 0
3056 -3182 4242 0
4143 -1040 -4662 0
923 -138 1594 0
4815 -3483 1215 0
3339 -503 4721 0
-4766 2172 -4011 0
741 -466 2964 0
3506 3999 -965 0
-4803 3617 943 0
256 3415 3279 0
3673 1293 4003 0
4996 -4028 -201 0
-3150 -2224 -680 0
793 3002 3935 0
-1339 2297 664 0
1321 -1419 -3633 0
3539 -1564 4466 0
-389 -2126 1106 0
-1160 -3342 -247 0
-1276 3420 -3837 0
-3830 1539 3511 0
-3304 -2990 3145 0
-1998 -556 3497 0
1385 -3867 877 0
-1744 3825 -1522 0
-4250 2337 3875 0
463 -2157 812 0
-923 -2560 -4862 0
-1852 2830 2116 0
-3635 -1490 -3611 0
-4755 -2133 502 0
-2100 -2001 4861 0
-360 3120 4606 0
768 -1357 -1876 0
4835 -2992 -3794 0
-1194 -3098 -2465 0
-4476 4640 -2768 0
2660 3331 4512 0
1876 4153 -443 0
2726 -1405 296 0
-4154 3401 -2339 0
4969 -3899 3732 0
194 1424 2924 0
-3303 -3686 124 0
-3791 -4097 -306 0
2777 -4032 1706 0
2113 2576 2110 0
-4835 4697 -4159 0
-3344 -3924 3371 0
4057 -1043 2258 0
-1462 1870 -1539 0
1116 4062 -1944 0
3898 1412 -2791 0
2750 268 704 0
411 3125 4991 0
-1968 -1444 -130 0
-4270 3628 -3792 0
-4130 -4573 -4389 0
2456 284 -4435 0
2197 -2003 -3197 0
-3778 3772 -1191 0
3864 4478 -3463 0
3732 1680 4687 0
4172 3389 2288 0
-468 639 -1566 0
2926 1069 3053 0
1320 -3254 -1162 0
-263 -4985 -2898 0
164 -650 -3926 0
4634 -3060 -3544 0
4212 -4244 4086 0
-3485 4132 2548 0
-1463 -720 2601 0
-1881 -913 81 0
-181 3947 4913 0
-1007 3465 759 0
-169 1028 -3916 0
4815 960 -4960 0
3412 1731 4844 0
-4575 -1948 -2636 0
2623 -3009 -1959 0
1721 -4772 2296 0
-3999 -4910 275 0
1286 827 498 0
-579 2138 -658 0
1515 189 -2427 0
2329 814 -4097 0
2678 166 1740 0
744 -3347 -1364 0
-970 -1962 -2471 0
-4279 -761 4538 0
-3378 -4527 -1247 0
2908 -2389 3340 0
4249 3519 -4742 0
-1172 -4557 -903 0
4017 1908 -4618 0
-685 -3512 -4006 0
3645 4292 321 0
519 1718 -3150 0
-2737 -4597 -256 0
309 -4327 -1959 0
3745 3330 -4531 0
4143 -2272 -4846 0
-1175 4803 -544 0
-704 -2340 -2762 0
-4625 3524 -262 0
2795 -1124 -4751 0
1513 887 -729 0
3611 -2275 -4935 0
-1157 95 3938 0
-3479 335 1860 0
-2119 1948 -4715 0
-4146 2655 -249 0
-1244 -3478 -745 0
-2711 4062 -1828 0
-3813 -1323 3462 0
4936 -1557 4681 0
4266 -2283 -81 0
-4662 -2620 -851 0
1061 -4043 -4269 0
-2510 2835 3195 0
-3165 2363 4350 0
3800 -445 2823 0
4578 -888 2601 0
1225 -2152 3547 0
969 990 -3856 0
4098 -1031 2045 0
-1947 -536 -4679 0
114 -3444 -1815 0
-4538 2414 3749 0
4407 -4603 -2012 0
999 -659 633 0
3351 -3503 -2772 0
4005 4284 -2867 0
-2245 1554 -4368 0
-1753 -4027 1433 0
-3025 -766 3858 0
4090 4659 -2265 0
806 4447 -3827 0
1035 -2080 92 0
-1415 4369 -1859 0
3720 -775 879 0
-563 -1561 2365 0
-3029 2111 653 0
4394 -272 920 0
-2740 1822 -2022 0
-2983 -2533 -2810 0
3928 3576 867 0
-61 996 4540 0
-1811 -255 -3873 0
-514 207 -1930 0
-204 -485 2654 0
2392 -675 -57 0
-2735 -2480 -3389 0
2409 1743 -4459 0
-3989 -3448 2381 0
-4402 -2367 1996 0
3233 2235 -527 0
-2841 4506 -507 0
1780 -254 -4238 0
-400 -1949 1741 0
1500 4986 -806 0
-4567 -2172 37 0
124 -4912 3810 0
-4394 -4603 -3503 0
-4465 -4375 -2966 0
585 2121 4808 0
-3297 -4633 -1817 0
997 -4301 -1284 0
1106 1558 -4059 0
511 -3633 4078 0
-2515 -2533 -2888 0
119 4142 -1192 0
4171 -2312 -2541 0
1908 -2021 4437 0
-4931 -498 3457 0
2683 3800 -2229 0
3837 -1991 -4662 0
-4525 -2581 778 0
2858 -700 -1267 0
-338 -4704 4382 0
-2018 -3338 -3348 0
1245 4996 -1079 0
-4142 -4718 -3076 0
2770 -2740 1447 0
-2731 -1241 1182 0
-2657 -2927 4672 0
-1391 -1961 -2949 0
1580 -3312 -4360 0
3770 -44 -821 0
-1154 -4549 4527 0
4782 407 4625 0
2150 2673 -4881 0
507 -2885 -442 0
-4989 -4179 -817 0
-4939 -610 -3002 0
-3249 -504 4188 0
-1082 2033 2250 0
-2105 2191 -3891 0
-4623 2538 42 0
4002 -3142 -635 0
3219 4279 3477 0
-3352 -3124 -2639 0
2859 1002 3013 0
1204 -2795 3032 0
-1999 -776 995 0
-4587 408 -2354 0
4192 -3361 -1775 0
-1173 -142 2932 0
-1133 331 -4819 0
1020 1957 4446 0
1743 4792 -1223 0
-1223 1711 3411 0
-4644 3803 1131 0
1453 -4545 -77 0
-1362 -2591 -1702 0
3690 -3195 1734 0
-4904 4268 1029 0
2870 3326 -2890 0
-2063 2212 -2889 0
3373 -442 -134 0
79 -4488 4334 0
2169 4142 4646 0
-849 -1573 2298 0
1491 1822 987 0
1440 -164 -3695 0
-433 -4242 -2099 0
1279 -1454 -1613 0
361 -3434 4927 0
4688 -910 -536 0
4388 -2699 4542 0
4133 -227 262 0
345 -1070 -3554 0
-589 1135 3204 0
-3998 -1903 4221 0
-4465 4079 -2314 0
852 -2277 1772 0
3601 3111 610 0
-2752 -2643 -585 0
-2146 -3387 4395 0
-2171 1068 -1500 0
171 3543 -193 0
3678 -4883 2984 0
4990 -2040 3297 0
-4253 959 2017 0
-4922 -3740 -636 0
2537 4649 3518 0
-4514 1601 -4786 0
-2763 -2796 2494 0
4052 -3115 3198 0
1269 3646 -18 0
2040 4119 1910 0
2820 3474 2319 0
4770 4953 4517 0
-3707 3999 3818 0
1952 1623 2191 0
3937 -4339 -1354 0
234 -2467 1795 0
4499 3182 3195 0
3307 2736 -95 0
-4846 4033 -1726 0
-3542 4912 3901 0
-2500 3767 -2870 0
-852 -698 1848 0
4233 -4226 1948 0
-92 2558 318 0
-3886 311 -858 0
-1989 839 -162 0
-4665 3924 -3240 0
-439 2976 -4196 0
3179 909 3585 0
-738 4915 -4733 0
3883 4522 4902 0
-4313 -1214 3621 0
-4296 -3573 -1273 0
-367 4303 4533 0
-1611 3126 2040 0
-1061 -1153 -4224 0
-3050 -723 1420 0
-1117 3119 367 0
2492 -76 -2607 0
-3109 640 -1631 0
2482 -2656 4424 0
-1358 4173 -3398 0
4534 1070 1138 0
4913 -795 -1703 0
4907 -3299 2457 0
3801 383 1595 0
667 4713 -1306 0
756 -4838 -2871 0
2847 3794 2188 0
4168 3611 -1195 0
2048 3938 -2668 0
-1012 846 -315 0
1943 -500 -3060 0
-1100 -3323 1867 0
-2938 -2276 -4763 0
-3083 -4638 3484 0
-4633 -4214 2962 0
3244 2230 2386 0
1443 -3709 1483 0
-1736 3409 -4108 0
958 -1139 -627 0
829 -3256 3427 0
-3539 2 -3430 0
-2048 -1306 873 0
1444 -3797 3770 0
-2925 -822 -2170 0
949 -3755 -2091 0
-1983 -642 2618 0
39 462 1998 0
-3217 -2315 -3410 0
1421 3668 2172 0
3127 -1503 -875 0
3391 405 -2580 0
-3403 804 1128 0
164 1153 -4495 0
4752 1173 3668 0
2776 1610 2915 0
-1659 193 -853 0
2601 -3548 4949 0
982 -1963 2097 0
-259 2581 3507 0
2954 -841 -120 0
180 2337 4821 0
-2418 875 -1875 0
2744 -3958 457 0
4092 -222 1716 0
2641 3478 341 0
396 798 -4002 0
-215 761 -4646 0
1627 -2865 -4284 0
-4350 -4946 -4066 0
-611 -1829 -3131 0
4138 -2564 1564 0
3599 3935 3729 0
-1272 -624 382 0
2265 -3077 2808 0
-4777 146 -1757 0
1953 -4428 -2647 0
-4386 -1834 -4538 0
-3040 -4435 -4644 0
2537 4734 3677 0
2823 -664 -1169 0
4941 -2693 -2863 0
1467 -2733 -3485 0
198 1253 3563 0
3455 875 320 0
-4641 4965 2781 0
-4787 -3344 4117 0
2575 3032 3652 0
3933 -2911 3405 0
4011 -2740 4322 0
1065 -4209 4394 0
-2809 3419 -3780 0
4623 2598 1910 0
2692 -700 -2048 0
4508 -1374 -4659 0
-2410 -3331 -1540 0
68 2677 320 0
448 -1506 -1737 0
-4939 1703 312 0
-4919 -4549 -4089 0
3239 -1884 -2641 0
3974 -2903 -4688 0
4072 -869 -1812 0
4030 -2164 722 0
-2411 -1464 -3492 0
3243 -1294 350 0
-1150 3672 2442 0
-2167 -2256 -2474 0
-2745 2380 -705 0
-980 -78 -3791 0
1854 -722 -2154 0
3924 3187 -3723 0
4335 3663 -3606 0
-1199 -4653 1396 0
533 -2724 -280 0
-426 2643 2392 0
-3055 4433 692 0
-1117 1898 -1037 0
1143 -1163 3473 0
166 1314 -2804 0
-1796 3708 1919 0
1280 1690 -2002 0
1296 -3899 3773 0
-1036 3553 3415 0
-1916 -4359 2720 0
4218 -1212 -2007 0
-1232 1295 -4533 0
2683 -828 2964 0
-2741 4090 -3319 0
3473 2965 4368 0
-1104 -3113 -3674 0
2469 -92 3766 0
2305 2933 4428 0
4728 1875 4325 0
3760 -4093 1873 0
262 -2492 1078 0
-4153 -2899 -3204 0
-955 -1827 -122 0
1109 121 -4836 0
-4243 1882 -1756 0
724 2234 -3783 0
2453 991 -1349 0
1685 3183 -3636 0
1973 914 4575 0
-3040 -1078 4866 0
1893 4933 4042 0
3242 -2197 -1400 0
-580 -2214 821 0
4608 3874 206 0
-248 1904 -1489 0
782 4361 -1787 0
-2395 -841 614 0
-4984 3305 -2875 0
-2537 -3555 -2046 0
-3404 -3593 -71 0
2388 -427 3172 0
-300 -4206 28 0
143 -1781 -4524 0
-186 -1527 -1187 0
4336 -3237 -1627 0
4107 995 2247 0
1611 -4939 -4357 0
2747 -1179 -639 0
986 -4036 4783 0
-2805 4379 -410 0
-2518 1810 2129 0
-4631 -756 4263 0
-51 123 4094 0
3311 3274 -400 0
2156 -1428 1513 0
2178 -2799 2876 0
4485 4562 3906 0
2915 -1276 1873 0
-4303 -3136 3048 0
-1243 -1775 -108 0
658 -2318 764 0
-2338 4506 -1811 0
1451 3749 1521 0
-2601 -788 -354 0
-3066 955 3846 0
-4650 -1624 -4649 0
4858 -2042 3308 0
2260 -563 -212 0
3422 787 3494 0
3759 4130 -3956 0
2963 -1984 4884 0
2900 -4231 -4392 0
-646 513 -3048 0
-4249 1570 -3298 0
-86 2044 -4663 0
17 -935 1667 0
-3846 -3707 994 0
-1488 1371 2229 0
-3753 -3149 4403 0
1200 2401 -3360 0
-760 2190 392 0
-3002 12 -866 0
-3963 -4489 -654 0
-3468 3415 -1197 0
377 -4533 -2540 0
-3698 -1337 3443 0
-3546 -4290 1177 0
3957 -4074 1749 0
2340 -3906 -3025 0
2153 -3010 -3189 0
-233 3106 -2729 0
-2126 423 -523 0
-2619 -3590 4922 0
65 3509 -4972 0
-3740 233 -1597 0
-148 -2532 -119 0
-340 -1379 -4730 0
2164 -1701 -1853 0
3564 -2320 890 0
-4761 1048 2707 0
-4380 1223 -3219 0
3383 741 -577 0
3367 3984 4501 0
4943 2226 -2789 0
3246 157 -226 0
2175 -3755 2911 0
-4080 3892 2044 0
2809 4842 333 0
-3466 -916 -3226 0
-3108 507 -668 0
3826 4219 2843 0
1474 -1758 3625 0
1500 -102 67 0
3725 4722 -4173 0
4435 -1920 713 0
-996 -4372 -2501 0
-4420 2961 -1358 0
-2759 1432 101 0
4093 -4582 -1268 0
-2908 4894 932 0
-1724 -168 4116 0
-316 1898 -2244 0
-4371 -2928 1328 0
-2781 -4158 -1523 0
-1612 -2561 -4367 0
4819 -819 2453 0
-87 596 -1763 0
-3221 3037 -3045 0
-1163 -1723 -4602 0
3756 -1403 3584 0
504 493 925 0
2161 2288 1826 0
-4845 25 4851 0
3255 2573 -2665 0
-506 4315 -4290 0
-3582 2255 4712 0
-708 -3170 -408 0
-1106 -1742 2391 0
-1534 1857 3730 0
-3725 -2204 -3858 0
1337 -4180 3565 0
35 4166 2868 0
1344 3111 2177 0
-4295 1231 4912 0
834 -2110 4351 0
-1726 -1766 -4182 0
-1029 1631 -2842 0
-357 1788 -3696 0
-1751 2333 -25 0
-4175 895 -2577 0
4063 4372 -408 0
4906 -1498 1589 0
-304 -2138 3190 0
-707 -4856 -1006 0
-3549 2459 2111 0
4163 -3637 3240 0
-3861 -2118 1387 0
-4235 2049 2628 0
1917 619 2921 0
4623 38 143 0
-1565 913 4289 0
-1144 3738 -4830 0
3589 3244 -2710 0
-4144 -3395 -4544 0
-3650 -174 3258 0
4505 -942 -1148 0
1368 -1162 -3897 0
136 -4008 3446 0
130 -798 1059 0
2934 3983 1434 0
2117 3484 1626 0
2406 2359 -1887 0
3732 1205 -1999 0
-1235 402 -4012 0
2085 738 -786 0
4995 -4564 124 0
-227 -743 -222 0
4381 -467 333 0
4316 -3184 -4215 0
-3309 -2757 -278 0
-2610 -297 -4292 0
474 -814 2581 0
3877 -4316 3651 0
1560 -2439 -3498 0
4261 -239 -4810 0
-77 1239 1218 0
1921 905 -1230 0
-2440 -191 450 0
-4872 1777 2812 0
-3616 902 -241 0
939 -935 -3390 0
-4906 -2712 1337 0
-1490 -3668 4794 0
-3106 1358 2248 0
2811 -3844 4856 0
1206 1392 -2259 0
3096 1156 -3711 0
3744 -4022 -870 0
-301 3679 -4729 0
1403 -2153 -4061 0
-822 -540 1030 0
-2172 4062 -2015 0
4267 -1905 2489 0
3248 2386 1406 0
-4943 -4590 -4093 0
-4279 -2667 -1398 0
-1590 -4494 4440 0
4673 1899 1759 0
-1197 -1378 834 0
2109 -3301 111 0
2017 3757 -1155 0
679 -2446 844 0
-870 -4847 4130 0
3769 2759 4491 0
-2813 3632 -3846 0
2247 -2598 -4102 0
-2131 368 -1750 0
406 -4808 473 0
4704 2614 1189 0
-3613 2175 1093 0
647 1669 4380 0
3840 -3945 962 0
-2884 1048 -558 0
-4112 -125 2598 0
59 3336 1916 0
-1047 2232 -2495 0
-486 1639 3401 0
2521 -2311 -3707 0
-4268 3647 2128 0
-10 1791 -4563 0
410 -627 -100 0
-847 -1760 -769 0
-1489 3572 3769 0
-4343 3052 4031 0
-3965 -81 -3545 0
4471 2022 -4213 0
3810 -4172 -509 0
4090 -34 3370 0
-4454 2701 1178 0
1046 3824 -334 0
3490 -3576 -4155 0
-1731 2971 -4687 0
-4390 2851 598 0
2446 3175 2243 0
2085 594 1182 0
-390 1784 117 0
-1553 3386 -2136 0
1325 1724 3249 0
1071 -2201 2590 0
3396 -4407 -786 0
3351 -3143 790 0
-1823 -1295 -3778 0
-3153 -1035 -118 0
-4743 -3885 -734 0
2980 746 2589 0
4052 3577 962 0
3245 -3261 -4326 0
-4543 4372 4646 0
-1671 2076 -3148 0
1092 -531 4354 0
1457 -2694 -4897 0
-410 -1748 3436 0
1274 2980 3176 0
478 164 -1923 0
-1760 -3379 -4154 0
-3036 2238 -4459 0
-1284 763 -4147 0
700 4837 -4079 0
-619 4871 -3131 0
-1271 802 -1587 0
-1072 -2981 574 0
1301 4231 -4592 0
2506 -4226 2549 0
4535 -3721 -4630 0
-2588 4822 -4462 0
4458 -56 4753 0
-2090 -3019 4539 0
-194 659 4451 0
752 -1141 3345 0
-2985 -1970 3169 0
-2059 2502 1728 0
4317 1869 2465 0
3533 2602 -2778 0
3426 384 -4450 0
-1588 1251 346 0
3520 -3477 -204 0
1989 3336 -4892 0
1665 -1138 -3778 0
-4041 -3999 595 0
-2096 -3915 -3309 0
3532 -1921 2094 0
-4858 -547 1687 0
-3075 927 -1869 0
-4596 2549 -2729 0
-2528 -2683 4537 0
798 3896 -4994 0
-1790 -4954 -1815 0
-4629 413 -3708 0
-384 4515 337 0
1951 4831 -342 0
-11 3774 2473 0
2120 -2735 2586 0
3259 3012 -1072 0
2438 257 1340 0
-262 -1212 2906 0
-1949 -1174 3626 0
-3156 554 -1268 0
787 -4427 -3702 0
3369 -3236 4889 0
4113 1113 4092 0
3081 582 -4751 0
-3737 738 -2673 0
3148 -4478 3018 0
930 -1594 -3041 0
239 -3761 -4072 0
-927 -2893 -969 0
-1720 -1706 -91 0
3892 1521 -1759 0
-1687 1855 -1159 0
-3135 -4559 -4276 0
-2246 -965 -4218 0
4753 150 -2736 0
-1922 300 -988 0
3061 -4069 893 0
410 4457 -4865 0
-376 3066 -4931 0
-1528 -1518 -4425 0
4312 -2627 -2238 0
-1110 -3732 -3821 0
-1984 2198 -943 0
-3048 -886 -1072 0
4602 4287 567 0
536 4262 3805 0
4911 1592 -1075 0
2673 647 -1320 0
1115 -545 4159 0
-3050 -2134 -4734 0
-4233 1974 -720 0
2013 -1315 -4673 0
3826 1073 3761 0
4806 1352 -4809 0
4683 -1239 -1858 0
4521 -4091 771 0
1075 3375 -4785 0
3783 -2819 -2093 0
-4978 -1565 -4436 0
-4873 -1332 -3882 0
-265 766 -3783 0
-4822 -2967 4239 0
2120 4821 -770 0
-237 4240 -3465 0
-322 1427 1270 0
-2753 1829 2997 0
3782 -4773 -4410 0
2858 -3704 -4384 0
-2530 1201 4961 0
-1732 3740 1039 0
-4574 -3987 2214 0
-4394 -3629 4039 0
-1801 2082 4982 0
-3711 -1489 3939 0
167 -4198 -4491 0
-4388 -466 3386 0
-3242 -1710 -1170 0
-3846 -4619 2792 0
2147 1330 -4777 0
2022 -343 3144 0
-281 -2786 1830 0
1391 -293 -3072 0
-4932 4366 2512 0
-3274 151 -535 0
-3532 -4776 -2555 0
-76 -1770 -3706 0
2708 -4902 1251 0
1029 -637 -314 0
-396 -1018 2806 0
1727 4303 -3511 0
-505 -4891 -2738 0
4534 168 -538 0
604 -465 3918 0
-1803 2353 4361 0
-4038 3718 -1382 0
-3216 3802 -3291 0
550 3249 3180 0
-2717 -2665 -3407 0
1209 -680 -4512 0
-1980 3518 -2366 0
-2779 -1364 1445 0
1357 -3707 -3645 0
1746 1025 4403 0
-4997 -4502 189 0
-1751 707 395 0
2992 -3097 -986 0
3996 2052 4375 0
-2494 -3169 -207 0
-4059 558 56 0
-4653 2437 -4920 0
69 -1435 -4666 0
-2872 2328 4880 0
2963 -2490 -3918 0
2386 670 -54 0
-884 -4280 -2429 0
-3480 -4581 3374 0
323 -3831 -3950 0
567 -2150 4424 0
-2208 4169 4350 0
-1715 -3510 -2894 0
-4968 -4609 -2861 0
2767 1623 3609 0
1456 52 1496 0
4292 2141 -1085 0
4697 1293 -3357 0
-1488 2248 4625 0
276 680 3559 0
-3289 -1257 -1894 0
3658 4215 3735 0
3459 2460 -138 0
-3695 -2116 2145 0
1727 -2822 4872 0
-1540 -867 -3020 0
-632 -1094 -1505 0
-1018 4160 3802 0
-2480 -3259 -1798 0
-1816 870 1999 0
-4554 3926 4434 0
1259 2404 -4969 0
2298 69 1973 0
-4060 4006 -1993 0
4112 -2811 719 0
-853 638 -3385 0
-2928 -3161 4557 0
1782 -1755 -779 0
100 -1202 -4722 0
-2790 -550 -980 0
-924 -1873 -940 0
919 -690 -2860 0
-4701 212 4273 0
-237 2686 2466 0
4141 2429 4388 0
4131 -4500 -2737 0
1052 -4323 1275 0
-3715 3942 -3039 0
-4736 -3125 -1602 0
-620 2977 1883 0
2267 379 -3323 0
3718 1377 -4675 0
1917 2703 -2035 0
4822 3323 2400 0
-4468 -3818 -3463 0
266 -2253 -258 0
4671 92 -4399 0
-2301 2488 -1005 0
4081 -3732 -4691 0
-2320 -3457 4053 0
1709 -4625 -3519 0
-3445 1435 -4899 0
-2250 -1721 4268 0
3053 1022 4983 0
486 -192 2617 0
3177 2201 -459 0
-1621 790 -1153 0
441 472 -1880 0
4640 2678 -1192 0
-4139 2608 -2685 0
-3384 1820 -1334 0
-4193 4545 1237 0
-3078 -10 -1854 0
-2790 -3891 3944 0
-3134 -904 4588 0
86 -904 -801 0
-3687 1296 4760 0
123 3345 -1581 0
-3670 -3095 2201 0
1062 4946 -3251 0
-1659 -1063 -2931 0
-2709 3494 -405 0
1973 -3114 3657 0
3749 -3057 435 0
-3640 2992 -2311 0
2102 -14 124 0
841 1740 -1313 0
3960 438 2578 0
545 -1206 -3102 0
-1934 1337 3206 0
3289 599 -4029 0
1751 -89 1025 0
4658 -266 3306 0
4347 4657 -801 0
-4934 455 2637 0
4613 2839 -4578 0
-4664 -1714 -4498 0
785 2533 -1468 0
1673 -1362 802 0
-2314 4955 -3361 0
2894 4584 1027 0
-10 596 685 0
-949 -2216 4684 0
-4771 728 -4406 0
1073 -2842 -4662 0
745 -2259 2575 0
4885 1149 1502 0
2773 2628 -4063 0
1388 -995 1617 0
1357 2111 1337 0
4909 -923 1290 0
-3175 3425 -3905 0
2570 4753 3532 0
-2270 2424 -2230 0
-3727 2187 -4134 0
1178 -1335 -159 0
-2411 -3630 -1415 0
-556 1393 2076 0
3035 -2680 -4843 0
4010 -1903 -2179 0
3366 1434 1463 0
-4992 520 -2156 0
1063 -4394 630 0
-338 4706 -2419 0
-3827 -2340 4444 0
-1187 2320 -2071 0
418 1505 -3377 0
2157 2167 1808 0
2065 2985 1571 0
-162 -1701 254 0
-1112 -104 1024 0
-871 -4455 -3565 0
1933 -2794 284 0
-1017 3406 -1587 0
-2629 -2556 -450 0
-631 -3181 -4724 0
2731 1375 2927 0
-570 -1372 3565 0
-60 -1777 -1775 0
274 -3579 -1995 0
-3425 -4685 4182 0
-1895 -1343 2179 0
2168 -1908 4172 0
-3047 4575 -1698 0
446 4107 -3723 0
517 3483 3801 0
382 -3027 -4115 0
-4137 1530 -3994 0
-532 -2525 795 0
-3838 330 -1488 0
-2502 -1628 3241 0
-2759 4591 1662 0
2994 -4718 368 0
-4567 -3701 -2078 0
1323 -674 33 0
3802 -1661 3438 0
-1390 -2709 -3523 0
-4413 4851 -1180 0
-2707 924 4425 0
2196 -1540 4498 0
2852 1292 -1004 0
-4140 -658 2850 0
-3291 -3587 -4942 0
642 474 -4652 0
2299 -4144 -445 0
3212 -20 -4601 0
-3149 1332 234 0
1604 -1761 -442 0
2532 3460 -754 0
-1396 4234 1367 0
-3724 2359 498 0
-2721 3136 1980 0
4379 4494 -2387 0
259 46 -410 0
-4588 -1270 -1114 0
4870 4322 2631 0
4980 4318 -4202 0
416 -1964 -172 0
2419 -4051 -3849 0
3184 -3862 -1945 0
4018 740 4478 0
-4719 4788 1608 0
2946 1567 -4213 0
1928 -4920 1622 0
2522 -2298 923 0
4455 4874 -2169 0
-538 4033 -1097 0
-3335 2568 414 0
-553 -331 2167 0
2252 -3686 -1952 0
-3384 -846 1313 0
4690 -4608 -1304 0
2635 -1417 161 0
164 4985 -2272 0
-3218 3749 -4614 0
3253 -305 -807 0
-4040 3063 -1327 0
52 4715 1785 0
-1108 3921 -4525 0
-4410 -3126 -639 0
-522 2741 -958 0
-656 -2427 3319 0
1995 -2495 3025 0
469 -1336 -83 0
-4764 -3205 4189 0
3740 -4201 323 0
2940 729 -933 0
234 2798 -4425 0
4605 4494 2395 0
4745 2330 -2466 0
4508 2350 4414 0
891 -2266 -1132 0
1900 -4581 -3493 0
360 -2235 494 0
719 -3912 -845 0
-2536 -4908 -1360 0
1127 -2010 -4063 0
-2247 -1744 -4380 0
-2611 4326 2217 0
-2798 949 694 0
-935 -2062 -2727 0
-3246 -4807 -1084 0
791 3606 -4978 0
4957 -3311 4108 0
1345 -3021 2938 0
3143 -3231 -254 0
1594 -957 -1834 0
-3141 2329 -1929 0
1060 4103 2792 0
2573 -1062 3368 0
238 -3044 -2893 0
-184 -607 4266 0
2384 -2377 3181 0
-1613 3141 518 0
-185 2378 -1187 0
-4636 1044 -3561 0
-4449 1862 144 0
-3235 2826 4625 0
4165 4327 1553 0
-2379 2035 1441 0
-1942 2790 -1209 0
-1672 -1590 -1916 0
901 4645 1488 0
3507 -3399 -4526 0
1802 953 3759 0
-3006 -668 1860 0
3097 3563 -4014 0
2454 838 -2869 0
4699 2047 3811 0
-3173 914 616 0
3022 2876 275 0
-4438 -3039 -120 0
-4366 148 -1059 0
2456 -4982 2896 0
3004 -4207 739 0
-3563 2672 -3107 0
-4325 3880 4420 0
1970 3235 3134 0
4200 -2132 1996 0
1872 -1630 4969 0
2421 11 3274 0
4447 -2234 3624 0
3639 1590 -4152 0
3384 -3287 -4927 0
1306 1336 791 0
-3943 896 -41 0
-954 -3918 -4562 0
1461 -3856 -4104 0
3765 -2546 -627 0
4887 698 415 0
-2751 -4367 4898 0
593 -1275 873 0
4014 2352 4287 0
-2841 1371 -961 0
-25 814 1967 0
3095 4621 -619 0
-18 -4173 4348 0
1761 -1982 4183 0
-3257 671 -4553 0
3463 1154 -411 0
-2743 2967 -4519 0
-4386 3524 -3717 0
-1876 3471 -1746 0
3619 -173 -602 0
261 694 950 0
3792 -432 -4777 0
2762 1545 4590 0
-3519 3158 -1586 0
1520 2758 4138 0
2660 1634 -3904 0
-2961 -652 470 0
-3146 -3459 4129 0
919 1234 -3369 0
2455 4855 4062 0
-4637 1815 -2524 0
544 -748 2186 0
-1613 -3104 -1002 0
-2432 1146 -2104 0
-2942 1548 1352 0
-1364 -1965 -1519 0
-1888 2494 -4760 0
-2847 3665 -1375 0
4141 2193 692 0
-501 -1001 730 0
-3681 -103 3801 0
2650 -4362 -1965 0
1310 428 -31 0
1891 -410 3513 0
369 928 4778 0
-689 -1092 4305 0
-1256 -4828 -1117 0
1464 2377 624 0
1363 1968 -3672 0
4558 -1734 -3088 0
2048 -1663 1429 0
-2303 4988 4271 0
-2395 1157 3446 0
1823 4837 3183 0
3764 1809 720 0
-2202 345 -40 0
2274 -1437 -2279 0
-4286 -4672 4589 0
928 -3269 45 0
4098 -4326 684 0
-936 1812 2532 0
4594 880 -1417 0
-1797 -2430 966 0
120 2047 786 0
2284 -2996 -1136 0
520 -3193 -1608 0
2936 -2131 4868 0
-1017 -621 -849 0
-2845 2350 1054 0
-2655 2146 -4391 0
-112 2933 57 0
-3841 -3138 250 0
-4207 2762 4567 0
4745 -2404 653 0
-1780 -3714 -2373 0
4309 -1650 -4111 0
2625 -2451 2021 0
-2506 -4500 2833 0
-1340 -4663 3386 0
4662 4008 -1004 0
-2927 -4517 -2923 0
3125 1130 1818 0
-4556 4833 -3857 0
-2129 -902 3600 0
3913 1850 -2058 0
-1183 1827 748 0
3205 -3168 -2350 0
-2819 -1293 -4944 0
3153 -1142 1300 0
-3400 3279 -83 0
1913 -3178 -3269 0
-4216 754 1977 0
3514 1212 -3616 0
2385 1007 -4204 0
-4093 -2491 -1354 0
-4493 -2915 400 0
1894 -3574 1776 0
155 -526 -309 0
362 3799 -1657 0
4903 -430 -1658 0
64 -351 2122 0
-3757 -3959 -2396 0
-2172 -2506 -4879 0
2425 591 -2653 0
-4537 -404 -1237 0
4490 -4648 -3445 0
-4625 -1669 1144 0
-3648 -2906 -4221 0
-1488 3794 3586 0
-908 938 1930 0
4320 -2786 -253 0
841 2276 -3667 0
-1651 -866 -2336 0
3531 2940 -3235 0
-1554 1948 -71 0
-3572 -2084 -2082 0
-411 -2000 -3594 0
-3163 -3011 -2944 0
141 1897 -2513 0
740 -964 -2678 0
-1766 -3621 -1082 0
-3773 -2244 -282 0
1312 2927 -1526 0
-444 -252 -4360 0
-13 -2584 2126 0
616 -1642 3443 0
4634 -2332 -1845 0
17 -1029 2448 0
2654 -3188 3830 0
2614 3243 4598 0
-4828 -2648 -3024 0
1058 465 -3738 0
-2894 1822 1977 0
562 -1270 2121 0
-2430 3502 -1919 0
-1330 -3557 -5 0
-4832 2112 -1729 0
2348 -1160 -1400 0
-1026 -3086 -1820 0
270 1503 909 0
-777 1755 2923 0
1592 -108 -528 0
-533 -4323 2877 0
-1441 2028 1669 0
-2846 4342 -4775 0
382 2139 224 0
1315 -2399 2097 0
-3584 3 4159 0
2553 3242 2410 0
3111 -4833 -4597 0
1262 -17 3401 0
-4042 4227 2858 0
-1186 -3410 -1860 0
-2900 -1282 -3580 0
1454 -2949 458 0
3244 -211 -4799 0
4208 4795 -4999 0
2073 297 -2356 0
779 -2082 -2057 0
-3556 -3049 -3164 0
-4465 1557 1767 0
-3273 -3563 2623 0
-1667 -3282 -4751 0
2473 -3803 -4531 0
-3445 513 556 0
-1064 4193 494 0
3868 -1141 2274 0
2216 -4695 4886 0
-1743 2690 -4475 0
4348 -4863 -625 0
-652 -1721 1798 0
-3852 -943 2354 0
2613 -1403 -1274 0
548 -2099 -1779 0
-1897 -3445 -4874 0
1584 4677 1948 0
3873 3367 4965 0
-1328 -1905 -3604 0
-2441 2361 2509 0
-2104 -4347 -4103 0
-3284 2034 -599 0
-3409 -1490 -3767 0
1124 -2502 2397 0
-3440 -2675 4365 0
-2966 709 -3411 0
2094 -1190 -2900 0
3455 -4517 -1168 0
-2240 -2246 2502 0
2081 2516 -940 0
1357 1468 661 0
-4610 1664 -2148 0
-2130 3857 -2188 0
2268 1034 4737 0
1256 -3482 1773 0
-1209 -742 -1012 0
-4143 4808 -1139 0
-4763 -4055 -1858 0
1415 4271 3307 0
3355 2062 1710 0
-1166 2683 -730 0
-946 315 4674 0
1630 -4601 791 0
3963 4375 -4245 0
154 -2535 3964 0
2052 -2494 4431 0
2463 2270 -4886 0
-658 -863 -194 0
4163 -388 2069 0
4189 -1252 -1719 0
1913 107 -3437 0
-1563 -1839 -3058 0
-4928 -2855 -2744 0
-3624 -489 -3039 0
-3357 567 -4929 0
-2199 -2059 3682 0
-4893 -2036 4959 0
116 -4777 -247 0
-1934 2021 4159 0
2187 -2512 -345 0
-4002 -684 3537 0
4541 -621 1439 0
4338 3432 -1480 0
-2219 -3553 3739 0
-3314 1105 -690 0
861 -4661 -4257 0
-3861 -4647 -4836 0
2090 404 872 0
-4611 -1564 -1356 0
-2523 -3016 555 0
-3673 3687 -2143 0
2535 -608 -2506 0
-672 -3846 4251 0
3150 362 2379 0
3733 -2926 3166 0
520 3523 -971 0
-4752 3537 -1399 0
-4411 444 3867 0
-2986 3327 -1498 0
-2628 -4022 3815 0
-4187 3931 -25 0
-2801 1042 -3989 0
2092 2565 -1661 0
2445 699 617 0
3595 4493 -1598 0
-1412 -4980 -1414 0
-2241 2732 3532 0
-4424 -778 2250 0
2729 13 -4754 0
-2143 1058 3012 0
2406 3550 -383 0
215 -1234 -4549 0
-2323 4171 -2610 0
-1631 -650 4757 0
2178 107 1357 0
-2660 -70 4572 0
-830 -3059 3063 0
-3072 4237 -313 0
2827 -3479 3666 0
1888 -471 -2590 0
2044 -2914 -132 0
4263 2805 994 0
-2445 4772 2974 0
221 3721 627 0
-3142 -4651 -1624 0
-1350 -1945 2312 0
-3223 3151 -4552 0
2757 -4605 -2863 0
-3106 -3074 -4833 0
-4983 556 -1710 0
-839 3911 84 0
-3032 -3070 -3196 0
3721 4577 4992 0
287 1471 -4015 0
-4670 -148 -4627 0
2712 -4928 3513 0
3870 139 793 0
-1167 -4080 -3521 0
320 -1322 -3063 0
3696 -4452 3969 0
520 3341 -2792 0
-3635 -2730 1517 0
-4505 4368 -1778 0
3782 -1920 -950 0
1217 1149 -4647 0
3674 -942 2607 0
2853 4549 2371 0
-327 -2599 3060 0
-6 2519 -2772 0
-2389 3030 -4642 0
840 3274 2662 0
1391 4566 -4419 0
3011 -1145 -388 0
-3775 -1313 2519 0
-4791 -3991 -3438 0
-3010 -1606 -4305 0
2225 -1625 1367 0
-913 4745 2149 0
2657 -4240 -975 0
-2260 -4089 3889 0
3570 -3895 -2608 0
-777 -2088 -1458 0
-1911 2389 4097 0
-2005 -671 527 0
-2702 3211 -2791 0
1245 1785 2130 0
1071 -1714 4916 0
4681 -1332 2181 0
4515 2464 1034 0
-3975 1836 -4788 0
-2095 3797 3541 0
853 -3128 2902 0
-2594 -2777 1553 0
-2866 334 -3949 0
-4432 4051 -3819 0
3726 2018 4760 0
3869 -3903 741 0
3098 4741 743 0
-3181 -1396 633 0
-2628 -3254 -2254 0
61 2170 -4216 0
1608 2497 1529 0
4676 -4041 2336 0
-4401 -3167 -3257 0
-41 -1932 -1693 0
-224 -4456 1341 0
-2413 3382 -258 0
2962 -4693 3962 0
3325 888 3370 0
2743 -4227 451 0
4921 -3601 2172 0
-2362 -137 -2843 0
-3593 -539 -4384 0
-2906 -4232 3047 0
3748 3361 1819 0
-3360 -2031 -166 0
4790 2178 -3140 0
-131 3836 995 0
-4322 3244 -1097 0
4035 -669 3145 0
4602 4025 4146 0
-3526 -2142 2899 0
1316 -2488 2362 0
2001 -3173 -3777 0
-125 2713 3179 0
1667 3278 -470 0
-1490 2092 -3652 0
-2143 -4978 -4712 0
-1217 2828 2626 0
-4840 2533 4007 0
4824 89 3484 0
3818 -3774 2216 0
-3943 287 899 0
2986 -220 -4324 0
-2422 -1028 4154 0
2742 -162 4441 0
973 -1880 -2571 0
-1951 4920 -1023 0
2937 1600 -3509 0
-2579 -430 4605 0
-374 -4777 4546 0
2035 -4523 3337 0
-3293 1244 -2177 0
-2355 -2356 1893 0
1065 2110 -1194 0
2057 -4768 -1820 0
-1550 -982 -3417 0
-1966 4380 426 0
-1034 3726 -274 0
-2952 -3800 325 0
-114 -3805 -3912 0
1168 -2910 -965 0
-2379 2621 1287 0
-1436 2378 -2271 0
1056 -3382 2373 0
-897 4747 4010 0
-1672 245 4215 0
790 -1925 -2803 0
-4249 2455 -2374 0
-456 -3126 4003 0
4300 -1497 3630 0
-4456 -454 -2863 0
-614 -4444 4367 0
-1119 1965 -3515 0
-1963 2686 -3011 0
-1904 3233 -4277 0
-2880 -987 -1197 0
-4303 -3479 1394 0
-4364 -3597 -2573 0
-1825 2890 -2664 0
-4637 -491 3323 0
-1075 -2301 -4619 0
1336 -4441 -4697 0
-2689 -2033 -3798 0
-1097 1186 4938 0
1527 3803 -262 0
-1081 -3309 4173 0
-3303 -3714 284 0
3698 2976 1804 0
4664 4934 -214 0
-147 -1925 3582 0
-3613 -2543 4191 0
-493 -2493 2308 0
3053 -4874 1099 0
-511 4876 -3416 0
-3068 -4 3568 0
-359 -1125 -2186 0
-392 -881 24 0
-1434 -1366 2402 0
-2095 -3322 -4896 0
830 -865 497 0
-149 1111 744 0
-3253 2183 -772 0
-3317 -4962 3954 0
-1279 155 -239 0
1242 4170 -3720 0
-2999 2551 -1784 0
2326 -3511 -4514 0
1568 -4424 2929 0
-4260 4866 1483 0
-1346 3812 -243 0
-110 1523 -1046 0
2323 -2990 -4705 0
4296 -2557 2723 0
4199 3452 4592 0
4680 4715 -1715 0
-801 -528 -221 0
2424 257 4043 0
-4523 2325 773 0
1715 2579 3973 0
-2533 -630 3675 0
-2768 -1964 -4256 0
2756 665 -29 0
-149 4025 209 0
4683 640 920 0
-4911 -109 -3845 0
2142 2247 -3570 0
2268 662 3177 0
651 -1580 4718 0
-1823 -4636 2193 0
4783 1246 808 0
4175 2858 -4874 0
-1722 486 -2175 0
4677 -524 1866 0
-3529 -3358 734 0
-1555 3132 4739 0
2347 3004 -839 0
4339 -1459 -3622 0
4922 -3500 2664 0
-584 1101 -32 0
4225 -3654 2479 0
-3653 1071 1455 0
2447 4953 -2319 0
-3674 1867 -3268 0
1925 -1555 -672 0
-3444 689 -1510 0
-3095 -1318 2481 0
-4246 -3487 -1753 0
3719 4089 4354 0
4995 -616 2693 0
4050 4130 4374 0
-2347 -1404 -4801 0
-91 1000 1386 0
746 3081 204 0
-4901 2099 -2879 0
2774 2644 4293 0
-3227 2626 -279 0
-411 2116 279 0
2398 1142 1728 0
1940 -1050 -2884 0
-3934 -1873 -1749 0
3372 4318 -644 0
-3915 4748 254 0
387 3714 262 0
-315 -3166 -2139 0
4150 -1914 2497 0
3802 -1183 1060 0
2266 -516 -4379 0
3247 -3729 1672 0
2903 1418 237 0
-3846 -2744 829 0
1191 -155 4195 0
2004 -2638 -3869 0
-3597 -4871 278 0
3154 -99 -920 0
3068 -45 4632 0
-2723 3095 -3142 0
-332 4093 330 0
-2402 -3817 3490 0
-4226 -2531 2485 0
-1346 -3942 3491 0
-3426 -1204 3637 0
-2828 593 -4291 0
4349 -4769 -1686 0
-2209 3231 1033 0
-950 -4948 4191 0
-4192 904 1527 0
1256 -2755 -580 0
2614 4090 4601 0
1398 -1310 -1930 0
1649 -3112 -4189 0
3543 -4297 -3965 0
4400 4113 720 0
1403 1299 2867 0
-2488 -3791 -3578 0
-4157 723 4901 0
4110 -1740 -4012 0
-4130 -4005 1250 0
-4427 -1145 -4780 0
2674 1754 2161 0
-868 3372 -1778 0
3518 4148 1021 0
-1839 -636 322 0
-1937 1029 -2750 0
-1796 -3954 997 0
4395 -3534 296 0
1071 3460 3093 0
-3086 1434 -4380 0
-4634 582 2906 0
2847 3588 -2605 0
-3826 1847 1142 0
-3988 -356 -4835 0
4976 2524 1390 0
2496 -3126 2963 0
-3985 295 -1703 0
3020 4114 4483 0
-1024 4153 4359 0
1497 3375 4111 0
-4284 -711 -813 0
-1661 -3278 -3515 0
4597 3765 3547 0
-4369 -3291 -1648 0
4239 171 1022 0
-3167 -1491 -2250 0
-871 3825 -4387 0
745 4719 -2463 0
-2262 2835 -594 0
-3643 -2015 -149 0
-1890 644 -619 0
-3656 -1771 -2724 0
1416 -4703 -4456 0
2573 -4731 314 0
-4591 -2733 -4673 0
4786 -4734 -4595 0
559 1837 -1695 0
3454 -3813 -3093 0
1792 -3349 4010 0
-4449 3897 -4464 0
-2764 3983 2940 0
3791 4406 947 0
1991 -2532 -3467 0
3741 2195 3397 0
610 -4324 851 0
1498 4451 -1730 0
-2615 1706 2747 0
336 4071 2157 0
-4009 -2115 2114 0
2458 4839 1738 0
1916 -4379 3331 0
-3186 4419 1367 0
-1584 -448 3951 0
-608 1281 2816 0
-2155 3438 -3915 0
-1538 1138 -2986 0
2513 -630 -3201 0
-1145 2864 -1597 0
2982 -2439 3589 0
4630 1612 106 0
3260 1393 4476 0
348 -1752 -4690 0
2314 -362 4054 0
-943 -4727 3147 0
-3400 1994 3145 0
4373 470 -368 0
-4892 4589 1670 0
4333 -4185 -1281 0
-3562 -1698 717 0
1066 -2284 -2268 0
3875 3767 4096 0
232 3913 3045 0
-1008 4570 -942 0
1827 799 -3504 0
1025 -3710 243 0
4301 -2662 -3080 0
1105 546 -752 0
-1979 -3691 -597 0
-1997 3508 -9 0
488 -1754 3047 0
4127 -1908 -3272 0
-4009 -189 3048 0
-377 1925 -4268 0
5 3774 3127 0
1495 -2685 3068 0
-3319 932 4418 0
-2791 1669 -647 0
4275 3451 2136 0
-2859 -3527 4702 0
4609 -4383 4684 0
-1425 -1924 -1541 0
3889 3908 738 0
-1835 -3469 520 0
-460 1868 -2832 0
-4804 -1631 -1894 0
-1995 1402 -4586 0
3729 -1905 906 0
-2880 -4542 -1420 0
-4184 -594 1025 0
-2288 1388 -2512 0
1386 -531 -1680 0
-3472 -1528 1606 0
-1652 1164 -1715 0
-3966 77 4354 0
-1140 3530 322 0
-1557 -3496 4772 0
-2991 3642 -1842 0
-1000 3294 -999 0
-4006 -1790 -4332 0
1667 -940 3900 0
91 3644 -407 0
1250 2501 -1986 0
3175 475 -3154 0
4440 407 -1188 0
2572 -3977 -3533 0
-4644 -1924 -2649 0
-2733 3663 777 0
3543 4352 729 0
-3981 -23 2674 0
-3324 4887 -237 0
4282 -763 3907 0
1105 -4012 -2691 0
-2929 736 -1575 0
3860 -2814 -1872 0
2290 -4856 3911 0
3574 3786 921 0
2094 -702 -964 0
-1463 917 3084 0
-265 3573 1884 0
-3066 866 -2482 0
4513 2172 -4851 0
8 2465 2706 0
1403 2497 -674 0
1605 3434 4973 0
4495 -3422 1036 0
-86 3649 -3460 0
-2828 4085 3856 0
-1389 1307 1685 0
4704 1511 2939 0
-1045 -4849 -1819 0
-983 684 -1325 0
4940 2088 3601 0
3980 3296 -4866 0
-1360 -4197 -2403 0
4459 -4583 -3088 0
-3750 -304 -382 0
3268 -3515 -125 0
-4584 944 -1642 0
-3055 -4153 991 0
-3050 1098 3686 0
-3821 2107 -1906 0
-1497 -3521 -2432 0
-284 413 -2049 0
2574 2536 -4097 0
-4819 2064 -3550 0
321 2538 -4338 0
1378 3774 1609 0
2138 -1253 -598 0
2733 3004 -3197 0
3094 518 552 0
-2460 -277 2325 0
2152 1467 -4516 0
4849 4222 -937 0
3002 -3239 -2976 0
-2467 3577 -2092 0
4790 2318 4280 0
-3272 3677 1055 0
176 1384 -2355 0
-2240 -2088 4955 0
-63 -116 132 0
-1886 -1515 4866 0
-316 2337 3993 0
1058 4205 -4840 0
4885 13 -2018 0
2087 -2262 687 0
3945 -4906 3407 0
-3738 -1633 -2147 0
-966 -1540 2504 0
-2156 -4664 -3665 0
-1500 3264 2852 0
-2261 2474 -2101 0
-1550 3209 3016 0
4647 1450 767 0
-1025 -911 -116 0
872 276 -3831 0
2365 2870 810 0
1901 -4650 -1220 0
3759 -2470 4924 0
-1494 -4775 1425 0
397 -711 -3635 0
3026 420 231 0
4319 -1452 -3219 0
653 2101 1496 0
-2033 -3741 -2530 0
3841 2623 -1619 0
-4226 823 -4753 0
957 -1762 -900 0
81 4438 177 0
-986 4887 -244 0
-2813 3372 -1273 0
3671 -3929 167 0
1413 906 2063 0
-4264 3964 681 0
1726 -977 -1923 0
2823 3080 3328 0
-1485 -61 3528 0
1081 -3400 3218 0
-785 827 2849 0
419 -3460 -3077 0
4879 3149 4440 0
992 -439 4751 0
4398 -1484 -2292 0
-2351 1635 4479 0
-3670 2229 -4542 0
3622 -779 876 0
3123 4563 2061 0
-3675 -4641 -1944 0
-3793 -4237 -4339 0
3274 -3782 -1821 0
-273 -4418 -765 0
2800 -3741 2526 0
-2559 2407 -3351 0
-2202 -4748 -4547 0
2247 1013 4667 0
1650 3235 -1551 0
23 -1674 2406 0
-361 -3957 4130 0
-2660 335 -3116 0
1541 2256 -4891 0
373 2035 -1586 0
3873 2996 -829 0
2853 2098 -4902 0
1690 4014 -708 0
-4440 -4601 -1206 0
3004 -3906 -2565 0
4938 -108 -4910 0
2977 4851 3066 0
-984 -640 -1247 0
-1348 -3971 -4741 0
4869 728 4260 0
3442 -1930 1318 0
3752 -1652 1136 0
-881 1823 3819 0
136 -2301 -3354 0
4778 4186 3213 0
-1950 536 3050 0
1454 2914 -2727 0
1238 -2431 2347 0
-2567 4198 2527 0
-1044 -2987 -4301 0
3104 -3679 2234 0
-2840 3037 -1953 0
-414 285 -686 0
-38 -4933 2187 0
1029 3853 2438 0
-2129 -1090 2076 0
3767 -4720 -4918 0
2755 -705 773 0
2020 2470 -4692 0
782 4743 -4880 0
1706 -3102 -719 0
-343 -709 4529 0
-1033 1131 4436 0
-2127 41 -2699 0
2482 -22 3968 0
697 -2040 1036 0
77 2743 4423 0
-4133 -1879 1407 0
-3439 -1608 -3212 0
1154 2088 -153 0
-4148 3124 -3677 0
-1015 1946 1099 0
-4176 -4376 -1827 0
-4654 4402 -993 0
593 1281 3625 0
-918 67 4758 0
-2992 344 4973 0
-4103 -4439 4994 0
4714 -929 1516 0
-1803 380 -4257 0
-1291 -3356 112 0
-4139 -852 2150 0
-3995 -3296 -3580 0
-3201 -12 -3738 0
-2258 -920 -2044 0
-4312 -781 -3308 0
964 -3828 -3270 0
2870 -2597 4676 0
-4515 450 -4616 0
1737 -713 3344 0
3997 -1892 -1994 0
-724 -108 -3385 0
-1510 -871 1169 0
-4866 281 -2448 0
-1938 4554 3678 0
2300 -737 -4086 0
-4064 2370 2403 0
-985 1868 2876 0
2106 -3363 201 0
-1086 -3770 209 0
1599 -573 4174 0
1913 -2808 1884 0
-2630 -1003 1086 0
4544 865 2321 0
-1429 4898 -4688 0
3749 1163 89 0
-1763 -3783 -115 0
-113 1222 3411 0
3839 4992 2565 0
3293 -591 3160 0
3676 2007 -3193 0
1743 1449 1373 0
-3636 -181 2641 0
4393 4279 -463 0
1307 1793 2107 0
-940 2970 2096 0
-1716 -2472 3714 0
-1985 -1939 -2291 0
-3368 1350 1869 0
-1262 4459 2456 0
-4563 2042 709 0
3283 -831 4688 0
-2148 2902 4740 0
-582 -33 912 0
-3218 3930 4062 0
3637 1002 -4997 0
-3479 -2066 1152 0
-2154 -3944 3217 0
3800 -3903 -1939 0
-2127 -228 -4633 0
1631 4679 947 0
379 -4460 4353 0
-2423 3696 -3994 0
-589 323 -4129 0
-3136 436 -2125 0
68 4253 2138 0
-2210 -644 -2143 0
21 -661 -1514 0
-865 2294 -903 0
37 1244 -3447 0
3182 -899 1918 0
-3798 2387 609 0
3343 -2737 4155 0
-2669 1684 -4635 0
-3608 527 171 0
1698 4239 3596 0
-3727 2146 3230 0
-3761 -324 4819 0
1618 4393 -4250 0
4985 -3976 -279 0
-1897 -4183 2078 0
4087 4952 552 0
116 -4733 -617 0
-4814 2410 2927 0
-1799 2070 -3319 0
-446 -4277 -1194 0
2839 2947 1225 0
-4451 -4510 4255 0
-3029 -3157 -2610 0
3404 4678 -1381 0
3014 1904 2742 0
-1536 -588 -2211 0
-4369 865 -337 0
-2334 2208 634 0
4081 -4511 -1733 0
-920 1147 4641 0
-576 -2775 2713 0
3301 573 2429 0
2866 -4113 -1724 0
2743 1510 3540 0
-3162 94 2027 0
2330 -2711 3857 0
-2100 4996 1875 0
-4372 3447 -4034 0
2462 -4481 -4417 0
-3522 3589 1578 0
-752 -2099 -1979 0
1880 2761 871 0
774 -3489 -2832 0
-3971 -2706 -4740 0
-1969 2608 1583 0
-113 -2338 3112 0
332 -1754 1796 0
-2226 -1997 -4367 0
-4864 -4808 3047 0
3135 2137 54 0
-3972 -2154 -2222 0
2388 -4465 3556 0
-2988 271 -2291 0
-4231 -2878 4483 0
3786 1407 -3126 0
1314 1380 -212 0
4196 784 -498 0
4467 2847 3570 0
289 2048 -3868 0
-2903 4635 3226 0
4347 2176 3063 0
469 -1098 -2694 0
2919 3053 2094 0
4789 -4314 -4750 0
192 3379 -2455 0
1343 1433 4750 0
113 1686 1073 0
-798 -2275 2641 0
-1514 -3048 -591 0
-4273 -3293 1046 0
1696 2321 1456 0
-565 4108 -1469 0
188 4514 1248 0
2690 -2870 -99 0
2162 3503 795 0
-2569 -1401 -1152 0
-4109 -2828 3453 0
-2368 2314 -3943 0
-3214 2310 2791 0
1205 2655 -3797 0
-3907 2789 1593 0
53 3011 -1842 0
2177 714 3388 0
2046 -2609 4672 0
-4967 -1358 -3805 0
-3490 -3527 -4499 0
-4222 4905 -4671 0
3169 3741 972 0
-2069 -4285 2667 0
-2510 289 -3190 0
4680 -2490 1336 0
2086 -1135 -3725 0
575 -439 -3866 0
-2529 2216 4045 0
-39 -711 3865 0
1259 -2882 1341 0
4128 4902 -2044 0
-2647 4874 1906 0
-598 -194 -597 0
341 3986 -383 0
-203 -4964 1998 0
587 2501 4334 0
-4663 -683 1767 0
3014 1251 696 0
-2501 1781 2492 0
1129 -513 -1514 0
-3408 4238 -67 0
-1650 224 3467 0
1249 -2839 -3670 0
1116 1655 -3841 0
949 -2768 1083 0
-8 -4425 607 0
-4825 449 362 0
-371 -869 4681 0
-3185 -2401 -1633 0
4566 1012 -106 0
1626 4679 -780 0
-2292 -154 1115 0
3883 -158 -433 0
3563 1019 -3336 0
-1246 1428 1720 0
-48 240 4747 0
3875 -256 2510 0
-311 143 -3245 0
-3706 -1036 -1313 0
4608 3720 3108 0
-3547 -9 -4784 0
4124 4424 -2827 0
43 -4478 1378 0
2942 9 -186 0
4409 -108 2415 0
3349 -1059 -3814 0
-1896 -2347 726 0
-3170 -2775 1030 0
-1914 -2818 -3 0
-2177 1696 -1148 0
-2712 -2498 394 0
-4006 1547 -1904 0
-11 3233 779 0
-306 4332 1273 0
1631 874 1326 0
-1909 -2479 -2733 0
-1430 -1732 -3735 0
844 -1984 9 0
3549 -4600 -2020 0
4611 40 1626 0
-1207 -2526 -4647 0
4295 -3786 -3543 0
-2348 4858 890 0
3537 2569 4535 0
-3629 4508 4025 0
2083 -737 -501 0
3922 -2218 -3747 0
-1091 4947 1456 0
-4444 -2921 -728 0
-1614 -3092 3602 0
1470 2126 -2554 0
-2415 2991 -1046 0
-2668 2945 -4934 0
839 3407 -92 0
-2390 -393 -2889 0
-1355 1735 -2904 0
-2820 2588 -956 0
-58 4043 519 0
-1151 3089 -847 0
-1040 1663 217 0
-2537 4862 -1778 0
3041 -1308 4665 0
-3615 582 1732 0
-3125 4521 -179 0
-589 -1075 -4144 0
-4848 4590 1409 0
834 1568 -1263 0
179 -2139 -1415 0
4431 -970 4158 0
-1919 2305 1362 0
3924 835 -2234 0
1762 4141 -2952 0
-3101 -1079 -4458 0
645 539 -4303 0
-3886 -2536 3493 0
846 -2733 -3880 0
926 2925 -3398 0
-2360 1011 -1593 0
-3978 3863 -1243 0
-2321 -3812 -1945 0
4005 -507 968 0
2317 -936 4744 0
-4158 147 4901 0
-3063 -2567 -1218 0
-3679 -3277 -2749 0
1408 -372 -1709 0
-4044 3062 493 0
4459 242 -4616 0
-4616 3142 -1773 0
-2853 -2960 -3018 0
2199 4782 -1270 0
-2144 2205 -349 0
3470 3704 -4603 0
2435 91 4840 0
622 -2273 -3125 0
-2915 -2007 2255 0
-3661 2409 -2175 0
-1981 1879 -1224 0
830 -4154 -4611 0
1820 -4611 -1470 0
-3139 4081 2223 0
-209 4344 4828 0
4730 -501 -3914 0
4909 -2380 -4529 0
-2277 1117 248 0
-465 868 3308 0
-1427 -2949 -4062 0
-3373 2504 -3029 0
2652 -4711 -4760 0
679 -4222 -4081 0
328 -4669 -1510 0
-282 -1986 -3763 0
3531 -2589 -3690 0
-3120 4064 -4328 0
-2711 2953 -4314 0
3558 4195 -1184 0
4609 -2943 -2619 0
4293 1787 3054 0
-933 1771 -1819 0
-2485 -2382 -4614 0
-4116 -4233 -1196 0
3512 417 166 0
-2387 1818 2985 0
4074 2843 2352 0
-3552 961 3553 0
1168 4068 -2433 0
-65 -4702 1030 0
-4458 -4256 3882 0
191 3531 -368 0
2924 2179 -2242 0
-2082 -3165 855 0
-2522 2116 70 0
-783 2039 1293 0
4542 1022 4385 0
2131 672 293 0
4222 -767 3126 0
1657 315 1257 0
-1371 -2933 -1324 0
4175 -3088 -4305 0
-3271 3743 -3954 0
-3067 -3060 -2847 0
-113 -1503 1639 0
3405 421 1275 0
-937 226 243 0
1896 -3145 3442 0
3666 -3345 3837 0
4439 3728 3176 0
-3082 -2585 -2691 0
4864 3357 -166 0
533 -4122 4289 0
1465 2457 -460 0
-263 -4046 332 0
-113 3733 2745 0
37 -687 4771 0
-4081 -765 994 0
330 3270 1389 0
1628 -4598 4622 0
1852 -93 -4596 0
4153 3884 1839 0
2991 2241 -412 0
4191 1565 -1705 0
-3817 -4527 3080 0
36 1228 -1398 0
-4899 1696 -3503 0
-4375 -3561 -2299 0
-4209 -4531 4646 0
2514 -1178 3358 0
-2801 4345 -3859 0
-4096 -4953 3457 0
-3497 1574 3281 0
-3695 -4658 196 0
-4867 3270 -1068 0
-2559 4507 -2523 0
1652 360 1870 0
-4374 1116 593 0
1586 -2415 999 0
-4615 -1591 -402 0
4365 -1305 -4880 0
-3302 2669 2213 0
-2805 1517 -3620 0
3764 1741 1352 0
-3791 270 1419 0
1068 -1023 -4347 0
3278 4128 603 0
-3184 2092 -2000 0
2608 2875 4119 0
-3071 4417 4565 0
1008 -767 -1909 0
3092 4092 4679 0
-606 4840 -1890 0
-2325 3658 -366 0
-3271 2465 -1705 0
-3916 3895 -440 0
4633 350 4128 0
4729 -241 3168 0
-3957 198 4205 0
2085 641 -3532 0
2413 -4150 -4560 0
-169 982 4067 0
4751 -1657 1753 0
4557 -2667 -343 0
4026 -3655 2838 0
4199 -1355 -1991 0
112 2295 -473 0
-2370 -2488 1567 0
-4789 -3147 -405 0
-785 1199 -205 0
4051 -3046 1516 0
1578 4786 -161 0
1730 3210 1817 0
-372 4499 1959 0
-3706 -36 4621 0
-3449 3137 1350 0
-2119 -14 1832 0
3805 1409 -4542 0
4960 2361 318 0
10 388 3846 0
-325 -3717 -3608 0
2455 -2652 -1050 0
2539 1651 -4103 0
-2675 532 -2184 0
4268 -4197 1430 0
-732 4599 2936 0
-2403 -1341 -4649 0
2856 3699 4991 0
-2493 -3415 3147 0
1283 1132 -4241 0
-4343 1252 -2070 0
312 -842 -1005 0
-2318 4841 1962 0
-1144 -3486 1018 0
3296 1604 1885 0
1901 2546 -3676 0
1330 -1859 2317 0
-1070 1127 -4102 0
-4215 2209 -3710 0
4102 -3964 -4829 0
2238 -4861 -122 0
2489 -3624 -3487 0
324 -2335 1104 0
-4776 -3791 2088 0
-2483 3422 -1500 0
-4711 -2562 -550 0
4073 -131 3054 0
1213 3956 -4343 0
2255 1084 -2385 0
2948 1440 4844 0
3172 1848 -3637 0
680 67 -3272 0
-4306 1897 1915 0
-2407 392 -2405 0
604 4682 645 0
-3425 -2026 3156 0
3101 3437 4850 0
-1847 1758 972 0
2507 -4982 3557 0
477 1292 -4214 0
-3660 -3442 -4237 0
3145 -2597 -3961 0
4325 -1151 -3815 0
1751 -2882 4053 0
2084 -2700 -4334 0
203 3676 1 0
-4452 -3160 1356 0
3817 -1845 -4222 0
-3269 -1400 4229 0
2158 3912 1677 0
1038 -3671 -2637 0
2437 -1498 -3310 0
4230 -4002 3641 0
-3410 -344 3692 0
-3809 -2940 2516 0
534 3130 -3856 0
-4485 1516 -1383 0
4989 62 -3972 0
-2094 1952 -3398 0
4624 2699 -295 0
-1702 -740 2410 0
-294 2084 -4212 0
-2926 3606 -4915 0
1133 4620 -3643 0
-4858 202 46 0
-2093 1383 3328 0
1736 694 -1345 0
-3037 -2487 -2072 0
-473 -3386 4792 0
4793 4511 2237 0
-783 -505 3358 0
1362 -4543 -2987 0
-4344 -3363 4215 0
2788 -1449 3941 0
-1624 -646 611 0
-2468 -3057 2579 0
1839 3530 -2916 0
4038 4137 -4627 0
2526 -101 2581 0
4753 2339 4700 0
4307 -1581 4375 0
-3401 2496 -1507 0
-1375 -1795 -4272 0
-1530 -4825 -398 0
1668 -3287 1323 0
3618 1785 2534 0
-2819 848 3840 0
2916 986 2156 0
-1831 2146 -4489 0
-1318 3928 -4095 0
1078 -1337 2871 0
3543 3168 -4660 0
-3560 3819 2213 0
-1695 -471 -1319 0
-3931 3968 2696 0
-3114 4225 3107 0
-1992 -2811 -4710 0
956 -3082 -2773 0
3174 -2266 4129 0
4374 -3730 -3002 0
4542 -4143 -3418 0
-4860 -1100 -4338 0
-3737 -2294 3726 0
3499 -3223 -1545 0
-30 2944 4878 0
-414 4804 4880 0
-1510 3412 3461 0
-3408 -3751 -4923 0
702 2679 -3645 0
498 398 -355 0
-1686 -2231 -3025 0
-3020 61 2524 0
-3506 1223 -1886 0
4293 -4444 678 0
4620 -1528 1427 0
-4950 -797 -211 0
627 117 -909 0
-4924 4603 1179 0
2989 -560 -2634 0
3034 -3209 -4098 0
-1156 -4151 -4302 0
3742 -4903 3642 0
3143 -3873 2470 0
-2995 -1195 -1024 0
-4215 -1668 4715 0
2244 3027 -2617 0
3603 -208 453 0
2505 -1554 -3170 0
-2085 -584 223 0
3490 1013 247 0
4823 -1647 -2944 0
-4490 -2478 -130 0
-4846 -4072 -3570 0
1219 -955 -1545 0
-4883 -790 -4584 0
-4417 4907 -4182 0
-1266 -3250 -4287 0
2094 2316 1521 0
3349 2899 3637 0
3897 3666 -2258 0
1847 1960 -2669 0
3574 -1796 -4296 0
-3069 -4509 4876 0
678 578 -4506 0
-381 -2146 -3906 0
2456 1811 2059 0
-3894 -27 -2542 0
3452 -4591 -2511 0
-3601 334 1453 0
-430 3183 4311 0
-3241 2461 -4238 0
-3416 -3433 -3225 0
4747 -3779 -2750 0
-1645 -671 -1762 0
-1095 -1237 -640 0
-4772 -566 4455 0
508 -876 -1731 0
-4021 2696 3227 0
-2427 -3692 -48 0
4478 -4236 -2942 0
1075 -2375 3683 0
-1389 1026 848 0
-4676 3271 4141 0
-1413 3190 -1599 0
285 171 -4172 0
1665 -1954 88 0
498 -721 1956 0
-1365 2124 2098 0
-2375 1842 -3363 0
-2657 3830 4277 0
4276 -1697 4103 0
-1443 623 592 0
-1277 -883 -607 0
-4512 -3985 737 0
3061 -3051 -1099 0
4639 4696 -781 0
3582 -3265 3280 0
-1749 -3532 2425 0
-3024 3693 -3342 0
-3529 4436 865 0
-1024 -1789 2121 0
-3355 679 4050 0
2841 -1641 2393 0
896 2831 -1453 0
-85 1583 2118 0
3582 -2165 4958 0
-2767 -3092 -4702 0
-3946 -4599 2150 0
1819 1753 -885 0
2195 -1668 181 0
-1012 2851 4415 0
1364 -1675 614 0
3870 1049 -1735 0
1456 -2226 -1295 0
-2720 4859 -2000 0
4222 3171 -3878 0
-2863 -1263 4683 0
3829 -3921 -1127 0
1124 -932 -3113 0
109 4344 -3209 0
2955 2483 2597 0
2028 1754 -3478 0
2017 3373 -3651 0
-4315 4731 -920 0
-943 4145 -2994 0
-3794 358 -4612 0
4119 1098 155 0
229 -94 -1004 0
3325 -2096 -3406 0
4211 2162 -3158 0
-641 -4347 2274 0
347 219 138 0
2545 -371 763 0
2989 4799 3418 0
735 -2561 -1591 0
4068 3180 -3619 0
-3644 2694 3361 0
2236 -3854 -1997 0
-957 1938 4122 0
280 -2176 -2949 0
1273 -2781 -534 0
3963 -4206 -3184 0
-4615 -2868 73 0
2851 -4008 1981 0
4953 3006 4656 0
2502 2949 10 0
3209 -4087 -814 0
-680 2417 -3952 0
4586 2672 -1023 0
1061 -782 -4292 0
2160 4604 -705 0
-4135 -4375 -4764 0
3119 -2730 -1468 0
3695 1146 152 0
3591 4921 1516 0
-1649 -2330 -2000 0
-1658 128 -4844 0
2249 -845 3679 0
1324 4179 4473 0
1505 -2392 -1647 0
-3021 2317 -4597 0
-3544 462 -3176 0
252 3709 -2426 0
-2300 3961 -166 0
3791 3613 -2557 0
2232 -2959 2916 0
3917 4971 -3014 0
4947 -1991 -170 0
4182 1121 -753 0
-2070 4263 3101 0
3809 1535 -2515 0
2823 3759 -286 0
-457 -795 2457 0
-1789 955 2808 0
-1304 -1439 233 0
-1883 668 -4790 0
4339 2668 1941 0
1157 3176 -2420 0
-4563 -4826 -4929 0
-3022 657 724 0
4587 -1121 3033 0
-4872 1988 4307 0
1235 4593 2221 0
-819 2712 1850 0
4720 -4998 2354 0
1638 -4843 -3785 0
-318 2960 3550 0
3723 4088 1620 0
-526 2294 4566 0
543 -388 -3795 0
3077 1552 4723 0
216 420 -3499 0
847 1082 3103 0
-2291 -1787 436 0
3915 199 2435 0
782 3400 -109 0
-1278 -3631 943 0
-3386 1728 3488 0
-637 -323 458 0
-1916 -1392 -3669 0
-4822 -1735 1020 0
3640 1146 1355 0
-1341 -3061 -4137 0
-369 -3386 -340 0
-3582 -2517 2625 0
1779 3927 -3933 0
-1222 -4853 4835 0
-1423 -4401 -4265 0
-1452 -4563 4096 0
-758 243 -1152 0
3229 -3174 -2327 0
-4621 2110 -1227 0
-4107 -3928 -2534 0
-2933 610 -842 0
-1625 -3873 2397 0
1992 -1559 -2447 0
-1921 4636 -4878 0
1597 49 -3877 0
2504 3020 -3858 0
4311 -3284 -4022 0
1131 4367 -3625 0
-3684 -3293 -1943 0
-4313 4315 3514 0
1964 -1693 4283 0
2889 3505 -2916 0
-1880 5 1420 0
3520 -647 2780 0
3575 4723 -299 0
-3576 -2576 -2383 0
-128 -3104 -2986 0
-2964 -3806 -3158 0
-858 -4657 2408 0
1712 -3990 3791 0
4981 -1759 2788 0
-3563 -2816 4348 0
273 -1914 -251 0
1832 -2778 -3178 0
4032 -519 -4157 0
-697 111 -4523 0
1928 1111 3444 0
4620 -3830 2220 0
-16 2674 446 0
-3831 -2768 -1477 0
459 3328 700 0
2521 1889 -4332 0
-85 605 -1731 0
-3037 2761 -4251 0
-3448 3675 2756 0
-4801 -1831 -4817 0
2509 3213 1270 0
-1445 973 -2608 0
2720 -1881 -2990 0
3828 90 4634 0
4598 -607 -3275 0
-1854 1455 -180 0
690 -2234 -4773 0
-4406 -2489 2442 0
178 -1540 -3797 0
201 1047 -1608 0
1374 -3302 4248 0
-719 -4526 1446 0
693 -2150 -1538 0
2167 3461 2558 0
-2481 -1534 -1755 0
1617 -4999 1353 0
-4380 195 3922 0
-941 -1626 4639 0
4044 1235 4017 0
-1288 4312 4922 0
-79 -1335 -1014 0
-4571 -4557 -4808 0
3938 3367 -4140 0
2284 983 1600 0
-1972 1878 1886 0
4330 2511 3753 0
-2059 2404 -2182 0
-4558 -868 -2109 0
-3 -42 -4797 0
2370 -2014 -2827 0
4004 -4817 -3172 0
2039 -993 4066 0
-4989 -994 4501 0
4882 371 4420 0
-2229 -246 3466 0
-4012 3581 -3306 0
3890 1401 3493 0
-4052 -3512 -1447 0
3922 1238 -3924 0
3816 3910 -4251 0
2042 -4835 -2551 0
-4357 -2976 1112 0
-4146 3857 -973 0
-132 -1351 -2295 0
-4210 1178 3518 0
2444 -82 1947 0
2401 -299 4270 0
-1037 3921 1223 0
-4309 -2470 -4389 0
4771 -2935 4679 0
1816 -4211 1001 0
4329 2809 749 0
4852 -3814 -2477 0
-531 1157 -939 0
3681 -3152 269 0
-4993 3632 -2190 0
2801 821 2425 0
3267 747 605 0
-1070 933 -3450 0
1415 1267 -3876 0
311 -1401 -3664 0
2534 4658 2789 0
3123 -687 -3431 0
-67 1898 -3956 0
1378 3135 -4744 0
1590 -4059 -493 0
3315 3831 -3718 0
606 -1017 -4787 0
3928 -4044 -1074 0
-4926 -2369 2512 0
-3100 4470 2760 0
-4030 526 185 0
1478 2732 -2005 0
90 2826 192 0
-2970 2036 -1973 0
1805 4509 536 0
1286 -631 2509 0
-2604 3648 -3805 0
-167 -4468 943 0
-1295 -4856 -3823 0
1568 -1 3171 0
958 1622 -2334 0
-2651 2490 2009 0
-3545 -3407 -4620 0
-2773 4798 597 0
1660 3697 -1209 0
102 -2888 -3456 0
1748 1256 -1585 0
3203 648 4573 0
-3541 4096 24 0
-204 -2989 -4492 0
4024 -535 1645 0
4687 -3390 -4696 0
3134 -3775 -3460 0
23 2194 502 0
-4170 379 1715 0
-492 -3110 -4128 0
3081 1055 3392 0
-264 -2253 4964 0
2082 1662 595 0
1300 -3979 3345 0
-1916 3848 524 0
-859 -25 -88 0
1459 4915 3636 0
4367 -2521 2094 0
1301 4982 8 0
2327 1009 815 0
280 3772 -566 0
-2506 -4054 3650 0
-897 -2902 2516 0
548 764 -3214 0
-2455 -3619 -3815 0
-1927 4840 -3610 0
-4073 -628 -3021 0
-1511 -2041 638 0
-3993 4612 -4687 0
3475 3787 -4951 0
4055 4856 -4252 0
1557 -4919 2645 0
881 2478 316 0
1420 4946 146 0
4869 930 -217 0
-4314 1425 1674 0
-701 4743 951 0
2683 -4528 1147 0
337 -2410 -446 0
2247 -4421 120 0
-4051 -4337 3052 0
3507 4094 1495 0
4807 -1260 4754 0
-3622 715 -3092 0
1381 -2695 4898 0
-4498 -3944 2200 0
4118 -4665 -724 0
310 4357 4009 0
1087 1144 3791 0
1254 3875 2076 0
-195 -4296 -1408 0
2330 -4943 2599 0
2670 26 2391 0
-4244 -718 2714 0
-2858 3319 3845 0
-1891 -2520 1122 0
-61 1404 -3768 0
456 3979 4697 0
4217 150 -3152 0
622 -2079 -782 0
4278 -2861 697 0
-4213 -4986 3604 0
-4541 2873 3626 0
-3041 4956 -1934 0
-4470 -1902 2964 0
-4720 -2557 -2220 0
-4098 301 -1487 0
-1784 2715 2812 0
-4374 -4058 1715 0
3939 4869 166 0
-3476 -1987 -2208 0
-229 3263 2476 0
-4964 1314 47 0
-495 -897 2504 0
-2563 -4857 3520 0
2975 -1209 -4650 0
-371 -571 1537 0
-2144 54 -3097 0
3431 -4336 -783 0
-4779 -677 -260 0
-3384 4376 -1400 0
981 -1569 2741 0
2160 -1298 -1010 0
-4914 -4150 -2422 0
-4143 3722 -3759 0
3945 -1666 -2918 0
3860 3203 -844 0
1003 3577 -2076 0
4645 842 2512 0
-389 4699 2745 0
-3978 4926 -2890 0
2122 -688 -4379 0
2802 -4654 -765 0
-3113 -3168 2956 0
-599 -621 154 0
3656 -3136 -1539 0
-4067 2527 237 0
-2104 -1030 4281 0
-274 -1125 2708 0
-356 -3736 -561 0
4166 -1028 -3853 0
4696 4841 -4117 0
-2749 -3677 4723 0
4067 3185 4307 0
956 -2917 -4567 0
1465 -1891 4788 0
3189 -1588 4445 0
-3192 1629 1490 0
-4963 1321 3402 0
-2655 -895 3117 0
2012 -4273 3593 0
607 -2568 -1832 0
-2247 -3677 -2649 0
-3118 -1681 -2922 0
-4386 -3809 3769 0
-2761 2353 2428 0
3804 2159 -3944 0
1547 -1957 508 0
3438 -1296 -4246 0
4998 4947 1 0
-798 4833 -3125 0
431 57 -1756 0
2385 -4271 -4553 0
-3716 2288 1140 0
-1293 603 4867 0
-2283 -3547 -1778 0
-15 -2406 -3626 0
3807 -4320 -404 0
-787 -4502 -1326 0
-2082 -555 -1078 0
-806 -530 2240 0
-4877 -3731 4397 0
2711 -1299 -1491 0
-2481 -187 -4768 0
-1072 1647 -4139 0
1591 -3077 -4900 0
1110 40 -1098 0
-2660 4532 -2051 0
-749 -1829 273 0
1525 -2999 -3698 0
-1458 2723 -3 0
-4596 -3554 4484 0
992 -404 3969 0
-3588 -410 2875 0
4237 -2968 -32 0
1579 -684 -3086 0
-2643 4662 -4665 0
-3928 -892 -4154 0
1630 606 1385 0
-4798 1200 -2672 0
1410 3760 3921 0
3718 -3472 -1344 0
-3386 1918 -793 0
-4391 -1185 -2051 0
-4933 -1205 -165 0
-3948 281 2682 0
1394 -218 -769 0
4337 -4587 -3653 0
4412 4920 4481 0
717 -1418 3952 0
3895 -4876 2173 0
-38 1873 -2854 0
-232 719 -991 0
-3906 -3755 1802 0
1591 -3940 -14 0
-3176 -1553 -3138 0
-2407 2115 -4398 0
-2517 -4724 1746 0
239 -1318 -2626 0
837 -4405 2848 0
-2309 4057 -1734 0
4223 -525 483 0
2637 -727 4363 0
-2699 444 -2112 0
1279 934 1015 0
-1139 -2449 4959 0
-4257 2155 2064 0
-3012 3165 3500 0
-3266 -2900 -1533 0
-2856 3482 -2526 0
-835 -2150 4731 0
1752 4914 3308 0
-1274 -3575 3141 0
4654 -2440 -3150 0
2494 3037 -2041 0
2216 -3160 4024 0
-1262 2755 4100 0
-4495 -1509 2109 0
-1673 -4897 -2483 0
3918 -1445 -3486 0
-1262 -4517 -3029 0
496 -1479 3782 0
2051 3074 943 0
2838 -987 1782 0
-2901 3175 3198 0
255 -1406 -4149 0
-2920 1302 1950 0
-1805 -1119 1541 0
-3309 1214 838 0
-4928 4537 -410 0
-2622 -1141 -4177 0
-2896 -3333 3931 0
4539 2942 2667 0
-1737 4711 -3472 0
1345 1207 3286 0
-475 2828 2823 0
-3402 3042 717 0
4378 21 -2889 0
1112 3836 -3814 0
4945 -1639 -1908 0
2253 4598 -588 0
817 4827 -2946 0
3703 1893 508 0
3034 4085 -3265 0
-3347 820 -3518 0
2801 1215 -2310 0
4215 -3389 1521 0
-3271 -3730 807 0
2482 2262 -1965 0
2278 2037 2970 0
-2879 -4166 4699 0
3069 3631 2484 0
-1228 3326 1369 0
1469 -1983 2453 0
1591 -780 -4979 0
-1752 4180 -2769 0
2086 -4838 -132 0
1644 1371 -3960 0
1050 2700 -3290 0
-469 4923 756 0
-1406 -3921 4387 0
71 -1246 -2550 0
3302 4250 -3657 0
-4194 -4478 1568 0
-3582 3703 3095 0
598 1662 89 0
1823 -646 -2227 0
1118 4645 4844 0
-1787 704 4413 0
4990 -2102 1055 0
2634 -3828 -188 0
-2367 -2486 1786 0
1618 -4547 -2808 0
-4971 -2662 4330 0
-135 -3455 2423 0
4099 2161 852 0
796 176 -2885 0
-2414 834 -1538 0
396 1785 -2099 0
3713 1515 1966 0
3972 675 -312 0
-180 -56 -2986 0
-4726 650 1671 0
-3605 28 1296 0
-4165 -1828 -520 0
-165 1449 834 0
1649 -1108 4312 0
-400 797 -2598 0
4447 181 -1732 0
2435 1955 -1145 0
-674 -402 -2301 0
1844 908 -1388 0
2827 -4528 3481 0
4264 -1664 632 0
-4398 -4134 3922 0
1531 412 3133 0
1579 -1854 -4143 0
-1083 1415 -4805 0
4245 -4647 -1986 0
-2135 2969 2379 0
-700 -960 271 0
-2152 4199 378 0
-4870 296 -1648 0
-1786 -1176 -3539 0
-909 962 1758 0
810 1343 3458 0
4496 2918 -1743 0
2434 2702 1874 0
-4989 -3843 1349 0
1196 -2026 -4998 0
-4903 2940 1902 0
-166 -624 2357 0
-2867 -2675 775 0
-1480 2863 3726 0
-4935 2021 -3963 0
1336 -699 1218 0
-3426 -2192 -1360 0
-3454 3184 2616 0
3890 -2098 1940 0
8 1059 3355 0
118 3678 -4321 0
2545 3061 2177 0
-695 -1210 -983 0
-882 345 -3920 0
4347 2831 1777 0
-2241 -1539 -1717 0
-839 4035 -2690 0
2986 -2341 -3619 0
463 -2167 880 0
2666 -2748 1133 0
-2830 3278 479 0
-989 3715 1519 0
-274 -256 -1453 0
-4093 4020 -2768 0
-2551 -324 -3133 0
-726 4970 -1112 0
354 -1564 1336 0
3453 2867 919 0
-426 -4851 -2113 0
-3393 3137 -957 0
1991 612 -1324 0
4928 2109 1459 0
-755 4020 1075 0
1589 3085 2816 0
1817 -3336 1646 0
-1335 -2219 -3670 0
-1875 -2777 1554 0
-3674 1675 2182 0
1806 270 4900 0
-4758 1600 -3254 0
-3363 -447 3543 0
-4894 640 4788 0
557 2187 3167 0
1191 221 523 0
4880 3242 372 0
-4168 4405 -4994 0
3768 2503 2076 0
4245 3287 -3924 0
3144 -3059 -4314 0
698 4757 -1139 0
-4338 177 -2376 0
1513 2490 3646 0
1853 -403 1954 0
-2144 -1670 -736 0
814 3028 -163 0
-4922 -1939 -1393 0
1341 452 -4104 0
-1081 430 2694 0
2342 1355 -4871 0
-326 -3884 1015 0
2065 1189 29 0
1321 4048 -2078 0
-2744 -4189 -299 0
-734 -2017 -312 0
-2345 3578 4320 0
1280 4380 1970 0
1895 3638 2403 0
4481 -1628 -492 0
-1916 1578 4518 0
-3480 -1714 4761 0
-677 1137 -568 0
222 -3141 -2285 0
-51 -3393 -1779 0
1543 2913 2724 0
4178 4321 3246 0
-2514 2347 532 0
1038 3672 -2098 0
-1980 2825 -2025 0
-3600 2936 2570 0
1830 -3265 -817 0
1245 -875 -1583 0
112 4240 -2142 0
-2904 2356 2458 0
4545 -612 -3045 0
-1250 -2277 452 0
-483 3240 -1786 0
-2750 1052 -3663 0
961 -4821 -2194 0
-220 -1833 115 0
-4584 3396 2949 0
-2041 3809 -4264 0
-236 519 444 0
-4218 3899 -4204 0
-330 3398 -3406 0
226 -3793 -3784 0
765 -3551 3027 0
3567 4011 -2311 0
500 -55 166 0
3131 -144 -3393 0
694 -1631 3043 0
-477 1844 1752 0
-1775 3923 -3837 0
1701 -573 3719 0
3502 1206 2396 0
105 -4513 -3518 0
-4344 2122 1183 0
4018 1512 430 0
3557 1650 -3717 0
-77 4893 -2532 0
-3578 2225 -3222 0
-2790 -1792 4543 0
-1119 1168 -2687 0
1778 -3119 630 0
-3838 -3613 -3027 0
843 928 -872 0
2525 -2354 -309 0
3726 -2997 2921 0
-882 1200 3474 0
1887 3095 -4843 0
4513 -624 4999 0
-1031 4300 2114 0
395 3603 2785 0
-3373 1783 2395 0
4338 1244 3426 0
-1290 2310 1541 0
4129 3881 -1035 0
-4259 239 -1107 0
-1514 2278 -4140 0
-33 93 2098 0
-4316 -3426 252 0
-4010 3387 -136 0
3924 3872 -1090 0
4424 -1125 -2997 0
4997 -4967 -2155 0
-4316 -4875 -415 0
-1392 2083 244 0
3440 -2812 4427 0
-4046 -3707 2494 0
1395 -4523 3910 0
2983 331 1014 0
-12 1675 -4133 0
401 -2920 -2746 0
-1631 3670 -2725 0
4452 -3475 3290 0
-2925 -2281 -1209 0
-1160 2484 -1422 0
-4990 -3171 3038 0
1980 3014 2181 0
3831 1625 2414 0
-4667 2192 -2879 0
-3582 3428 -1844 0
-2322 3068 1801 0
3989 -1225 4416 0
-1892 708 -1402 0
-3213 2205 3902 0
-1135 3899 -91 0
-2348 -4307 2498 0
-3719 96 -257 0
2107 4845 2251 0
-2593 4942 -1622 0
2595 -4794 229 0
-2662 4074 -3620 0
-482 929 -4722 0
-4681 -424 2655 0
-2422 4157 -2941 0
-1811 -3080 2737 0
1010 -4886 -4965 0
3526 3768 2468 0
-4039 4961 -2148 0
3890 -3624 3199 0
-432 1181 -324 0
-2543 1436 -935 0
-3644 -530 4643 0
-2602 -2102 1743 0
-3013 -3311 -327 0
-4739 -2911 -692 0
-2770 104 -714 0
-3618 -2616 3702 0
-4982 744 -4183 0
-1487 4485 1791 0
2123 2154 -3267 0
513 -2520 927 0
4770 -3219 4141 0
-3315 -1376 4280 0
1255 -1336 -3031 0
4542 -4263 -3742 0
3779 3533 4943 0
-205 -932 2369 0
-2164 -1992 3700 0
4281 728 2769 0
-2611 -3080 -2437 0
2260 -2366 -1974 0
987 -2262 -1776 0
271 -4523 -1653 0
2013 -4339 -4371 0
568 -4886 -970 0
1693 3816 -3664 0
-3409 -353 1152 0
2219 -1053 -2923 0
-171 -392 94 0
892 -507 339 0
3093 1601 -2097 0
-2016 4079 -4832 0
-3432 -2203 -83 0
-4985 -3561 3391 0
-3094 -4972 2519 0
-3783 3559 4001 0
3062 3859 -1868 0
-3305 -1185 -487 0
-4287 -2477 -2907 0
1658 -2879 -983 0
-571 2070 3844 0
2715 -2558 -2599 0
3119 -2415 1072 0
1487 1319 764 0
4697 -2445 -2368 0
2319 -1841 2381 0
-3891 930 -2401 0
-134 -4597 -4201 0
-1892 4733 420 0
4127 170 2468 0
-4755 -3155 1360 0
-3995 2096 -3064 0
636 -1436 4037 0
1939 166 -3330 0
2569 -1152 4941 0
-3458 891 2666 0
1540 991 -387 0
-63 124 116 0
-1164 -970 -831 0
-1926 -3378 -3916 0
2941 -4341 4141 0
-4362 1567 3140 0
-1129 2927 3992 0
-225 -2799 874 0
-1449 3770 897 0
3068 1695 -3778 0
-998 -4042 -4064 0
-2453 -1255 -4479 0
-2175 1478 615 0
-581 -2272 3474 0
-976 -4874 1061 0
-2108 4900 -3811 0
1602 1372 -4889 0
2867 -2732 -1916 0
-1459 2180 -3514 0
2035 -2202 -2190 0
787 -2354 1462 0
-3101 -2427 -1915 0
-4111 4946 1681 0
-4119 -4777 4647 0
2825 3624 1540 0
2345 -2726 -2429 0
57 -103 -160 0
-1649 3835 -2081 0
-3964 -908 -2787 0
4433 -1363 466 0
-3654 -339 3630 0
-352 4197 -4659 0
-685 3606 1540 0
451 3520 -1072 0
4025 711 -2943 0
4156 -3596 -1223 0
2298 2469 2078 0
1347 -2420 -1215 0
-1507 4968 4294 0
-4740 2486 1745 0
-3227 -1910 1702 0
-4582 2666 -4579 0
-2136 -2757 3757 0
1747 3386 3512 0
1864 -103 -4147 0
452 1949 -2407 0
2646 -2531 -902 0
2287 4456 3401 0
2329 -1982 -4856 0
1757 -3472 -3663 0
3551 4965 -2798 0
-4117 3392 -1998 0
-4130 -2571 -4585 0
4414 -2685 -89 0
779 4063 -3236 0
-1354 1604 -118 0
4458 -443 1732 0
-2453 -4359 1652 0
3501 -587 -3109 0
-2796 843 -4252 0
-1303 -3667 -2857 0
783 2469 381 0
-762 4277 348 0
-2506 -4154 3075 0
4545 -3854 -2729 0
2260 -3826 2100 0
4528 4777 -544 0
-3811 -1069 3882 0
883 -3052 -4374 0
2098 -4583 -1827 0
-3978 297 3174 0
3954 1799 3303 0
3916 4625 3917 0
-1018 -3639 -3945 0
3673 -2169 -4572 0
4467 -372 -1493 0
-3948 -4211 -425 0
982 3750 -4576 0
-628 -3253 1779 0
-638 -3623 -3062 0
243 4745 -149 0
-2036 -3571 529 0
-2713 -1336 -3442 0
-4027 -3996 -2839 0
3278 -3591 -567 0
-1037 2726 2713 0
-1721 -3725 -4310 0
-1660 -1317 -2310 0
3919 -4440 2480 0
1956 -2025 -855 0
-658 -1790 4599 0
19 2038 -4589 0
1753 557 -1589 0
4297 -4407 2857 0
2196 -1360 1781 0
4752 101 -1869 0
3220 -458 2380 0
3627 -2589 2814 0
-2014 1811 -2262 0
-1756 -3509 1059 0
632 1890 -436 0
-2905 3907 2336 0
-511 4390 295 0
-4434 -1963 3701 0
-2592 -1967 -2780 0
3654 3689 1208 0
4489 2184 2307 0
2782 948 202 0
862 4654 -781 0
2421 1425 -4844 0
-3084 2977 958 0
2382 2139 -4774 0
4469 4966 -295 0
-3538 -2574 -941 0
4594 -4088 -4691 0
-1666 -1883 1400 0
1818 -3626 4403 0
-2414 4484 -2840 0
821 -2601 -2679 0
-4337 -2525 378 0
1584 -3705 -174 0
-4323 953 331 0
-3632 449 4229 0
1035 4159 -3815 0
2902 4885 4429 0
890 -2182 -3398 0
-2410 1876 137 0
-1020 -2360 204 0
-2938 299 -2371 0
4366 -4756 -3419 0
-1608 1982 3503 0
827 233 -2465 0
2240 -420 -3433 0
-1497 -3207 1442 0
3802 -3673 1850 0
-2101 4205 146 0
-3680 271 3157 0
-4818 -4620 3650 0
-1598 -4407 -1821 0
-4320 1996 458 0
-1282 -4760 590 0
-4685 -380 -2688 0
-2340 -2784 -4248 0
-3469 3917 412 0
278 -1292 2270 0
3943 -1781 1033 0
-4430 1924 -1260 0
1314 907 1786 0
4357 3246 617 0
-3372 -786 543 0
-3158 -2319 -1830 0
1429 -3010 -4810 0
2173 -303 3282 0
93 1122 -3612 0
3937 4631 -3924 0
-51 2107 1834 0
-3662 -2226 -4381 0
2714 -4501 2366 0
4653 4598 1269 0
1685 -4933 -1533 0
3949 -1352 3976 0
2666 -173 -3412 0
-3421 -1104 -1148 0
4566 4685 2427 0
983 -4359 1337 0
1826 973 -3731 0
3428 4063 -4989 0
-2317 -2882 1627 0
-4831 4745 -3341 0
-1258 4234 -389 0
3839 1565 4703 0
338 1669 664 0
-3211 -1635 108 0
-1871 -382 -2330 0
-3746 3399 4506 0
4459 4423 -4818 0
-3466 1435 250 0
-354 -323 -3382 0
2408 -1074 501 0
-1529 -3021 3515 0
9 3289 -4055 0
-1117 -4993 2367 0
-3665 143 4555 0
-3817 -1618 -2519 0
1478 755 -4580 0
-1494 2564 172 0
-452 4687 -3932 0
-3753 4680 -729 0
333 1571 -4771 0
2315 -2999 2965 0
3888 651 -4276 0
-2955 -4734 230 0
3175 527 -1077 0
4035 689 -312 0
2398 1397 2968 0
1577 1357 -4044 0
-5 -1050 -394 0
4972 4424 3143 0
-1115 198 -3573 0
-3485 -777 -2230 0
50 2421 2777 0
2284 -2651 1645 0
-1092 3364 -1213 0
-3574 -4705 1453 0
2115 -3110 4611 0
4781 3925 487 0
-4761 -4223 -4535 0
1889 -1485 -1436 0
-4820 989 2402 0
4614 -1275 3252 0
2811 -3224 -1705 0
4624 4844 -396 0
-4806 3763 4938 0
2038 -2164 2206 0
-1431 747 4135 0
-516 -41 -983 0
-1949 1572 2700 0
3138 1792 1727 0
-653 -4957 -2204 0
-1390 2460 349 0
-3034 239 4800 0
-2068 1572 114 0
-1503 328 3494 0
-887 147 -3874 0
-1125 -3933 4881 0
2444 -4462 -1598 0
-3908 -4641 -1588 0
-595 -3487 -1085 0
4972 736 -144 0
-4220 2901 -2193 0
-532 1714 4972 0
981 -1516 1973 0
1684 -198 -3171 0
3527 1233 -4349 0
3022 533 174 0
-3615 1709 4979 0
-2892 -2529 -1201 0
2740 -4548 3728 0
-2121 -938 3126 0
4194 -498 963 0
2001 3851 -3373 0
-517 -2133 2219 0
-3929 4440 4575 0
4551 -504 -168 0
1752 4176 1821 0
3611 -1439 4544 0
-2188 -123 889 0
-859 2932 3950 0
-4831 -4079 2614 0
-1106 3518 -1203 0
4957 -3795 412 0
2320 85 3571 0
2009 -2595 1134 0
-1678 -3920 -1183 0
-1752 721 1739 0
1568 1017 -4121 0
-1070 161 -4444 0
1644 -176 811 0
2347 -2232 3436 0
3588 4032 940 0
-379 1231 -808 0
4985 1665 -2835 0
4940 2364 3364 0
-3669 1241 -3247 0
698 3517 186 0
-3172 -3335 -3115 0
1931 30 -2161 0
-1556 3538 4274 0
1621 529 2580 0
2661 4199 4627 0
3931 -1489 4392 0
-1786 1643 1580 0
-1083 -51 -1606 0
3399 -4920 4504 0
-1863 1226 154 0
4463 4168 1330 0
125 -1841 1472 0
31 606 366 0
403 966 -2198 0
-1136 -2728 -4628 0
1829 -1087 983 0
4508 -407 -3175 0
3806 -1680 -1970 0
-2425 -4623 4769 0
3749 4651 -1857 0
-2226 663 -721 0
-500 -994 1129 0
-3859 -567 -2539 0
1664 3325 3268 0
-3116 -216 2334 0
-3285 -4803 -1336 0
3436 428 579 0
2376 -4902 -139 0
3117 1001 4228 0
3462 -2836 1693 0
197 -4172 4028 0
-3322 4934 -1125 0
4944 2921 -2474 0
-4543 3918 3152 0
2968 -3989 2989 0
-2035 364 1239 0
2653 -2910 -4443 0
1122 -2093 -2617 0
-4741 3601 -4144 0
3390 3155 1560 0
1157 3546 -4176 0
233 2535 -3828 0
4482 -560 2752 0
-1093 -1420 -2216 0
-754 4242 3381 0
-664 2929 1624 0
-1857 4214 -2641 0
-1525 2807 4904 0
-4332 363 -3091 0
1258 -3994 -3374 0
-3116 -3665 2596 0
-630 4461 -829 0
4077 -3910 1840 0
-1919 3497 -2325 0
453 1623 178 0
456 908 -3267 0
2853 -4416 -1630 0
4444 -4556 -843 0
-2306 -4606 2486 0
3156 -3955 3870 0
-1317 2390 -2630 0
4631 2459 -2784 0
301 -4941 666 0
2347 -138 -895 0
-2704 -804 4459 0
-804 3371 -3172 0
4402 3276 -3642 0
3083 3750 -2955 0
-104 584 -1210 0
3925 -2622 -1605 0
302 -2707 434 0
-189 -3331 -40 0
-1708 -1007 3682 0
-3983 2283 -4629 0
736 -2432 -1867 0
1444 3652 634 0
2392 619 -3329 0
-3420 744 -1530 0
404 -762 -1901 0
-4292 1079 4177 0
-2483 2828 1759 0
2914 -1263 -419 0
-3526 953 -3423 0
4290 -4722 -2709 0
4394 -1506 3095 0
-4732 1752 -1669 0
-4534 1779 -3255 0
2094 988 -3807 0
3129 713 1137 0
827 -3997 1355 0
840 1429 4093 0
-173 -484 -4276 0
-4943 2456 -4337 0
-2506 -2460 -3237 0
4645 -10 -2768 0
4619 1840 -243 0
3093 263 2213 0
-597 -2759 -4840 0
-4951 -3690 -4458 0
4185 -353 -3985 0
2710 -1187 -2802 0
2785 4022 -1235 0
944 4695 -1610 0
-4474 -3776 -2751 0
2922 4770 -1860 0
-2619 -4378 -1330 0
-4142 759 3617 0
-4101 2880 -3717 0
-1594 -99 565 0
2946 4459 4471 0
-175 1254 -3463 0
-1626 2928 2799 0
3468 4408 -3141 0
4972 2653 149 0
-4355 4887 3596 0
2526 2551 -2845 0
4788 3250 4244 0
2824 -1672 -2186 0
-4431 -2367 -3894 0
3821 3358 -426 0
3421 -3660 3961 0
-1852 4413 2318 0
-635 852 384 0
-959 -388 2108 0
-1733 3806 -3429 0
-1052 -4548 -3120 0
-1744 -4467 -2976 0
3097 2626 1661 0
-2429 -76 -1413 0
2452 1736 -1591 0
795 -4630 628 0
4825 2830 481 0
1162 -740 2084 0
4750 1805 2438 0
4335 1122 -4706 0
-4031 4795 754 0
4618 3469 -1333 0
-2573 -203 -237 0
-3242 676 863 0
-3242 -479 4759 0
3622 4158 -1927 0
-2587 -362 -2008 0
-3416 -4106 3942 0
-1028 3787 4738 0
-1138 -2274 -1914 0
691 -3743 4147 0
1683 -2742 1787 0
-893 1350 947 0
-242 -3644 1833 0
-2766 -2834 3015 0
-2709 98 4283 0
-611 -128 -82 0
-715 -3726 2240 0
1110 -3627 2382 0
-3490 3961 1213 0
-3100 -307 919 0
2619 4123 1813 0
3684 -2887 3779 0
53 -3221 542 0
-2938 -3345 2826 0
3786 225 -1087 0
-2701 1317 1853 0
1975 3629 -1945 0
-4010 -1812 -3263 0
-3161 4898 -3889 0
-4804 -3075 2890 0
3235 -4942 -1721 0
-4712 -799 1085 0
317 3816 -301 0
935 3364 493 0
-2186 156 4127 0
-1365 -4606 1848 0
3076 1126 -2396 0
-998 -3618 -288 0
-508 -4178 730 0
-4724 -1991 3526 0
3919 -1384 -3048 0
751 2515 -4086 0
-2896 -2707 -1731 0
-2757 -3215 878 0
-2185 3273 2645 0
-3680 1231 4962 0
-3159 -2813 -3098 0
534 4994 -1896 0
2457 -3241 477 0
-215 -3772 1988 0
4455 -3855 -2226 0
4499 1527 -1466 0
-1648 4175 -804 0
-3947 4303 -2241 0
-2728 4130 -2797 0
-1586 -1802 -4690 0
-448 3990 -3286 0
2915 -4613 -1092 0
-1632 -2440 -4722 0
4522 -1164 880 0
2945 -3384 724 0
1866 414 -66 0
-3607 -3592 4509 0
-1197 -4798 -2180 0
3998 4705 -611 0
654 -1215 3134 0
-4999 1415 3498 0
1475 -2117 -1810 0
-4582 -3365 4426 0
4878 241 3264 0
1237 -1201 -766 0
-910 1885 -382 0
2402 518 -1458 0
920 3776 -3492 0
-2881 -3098 -4180 0
4102 2283 -344 0
2131 -1367 1639 0
-1084 -512 -4524 0
4652 2135 2233 0
4314 4061 3840 0
507 2337 -4334 0
2032 370 1286 0
-2077 -3148 -724 0
1009 1140 -4622 0
-3343 3198 3255 0
3710 4387 3415 0
3553 710 -1617 0
3458 1851 -242 0
148 479 -4536 0
-3101 374 -2831 0
1355 1133 666 0
4809 -812 -3425 0
4724 3167 2781 0
-2861 -4975 4148 0
4945 3428 2272 0
1809 4651 4487 0
-1222 -1345 4493 0
3768 2904 1493 0
2921 -1007 -564 0
1592 -4322 -4947 0
3933 -4746 -3447 0
-4856 -1872 -2002 0
-4258 -4800 4688 0
3721 3876 -1917 0
-34 -2255 2710 0
-4295 -3476 926 0
-3354 1525 -677 0
-3384 -3566 -4585 0
-689 590 -4529 0
-3067 4738 252 0
-69 4676 -765 0
-4851 2285 4491 0
4797 -157 2220 0
4123 4290 -686 0
-259 3969 -1808 0
-4907 -235 4352 0
-4723 805 1951 0
821 1657 -1104 0
687 2632 1183 0
577 4243 1803 0
-496 -3174 -1671 0
-1286 2283 -4612 0
1037 2134 1244 0
3085 4602 2458 0
2982 4748 -114 0
-2586 2547 -1936 0
-3783 -3706 3884 0
-766 -1696 2579 0
3916 -4977 4458 0
-686 3929 -2648 0
2411 -2853 -1724 0
-2976 4770 -2577 0
4040 -3398 1413 0
-66 -4473 4845 0
4066 2944 1083 0
-4845 153 -3215 0
1735 2450 -4453 0
-1804 -2210 -1945 0
2668 2491 -176 0
-751 -3900 2853 0
-1674 1748 4618 0
-2471 2587 1491 0
3657 3024 -4169 0
4850 -1951 -2509 0
1005 2550 -2866 0
-4832 4660 -785 0
-4221 -1790 -4808 0
1790 -4830 -4246 0
4024 -1073 -4676 0
-2727 -1498 -2401 0
2539 -4729 3474 0
1464 2143 -281 0
436 4137 2535 0
3950 4649 -4955 0
462 -3930 4631 0
1955 -2261 -3919 0
2870 -2473 -537 0
-3056 3096 -3587 0
3430 3104 -4107 0
-3389 3220 4407 0
-3014 4107 2868 0
2787 -2379 -2218 0
-4537 -2511 -4553 0
-4286 4571 -3749 0
-3370 -2857 3222 0
3904 -2753 -2700 0
2188 460 -4016 0
4964 -617 -4967 0
-4444 3562 470 0
-661 -992 1858 0
4669 -673 -1605 0
1598 2875 3110 0
-2129 1731 -1057 0
-1947 1302 994 0
677 -4058 3069 0
-1377 4880 643 0
1958 -553 1299 0
1199 -2996 -3804 0
4845 -1919 3092 0
-3202 -2497 -4743 0
745 4435 -1342 0
652 -789 3913 0
2652 1321 -1752 0
-2978 1978 -718 0
1807 1668 -2740 0
4149 -2405 1167 0
-4594 3817 -4626 0
-2536 2674 -3572 0
3253 1565 -1226 0
1919 2024 2388 0
798 3551 4656 0
-1754 -2337 939 0
-4841 -34 1129 0
2444 2602 -3501 0
-336 -3482 3798 0
3177 3042 -2731 0
4293 -4734 -1436 0
4971 -1118 -2684 0
1819 2068 -3266 0
-2907 4895 -4862 0
-2955 36 424 0
4006 1028 240 0
995 4526 3768 0
882 195 2250 0
1044 3968 -796 0
-4790 -2913 598 0
-4359 -15 1708 0
2156 -2579 4106 0
4720 834 -1895 0
-3485 1297 4822 0
4058 -1328 495 0
3235 -3879 -1412 0
-11 -1308 1566 0
-3274 -2706 397 0
1520 -2893 1112 0
3769 3753 -1110 0
2306 1224 -1977 0
-3329 -3066 1209 0
3664 -3765 1596 0
-901 2474 2821 0
1004 -2766 4674 0
-639 164 -4009 0
-3526 -4130 3821 0
1 -1511 1974 0
-4570 -3779 1047 0
-2962 3347 741 0
-2393 8 3155 0
-1790 -3374 -2571 0
-1605 -4279 3980 0
-947 -1885 723 0
1687 -3647 628 0
143 3788 1992 0
23 -925 -373 0
1315 463 -813 0
-4603 -4012 1121 0
1009 -1287 -4145 0
-941 -3195 -810 0
3443 -315 2256 0
66 720 -1702 0
3378 -2437 2369 0
3689 1431 1873 0
3130 -2935 2323 0
1044 -2392 4790 0
-1503 308 -4035 0
1037 610 991 0
4020 4414 -2872 0
-603 111 251 0
4097 -3328 -2960 0
4745 4242 -1579 0
-4297 2159 4687 0
3343 -650 3275 0
-606 -1768 -1019 0
-72 -270 4423 0
1674 -3179 -785 0
-2112 -794 -806 0
-2101 -1526 446 0
-2823 4936 -1851 0
-3004 2471 3707 0
2592 -785 -4027 0
1474 -2896 -4758 0
-3611 2113 -3187 0
-4312 -1793 2912 0
-4393 -2392 2244 0
-449 4185 2543 0
-4304 260 4109 0
-3665 -860 4777 0
4782 1827 1927 0
-790 -454 -4235 0
-4908 3034 -441 0
3591 3168 -1105 0
4146 -61 1227 0
1777 -1408 -4021 0
3518 -4583 -179 0
-417 -3303 -3209 0
1913 -2585 34 0
-1253 -451 2657 0
782 -3414 1591 0
-2619 -4453 4912 0
-1937 -4902 -1986 0
-3569 1909 4927 0
-1359 2421 210 0
722 -147 1967 0
2219 -115 420 0
452 4836 765 0
-2610 -377 4750 0
1383 -58 4455 0
2851 -4234 -1389 0
803 -4654 -688 0
-2360 4674 -2575 0
-4617 32 -1900 0
435 -4671 4764 0
-4183 -693 1165 0
1711 -889 2289 0
-3446 1897 2366 0
-3322 -1521 4151 0
-3695 -3979 -3986 0
-3421 -4277 -1200 0
-1923 3034 -2710 0
4438 3417 2700 0
-2797 1557 -2205 0
2232 4654 -675 0
-1537 1602 -4994 0
3459 -1340 4142 0
48 3941 -2029 0
2564 -1008 4753 0
2558 -366 2709 0
4804 -4766 882 0
1653 -4150 -3276 0
-1111 3956 3864 0
2561 1010 2007 0
4767 4652 -400 0
-4999 -4984 -1331 0
-819 824 -4670 0
4009 -2454 816 0
3082 2977 384 0
-780 -4327 -1654 0
900 -583 736 0
-831 -1957 -1592 0
-2768 -3366 3738 0
4037 835 -120 0
4065 -3021 -2437 0
-860 3362 522 0
-2188 -2045 -4100 0
-1683 4299 4361 0
-4460 3874 4115 0
1950 1081 -50 0
-1999 4830 4673 0
-2171 1877 2443 0
-664 2773 -4855 0
3469 -1103 3873 0
2726 -4670 4660 0
-4981 943 3108 0
-4381 3433 2033 0
-636 2913 4463 0
-1232 -1234 4898 0
-3201 -2166 4552 0
-3423 4035 3843 0
4270 -401 4321 0
-1197 -1613 -3295 0
2269 -3416 4998 0
-1164 333 229 0
-4070 -3761 2120 0
2293 2801 451 0
3564 1445 1988 0
2293 3586 1543 0
-3512 -2457 -2818 0
-2360 2719 939 0
3238 -3547 -342 0
-4180 -608 -2773 0
-2251 -568 -1869 0
1719 -3693 -1102 0
-925 -1655 3787 0
-294 -3586 -3840 0
-4345 -3201 -3189 0
-3785 -221 880 0
-2223 137 4584 0
-2785 -2533 1152 0
4724 -230 359 0
2560 3064 4529 0
-3011 4473 41 0
616 428 2307 0
-2145 -846 772 0
1407 -3292 3105 0
-772 -2520 -4659 0
3876 -3092 363 0
-872 -223 -4097 0
3358 3117 845 0
-3349 -4666 -1355 0
-3623 -2618 1324 0
698 -63 -2505 0
4039 2771 -384 0
-2819 2278 2552 0
-1467 -3914 4915 0
2960 1136 -713 0
-95 2376 -3622 0
1915 -3935 -4973 0
-3653 2849 -4348 0
-4347 858 -1334 0
-1619 -1662 2736 0
-580 2061 2575 0
-4334 -4368 4486 0
3635 4819 -3948 0
-1653 -3698 530 0
4502 -3479 -691 0
-1020 -1777 461 0
-4026 4476 -2665 0
1667 -2469 522 0
-3229 1475 -50 0
-1744 2738 -4497 0
4266 670 -2842 0
146 1472 -4980 0
4146 -389 2041 0
-1799 -4475 -1823 0
-4364 87 -4912 0
-3692 -360 1775 0
873 2538 2789 0
2607 1849 -3654 0
3690 2487 -2846 0
44 -586 2075 0
1984 2667 1836 0
276 2967 -153 0
-3448 3774 -1578 0
3481 3396 4593 0
-2561 4889 -3382 0
264 -2670 -4236 0
2550 -2704 1896 0
1634 168 -3658 0
-4117 2546 -4994 0
-3297 1762 434 0
69 -4556 -2954 0
-796 -4083 1503 0
1419 2163 -757 0
-1555 2157 -2317 0
2055 -4703 -1445 0
2739 -4822 614 0
-4695 -3327 1058 0
701 -1880 -2571 0
-3204 -2632 -885 0
2186 -839 2265 0
1981 -3075 2443 0
2980 368 4893 0
-1754 -1255 2396 0
-1896 -2248 2786 0
-1324 -3406 -2911 0
-3992 -3232 -3392 0
484 3548 1766 0
-2244 -2477 34 0
-4342 -4870 4946 0
-593 -1794 3459 0
1117 -4777 -2400 0
-316 -3851 1971 0
-3190 2957 4742 0
-922 2171 -3198 0
1850 -2809 -3994 0
-4470 -238 4568 0
2345 2955 1426 0
-2715 -536 -3541 0
2555 1304 4150 0
3247 -3937 -3718 0
-3248 -654 4987 0
4590 4060 -881 0
-3385 -4732 -3588 0
-1839 4933 -3518 0
-4853 -4857 2976 0
-4113 -44 1547 0
1140 2586 -605 0
-2913 4722 4825 0
-760 -2341 3725 0
-2143 -2253 2751 0
4501 2683 -4965 0
-4024 115 1280 0
-2768 2054 1761 0
-1453 621 68 0
1816 2514 -2573 0
3108 3745 -2843 0
-4303 3598 -739 0
3549 2852 -1234 0
-1700 3681 1998 0
-3005 4177 -1658 0
-2737 -1918 -4482 0
3786 4877 -1387 0
2132 4540 -4343 0
-4520 -4331 -2851 0
4163 -1108 3595 0
-754 -1996 1673 0
405 1911 4671 0
3279 -4739 -465 0
2498 3179 -799 0
994 -1598 -877 0
-4247 1138 2805 0
4217 -2442 2749 0
1465 2978 2065 0
174 -1596 3736 0
-421 282 3678 0
4085 3317 347 0
-247 -3255 -3351 0
-2853 722 -3734 0
-4098 -1452 2510 0
-4698 3576 3053 0
-3072 -2950 11 0
467 4507 -1080 0
2473 4859 -1417 0
-621 3950 324 0
-4083 -1213 -4910 0
-4913 -4103 -2653 0
3064 3960 1815 0
-1460 3899 2531 0
-2457 -4681 1656 0
4227 -552 -2026 0
-4373 1255 1365 0
-4664 -3728 4143 0
4064 2645 4125 0
-3574 4351 720 0
-2562 977 577 0
-3232 3405 2565 0
-4096 -410 4304 0
199 402 4108 0
-342 -3975 1218 0
-2542 4802 -667 0
157 -4783 673 0
-266 -556 2711 0
931 -976 3486 0
4445 -2082 3427 0
-1942 2489 -391 0
154 1559 -4499 0
4083 4339 4502 0
-1530 3485 -230 0
2478 -1024 -839 0
-2771 99 -3926 0
-3111 4895 3367 0
-3277 -2795 -2227 0
-1384 -3500 -2242 0
2981 1496 -1837 0
1664 -2821 4027 0
-2907 3115 -2824 0
614 -939 601 0
3396 -2695 876 0
4494 -2736 -3813 0
-1689 -2728 -1290 0
-337 1762 4619 0
1597 -4408 -811 0
-3136 -824 -3329 0
-3415 -1675 -3061 0
3182 -4565 -2105 0
3076 1782 1100 0
4152 424 695 0
-1071 2130 -1269 0
-1282 -3709 -2058 0
237 3545 -2893 0
1268 -4665 -1867 0
-2853 1287 -1984 0
3232 4382 -429 0
-3966 2511 4206 0
-515 1291 1192 0
3443 1392 -3137 0
-4826 866 4880 0
3681 2434 -4935 0
4446 -3712 -938 0
1463 -786 1448 0
1320 -3429 651 0
4607 -4579 229 0
4892 3417 2245 0
-1155 492 -2006 0
-547 2290 -1350 0
-2432 31 4761 0
644 2083 -2078 0
3258 3102 3780 0
2209 -3397 -4430 0
-1318 1308 562 0
3298 4111 2915 0
1409 2159 3298 0
2822 2656 2587 0
-1696 3132 2654 0
-425 1427 -4436 0
412 -2470 941 0
-1480 3061 2117 0
-3575 2997 -820 0
3936 1929 -4592 0
-968 2848 -3456 0
3854 1933 105 0
-3526 -957 1164 0
2638 -1509 1314 0
-3538 -964 -852 0
4499 -1651 -4272 0
-435 -440 3895 0
-3071 4782 -2887 0
4403 -3951 -52 0
-759 4899 3026 0
3087 3317 4461 0
2781 3027 -2826 0
-2992 3285 -4315 0
3040 -2215 -4314 0
-613 3772 -3653 0
4966 -4665 762 0
-2325 3531 -1830 0
-2317 -3945 -1207 0
-2355 827 -2938 0
2977 4223 -4618 0
4270 907 3046 0
-182 533 -1372 0
-890 2345 -1348 0
-2170 -2345 -1424 0
-2902 275 -869 0
1791 -3153 -1578 0
-4936 -3753 915 0
-457 4667 1787 0
1104 -4168 2222 0
-3649 -428 -3266 0
1696 -2420 1098 0
610 3008 -518 0
-1657 -1777 -2667 0
-168 2748 -4973 0
3845 3605 -707 0
193 4102 -2860 0
-1774 -457 2555 0
3785 -4132 569 0
1570 4238 -1830 0
4311 -671 1738 0
-4094 4216 -1016 0
-2642 -374 -1522 0
-3057 -3970 1735 0
3098 -3822 -1307 0
3094 -1438 1383 0
1917 -1328 -4347 0
-3626 -1159 3770 0
-3381 -2240 -1568 0
4639 1605 2992 0
3094 2153 4195 0
-746 2085 -297 0
-918 2854 1194 0
3369 -29 3828 0
-1405 469 -4230 0
1979 4661 4932 0
-712 -843 -1081 0
-4057 4652 -1343 0
-4450 -3657 -1844 0
4586 4987 -1650 0
348 1008 -2487 0
-3466 -4881 3358 0
4136 509 1175 0
-1889 4517 -2485 0
4273 724 -4208 0
-4303 3997 -4971 0
3740 -3574 78 0
-1364 -3103 4744 0
585 4595 -787 0
-3484 -4500 -2301 0
-4313 1622 -1200 0
3815 -2432 1267 0
-4755 -1199 -2694 0
-2547 1890 1973 0
1449 -1232 2756 0
3735 854 1772 0
-3754 3969 2052 0
2842 4400 1513 0
-1056 1735 -344 0
1545 3394 -2859 0
3550 -3415 -3836 0
-1287 -3225 3867 0
-7 -1884 920 0
-4362 -1999 -4316 0
4366 -1008 3908 0
-1450 -2454 -1565 0
-959 -3856 -4623 0
4944 -794 -3695 0
741 3842 183 0
-2351 4046 -836 0
3951 -1449 -3709 0
-164 -3378 3035 0
852 1622 -2541 0
3750 -3291 -2673 0
2759 344 -4495 0
972 582 507 0
865 4079 1255 0
-2665 81 1023 0
-348 1955 4091 0
517 3181 1840 0
-3022 4327 629 0
-3256 1500 4455 0
-199 -1674 1395 0
2964 -1614 -2492 0
3048 771 3508 0
-2274 -96 -4468 0
63 -1505 3886 0
1849 -766 158 0
-3806 3255 4222 0
3283 -2875 4156 0
1444 1630 -2161 0
4943 4329 3708 0
1462 -3262 -2013 0
3032 -2622 638 0
244 -2363 -194 0
433 4055 -1220 0
-2854 -97 193 0
3502 3386 2578 0
-3171 -1435 -4467 0
-3777 4805 -3906 0
2793 3000 -204 0
-2405 2344 -1342 0
3533 -4389 3826 0
-2714 1356 -1543 0
-18 -3376 -4960 0
3862 -2569 -82 0
3120 1151 984 0
-4792 2419 4144 0
1999 388 669 0
-2491 -2199 1631 0
-479 2611 -236 0
-4894 -2718 2074 0
-2539 2208 -4719 0
-2129 -870 -2294 0
4912 -1530 3715 0
-3338 -4107 -1486 0
4751 -3963 -520 0
-1680 -4825 -1827 0
-4110 4114 4925 0
-3386 3304 -4840 0
4612 1786 -759 0
3560 3118 61 0
-4198 4135 -405 0
-1601 4885 2920 0
3306 4416 736 0
-460 1245 -501 0
-2399 1889 -3503 0
-4360 750 -754 0
682 1012 132 0
4907 -400 -3072 0
-1811 -3956 1105 0
-1742 -1657 -2533 0
-2121 1917 -3806 0
-3691 -4651 4624 0
-3370 1941 1168 0
-3656 4450 1604 0
-4085 517 -1649 0
4984 3710 -620 0
3450 -2961 2341 0
922 -652 81 0
4207 2741 2150 0
-3253 -2958 4120 0
879 28 3832 0
-4071 415 -2274 0
784 -945 -3953 0
-4015 3777 4012 0
3853 -1176 -240 0
4720 -2432 -4617 0
1269 -954 -4895 0
-2042 4872 -4947 0
-3945 1160 1455 0
4884 338 664 0
1661 4070 610 0
-3153 2026 2266 0
-1801 -787 2356 0
3102 3363 3579 0
1993 1569 -3182 0
4048 331 3574 0
74 3895 -2275 0
1535 56 4801 0
213 2506 -2768 0
-877 4479 -4947 0
-2119 -789 -1903 0
2722 2632 -3292 0
3056 2915 -3977 0
-420 3718 -3208 0
1036 -1877 -4064 0
-3743 -2282 -4109 0
3776 3229 618 0
483 427 -3916 0
4320 4203 -2064 0
-4492 -3103 -4540 0
2914 4490 3420 0
2080 3855 1086 0
2133 3665 917 0
-4791 -217 -271 0
-4246 -2181 -3238 0
-1686 794 3153 0
-386 4992 1953 0
2769 -3964 -1491 0
3898 4611 2336 0
1614 1219 202 0
-2297 2961 2900 0
-2122 -2045 4271 0
1038 -1919 2831 0
2062 1881 -1921 0
-4293 -2289 -4790 0
1005 1682 4972 0
-2743 -2656 1172 0
4473 2216 -2743 0
3269 4631 3181 0
4274 -3900 2830 0
-4073 1149 -1028 0
-4344 3177 -2917 0
-3452 1209 -2252 0
-2567 1869 -4130 0
3907 3329 4462 0
-3228 -4395 -3147 0
1415 -698 -248 0
-3805 -2036 -1628 0
2734 2627 -2094 0
-4038 -4153 2996 0
1787 -8 -1206 0
-4427 -605 248 0
-2522 -3045 4768 0
-3617 -2569 4820 0
-1534 -5000 -3613 0
4742 -1026 -3121 0
1335 -435 -3130 0
1122 2151 3219 0
-2158 3972 -2319 0
1707 -4929 2424 0
2214 990 4393 0
-991 1836 -1006 0
-2174 -1009 -874 0
1009 3533 1093 0
-1450 670 -94 0
2147 -2202 3896 0
1803 -3868 64 0
-3671 381 815 0
-4061 -3602 -1463 0
-2383 137 -1271 0
3385 -2125 -1746 0
-3938 4797 -3900 0
160 587 3588 0
-1627 1077 10 0
-109 2399 99 0
-2790 -329 -669 0
-1964 974 -3719 0
-4763 -2205 -2249 0
3383 -974 81 0
-685 -1592 1549 0
603 4565 -3623 0
613 2429 -1511 0
-2078 1476 -647 0
-602 -4568 2392 0
-163 -919 3390 0
2142 460 -1388 0
2765 1756 -4806 0
-134 4804 -272 0
-2545 -3028 2474 0
-1714 -1011 2373 0
4936 577 -4360 0
-1698 -4872 -424 0
1435 -356 -4510 0
-2445 3933 -3580 0
3458 -2900 -301 0
2377 -1346 -4825 0
3335 572 -4690 0
-4578 -4115 4061 0
3 3548 -4158 0
-3573 3357 3576 0
2061 1914 2986 0
4480 -1337 1500 0
2500 -953 1703 0
-1492 3789 -2166 0
-197 -2142 -4695 0
4600 -514 -2657 0
-299 3394 -4197 0
-344 -4274 1714 0
4442 625 -1725 0
-582 1670 -4443 0
1345 -597 -4348 0
-563 -3036 4621 0
1106 -978 -3863 0
2348 596 1950 0
932 -2990 2520 0
3800 -4777 2079 0
643 -2753 -3964 0
-3182 -413 -2046 0
4823 3623 903 0
2506 3679 2414 0
912 917 659 0
3186 -642 -1600 0
-3434 4985 2246 0
1592 -3478 -3370 0
4218 2439 4623 0
3299 -1588 -3901 0
939 3697 -538 0
-46 308 3174 0
1070 1872 -2602 0
3145 1218 -111 0
1390 -2753 -899 0
-4567 1680 1458 0
-1050 4857 -3358 0
-4466 1237 1278 0
-314 -1924 -4623 0
-4095 2444 -3429 0
2584 -929 -2308 0
1893 1561 2064 0
-3814 -3154 4426 0
3499 3702 -542 0
3850 -4485 3379 0
3982 4748 -3014 0
-4783 -104 222 0
-1237 521 4452 0
-4633 1058 -3818 0
2054 1191 3346 0
668 4806 1535 0
-4463 3663 -1064 0
4522 697 -4415 0
674 3424 3656 0
-4699 2955 2538 0
-1791 2656 85 0
2103 843 -3208 0
1179 -3237 -4495 0
-4437 -1532 -277 0
4717 4280 2800 0
-63 -1276 -3456 0
218 -2204 -2402 0
1364 2352 -4572 0
-4947 -1482 2320 0
474 4373 -467 0
-2309 4256 -137 0
1808 -946 -1729 0
2661 1259 -4385 0
2559 -2622 3135 0
-2681 1963 -2046 0
-4916 -1276 3970 0
4291 -4810 4099 0
86 -3976 -4422 0
3643 1038 734 0
-4000 3905 -4395 0
-1952 -3253 3866 0
439 -1289 -4068 0
4002 4353 309 0
646 -3976 4589 0
-2067 715 -4046 0
238 2567 -3478 0
-692 4508 3758 0
-4376 433 634 0
2426 -2847 4992 0
370 -1695 1336 0
-4889 -2048 2066 0
-1176 1082 -1316 0
1877 -1998 192 0
-2596 -1652 -3648 0
-522 -3257 354 0
2198 -3393 -1439 0
262 529 -2120 0
-626 -3646 4337 0
-237 -265 1311 0
2922 -1387 3178 0
3104 1294 -3943 0
-211 1260 -1001 0
-18 2622 1671 0
3705 -4909 -392 0
4506 -4027 -4536 0
4526 4429 3403 0
371 2145 3480 0
-39 2585 1073 0
-661 3210 2657 0
-1110 -3245 2879 0
-3239 399 1318 0
1059 2806 3655 0
2455 -464 -3351 0
4971 1119 -1215 0
534 4960 1383 0
227 -2626 2493 0
-4079 -3003 3433 0
4753 3770 -2251 0
-1377 1472 2746 0
2245 -4547 4988 0
2373 -2136 4480 0
480 -3651 189 0
-4118 -2044 1043 0
-2727 -180 -2652 0
205 2269 -3504 0
4577 -1370 -1541 0
-4651 2080 -4133 0
1251 -2131 4128 0
-4724 3827 -4715 0
-4386 -4375 641 0
-1575 -1835 -2801 0
-1674 -4220 -4615 0
-1820 2951 737 0
3815 2721 -3093 0
1210 3511 -1916 0
633 -2603 -5000 0
1386 458 580 0
-731 3506 3581 0
-1897 1011 -2399 0
-486 -4623 2419 0
2763 -3257 -2220 0
3865 3920 -2910 0
3047 3471 2553 0
-1686 -4995 896 0
2120 -4480 3694 0
-1139 4593 1781 0
-2562 -872 -3334 0
-3990 -3029 -1059 0
4719 1239 1349 0
1666 -507 639 0
2203 -51 2728 0
3468 -149 3266 0
4277 3925 289 0
-4593 2362 392 0
-4943 3730 649 0
3309 -4358 2659 0
-1197 -2110 -812 0
3659 2680 -1187 0
1806 4052 1189 0
-3349 3982 4841 0
2688 -1457 3406 0
-857 -3299 -4163 0
-2859 4259 4568 0
2941 -3120 3745 0
988 -758 1395 0
4966 -3372 2982 0
1364 549 -1871 0
-1415 2640 139 0
-246 -3789 -2272 0
-3843 1077 851 0
2484 -4161 2218 0
-4846 1856 4962 0
-466 -2620 1102 0
502 -2492 -4717 0
-2310 -4200 1928 0
3931 243 -159 0
2067 4787 -1377 0
2060 4523 -1708 0
-3846 -4017 -949 0
-3424 -2077 -701 0
526 3226 2341 0
-910 -3048 592 0
-1161 2990 -3068 0
3434 2493 -1752 0
-4133 -1726 -4222 0
-2936 -90 -383 0
1415 2567 -2875 0
-2553 4894 -4885 0
747 -4607 -2765 0
-4888 3607 1460 0
133 1475 3394 0
-1319 1528 -775 0
-3753 -3013 4936 0
-757 -420 -2655 0
-1679 1276 -2205 0
-2748 910 2675 0
-1718 -3831 4380 0
-2741 -118 3088 0
705 2725 3061 0
56 -3953 2626 0
-3169 1104 4559 0
-1070 4883 3124 0
-3414 -2213 -1120 0
-177 2062 3182 0
453 -2461 -2116 0
4209 4598 -484 0
-2411 2565 2632 0
3713 -4334 -1692 0
-2270 -733 -4870 0
-2143 -232 4882 0
4303 -2079 -385 0
-2730 1921 -2484 0
-3286 -712 1527 0
3874 4802 2856 0
-3893 1555 -847 0
-4195 4308 -344 0
324 -4076 -4072 0
1731 1563 -3909 0
-4289 -913 4171 0
-4689 2136 778 0
2782 3233 -1692 0
1833 -1168 3176 0
1361 2389 1455 0
2440 -4657 -1954 0
-3596 -1358 453 0
2310 -3084 1110 0
3890 4437 4617 0
-4498 -4300 1741 0
4135 1155 -1175 0
1702 2812 1176 0
262 1040 -1098 0
-3769 -93 1537 0
-2237 -1058 1819 0
-3672 -3721 492 0
4030 -3263 -1222 0
-4073 1650 2436 0
-4280 -4465 -3152 0
-630 1106 1209 0
-427 1914 -2303 0
2294 871 -300 0
2410 -4833 -4823 0
-2504 -3610 -1418 0
2217 -630 -589 0
-101 -2010 390 0
989 -1139 -2729 0
4190 -1651 4711 0
4610 -1457 -2265 0
475 1007 -2080 0
-4434 4889 3197 0
-2922 -1941 -273 0
3795 -2587 1907 0
4877 -253 -101 0
2587 -4209 455 0
-3161 3737 -1725 0
-562 -2920 -3754 0
-3482 -1278 -1463 0
2273 -2250 -1233 0
2693 -4773 -4139 0
-3188 1559 -892 0
-4655 3478 4684 0
-4588 2496 -1922 0
-3239 1849 -4510 0
3884 58 3294 0
-2876 1846 826 0
-4442 4896 4612 0
-4915 3726 -16 0
-2351 2633 -760 0
-3136 -2266 906 0
-1192 -4619 -2747 0
-2112 -504 3237 0
-2063 3074 52 0
3015 1291 1115 0
3340 2301 2420 0
-2899 4541 -3082 0
1851 -3010 4983 0
-1849 -790 2004 0
-2640 -3009 -4357 0
4742 -3447 777 0
3946 3484 -297 0
-4814 2209 -2883 0
2136 -698 -3475 0
3075 -4388 2469 0
224 4829 1016 0
-4927 2979 932 0
-3954 -173 1223 0
-1600 2402 -2791 0
-416 -3189 1440 0
-4401 3550 4944 0
-953 -3041 4510 0
-4534 -2058 1019 0
-1106 -4467 -3620 0
-1504 -771 4101 0
4293 -3744 1745 0
4476 1794 688 0
-1944 2072 1126 0
-2632 -1173 -1560 0
-950 1145 -1913 0
-3633 -4940 -2551 0
-4177 -1820 -1705 0
-2658 -55 54 0
-257 -2142 -2450 0
-610 4589 -1980 0
2129 3007 1143 0
4606 -1611 -4105 0
-559 4902 -4504 0
-4998 -2336 2333 0
911 699 -3275 0
-4625 -2577 -4755 0
-4190 4498 3446 0
904 -1492 -4998 0
4779 753 -1178 0
4543 3012 -548 0
2278 -4103 2288 0
3597 3530 -529 0
-2764 142 4166 0
2622 -2378 -862 0
-3242 -510 -756 0
-4682 -3540 3776 0
-109 -980 3509 0
-1170 728 2384 0
4403 3223 3219 0
-2779 141 3284 0
-4099 4022 4801 0
-4304 -133 -3791 0
-1810 -1022 -988 0
-3313 756 1293 0
598 -172 -3371 0
-2463 -1713 -1354 0
-2747 146 -319 0
3433 2017 -3282 0
-4827 2868 105 0
3405 4645 -4364 0
4464 2841 2627 0
3536 -1739 4039 0
951 140 -1537 0
1756 -543 -520 0
-511 -3000 4070 0
504 2836 111 0
-866 1360 3368 0
-4545 3757 -4814 0
-2100 3054 2162 0
-814 -4945 267 0
-4499 4917 4869 0
3197 -3110 4209 0
4201 2507 -1260 0
-613 1036 -4710 0
1771 -960 -4879 0
-3433 -3734 281 0
-4922 -4295 -2787 0
266 -1485 3890 0
-4864 4216 1500 0
3816 582 -208 0
798 -1130 3430 0
1799 -4101 -800 0
3474 -1066 -4461 0
-286 -1524 -3869 0
4934 267 2389 0
1454 -1965 780 0
-4536 3254 -4541 0
-3127 -1871 -4679 0
3068 -4737 2606 0
1510 4292 1455 0
-2085 -404 948 0
-3494 575 -4925 0
-3641 4094 656 0
-694 4516 3697 0
1889 4886 916 0
-2637 -4677 -187 0
-2955 -3668 1769 0
1444 4520 -3689 0
-440 -4922 55 0
1605 -4935 3730 0
1874 -3911 398 0
2976 -2653 -2489 0
161 4505 -3025 0
-933 -2467 -2841 0
1930 -955 4393 0
97 -4524 3077 0
177 -4803 -2768 0
-168 -2608 2031 0
3434 2903 -4605 0
-3919 -1697 -159 0
3541 -829 4382 0
-4762 -3861 -1573 0
2210 758 2263 0
-4610 -4114 638 0
3089 -4795 2701 0
2876 -424 -1237 0
2756 -4366 4080 0
3166 -3363 -260 0
3992 -2566 4691 0
-4095 -105 -4679 0
3788 -3513 956 0
3331 -118 -418 0
1968 -2676 -4615 0
-316 -4839 1649 0
4249 284 1409 0
1508 -1897 1975 0
-1124 2454 -1577 0
-1903 1648 -2804 0
-4773 2142 -2918 0
-2319 -4841 -4898 0
3390 3861 1803 0
-1268 -2913 3196 0
-1490 4499 -1777 0
-4265 4340 -1919 0
-1803 4002 -3659 0
1494 430 797 0
-2052 -1740 -845 0
4376 -4957 4003 0
-1906 3399 -2573 0
3199 -2528 -1581 0
-1092 -1831 1787 0
-2428 660 -4729 0
-4817 569 919 0
4289 3267 -655 0
-1876 1126 4755 0
-3154 1050 -3555 0
295 -3887 428 0
711 3340 -60 0
4308 -35 3305 0
48 4774 3688 0
-2263 -360 4062 0
2866 4989 203 0
-3163 -2463 -4927 0
2403 3645 2525 0
4016 1669 -973 0
2109 -1525 -4210 0
4157 -1659 1971 0
2843 -1427 3457 0
-2645 -1810 -4322 0
4643 4289 -3610 0
3706 -4879 4091 0
3940 -2635 -2752 0
-4551 1560 1065 0
-4675 1705 4581 0
-1917 -3706 -1933 0
3155 4002 433 0
1657 -3774 1444 0
3694 -1228 2668 0
-4121 -3871 624 0
-3392 -1734 1947 0
4559 -1199 689 0
-1933 -1737 1140 0
-1659 1988 -417 0
-726 -4389 -3426 0
-4718 1900 -3072 0
-188 -1684 -1375 0
-1506 -47 2938 0
4994 -2273 1760 0
-324 -1086 -1366 0
-4778 -3352 -4816 0
-3569 -3264 -2089 0
-111 -2226 228 0
1201 317 923 0
3895 -381 -1825 0
1526 -3985 -147 0
3793 195 80 0
-3625 -1045 685 0
-4598 4510 -631 0
4924 3174 4904 0
-3749 -4622 -2753 0
-3892 311 372 0
-4674 4885 489 0
-207 -526 -1409 0
1884 -4117 4013 0
-1006 -4031 -1883 0
2355 -4484 3774 0
1895 -156 4649 0
2306 -3184 -1410 0
4955 550 239 0
886 2322 1794 0
1634 537 3845 0
2761 -3281 -522 0
-4304 -2966 -3613 0
3339 -3452 1596 0
-1217 -1002 3651 0
-4199 -1812 -3570 0
3991 -2833 875 0
-903 -2475 -1828 0
-3030 2631 -1280 0
3303 2989 2638 0
-4699 3999 4502 0
-574 4978 -3871 0
4869 -656 -727 0
4927 2415 2840 0
2596 4930 4024 0
2188 4213 -4215 0
1533 3418 -4704 0
-3649 -3051 1288 0
701 2387 -4548 0
-2762 -3688 -1786 0
-3484 -367 1739 0
2751 -406 -3921 0
1580 4372 865 0
4769 1280 -4347 0
-1862 -1344 788 0
2129 -298 28 0
-3057 1193 3868 0
4584 3710 829 0
992 -1835 -1195 0
-3437 198 1514 0
-4786 -4069 1531 0
-1110 -4675 2536 0
185 1042 -1266 0
929 4578 2674 0
-1788 4824 -305 0
1473 1740 -110 0
-890 -4048 1332 0
-3042 -2813 -2315 0
-25 -889 -71 0
4716 2430 1288 0
-3163 1091 -1044 0
-2320 -2034 3750 0
-3200 -4291 -2120 0
75 2475 4531 0
-1764 2293 -2119 0
4691 -1043 -4146 0
-4899 -1493 450 0
138 -2346 1130 0
4774 4593 3257 0
3270 2558 -4098 0
-1011 -4853 227 0
-2370 -2095 -149 0
-1810 708 -1941 0
-329 4747 215 0
967 3409 -511 0
-2019 3181 2906 0
2795 -1780 1038 0
1058 2106 1338 0
4328 3559 166 0
2634 2503 2341 0
3697 -4708 -4504 0
2642 -1790 684 0
3293 930 -63 0
3494 -3001 546 0
1705 -495 1489 0
-3865 3762 2877 0
-3791 -4057 -1887 0
3320 -3497 3884 0
3242 2763 -3872 0
4033 -4382 3598 0
-3127 -3911 -68 0
4152 4820 651 0
-3535 1183 -4779 0
-4200 3168 -2355 0
-3696 -3270 -4670 0
2009 2062 -4085 0
1383 -408 -2944 0
-3496 -1837 -3584 0
-1272 -229 -2126 0
-4419 -2964 -2054 0
3948 -4313 -3203 0
-1139 -3005 128 0
4666 1706 361 0
-4110 1831 2008 0
1466 -3846 -1204 0
599 962 1609 0
146 3329 3549 0
-4414 -2070 99 0
-3198 -4537 1448 0
3919 -1877 -4907 0
-360 2380 -2748 0
3031 -2598 2696 0
-2178 470 -1591 0
2170 -3012 -4991 0
-2359 -593 1774 0
4052 2163 -1821 0
-3950 -2981 4904 0
-4236 894 -1222 0
-903 4826 -2490 0
-1730 -3275 -2859 0
-907 3679 2130 0
390 1023 -1159 0
-4377 -2492 507 0
-4609 437 -2166 0
-4248 -4085 -3808 0
3319 4529 -185 0
3551 -242 -1618 0
-4356 867 -3790 0
4643 -2656 -2547 0
-1644 -4722 -3415 0
-806 -3203 -2814 0
3060 -266 -2906 0
1574 3794 -3601 0
4985 -3127 1130 0
-3272 -1757 -3871 0
570 3509 4133 0
-3226 2234 3693 0
-1801 2144 -2903 0
1777 -3551 -663 0
-631 -2042 1335 0
-725 2117 3334 0
-3505 4119 -3646 0
-2640 -2781 962 0
-2362 4567 1480 0
4551 3093 -2560 0
-1581 -4174 1237 0
-600 -143 683 0
1223 -3337 1249 0
-4713 -136 3689 0
-3449 -2872 -4648 0
-2922 2818 -197 0
-4391 -3328 -2417 0
4243 2059 4836 0
2515 3267 3900 0
790 -202 4622 0
-4175 4608 -1114 0
3027 959 2387 0
-1696 426 -1516 0
3096 149 643 0
1169 4781 -1434 0
262 -4816 -3428 0
-2958 -424 4467 0
1489 2989 -2714 0
-2534 -2924 -2284 0
-993 4995 4483 0
4062 2536 -1097 0
2780 3944 1650 0
4354 695 -739 0
1857 2271 -1432 0
-4767 -4458 -2883 0
-1752 1255 4875 0
138 814 -249 0
4798 -4888 -205 0
-296 -1074 -4100 0
3665 1921 -1601 0
789 992 -397 0
4436 3959 2598 0
1940 3607 4742 0
-4113 -3452 -1420 0
174 3117 2610 0
-3821 -524 -3420 0
1471 531 -483 0
-2278 3359 1115 0
-1032 4567 -4076 0
-2012 186 -2203 0
-2279 2052 -1660 0
923 4468 -2436 0
-122 2855 -4028 0
2761 -3385 3906 0
-4682 -247 3550 0
1368 340 1604 0
2623 737 -969 0
-2570 -1581 -940 0
-95 2731 3890 0
-1692 -3616 3831 0
4068 -4941 -1340 0
-794 -4429 -4842 0
4194 3194 102 0
-4999 4509 -4549 0
1019 2487 4290 0
-2798 3513 2289 0
3183 -3738 -4759 0
1326 -1241 -3481 0
436 4684 146 0
-4914 289 -1865 0
2515 -2842 3037 0
-183 -3825 862 0
-3709 -2582 -3937 0
-2422 4456 -3142 0
-1262 -361 1332 0
-3478 -3713 2478 0
4232 -201 3500 0
4750 -2853 2838 0
-3118 2247 2082 0
2487 -2002 132 0
-4890 -3635 1108 0
-44 1387 -3637 0
-1247 -1724 1824 0
3403 -646 1626 0
661 -3508 -1704 0
3951 -660 -3847 0
1969 2196 -4391 0
2883 1855 -462 0
3910 534 2522 0
2832 498 -2824 0
-2921 99 322 0
-1509 4640 4550 0
1324 1031 -3427 0
4527 -650 3522 0
3376 -4325 -346 0
-301 -3859 -40 0
-1722 2522 854 0
-913 4665 367 0
-1853 4360 3535 0
4256 2300 3885 0
1101 -839 -1767 0
-2579 2877 -1993 0
4431 -1813 -1254 0
281 1168 1258 0
-2234 -2719 782 0
388 -1060 2620 0
-3327 -4440 396 0
3270 1396 4607 0
1728 -3109 -2680 0
-3284 2057 -1226 0
-1880 -2448 -3292 0
3030 -3552 -1114 0
2552 1673 -3711 0
629 -942 -2917 0
-626 2467 -2237 0
1073 757 -3447 0
-1222 3554 -3806 0
-4945 -4088 1825 0
-558 -1590 4993 0
-4205 4991 -1179 0
4406 -1352 28 0
2830 -4871 -3220 0
-2553 3298 1855 0
3485 1267 -4906 0
-4567 -4535 -2560 0
-4695 -4481 -3176 0
656 -3374 -3451 0
337 -2694 -2434 0
-2092 -2349 1526 0
-2430 3294 -130 0
2427 -176 3433 0
-1068 2608 597 0
4071 4054 -2908 0
-121 -3779 -291 0
-3540 3450 -356 0
-4418 3171 367 0
2143 -4260 -3842 0
-2542 1798 199 0
1480 3608 4459 0
3931 -4601 -3630 0
19 -4866 3052 0
-581 -525 3699 0
2205 1090 -4367 0
-2593 -1106 -4614 0
351 -2965 -2081 0
3916 -3569 4404 0
4405 1220 -2296 0
-4232 3992 -4587 0
585 4838 -3416 0
-3107 -1655 -1544 0
2107 -1668 -4885 0
4531 1715 2340 0
-2535 -2308 -969 0
-496 3894 -4956 0
3117 4191 271 0
2770 1939 3339 0
3558 -2851 2774 0
2123 -3993 -561 0
-1950 3901 -4912 0
-4684 1968 -4477 0
619 3786 340 0
-1808 2709 4653 0
-555 -642 4620 0
-3598 2520 2319 0
2549 -1423 1907 0
3570 4328 -969 0
-4087 -4317 393 0
-2841 -4477 670 0
-3504 -1948 -1106 0
-1237 -1538 4304 0
3453 -4703 -4008 0
1722 -4196 -4616 0
3437 2808 3234 0
-2230 3610 2397 0
-3433 -3010 -1840 0
-4008 3778 2791 0
-4502 -906 1883 0
-4344 2096 1397 0
4735 -4783 -4425 0
3564 -120 4801 0
1268 1298 -3654 0
-3241 -3442 2731 0
-1710 -1285 -3840 0
2856 -4639 -3947 0
-366 -4696 2513 0
2614 2337 4869 0
2253 4162 1977 0
-2535 -4439 -475 0
4576 -991 1388 0
-4087 -1491 4809 0
2785 -2515 -4369 0
3933 2400 3987 0
-2044 981 -3989 0
2541 -2805 3407 0
-4787 -540 -3424 0
-2559 1623 -2203 0
3616 2813 -2642 0
153 1437 -4165 0
2083 2691 1226 0
4873 -228 -1323 0
-1332 3265 4464 0
1384 -1070 -4651 0
-952 -2355 -3083 0
-2547 -1756 4816 0
3352 3296 -4721 0
-1019 -4513 -2728 0
1206 -4766 -1586 0
2718 2407 -2538 0
97 -1509 -2683 0
-3266 -3726 -4172 0
1128 -3761 2143 0
391 4696 -1055 0
2915 2234 -4979 0
4091 1867 -2929 0
3156 -2065 1361 0
2755 1060 722 0
-4645 -2853 -4084 0
-3161 -3573 717 0
-3607 2213 -3291 0
4183 241 198 0
-2632 -700 -2426 0
-1821 -3414 2457 0
3587 2762 -1930 0
-526 -1905 -4708 0
2104 -3965 -4890 0
-4028 -254 -3964 0
1475 1918 -2433 0
-2407 1744 1788 0
133 965 1466 0
-4702 1078 4899 0
4681 -2314 -2152 0
-4948 -2640 4091 0
426 1072 -2395 0
-4394 1259 4426 0
-2305 1763 -2031 0
1276 3298 4987 0
-905 -3309 614 0
-1650 4649 3 0
4979 4911 586 0
-1342 2232 -2608 0
262 2101 2229 0
3887 -2637 -4803 0
-1480 218 2431 0
1794 -3762 -1169 0
4629 4189 3112 0
-1774 4925 -1166 0
2591 -4199 4114 0
913 -1419 -3149 0
-3508 2650 512 0
2581 1692 558 0
-4196 2293 3484 0
-187 -3162 -991 0
-599 1902 2422 0
2969 4384 -2111 0
-663 -108 -611 0
289 2431 -2379 0
2405 1060 -4707 0
-1611 -2195 3637 0
1691 -4328 -1121 0
4326 1394 1096 0
-418 -1363 -2595 0
-627 -462 4440 0
-4125 -2245 -846 0
4649 4765 -1497 0
-3427 -1167 1945 0
3535 -433 -3110 0
3345 1665 2419 0
238 2335 540 0
4322 3713 -3319 0
178 -3127 -1543 0
-1789 3080 -4855 0
-4033 1207 368 0
-1614 1145 -2917 0
2570 -4676 170 0
-2433 -3222 -568 0
1665 -3283 -4237 0
1689 -518 -4647 0
2611 -1116 3175 0
-332 -3964 -276 0
-1819 3746 -3345 0
2657 3147 1799 0
-4490 -4855 -216 0
-2392 708 4160 0
3896 -2337 945 0
1817 399 3313 0
-2420 -373 681 0
-500 -4245 4051 0
3359 3008 -203 0
1551 4452 -698 0
2916 134 -1482 0
909 -3610 -4438 0
-1825 -4652 -2347 0
3308 -1692 205 0
-4320 2236 4446 0
3518 -1025 -2293 0
-4133 -3650 -249 0
1422 916 -188 0
-3169 -3059 -1587 0
2329 -2381 175 0
1955 -229 -4059 0
2328 -2748 4952 0
2061 -1400 -533 0
4032 280 -2932 0
-2889 3050 -758 0
-4483 -3689 -4230 0
-2715 -2948 3918 0
-995 3567 2724 0
-386 951 -2042 0
1056 2896 -4890 0
-1308 -1134 2690 0
-1167 -3702 1117 0
-582 -4795 -2106 0
3060 1326 2543 0
4485 4511 1172 0
-430 2637 -3883 0
-2067 -1819 -821 0
-2231 -2606 2700 0
-108 1938 854 0
-2183 3401 -2366 0
-399 -1803 3719 0
2444 -4583 1260 0
-486 4839 2101 0
-4098 4651 -1698 0
3532 180 -1592 0
-842 -2334 4153 0
-3212 4349 4748 0
432 -112 4830 0
3862 -2134 -1483 0
3282 -4974 -3401 0
-2231 1889 -4798 0
-4259 -3925 2067 0
-2815 2858 -3485 0
-841 589 1592 0
-389 3660 -2165 0
-605 -673 -1534 0
213 4553 -2946 0
-3044 -2346 3018 0
-1060 -508 -3158 0
-4656 -2953 -3854 0
4424 -4506 -1361 0
2149 -3294 4455 0
-1454 786 -2514 0
-1025 -4177 179 0
-1548 1841 -4686 0
4115 1745 -1999 0
2367 -4049 -3293 0
4065 3399 3031 0
-3417 -4670 4750 0
4014 3436 -4956 0
-20 -1136 4639 0
-1107 4531 481 0
446 -1280 1061 0
-1387 4316 -2956 0
113 -4645 -1905 0
4684 -1856 4255 0
195 -1379 -992 0
1939 -1543 -4861 0
-1286 3717 -4741 0
-285 3612 -401 0
-4048 4557 4893 0
-3940 -2567 -3745 0
4338 -2007 1368 0
1243 -1002 -1704 0
4354 466 1279 0
-932 -1749 -199 0
906 -1186 -4526 0
-4330 -3968 -2966 0
4367 -4105 1466 0
555 -3649 1150 0
2334 -3656 -4317 0
-883 3424 -2830 0
-1846 1674 1717 0
1378 -2034 -4923 0
1163 -2826 -4261 0
664 -4605 -960 0
-3753 3097 4574 0
4375 -2539 4800 0
-1161 4340 7 0
2043 -1794 1575 0
4267 -288 4505 0
1288 2085 -1740 0
-3874 -743 587 0
-2398 -1373 -2181 0
-1235 1354 -3068 0
3778 239 1288 0
-1884 -2482 -2058 0
4483 3498 3514 0
-347 2943 1895 0
4919 1883 -3751 0
-1987 1721 2081 0
-2416 -4192 3832 0
1267 1832 341 0
-1653 -1034 -2023 0
-4854 1401 -788 0
487 1403 2230 0
3033 2433 -3939 0
-4890 3688 210 0
-3149 -4180 4111 0
3361 -3261 3312 0
-2111 -1845 55 0
2686 629 171 0
-210 -802 2213 0
4208 -4971 4468 0
-2334 -1917 1373 0
1663 3424 3369 0
2951 -1054 2875 0
-2715 -773 3202 0
123 -2819 3712 0
3185 2149 4318 0
-3799 3194 2285 0
450 4807 1200 0
-4806 3515 -796 0
-3231 1135 1028 0
2671 -4843 -2969 0
2170 -2423 4272 0
1657 -4511 3847 0
-3055 4268 -368 0
-725 472 -2034 0
-2316 3506 -4758 0
845 -672 -974 0
-1875 -1946 28 0
-4620 -3389 -971 0
4689 3864 4711 0
1132 2328 1664 0
4869 -692 -4200 0
2078 881 4815 0
4067 3451 -2460 0
-3609 3078 -4437 0
-3764 2644 -179 0
1383 2876 2941 0
1039 2964 768 0
2751 406 1345 0
-1046 -2182 -4042 0
1283 -1929 205 0
-101 2873 -2762 0
-1693 3569 -2666 0
2825 -684 -2591 0
-919 -2659 -4267 0
1909 4143 -1238 0
725 -4024 -1440 0
-1334 4547 -3606 0
-642 11 4438 0
-690 1914 4482 0
-2952 2020 4802 0
-2008 -3942 -1482 0
-1796 895 4484 0
296 1410 -2943 0
2375 2360 971 0
2987 -4682 -1116 0
-4620 529 4354 0
-3488 1749 -707 0
-2658 278 -1902 0
-1253 -1792 -3690 0
3699 -4058 -4356 0
-853 2565 -2234 0
-2826 -3167 -4226 0
-3154 1055 -734 0
-3715 -1293 1870 0
489 1028 366 0
126 381 -615 0
-1845 -288 2278 0
3825 -1171 1450 0
2445 1112 -350 0
2833 2766 3920 0
-3075 1647 3478 0
-2960 3433 -2474 0
964 -4917 4474 0
3330 2186 -4523 0
4932 26 -3605 0
771 2089 2791 0
-3217 3650 1265 0
4653 1370 -1000 0
-1011 -809 -3452 0
960 -2418 -950 0
3761 -2516 1330 0
4145 1224 -847 0
1617 -4523 508 0
-4466 -2767 849 0
1895 2915 4530 0
-4716 3049 -1361 0
-2288 -168 -4203 0
-4068 3764 -2140 0
4787 4386 762 0
1450 -1462 -3269 0
-3176 -3342 3439 0
1401 1835 1687 0
4719 -4797 -3053 0
-457 2835 -1567 0
-1970 -1032 -351 0
-2638 -543 -904 0
3365 275 2669 0
664 -4781 -2338 0
-1870 3240 -259 0
3690 3295 -2576 0
-1254 -1608 854 0
-2119 -4783 -342 0
1573 -2064 -4690 0
4485 -4900 -581 0
1935 1159 1814 0
-1889 -4591 2779 0
4523 2624 -4199 0
1977 2063 3188 0
-2818 -4440 -3867 0
3104 -3946 -4369 0
633 3875 2185 0
4201 504 1360 0
-1982 1210 3881 0
-2966 4755 -3493 0
2704 900 -2555 0
-1616 1561 4300 0
4098 -4044 -3290 0
3873 2851 -1135 0
4477 -1799 -2757 0
3257 -222 -1236 0
3380 -2728 1275 0
-1914 -1033 -509 0
-4983 -4699 -3662 0
3113 -1287 642 0
3588 4798 2553 0
-1761 1346 -3652 0
2999 3002 -2608 0
-4055 -3372 -1992 0
-4706 -86 2786 0
-2245 -683 4495 0
256 4666 -433 0
-4893 -4935 -1441 0
-1006 -2956 431 0
2321 -1656 4651 0
1212 698 1367 0
-2496 -4293 -3827 0
611 4911 -772 0
-2448 4737 632 0
-4111 2281 2937 0
1346 3136 -930 0
-1457 233 3850 0
-4729 627 -4066 0
1538 3376 -702 0
-353 -4305 -2342 0
2284 83 -4802 0
859 -4960 -1754 0
523 -2576 -4957 0
2556 -2518 -2311 0
467 -1056 603 0
-3691 -1487 -829 0
-3657 2416 -2595 0
1183 -2270 4265 0
827 -350 859 0
-2336 -1 -4541 0
852 -2501 4359 0
-3778 -4430 -1524 0
-951 2009 1838 0
-3969 -1813 -279 0
4347 218 -4450 0
2478 -2777 2687 0
-58 1738 1005 0
3100 -456 285 0
-1015 1853 1469 0
133 -991 364 0
-3610 -698 -502 0
3774 -4147 4169 0
-3857 -786 -2697 0
-251 -1317 2225 0
-4520 2077 -4434 0
-2259 2905 2406 0
-2870 -2205 4611 0
755 -4075 -234 0
-4727 -2849 4898 0
795 2274 4509 0
-1472 -237 -3861 0
1404 -3512 1763 0
545 -1317 4352 0
2149 -2696 2267 0
-4666 641 2862 0
-2961 -3020 -4684 0
1190 -3928 1593 0
2477 1164 3741 0
-2975 518 3477 0
3979 -1661 -4457 0
426 252 -1659 0
-2918 -3375 -137 0
-1528 2381 -1902 0
2301 50 -323 0
3414 -3938 -4793 0
2346 -2160 -2602 0
-503 530 -4835 0
-756 2842 3338 0
-432 -3453 -3729 0
2180 3548 1642 0
-4217 -256 -4292 0
2827 446 -657 0
3644 -1564 -6 0
-3926 -3429 794 0
790 2104 3597 0
2174 3669 871 0
-172 -1984 27 0
704 178 3007 0
1295 328 -196 0
4868 114 2662 0
-991 139 -922 0
-3098 -233 1560 0
437 -2010 -4498 0
1466 -1847 -1367 0
2878 3722 2439 0
-3173 544 4339 0
-636 -863 4967 0
-3049 -3147 -3169 0
-3910 1988 1457 0
-3619 4061 2014 0
284 -467 407 0
-978 1864 -3753 0
3548 -4433 -3545 0
288 4241 -4921 0
1146 398 -820 0
-2130 2893 2423 0
-1885 -2699 1505 0
4656 1383 941 0
-4398 -1889 -121 0
-1942 3387 -1810 0
-1136 -1436 771 0
-4446 114 -415 0
2407 2610 1387 0
2144 998 3730 0
-4849 -4670 -754 0
-392 -4295 1636 0
2274 170 -927 0
3974 -4632 -346 0
4947 4150 -556 0
4773 3061 827 0
602 -3639 1022 0
2573 -3902 4980 0
1341 2248 3638 0
4658 1058 -2749 0
84 3814 -3374 0
614 -2447 -3042 0
-4511 217 -4364 0
-1392 -4645 29 0
2136 -3582 -2510 0
205 3372 -3755 0
-422 -3630 -1344 0
4041 4418 3546 0
-3566 1604 -1276 0
844 4002 408 0
-4405 -3751 3205 0
-1264 -4152 -4148 0
1298 4614 -4385 0
511 -299 -3787 0
1231 2240 421 0
-4611 3883 -963 0
797 2123 -1529 0
-1913 3635 -4353 0
-3237 -1922 -2194 0
-2125 3480 4259 0
-2300 -1339 4436 0
-1695 -4009 -4185 0
4252 1611 248 0
-4447 -1141 2624 0
-2970 -3139 1031 0
-2377 655 -1794 0
1811 -1664 2680 0
-1268 2735 2969 0
4994 -392 -1829 0
-3164 1092 4400 0
3258 -4155 -2241 0
2807 2471 1893 0
-804 -1234 -1430 0
2625 -4408 969 0
-1160 1265 3387 0
2343 2177 -2477 0
-563 679 2729 0
-4757 3994 2516 0
-3915 349 -1826 0
4793 -2172 4908 0
-1367 -3294 -980 0
2870 -763 11 0
-3223 68 3455 0
3690 1904 2810 0
1326 318 -3367 0
-1926 -1557 4114 0
10 -1275 3956 0
2583 -4244 -937 0
3296 -1940 -33 0
1631 -3961 4994 0
-1659 2431 2510 0
-3113 -1649 3456 0
2812 4379 3024 0
3948 2324 -2440 0
-3370 -2017 -548 0
-4868 -1685 -4197 0
3691 2795 -2064 0
-121 -4396 2792 0
3355 4989 -319 0
-1963 -2434 687 0
2288 -1760 4701 0
800 -3167 4194 0
-4327 3469 2449 0
3814 4024 4714 0
2838 4764 204 0
-3068 -4796 4874 0
2023 -4771 4502 0
1772 2089 -3938 0
3211 1323 -483 0
-166 -2974 4306 0
-2959 -3532 -4929 0
-2877 3836 1905 0
76 -2819 -1340 0
2954 2153 4566 0
2800 -980 -3503 0
2715 3183 -4628 0
1530 942 -2157 0
-314 4327 -1984 0
3185 -167 622 0
-4556 -4552 2628 0
-806 2500 -4184 0
-202 374 4001 0
-4558 657 -3026 0
-671 -1491 1920 0
3011 100 -4286 0
381 -395 -716 0
2962 4785 1626 0
-288 2237 -2044 0
4030 3124 -2535 0
2848 4778 4572 0
-535 3194 -4662 0
-3291 -1591 -3772 0
2468 4581 -768 0
-3286 1894 -54 0
-3197 -410 -502 0
4365 2597 -3111 0
-97 2315 -1301 0
-3676 -4188 2470 0
-3390 2391 4327 0
680 -3844 1762 0
899 2040 -4983 0
4362 -2929 -2353 0
3701 2793 1057 0
-2360 1896 2254 0
4229 -1177 -625 0
667 652 4116 0
1117 -3166 -2807 0
-1744 201 2223 0
-464 -379 4524 0
-4067 -4655 -4838 0
3263 -4765 -4255 0
1621 1365 4410 0
-959 1153 -3428 0
4077 -706 -2859 0
-4560 4255 -597 0
-2644 3717 2664 0
-1252 -3375 467 0
4390 1105 4584 0
-4403 4283 -4670 0
17 2252 -1101 0
-2434 -460 3706 0
-3301 734 4404 0
1782 -1418 3826 0
2274 -4833 2192 0
440 -3338 -1838 0
220 -1037 4227 0
3066 924 4773 0
1803 -3319 1236 0
3384 -3559 -1031 0
-108 1179 -4631 0
-3777 1086 -613 0
4405 852 -4759 0
-4047 2911 4379 0
-2018 134 4785 0
-1587 -169 -4872 0
-1105 287 -2425 0
-1787 4922 85 0
557 -238 2562 0
-2750 3024 3657 0
3139 -933 931 0
-4717 -213 3778 0
-435 -2601 1114 0
-4203 -4123 -135 0
-957 -3341 3925 0
-3604 850 -3728 0
3142 1219 574 0
4111 2969 1094 0
2782 -4906 -2140 0
-1732 -1216 2792 0
-2033 -999 -4107 0
-125 2219 1452 0
2477 -817 3790 0
2472 -4236 -3443 0
3748 3885 -1583 0
-4276 1387 1198 0
2841 3171 -2397 0
-3988 4445 -3908 0
4733 4686 -23 0
-1779 -1064 3665 0
-2462 135 1481 0
4662 -2874 397 0
-834 -778 4599 0
4394 -155 -3845 0
-3183 -2172 -2072 0
-386 -2940 -334 0
-2205 2346 4575 0
-4445 283 2044 0
2274 184 3551 0
-3679 -3212 438 0
-4068 -4221 2395 0
1916 2101 1429 0
-1055 767 -4551 0
-2472 4093 -1919 0
-4521 4571 -1265 0
-371 2974 382 0
-548 3658 -1556 0
126 3102 -2641 0
4200 -2087 3081 0
4034 -4169 2402 0
2863 2165 -461 0
-3226 4069 2854 0
-150 4563 -4102 0
-2858 1961 4188 0
-4801 -1698 -600 0
635 1777 -4053 0
-4285 79 -1429 0
-1463 3470 -1254 0
-4061 3182 -2857 0
1460 -2608 -2239 0
-3284 -672 1171 0
2566 -2874 -3825 0
-410 -4070 -2526 0
4399 -1908 715 0
-131 1058 -3660 0
2704 -2851 4650 0
-4341 3630 1375 0
1859 -2363 -2691 0
1963 -4096 740 0
-2816 -3076 480 0
-1851 1804 3866 0
-2648 1479 630 0
-1735 -4091 -558 0
2042 -4464 -3447 0
93 -1929 -2214 0
-1696 1225 -1014 0
2850 -1702 -2462 0
3191 757 3563 0
-825 3560 2276 0
-2744 1351 4943 0
-574 3322 1503 0
4486 1690 4330 0
4336 1028 703 0
3929 -4361 -933 0
-1098 3309 891 0
4788 2120 2201 0
-2459 -2943 -759 0
-804 -1342 3580 0
392 4602 -4573 0
-4589 -3628 -3137 0
-729 3732 160 0
-3593 -2890 4594 0
4372 -4416 -3147 0
4817 4696 -4516 0
746 -1875 -1331 0
2891 -3895 -3635 0
2838 3275 -3213 0
-2601 -4473 984 0
-1510 2980 3248 0
-3586 -3350 1218 0
-335 -3845 4000 0
-3596 3929 -3949 0
331 -2994 -936 0
2405 71 -1443 0
1650 915 -3541 0
109 4569 2205 0
-2256 3465 -2197 0
332 2362 -4470 0
4679 -665 1911 0
1607 1569 -4320 0
-4566 3853 3606 0
-483 2126 -746 0
896 4454 -422 0
468 -2066 1517 0
-2817 1894 -871 0
833 4357 -3942 0
312 -4833 -3463 0
346 576 1828 0
1847 1895 -4020 0
-3328 -2156 -2958 0
1193 -3755 3376 0
-3833 -841 4134 0
4624 -2345 3122 0
4800 -18 2084 0
-1467 3991 -1645 0
417 -2619 -3102 0
-1363 4541 -3883 0
4689 -4998 -1848 0
-2086 4319 945 0
1177 -3747 3395 0
-47 -1131 2644 0
967 852 4060 0
-1984 4852 -3524 0
-4454 -808 158 0
-1231 -2692 2150 0
4532 4255 -4301 0
-2239 -2870 2883 0
4924 -4802 4490 0
-2652 2923 -609 0
1328 -2357 2274 0
-483 3201 787 0
3069 2600 128 0
3230 -1687 2166 0
-631 -3700 4138 0
-1588 2038 -410 0
3494 714 -4926 0
-1048 2890 2633 0
3530 1360 -761 0
-1477 2141 -3137 0
2650 -1146 4788 0
-97 -4593 -4840 0
-3306 3890 4459 0
-3119 -851 -3246 0
-3172 -2441 -1137 0
-1059 3256 -4715 0
3685 -3061 -1158 0
3631 2261 -4072 0
-489 -142 -3120 0
-2035 1993 969 0
-1079 2486 567 0
3195 -387 -91 0
1413 3112 -2856 0
1645 3545 4670 0
1109 65 1308 0
3803 -1623 -712 0
-428 2195 -3351 0
-226 -2394 -3539 0
37 795 -1573 0
2791 4137 4757 0
-2474 3746 2781 0
-1655 1494 -2723 0
4952 -3045 -3952 0
-3717 1264 -3033 0
-3166 -2752 802 0
-4350 501 -2176 0
2419 4327 -2899 0
-3618 -4547 1494 0
2676 -4752 3533 0
4888 2382 4963 0
-277 -2915 534 0
-4838 -212 1072 0
-3704 -3113 2836 0
3718 -1704 4074 0
4547 -4440 3671 0
-4660 1118 -4003 0
-2578 974 757 0
-3545 4797 3338 0
4690 1868 4556 0
481 159 1808 0
-3220 1109 -2966 0
-189 2586 -1104 0
1256 1204 -1867 0
1780 4864 4414 0
-2217 -2624 3306 0
-893 4534 4869 0
-1543 2644 -863 0
-53 3448 -3855 0
1777 4892 -3531 0
-230 4689 1376 0
-835 3654 4845 0
-2133 -1765 -2784 0
3775 214 4047 0
4623 3640 -2340 0
-2911 -1504 4410 0
-4919 -802 -2054 0
4219 577 805 0
-2356 1005 -3062 0
134 -338 -1459 0
-2543 3776 288 0
2888 -4801 1533 0
-2867 3432 4429 0
-4277 -4224 -3214 0
-3130 -4255 -4124 0
-886 3216 -3276 0
-3889 -943 3834 0
4507 205 1559 0
4407 3244 2394 0
1613 -2308 -3439 0
-56 -3283 -3576 0
-1784 2394 -2348 0
4227 4328 -2117 0
-3374 1319 1310 0
-3629 4966 2939 0
-2770 1805 -706 0
3733 -3120 2421 0
-1886 -3265 -4804 0
-4878 -1567 3148 0
-855 1409 714 0
3647 1871 4043 0
2328 3058 -391 0
3202 2463 -2705 0
432 -3633 -2672 0
-2355 3764 -1556 0
-710 1147 -3181 0
-2735 -3762 4253 0
3237 -803 -4842 0
-303 -2571 35 0
-195 -1783 -4410 0
77 1212 2237 0
-4977 1576 4451 0
-2602 -1489 693 0
-752 2457 2506 0
2248 871 -4178 0
2307 -1241 -904 0
4741 1759 1954 0
-3312 2147 4409 0
-1388 -2556 4516 0
-1854 1328 -3452 0
4671 -3154 2133 0
3506 -2882 -878 0
-1555 4544 -2817 0
-4018 370 4549 0
4143 2427 -3624 0
-2888 2297 3013 0
1513 -1954 3919 0
-4846 -4996 4353 0
-4447 1550 -1846 0
3528 -3369 -3195 0
-4143 -4553 2895 0
1009 -4014 4831 0
4151 -3322 -1224 0
-157 -2827 2152 0
-2932 3994 -4499 0
-2245 -1381 -931 0
-3913 -702 4336 0
4497 1116 2316 0
-2104 1339 936 0
-2125 3905 4909 0
1949 -2124 -1846 0
-2306 2378 -2234 0
-4500 -1423 629 0
3194 -2563 -4104 0
-2640 -1585 -4330 0
-1294 -733 648 0
4991 3610 131 0
2234 -2230 1633 0
1269 -365 3225 0
724 2618 -277 0
4933 3715 -1685 0
341 -818 1485 0
-121 -4458 -2737 0
3571 -3779 3996 0
-3183 -3070 4674 0
4447 1898 1086 0
473 -2774 -2877 0
149 1751 4894 0
2427 -4126 -162 0
-3350 4144 1221 0
159 202 4350 0
-1558 3100 3212 0
2381 1155 -2557 0
1774 2414 4805 0
736 12 -4001 0
-318 -1310 803 0
-1126 -4725 3098 0
-2171 1309 -287 0
-3063 793 -1638 0
-4883 -2261 -735 0
-998 3760 -2811 0
-1769 -4874 3633 0
1625 1682 -3128 0
4129 -977 -2215 0
462 -3144 2943 0
-3919 1649 -3596 0
3045 -606 3437 0
-2907 4350 -732 0
-2412 3816 -2849 0
-4723 -2229 -37 0
-4716 -4347 -4770 0
406 4861 3479 0
2518 813 -3140 0
1102 555 3050 0
237 3681 4189 0
3690 1302 4017 0
-4995 3786 -2639 0
-3607 1898 4344 0
63 -1580 -2190 0
4949 2926 278 0
-3028 1528 245 0
-2004 1904 503 0
4914 -3019 1165 0
-62 -3745 -3628 0
-276 -474 4046 0
-3736 -2991 1686 0
-520 2138 4476 0
-109 4230 3994 0
2411 -1983 140 0
3070 4035 -625 0
-153 223 630 0
4384 -3672 -698 0
-3026 2201 518 0
-2272 -3999 -1430 0
3236 -655 -2328 0
1818 -2559 4547 0
-59 -1857 -2562 0
2285 -1507 354 0
4836 -3311 -2534 0
-4207 -914 -3040 0
-2944 -66 -3120 0
-2313 -2636 4240 0
-2916 -1359 -2762 0
-4991 -3473 658 0
3114 2027 2331 0
-823 2291 4917 0
3624 -3424 3927 0
4960 -2357 4948 0
2623 -4920 2446 0
2539 -1472 4706 0
3669 3213 -2103 0
-2646 2462 -3635 0
1786 885 -4554 0
2777 3020 -1063 0
3936 -2904 4476 0
2562 -2775 -905 0
-2236 3647 2188 0
-168 -874 1491 0
167 -2072 3943 0
-3424 3699 -3690 0
-4168 2049 -177 0
1559 -2213 -3516 0
2398 1006 2712 0
269 541 1268 0
1600 -4618 -2295 0
-192 -4077 2226 0
301 -3497 -3866 0
2134 4969 -1811 0
-1519 4900 271 0
-3982 3216 3373 0
1271 316 2262 0
-3850 -2818 -4306 0
-3827 -3877 -1157 0
4808 2768 -670 0
2331 4381 2810 0
-1988 -4746 2353 0
-636 656 -3831 0
-4945 -3798 -2967 0
-4577 -2773 82 0
4744 4481 -1463 0
3471 -2352 -2181 0
4038 2824 -441 0
4746 3442 1335 0
1233 -2734 -318 0
-942 -887 -1820 0
-85 -3496 -3144 0
-1774 2526 4980 0
4831 1136 4466 0
2725 2855 3978 0
2190 -1462 -3150 0
4745 1547 -2924 0
-3706 -163 -924 0
2607 -461 4506 0
-1245 4090 -4358 0
-4266 7 2749 0
-3992 -3251 -1025 0
-701 -4579 -1747 0
-2794 1751 3814 0
-4368 -3066 3315 0
1499 -4844 4919 0
2595 1727 4256 0
2431 -3386 -622 0
-4174 1332 484 0
-141 953 2682 0
-1005 4081 -752 0
1750 3128 3148 0
-4758 1744 3190 0
-4090 4287 -994 0
2585 4522 4708 0
1952 -3610 -1816 0
278 1571 -4033 0
-1092 255 -444 0
-3760 834 -4703 0
2171 -627 -2580 0
399 -329 4146 0
1015 -1081 384 0
3449 1127 1709 0
-393 11 1369 0
-4488 3559 -3430 0
-1319 198 -4476 0
1561 4006 4337 0
151 4852 -3527 0
-301 -3156 -3841 0
2056 2291 4577 0
-3243 -2798 -2204 0
-1296 2231 -1374 0
-927 -1104 -2994 0
1579 -1812 2670 0
-3125 -1922 -3893 0
-3968 3401 250 0
19 355 -2083 0
187 482 -1375 0
-4082 134 -4893 0
-310 -3194 4742 0
-2717 -3267 3367 0
2969 -30 -3237 0
-4495 -3878 235 0
4396 -2053 -887 0
-4335 -1502 -1982 0
-2088 4387 159 0
3590 -629 4373 0
-3843 362 4439 0
1300 -1280 -3063 0
-653 -1658 3564 0
2222 -4812 368 0
-2894 -3218 -1312 0
-308 3981 1229 0
-670 224 1722 0
3114 -4516 -456 0
751 2812 -4998 0
1205 4567 3232 0
-3987 -4832 -86 0
2300 -1594 -4006 0
-4989 3697 2639 0
1324 -2909 -3006 0
3969 -2302 4619 0
2828 1948 3216 0
-1661 -3630 535 0
-2602 540 3747 0
3509 -3197 556 0
922 4770 -2178 0
4255 3757 2931 0
1361 -3382 -868 0
-3716 -560 2623 0
4520 3527 -3955 0
-3846 3507 855 0
4195 1277 -1407 0
-2249 2620 -1213 0
851 4895 -1408 0
-45 -3614 2188 0
-2989 -3529 3989 0
3618 -3531 2363 0
1304 -3909 1061 0
-2015 -923 -2429 0
-2026 1299 -2130 0
2914 3162 -3958 0
4336 -1866 -1144 0
-2436 -3319 439 0
3311 1243 686 0
-4202 1046 4573 0
2830 2078 1294 0
-4084 1663 -1530 0
4766 105 -4659 0
3651 -4482 -2463 0
-1284 2981 -4145 0
-4286 -1465 -4848 0
-1005 -4603 871 0
2522 -1732 1761 0
-4006 91 -459 0
-1614 -569 -389 0
-2311 2915 2829 0
-3044 -4042 201 0
-2723 -1451 2492 0
-2719 4257 4329 0
2258 -631 4432 0
388 -2799 1457 0
2478 -773 -4886 0
-2945 3643 4810 0
1017 -1095 -3047 0
-2214 -63 4771 0
4250 -3237 2128 0
-4166 -711 -584 0
1262 -3327 -861 0
2249 582 -1252 0
-154 -1828 -881 0
-2363 -3075 2788 0
371 -3501 3464 0
-3052 -1983 3161 0
-3643 2831 4021 0
4262 718 4905 0
3619 2362 -3460 0
4900 3496 -2531 0
2561 2684 -2003 0
-4696 -629 -3191 0
-892 -3541 -560 0
4557 1017 1337 0
1455 -3738 3718 0
54 -2502 -724 0
735 -851 -4026 0
3033 795 -3398 0
3489 -2378 2183 0
-651 -3301 -2892 0
3932 -4608 2553 0
-3951 3180 -1868 0
-2088 -4874 3698 0
497 -276 4235 0
3579 4824 1696 0
3194 -2706 -3792 0
-1724 3390 545 0
-2209 3115 3268 0
-4568 3015 2576 0
-3380 -260 112 0
4304 1314 3100 0
-3060 1827 2695 0
4944 -688 -205 0
4325 3501 1437 0
-2442 -2870 2574 0
-1547 4615 491 0
3700 4535 -3711 0
-3867 1728 -1768 0
722 -2017 2381 0
151 -2066 1653 0
-2147 1363 3272 0
-2169 -2138 151 0
-608 2486 -1207 0
-1404 3855 3867 0
2688 4303 3556 0
332 2059 -2020 0
-942 -2219 -1755 0
-4186 -2837 -2460 0
2054 -2633 2847 0
627 -3638 123 0
-1379 -4687 -456 0
-2414 1363 3466 0
1575 -1099 -2331 0
-4856 1216 3087 0
3205 3758 -4203 0
3739 -4996 1298 0
670 -2636 2581 0
-3845 -2391 -1986 0
833 -3492 -3751 0
35 954 1659 0
1508 1662 3541 0
-115 509 -3875 0
2680 -1564 3934 0
-731 -2345 -1562 0
3839 -3303 3129 0
9 1000 -4843 0
2715 2576 640 0
-3777 -1622 2490 0
-4105 760 -179 0
3755 -1379 -4052 0
127 2309 4271 0
2812 4437 -905 0
-1053 3467 -3205 0
-1909 1688 -1923 0
1460 -1217 2878 0
-1622 -3819 1513 0
-2313 -3317 -4892 0
-4994 -385 4285 0
-1387 2113 -435 0
1199 1769 4130 0
4772 3433 -3624 0
3183 1019 2891 0
1579 -4 -3381 0
-3324 2221 2515 0
1348 -382 1574 0
-1635 4332 -3228 0
4279 -1922 -927 0
-212 -2082 -43 0
-565 -3481 2580 0
2210 2461 -1160 0
21 2704 4330 0
-2739 -111 4040 0
-2486 2836 3244 0
-441 346 -20 0
870 2253 1755 0
4073 -3623 4334 0
4959 -4130 -1819 0
2059 -634 3580 0
2033 4214 1247 0
-1036 1947 -1105 0
-3966 -614 -4306 0
-738 -3649 4494 0
-4589 3011 -905 0
1104 2 4506 0
-336 -1124 -2351 0
4817 -643 2204 0
-149 -368 -1682 0
2924 -714 -2850 0
4185 3434 4791 0
3432 38 749 0
2345 -1329 889 0
-3692 977 906 0
126 3764 -1971 0
-57 -3618 -4693 0
4484 -4387 -3957 0
-3744 -4413 -3196 0
-1532 -4220 3815 0
-3077 2370 1282 0
-220 -2330 -1057 0
1120 -1984 3190 0
1288 3802 2947 0
135 4621 1201 0
-3236 3811 1363 0
1282 1602 4687 0
3487 -374 -2935 0
2578 -423 599 0
1460 381 3151 0
3892 3826 2189 0
701 3628 3674 0
3591 -1428 -3692 0
-2667 4078 -2134 0
4617 3976 3775 0
-4618 -3984 -4364 0
1511 -4735 -1949 0
4532 -1670 4301 0
1107 176 1951 0
3439 -2189 -3759 0
4163 -3840 107 0
-4651 -2309 2959 0
4961 2370 415 0
-4700 -3398 2915 0
-2542 -452 3074 0
-3796 4493 -4045 0
1531 3232 -2889 0
-3077 -2769 -2162 0
-881 -2215 4911 0
-2625 -2950 -924 0
2325 3963 4540 0
4353 3105 -214 0
2673 3382 1377 0
-2753 3576 3811 0
1579 -3402 1773 0
3272 -3282 -656 0
-4314 -81 370 0
1385 3455 -1342 0
-3127 2146 4298 0
-907 -1823 32 0
-2024 -1137 3555 0
4612 279 250 0
1797 -3691 -3483 0
4232 -418 1629 0
-2601 954 -1300 0
2963 4564 -2161 0
260 -4333 -2322 0
-3556 -2459 4844 0
4820 2307 1038 0
-3380 2035 1474 0
-2743 336 -243 0
4112 -4484 4965 0
1048 654 2278 0
-3928 3775 -3577 0
1754 -1473 -2734 0
-4125 -2321 -830 0
-3043 -1609 -1935 0
2117 3944 -1721 0
-390 -3876 -3904 0
3287 -2934 4753 0
213 -1215 641 0
-4473 -3159 -3729 0
1947 -3158 -887 0
-4776 -1760 4590 0
366 -854 -4315 0
2917 4733 1604 0
-2235 -1385 4116 0
3997 -526 3245 0
4387 3709 -3819 0
-1716 2554 -386 0
3771 1207 -4064 0
-1652 2391 3685 0
4219 -36 -3850 0
-1317 2391 3563 0
3336 3841 3790 0
1451 2258 4306 0
638 4239 4227 0
4702 1591 960 0
3800 2560 -395 0
-3017 831 4827 0
924 4072 -2845 0
3390 -898 1215 0
-284 4112 -427 0
3270 4088 1307 0
3239 1056 1165 0
1344 -3577 -1330 0
-4017 1563 4291 0
1327 2709 2674 0
4423 -3224 4989 0
-1131 2757 4881 0
3693 1477 4383 0
-2387 -4355 4826 0
3025 3725 2672 0
4740 -3735 3592 0
1409 825 -4369 0
-4715 4813 -2402 0
-3356 -1267 467 0
-1821 3548 -2355 0
2158 1786 525 0
1978 4809 -229 0
-2676 -4314 -707 0
-4756 3168 1203 0
-249 286 4309 0
3196 1209 1636 0
-2644 -1799 4109 0
533 3115 -1262 0
552 -1409 -1145 0
964 1713 587 0
-4100 1152 984 0
-2273 2113 429 0
1976 1211 2597 0
-2345 -1489 871 0
1165 -673 -2336 0
-1474 -2410 -4442 0
4267 -4016 -4217 0
3340 4563 -3877 0
-1052 4921 2478 0
16 1770 -2424 0
-1129 -2150 -3346 0
1207 -1279 -3833 0
-2043 -99 745 0
-2538 4759 1513 0
3115 -4484 -1177 0
-388 595 -1904 0
4907 3638 -4655 0
-2070 1461 -2623 0
-3885 -530 2633 0
-2213 1638 -2671 0
713 -1199 4921 0
4984 4981 2742 0
-1390 4556 1759 0
3143 -3826 -939 0
-2946 3523 -4034 0
-334 -1302 -4729 0
-3784 941 -1891 0
-302 -214 1221 0
842 4854 4219 0
4466 -4671 327 0
-598 -3015 -2215 0
-1789 -1463 -1011 0
4049 -4828 1708 0
1352 -1167 -3809 0
4651 -502 1047 0
-4400 -1578 4675 0
-309 -4264 -3728 0
-3198 4555 -1528 0
-359 -3794 -2202 0
4336 2736 -4582 0
-2398 -2530 4232 0
4463 -2937 -2936 0
3723 -277 3047 0
-334 -854 1473 0
-1672 4390 -449 0
216 3744 720 0
-602 -2709 3383 0
3459 -2193 -323 0
1362 2300 1610 0
3683 -1940 -263 0
2378 -3288 288 0
562 4542 3634 0
-4013 -4608 999 0
3514 1781 -1791 0
1049 4004 -4865 0
-4610 -4903 -3137 0
1835 -2916 -485 0
-1705 -2954 3588 0
-1132 2227 -1843 0
2580 -315 1297 0
3116 -1877 -4057 0
-4425 -815 1498 0
4175 -1000 4122 0
4114 847 -4841 0
4560 -204 2627 0
-325 1732 1529 0
-4377 -3444 -2419 0
1631 -4073 -1044 0
-1087 28 183 0
-4057 -596 4964 0
935 -3044 -4740 0
516 -1787 4290 0
1059 -3195 811 0
-2072 4596 -351 0
-106 -4935 -4513 0
-33 -2128 3347 0
2205 -3106 -534 0
-4803 -1241 -351 0
-4905 -3151 -4748 0
-1982 -2114 -1471 0
2182 -2621 -3274 0
466 -3175 -3887 0
4304 1856 3311 0
2041 1405 1694 0
-1135 1397 -4001 0
4913 -504 -4389 0
4343 -68 737 0
-4417 679 1165 0
-3098 -2612 -2243 0
-1294 4733 -4666 0
-4264 2104 -2247 0
-4851 -4729 -188 0
-4826 228 4260 0
1110 112 -4076 0
-4536 -3016 611 0
-4888 -966 -2215 0
-2257 4027 -3235 0
-1187 1073 -4315 0
4205 1979 -4581 0
-1663 3792 3579 0
-4948 4302 -825 0
-4384 -3395 2529 0
-1551 -424 1197 0
-4297 -1436 -4852 0
1725 -1860 150 0
-3739 2500 -1317 0
-3998 2952 1095 0
3310 -2772 4261 0
-3131 -3264 -2383 0
4280 4085 -1368 0
-3873 -3508 1863 0
580 -2999 -1408 0
-1018 -1057 1125 0
8 1689 4041 0
-1262 1728 2084 0
-4943 -3176 -4523 0
2275 -2265 -3688 0
-1195 -4983 3651 0
369 -4772 -3370 0
-4585 1769 -1433 0
4708 4718 1889 0
868 -4344 495 0
321 4212 2772 0
2795 -4973 868 0
2518 4959 2562 0
1780 -391 3870 0
2404 978 1434 0
4381 4504 -3148 0
4701 1673 -612 0
1412 193 954 0
-3864 3692 4529 0
-4901 -4449 -4148 0
1553 1247 3112 0
3704 176 -3811 0
-2880 4167 3084 0
-2673 -2350 -4553 0
-3550 -3070 -2533 0
4083 -4518 183 0
4745 -4041 4552 0
-1997 4883 -423 0
2514 4939 950 0
1159 -709 -3388 0
3864 4158 -2842 0
-324 92 466 0
-3377 -891 637 0
-974 -2171 3855 0
2767 1345 2379 0
3964 2568 -1089 0
4380 3299 357 0
882 1279 1905 0
-160 3277 -2993 0
3100 -213 1385 0
1968 2040 4646 0
-4323 -4581 489 0
741 1466 -150 0
2444 -586 1081 0
-2852 -4415 -687 0
1478 1525 1854 0
-2766 4367 -4806 0
-4872 -3582 -534 0
-3739 -4631 -1735 0
2789 1825 -4485 0
1017 -1724 -2080 0
-2658 1750 3324 0
3964 -1908 2601 0
-992 -798 4719 0
1551 4251 -4167 0
2661 4787 -3966 0
1776 -4852 4938 0
1012 -1999 1616 0
-4033 -4580 1703 0
-257 652 1662 0
3073 3798 -2467 0
1383 -3216 -4964 0
-718 -30 -1105 0
-4513 2130 -799 0
3857 2058 -1029 0
2107 3902 4480 0
3348 915 799 0
2077 3886 -3355 0
-1807 -2477 -4757 0
3794 -4522 -4252 0
-766 2806 61 0
-4105 -1700 210 0
-3646 -4709 4895 0
3348 438 -382 0
-1092 -4912 -1936 0
-133 2983 -3478 0
3569 -2908 3965 0
4886 4381 -2461 0
4353 -4048 -4904 0
2173 -4630 -77 0
-1171 -1873 -4742 0
-4215 -346 -4064 0
1751 3272 -2185 0
-2008 -4007 3423 0
-817 4479 -975 0
4791 3239 -4708 0
-553 2091 3749 0
4051 4080 -3795 0
4818 -4825 -1506 0
-3296 -3660 376 0
4749 3449 -480 0
-1238 -2743 -752 0
-3656 -885 1764 0
4584 3540 4036 0
3386 -1632 2881 0
-1340 1617 3284 0
816 -76 -2827 0
-2941 3273 1462 0
-182 2927 1265 0
-1531 3966 -3280 0
-606 3764 -383 0
3556 -1757 -93 0
1607 -1823 1123 0
2287 -4139 2681 0
-4438 -2325 -342 0
2768 574 -3388 0
-3754 4922 1545 0
-1812 1475 1395 0
-3877 3020 -3519 0
-3257 3058 4691 0
1897 -1624 3585 0
216 -4648 -3947 0
-4355 2237 4445 0
2448 3996 3007 0
1593 -613 1019 0
-371 -390 4685 0
2815 -1920 1017 0
-955 1047 -4646 0
2821 1781 703 0
1173 -3773 2724 0
614 2843 1528 0
2958 897 -518 0
-1770 -4593 2897 0
-2263 -3024 -4333 0
-1562 -1447 -3028 0
3523 1435 -1234 0
2596 547 -202 0
1983 -639 -3252 0
2801 4965 -3122 0
4476 -897 -4666 0
-1247 -2801 -3469 0
3945 988 772 0
-166 -2806 601 0
-2924 244 4088 0
2164 1350 4895 0
1087 3330 -2384 0
-1365 -3099 1640 0
-881 -333 3973 0
-3246 4597 -2847 0
-438 -1751 1266 0
1730 1176 4931 0
-3758 4465 -1169 0
4130 -3803 -1818 0
-4777 1997 4053 0
1005 -62 4415 0
-1168 -1960 1003 0
-1829 -3395 -3842 0
-3533 1255 -2517 0
2510 74 1808 0
-2851 -1281 -2859 0
-89 -484 -1110 0
-4517 4016 2373 0
-2919 2302 -1586 0
3981 -2072 -3837 0
3014 1981 2424 0
3742 -2147 -788 0
190 4881 371 0
-511 -1166 -1365 0
-1638 -3284 3885 0
-3489 -1348 793 0
-436 3830 -3800 0
2649 3554 -2234 0
-406 -4045 -1045 0
1165 -2225 1277 0
4116 4136 -500 0
-4733 -997 1281 0
2414 -4501 -4844 0
3762 -2314 3 0
-3953 -1042 -827 0
208 -4140 4537 0
-263 2412 -4179 0
1932 -3244 -4895 0
3834 1233 -3492 0
3830 1996 373 0
-1294 2982 -617 0
2803 -3058 3033 0
39 1399 728 0
-4240 4869 3284 0
-1037 4203 -682 0
4248 -2174 -1053 0
158 -232 -983 0
-3099 419 544 0
-145 -493 -2128 0
2530 -389 -2326 0
-3091 -749 2608 0
522 3472 -4493 0
3847 -3001 4690 0
-3836 -4279 -2672 0
210 -4520 4414 0
3928 -1837 3367 0
3742 868 4419 0
-451 4442 -4661 0
3114 1296 631 0
4136 3074 -238 0
-353 2565 2032 0
-3412 -2687 -2036 0
-401 4603 -3736 0
3609 -2478 36 0
-3342 -1388 -2250 0
1402 -4028 4410 0
724 33 4989 0
3638 1917 2606 0
-3891 2649 -1030 0
-2621 2873 -2357 0
-4436 3977 -3320 0
4339 4139 4510 0
-3102 -2311 -3249 0
-253 -3181 -2509 0
-3946 4643 3553 0
1214 3471 -3662 0
677 587 -1269 0
-4733 -1735 4195 0
-3103 1013 3848 0
-4610 -3612 -3785 0
-4564 3411 1359 0
505 3066 1986 0
4768 3019 -4275 0
4385 4746 -606 0
-1092 3290 -4764 0
-2702 2004 4688 0
-4817 3336 -2096 0
-4145 -3269 1416 0
-3643 1474 -4544 0
-2568 3856 -1565 0
-1915 -3412 2905 0
-3860 4044 1155 0
-3404 -2742 1436 0
-1475 1121 3936 0
-578 3834 1946 0
-4551 -352 -604 0
2324 4186 -1492 0
362 -1185 3725 0
1998 3362 -14 0
-3179 -2298 3736 0
1431 -4549 -1762 0
4891 -3564 -2346 0
4468 -3791 -4368 0
1037 -3507 4438 0
4006 4537 527 0
-4880 757 -4806 0
-2454 -746 -2248 0
-4618 2356 -2412 0
1386 4789 -450 0
242 -1338 -2834 0
2751 -1724 454 0
385 -3804 1405 0
-4245 -3883 4815 0
-1531 -3145 -3132 0
1107 -3815 -2792 0
-1801 -3317 -3626 0
3990 -1209 2914 0
483 2737 1460 0
3990 2662 2899 0
-1807 4420 2878 0
-4089 929 1537 0
644 3515 -61 0
2864 4317 -4158 0
722 -4228 -3144 0
-4396 3606 4096 0
4571 3020 -1314 0
4282 2433 -2504 0
-1571 4438 3169 0
2626 1561 -1563 0
-306 -311 -2732 0
-4728 -1945 2429 0
371 -334 927 0
-3314 -2472 3284 0
2866 -4556 -1141 0
-4508 3857 582 0
-2226 -3565 978 0
4734 2179 -3723 0
779 -3167 2951 0
-4459 -433 1454 0
-171 1911 -1535 0
1005 -2100 3059 0
-3891 -2029 -2737 0
-1763 -89 4901 0
542 -3659 -2045 0
2188 -4845 1299 0
-3408 -2923 -4847 0
3951 -3568 -349 0
-2181 3644 -555 0
3970 -3478 68 0
-1034 4655 266 0
128 -1476 4295 0
730 1772 -2654 0
939 -1524 4846 0
-2325 1393 -2373 0
-4349 -3567 -3602 0
-654 2563 -159 0
-2409 -132 -1961 0
1491 228 1610 0
1982 -4227 -2093 0
-3841 -3062 -1769 0
-949 2156 -462 0
3701 3441 1531 0
-2580 -1209 -4171 0
955 -44 3580 0
2115 2007 4191 0
1353 1691 -4289 0
-1189 1086 2937 0
1397 -4955 -4752 0
-3665 -306 839 0
498 -1356 -927 0
-4499 -3689 -2947 0
-752 -1071 3161 0
-3228 -2765 3292 0
4884 -3400 -1747 0
869 3375 -2748 0
3305 -3535 2038 0
1214 -1614 -401 0
2606 -2197 -3615 0
-690 2774 -4465 0
-663 -138 2736 0
2712 -1406 -4850 0
2110 2088 2063 0
-3191 -2624 -417 0
3878 9 506 0
-4715 4070 4203 0
1214 3580 -2007 0
-2275 -4778 57 0
1560 77 -815 0
2675 -109 3865 0
3230 -297 1916 0
3074 -4999 -211 0
3311 3224 -4876 0
-2334 -4246 -4640 0
-4495 4119 -2360 0
-584 -3162 2432 0
-4 -271 -3147 0
2852 4934 -3299 0
-4682 4256 4716 0
-1641 -4519 2657 0
-1330 4015 1082 0
2568 40 -552 0
4944 -362 -1076 0
1193 -2806 -972 0
-2539 536 2482 0
-3746 -4324 1619 0
-2106 -3414 -4223 0
-139 1880 -2445 0
2609 4421 1557 0
-4873 2341 -4825 0
3603 -2566 -1649 0
4697 -1249 -2974 0
1030 -3164 2822 0
3809 -3934 1532 0
-2796 -4565 -2016 0
4424 2029 -961 0
-2931 -2878 3855 0
4151 -2622 -2748 0
-4107 4192 853 0
2631 676 -2130 0
-251 43 2400 0
-486 4803 945 0
-399 -4002 -906 0
2662 -1204 -1591 0
-989 -4153 -1123 0
3151 -772 251 0
-3206 1866 -254 0
670 2201 1591 0
921 1851 -2662 0
3842 4264 2943 0
-2407 -507 -894 0
-4216 1491 -4015 0
3510 -3381 3200 0
-369 -1275 -1469 0
-1782 -1811 1154 0
651 241 1313 0
3760 659 3739 0
-3283 -2081 -4206 0
-4976 -418 -1781 0
4055 -1683 2283 0
4991 -4935 -2444 0
301 302 2745 0
-772 791 -564 0
63 -1608 2565 0
-159 -4755 3318 0
-688 2334 3996 0
-4735 634 1366 0
75 2166 418 0
-768 -2282 -3437 0
-204 -3652 655 0
3400 2261 577 0
-889 2829 -119 0
-1181 2216 -3933 0
3666 9 3295 0
3012 -3722 -1292 0
4344 2772 -430 0
4313 -4719 2438 0
-3923 767 -496 0
439 -2561 -3553 0
-343 2162 2915 0
-4330 1593 3432 0
-1268 -3524 -15 0
3293 -4940 14 0
2646 -133 -4331 0
1514 3385 660 0
3470 -2290 1319 0
509 -493 778 0
-3201 2477 317 0
-3663 3043 4443 0
2791 -4250 2950 0
4159 3072 2313 0
4111 -4918 -1998 0
2159 -3022 2893 0
3958 4082 1592 0
-2194 -1084 1445 0
-1960 428 -3681 0
4525 -768 -1305 0
4619 145 3643 0
2974 875 2802 0
2879 2854 -4413 0
-2026 -3443 -3786 0
2568 -4776 -784 0
-2115 -3667 -4657 0
-4152 1863 -25 0
20 -2526 133 0
-2158 -1853 2154 0
-1362 -4874 3979 0
-3909 -3585 3494 0
-3882 3249 989 0
3425 99 -1784 0
-3524 -1674 1909 0
-3821 -3001 2967 0
-2763 -3395 -2977 0
-830 -645 -414 0
-2928 -126 -1857 0
-2809 -2921 -3412 0
-136 -2765 -309 0
4586 -1737 -4642 0
-2454 3189 1338 0
-4607 -2555 4906 0
-878 -1446 1918 0
767 -3437 2836 0
-2808 -489 -4524 0
4082 -1719 -2108 0
-2245 3419 4663 0
4804 2431 2067 0
953 3609 -517 0
-4578 4737 -3795 0
1926 492 3801 0
-3017 -539 3094 0
-2470 1140 -154 0
2584 -4925 1275 0
-2038 3545 1165 0
-3893 2760 -2969 0
-3006 3167 -3248 0
-447 -1976 3996 0
-4499 1919 3877 0
-3545 -1053 -3402 0
2974 1155 4064 0
-4816 -1245 -4707 0
2763 3488 -1872 0
-2261 1387 2329 0
-4007 -364 1325 0
-2623 3503 317 0
745 -2504 3118 0
1956 -674 -2340 0
-1510 766 -2084 0
908 -1228 -1818 0
965 -718 1793 0
-3591 970 -3251 0
-2089 -4895 -2674 0
-4883 4190 -637 0
547 -3900 851 0
4306 -2988 4866 0
-1813 454 -3282 0
-2852 2830 2658 0
-1619 1920 3603 0
-4762 -1566 -1540 0
2599 3407 -4591 0
99 977 4204 0
-4804 -1856 -4835 0
1422 598 2800 0
-1246 627 -774 0
-26 -2758 -4697 0
-3498 508 106 0
3354 512 -4455 0
-1808 2501 -4132 0
3781 1356 3186 0
2773 573 3721 0
1632 138 443 0
-1511 2241 4717 0
-595 -4551 4675 0
-4201 664 1843 0
1523 -1014 4356 0
2029 2206 -432 0
4901 3838 -3527 0
2267 -1142 1487 0
3562 1510 310 0
1931 -3762 -4762 0
2388 -492 -2698 0
-2090 866 -1645 0
2780 3626 2178 0
3831 -1060 -3881 0
-3333 -4587 -2732 0
-1110 -2796 -4686 0
-3397 -4661 1746 0
4534 4418 -1564 0
-2304 3356 -966 0
2050 2424 -2892 0
2992 3715 2636 0
1448 3984 -3672 0
-4909 2299 697 0
378 -4231 -197 0
4876 2012 469 0
-4397 -471 3653 0
3069 -1557 -4642 0
-3643 -4871 -4407 0
2456 2722 1211 0
-3319 -1369 -996 0
2070 -1754 -3174 0
-3784 4228 2135 0
-209 -4995 2692 0
-355 3922 3072 0
2744 4509 4839 0
-4146 -735 772 0
-2520 2137 4665 0
670 3887 -163 0
3886 -2000 377 0
-2271 -1012 3018 0
-4087 599 -2168 0
3282 -331 -2858 0
-987 1582 1178 0
2830 -4151 1204 0
2554 3584 -4280 0
-4986 1437 -606 0
1800 3721 2271 0
1600 313 -471 0
-998 1685 715 0
3980 -4753 -1965 0
3599 4030 -237 0
-2991 -1323 -3544 0
4065 -4244 -2827 0
-2305 -2260 4386 0
-1511 3411 250 0
2811 -1089 2546 0
-4622 -1603 -4207 0
-1868 -887 1633 0
1726 -3914 1052 0
-4471 -501 -4188 0
845 -985 -700 0
3606 -1299 2263 0
3200 -4867 -2971 0
881 -4050 -1351 0
3014 -3504 -3010 0
1386 -2735 4125 0
-4737 1595 1489 0
-1071 -3695 171 0
-3259 3052 2648 0
-2837 1960 469 0
543 -1169 -3574 0
-3459 -4987 4628 0
1166 2287 -2633 0
3719 -3962 804 0
-2506 362 3934 0
-1875 4581 3778 0
2719 -4809 -1866 0
3698 -932 -1552 0
1479 1030 -3108 0
1900 -4154 2865 0
-2648 2806 869 0
3799 4954 543 0
-2858 2887 4956 0
-4017 1391 1482 0
2566 4785 -2506 0
-1985 2502 -3809 0
1193 1535 3657 0
2211 -3789 -3969 0
-1631 68 692 0
-864 -4755 1045 0
4782 -4788 3711 0
-2660 -3506 3860 0
-2257 22 -2954 0
-4560 -1604 3348 0
3144 1135 -1763 0
-1643 3581 666 0
3159 -531 -1047 0
3740 1429 -2477 0
2480 3966 -157 0
2240 -880 3492 0
-4845 2873 2666 0
1044 1517 -1278 0
-64 4250 1631 0
4122 2982 2407 0
-3763 4714 -4596 0
195 -2539 -2844 0
956 -1349 482 0
699 4396 1848 0
-3531 3216 -1622 0
-190 4882 53 0
1908 -3622 3523 0
4316 -987 -459 0
-1040 -2325 3491 0
1902 4859 2665 0
-4083 3045 477 0
-4265 -4039 -429 0
-899 -3497 -3338 0
-1285 -1138 201 0
1991 -3515 -4525 0
785 -1441 4885 0
-1750 -163 2793 0
4280 -1540 3254 0
-2515 3808 4446 0
762 1286 150 0
4673 -3341 541 0
572 4979 -1409 0
-1627 196 171 0
-2950 519 322 0
-3154 1567 3826 0
1367 -1796 3196 0
56 4362 -537 0
-2580 72 -2033 0
-4595 -3385 4823 0
1712 2644 3299 0
1468 -1503 -3632 0
3706 -2914 1562 0
1079 103 -2142 0
-3501 1918 -3999 0
3252 -4731 -2121 0
-3263 -4357 -2613 0
-4537 -120 4423 0
-2387 435 3001 0
-2216 13 430 0
-4864 -2925 4581 0
-2497 4271 -2113 0
4283 3849 -403 0
763 4371 2259 0
-4112 3417 -4744 0
1013 -3001 -2956 0
-1529 2133 -4147 0
-2519 -6 -2118 0
-1297 -701 -535 0
-3966 620 -2260 0
2895 886 -2911 0
4879 -4114 3377 0
-1534 -577 -4268 0
2500 3018 4612 0
4287 -3538 444 0
-4593 3369 -3027 0
-4779 -4256 -1403 0
-4051 -2861 -4241 0
-1561 -2363 -932 0
-313 -1559 -551 0
-2234 -4799 418 0
3934 -1225 604 0
659 -2305 1448 0
4190 3867 -502 0
-4203 1546 -5 0
1112 -4507 2632 0
4817 4811 -831 0
4039 3586 -3319 0
1424 1353 2799 0
-4529 -2570 -4919 0
3629 1757 4818 0
1548 -4138 -1566 0
3868 -1630 1034 0
4502 -971 4730 0
4922 -1349 1935 0
-2977 4506 251 0
3205 1495 1 0
-4792 4230 -2549 0
1652 779 1450 0
434 4509 3876 0
1848 1594 2353 0
3721 1397 3755 0
255 3425 -2313 0
-2986 1116 3032 0
3493 -570 -4101 0
2492 1356 357 0
243 -4311 -3828 0
3938 2380 -777 0
-1812 931 -3866 0
1977 -3504 2374 0
205 -3668 -2672 0
-1861 296 7 0
-671 155 212 0
4166 326 -972 0
-145 -4927 -3670 0
-2318 -1291 -91 0
-4697 -583 1307 0
2403 -1922 -1174 0
-3709 3558 4920 0
-3474 -1672 -3023 0
3316 973 2298 0
-3140 -3760 4275 0
-3936 2275 -478 0
-4625 673 -815 0
-3688 2171 -3838 0
4588 -448 -4391 0
-3373 -3148 2677 0
188 -3202 1495 0
-3317 2114 -2662 0
-4531 1331 -1741 0
4290 4660 -1491 0
-2388 326 4843 0
-4215 -3593 4746 0
4451 1050 1004 0
-1555 -3381 -1841 0
1690 -4748 2729 0
4177 2823 -1485 0
-2163 4098 2522 0
217 466 -1545 0
1741 -3731 3693 0
2829 870 -3261 0
-2405 779 3057 0
-461 3930 -1075 0
-4143 481 3586 0
4996 924 -1211 0
-1543 1140 1615 0
4695 4096 -4701 0
4505 4757 785 0
-4938 -1941 2018 0
-3985 4496 3072 0
4334 749 249 0
-1493 -3301 -4604 0
-519 35 -1632 0
-521 -1402 -1639 0
214 4743 3516 0
-1758 -4448 4659 0
-402 32 -2896 0
1310 71 702 0
-4907 -158 -1042 0
3594 2885 -1115 0
-1377 4113 -2552 0
2325 -3967 -68 0
4680 160 -1987 0
-4050 -2006 3673 0
-1059 1422 -3895 0
-1197 6 4672 0
-1338 3122 -572 0
-3620 2076 4385 0
2087 -4060 -282 0
3181 3318 2168 0
-4048 544 -2012 0
-3454 -3043 -3022 0
-4026 -638 2160 0
-4833 -1207 -3079 0
4958 -937 -913 0
78 460 422 0
4541 -4655 1568 0
371 1239 3153 0
-1633 -3339 4123 0
1826 4140 1838 0
342 -391 -4944 0
-839 -4427 138 0
1833 1077 4356 0
25 377 -4625 0
4623 4373 163 0
-4152 -4880 440 0
-4719 -2051 1067 0
636 -2897 -4624 0
-515 -4260 672 0
-4716 721 -902 0
1360 448 2749 0
3261 147 3138 0
-3904 -856 -4929 0
3681 1072 4019 0
-3123 3260 4770 0
-4883 -4229 299 0
1311 -1058 -1922 0
4127 -2337 -4106 0
-3703 4468 2663 0
592 -2308 2370 0
4753 -1996 -2612 0
1410 -3198 -4483 0
4672 -2804 -4544 0
-1001 910 1037 0
4223 -1574 -2760 0
3867 229 -520 0
-1540 -1283 3424 0
3166 -3384 -3481 0
3820 -535 2796 0
-2241 3878 779 0
3754 -3452 -4913 0
3044 485 -4726 0
2408 4831 -599 0
-904 2932 -3744 0
-112 -4653 -1428 0
4779 -1990 2561 0
2610 -4428 4218 0
4550 3474 -2054 0
1985 261 -4875 0
1624 4078 1464 0
-841 -651 4318 0
3658 -4252 2204 0
449 560 3746 0
3891 -1346 -4057 0
4534 -4832 2368 0
2653 4779 -3306 0
4187 142 -3894 0
2375 2489 -1103 0
1899 -4405 -2595 0
-3509 -4809 -4623 0
4952 3641 1651 0
2808 4505 -401 0
626 278 593 0
3822 2109 -1442 0
-490 -4062 -1714 0
3886 -4602 2811 0
-34 4225 4359 0
4151 270 -523 0
-192 316 4817 0
-197 -1643 -1702 0
-3173 -3696 3355 0
-3735 -2452 479 0
4804 2911 -2876 0
-1780 732 -506 0
2586 1415 -2821 0
-1677 645 -437 0
-1497 3844 -2583 0
1832 -4023 -1019 0
-1514 3008 -989 0
1268 3023 -2059 0
3221 2873 -2408 0
-3141 -515 3840 0
898 2033 -3970 0
-277 -2395 -3749 0
-3646 2395 -4803 0
-3572 -4558 -1830 0
-2938 -1399 -714 0
2614 3452 3472 0
-4600 -600 3012 0
-3136 -2070 -232 0
-2506 -3107 -154 0
-4170 -3307 -4067 0
-4956 -141 -1627 0
2620 225 3879 0
3810 -1628 -2028 0
3202 -2877 -3231 0
-4768 576 -1104 0
3332 198 748 0
3503 3964 1962 0
1009 -1434 611 0
3209 -535 -2680 0
-1928 4248 3576 0
-523 -2512 1165 0
4701 -2716 775 0
1415 3669 3238 0
4791 3251 3105 0
-465 -3752 4068 0
4019 -2617 846 0
2366 4469 1406 0
-2490 4009 4317 0
-4734 2383 -3068 0
-3230 -4109 2608 0
1864 2119 -2709 0
-4919 2747 2448 0
3280 -1154 199 0
-740 3849 1672 0
649 -3484 -4975 0
3491 -3647 -3078 0
1618 1735 3260 0
4641 -653 -3344 0
1842 -4060 2010 0
-4501 -4395 427 0
-3970 -1725 3624 0
-2684 3748 3165 0
4273 -1366 1997 0
2783 1800 -126 0
-504 4441 -1065 0
4635 3590 -921 0
3615 477 4566 0
-3176 -106 353 0
-591 3077 4389 0
-648 4259 -2328 0
1796 -1501 2028 0
-2106 -3067 4673 0
1433 -1701 341 0
-3747 -4077 4544 0
3734 4574 4105 0
-791 -2686 -1707 0
156 -1759 4992 0
-4783 -1699 -1405 0
4519 -2798 -3577 0
350 -4507 809 0
3637 -630 -1489 0
-1558 2479 4857 0
-1324 2460 -1565 0
1971 4333 -4295 0
318 -4931 2308 0
198 -276 2407 0
-4018 2453 3945 0
-1224 2376 -3075 0
4636 4309 -985 0
1613 94 -925 0
-3749 240 2566 0
-3719 382 2619 0
-4704 -1004 1434 0
-1168 -136 -3766 0
-4399 697 2721 0
3409 -197 -3633 0
3746 -4029 53 0
-1409 4614 1506 0
-2028 -3412 3973 0
3901 -1578 -662 0
1395 1976 -4153 0
2306 -685 2717 0
-3245 1896 2344 0
-1877 3083 -516 0
3125 -1358 -2388 0
-233 683 -2121 0
-4157 3664 -1775 0
-278 3898 1839 0
-4944 4904 -760 0
-2359 817 2162 0
2006 -106 1991 0
4863 1153 3691 0
3934 -22 4359 0
-1240 3269 -3692 0
458 -494 1992 0
-3974 136 1222 0
-2647 3932 715 0
984 -4490 -3301 0
2617 -3937 249 0
-2256 -2485 -2897 0
-3113 -73 2293 0
3682 4722 -1586 0
1531 3135 2239 0
-3686 -4546 3424 0
4062 -2969 679 0
3344 3755 -3692 0
-2740 2982 -1411 0
-3335 1772 -328 0
1957 2321 406 0
-1011 -1833 -3296 0
-2694 1459 2381 0
-236 1127 -1992 0
1914 -1742 -4953 0
-144 3436 -4366 0
1911 1527 -4914 0
4976 -4165 -311 0
4579 -3708 -2 0
4820 -1567 1528 0
4369 -3477 2117 0
617 4734 2866 0
4019 13 -2651 0
2151 117 -4134 0
-1313 -1688 666 0
2620 2795 -3236 0
255 1853 -748 0
-2972 1780 -3915 0
-898 -163 -3304 0
-4738 -1584 4788 0
2776 1579 797 0
3407 2919 2430 0
2232 -1398 2198 0
-2757 -3772 -4115 0
-3712 2485 -1838 0
-1842 737 1719 0
1098 -1146 81 0
2900 1634 -4187 0
-821 2745 3108 0
-3089 2712 2064 0
2559 -541 -1430 0
3537 -4504 572 0
-1220 -730 -3338 0
1183 -4818 -4828 0
-3029 -1618 -1156 0
3514 1330 4901 0
-1594 1085 -360 0
1310 -3903 714 0
744 4398 3166 0
2841 2187 1559 0
4152 4522 -2770 0
3358 1359 -4767 0
-604 -3755 2033 0
-1802 -1660 -4107 0
-1739 -744 1458 0
-1501 1888 -836 0
2126 4950 3633 0
503 629 -926 0
-65 2441 3182 0
3264 3934 4680 0
-2797 -4558 -4839 0
-4372 4520 -2516 0
66 4996 -4047 0
765 -462 -423 0
4060 1625 -462 0
4941 1224 2226 0
-779 1684 2942 0
4545 -3202 2239 0
3005 1893 -1981 0
3291 -4544 4151 0
-4429 1200 3443 0
4169 570 1568 0
4921 -2699 -253 0
1108 -4820 -1380 0
-2414 3112 2698 0
4752 -171 -612 0
-2232 614 3125 0
471 -3187 -2752 0
-3712 3429 177 0
1688 4980 4049 0
3106 -2836 1393 0
-1421 -102 618 0
760 4522 2466 0
2558 1763 -4433 0
-384 -2623 -2502 0
-4645 -2027 -1946 0
-4410 2322 -1182 0
-1122 653 -189 0
-2538 4377 4569 0
1768 2726 308 0
-529 -779 3041 0
-4946 4302 3890 0
-921 3812 1900 0
1320 -3103 349 0
-1273 -1097 1356 0
-4750 2015 -4746 0
-1641 3949 -3556 0
-3366 2655 -4664 0
-3995 3135 -902 0
2930 2958 1396 0
4558 1105 434 0
-3850 -1367 -1595 0
-1671 3567 3957 0
2259 -873 1962 0
-918 4187 -1928 0
1094 1812 -1792 0
-1541 3282 -4860 0
2867 2885 -1666 0
-3124 -2091 -2444 0
3366 4011 -2866 0
2285 -607 3855 0
-1059 2145 -3060 0
2171 2540 -1486 0
1072 2106 2205 0
4237 -254 -4278 0
-1323 -1362 -1982 0
-288 1351 -315 0
-1236 2247 -2739 0
860 3637 157 0
-71 -285 -853 0
2591 -874 3142 0
-3214 2475 3278 0
1724 2471 3709 0
-2778 -1977 -2665 0
-2100 -4841 52 0
211 271 2867 0
3357 -1783 -3281 0
-3005 538 3518 0
2381 -1067 3023 0
4570 4700 -1313 0
2003 3479 505 0
1248 4402 -2088 0
3870 4630 -3054 0
3417 562 1400 0
-3664 -3836 807 0
1298 -4762 994 0
-1532 2193 -2690 0
-4547 -4015 -98 0
-3972 -3000 -3942 0
-1784 3487 -4753 0
2446 -1127 2127 0
-489 2523 2826 0
4687 -3634 4553 0
-3459 -566 4006 0
2999 1707 4485 0
1640 1061 -2784 0
1840 2093 1864 0
2452 2913 1579 0
-4632 3445 -1600 0
-2586 -4636 3287 0
731 -4119 962 0
1021 663 1243 0
-3323 -2096 2275 0
-3022 -4685 -2442 0
-1344 -798 1559 0
-2597 934 -2437 0
-3039 -393 -3878 0
-1152 2710 1737 0
1351 -3330 705 0
4875 -1145 4208 0
1164 4123 -3243 0
-2418 2955 4394 0
1014 2165 303 0
4566 2648 -4518 0
-4559 -4248 3918 0
1846 1644 -4656 0
3235 -2561 4873 0
-2327 180 1171 0
76 2683 -1050 0
4105 -3672 -855 0
1378 -4457 3425 0
-1984 -4044 4663 0
-3498 45 1125 0
-3664 1882 1826 0
1367 2413 -4833 0
-809 -3637 -1198 0
-4860 -3812 -845 0
3375 4660 2398 0
669 1087 4439 0
1596 -2327 -3240 0
-391 4212 3997 0
2547 -4936 3882 0
-1248 1968 -4138 0
683 -2499 -4336 0
-327 515 -4436 0
-1638 -2158 4067 0
-4762 4745 1452 0
-2359 2818 -1843 0
4786 -546 4544 0
-1735 4392 -2719 0
-4931 -2601 -2237 0
-2241 4521 -184 0
1270 1385 3987 0
534 -3215 2693 0
-2549 -215 3691 0
-2153 3734 3613 0
-2292 -1120 4500 0
1939 -4490 3641 0
4562 -3117 3186 0
1134 -786 6 0
-2924 -48 -4521 0
-929 -4423 919 0
3737 -4093 4633 0
-3348 2661 561 0
1303 1440 2669 0
2693 -4884 2274 0
-3117 3192 244 0
-1965 1784 -190 0
37 2080 -130 0
4351 -1141 3184 0
3084 -3971 2209 0
4964 1683 -514 0
4208 363 595 0
3099 -68 -1948 0
1496 -1936 -2793 0
962 2868 3015 0
2972 1135 -4144 0
3336 250 -4660 0
-2252 461 -3902 0
4580 -328 4377 0
4882 4563 -3882 0
1528 4250 602 0
188 -3704 3250 0
816 391 1274 0
-4337 -1536 2351 0
-1276 -1985 2106 0
-4256 -517 4342 0
4834 4154 102 0
2135 2508 4382 0
-4296 4279 -2038 0
4339 -2231 1757 0
-2272 -561 -393 0
3651 435 -3885 0
-674 1719 86 0
3483 830 -2255 0
1448 -4687 4163 0
-2137 4857 -2160 0
-3743 4102 4685 0
3530 -3701 -3469 0
4213 4011 2315 0
3072 -30 2289 0
-1039 3604 2574 0
-1225 -1420 1028 0
109 3514 -1135 0
1042 3481 1728 0
2123 -3692 2847 0
244 4461 1225 0
1025 1210 404 0
201 784 -3856 0
2073 -569 -987 0
3143 4498 4225 0
3442 4958 3361 0
1770 -1004 594 0
-2109 2112 3368 0
4069 4225 4089 0
2794 -234 1293 0
4825 -2621 -3915 0
129 3732 3003 0
3375 511 3489 0
3569 -3545 -4043 0
4424 3214 -1256 0
-3074 -3429 1996 0
-1086 -4740 -3068 0
1936 1094 2808 0
2295 -4643 -4165 0
-2089 1549 3686 0
3899 2353 1501 0
2548 2261 -1692 0
2557 446 4317 0
790 -2286 2381 0
4605 4277 -901 0
-671 4343 -4747 0
-4812 1820 -2939 0
-3213 437 -4202 0
-3858 -4113 1783 0
1968 3322 2997 0
-2761 -2978 4503 0
-4136 2940 773 0
1872 -4390 4574 0
-759 1705 -2959 0
-3858 -3336 -206 0
4216 -2327 -1704 0
742 806 800 0
99 244 2997 0
2905 1500 13 0
79 -2520 -4954 0
-1783 843 -632 0
2540 1909 -4664 0
-3879 -3174 1846 0
4383 -901 1895 0
-3562 3954 -1206 0
1078 475 4548 0
-1737 2012 -532 0
-3820 3873 4132 0
3102 578 -3464 0
-1056 -2215 -2595 0
4660 -1052 -3119 0
-4960 -4388 -3555 0
-3219 -418 -768 0
1196 -1630 1037 0
1770 3450 1755 0
-1661 254 2355 0
4808 4111 -691 0
1872 -4112 2988 0
803 3775 -72 0
4401 -3606 -2093 0
4771 4481 -2894 0
3287 107 1305 0
-3512 -2733 3923 0
-4645 -4999 4892 0
4276 -3648 -1673 0
435 985 -3085 0
-4825 -3445 2276 0
3345 3952 -3073 0
552 2428 -1070 0
466 1772 788 0
204 4469 4239 0
-4149 -3262 4818 0
3901 3153 -795 0
4288 3108 2799 0
365 -2149 -3984 0
4366 -754 1159 0
-3651 -1047 -95 0
4601 -895 -2933 0
1448 2954 1325 0
-4026 -4963 3961 0
-1651 3741 4760 0
4451 2320 3084 0
-1853 520 -2423 0
4182 912 -3017 0
3957 1743 2424 0
1835 1570 361 0
-2117 4641 -3209 0
-4532 -3493 4127 0
2608 2052 2662 0
3921 964 -894 0
-4599 -3271 4500 0
1051 -752 1282 0
-3380 3075 -2030 0
3123 -3563 -2607 0
-829 -9 1899 0
-2818 -4015 528 0
-4834 2873 -2098 0
3175 -4450 -809 0
-2424 -2131 -1274 0
-4109 -1760 -1259 0
1077 2187 1893 0
-3467 337 -2426 0
3023 -835 -2198 0
-1902 -887 -346 0
960 -4280 -4585 0
4095 -2496 -3082 0
-2738 3093 3320 0
-4674 4949 4354 0
2334 -2247 4919 0
-3657 3869 4152 0
-4519 -215 -3558 0
-4608 4906 -1 0
2012 4953 1367 0
-3537 -4231 4369 0
-2021 419 -4353 0
3017 -1048 -2531 0
-865 2759 -1476 0
-3978 1009 3205 0
2045 -2355 -4850 0
1055 -4013 2580 0
-1967 -3294 -2825 0
4511 4911 -3538 0
-356 1335 -2611 0
-4993 -381 -2654 0
2103 -3075 -2138 0
4853 -2715 4501 0
2879 1462 3984 0
-653 4216 -2470 0
-2844 537 -1089 0
-193 -3070 -2195 0
-795 716 -341 0
-3788 -4562 1456 0
-1817 -4652 4346 0
1218 4018 -4120 0
2726 4546 1396 0
-352 -75 -3158 0
2649 1283 -4100 0
-3383 -2137 2513 0
1141 -305 614 0
872 -3562 -140 0
1508 3696 -1905 0
2688 1170 4750 0
-2847 -590 3207 0
3946 4351 2769 0
528 385 -590 0
2310 1760 4884 0
3589 1721 -1904 0
-840 -2856 4464 0
4712 -1201 -1040 0
-3874 205 861 0
250 -2002 3738 0
3526 71 -1309 0
-3721 -3754 1047 0
2728 1990 -1916 0
-3605 -2378 -3040 0
-3674 -252 -4912 0
-702 1966 -1947 0
767 -4970 -2150 0
-3528 -4325 2307 0
3732 -3948 3335 0
2918 3571 -2845 0
2334 1254 -1276 0
-1390 3667 4513 0
3816 -1810 -229 0
2563 -3712 -2101 0
-4206 -1624 -4067 0
-1662 -2504 -632 0
1689 -4027 -419 0
-198 -4001 792 0
-466 4 -4751 0
-133 -4161 3883 0
-1776 3965 2807 0
-2730 -1239 4348 0
-2999 -1486 -517 0
1753 1673 252 0
-1327 -3769 3621 0
371 2293 -4203 0
1354 3109 -2710 0
-2838 2391 -1607 0
4878 3110 -2461 0
-4646 -4350 4871 0
-3006 -4210 -4211 0
2383 -284 -1887 0
-3084 -3271 -436 0
1852 -3465 4368 0
-3892 1480 1835 0
471 -3129 1128 0
-1606 2253 -4337 0
-4975 -3958 1075 0
1489 1659 -2673 0
2439 -4447 116 0
-2786 3181 1367 0
3758 -3908 3737 0
2773 4783 4302 0
-2788 3922 -1771 0
-4359 2032 3224 0
-1420 -264 990 0
1747 2334 1832 0
-3796 643 -1567 0
311 3218 307 0
-1651 -4243 -3384 0
1163 -4871 -2298 0
57 4474 -3642 0
491 840 -4727 0
-907 1529 3953 0
4382 1883 -2745 0
-55 -2372 969 0
4496 2477 4762 0
-1951 -1291 -3226 0
-2010 -4463 1484 0
-4022 2851 2878 0
-3364 1079 3387 0
2087 -4021 102 0
4012 -2688 966 0
-3595 -703 -4002 0
2188 -643 3606 0
-1678 707 2077 0
3283 -2887 1254 0
4662 4519 3082 0
2750 -423 -4336 0
4437 -3909 222 0
2230 -2976 -3950 0
-864 453 3375 0
-3993 3762 -635 0
-2347 -4834 3367 0
332 -4450 -4258 0
2886 -3317 1138 0
38 44 1043 0
-3402 -2922 2322 0
-2973 -2819 -2021 0
-2507 -1195 4818 0
-4592 -1915 254 0
2828 -3900 2703 0
-3171 2639 -3974 0
-1167 4918 3327 0
2054 4817 -626 0
-2718 3206 -4838 0
-127 4097 -3552 0
-1857 -4033 4984 0
3003 4784 -3599 0
-3519 -3822 1057 0
4789 -1922 4933 0
1142 -3559 -2264 0
-3065 357 1626 0
-944 -1086 -1395 0
-258 1660 4076 0
2233 -4824 -194 0
2085 -2147 -1497 0
-3393 -1929 2640 0
3460 716 -3228 0
-3809 -4183 216 0
2403 -3561 -2144 0
-1733 2409 2253 0
238 508 -4027 0
-3654 -726 2636 0
1154 -3505 4085 0
-4009 4718 2347 0
2250 -4780 667 0
2752 1623 -2103 0
3000 1698 2896 0
419 3359 -3264 0
-4732 2095 -297 0
3517 -1887 -417 0
-452 2175 -4723 0
3889 -899 -1970 0
-3200 -4222 -817 0
-2542 4967 282 0
-934 297 -1897 0
2680 -4803 -2573 0
-2609 -4956 -755 0
1313 4529 226 0
-3626 -4312 -3542 0
104 1916 -14 0
494 3427 -4951 0
-2879 22 -3854 0
3071 1248 -4226 0
-4605 -2532 1377 0
-3145 1518 -1038 0
4829 1380 2871 0
3097 -1448 4318 0
-2835 -1309 530 0
4387 4158 3037 0
3694 496 4710 0
1964 3634 -632 0
3322 -649 -1103 0
-3420 -1673 -4035 0
3312 -1015 -1475 0
-3741 1961 4900 0
-3021 -3801 1020 0
4673 -993 3186 0
1662 526 2932 0
-4028 -3756 396 0
4263 -2706 181 0
2102 1291 2587 0
-4702 -3643 618 0
3448 -637 2439 0
-4068 4038 -4481 0
-2309 -19 4114 0
-4690 697 -4656 0
-2672 -3742 1102 0
3817 413 4693 0
1440 2498 -1077 0
-2039 966 4250 0
-2765 599 4655 0
-3248 2010 -4662 0
4251 -3435 4323 0
-3488 -3686 -4197 0
-2767 -454 -2331 0
-519 213 -4521 0
-1912 881 -2611 0
2024 -1052 3083 0
3587 4420 307 0
388 4408 3266 0
-1522 4015 1774 0
-734 3707 -343 0
524 1630 1260 0
3644 -2779 -3198 0
-782 -1847 4279 0
-3254 633 234 0
785 1482 4883 0
4410 -1529 4674 0
4739 -3555 -1663 0
4489 3707 -279 0
2191 1570 4526 0
1092 855 4615 0
-2456 2099 4228 0
-770 -4348 2265 0
3522 3490 -3257 0
-528 -2430 872 0
-3153 -2880 2850 0
183 -4893 -4915 0
-4811 -3092 1010 0
3854 -377 222 0
4959 -2897 -2445 0
-2409 -347 -4487 0
-4837 -1237 773 0
1417 3329 118 0
-3599 582 -1456 0
-4031 -2519 -207 0
4641 -1915 3041 0
4288 -3229 -1239 0
-1496 2832 222 0
1142 -1726 2583 0
4253 -3137 3129 0
1685 -321 1522 0
241 -2819 -459 0
2724 -3419 240 0
3433 4261 -3908 0
-3572 2064 4712 0
357 -3799 -4054 0
-3910 -1309 -3076 0
-1940 -854 -148 0
1615 -346 -4476 0
1480 -227 -2631 0
-1838 3254 -1357 0
-2641 4216 -1594 0
2070 75 -4423 0
-3408 -1107 2880 0
-4342 -2427 196 0
4693 -4928 -1806 0
-2983 -1036 -1342 0
666 -1086 -108 0
-792 4300 4262 0
91 -1940 -2415 0
-2865 118 -1484 0
-1033 1981 -2368 0
-2686 757 -2813 0
-1436 -4508 2084 0
1092 -940 3319 0
-3157 -1602 -2473 0
-1153 771 -443 0
3900 -125 2550 0
3984 4902 -3179 0
2556 2338 3487 0
-419 2124 3255 0
-3320 -4947 -4345 0
1137 3399 -4390 0
4121 -3541 1643 0
4210 3653 -2613 0
-3640 -4100 -2351 0
-1290 1858 -2278 0
696 3650 4361 0
-4087 -564 -1283 0
-3267 1500 137 0
-2865 1667 -3981 0
3343 -2094 -4339 0
-4180 -3088 -3774 0
527 3079 4782 0
4297 1132 -3475 0
-698 4694 -4207 0
4654 -1367 -2660 0
3328 4257 2817 0
3106 4380 4020 0
-4451 4354 2003 0
-3210 -2934 383 0
551 -2571 4989 0
3351 -1185 3724 0
1816 -1819 1601 0
-688 -1920 -261 0
-3599 2111 -838 0
-72 2590 3709 0
-105 -1603 -1726 0
-4815 2944 -1512 0
-1943 -4488 1352 0
-101 -4810 -3785 0
1522 1683 292 0
-413 -4275 -3135 0
1842 -3057 -577 0
1296 1677 3068 0
-4817 -2002 4076 0
-1758 -228 2327 0
2188 2720 -4967 0
-3485 3551 -3211 0
-764 1476 3671 0
-4275 1666 1902 0
-482 -3294 -3040 0
-2844 325 -4165 0
-1579 -1915 -3239 0
-3625 -1253 3090 0
361 1494 -885 0
-4012 3842 2546 0
2885 4473 -4787 0
-3108 3576 -467 0
1392 -1145 3612 0
3955 -3650 4608 0
1817 -192 485 0
3417 967 3482 0
4964 554 -2286 0
384 -1821 -226 0
-322 -4905 -4953 0
-271 -4955 732 0
-1815 2045 1916 0
-3818 -3115 4056 0
-3877 -1753 4574 0
-293 3994 3250 0
-4685 -2983 -3963 0
683 3881 719 0
3408 414 -1437 0
1716 2784 2999 0
3226 -4 315 0
-278 4447 563 0
-2604 384 -1366 0
-4166 2135 -382 0
-2849 -955 3721 0
-3176 -2833 -538 0
-142 -1365 -4673 0
93 -874 -2960 0
-3824 454 2426 0
3151 308 4226 0
1750 -1742 26 0
-3358 -3257 1949 0
-466 3091 -4102 0
-2381 1010 -3124 0
-3061 -4503 4350 0
-1118 -4079 -315 0
4690 -151 -1834 0
280 1998 2731 0
1335 1739 3574 0
90 1758 -4074 0
1487 -1191 -731 0
3243 86 147 0
-3595 -4120 -2326 0
4701 2868 -1519 0
817 1780 -1848 0
-34 1391 2720 0
3522 -2435 -408 0
4592 -4909 -2421 0
-137 -3098 2082 0
-2241 -2019 4810 0
3170 3253 -57 0
-2675 -1077 2227 0
4528 -39 3149 0
-3869 796 4801 0
-2468 -4992 1358 0
4668 2711 -4610 0
3894 -3499 2224 0
-4052 -2937 -462 0
-2171 -2763 -2235 0
3279 -636 -2156 0
-811 -149 -2467 0
4682 3041 -1465 0
-1996 -3627 2084 0
-398 -571 1330 0
314 -2218 3863 0
1189 1708 -4317 0
461 2568 -4027 0
3103 223 3643 0
2073 901 325 0
2413 -4272 3327 0
-537 1258 4242 0
-1616 -1862 1323 0
1713 -1268 -1586 0
-136 3869 -1874 0
-3367 -1621 1319 0
1346 -1065 2558 0
-2318 2410 54 0
2325 243 -4715 0
-809 4457 4891 0
-4748 4506 208 0
3702 -1295 -1124 0
244 -4573 1869 0
538 4587 1782 0
-1108 3586 2654 0
504 4512 -2073 0
3234 -781 -3874 0
3324 -2453 3579 0
118 -3457 427 0
-2069 2900 2070 0
-2357 1244 -879 0
2578 -672 -445 0
2280 -4469 -2419 0
-174 -1636 -2470 0
-1265 -3235 1006 0
3808 4185 3310 0
-4707 4620 -1831 0
-697 -4608 -4225 0
-3960 -4040 -3513 0
-1672 -876 -2427 0
-2417 -1116 1098 0
-4228 -2708 -3542 0
-357 3213 -2226 0
392 -1028 -4652 0
-657 563 -980 0
931 -377 4312 0
-1673 -727 -2078 0
4416 -3902 -855 0
774 1499 2275 0
1956 -228 4385 0
-4176 1198 4568 0
-2257 -4872 4712 0
4814 1035 -4521 0
-3744 2255 -3617 0
-1034 -3361 2576 0
3090 1090 -44 0
-2600 4654 934 0
-2345 3709 -3300 0
2850 -3193 1388 0
610 2496 4483 0
-640 -761 3025 0
-1513 4097 -1936 0
-2974 3474 -400 0
3018 386 226 0
2196 -1357 -3024 0
-1304 2245 -872 0
-4985 585 -3393 0
1183 605 -3224 0
-998 3149 1034 0
3494 1167 -2592 0
3310 1794 76 0
3167 -775 3890 0
-3695 -1767 321 0
-1940 2155 4925 0
-1009 -2888 -3995 0
216 2789 -2481 0
2767 285 -2955 0
-2887 -1965 4929 0
-3779 -4788 -3628 0
-3628 -2820 4722 0
-1539 4114 -1905 0
797 3836 3196 0
209 -4356 -4066 0
3558 -785 1654 0
4737 -4248 -865 0
-3561 2197 1888 0
-2298 858 3909 0
1219 4521 -1551 0
-4563 54 2557 0
2307 -1745 -409 0
101 1236 2425 0
-4891 -2271 4649 0
-2304 814 1439 0
-3329 4999 -2765 0
-869 -3714 4695 0
1938 1233 -1224 0
3743 -4859 3690 0
-3735 -2929 -4972 0
-4670 -1805 -1972 0
2923 692 634 0
1898 -4718 2102 0
-1984 -312 -3115 0
-2081 -4110 -3959 0
322 743 -2896 0
781 93 632 0
3288 -3535 737 0
384 3946 2220 0
303 372 3269 0
4167 2096 760 0
-4055 1185 -1177 0
-1984 3597 -4467 0
-4424 3322 -2969 0
4065 -2063 -1576 0
-2490 1687 -3625 0
976 610 265 0
-4393 -262 -685 0
434 2219 -4309 0
739 -4147 70 0
-3495 4737 -4112 0
-2731 -4873 -4324 0
-3451 229 3666 0
-2886 -3681 -4036 0
-2447 4514 467 0
-3833 -2553 -820 0
1972 -1491 -102 0
-626 3475 -4 0
-3177 3139 -2819 0
2029 -3569 3222 0
4686 184 1601 0
3436 -2747 1788 0
3070 -2172 -2168 0
2733 -3354 -4326 0
-1399 -2757 1959 0
3888 3848 -952 0
-2135 2525 3220 0
3734 -4769 -1660 0
-2097 3347 2641 0
-3212 3342 -2778 0
-1438 -1500 35 0
-2110 -2155 -799 0
-4495 -1910 -343 0
-3286 3682 1283 0
-3148 -4109 4390 0
-91 2600 -2190 0
-996 4527 2604 0
-2448 -364 1515 0
-3849 242 -4520 0
-2490 -2421 -3019 0
2771 -1655 -2925 0
411 -274 2342 0
-2003 -1821 -2198 0
4962 -511 1118 0
-2487 3084 -2405 0
-4159 -551 1737 0
-2915 -3898 -826 0
2372 2913 3137 0
3241 -777 -3162 0
-939 -541 4999 0
-2607 2399 796 0
-3051 2185 -346 0
-1130 -3429 -481 0
-3580 -2747 787 0
3962 452 1746 0
-1400 2734 481 0
-2182 4111 4091 0
741 -2160 -1374 0
2882 4811 -2412 0
-3819 -1265 3682 0
-1216 -3762 2134 0
3138 -3066 3731 0
-1322 -691 -4044 0
813 3637 3592 0
2519 -2094 395 0
4452 4788 -1313 0
2069 -4590 3987 0
24 2493 3783 0
672 1503 1861 0
-4668 -4373 2058 0
3776 -4268 4775 0
-4929 1518 -3629 0
4725 -2913 1607 0
4658 1573 4641 0
-1953 2367 -1763 0
-1466 -4132 -2443 0
3960 -1820 678 0
-1655 -3684 -1696 0
-1201 -2728 119 0
3144 2600 4500 0
-3687 3139 4843 0
4559 -2845 2535 0
2947 -2348 -2580 0
4786 -4959 -3290 0
1684 -4468 2433 0
1810 4497 -2739 0
-2626 2878 3605 0
-1095 4181 -4811 0
-2149 -4643 -140 0
-1711 -265 -4437 0
-4898 1357 4806 0
3543 3084 3135 0
4495 -4013 4237 0
-1913 -4532 2341 0
-2785 -2360 2147 0
-3714 -1074 -243 0
-1030 -3944 2860 0
-4553 4353 -501 0
-3612 -2705 3363 0
2606 -4878 -4277 0
348 -1333 -4702 0
-2701 -856 -1470 0
-1921 -140 1279 0
-1233 -323 1535 0
3174 4605 -3273 0
-3831 4993 2281 0
4506 -1315 850 0
4484 4155 505 0
3210 1463 2109 0
700 -2216 4628 0
3229 -1061 3701 0
-954 4062 4471 0
-3478 -1833 4208 0
300 -4623 3338 0
4428 -3598 -1043 0
-3394 3418 126 0
3837 4338 161 0
-3505 3061 2309 0
-529 4164 4335 0
2656 451 -1627 0
-3411 4984 -4243 0
922 4682 4800 0
262 -421 3415 0
570 743 -2467 0
-15 -581 -1532 0
204 -719 1595 0
-3500 1607 1429 0
-4880 -3283 -1512 0
2859 -1565 -2911 0
55 3868 -941 0
-2339 -3649 1088 0
1719 -3846 -2926 0
4065 1153 3634 0
-4675 4785 -992 0
2199 3568 -3940 0
916 -1776 3399 0
-2424 4115 -3449 0
-811 3082 4926 0
1158 -3510 3738 0
2488 657 3274 0
-4433 2768 -1494 0
839 -2438 -4650 0
869 -201 -1815 0
2656 -3151 -304 0
4941 -4315 -3900 0
2925 3355 2601 0
4553 -2386 2999 0
1126 -3895 4146 0
-751 1645 1200 0
-4135 -1652 652 0
-3912 66 4200 0
2708 -2369 -2764 0
-1658 -2995 -4872 0
1897 -2850 607 0
791 4924 -1831 0
-3894 4417 -275 0
1561 -3823 -1509 0
-1722 -1866 -4921 0
-4395 2041 -2521 0
-4280 -4464 -2842 0
-885 1919 -4174 0
4236 2673 2861 0
-3077 482 -2897 0
1691 -3922 -2522 0
-1203 1891 952 0
-4031 -1482 -793 0
1556 -2741 3345 0
4521 3849 4585 0
2955 -2764 -225 0
1425 434 1674 0
3967 -1807 -892 0
101 660 2570 0
4629 -3544 247 0
4660 -3753 490 0
-4150 15 -415 0
4475 804 -3808 0
-4 -2137 -4441 0
-2352 610 4168 0
-2633 -4753 -4006 0
273 -1995 227 0
2838 1048 -1436 0
-4813 -771 -2518 0
3420 -2833 -4610 0
1378 4997 3394 0
622 937 2703 0
-817 -981 -3777 0
1902 670 -4725 0
3112 -1054 -2057 0
121 -3844 -1987 0
577 -1395 3227 0
-1191 1721 2457 0
-3904 -3214 802 0
4716 -2478 -2251 0
-2379 -341 -430 0
1772 -4182 3116 0
4435 2220 3619 0
2292 1272 1498 0
-3424 4508 1752 0
1365 -1916 2132 0
1148 -1277 -4847 0
3345 4274 -3998 0
2126 2058 -3634 0
3876 882 2418 0
1841 3590 4899 0
-4036 661 -1249 0
-789 3247 -2203 0
-4790 -4550 2227 0
-521 1108 -1170 0
-3180 1291 2408 0
-3406 -2239 -2750 0
-3696 -3060 -1049 0
-68 -2823 4903 0
893 -3141 -288 0
2927 1832 2665 0
-2076 4126 4771 0
-274 -2095 2514 0
145 -2610 3731 0
2527 824 4984 0
-857 4883 -1801 0
2969 3550 4198 0
751 3327 3356 0
285 186 2972 0
4569 936 3992 0
1554 -467 3231 0
-2416 -732 -1554 0
1556 -2439 -779 0
-2759 -1186 3732 0
-2931 3922 674 0
-4297 4581 -202 0
-51 -1773 1054 0
-1599 -1269 -410 0
181 -1811 244 0
387 3888 -1313 0
-1287 -3086 -2805 0
730 -3418 -4822 0
-3185 363 1877 0
2037 -720 769 0
2833 3378 4711 0
3454 -901 4653 0
4905 -1098 1473 0
1485 4956 3352 0
4632 -1256 -2718 0
-3153 1557 4837 0
4736 4369 173 0
-1099 -2117 -131 0
1044 2948 3890 0
3171 -2942 1759 0
3903 50 -3016 0
4288 -730 3781 0
1327 1413 390 0
2358 76 142 0
4487 -3978 2936 0
4154 -1691 4435 0
4785 1443 449 0
4278 -965 4939 0
-2900 -3763 -3111 0
2287 3067 750 0
937 3197 1643 0
1665 3972 -60 0
2050 -105 2155 0
3842 2169 -3608 0
4370 1165 -4274 0
1101 -3540 1613 0
-156 1729 -4043 0
4609 -2304 588 0
3958 -3120 -3774 0
3427 483 -1586 0
3807 1533 -3724 0
4575 -4333 -441 0
2761 -1302 -3436 0
-310 1929 -2578 0
-4979 2895 4872 0
1944 -3741 -4055 0
131 522 461 0
1856 4063 4290 0
-1892 1364 -2567 0
1359 -3949 4733 0
79 -4062 -2912 0
789 4869 763 0
390 -3530 -351 0
4673 4760 -4251 0
3094 1724 399 0
1150 3505 726 0
4273 480 1780 0
771 -995 -4468 0
-2888 -4670 -3878 0
-2365 3548 2579 0
4871 -3762 2174 0
-4848 1813 -1362 0
4906 2387 2101 0
1793 -3665 435 0
-3223 2511 4206 0
-4745 3938 -1289 0
2380 -2722 -478 0
2496 -1360 -3557 0
-3925 -1771 1510 0
-576 -3455 39 0
709 -4543 1036 0
1227 4133 -3981 0
1944 -4838 932 0
2544 -2919 -2344 0
-526 1064 631 0
2068 -3516 3218 0
-4984 3655 -4237 0
-547 -1052 -1203 0
-4909 2315 4712 0
2324 -2858 -3005 0
4157 -2574 -2896 0
-2902 -1292 -3092 0
3713 -1759 -1443 0
-44 4991 454 0
-817 4038 -3294 0
439 1559 1478 0
3904 -4734 4329 0
4529 2713 -3201 0
-4170 -3722 754 0
2254 2844 1011 0
4004 2516 -1597 0
3193 3201 -205 0
-794 3963 4734 0
1427 4765 1917 0
462 -3118 1256 0
4201 413 -4319 0
-2145 -1221 3039 0
-2705 -2681 557 0
2567 -3800 4629 0
2007 2979 -2335 0
2349 -4363 812 0
-3794 1719 -154 0
-2384 4013 459 0
2475 -792 -2444 0
4822 838 -1984 0
1495 195 -2160 0
4279 2932 -3426 0
-2035 -3146 -3238 0
-1337 549 -2998 0
-680 -578 -2912 0
-2745 4217 -2622 0
-4720 -2104 -2681 0
1554 2085 -4034 0
3714 623 3264 0
1462 -886 4540 0
-1226 986 4931 0
1879 -2039 4456 0
-4044 4837 3978 0
3977 1885 718 0
-3617 31 -3672 0
1149 -3808 305 0
4172 -545 -3093 0
176 -2060 1723 0
1021 977 2074 0
94 -4408 -324 0
-4177 1391 -1935 0
-2673 -1304 -4316 0
-3221 4467 1125 0
948 965 -4567 0
-543 -63 -393 0
-1768 -4976 -1684 0
1111 -2649 -351 0
1486 -635 2646 0
2310 -1600 2969 0
4529 2278 -3785 0
3092 3913 -4604 0
124 -2278 2981 0
-4586 2244 972 0
903 -3625 1241 0
-4649 3805 4340 0
3913 -1651 -4711 0
1422 90 4251 0
-4317 2893 719 0
-4354 3150 -4348 0
-506 -2851 4213 0
4660 4785 3912 0
233 3216 -1589 0
-2591 -2607 -2187 0
-3761 1138 4748 0
869 3682 4316 0
1763 -2231 -3222 0
4712 -1535 466 0
770 -4244 -2866 0
4933 3754 4219 0
-1720 -1919 -2792 0
-3116 1013 2851 0
-4418 -4269 812 0
2862 1485 2503 0
970 474 -1607 0
-1213 2672 1675 0
-2426 -2594 791 0
-2215 -2626 -2951 0
4101 1447 559 0
-3031 2424 2014 0
-57 2009 495 0
4848 -2475 -1678 0
1568 2742 -1587 0
2725 -636 1582 0
-3902 -3955 -2651 0
1209 -377 3027 0
3378 -4792 165 0
-1462 4809 -1690 0
3578 -2674 -3639 0
2663 -4510 -4719 0
-1419 4992 -668 0
-819 3467 1403 0
-275 1816 868 0
2786 -1780 1878 0
2851 4332 -1758 0
-3538 4599 4288 0
3118 1363 -4971 0
-3371 -3003 -1207 0
-3288 4480 -2171 0
-4142 -3653 -939 0
2414 -2951 1281 0
1455 -2208 -4885 0
3061 912 -1180 0
1799 -722 306 0
-3058 3281 -718 0
3142 -1295 -1269 0
-1531 -3819 206 0
4982 -1844 -3850 0
-2457 -3113 3731 0
3173 2038 -2017 0
-4228 -805 3253 0
3170 -102 2928 0
-22 -3087 -3469 0
-1050 -697 -670 0
-958 578 2250 0
4241 2768 -447 0
-1011 725 -2751 0
614 -3091 -3007 0
4990 -1372 -2972 0
4931 2921 1673 0
3807 -4506 3587 0
-418 247 -2752 0
767 -4921 2492 0
4827 -579 -2438 0
-3823 2704 -4031 0
-2109 -2395 -1277 0
2375 -1801 1710 0
848 -1726 4142 0
-2853 3439 3301 0
2725 38 -941 0
3718 319 3360 0
330 2282 3324 0
3081 129 1221 0
-2549 3748 3719 0
-806 -4955 -3830 0
-3705 3470 -120 0
4641 -2857 -4133 0
-1009 2694 374 0
332 1388 3051 0
1072 -3331 -3183 0
2752 -3786 2741 0
1846 -3106 2053 0
-450 -3142 -3456 0
1686 1101 4927 0
1278 -3803 673 0
3061 2801 944 0
-490 -2516 3074 0
-3283 3543 91 0
-3606 3962 -91 0
4978 -4899 3869 0
3486 -422 1025 0
-2528 142 -757 0
-3765 -844 1909 0
-4511 4776 3987 0
3676 1691 3092 0
1597 4645 2030 0
4471 2196 3545 0
4395 -1265 2959 0
-652 -1943 -124 0
-4866 -789 4119 0
1217 765 -3423 0
2019 3282 917 0
-1488 3365 1996 0
-4342 -902 2817 0
1604 -565 873 0
-2792 -465 -4969 0
2015 1606 2159 0
-594 -3803 2455 0
-4154 -382 -4307 0
2775 -1631 3462 0
-2100 -1160 1314 0
-2514 941 3316 0
3345 2341 4786 0
-1278 4481 -3834 0
577 -533 -1525 0
-1844 944 -2729 0
4954 2467 627 0
1967 1043 -2550 0
1722 4536 -2995 0
1394 -2539 -2858 0
-4426 -2179 3866 0
3613 697 3265 0
-566 2632 365 0
3002 1316 1159 0
-1069 -4030 -942 0
-3822 720 -3362 0
-3705 3597 2020 0
-2796 3569 -254 0
1367 36 -4042 0
-193 2556 -1468 0
-4462 3442 -3738 0
4927 465 4885 0
3768 2996 868 0
-3231 4094 -2243 0
4930 3160 -2718 0
1044 -11 -4830 0
-1114 -671 2553 0
4371 2163 1863 0
359 -2658 -4330 0
2084 -4575 -4168 0
3210 -3785 -229 0
2245 -1115 -3256 0
-1021 2772 10 0
-2716 -3867 4513 0
938 -1211 -2196 0
-328 -1494 4172 0
4074 -3958 -4907 0
-218 -2356 624 0
-553 -1244 -2022 0
-619 4 -4003 0
-3166 3018 3728 0
-2764 1855 -1518 0
-2511 -510 4472 0
1128 -1661 3985 0
2112 3571 3203 0
-1003 1904 -140 0
-99 -3395 -4224 0
-1825 434 -422 0
144 -938 -1441 0
3362 3776 3590 0
1138 1287 -985 0
2571 4079 4705 0
4999 -1497 899 0
-1074 -4638 2296 0
-2808 2400 150 0
4741 4168 -789 0
2947 -763 -4400 0
-3228 1371 3403 0
238 4124 -64 0
4701 -763 2488 0
3686 -111 -1598 0
-2463 1477 4246 0
-4294 4051 -937 0
4988 -191 82 0
-2858 3675 1118 0
261 2623 2691 0
-3301 1887 294 0
-680 387 2080 0
2488 -2269 1244 0
1716 445 2315 0
-4188 1623 3207 0
2463 2487 285 0
-1096 1604 -458 0
2781 1091 -348 0
-2778 -560 3597 0
-3928 -2102 -4577 0
-764 -803 -2909 0
-3601 3826 4710 0
-1874 4575 2240 0
1397 -1373 -3404 0
-1170 -1587 45 0
1910 1098 3161 0
-3359 3851 2820 0
2533 -109 -2149 0
-4862 -3417 2962 0
2166 1578 790 0
1857 1038 -1055 0
-1477 1623 1222 0
915 -3100 -3360 0
-2710 2834 1717 0
-1521 3313 -3380 0
-4088 4103 2876 0
1069 2105 4914 0
4479 248 1825 0
2269 -2483 493 0
-4224 377 -708 0
-3859 3196 -1462 0
2358 1517 -3784 0
-3751 -49 4489 0
-263 -2205 -2708 0
3763 -2307 3902 0
1614 3269 -1570 0
-4619 -12 2443 0
-975 1717 -1949 0
1300 -434 -4100 0
-2075 4223 -3648 0
1028 4631 -3228 0
-1386 4118 -4671 0
-3143 -2707 3254 0
-744 1894 -4426 0
-3356 713 4364 0
837 4072 -1744 0
648 3117 1916 0
-4288 371 -2725 0
-803 -989 2371 0
2649 -3759 -832 0
-4679 3860 4533 0
692 -295 3411 0
-4598 -4558 -3428 0
1384 522 2540 0
756 3013 -247 0
-419 -4400 -1489 0
325 -4550 -4273 0
-1509 449 -2087 0
-4158 -2511 3020 0
1957 4226 4895 0
4473 -3213 192 0
-1616 3161 4402 0
-167 328 -2536 0
1607 4695 2331 0
-2204 9 -126 0
311 2214 -2733 0
-3780 877 -47 0
2106 -3728 -4602 0
-2471 4053 -1187 0
-3969 1313 -966 0
-4091 -2805 2787 0
4359 4242 1211 0
-4696 -4327 -1775 0
-3477 2476 3941 0
-4199 4123 1684 0
2694 -37 -4837 0
600 -148 4087 0
4216 828 2239 0
-3491 -2244 1875 0
-4792 844 2910 0
802 -3717 -3191 0
156 1854 1658 0
893 -4730 -1999 0
1738 -3206 4728 0
-4229 -3139 895 0
-177 -2978 -3019 0
4844 2136 1661 0
-3760 475 1609 0
-689 2426 -42 0
4676 2905 1027 0
876 2083 -2159 0
-2170 -767 -3092 0
1474 -814 -1697 0
2200 1050 -943 0
4034 -1126 -1954 0
-3590 1604 3057 0
4515 -3831 2171 0
4709 -2560 -3096 0
273 1648 1604 0
3798 2286 3600 0
-605 920 -1180 0
4626 3096 4535 0
4722 -1526 206 0
-1113 1177 -3964 0
3110 4983 -1392 0
-3611 2423 2870 0
1078 -4712 -212 0
-99 -1749 -1837 0
-2152 -3475 3699 0
-2851 -2124 -1725 0
3654 -723 2837 0
4372 1928 4780 0
2762 2814 3894 0
2835 -2740 -2326 0
4117 -4578 3967 0
2268 2248 -2 0
-1492 2800 -3748 0
4098 -960 1507 0
-4628 448 318 0
652 3589 -3850 0
-2403 2072 -3283 0
1680 3938 4382 0
4667 1217 -4229 0
1256 -2946 -3642 0
-2763 -116 -3162 0
-3804 455 3621 0
-3725 -516 2080 0
-2431 3077 1729 0
2657 -257 -2946 0
-1317 -2817 4738 0
-2777 3636 -3440 0
1851 1546 465 0
-3472 -1442 -3630 0
4639 -4866 1494 0
2700 1346 -2559 0
-1145 -3769 942 0
-935 -2534 4924 0
-3660 3921 3923 0
4392 1137 -3240 0
1565 -3194 4494 0
4172 2184 4541 0
462 2798 2285 0
4548 204 663 0
109 4900 -39 0
1024 2175 1378 0
-1895 -4339 681 0
4376 1502 -3354 0
-3333 23 -409 0
3095 4097 2783 0
2194 2516 4335 0
2806 -649 -289 0
-4129 1547 -3733 0
-3492 -4536 3786 0
1924 635 651 0
-1589 -1804 -1101 0
1716 -3148 -3296 0
-506 -3206 -3159 0
-2733 57 -3760 0
258 -840 -4207 0
3227 -52 -2898 0
-4952 -1795 2938 0
-83 3125 -1458 0
2347 937 -1536 0
2106 3856 3478 0
3202 -1986 213 0
-1345 -3582 -1125 0
-4561 3370 -2572 0
140 -486 -1018 0
-1959 -298 879 0
-3597 142 3362 0
-3501 -3479 717 0
403 -3496 -3709 0
-1905 -1798 -3878 0
-31 -3583 -3303 0
-386 -4622 3276 0
-4472 3065 2372 0
-293 473 2775 0
3389 4178 -4854 0
3162 359 344 0
-733 2341 365 0
-783 -4361 -4510 0
3403 -2771 3648 0
-1984 3530 1722 0
3139 -4125 1460 0
-2703 4390 1831 0
-3642 -1670 2255 0
-4211 1995 -3726 0
4950 -472 1551 0
-1864 3467 -832 0
-3574 3197 -670 0
-1238 -3962 2032 0
-4612 -2065 -1957 0
2658 -1090 -2631 0
-3499 -545 -269 0
3976 -2161 -283 0
3510 -4903 472 0
4522 3397 4028 0
4678 -1646 756 0
4560 1671 -3887 0
-1323 -35 2377 0
545 909 2027 0
-1977 4856 35 0
-2887 1534 -1709 0
2620 4894 4359 0
-4184 708 -890 0
-1001 -1866 3788 0
29 1081 789 0
148 4332 -485 0
-4602 -2796 862 0
-855 494 939 0
-3913 104 -4876 0
2191 3767 -4050 0
-123 -1136 -4821 0
2452 2376 -3686 0
-3108 1538 3323 0
3731 910 -537 0
4716 370 3687 0
1630 1627 4763 0
-3793 4506 4510 0
-3022 726 919 0
4229 3296 -1226 0
-3662 -4489 -3470 0
-4612 -4319 -617 0
-2493 -4364 3019 0
-4506 1472 4358 0
1468 -4181 2053 0
-3900 630 4356 0
3462 -519 -950 0
-400 514 -411 0
592 -4695 -1205 0
-4414 3214 -277 0
3456 -1358 -534 0
1805 -3411 4303 0
3380 -134 -196 0
-1516 -952 -4523 0
-2750 3925 -440 0
-694 2173 -2775 0
-259 -1903 -2824 0
-3536 -1942 1861 0
1117 1065 -2853 0
1313 -3681 4931 0
1831 2534 3377 0
4734 -436 3817 0
-3904 -4277 -3210 0
-2576 1100 -2435 0
-3832 2356 1182 0
722 4789 -3633 0
4185 4775 842 0
-1276 -4089 786 0
-2633 -2075 -722 0
-528 4225 3277 0
-2784 1169 -2938 0
-1218 -2911 -4000 0
-3518 -2339 4550 0
-351 -3515 -3591 0
1429 151 -2 0
-354 -159 3529 0
2779 -775 741 0
-2328 3594 4711 0
3898 4484 -3330 0
3515 -1955 1355 0
3746 -2377 -2570 0
-3890 -3826 1880 0
-780 -4047 -1387 0
2574 3282 -1501 0
1100 699 2811 0
-197 -261 -4885 0
3790 -1080 -1964 0
1318 2164 3362 0
-881 -748 332 0
-1773 3381 -4742 0
-632 -169 -739 0
-3476 1952 3371 0
-4216 882 -2182 0
-1701 1498 2512 0
-1211 2064 2094 0
801 -4194 -3864 0
741 599 -3514 0
-4805 1946 -3979 0
-4398 933 -1550 0
3555 4811 1368 0
4376 -4133 -3300 0
-3653 2625 -2732 0
-2566 -3066 -2548 0
-4403 -1786 -4981 0
-4975 1305 2713 0
3155 -2892 -307 0
-3024 713 3803 0
-370 -2882 -2098 0
4377 1044 461 0
4987 3629 730 0
1092 2683 3065 0
1013 -2309 93 0
-688 4459 -3458 0
4731 -1609 -4858 0
3615 3347 1678 0
-3458 4258 -1181 0
3412 2462 1528 0
1237 -3546 3898 0
3017 2958 -4415 0
3188 -1955 4989 0
-1390 -2631 4325 0
310 -1031 1299 0
-134 1937 4443 0
-3165 -2520 1673 0
1896 3565 1835 0
-2598 4673 -16 0
2046 4281 4468 0
-2992 -3503 2552 0
938 3147 -1957 0
-4957 2489 693 0
1562 2239 1807 0
4798 -1946 4323 0
-2494 -2858 3085 0
-4535 -3644 2696 0
-995 -4885 -844 0
-652 2388 -983 0
-2189 -1541 -2613 0
-2111 2358 -3236 0
-4532 2509 -678 0
1389 2635 2248 0
-2484 -205 -2314 0
-2366 -3980 -2690 0
3918 -2087 4378 0
-722 623 -4649 0
1094 1216 2510 0
1965 4993 918 0
761 171 686 0
-4994 2736 4400 0
4987 -4223 -2409 0
-3674 -4469 -3965 0
-3330 2346 -4932 0
936 -3836 3699 0
4980 4407 4912 0
-2578 4745 2048 0
-4264 1225 -1211 0
4788 -1090 -1744 0
2693 4940 2927 0
4077 -4535 -4281 0
-4774 4832 4048 0
-2323 1750 1729 0
-330 -2110 2868 0
2379 445 4899 0
-469 3078 -2879 0
1225 -4372 -2086 0
861 -2302 -672 0
-1123 1725 -1437 0
1566 2819 487 0
4608 -2465 706 0
-856 -344 -4573 0
2648 -2879 -2650 0
-2892 -3638 -296 0
2826 -1553 -3393 0
2648 -2903 -4796 0
-925 -3360 -2995 0
1490 -1578 -1925 0
-1863 189 -4663 0
-971 -3145 -4656 0
-544 -4831 -2603 0
155 982 -320 0
1116 2124 3050 0
2170 4417 3491 0
4281 1379 -1543 0
-528 3948 -4425 0
4834 -4746 562 0
4613 -3293 -3520 0
75 -374 -1494 0
2870 635 416 0
-2872 -3683 -4374 0
-3205 -3526 -4240 0
-200 2403 2355 0
2880 2770 2726 0
-752 -483 2484 0
816 -2430 -4067 0
401 733 686 0
680 -2603 -2396 0
2303 3462 -1903 0
764 -637 -4488 0
-4288 4098 -175 0
254 2611 4754 0
-1831 -1974 -4187 0
-3818 2460 -1369 0
4915 -1166 -1811 0
-2019 242 -3072 0
2812 4917 -1544 0
-2914 4585 1093 0
2952 -2593 376 0
4430 -1963 -4782 0
3240 1714 -3833 0
-2487 2313 -532 0
-780 4448 -3773 0
4165 -2009 -1178 0
100 -2636 -4242 0
968 -3887 2994 0
4387 4625 -2077 0
-4917 -4898 1597 0
-633 825 -3394 0
701 3501 4205 0
2841 498 4367 0
4626 -3567 -4953 0
1323 4553 -3519 0
4518 -3628 -2768 0
-1777 4465 -3362 0
1768 -3433 437 0
-184 4720 16 0
3690 -1472 -840 0
-2414 -284 3563 0
-2887 -3080 3060 0
-4482 -3382 -3787 0
820 -2679 1370 0
-1277 -3329 -4573 0
2968 -1880 -2413 0
4183 -1134 1952 0
733 -1803 3143 0
3388 2161 -3030 0
-2645 -3501 719 0
195 2467 -2716 0
2138 4755 3393 0
4983 -1030 -3802 0
-1870 -7 -2812 0
-3070 787 -4176 0
-2928 4236 1268 0
4342 2361 -4399 0
3080 -2047 -475 0
-4575 -4137 1842 0
2253 -3029 -3263 0
-4152 -1053 1778 0
4070 440 -3769 0
840 -4064 4809 0
-1551 -1751 462 0
4565 -2885 -3986 0
-267 537 -62 0
2526 -1364 -2436 0
478 2256 2442 0
1563 -2319 -2525 0
-156 2798 -897 0
-2881 1916 2759 0
-4972 -2876 2909 0
-904 -3388 -3394 0
3974 -3797 -1644 0
3970 -1094 77 0
-2255 71 -14 0
-741 1836 874 0
-1866 1349 -1308 0
-3616 2069 3129 0
-2396 3614 396 0
-1933 -926 1896 0
4128 -4221 4898 0
-4234 2687 -3664 0
-4787 -2946 -4225 0
-3116 -424 182 0
2615 -2748 -41 0
2465 -3815 -1317 0
-343 -2997 -235 0
-4817 -2365 3064 0
966 3017 886 0
-161 -452 -846 0
-3834 3355 4530 0
-913 -535 -3869 0
3636 3053 4485 0
1603 -4148 2429 0
-668 -295 -3035 0
-2379 -1226 -4701 0
4723 -1146 2841 0
3149 -1024 -2269 0
-4198 4282 -41 0
-2448 605 3477 0
1949 -1242 2846 0
762 3915 1312 0
4925 -1606 -1182 0
-737 -3549 2677 0
-2461 -2212 4834 0
1842 2245 1084 0
-1435 -4666 4819 0
-3978 846 -4934 0
441 -303 -4497 0
1144 3046 56 0
-4769 4656 -968 0
4252 -2695 -1414 0
3586 1625 3483 0
-3005 850 -2423 0
3644 1193 1033 0
-425 -2587 3595 0
1199 -3128 1977 0
-4495 -2576 3078 0
364 -2229 1118 0
1369 -4649 -3731 0
911 -2917 475 0
1912 4644 -4505 0
-1403 3441 -4053 0
2596 -432 505 0
-1814 -4338 -1456 0
-4816 -2380 -2653 0
-4106 -945 500 0
3061 -2242 734 0
-4586 -3734 570 0
2128 -4893 3783 0
1597 -284 3031 0
-345 -3821 3085 0
-4571 -2734 3120 0
-261 2164 1409 0
-786 596 703 0
977 -2239 372 0
-4604 570 -4696 0
604 3891 3755 0
2806 3723 515 0
338 -479 4494 0
-4383 -4477 -2826 0
125 4499 1208 0
-183 -432 -566 0
-2515 -2761 -1247 0
2306 -3745 -3779 0
-813 -2388 -1179 0
-3126 4804 -3633 0
-2115 3323 3857 0
4823 2767 -2353 0
-4131 -2493 3022 0
159 4647 -2059 0
4270 -451 4236 0
-2366 1251 -1646 0
3662 4338 -438 0
-4966 27 -3200 0
1101 -1406 4596 0
2011 -3741 -3945 0
-3803 -3376 454 0
-1840 -3061 -4036 0
-1455 -2059 1808 0
1572 509 -1904 0
3186 -4597 532 0
2878 3734 -17 0
214 -4851 -3441 0
-4969 3624 4081 0
-1785 1131 -1013 0
-1397 -65 912 0
4375 1161 -392 0
4726 2606 934 0
3878 -1227 -347 0
-3562 -1713 2886 0
-1716 -3146 4788 0
4315 747 -4371 0
-2152 -4692 -4097 0
374 -919 1024 0
3927 3551 2681 0
1366 3660 -3468 0
2558 -876 4999 0
-2754 -1606 -1574 0
-2745 -4168 -2600 0
4163 -3512 4444 0
-2012 -3075 1469 0
3798 -4584 3177 0
3458 1822 -2412 0
-2595 -1982 -2188 0
3862 1531 -4186 0
-4278 3535 4355 0
-75 4671 4818 0
-1894 -1495 2978 0
-3578 1364 1680 0
2928 -3496 2756 0
3875 -2267 -4992 0
2193 1857 4553 0
4543 1113 -1478 0
111 -2679 -86 0
-3307 527 4807 0
-4279 3959 -564 0
-1530 2706 -4332 0
-2710 -3977 -3643 0
-2989 -1251 -4465 0
-3644 2359 -4728 0
3966 -37 1988 0
-4574 436 933 0
-2741 1035 4076 0
142 2661 -2376 0
3094 3607 -4602 0
-2161 327 4345 0
-3066 -2939 -3055 0
-670 -4133 1017 0
1362 -2697 829 0
-1330 -2248 607 0
4993 -502 4715 0
-2495 1541 1457 0
3971 -34 2757 0
-10 1695 1409 0
-1825 2925 -4646 0
-1784 -3069 3300 0
-4709 531 2936 0
-3559 2455 3209 0
-1455 227 -4814 0
-3450 -531 -3643 0
735 4968 3737 0
-1160 -4286 -3949 0
-2221 1605 -4308 0
1021 -2268 -674 0
-2703 1335 -4275 0
1582 -4821 361 0
-4070 1602 -4802 0
2507 -4118 2199 0
3495 -3427 1733 0
4628 -4347 -3233 0
2835 1705 -3044 0
-3514 2640 -4206 0
-3841 -171 176 0
-3292 1101 -471 0
-4812 2940 379 0
544 -3692 3729 0
-4610 -2653 850 0
643 4013 -233 0
-4931 1107 -2930 0
2456 -301 -1182 0
2189 -1890 -4199 0
459 2506 3021 0
-4233 -4123 -63 0
-3965 -725 -4601 0
-3564 749 2883 0
-1559 1030 1906 0
-3097 -4670 4119 0
-1433 -3314 589 0
1985 1764 -2240 0
4121 4087 -3555 0
-2352 3217 2156 0
644 2565 4455 0
-2512 -958 489 0
3945 -594 -3592 0
-1657 86 -2126 0
3565 -1408 -2174 0
-3683 -242 -1549 0
-3598 -3493 -3694 0
2710 2890 -1828 0
-2338 -3498 1894 0
2690 -1864 1817 0
-4171 -1409 3906 0
3240 -309 -282 0
-3885 -2706 573 0
-1753 718 -4764 0
841 -171 -3360 0
-3636 2153 82 0
-137 4255 -263 0
387 -2203 -2136 0
2974 -4419 1412 0
-287 -1418 2632 0
-4115 -1446 -3726 0
-1656 -2508 2322 0
-1544 2502 -2659 0
2968 2962 -1386 0
4233 -2222 -4979 0
628 -4520 118 0
3945 -3992 724 0
4445 -4083 3924 0
-3804 4885 3603 0
-378 -2 -2181 0
-1784 -1054 -4710 0
1899 -832 -4447 0
2246 4405 -3890 0
4353 -3648 3990 0
3367 -475 -1835 0
-1980 -958 -2409 0
963 -1772 4112 0
2014 3150 4819 0
-2313 58 -3139 0
3655 4781 3350 0
1815 -3591 2521 0
3624 2194 -910 0
-3563 -3009 942 0
1428 2288 2187 0
-332 773 -3850 0
1906 -4007 -345 0
-4052 -4624 3735 0
4909 3511 -4706 0
-437 -207 4799 0
-4885 -784 1217 0
1780 -4781 1637 0
1259 -3392 -2805 0
-1765 1182 3760 0
2959 -2043 -1888 0
-4982 3286 -138 0
-1647 2041 3232 0
3462 -2959 4011 0
4465 18 -1731 0
-3642 -3691 4701 0
-1131 -3177 2764 0
-2179 -2586 -542 0
-4531 4901 -4730 0
-1018 4001 2038 0
1711 -3816 -4829 0
-918 -2960 -3920 0
-311 -1540 204 0
4168 3918 -3171 0
2277 832 2514 0
416 -4373 -4811 0
1640 2159 829 0
2792 -2014 1983 0
-4683 -3206 3260 0
-4740 4959 3712 0
2992 -2035 -3420 0
-2577 2948 -1294 0
2716 -4994 -3443 0
-2468 -661 25 0
1690 -175 2710 0
-2451 -2719 2850 0
3031 -4328 -2929 0
3774 1081 3801 0
-2581 -1244 3908 0
3964 -1919 4807 0
4858 -3142 1183 0
-1785 3812 3413 0
3605 -4873 -788 0
-2275 -3713 2263 0
-2947 888 -1368 0
4782 3234 1094 0
-1557 -4220 1641 0
3292 -3371 1637 0
334 -265 2853 0
-3172 -2295 2273 0
-404 -82 -414 0
3914 -1690 4289 0
-4235 1337 -4178 0
278 1833 -4288 0
-497 137 3274 0
2282 -887 -3870 0
-902 2533 -1190 0
3080 3949 2499 0
480 -4113 3112 0
367 -1658 1021 0
-1144 1374 384 0
59 3545 1399 0
894 3592 1243 0
-4364 -311 924 0
4969 4569 3182 0
3987 3418 -2667 0
-3417 -2940 -3009 0
2692 1060 -507 0
-3203 -1826 3515 0
-1041 -1912 -1001 0
-721 2444 2176 0
3404 1482 -4368 0
-3550 -3645 1816 0
174 2264 2892 0
3154 278 3193 0
-1807 718 -4752 0
1145 1544 508 0
-1022 3629 -911 0
2580 3933 585 0
3936 2125 -775 0
4609 -3187 2130 0
3883 -4853 364 0
-4330 -1316 -852 0
-4177 1138 4946 0
-1781 -3149 823 0
-114 1197 -385 0
4926 746 -475 0
2263 4251 361 0
176 170 -4381 0
-113 1203 -1103 0
4279 2777 -3331 0
-1523 -3928 -1341 0
-3514 2508 4422 0
686 -4212 -2034 0
-848 -1701 3261 0
1992 -870 3605 0
4562 -2587 -1023 0
2001 -1548 -4187 0
-1420 2880 -2853 0
763 -3866 -4509 0
-4470 -1937 -2499 0
4901 4480 -1658 0
1190 -2798 -580 0
-854 -3406 3952 0
-3553 -1642 -1646 0
865 -4164 -3810 0
3386 4277 1131 0
265 -1792 -988 0
-1160 1146 4346 0
-3322 -1991 -1920 0
1170 -2754 -1914 0
-1759 -161 -852 0
2883 1372 -1550 0
-4589 -3932 1775 0
225 2761 -2553 0
-1056 -1262 -2112 0
-4137 1270 -2337 0
-2706 -3558 4919 0
2949 -78 4610 0
4349 -4925 -3870 0
-2205 2812 1378 0
-3821 64 539 0
3903 4773 -4333 0
4570 2761 3521 0
303 -1369 393 0
2033 -1544 2494 0
4612 180 321 0
-1111 4556 3223 0
-3236 3142 -819 0
-1757 3481 -269 0
2546 -39 -2820 0
-164 -701 3761 0
-2421 837 3985 0
-1349 4494 1125 0
3223 3138 3668 0
4403 -2971 4501 0
4471 -1814 1114 0
4626 -4681 2056 0
-1252 4350 -3855 0
1753 -867 -1684 0
-2676 2674 4717 0
4451 -1288 -2911 0
-1223 -3455 -3593 0
-2041 3882 1759 0
-923 -2925 -3221 0
3972 -2469 3265 0
4883 -4147 -1181 0
-4765 -4959 4185 0
-2636 -1601 1164 0
-4529 3447 1630 0
-4888 3159 -4719 0
-4002 1193 3402 0
-1713 -3803 4971 0
4277 713 -4226 0
4475 2198 3661 0
-4682 -2827 -1113 0
1311 1765 -1142 0
2583 1948 3415 0
924 -1101 3145 0
3326 -2590 -2029 0
-2898 -370 -284 0
1751 3328 934 0
2999 -4294 4390 0
-4311 3400 -4408 0
3333 4256 333 0
4037 -4339 1423 0
2684 4748 4729 0
-4775 -4665 1937 0
142 -3806 4039 0
674 -2888 -4610 0
-322 4997 -1875 0
-4105 -3544 2205 0
2384 -326 1871 0
3292 814 -2379 0
2905 2935 -370 0
3287 1336 2833 0
2937 -4261 -552 0
1069 2858 -3886 0
299 3417 -224 0
-760 -2610 -914 0
-2238 747 -230 0
43 3749 -367 0
166 1879 -2734 0
2351 -2850 1702 0
-4867 -2701 4455 0
2472 -4055 -869 0
-4731 -4374 -2288 0
2997 -435 1628 0
3511 -3486 -2058 0
-2421 -690 1418 0
577 -4147 3623 0
4039 -266 1344 0
-752 -3034 -2113 0
4730 3178 -1950 0
-1511 4402 3173 0
196 1018 3382 0
-995 1549 -3413 0
3293 2591 1383 0
4171 1820 2387 0
-2217 -1820 4464 0
-4233 -3659 811 0
-2615 3500 -890 0
4825 1217 4021 0
-643 -2350 -2097 0
-3403 1505 -90 0
4830 324 -3390 0
2568 -3602 2014 0
-1575 -3920 4954 0
2588 3099 -4828 0
-2505 -4172 4340 0
3038 4159 2443 0
4853 -3119 1389 0
-3951 1434 2147 0
-1476 4195 -1140 0
-3211 1091 -2337 0
2211 -2197 -330 0
4303 -1550 3910 0
1163 1371 4598 0
-343 2264 2292 0
-4351 -714 -1533 0
3128 -4339 -4565 0
3222 -1642 1761 0
387 3812 -4479 0
-2854 2056 -2688 0
-2663 -207 -1090 0
-22 -2470 387 0
2046 -2711 -2079 0
-2639 4169 -3410 0
-2517 1433 4327 0
-4319 -910 3238 0
3846 50 -3824 0
-734 -2534 1259 0
-2164 613 -3722 0
1881 4411 -3822 0
-2522 -2751 1881 0
-864 4616 -1178 0
4690 3779 4704 0
-1770 -3131 -2910 0
-3702 3209 -3395 0
1126 1764 -4105 0
2899 -196 -616 0
350 3958 4632 0
665 -1202 2854 0
2672 -2576 -3634 0
-1570 869 614 0
-3688 2976 -658 0
-3396 2183 3988 0
1367 1279 -4908 0
-465 -4537 730 0
-3164 578 -4352 0
1056 382 1342 0
-509 1998 4463 0
-3948 -76 1413 0
3104 1722 4681 0
3749 4449 -4896 0
-407 -131 2062 0
-4240 -826 -476 0
558 3865 -1033 0
-4766 2144 -2523 0
-4960 -151 -1867 0
3883 -678 -2428 0
1678 -4152 92 0
1137 527 2693 0
205 -2198 524 0
-1881 470 1198 0
-4598 -2935 3031 0
349 3853 1537 0
-900 1620 2128 0
-480 -1270 -3 0
2842 -4237 1160 0
4024 3753 2753 0
-3478 -1613 -959 0
-1271 -308 -303 0
4944 3350 2341 0
4572 532 4792 0
-2646 3694 1755 0
-2226 4921 -276 0
-1031 -4605 1231 0
1555 -4048 -2068 0
-1470 -4176 827 0
2208 2533 -2911 0
-1940 -2748 -3375 0
3510 1967 1093 0
3414 -2340 4165 0
3252 -3217 -1122 0
-4374 -2907 -3177 0
1361 -2383 179 0
4332 2771 -1702 0
-4766 -4495 3341 0
1639 -2834 -2538 0
-3632 -4197 -1949 0
-2303 3863 -2880 0
-410 3525 -4622 0
-885 1123 2471 0
574 -5 -3382 0
579 -1108 -2972 0
1649 962 -2065 0
1209 1930 3778 0
-1920 -1361 4924 0
-4642 -1066 4837 0
-4427 2208 -2488 0
-3022 -4997 517 0
-1805 3725 -4123 0
600 -4397 -3027 0
-1012 -1042 -3727 0
1672 -1445 2540 0
4696 3928 -742 0
-647 -622 2206 0
2539 4765 1775 0
347 -3591 164 0
-2371 2985 2549 0
-2298 3898 -525 0
4276 -2358 -1613 0
-2623 -1340 -2630 0
64 -836 3934 0
1496 2893 4548 0
-4648 1552 -233 0
-3877 -4044 4386 0
3008 -3310 -2689 0
-3429 -4489 -2565 0
-1148 -3835 2301 0
3263 -3918 -2545 0
550 -2885 955 0
-565 790 -3007 0
-1478 4775 574 0
1519 169 2160 0
-724 3646 -4955 0
-997 -4060 1707 0
3279 -4428 -3121 0
-910 -4093 -783 0
-341 3452 -2149 0
-457 -4136 4060 0
1851 4969 -1890 0
1711 -4882 3658 0
-4200 937 29 0
4106 -3012 4470 0
-446 4581 3449 0
4108 615 -1213 0
-2696 -59 -3029 0
-75 4857 -235 0
-1699 3670 3178 0
443 3012 1673 0
-1146 1045 329 0
2430 4241 -1329 0
-724 -4789 2583 0
3600 -2536 2317 0
-1604 2265 4927 0
2688 228 1525 0
-3177 3048 4979 0
3173 704 -258 0
-3852 1493 3201 0
4492 3380 3219 0
-4281 3202 1818 0
2178 2912 -3079 0
-800 2476 3137 0
4443 -2326 3569 0
1803 2662 -1692 0
-1904 3672 4065 0
3237 -2412 920 0
-959 -3915 -794 0
-3067 -2354 338 0
-4536 -799 203 0
2981 1520 -3489 0
-2303 1139 -148 0
-4274 -4845 -2515 0
-4317 -431 4133 0
-1168 -2374 -4972 0
2847 -2617 -4943 0
-4900 3546 1748 0
-2512 1098 -1766 0
-4151 1727 -15 0
47 3855 -3174 0
-3325 -2325 -1704 0
4301 -4716 -1712 0
681 1303 -2873 0
-2036 2156 3122 0
4344 -355 156 0
2388 -2276 -728 0
-3760 -3740 -2431 0
-4737 -97 -1816 0
3124 1517 -2764 0
1885 -3460 -2442 0
-2993 -4363 185 0
4481 4514 -3017 0
1571 -354 4165 0
876 -60 4103 0
2054 -1820 -2528 0
2355 1734 -3677 0
2666 -673 -4942 0
90 -1882 2231 0
864 933 -4891 0
-1090 -3680 19 0
-1093 586 2501 0
3188 -4951 1723 0
2265 4457 -1243 0
-725 4781 411 0
-2899 1536 -2168 0
-1662 -2522 -2810 0
4117 -3836 350 0
969 -2364 1208 0
-2180 -3407 4285 0
-874 464 -449 0
3721 4471 -2604 0
4883 -2583 -1297 0
3743 1403 1276 0
4820 -49 -4114 0
3364 753 -3565 0
1443 3213 255 0
2166 -660 4645 0
2726 -2879 -1333 0
3884 -3153 1304 0
3210 -2700 -3791 0
1266 -4982 -947 0
854 1749 -4188 0
-3336 -3682 2803 0
-777 -4148 2039 0
974 -2193 -1535 0
-1618 -2859 -1677 0
-4122 1177 -4516 0
2698 2018 -3052 0
3414 -2479 -3489 0
4442 4817 4787 0
-3071 -4879 2052 0
2260 -1117 2859 0
3496 4460 -2013 0
4840 -968 1461 0
4977 -1151 -3237 0
-1766 -4039 -2654 0
-3282 -4329 -4987 0
-2752 169 -3609 0
-4059 4566 3715 0
-1368 -3228 -2644 0
-3976 3053 -653 0
4889 3608 4691 0
-756 1949 3746 0
-2750 3919 -4394 0
420 -1146 -2183 0
-2745 -4800 -2069 0
1554 4726 -473 0
-423 3356 4489 0
-788 -4387 -4206 0
-4392 -2580 -4685 0
2126 371 -2310 0
1577 -2491 -1278 0
3330 4579 -3393 0
-900 -2963 441 0
-540 -2602 -3043 0
2131 2768 -574 0
-4211 -2831 -2432 0
-1539 3772 4864 0
547 4957 -3630 0
1265 -1772 -974 0
2174 4113 -2864 0
-1494 -1529 21 0
3173 3152 1687 0
-215 4408 1228 0
-3971 -2744 2509 0
-2256 2699 4269 0
-1312 -1834 2218 0
169 -3522 -2507 0
2241 1192 -3510 0
-98 -3285 -1615 0
-4300 -4413 -3694 0
-2587 4341 3821 0
-300 69 -3173 0
2722 -1471 4010 0
4432 3846 -1292 0
-466 -2424 -3167 0
-4956 1940 -3907 0
-4304 478 3946 0
4886 3078 -861 0
3774 -372 -133 0
-1362 -4667 515 0
-2414 4167 1938 0
-927 -3391 938 0
-4774 -2212 -941 0
206 1287 2732 0
-3941 -4871 -106 0
2903 -3245 -2901 0
841 1235 -3796 0
-1540 198 -3337 0
-317 -4499 -2 0
-2818 2413 -4391 0
1994 1398 2737 0
-1081 -3932 2184 0
-3844 3947 4094 0
537 2278 -1649 0
220 4036 3439 0
-2124 3814 -3823 0
-1665 926 -1703 0
-2052 -3324 1292 0
2695 -75 4153 0
-576 3510 4101 0
-1998 -4736 -1292 0
4432 4063 1961 0
-1809 2335 577 0
3223 -2173 4651 0
1907 -845 -822 0
4479 -271 -4599 0
2516 2631 -2845 0
903 2296 -945 0
3681 4094 2596 0
1900 -401 4515 0
-1742 3058 4933 0
-3799 3808 -2863 0
-1582 -974 -274 0
2467 1829 4875 0
1185 -2534 1667 0
4683 1151 3510 0
3514 685 1959 0
-1971 -261 -984 0
847 1604 -1813 0
841 3983 4792 0
-4944 -2096 -3647 0
3154 -251 4140 0
-2944 685 -1220 0
1670 -2377 -1623 0
3399 46 -2288 0
127 -1004 3644 0
-3125 -1457 2255 0
-157 -2605 -3407 0
2735 -4981 782 0
1474 -3679 -1736 0
1011 -647 -1736 0
2044 3519 4964 0
-613 2356 -1705 0
4001 2090 -4605 0
2227 -2523 -118 0
-4978 1106 2031 0
2089 -661 -3795 0
4559 2524 -2621 0
-1399 -2762 -3002 0
-214 3583 1526 0
-988 -1221 2687 0
2493 -4491 4803 0
938 -759 -133 0
-280 774 -4275 0
-4090 203 -1851 0
782 -2915 2497 0
1267 2541 3931 0
-4299 -3609 830 0
-441 -4517 1265 0
2033 2375 -1454 0
-3863 -4418 -877 0
-2748 3517 3708 0
2368 -1934 -1394 0
-3918 1187 864 0
-4118 -1257 -1605 0
1577 -4722 -3714 0
2056 3470 -3493 0
1001 4655 -579 0
236 -4724 4067 0
3469 -4623 -987 0
3305 -61 -62 0
-473 698 -4282 0
2328 4034 -537 0
616 3934 -3463 0
-451 283 3047 0
-835 1189 -2037 0
571 4828 -2595 0
-2418 2366 2544 0
-3589 -1538 -3549 0
180 -2814 427 0
-3010 -2945 2766 0
-4329 4652 -1813 0
-437 3508 -1316 0
286 -860 2072 0
-293 -840 2697 0
-3966 -1916 2057 0
-2443 2986 -4351 0
-1460 1033 -1862 0
-3430 4793 1973 0
-1186 4490 699 0
-2597 1046 1347 0
-3274 -3775 -1030 0
2108 -3370 -2590 0
4359 1299 -4219 0
4066 2304 -3467 0
333 4313 2814 0
4284 4781 -2651 0
-3815 2374 -2147 0
3117 3421 231 0
2930 2548 4885 0
-103 -1841 -3517 0
-3270 1190 -4561 0
-4437 2234 -3911 0
2934 550 3069 0
4080 -3266 2134 0
3574 -4665 -634 0
-3782 -4180 3865 0
-966 2587 -2299 0
-663 -3808 -3041 0
1827 449 691 0
2516 3567 -2302 0
-3152 -1209 1402 0
666 1099 -2735 0
-689 -1413 -2734 0
4836 2581 2386 0
-846 3936 418 0
2218 4840 1397 0
-1563 4945 155 0
2411 753 3107 0
-4888 2044 -388 0
-3794 -3575 1896 0
4235 -3640 4831 0
555 200 2498 0
-1196 2098 4170 0
-4156 -2717 1492 0
1161 -1444 2697 0
-438 2015 -2775 0
-1224 798 -1653 0
-2387 3517 -911 0
153 782 -3059 0
-3616 -238 933 0
3675 -2757 3203 0
2860 -3457 4874 0
-3148 1079 1158 0
-2389 3820 -1216 0
2282 1524 1217 0
2223 4812 4791 0
3433 -463 1710 0
1811 -157 4123 0
-519 -911 -4243 0
970 -4039 4766 0
-4936 -2368 3956 0
-1437 -4308 -915 0
233 -2569 -3314 0
-182 -1538 -3883 0
354 2905 -1173 0
4287 -1627 -2926 0
-4901 -4581 2097 0
-747 -955 -4687 0
4605 3046 -3505 0
3059 454 -3245 0
-4357 3620 -3808 0
-1219 -3877 3024 0
1441 610 -2694 0
1522 -567 1643 0
4063 -3328 4129 0
1911 -3009 1486 0
-1125 1790 4137 0
-1765 -159 -1498 0
-4104 1371 2464 0
1135 1074 -2745 0
-122 -1765 -4899 0
-4382 1352 -4189 0
-1169 3720 -485 0
-460 4412 3286 0
4439 -931 4860 0
2439 -2306 2833 0
-4664 -4149 742 0
2829 -4522 4617 0
3168 -2815 574 0
-615 -990 -3973 0
-804 -3461 -2733 0
-70 2196 -4721 0
-492 -3357 -1507 0
-4350 -4820 -3790 0
2451 2229 3452 0
4506 -850 -4729 0
1032 -2935 -3514 0
-3477 1074 -4890 0
837 1509 -4796 0
3789 -1747 -4145 0
4640 3649 615 0
128 3619 -400 0
2259 4120 4871 0
-301 -1881 766 0
-4556 1689 4032 0
-3093 4486 1636 0
-2832 157 1929 0
1618 -3711 -3956 0
-3329 1920 1965 0
554 -358 482 0
-4275 128 -4602 0
-4087 4157 -4929 0
3275 2040 -4584 0
-1072 -2806 -1105 0
-3422 -3797 -4609 0
3224 -4732 180 0
-1997 482 -3846 0
-3448 4350 -3196 0
-1946 3077 4760 0
1718 2214 -3527 0
-3608 -2190 3209 0
-372 -2137 -2407 0
3002 -621 -3770 0
2665 -2050 -1122 0
3742 2352 -657 0
-566 -3544 -2388 0
1029 2295 3478 0
-943 -973 -2244 0
-2155 1149 -624 0
-4362 -3847 3929 0
2666 -1145 -3621 0
84 3981 -2941 0
2877 -950 3913 0
4163 -775 -1393 0
-1863 -4503 -3121 0
-3153 2600 2540 0
-4697 4207 -4960 0
3 -1290 -2921 0
1283 -1203 2563 0
-2145 3237 -187 0
3419 1216 -56 0
3117 -3142 1586 0
-548 -3903 3767 0
1060 -2326 -1946 0
4146 -2226 2110 0
-12 -217 443 0
1891 -1763 -292 0
479 4892 -2833 0
1359 -1400 2244 0
-4048 -810 3369 0
955 -1518 -4879 0
1002 -679 -989 0
3982 -3786 -730 0
3221 -3854 -734 0
1618 -1581 4276 0
3245 -831 -1221 0
2910 1335 1936 0
2470 3397 -670 0
1856 841 329 0
-4649 -461 3782 0
1538 621 4060 0
-536 -3950 -975 0
4621 3754 383 0
-2123 1115 -2135 0
-4998 3893 3713 0
-1776 4271 -3218 0
-4214 830 4710 0
-3793 -1933 -4224 0
377 -1094 3961 0
3297 -4562 -417 0
-1889 -2136 4982 0
620 -4154 3523 0
3599 -3329 -4306 0
1479 2779 4544 0
-4279 4253 271 0
-877 -3697 2600 0
4257 -2 1322 0
2386 -2126 -1992 0
-2998 4662 2687 0
-137 -1769 3829 0
-2651 2565 -4507 0
-2940 -184 -2128 0
4433 2244 11 0
2009 -3807 1597 0
-2161 -4608 -2386 0
1018 4643 3065 0
1963 2305 574 0
-3179 455 -1929 0
-1980 -4676 -1507 0
2721 2807 -2184 0
-1466 1118 4081 0
-4318 -2599 3823 0
-2575 -457 -2716 0
-4534 3060 -1292 0
-1962 -1929 1100 0
2565 -4487 -3647 0
4984 -868 -1401 0
673 4202 4841 0
414 4802 371 0
-1987 1226 1642 0
2113 2075 -3913 0
793 2112 2031 0
-2894 -3097 -3618 0
2318 -1533 -3286 0
-3078 -1095 -4703 0
-1637 4606 1029 0
-3793 556 -1098 0
3160 -967 1140 0
-1751 -4070 -3559 0
-2585 1332 1896 0
-3981 2200 2135 0
-837 1090 3952 0
298 2994 -4276 0
-471 -2346 -992 0
-3789 -3536 -4728 0
1735 221 -1177 0
2219 -1243 -308 0
-4584 2464 3629 0
4989 3521 902 0
-619 -2397 -4018 0
-4548 -1859 -3497 0
2327 2157 4505 0
2649 -967 -3308 0
-2049 1478 -2281 0
-2894 579 3748 0
1051 2900 1788 0
-4033 4030 2958 0
-22 -1735 -2194 0
-1110 1243 -1682 0
-334 -1420 4071 0
-2413 1102 3747 0
2363 -1834 1038 0
-2448 -3704 2725 0
-3683 -2160 866 0
4333 -2667 2448 0
-3035 1597 -2895 0
1242 941 1780 0
-317 4563 -2064 0
3309 -74 2170 0
1211 4006 446 0
-3763 -3957 2903 0
3058 2854 3580 0
-4733 -1700 -1480 0
2702 -3408 -4569 0
2661 -2872 -356 0
-814 328 -4478 0
1371 -1316 -4954 0
2057 -1619 3773 0
-643 2634 -133 0
3959 4234 -780 0
-2068 -2603 -88 0
2526 2853 4793 0
-1329 -2987 -3276 0
807 1054 -3760 0
4978 -199 3712 0
2126 -1082 -3696 0
992 -1349 3766 0
-106 -265 -153 0
-510 -1170 -648 0
-2179 1471 1186 0
1423 581 2676 0
2579 -546 4054 0
-3575 -3590 3625 0
444 3443 2657 0
777 -556 -3591 0
-4412 421 1731 0
4693 1447 -3331 0
-1652 -4131 2950 0
3535 3660 -2429 0
567 733 2948 0
146 820 1102 0
3954 3893 -3054 0
-2773 -2032 -4625 0
-1784 3028 -1011 0
1091 4223 1855 0
-3471 4720 -1711 0
765 -3656 2922 0
2911 -3738 2920 0
3131 -3934 2941 0
3617 -2659 3903 0
711 3490 -4735 0
1350 2009 -999 0
-1656 -4592 -3015 0
-2645 928 3208 0
592 61 1344 0
2502 -3981 2660 0
-3815 -2059 3939 0
-4090 -2363 4162 0
311 -780 1889 0
-601 -4984 3768 0
4376 4855 2610 0
-1363 3375 4931 0
-2067 -3158 -799 0
-4083 -3768 -611 0
-2586 1267 -562 0
2621 1856 4201 0
-4108 -4659 -4152 0
-4947 -3454 1693 0
4562 2002 2479 0
2600 4789 -1335 0
2461 -2336 -38 0
4488 -296 -4027 0
312 -3896 -296 0
-1365 -4078 3989 0
210 -1853 3439 0
986 2139 -1107 0
-2424 4471 -4809 0
3383 763 408 0
1417 1048 -4397 0
603 -539 822 0
2445 -4196 -4147 0
2262 -1105 -4867 0
4698 -2639 -2656 0
2306 -1177 -1417 0
4417 -3119 4795 0
627 3477 1173 0
-39 2854 141 0
1622 4542 -77 0
-153 4096 -144 0
-626 -2023 -4595 0
-562 2382 232 0
-141 4271 -4146 0
-307 3874 2989 0
-2343 -4045 -298 0
2737 -1666 3615 0
4266 -4162 -3770 0
1014 -3648 3184 0
-2513 -167 242 0
-3757 -3722 1864 0
4560 -643 -1047 0
3206 2779 4275 0
3871 1175 -2884 0
2441 -1594 -4016 0
-4993 837 2539 0
3736 -4397 -3169 0
-40 -1963 -4016 0
-1321 -1836 2362 0
3249 2475 1868 0
1081 -126 -1670 0
1644 3411 2643 0
4363 -2144 3185 0
4604 883 -3475 0
-4393 -3519 2961 0
-773 -1423 -36 0
3055 2625 917 0
-882 261 -4108 0
-252 -4531 -2697 0
587 -1031 1015 0
-1007 -3113 942 0
3489 -4770 -3465 0
740 4689 2845 0
249 1571 -3340 0
-3639 265 4899 0
1556 -2975 2452 0
1030 4701 3045 0
-2175 -2927 -3488 0
1039 4018 372 0
4052 2001 1199 0
-4651 4441 -1341 0
1222 -1542 -2062 0
-1738 2333 -646 0
-919 -3249 4327 0
-2310 -4720 726 0
-1042 -2129 2136 0
3397 1561 -2662 0
2271 2802 -4225 0
-1827 -1260 -1398 0
-632 4946 -119 0
2414 -4199 -3349 0
932 3090 -4242 0
3351 -2252 -3858 0
1491 -4345 1316 0
1874 -69 -1488 0
4752 1423 -3981 0
-1131 -1707 -534 0
3616 -3838 4616 0
4995 2678 -1963 0
-2383 -2752 -2637 0
2442 -4946 -4253 0
1809 -4321 -3719 0
-760 -389 1097 0
6 3362 2571 0
2106 -2195 2183 0
-4115 1554 -2520 0
187 -4507 3461 0
-1078 4905 -258 0
1135 4351 1853 0
-3121 2515 416 0
1900 1587 4823 0
-1594 1558 192 0
-2582 -1407 -83 0
338 -3446 -33 0
-2774 -1316 -2425 0
1690 4076 -3911 0
3515 2396 -1280 0
-3064 2424 -3718 0
-4077 -807 1509 0
562 164 4511 0
921 -464 -859 0
4072 -913 -2283 0
-1061 -2457 2627 0
-9 4995 1183 0
-2420 2429 3085 0
4656 -985 3409 0
-3891 -3425 2563 0
-482 -3956 2448 0
4816 4784 -2311 0
-426 -691 4507 0
3515 -4533 1472 0
-4718 4449 -2718 0
-3964 -2240 -3980 0
3957 -3667 1610 0
4665 -2667 2422 0
3943 2158 2481 0
-3386 2889 3881 0
1300 -1703 -4224 0
2354 1311 -998 0
-1410 4536 -819 0
-4900 3906 -629 0
137 -2754 3647 0
4930 4969 -647 0
-736 -1620 3766 0
-4056 1889 1051 0
626 -2612 -4807 0
2091 4501 3850 0
-4508 -4661 -4308 0
-3835 2866 -4550 0
-4579 50 -4465 0
-3049 1988 -3988 0
2788 2641 -2405 0
-1109 -2614 -1071 0
-1908 -4131 -163 0
2734 -2279 4382 0
-2855 2707 -210 0
200 -205 -202 0
706 1021 1602 0
4785 -2195 1775 0
3484 3197 4298 0
-2849 -2935 -3659 0
-4871 -621 -1486 0
1815 -247 -4706 0
2011 -2866 1046 0
-911 1153 -4436 0
-1668 -1947 3126 0
-1682 -4477 2668 0
363 1235 3304 0
3939 -4591 -849 0
-4189 -2136 4168 0
3804 1505 2481 0
3853 1067 -2388 0
-4868 -3386 3929 0
3086 -4558 3104 0
897 -743 2717 0
3557 4368 248 0
1151 646 -762 0
-2674 -1661 3695 0
4267 4106 3973 0
3302 175 -4769 0
-2611 -2490 -4711 0
3326 -4892 -4335 0
2859 1036 3881 0
-1909 -929 4590 0
-4357 -1893 2663 0
4247 3158 3719 0
-628 -933 1449 0
-1357 -2137 -553 0
-4662 2926 2321 0
-4126 -4087 -4774 0
3269 301 3074 0
901 4248 3424 0
2576 -2734 -2042 0
-751 3381 4606 0
660 -2008 -626 0
-1978 654 1669 0
807 1464 2346 0
-4565 390 1471 0
-3827 -738 -1281 0
375 -270 -467 0
-2955 986 218 0
-4119 -4857 106 0
4128 580 -2760 0
-987 405 -2044 0
-2589 -1604 2150 0
-4610 298 2982 0
-2869 -907 -2677 0
-2523 2457 98 0
-2430 3721 -3277 0
1606 -3642 1094 0
-4166 2395 360 0
-447 -3607 2694 0
1471 -176 3390 0
-935 -3736 -2855 0
2740 4594 -110 0
2570 4933 2546 0
4355 3728 -3133 0
-2279 -3251 3955 0
-5000 -3375 1178 0
-2961 -1075 -1273 0
-1023 -550 3904 0
4904 -4818 -3483 0
-417 -1163 4843 0
2784 4877 178 0
-1691 -2146 4611 0
-4774 1266 3828 0
851 304 -837 0
-4608 -1701 102 0
2753 20 -3635 0
724 4734 -162 0
3580 -4846 -4239 0
877 -4456 -1969 0
-2435 -4412 4475 0
-4983 -310 4247 0
-163 -830 -2853 0
-729 -43 -1340 0
-2747 3585 -1624 0
-3336 2512 -4896 0
-4662 -2942 4369 0
1332 -3981 -2370 0
-4079 1778 -1028 0
-4781 -4756 -3392 0
1422 -252 -1474 0
2215 2906 2512 0
2929 -2697 -4065 0
4865 -1735 -1626 0
-2115 2689 -1334 0
1265 500 1953 0
2634 -595 703 0
698 -2876 -3306 0
469 -2642 2337 0
-884 -829 2018 0
-1454 -3489 2594 0
-3636 -4400 -22 0
786 -327 -1821 0
-2131 -2851 -155 0
-3509 2342 70 0
-2584 -447 -3544 0
4850 440 105 0
-981 -4287 221 0
3220 115 -177 0
940 -948 1060 0
-4305 -1001 3823 0
-4643 -4588 -3553 0
724 2073 3293 0
-1565 4122 2285 0
3620 1848 -696 0
3368 238 -3682 0
-3713 -3579 -942 0
324 1311 2312 0
-2978 3106 2032 0
-2528 539 1922 0
908 -583 -1812 0
2525 296 -4844 0
3431 -1665 -1328 0
-2422 -1305 2174 0
-57 -3707 -1810 0
-1636 571 2836 0
3715 970 -2307 0
4360 1699 4060 0
931 4342 3390 0
272 -3922 1973 0
-2633 -3304 -3832 0
-339 -1399 2820 0
-3350 4409 2663 0
-3200 2676 3380 0
3619 47 -3105 0
2346 1693 -3829 0
-1907 619 -2999 0
575 -2860 1954 0
4896 3946 3480 0
-3102 -3554 2845 0
2802 2129 -3316 0
4910 -389 3778 0
-1115 -3549 -619 0
1396 497 -2383 0
-824 -1768 670 0
1797 -43 2842 0
-3409 -1557 2061 0
3039 -153 4016 0
-1832 -4023 -961 0
4013 3548 -281 0
4115 1469 -4463 0
-1899 2749 1309 0
-921 2051 -1224 0
3757 -3708 -3061 0
-2195 -4699 -2500 0
-3258 -1566 -4689 0
-532 1653 1237 0
-1559 1073 -1964 0
4043 2036 2016 0
-1214 3585 4559 0
3468 -1860 4152 0
1121 -4394 2127 0
134 -2477 -1678 0
3320 -2159 1476 0
-3648 -2940 -2335 0
1166 1013 -3938 0
295 2564 2373 0
-4031 -4950 -1739 0
-293 3148 -1092 0
3150 3846 37 0
1139 -4531 3218 0
4733 -2292 3555 0
-4613 -4398 2329 0
2460 -2396 3779 0
4057 -936 -4354 0
1198 3260 -1259 0
2659 -4271 1704 0
796 3268 -2834 0
2769 4454 1059 0
-661 3971 1932 0
4500 1592 -2467 0
-4465 3530 -1334 0
337 118 -4372 0
-2494 2244 3593 0
3655 4135 -1166 0
-2456 281 40 0
1297 -3672 3487 0
-2546 280 1934 0
240 2480 -388 0
-2493 -4844 -702 0
-1178 -1344 -4231 0
4044 -711 3569 0
-313 -3548 -622 0
-4172 -4589 -4625 0
-1349 -2188 -2171 0
1595 3659 951 0
347 2321 -2090 0
-1031 -2789 -2896 0
-2122 -3044 2650 0
-1663 2812 -2546 0
1477 -1390 -248 0
-3057 -2789 3006 0
-4530 2876 2390 0
1147 4575 -51 0
-4252 -1061 3908 0
-3589 -4650 1889 0
-1922 4123 -2789 0
-1241 -535 -1743 0
-1462 2801 1912 0
3299 4479 -1322 0
1074 -4448 -2028 0
2926 -1268 2431 0
2138 -3080 846 0
1352 298 654 0
4390 2466 -345 0
-954 4970 -1418 0
-497 258 3803 0
-2710 50 -1739 0
164 4716 44 0
1396 423 3507 0
-1053 -1430 -4876 0
4093 3018 1527 0
-2415 -3924 3797 0
-1309 2380 1460 0
-4278 -2621 3999 0
-2697 -1317 -196 0
-2199 -3275 -2377 0
-1559 465 3337 0
-4340 723 -834 0
4748 1347 4637 0
-3708 -4285 -993 0
-2354 2634 3262 0
-3400 -318 78 0
2704 -4834 -2143 0
2677 2870 -611 0
-1575 -95 194 0
1046 145 2193 0
3937 -501 -3050 0
4564 3008 659 0
-3454 -2423 -2737 0
-4905 4992 -2819 0
-752 -2652 821 0
-3922 2700 -3560 0
1425 4451 -2387 0
1862 -1101 4449 0
-4979 -3055 -4118 0
-3563 621 -4561 0
-1200 -322 1696 0
1109 3240 2636 0
-2367 -1485 3519 0
-4059 1749 -3963 0
1490 1794 3260 0
99 -1427 4677 0
2201 -2334 2124 0
-3465 -882 2094 0
877 4868 501 0
995 -1170 -474 0
-1337 -1334 -2575 0
2396 -3098 -3269 0
-1220 -2295 -2377 0
-3142 4762 80 0
-2351 -1752 -2944 0
2972 -2455 2351 0
1822 4713 -3149 0
-3536 2646 1425 0
2092 1436 -1806 0
-4735 2261 -1156 0
430 -290 2678 0
915 -2655 2953 0
-591 -2434 4961 0
-3002 2714 -2942 0
1447 -472 3087 0
-2012 -2904 -3652 0
-3109 -3470 1868 0
3417 1942 2911 0
854 2752 -2636 0
3870 -843 3722 0
17 3532 4472 0
-4472 4581 -814 0
-4734 2692 -3697 0
1625 1367 -2975 0
1270 -4808 -2689 0
3786 -1942 3522 0
2153 166 -3013 0
-986 1765 1334 0
2884 2555 2687 0
-2249 2129 -1948 0
-2710 -2393 3889 0
-3943 2306 -2199 0
3777 -2232 427 0
3247 -3145 -2865 0
-1457 4103 1537 0
-4948 1879 -4637 0
-4829 1957 -3891 0
1706 1396 -3677 0
4490 -1833 3454 0
-1369 -2435 4872 0
2694 -1974 4601 0
4874 1297 -2444 0
2284 2528 1000 0
-3434 1369 4662 0
-966 -3147 717 0
-2122 3852 2317 0
-3528 -1270 -4186 0
-2499 3319 2753 0
3715 3084 3448 0
4944 4608 2687 0
-4448 -3578 -3320 0
268 3104 -3253 0
2216 -4283 -3092 0
1933 3228 3489 0
3364 3668 3851 0
1142 1755 -2777 0
1649 2453 4449 0
1031 2665 4255 0
3364 3113 4809 0
446 -1390 -945 0
4907 352 2060 0
-799 3374 -2233 0
-4000 2188 -104 0
2800 3295 -1043 0
-2268 -1426 1495 0
-2859 -236 -622 0
2676 4544 -3305 0
2859 -3114 -1475 0
2833 2956 -2139 0
569 -3521 4756 0
-3755 -4515 -3245 0
-1818 -4367 -4699 0
-3786 -230 -2869 0
1268 -4068 1383 0
-276 1598 1432 0
-1078 -2135 4987 0
326 -4355 2039 0
-911 -1791 -2382 0
2818 -4105 -4432 0
3016 -746 -2441 0
2530 1149 -1348 0
-3686 2755 -134 0
-595 238 -4718 0
-4767 3614 -1165 0
519 -2934 2102 0
317 -3661 2760 0
1246 -1837 -1717 0
2430 2694 -1359 0
-4280 -931 -1234 0
2089 -2081 2854 0
-4536 -1814 4422 0
4316 514 -1243 0
3284 1340 4727 0
-3820 1053 -2429 0
-2637 -723 -1694 0
3283 4573 -856 0
388 1462 -1156 0
3523 2196 -3582 0
-3484 4622 -2038 0
507 1347 -1672 0
4694 341 4229 0
4990 -837 761 0
-3003 828 4434 0
-4218 -3812 -3947 0
-4242 -729 3689 0
-356 4622 2302 0
-752 -3160 1993 0
-748 -4356 -2990 0
-1138 4183 978 0
-4464 1782 -1708 0
4445 -4108 -336 0
-1937 -432 -84 0
2912 -92 1772 0
986 -508 2879 0
-1735 2789 3615 0
4115 2557 822 0
1778 -2276 3028 0
-4331 1693 306 0
514 -548 -3521 0
1171 4033 -339 0
4336 4369 -3561 0
-4021 -301 2843 0
2790 -3079 -183 0
4846 412 1634 0
1537 -1239 -1380 0
-4856 -1526 -645 0
1374 3560 -4997 0
2604 -4748 3542 0
-1877 1629 3217 0
818 3787 3723 0
2563 -2492 4874 0
4947 -4102 4263 0
-2963 1037 -4684 0
-3739 -1153 -4760 0
3789 1279 205 0
-4939 -543 -1302 0
-2999 -3595 4090 0
-4706 1153 4624 0
-2256 2102 1195 0
3830 4071 -3677 0
2030 4588 -1297 0
-1056 -1673 -2843 0
-4658 2367 1260 0
4863 -1230 -4466 0
1479 -3048 -2096 0
-1108 -1306 -4541 0
-403 3437 3261 0
-1847 2004 -1418 0
824 150 656 0
2434 -3410 -138 0
-3943 3638 4934 0
-1122 -4009 -1284 0
1854 365 59 0
-52 1636 -3400 0
-4714 -3617 3631 0
-1538 1305 4856 0
3403 -461 218 0
1229 2069 -607 0
-2954 1222 -1988 0
4387 -3605 4201 0
2267 4687 -3290 0
-4321 2599 3690 0
3474 3538 4082 0
-4484 1784 3300 0
-3892 1259 -1900 0
1570 -4570 4967 0
677 -3715 -1665 0
4832 3763 4242 0
1933 1510 3595 0
-1157 -284 -1990 0
-3698 -1679 -3590 0
-2039 1127 950 0
-3906 -382 -2520 0
-195 4146 1809 0
-2906 -3914 -3962 0
4383 -1077 -1520 0
4206 -151 -2171 0
-2207 -855 1588 0
-845 2693 -1117 0
-692 -370 636 0
-2868 4668 3130 0
-4158 -3624 -2103 0
1950 -2209 -1896 0
4343 -4762 1516 0
3600 -2631 -2812 0
2597 400 3978 0
-4677 -2659 -1071 0
-2832 -4869 -3534 0
-809 4084 -2090 0
493 -1900 -3081 0
-3968 4230 -4132 0
2902 375 -1966 0
4817 -1428 -49 0
3251 3364 2511 0
-1893 -4722 -3682 0
3107 4470 -1147 0
-764 -4012 108 0
-2277 1040 1968 0
3843 18 -2120 0
2391 3025 -2981 0
1224 -3880 2225 0
1579 746 -259 0
430 -2181 -1863 0
-853 -2492 2834 0
608 -1882 -1484 0
-1643 -2071 3773 0
-4455 3387 -844 0
3709 -2777 1273 0
-3960 3605 -4504 0
-112 -2953 -1510 0
-3664 -2258 2687 0
3148 2074 4929 0
3921 3935 2753 0
-2519 -1626 -4544 0
-1934 1937 -1787 0
-517 3299 -3784 0
4360 2116 -3401 0
-2424 849 4547 0
4973 583 1851 0
-465 -2413 2438 0
1445 718 584 0
2532 -1752 -2936 0
864 381 61 0
-2399 -1483 -2785 0
933 4197 -2713 0
-3196 521 -4127 0
-1750 -2350 -3715 0
4364 4321 -3983 0
549 -671 2648 0
1199 1545 4571 0
3950 -1316 -4719 0
-1110 -1670 -696 0
2684 2193 550 0
-1825 476 -1386 0
-4475 -3696 -764 0
-1888 -4015 -1941 0
3485 4749 1132 0
-519 -3945 2684 0
2129 3873 3767 0
2146 -2916 1883 0
1369 -2073 -2981 0
2272 -3770 -801 0
3278 -807 -373 0
4743 -4220 -4815 0
-1206 -4144 875 0
-4953 -4317 -4396 0
3928 1989 693 0
3192 -1924 -2745 0
1704 -2282 3030 0
-54 814 -4144 0
3315 -1138 -2075 0
171 456 916 0
-4276 -1962 -1794 0
2550 2610 4771 0
1310 -3652 2829 0
-935 3472 -1766 0
4731 2507 -719 0
-2283 1306 3878 0
3483 1897 588 0
3140 -2431 -257 0
-3938 3903 1646 0
-4943 -4058 3514 0
-2787 -4160 -2854 0
-626 -4282 -605 0
-3931 -2670 -4275 0
3329 2534 3683 0
2346 1269 2669 0
2337 -893 4875 0
-1278 -3882 4752 0
525 -4242 -2176 0
3910 3965 -2372 0
2664 -693 -2146 0
4686 622 -4925 0
689 539 -2562 0
1640 1374 4907 0
-2708 3662 2772 0
-2178 -1176 -734 0
656 3190 -434 0
-1920 -1901 -4348 0
-2986 1155 3706 0
2428 4190 -14 0
-3485 3650 4082 0
-2265 3420 4312 0
2828 -443 -4173 0
3044 2944 -4621 0
1419 63 -1201 0
578 4542 113 0
-84 4985 -2672 0
3088 -3886 3045 0
1103 -3168 3732 0
-827 -3892 -2274 0
-2425 -3399 -2083 0
1495 3910 -1487 0
-458 -2837 -612 0
-109 3675 -694 0
-1042 -4201 -846 0
1480 1122 -4251 0
-157 61 -115 0
-4572 1457 4327 0
-2330 300 -4315 0
411 -885 -371 0
-2097 4906 89 0
2621 3935 -4525 0
-2432 3220 731 0
-2053 -2463 4114 0
4087 -1268 487 0
-3683 2539 -2820 0
-1194 -446 2612 0
4900 -14 -4050 0
814 -572 4590 0
2048 686 -4050 0
3245 2241 3015 0
-2625 -3337 693 0
4930 3920 2337 0
3497 4514 -4159 0
1876 -4439 -4068 0
345 3157 1518 0
1788 2760 4396 0
-977 -4924 -3863 0
-2487 -1953 -1411 0
4714 -2062 -988 0
3405 3918 -951 0
3891 4092 -1686 0
2450 -2901 -4985 0
-4886 -830 751 0
238 -4343 214 0
-1827 -3374 -4605 0
2680 -2921 -144 0
-4549 3297 -2351 0
3146 -889 1962 0
-3539 1051 -3925 0
-4597 2152 -2484 0
4851 -2003 1517 0
-3677 -4060 2295 0
-1912 -1260 1741 0
2848 -927 -3533 0
-174 2895 2536 0
-2773 4366 -3614 0
-4150 4774 -1129 0
28 997 -3754 0
1158 3711 -1812 0
-792 2381 1082 0
-4071 -658 -245 0
-4494 4644 3979 0
4954 -3617 2508 0
1284 3366 499 0
964 -4541 1069 0
3535 381 478 0
217 1891 -4140 0
-3826 4416 -2556 0
4379 -4981 2841 0
-4617 -4463 4151 0
-1 73 -1163 0
-2804 -446 -243 0
244 4395 -3289 0
1057 -69 2067 0
1323 4620 -3272 0
4581 -1968 -9 0
-360 3961 2931 0
-2746 2310 -3981 0
2372 2698 553 0
-68 -3724 -4458 0
1556 -952 -1077 0
327 -2367 -3839 0
698 1322 -4299 0
-4423 4456 -1310 0
-856 3396 -3648 0
-1736 -2531 -4741 0
1231 -2340 -3015 0
4362 4487 768 0
-3082 890 263 0
-4699 3176 4405 0
-1968 -2553 1732 0
-4492 3012 -530 0
-4380 1724 2218 0
1443 -3353 3504 0
-406 1894 -2536 0
-1812 -1113 4870 0
3071 -3642 916 0
-4971 3927 4017 0
-1520 -1288 2854 0
4998 4647 1200 0
3683 4787 -1372 0
-1251 3192 -2248 0
4945 -3014 1933 0
999 3555 3482 0
-4709 -225 3152 0
-2278 2158 -417 0
-1557 -4712 3697 0
-4135 -4659 -4760 0
-1779 -2264 932 0
-952 -3887 1911 0
1879 -1091 2882 0
-2923 -1714 3310 0
-1428 616 -1912 0
-4981 4315 -3767 0
-2287 2145 -4638 0
-3406 4143 3255 0
-2249 -4133 -321 0
-198 -2621 4459 0
-3309 4582 -2753 0
-28 -294 -953 0
51 -3334 3020 0
3740 -4661 -1512 0
2792 2893 -1276 0
-3948 2921 2607 0
-2837 -688 4524 0
-797 -3439 -591 0
4536 -1102 -1432 0
-4089 -3981 3459 0
3924 -3668 -249 0
949 -1070 4559 0
-1007 -1724 3436 0
-3159 -1978 2766 0
-36 3087 3341 0
172 529 1300 0
-269 -3089 -987 0
3638 -4515 3773 0
2882 4054 1384 0
-31 -4070 4935 0
-246 3560 -1102 0
592 -3068 -1406 0
-3600 4475 3084 0
-1095 -3918 2379 0
2728 4410 4794 0
-3579 2410 2049 0
-2430 3036 2723 0
-4486 -2885 -1020 0
1444 2642 3395 0
1735 -3732 -641 0
3732 -1254 -3183 0
-1056 1295 -3047 0
3189 1502 292 0
2470 1804 -4805 0
914 -590 69 0
-2598 -1095 -4085 0
-4752 4776 2587 0
3984 -3226 2327 0
2878 -3494 3778 0
-3893 -3240 343 0
3265 644 247 0
-727 1283 -2712 0
-1758 -4203 -2537 0
-3015 -1559 -4130 0
-550 290 1070 0
1626 4883 -4519 0
1254 -3980 -3125 0
-2609 4886 -2633 0
-3705 1996 1342 0
634 -3734 2172 0
3294 -4087 2077 0
2528 -174 1760 0
3866 2388 1889 0
-2374 2417 2195 0
2317 -4514 4853 0
-4543 -1146 3895 0
-938 2249 -426 0
321 1966 -2952 0
588 -475 2922 0
3491 -1042 -2030 0
4837 2324 2081 0
3762 4247 -2748 0
-2967 3904 -3290 0
104 2885 3272 0
-1124 -3975 -172 0
2965 -2185 38 0
1330 -2418 2292 0
-3450 -4374 -1835 0
3970 -960 818 0
-3322 -773 -3494 0
-4343 3162 -4803 0
107 -1361 -13 0
-2921 -4211 2357 0
-529 1959 2229 0
1426 -3357 497 0
445 3667 -2336 0
-1150 4383 4820 0
-2432 -4658 1131 0
3547 3418 4933 0
3352 -116 -2865 0
1927 1402 58 0
4996 2584 612 0
510 -25 -3937 0
-3584 -48 2100 0
1095 4228 3228 0
2993 3949 2510 0
390 3598 4679 0
-908 3511 1617 0
-2051 -2887 2123 0
211 4200 3387 0
4984 -1237 2131 0
-619 -1638 -556 0
-2093 -1709 -1886 0
1277 3274 57 0
3067 2506 4354 0
-1198 1682 1919 0
563 2341 -1750 0
-759 4946 -387 0
3794 -4786 1261 0
-4372 3576 364 0
-4091 1155 -3788 0
2172 3351 -621 0
-4063 1608 -3195 0
-3279 -213 -1598 0
-4828 -3804 2454 0
-838 3277 1689 0
-512 1938 -4301 0
2943 4354 -2715 0
-3137 3097 -3047 0
-4522 -1435 -3644 0
-4094 -4327 3819 0
4452 -1490 -389 0
-229 973 2027 0
-486 -15 -3719 0
4037 -3691 -591 0
-4101 -1940 4580 0
-4929 45 1361 0
-4410 3357 640 0
846 3045 2958 0
456 1307 2917 0
-1317 2860 -3684 0
3383 1927 -1072 0
1361 -848 2110 0
-1576 -738 2057 0
874 -1079 4781 0
3854 584 4784 0
4954 -2214 2199 0
1765 2032 -116 0
4597 956 -788 0
575 -1400 -4641 0
29 3499 -1497 0
477 2907 2465 0
-1707 -4215 2687 0
-1395 -2444 -4187 0
-4184 4886 789 0
3926 -426 1089 0
3850 1866 3764 0
1158 -2328 3833 0
-4366 -1719 -18 0
4325 -2477 -2467 0
-1698 -559 3836 0
-808 1926 -371 0
-2899 3669 -3789 0
4578 4243 -1605 0
4748 3402 4315 0
-3414 2546 1953 0
-4660 3055 -4676 0
3622 730 -2784 0
4697 404 1154 0
2246 912 3070 0
-1883 -1160 -797 0
4402 4519 130 0
-3048 -2977 4958 0
958 1731 2878 0
-2690 -549 3408 0
1291 2733 82 0
3053 3169 -2260 0
-1026 -599 -4046 0
-4365 -553 2595 0
-760 728 3342 0
4546 278 4364 0
108 -232 3250 0
-1652 3822 2704 0
-3666 -3954 2925 0
-4526 2081 3642 0
-3351 -2469 -3093 0
-4214 95 -1987 0
585 3259 3318 0
-4441 -450 3598 0
2924 -253 -1080 0
-2560 -2011 -2551 0
-4236 3804 -4710 0
4165 -818 2161 0
792 240 -4720 0
-4504 2227 -2969 0
-1188 4079 1932 0
-259 1643 3681 0
2310 2902 -1443 0
-788 1840 -2644 0
3653 1157 4055 0
1769 -4322 -180 0
-4271 -71 -2876 0
547 -3092 4758 0
1798 -4181 4820 0
1576 1521 4541 0
3593 4964 399 0
-367 1771 -1073 0
1582 758 -291 0
3967 -2769 -4061 0
-3315 -2115 -3990 0
4684 -4307 -4616 0
3853 4165 -990 0
-809 2895 -3376 0
751 1630 558 0
-4516 -4178 309 0
2188 -4485 -3644 0
3881 4102 -4338 0
-1746 3296 2486 0
4788 -2082 -4638 0
-1760 -976 3272 0
-2440 -1050 1583 0
2419 -1868 1419 0
2862 -2638 2783 0
4209 4733 3377 0
-1415 4589 2309 0
-4328 3419 -2592 0
2577 -2663 -3313 0
1428 -108 2772 0
3116 4426 -4948 0
3797 357 -4766 0
-464 2029 -309 0
-4450 1666 -2214 0
656 -4821 -928 0
2670 1523 -4149 0
1023 -3931 2733 0
-101 4679 -1278 0
-4559 -623 2533 0
-4821 -2260 -2250 0
-4403 23 -19 0
-4647 3194 695 0
-718 4829 -3852 0
2233 313 -3652 0
502 905 -397 0
4012 -3596 242 0
-4694 3199 -2467 0
-3227 -1457 -1733 0
1863 -2845 135 0
-3005 -2108 -2508 0
-3154 217 -3793 0
-1339 3223 -3172 0
-3769 -1143 2192 0
-4788 -3965 3904 0
-112 -871 -4743 0
-2892 -2247 -891 0
-2684 3302 -1753 0
3537 1191 1135 0
-2664 -481 -4806 0
-1701 3244 -4779 0
1125 1720 3859 0
-2687 -2693 -2572 0
-4889 98 -3574 0
4423 -1895 3935 0
-2362 -649 -2830 0
1588 -1468 -4101 0
-3943 -3862 -168 0
2775 4261 298 0
4341 -3310 4954 0
3644 365 -3026 0
64 29 1869 0
-225 2583 -2176 0
1348 127 3945 0
-255 3577 2063 0
-191 -4386 992 0
699 3832 833 0
3447 4698 -1180 0
-4947 -1293 -2801 0
115 2983 -1321 0
-4611 3865 4686 0
-2060 4872 3012 0
2908 -3391 1191 0
-2864 1647 -388 0
-3310 3 -4537 0
3244 -564 -1277 0
4225 638 -1273 0
2644 3828 1716 0
2848 -3796 -1041 0
-2357 886 -4993 0
-3330 2375 3242 0
-1294 2692 -729 0
-1185 3683 -1355 0
141 -4966 -2065 0
2330 1120 -1623 0
-1808 3929 1216 0
-1051 1607 -4302 0
2457 -980 -3091 0
-4577 481 -1321 0
798 4145 -1285 0
1389 2284 295 0
951 1797 -129 0
3111 1834 -3757 0
-4870 4101 -3956 0
4069 -490 -2894 0
508 4244 -2159 0
-4835 1897 -2501 0
4309 -726 4966 0
-955 -3878 -659 0
1371 3568 -4082 0
-2747 -2858 -3540 0
1642 -3825 596 0
-1843 -4506 3281 0
1789 -519 -2863 0
-825 1359 3434 0
4191 3258 4723 0
-719 187 1234 0
4855 1752 3981 0
2129 -4131 4922 0
4245 -4758 -4810 0
3136 3441 2405 0
1810 -3404 3136 0
-4998 1058 1197 0
-1571 4839 -2887 0
871 3782 -516 0
845 -4849 -4113 0
3098 -2499 -4642 0
308 2923 -617 0
-4847 -4485 543 0
3909 -2997 -4675 0
1632 -1367 -1307 0
3537 3422 325 0
1581 448 -1740 0
4814 -2144 -406 0
-1796 -2209 1103 0
4988 3298 1906 0
2833 4243 -1015 0
1323 319 -3488 0
-1143 2067 -101 0
872 2728 4772 0
4006 917 1087 0
180 -99 4844 0
-227 -2369 990 0
-2720 -3216 438 0
-1319 1462 4721 0
4705 -3758 519 0
2899 -3438 4094 0
2261 -4192 -1422 0
-2751 -2876 570 0
621 -2455 1248 0
325 -2422 2317 0
2614 -3121 4035 0
659 3090 94 0
993 838 2752 0
1796 3023 2987 0
-1904 -2677 156 0
-364 1512 4356 0
1831 366 -1251 0
4279 -1787 -299 0
-2327 4598 3331 0
4745 4985 1982 0
3581 188 -3032 0
2048 3753 -4016 0
72 -2540 -4777 0
2667 -56 -4603 0
-4046 -3900 -2974 0
-3772 1897 3357 0
-2436 -2710 427 0
-354 -3878 583 0
2499 126 -1923 0
54 3735 615 0
-1638 -2349 610 0
-3019 492 -3177 0
3003 4926 -4048 0
3111 -2467 -971 0
-1836 -4921 3686 0
4040 3769 4820 0
1614 465 144 0
-1161 2077 -741 0
-2012 4240 -745 0
-2960 -4803 3714 0
-4505 -4317 1125 0
238 -244 -939 0
4586 -815 -3962 0
183 -1753 -1990 0
-1098 2598 4210 0
4436 -1439 -2473 0
4209 -4484 -4312 0
-198 3366 -1092 0
2409 -3641 -1713 0
266 2273 -3250 0
-2095 2624 -110 0
-4760 3028 963 0
-2388 515 604 0
245 -4287 -4969 0
4921 -70 -3412 0
-1495 -1028 -462 0
2172 13 613 0
2112 -989 -1978 0
298 -4815 2013 0
678 878 1943 0
-3832 999 -460 0
4072 3129 -4364 0
-186 2843 2539 0
2456 959 561 0
-3892 -1644 3965 0
-1492 4931 2551 0
-1535 -1769 -741 0
-3301 -3195 -2528 0
282 -3206 -1156 0
4795 -4800 4130 0
1983 1830 4892 0
-3292 -2965 -2924 0
-734 3808 821 0
-621 -3145 2934 0
4779 -4271 -327 0
-4567 4335 3035 0
-436 -1252 -1685 0
4349 -1777 1299 0
-4734 4117 -4831 0
3616 -4180 -344 0
3671 -1340 -4325 0
-2885 -4407 1572 0
2962 -4603 2259 0
460 -2574 3968 0
3143 -1208 1535 0
-391 -3033 3386 0
790 -4752 -4379 0
-3169 3904 45 0
1485 4647 3170 0
-2927 1372 -1371 0
1531 3878 -1358 0
4555 -2217 -4351 0
-1627 2567 2266 0
-563 -821 2963 0
-2310 4228 -1355 0
1998 4679 3844 0
-4451 -1076 1147 0
4279 -1658 -933 0
327 -907 3544 0
-2284 2238 2713 0
2563 -2447 -195 0
-849 305 -1260 0
3288 -755 4621 0
2505 1343 3669 0
-888 -2343 2369 0
4196 -3543 3092 0
3184 -619 372 0
3003 -3656 4325 0
-1389 -592 2510 0
-2709 -4910 -2974 0
2207 3910 -3196 0
2133 -2325 3472 0
-1964 -1978 -123 0
3396 3013 1613 0
-2336 2188 -2325 0
4243 -3662 -457 0
-3708 -877 3622 0
2866 -3204 1669 0
-11 -3808 -4645 0
-4717 -2683 3233 0
-1420 -3613 820 0
-2124 2711 4131 0
-167 3434 3940 0
3922 -1827 -109 0
-1828 1040 -1192 0
1226 -3543 3256 0
-855 -1550 -3519 0
-1978 -4493 1817 0
2585 4037 -4895 0
1777 1518 -927 0
-3607 1498 -4593 0
2836 -2225 2002 0
-1915 -3975 -3011 0
1760 -2255 -1459 0
-2545 3546 2429 0
4475 3276 -1488 0
800 1822 4693 0
395 -552 -1368 0
2378 3292 -4949 0
4175 -2136 522 0
1015 2470 813 0
3435 3756 2083 0
2833 -4003 -761 0
-3401 2679 -4871 0
4244 3508 3153 0
690 -381 -53 0
-4256 -682 -1741 0
-4305 -3555 2798 0
-894 4539 -4367 0
733 -4955 1290 0
3629 -3302 -2598 0
4844 3631 -1683 0
20 2909 2683 0
-153 -3524 -1450 0
-3156 -2824 -760 0
2523 -504 4929 0
4777 1128 4461 0
103 4729 -4355 0
3391 -968 -346 0
-461 4859 2710 0
2766 -4054 4424 0
-2950 -4440 3686 0
-2492 -201 229 0
-403 2623 467 0
3847 1316 829 0
-2865 -2570 -3847 0
-3820 -3525 -4069 0
4239 4466 1293 0
-3878 1654 3477 0
-4424 4651 -196 0
-3556 2258 4970 0
3376 3758 -952 0
4323 400 3364 0
3531 4384 -2399 0
45 3525 -3624 0
1421 4834 -1386 0
2269 616 1013 0
-3416 -1388 -1499 0
850 -862 -4077 0
3996 -4224 -19 0
-603 -3536 -1321 0
4729 3596 -641 0
-3476 4334 -752 0
-3597 2692 -2130 0
-1676 -4912 -387 0
-1641 -653 -3847 0
-2254 4138 1999 0
-918 -2627 4736 0
616 2311 121 0
123 4225 4726 0
-469 -880 -740 0
-4403 -4107 2910 0
1989 3729 -4393 0
2402 -1811 4675 0
-1131 -2475 4952 0
828 -1555 4019 0
-2970 -3645 -4754 0
3462 1577 -1403 0
1573 -3843 4253 0
-909 -1556 4360 0
3882 -4337 -740 0
-515 -2898 3535 0
2162 -4027 -4474 0
-777 3967 721 0
-4766 462 -4436 0
-182 -3642 -301 0
1777 1540 3519 0
3359 4513 721 0
-2654 -4409 -1822 0
-4893 -1001 1487 0
-3363 2548 4644 0
-4980 -338 -2673 0
1669 -904 -2313 0
1609 -4317 -413 0
-4249 2256 2610 0
1782 4802 -474 0
2877 4667 705 0
1999 387 -3543 0
-3149 673 4605 0
2666 -3979 3922 0
-4938 -3088 -4973 0
458 -1224 -3665 0
3192 -1194 -2971 0
3265 460 -2649 0
2353 2356 4804 0
-3173 1748 -3785 0
-3146 -1243 1068 0
-2915 2107 -3137 0
-1616 -1064 -3422 0
942 -1384 -2823 0
-1934 -297 3503 0
-527 -738 -602 0
-2646 3381 3048 0
1945 1155 -3176 0
591 -746 1153 0
-3391 3557 3219 0
863 -1376 -4439 0
-143 -1636 1332 0
404 1334 -4438 0
-4795 -3544 -787 0
2372 -3413 -1616 0
3801 2778 2273 0
2242 3712 -635 0
1699 -4303 1842 0
-4299 3132 1640 0
4595 3764 -4406 0
4306 -4204 992 0
3048 -932 -1172 0
-2247 -835 4078 0
3737 615 3048 0
-4214 -1226 -2711 0
-675 2148 -3792 0
-1513 -4408 -3430 0
362 2320 2019 0
1379 -297 -3841 0
881 -3398 -4836 0
-666 156 240 0
4354 -3049 3469 0
4627 1403 4266 0
-709 -1830 -3248 0
3731 -2254 -926 0
-4718 -3761 4065 0
404 -3761 2363 0
2368 -175 -563 0
-1054 905 3570 0
761 -1949 1636 0
3053 -4205 3454 0
1707 910 1278 0
-4137 4980 2005 0
4593 4387 -1266 0
-414 3194 -1463 0
4416 -3111 722 0
-1501 -2470 4200 0
2358 -2288 -495 0
-3818 -416 281 0
3095 -2807 4973 0
4631 4758 -3711 0
1796 -3897 1193 0
-2092 -3604 3838 0
4594 -2717 1754 0
-4095 3861 4528 0
-1527 -3289 4058 0
2209 -1827 3524 0
-1691 -618 -4751 0
-3017 2340 -4917 0
-2945 -4643 959 0
1876 4081 2461 0
1806 -4456 -2433 0
244 -1351 996 0
3977 -2894 -1659 0
1444 1773 4555 0
-4306 -2164 -539 0
-3878 402 -4398 0
559 638 4093 0
-3777 1059 -3907 0
1634 264 2588 0
-82 4370 -3513 0
308 -1400 -750 0
943 2053 -186 0
-2941 -929 4 0
-3680 -1673 2847 0
-3421 503 565 0
-3420 -1293 4720 0
2681 2564 1050 0
-1081 964 -1257 0
2614 453 4977 0
763 -2499 -608 0
2411 -1668 2559 0
3461 14 -4234 0
-4883 -1666 2850 0
1548 2106 -3209 0
-1763 1708 -4453 0
-4979 -1371 1419 0
-561 -4611 -4855 0
-947 357 -3234 0
1002 3993 -4350 0
1429 -2136 -3908 0
650 -1374 -4068 0
-3431 4363 -509 0
-1333 4225 3610 0
-3104 618 3205 0
1683 3078 -3131 0
-1099 10 3677 0
895 -2136 -1912 0
-4526 -4471 -1136 0
1714 2722 3194 0
-2762 4985 2289 0
1175 -942 4870 0
-4473 3590 3193 0
2234 -2385 -1748 0
-2155 703 -2297 0
-771 -2718 703 0
54 -4287 1012 0
2989 -619 2947 0
-4894 -1552 -2965 0
4194 2010 3662 0
3892 -1758 -1393 0
4876 -1416 -1656 0
-4621 -3720 -2136 0
1363 3541 -1077 0
-985 2686 1325 0
632 4935 -2494 0
3828 -1774 3028 0
3698 -3098 4364 0
-4413 -1581 3217 0
4879 -4222 -565 0
311 3309 -942 0
2210 975 3365 0
3983 3328 -3555 0
2220 -647 1497 0
4682 3827 768 0
3357 -4869 -4996 0
-1536 2539 1170 0
2830 4702 -4262 0
1249 -4238 -1080 0
1676 4233 4722 0
1451 -2861 3594 0
2530 2467 2277 0
-3793 -938 1532 0
3779 2736 -4930 0
-4829 -2890 3578 0
-4861 1739 -3279 0
3940 -140 -852 0
-2759 -3122 -1079 0
-3699 -4441 264 0
4270 -4501 2733 0
4397 2170 -1524 0
-2934 4383 4116 0
-1947 758 2421 0
-4711 1693 -3339 0
-4336 -1658 -1476 0
4220 311 4003 0
-162 -4739 -3059 0
2845 3096 -2622 0
3165 -1152 -2336 0
-1688 670 -607 0
3004 2226 -736 0
-3701 1296 4138 0
-3580 -2396 3144 0
3856 3537 -2563 0
-142 -4538 4225 0
1058 4458 192 0
408 833 -2590 0
107 -2740 3248 0
3448 -359 2550 0
1911 -3700 2184 0
2153 -2628 4438 0
2711 -3796 -3991 0
4499 -2470 2633 0
4194 -3277 2894 0
1727 3957 -3656 0
112 2308 489 0
3440 -1679 -4713 0
1746 4995 -3522 0
4816 -4119 -1575 0
1134 634 1097 0
157 -4722 97 0
1931 727 -3728 0
-4347 -2424 -1952 0
-3660 4948 -3040 0
33 3387 3270 0
680 -2942 431 0
4892 -154 274 0
4240 520 -809 0
-905 1796 -2 0
-4116 2848 -880 0
-352 3884 -1372 0
-3965 -4647 -2471 0
-592 99 4126 0
-688 -4117 -3269 0
4049 226 -2882 0
-4922 -2293 462 0
3645 322 -2323 0
2497 998 471 0
-1096 -4004 2392 0
2227 2507 2693 0
-515 -1793 -1748 0
-1809 -2965 3557 0
462 -1109 1893 0
1151 -1847 4201 0
-1014 905 1260 0
-4072 -27 -181 0
-1442 -1906 382 0
3794 -3810 -3949 0
4305 3541 -4401 0
3111 3963 4588 0
-1499 -3701 -4172 0
1279 528 2858 0
4356 4540 4296 0
-2547 1880 -3809 0
-3538 3912 -3268 0
1196 -3392 1534 0
-1598 2157 4493 0
-3038 -2725 633 0
4431 1569 4068 0
415 -4717 -2840 0
-3899 -4459 2010 0
1548 483 -3959 0
501 4598 4992 0
1108 -3240 3909 0
2503 -3368 -1153 0
2734 -1999 -2220 0
-455 -2350 -4848 0
-465 -4991 549 0
-1098 848 -2037 0
-50 -43 1629 0
3596 695 2373 0
-3907 2568 -2693 0
-2992 3820 4979 0
-2155 3792 2925 0
102 -3144 -4144 0
-2265 -4533 -3310 0
1288 -1769 4873 0
-3595 -2984 -1071 0
-3152 2233 -2951 0
-858 -3156 -4414 0
3551 -3572 4598 0
2681 -4703 2403 0
-4913 2537 -2368 0
4791 2252 3660 0
4646 2502 2553 0
440 4833 1794 0
2084 928 4963 0
-1273 3126 -4328 0
-3563 1097 -1004 0
1841 -4424 -2033 0
-470 -1882 2009 0
-2966 -1337 -2996 0
-4758 -3624 -4722 0
3741 4433 2408 0
-294 -541 -4872 0
-4058 3414 -4013 0
-3291 -4331 3577 0
-192 -17 352 0
-298 380 -3151 0
3455 -4433 3311 0
-3365 1897 1777 0
2321 1464 -1496 0
511 3745 -3506 0
4095 3960 -641 0
874 -1388 -3945 0
-3015 -3111 -4152 0
-3854 -4136 3653 0
-1455 144 1318 0
-2086 -3028 -4458 0
-2024 -4602 918 0
3959 1281 2691 0
-1971 -4955 1664 0
-3940 -3121 2500 0
3295 -2121 1591 0
4991 587 3693 0
175 -855 -381 0
-1355 -585 1340 0
3156 1893 1780 0
3825 50 -755 0
-4991 4618 -916 0
2509 -4855 -1886 0
4370 -3327 -975 0
-111 -3446 3070 0
4200 -1815 -763 0
-3498 2495 1152 0
4056 -3115 -1392 0
2712 767 -1475 0
-3817 1772 3479 0
-201 -304 -2651 0
796 3100 3812 0
2775 4931 398 0
-4228 -1344 -3887 0
-3879 -469 -491 0
-4541 -319 -178 0
1114 482 1476 0
-2688 -4568 -1454 0
2322 2676 2654 0
-2811 -2815 1180 0
-4740 -1261 -3446 0
1318 2545 128 0
1721 404 3056 0
1066 4559 2614 0
3557 -2174 3920 0
4728 -1293 -3278 0
-3047 -1228 1863 0
3519 -4501 -4328 0
3770 2669 974 0
4696 -2813 762 0
-2971 1769 -496 0
4546 -1460 2665 0
-1829 -662 -3679 0
-2825 -1720 -1270 0
-4346 4645 -1058 0
3079 4468 -4302 0
3102 -4476 1938 0
-1746 -1608 2983 0
-336 4569 773 0
-4957 425 3640 0
-4373 -379 -202 0
2399 -1741 -3251 0
-2169 -3771 2906 0
-2297 3394 4209 0
-2022 -3431 3483 0
3522 245 3533 0
-2769 -1315 4552 0
-712 -2561 3750 0
591 1058 3690 0
3092 2308 -2479 0
-1763 1926 1437 0
4911 4294 -3853 0
-749 3771 2349 0
3667 -4924 -4621 0
4088 1385 -3470 0
-4317 -4828 2554 0
-203 2464 -3635 0
-3168 -726 -4007 0
-1956 4074 494 0
379 3331 -4513 0
-237 -2514 -4529 0
2723 241 -2317 0
3339 -2234 -240 0
-353 642 2153 0
-1132 -588 1290 0
1808 537 2134 0
2085 -4633 3797 0
160 2112 3459 0
63 -3274 -1394 0
2238 3005 -619 0
2572 2467 261 0
411 935 -4342 0
-3961 397 4803 0
-4014 22 164 0
-205 259 -2900 0
-2285 -4598 -4286 0
-3065 3130 -4842 0
2137 -2610 3261 0
3028 -4973 814 0
89 -1144 3165 0
3545 4364 -4 0
-2401 -2592 4549 0
4682 -741 -4534 0
106 -3926 3833 0
-4822 -3233 1568 0
4354 -2780 -1911 0
-261 3707 3150 0
1269 -2588 -383 0
616 167 1441 0
-2614 645 -508 0
-248 1395 -2125 0
1157 1007 -1535 0
703 1877 -993 0
4799 3770 -4635 0
-3774 4658 1160 0
-4421 409 2862 0
323 -2893 1850 0
-3091 -872 -3287 0
207 2138 -2535 0
4547 2866 2048 0
836 -3033 -4003 0
-1205 -233 -2275 0
2215 -456 -3191 0
251 -4080 2656 0
-2802 -3276 -819 0
-1713 -932 3377 0
3510 4107 -3042 0
-1979 -3365 -2851 0
-3039 4833 2482 0
3567 3651 -2257 0
686 1927 -1166 0
3182 -1155 -1265 0
-1898 434 -2684 0
-4020 550 -3618 0
4176 -2038 -1209 0
261 633 3974 0
4755 -4716 -2901 0
3363 -2346 -3805 0
-2672 1228 -3334 0
3791 1022 4261 0
-4446 64 4244 0
-1172 2634 -565 0
4562 -4365 4807 0
-4986 1875 46 0
-224 -3606 -1443 0
-3393 821 -3571 0
335 3262 -50 0
-2485 -352 -3624 0
2481 3539 -348 0
-1894 3465 -1588 0
3952 -1813 -173 0
500 2502 728 0
-1778 1766 3243 0
4961 -4256 -4184 0
-2161 -954 -1937 0
-1087 2731 -2219 0
13 1080 -2922 0
-2782 -1388 539 0
1677 1062 -2807 0
-107 -3534 -1917 0
3977 -2396 -4428 0
-2954 -3635 -3041 0
1150 3565 1924 0
4247 4304 1236 0
3465 4660 1630 0
4545 2645 2743 0
-3463 -986 1320 0
-3919 4177 3456 0
2133 4545 -1399 0
-589 2206 4331 0
-2576 208 1112 0
3338 3706 2867 0
-2842 708 3206 0
3372 -2376 -2414 0
-865 1226 1462 0
219 4036 1123 0
-4034 4223 293 0
1773 -4514 -4222 0
-11 -3839 3149 0
145 -272 -3036 0
353 3699 -1890 0
-1265 -3636 -3236 0
3007 -3988 4557 0
3723 -963 1806 0
4878 -1094 4770 0
4449 1694 -1815 0
1341 -4396 1860 0
-1538 -4241 -3600 0
-3804 4179 4743 0
-2399 449 -2532 0
-3381 -464 4711 0
-3063 299 -1679 0
-1753 1786 -176 0
-1635 3320 4084 0
3188 -2784 -3724 0
-4210 382 -4000 0
-902 -3711 -3022 0
3821 1603 -1517 0
477 1490 -3790 0
-2840 -1997 -113 0
1679 -4180 552 0
-3931 1014 -3556 0
4967 4312 1577 0
-292 -2014 3203 0
2822 3947 567 0
255 -2721 3999 0
4484 4706 4576 0
3745 1703 -1422 0
2928 -2825 376 0
-3698 396 -125 0
2546 -3825 3839 0
1288 -1867 465 0
2789 -2250 -2219 0
3758 -3213 598 0
3883 -2316 -3041 0
-2786 -1287 4178 0
-4135 -3642 -4966 0
2508 -4536 -4327 0
-4961 -2438 -1391 0
3216 -2023 -4623 0
4190 -341 -3748 0
-864 -2336 -785 0
-4342 -3728 -2753 0
-1618 -2975 -3079 0
-3837 -1628 2007 0
-1143 -3321 149 0
3003 -2098 -3314 0
-1800 4963 936 0
-1811 -1970 3377 0
4095 -3911 906 0
4908 1761 3045 0
-2644 -4158 -2866 0
-437 -131 -1457 0
4881 4423 -2299 0
-1251 1442 -4003 0
-1425 4392 2138 0
3102 -3327 2726 0
3124 -4316 -4339 0
683 -4849 755 0
3067 1007 -4617 0
-3052 -1002 -4447 0
-3314 4217 4933 0
-932 -3375 3579 0
4461 2577 -3819 0
1591 -1340 -2637 0
1032 4037 273 0
-2038 -706 4422 0
-4213 -4356 -4009 0
-3234 -1879 -2808 0
-1521 4052 3795 0
4607 -3986 621 0
-3183 -3066 -860 0
4339 373 4498 0
-2635 2615 4608 0
-4656 4863 -1533 0
-1485 1812 -4003 0
214 -4154 -3001 0
-1978 669 3881 0
-3301 -1944 -1821 0
-427 3017 228 0
-3371 791 4303 0
1414 -2696 1394 0
-559 -3971 -343 0
2179 -354 -2296 0
4379 -968 841 0
-3195 -400 -2662 0
-3714 -4693 -4912 0
-606 -2881 1917 0
-2197 32 -2458 0
1904 3919 1215 0
3734 3005 -151 0
-1688 4426 2144 0
2719 714 -4336 0
970 1542 -1061 0
2754 1972 3887 0
-1587 -449 2551 0
2552 -2526 -467 0
2667 2069 4125 0
3647 -4348 3155 0
4029 569 -1108 0
-4249 3429 444 0
2298 226 -223 0
-4956 -3493 -221 0
-4448 -51 -4501 0
-4307 3654 2510 0
-3272 616 -3977 0
-1191 -1334 -2810 0
-2950 -801 -496 0
4925 -3860 -2137 0
-3684 1558 -1861 0
-4482 3089 -4601 0
2836 882 2822 0
-374 2750 3956 0
2629 4018 4343 0
670 -3315 2138 0
-3298 2600 -2506 0
-1707 -1627 -2312 0
2112 3965 3991 0
192 2063 2799 0
-266 4917 1789 0
739 1590 -2316 0
-2252 -4664 -4190 0
545 -4615 635 0
-1734 -456 4275 0
-107 1327 2487 0
-4260 3178 -1326 0
1429 24 2239 0
707 2487 2701 0
-1008 -3749 -2352 0
-2383 -3314 -1900 0
3713 -654 -1282 0
-4553 4673 1506 0
3348 2640 4640 0
-4277 -4121 -735 0
2971 -455 -4461 0
-4478 1339 4257 0
2850 -2829 636 0
1833 4651 -3132 0
-791 4473 -3444 0
-841 -125 4766 0
-2490 1536 4387 0
161 2948 -4915 0
-2854 3209 -1397 0
-4554 4591 3781 0
2408 -3290 -3117 0
-4979 4860 792 0
4278 -4434 -720 0
-4961 2566 -4572 0
1207 -4956 2118 0
3452 -4510 4651 0
-2550 -4739 -901 0
-2021 639 4360 0
246 -4581 48 0
4318 -3871 -3012 0
1340 -1453 -4012 0
-1299 1974 -461 0
-1654 4030 -2282 0
2541 4934 4763 0
1329 2645 2236 0
-2577 3866 -4285 0
175 -4475 197 0
-3480 561 1828 0
3860 -1344 304 0
-3302 4223 -4187 0
4233 4731 -3992 0
-137 -2238 4138 0
-3402 -2299 -2817 0
4567 943 1646 0
-5000 1488 2692 0
-4692 -4665 -1604 0
-986 1541 -875 0
-1221 4813 -58 0
926 1485 -3024 0
3935 -3066 -829 0
2339 -2487 2973 0
3363 -1070 -686 0
1451 3738 -4349 0
2093 4022 3362 0
2109 3490 3376 0
-4983 -146 2868 0
-684 -2631 4898 0
3131 667 1711 0
3762 -869 -709 0
-2456 -3002 -3170 0
730 -3791 -3891 0
-4502 -2766 4387 0
606 -1712 464 0
1904 4746 -1169 0
-4109 3809 246 0
1078 -3788 -192 0
-309 -2483 -661 0
4886 543 3858 0
-4990 1625 3758 0
1894 4380 -4294 0
734 1648 -3988 0
1867 4938 4877 0
-4886 -1357 4852 0
-2374 -1273 1567 0
4643 4176 2348 0
4604 1335 -4247 0
3639 1388 1257 0
2440 -1132 2027 0
2970 3025 -3271 0
-3108 1627 2890 0
-3410 2928 -4557 0
1345 1295 3670 0
3810 4717 2617 0
-3025 2149 4756 0
556 -4855 421 0
-1035 -798 -3234 0
-3012 1216 -2441 0
-2125 3892 4929 0
860 -3739 -1351 0
-2338 1203 -3456 0
1530 -2092 -4190 0
1361 4354 -1994 0
-3068 -2204 1751 0
-354 -928 -3469 0
1750 4413 4053 0
306 -578 -692 0
-1768 -3580 4553 0
2036 -3353 4559 0
-881 2602 -2079 0
-1561 2305 -2725 0
-582 -1783 -1731 0
-1692 -136 2992 0
-1585 1901 -3156 0
-904 4012 3557 0
-2953 582 3944 0
1353 -3253 2438 0
191 -4649 -1157 0
-250 -245 -3255 0
3034 216 -1994 0
2669 -3760 -772 0
1237 -1561 146 0
2430 1701 -1566 0
1614 -3883 3218 0
4991 2411 -2831 0
-4595 -1288 -448 0
4072 -2301 -2183 0
742 -3923 -324 0
4929 -3715 -4475 0
-4567 3121 1359 0
3702 -2898 1569 0
672 -831 2984 0
-3863 4729 654 0
502 -3042 1723 0
2890 -2528 1281 0
1406 -3743 -4838 0
-4652 -2125 -2902 0
-425 -620 -4389 0
-2028 2479 3268 0
-4014 3256 -4339 0
2329 -3867 -287 0
-156 2676 -2247 0
3928 4107 2410 0
-1499 -3879 -4299 0
-3095 -1093 -2549 0
2965 93 3372 0
2485 2912 -1480 0
3933 -4255 139 0
-3445 2139 1818 0
-276 -3804 -2757 0
3041 -3622 -510 0
313 -2478 -3766 0
4762 2661 -2225 0
3518 -1782 1090 0
217 -4226 -4689 0
-3469 3139 -1280 0
4592 1619 -3741 0
4041 2365 -4585 0
-4365 -2375 -3620 0
1562 63 -1344 0
627 -3847 -3017 0
-2423 1504 3947 0
-2353 4284 -4207 0
-4414 2238 2481 0
4943 11 -4420 0
1239 -36 -3619 0
-292 -3299 1550 0
-3529 4452 5000 0
-2565 1861 -4165 0
4453 3986 656 0
3970 1403 -2640 0
-4693 228 -181 0
-3971 2745 1720 0
-1226 -4229 2692 0
-3759 2891 -1420 0
3200 -2301 -4970 0
-383 2402 -4521 0
-339 313 1373 0
1689 -2124 4327 0
1193 1100 -1243 0
-1876 4739 -1214 0
-1754 4270 -4473 0
-1411 2631 -3773 0
-519 -4573 240 0
258 -1720 -2213 0
-981 -1364 -4353 0
3071 -3521 -1257 0
1943 -4853 -1441 0
599 -2466 2054 0
-2035 4460 -2642 0
3189 901 3502 0
457 1234 -3566 0
-2527 792 -3632 0
-1127 2171 2902 0
-4664 -829 731 0
-1467 4166 -1051 0
618 -4043 -2287 0
-2073 4356 -4373 0
-4301 -4279 -1276 0
-3156 -750 4872 0
3251 4117 3235 0
-5 -1720 3306 0
4330 -3742 -2476 0
-171 1575 -3464 0
2347 -3986 4414 0
557 1506 2457 0
4419 -1127 4740 0
4165 4690 -3421 0
-951 -4752 4382 0
-1356 2467 3321 0
-3872 -4180 2923 0
-2156 1694 1495 0
-337 153 -258 0
558 -4684 2444 0
2 3074 -4486 0
-4226 -1675 4699 0
835 2312 657 0
4955 2480 111 0
2509 3920 4489 0
4852 -3570 -4676 0
2566 -1767 -96 0
1454 4628 3413 0
1087 1076 -1189 0
475 2736 -4334 0
-3292 1405 -916 0
3344 3382 237 0
2437 -705 262 0
-1367 4998 -906 0
-2540 1452 -1962 0
-3541 328 -422 0
-2523 -3373 3847 0
3363 -4574 -4486 0
-2355 -352 1149 0
728 4449 -3354 0
-1831 -2214 -1487 0
1551 -3329 -1399 0
4553 -482 -4129 0
3108 3998 4120 0
3225 1755 -3698 0
-1444 -775 -4478 0
4509 3871 -3087 0
3954 4302 -244 0
-1385 -2848 -4988 0
2296 -3570 438 0
2940 498 688 0
3616 2637 1495 0
528 2674 2688 0
1583 -3551 4635 0
2269 4633 2793 0
301 -1480 861 0
-1757 3667 -3748 0
2005 -3724 2380 0
-3934 4299 -784 0
3657 2188 1842 0
3864 6 43 0
1074 3699 584 0
-979 877 2038 0
-4716 -1332 -2053 0
2770 -503 1302 0
1993 -4649 -1863 0
-3622 -4869 4840 0
-2069 3843 -4876 0
3058 709 680 0
3630 -1136 3468 0
1567 -3478 -40 0
871 -4877 -4872 0
-3155 1857 -3434 0
-1439 -2152 -3105 0
2373 -4522 2630 0
-437 1209 -4364 0
-3868 -335 1379 0
2803 2794 -2289 0
763 597 -3174 0
4898 268 3667 0
-1339 1617 -4862 0
4043 -2241 -563 0
3574 -2599 2434 0
-4330 -4728 1106 0
158 4161 3851 0
2303 2246 -2243 0
-4921 -1086 2051 0
2304 -1781 140 0
4446 398 1655 0
3602 -1996 -1252 0
-843 -3832 -1052 0
1794 -287 3583 0
3085 2387 4367 0
-3277 1870 1874 0
-3346 -2659 4763 0
-1470 3836 2622 0
2624 -2618 2106 0
-706 -1646 933 0
-2995 -1381 -1647 0
4370 -1997 741 0
-4463 3014 -3910 0
2576 4640 3444 0
118 4569 2082 0
-1942 -2223 -2796 0
-4760 -2866 -1510 0
-1002 -1401 -1482 0
1095 2579 1648 0
533 -4003 -1348 0
-2998 -3243 3937 0
3120 3984 1455 0
-2486 4048 -3700 0
2860 1608 -4404 0
-4253 -782 -2002 0
-1892 531 -2811 0
-3340 -3682 1783 0
1559 -2024 -4049 0
-2198 -2916 -3702 0
-3309 -4521 -2320 0
4733 -4939 -399 0
4690 690 -2873 0
-1908 1907 -4311 0
-2017 1762 -3942 0
4638 2697 -677 0
-2061 2928 1471 0
-1343 -459 2677 0
2510 -3873 -4809 0
4499 -3352 337 0
866 4377 3668 0
2187 -268 1888 0
4126 456 647 0
1977 -2592 4290 0
-2147 2159 -4232 0
3169 1751 2528 0
4046 -419 -1357 0
3570 95 1715 0
1607 3775 497 0
2316 -2053 3884 0
-913 2182 -1989 0
-3166 3776 1387 0
-1439 -4393 1033 0
-2781 -2867 -898 0
3873 -4327 2914 0
701 1971 2856 0
-3176 -1728 905 0
740 2955 -2503 0
3566 4169 -3696 0
1908 -2054 -703 0
-1764 -3034 -1182 0
2685 4569 762 0
531 780 879 0
1597 -768 494 0
441 65 -2062 0
3769 -3260 3726 0
-837 -3647 1897 0
859 2228 2926 0
3025 2617 -2380 0
1084 -3891 -426 0
-1039 4078 -4726 0
-2621 650 -440 0
171 -1871 -723 0
-4871 3986 4149 0
606 -3110 -2092 0
2400 -605 -2378 0
-4349 1478 1223 0
653 1462 -2111 0
3478 -4183 -4118 0
-4992 -1537 4963 0
-4305 -3401 4239 0
-2181 -3863 4403 0
-3289 802 2723 0
1403 4138 6 0
-1794 -4716 -3563 0
-4286 -3945 -2648 0
2631 -1396 -3967 0
-1735 -3395 -4874 0
-309 -1177 -4725 0
2111 -1368 3165 0
4749 1909 3043 0
1810 -2884 2803 0
-3307 -2693 -3788 0
308 3836 304 0
4713 527 -2852 0
-4414 4309 621 0
2749 3849 3981 0
-3239 -3759 2626 0
-1260 -2807 -2498 0
-3439 3393 2255 0
297 -4158 2337 0
-95 -1186 3943 0
3197 -3978 2005 0
-4896 -433 1110 0
-3558 -4709 3370 0
2428 1201 -4484 0
-2807 -4132 1963 0
-3224 -3796 -846 0
-4857 1307 -4008 0
-3780 -948 -332 0
-947 1932 -3844 0
-4551 4653 1045 0
-1490 -151 1072 0
-4530 -319 661 0
256 1952 -4966 0
-984 96 -4027 0
2407 1295 1467 0
-676 694 -3206 0
-3 -1978 928 0
-2587 -1496 -47 0
-459 -4744 2860 0
-1836 2326 -4220 0
-1023 3579 211 0
2628 249 -4014 0
-828 -3251 4668 0
-1560 -3128 1900 0
1199 -2503 -4160 0
-1614 2067 -250 0
2457 2067 -4189 0
-4883 4601 -1606 0
-1710 -2756 -1678 0
245 -3721 3209 0
210 4512 -1532 0
338 4412 4143 0
-2914 -3762 3228 0
3282 -2008 3115 0
4438 1717 1859 0
-2921 -4754 -1940 0
-2279 2400 807 0
3149 4507 -22 0
654 1287 -2780 0
-4639 -4587 -4622 0
-326 1039 1790 0
-3859 3426 -2238 0
1689 2898 -1488 0
3887 3812 -4095 0
-524 1646 -373 0
-1380 316 814 0
3248 -922 -318 0
-2595 1085 2334 0
344 -4676 -2186 0
4397 -844 -4939 0
-447 -2631 -2074 0
153 -2405 2340 0
-3414 799 -2661 0
-2797 1093 3507 0
-4368 3354 3540 0
1066 -3825 559 0
-1200 -1830 -462 0
-327 -869 -2794 0
3879 -4780 1168 0
4069 -3188 263 0
-2959 -2474 -830 0
1867 -2764 -2853 0
-4906 420 -4816 0
1162 4949 3784 0
-2025 4188 -4817 0
-4928 -4570 4275 0
-4149 -448 -848 0
-989 -166 -443 0
4458 293 -190 0
326 1624 -2402 0
-4889 -1604 4319 0
-3374 411 -3866 0
669 -3043 4076 0
2046 168 -2324 0
-3054 1982 -2808 0
-284 -4771 4404 0
4030 -4339 -1653 0
615 -4785 2931 0
-2690 1192 -3891 0
4301 3632 2898 0
1526 -4548 3020 0
-4215 3374 4995 0
3323 2437 -800 0
-839 3603 -2016 0
356 -379 1090 0
4755 -4928 -633 0
3544 -4219 -2473 0
4526 -3490 3348 0
-574 -2464 1515 0
-3197 4604 1944 0
-3571 3059 -4051 0
1208 973 4337 0
-451 -1120 3195 0
191 -769 3931 0
2710 585 -4500 0
-4666 -488 894 0
4675 -2501 -603 0
2561 -397 4808 0
2840 -4325 -2998 0
-1729 3554 1500 0
-4369 304 4187 0
-4906 401 2719 0
-3894 1845 -1848 0
-4146 467 4646 0
-1723 -1607 3297 0
1432 3019 630 0
4361 297 4341 0
-3884 1152 -3112 0
2513 1462 -3337 0
973 1116 759 0
-2492 1014 556 0
4795 -4305 1516 0
4241 -4832 -2025 0
1332 -4752 -4824 0
176 3991 -890 0
-802 -4354 -4184 0
4121 4994 665 0
-2363 -4994 -4784 0
1586 -551 -1323 0
2054 1809 -4669 0
4406 -2522 3464 0
-4315 3338 -3764 0
894 -115 -3348 0
1024 1629 -4764 0
-4784 -855 3821 0
-2480 -2479 3662 0
4118 3924 -835 0
-3124 -2272 -4127 0
3218 3119 4029 0
1979 -3109 3459 0
-386 1342 -1546 0
3992 2742 720 0
1558 -3099 4680 0
-2184 -310 221 0
2806 942 35 0
-3119 1418 -4180 0
-1064 3903 4630 0
-2036 3939 -3429 0
853 -3877 1217 0
3468 1611 2753 0
-4417 -3587 -4812 0
-4967 -1888 666 0
463 1703 1111 0
94 3858 -1506 0
2665 2824 -4654 0
-555 2057 -2621 0
-487 -2245 -829 0
3977 -252 -2577 0
-1706 1632 -404 0
-2480 2632 3464 0
4931 3982 -3639 0
-4995 -580 2254 0
1835 3827 -628 0
177 -3240 2077 0
2563 -2177 2152 0
3223 -1121 206 0
1536 3922 -4638 0
2557 4203 2021 0
-3992 -1967 -1479 0
801 897 -2503 0
-2909 721 2862 0
1586 -2320 3043 0
2170 -3158 -4893 0
-939 1138 -3978 0
-2120 -4562 2486 0
152 -2460 65 0
1214 -3064 4435 0
-1811 3981 -4073 0
1220 -612 -1437 0
1289 3429 1915 0
3136 -2076 -2739 0
4898 1362 3533 0
4752 -1960 -1753 0
-2691 -3440 -1771 0
2928 2162 -604 0
-1798 3046 1316 0
4649 3957 4227 0
-1125 4203 -4493 0
174 2756 2209 0
3970 3482 -1333 0
-4902 -3894 999 0
-2441 -2421 -2824 0
4595 -1053 -585 0
-4828 -1809 1671 0
3934 -1332 -4816 0
-715 841 2611 0
-2978 4251 -3615 0
4844 -3320 -3809 0
1850 1154 -2831 0
1441 4102 3448 0
446 3899 2791 0
-1434 -1951 -3557 0
-2081 2659 1639 0
1579 -4835 -2691 0
-2699 3384 -3751 0
63 4170 1265 0
3771 4505 -762 0
2828 2073 -427 0
-790 -1080 3035 0
-4145 14 -3665 0
1928 2368 -4020 0
-941 -3727 1866 0
-1318 4775 931 0
-855 2322 2614 0
-1579 211 1608 0
446 -336 4165 0
4181 -922 632 0
-2945 1536 -4184 0
-2345 -4836 -3614 0
1350 -434 3532 0
-3905 -4998 1288 0
4099 4563 -2004 0
3561 2369 2121 0
-2645 3237 -4283 0
-4686 1521 -3031 0
-2570 2784 -1326 0
1272 3451 1314 0
-455 4950 443 0
-4262 -3002 -992 0
-3292 -330 -1269 0
3491 1528 -507 0
1564 -531 262 0
-352 -1474 3306 0
32 -2486 -2281 0
-3005 -4886 -954 0
2153 -391 -2364 0
1256 337 -1635 0
-1243 1211 -641 0
976 -3155 3349 0
4819 589 711 0
216 4808 -4342 0
4096 4101 -4447 0
-2364 1736 -4142 0
3597 -3275 -4972 0
1549 2357 -2151 0
1405 1874 1462 0
4047 -3191 -542 0
4966 -3605 -3720 0
276 219 -2078 0
2679 -385 185 0
1372 -1253 1415 0
-4734 -1217 -945 0
702 -3820 4715 0
-3962 1520 4128 0
1576 4894 1048 0
838 -1058 1099 0
4090 1822 -423 0
-1984 -670 -4842 0
1163 -942 -1479 0
-2768 -3327 1021 0
-4881 -3483 3372 0
-2741 1530 -2315 0
-3726 1009 2290 0
4049 -1083 -3946 0
-4914 4745 234 0
1658 -3184 -2683 0
-2911 1852 2038 0
4901 2793 -4128 0
-3985 2612 106 0
4070 1562 -649 0
3959 -4266 3878 0
2335 4734 -3088 0
227 3851 -4178 0
4698 2652 1116 0
-2551 -2017 4760 0
-110 2701 -431 0
-4577 -3849 143 0
-4249 -4597 2132 0
-3337 -3618 1152 0
-2184 -965 3529 0
2792 -4579 -2573 0
352 1278 4764 0
-826 -4894 3331 0
-462 744 2366 0
3085 433 2887 0
-135 -4363 4200 0
91 -2480 739 0
3364 -241 1387 0
192 -2124 -1171 0
-2306 2996 2082 0
2427 -2147 4716 0
819 -824 4355 0
-367 -3994 -3722 0
-1995 -2141 876 0
3642 -1511 928 0
-2619 -392 -2973 0
-2962 -2591 670 0
-4154 -4150 4776 0
788 4026 524 0
-2307 -3099 -874 0
2327 -4697 4344 0
4645 -2513 4108 0
-3634 -2997 2337 0
-1354 -1977 3111 0
2925 4238 1306 0
4001 -737 -4165 0
764 -3453 3280 0
321 3253 -2763 0
4446 2735 3464 0
-984 -3772 -2106 0
-3101 -1448 -4849 0
-4577 -1308 -63 0
643 -2314 4063 0
665 -3826 2351 0
-3048 -4667 -94 0
-2817 720 -3746 0
4543 4076 -3003 0
-4065 -959 -4187 0
-1484 1414 3187 0
2596 4356 2396 0
1737 2990 1192 0
-4743 1769 1853 0
205 -2389 4081 0
-2578 -4340 4697 0
4263 1329 4448 0
1754 -2644 1228 0
-2330 1995 -3936 0
4187 4663 1495 0
-3364 -2676 278 0
3044 -2283 -40 0
4776 901 -2230 0
1837 2593 4431 0
-2923 2090 142 0
2380 4893 -1628 0
4497 4450 -2902 0
2205 3570 -3511 0
349 -3975 4993 0
-1921 -1295 -2555 0
1820 640 1694 0
4582 621 610 0
1022 3485 525 0
732 -171 104 0
3759 -1986 4328 0
3630 3147 2810 0
1135 3869 -3415 0
-3458 2379 1492 0
-2300 3736 3509 0
-4862 2221 -31 0
-4880 -3491 54 0
4769 2635 1658 0
3740 291 2963 0
-1238 586 1439 0
-3519 4488 -683 0
1399 3953 -1055 0
-1321 4621 -4031 0
4690 -1833 -4707 0
-4535 -3667 3200 0
3029 -1428 610 0
-285 -1689 1717 0
-4066 -3342 2245 0
-1962 -2764 -674 0
-4745 -503 2390 0
-4190 -2084 -4552 0
898 -3368 3790 0
-1677 2365 -3288 0
3064 4328 2234 0
-2852 3028 -1681 0
2348 1132 -4412 0
4829 -1462 2970 0
2725 -4662 2426 0
8 -4449 -256 0
3660 -26 1310 0
-4201 -464 258 0
3867 208 4260 0
-2781 411 -1356 0
2699 -4367 1055 0
-2999 -4233 4189 0
-1986 -4824 -2068 0
-1083 -3533 -3091 0
3457 4219 -814 0
4612 -2858 4450 0
-652 4966 -1544 0
870 -1510 -3982 0
-626 -3661 1061 0
-2012 2227 -1949 0
865 47 53 0
524 -1231 -148 0
-3995 -932 3120 0
314 -1494 -631 0
2679 -528 4354 0
-4800 -907 -311 0
-1372 325 -3600 0
-3329 2168 2128 0
3481 -1098 -4750 0
469 4907 792 0
-2476 -881 -4899 0
-1611 -2914 -612 0
-610 -3681 -2732 0
3438 -4555 4450 0
-3967 -4231 -1326 0
1082 4567 -986 0
-3403 -4244 -3194 0
2564 -3162 1750 0
4801 1882 -1443 0
677 1212 2943 0
-2805 1982 3307 0
-4099 -3031 -2032 0
-372 -1011 1526 0
-706 2165 3322 0
450 2044 -3862 0
-3458 428 1153 0
1839 -4624 3985 0
-258 2816 3603 0
-1726 -860 -3982 0
-3636 2724 217 0
1705 3683 -4706 0
904 -4057 -4794 0
-3507 -4718 -2636 0
-3211 3796 -4382 0
2481 -3768 4645 0
246 4140 -609 0
364 3785 -103 0
4442 -1384 -1644 0
-4154 -2288 -4387 0
713 850 -1120 0
-2378 -4752 3576 0
-4482 3480 2399 0
4769 -230 -3749 0
2361 -229 753 0
3239 4240 -3884 0
1432 740 -3736 0
916 -1371 4658 0
2147 -361 -8 0
-4784 -4339 739 0
-4958 -3157 -4146 0
-1261 400 -4709 0
2073 -2264 -3025 0
-3947 4495 4513 0
-3582 438 -1727 0
-1779 -2255 293 0
-3158 -546 2265 0
-650 104 -2936 0
1324 -4629 1874 0
-4986 -2483 4800 0
-4098 -2569 2310 0
2043 -1331 3562 0
-4379 -2578 -1388 0
3476 2216 -203 0
2549 931 -1914 0
4597 633 -974 0
2704 -2863 -2099 0
-4662 -3680 4988 0
4015 1902 1404 0
1394 4150 -373 0
-443 4485 3736 0
4483 -4848 -2647 0
-2793 1376 2512 0
2368 -3380 3931 0
-1380 -1028 335 0
2710 -944 3535 0
-1560 3870 -4490 0
443 -2936 -429 0
-2631 -229 490 0
513 1388 -3688 0
-1429 3999 -4081 0
-239 -1013 -3219 0
-2078 2069 4150 0
-1345 3312 722 0
3226 2534 1130 0
455 611 1951 0
-2213 110 -3604 0
-1276 2626 -1305 0
-3574 -4545 4123 0
1114 1354 2052 0
-616 -780 3518 0
-4348 -347 1242 0
2186 -4113 -3438 0
3332 -105 1308 0
3112 4536 648 0
-3531 -3713 -3483 0
-2740 -2211 3069 0
-3212 -1554 -348 0
2858 -1462 -1677 0
-4357 1663 -4755 0
3589 3241 2569 0
1278 -2482 -3986 0
-637 -796 -2318 0
2807 -2517 -242 0
2902 53 239 0
3581 1032 -383 0
-1748 866 -4838 0
1969 -4125 3880 0
3142 -268 4382 0
-3637 467 -992 0
3562 4795 -565 0
1435 -2711 -2777 0
4797 3109 2206 0
2305 -3578 101 0
3490 3302 939 0
4640 4056 4257 0
1001 302 2203 0
-4894 -4574 -3477 0
-4033 -2288 4729 0
-3719 3537 -460 0
-1357 2668 451 0
666 4210 -2522 0
4891 -2227 536 0
4629 -264 -193 0
763 -1265 423 0
2712 1729 -2108 0
1855 -221 -1124 0
750 -1078 -2209 0
335 3717 -512 0
1805 -4260 -367 0
1481 3796 4265 0
4144 2334 4785 0
-3164 -3106 729 0
3801 -2549 -4732 0
-1407 -2563 2241 0
-2022 1220 -3045 0
4479 -1641 2892 0
-2138 -2946 -2311 0
4978 3360 585 0
4233 1309 3794 0
5000 -3698 -2087 0
-4175 282 2303 0
-4461 -4890 -4097 0
2231 -4960 -3414 0
1266 4388 3381 0
748 4479 -1405 0
2592 4225 2102 0
3270 -646 -2586 0
2109 4616 -2726 0
-3103 4499 -4971 0
-1411 3405 2913 0
3299 -2909 2837 0
-1056 4087 3424 0
830 -4758 -2623 0
-3982 -1164 1015 0
2801 3411 3166 0
1330 -985 -537 0
4153 -674 -1178 0
2098 -4542 -1084 0
-2282 1963 2717 0
-1352 -4313 2482 0
424 3526 -964 0
580 1650 269 0
-4141 2845 2709 0
4279 3668 -71 0
-3284 3048 -3746 0
-1402 4683 -4923 0
3419 -3693 4444 0
-4758 -1202 -3551 0
-1115 540 -3484 0
967 2795 -1027 0
-1374 -4771 141 0
-1513 -4038 -3689 0
3038 -4209 -4813 0
4283 1790 653 0
-1572 3961 1520 0
3118 2566 4578 0
2786 4310 -304 0
4325 423 -3507 0
-2840 4816 -4527 0
-2019 2096 -395 0
-2129 -443 -1318 0
-1778 738 3178 0
1897 3936 -552 0
2361 -1746 4500 0
1208 -2165 1290 0
-2075 -1276 -3442 0
4762 4964 -2873 0
-933 4432 -4218 0
4213 4704 2699 0
807 -739 -3586 0
-1968 4918 4738 0
299 -3674 191 0
3356 -3338 -322 0
862 -3221 1779 0
-4788 1415 -1885 0
2827 4514 -2548 0
4457 1269 3064 0
-4570 678 -385 0
-3710 2217 2722 0
1014 3517 -4341 0
2316 4355 -1455 0
-1437 4354 -3935 0
1700 382 -1085 0
-3608 3354 1170 0
-4534 3234 -4749 0
-2061 -3918 -4333 0
-2054 3844 -4773 0
-1588 3736 -4319 0
-3775 -4994 3987 0
-4217 3241 3915 0
581 -2466 -3365 0
-2863 -2345 -3208 0
-3734 -522 -4821 0
-2482 1313 -4739 0
-207 882 4949 0
-4206 3131 2424 0
3751 -1325 -298 0
-2552 -465 -3630 0
-2262 4000 -105 0
-4571 -1726 -4987 0
-4470 -932 749 0
3482 1070 3142 0
-4276 -1279 1335 0
-1705 4479 -4596 0
-4761 2089 -2322 0
4044 1150 -445 0
-1986 3755 -1302 0
225 4864 2915 0
-4773 915 -4603 0
-2203 4301 1945 0
-3039 1525 4901 0
2638 2425 -933 0
-4190 -2432 4273 0
2667 3502 1300 0
-2152 4452 3679 0
2769 2768 -1747 0
3198 752 -4008 0
3933 4279 4661 0
810 2199 4110 0
-378 -3627 -725 0
3046 1685 -4913 0
-3435 -4813 -923 0
3792 1168 -1410 0
2766 -2964 2389 0
-3382 -4382 -1452 0
-3193 1757 4250 0
-4944 -162 1109 0
-2593 -4449 -4262 0
428 2154 -1464 0
-688 1409 1992 0
2870 -1971 2541 0
-4888 3600 -4204 0
-4866 2615 -1965 0
-4551 -2337 1667 0
695 -2188 -1588 0
171 4385 2860 0
183 3796 -2307 0
2659 4103 -1479 0
4028 -2551 527 0
-1659 -756 -4760 0
2410 4399 -3355 0
414 -3363 -4215 0
-601 2607 3381 0
3741 3510 -1942 0
-4902 -2844 -4751 0
3589 3860 4786 0
1733 -4084 903 0
883 2743 613 0
4557 1130 -2663 0
-3621 -1345 -4020 0
-2815 453 -4738 0
-3286 4587 1582 0
-1658 -4165 -231 0
4076 -1292 -1841 0
3065 -1476 -1526 0
-803 610 3810 0
-3719 1016 2533 0
3261 3279 1348 0
1852 2551 -2335 0
774 -1021 109 0
-3975 -2882 3525 0
3575 -210 -1707 0
1300 -2067 1070 0
958 -4623 940 0
3086 -3106 -1612 0
1770 -1268 -2288 0
3518 2500 1798 0
-837 2508 -2944 0
-458 -4696 1626 0
1280 2651 -1444 0
-873 2213 -822 0
-2575 908 1596 0
-3377 -389 -2447 0
3820 -4419 2474 0
-1004 -4808 -4360 0
-3655 -4410 -1421 0
1201 4569 -4321 0
-4990 3211 -3984 0
3590 1638 -4382 0
-2250 -606 -4516 0
3371 -22 -3940 0
-2070 1849 -2452 0
-248 -171 -446 0
4289 -3597 1337 0
45 -1333 1398 0
84 -316 -2889 0
-1987 -2422 -4282 0
-1377 3491 3380 0
3253 -1851 3698 0
151 -4256 4648 0
-537 3327 2804 0
4591 4248 263 0
1177 4105 3452 0
-2786 3664 4354 0
-4600 -989 -1470 0
2773 -1784 1201 0
-4975 508 -168 0
4979 -3651 -4850 0
3888 -2311 -4937 0
105 2258 -4783 0
-3774 -3518 3234 0
2513 1979 3776 0
-3379 -983 -4592 0
-3471 -716 4013 0
-492 -2201 2772 0
-4408 -263 3420 0
2339 2386 3392 0
2334 3819 1582 0
1359 -2271 2325 0
1873 -4410 4919 0
4117 -4392 2146 0
-4849 4929 -3582 0
1081 -2974 58 0
-1872 3240 4437 0
3695 2303 338 0
-1687 -413 3294 0
-4746 -2715 3180 0
-1599 935 81 0
-591 -4994 1014 0
918 -2858 1941 0
-979 -4427 -2492 0
2924 3729 -114 0
2520 4210 3326 0
-2539 4275 2502 0
-743 -3204 2369 0
-4544 721 4974 0
1376 882 2018 0
3338 2490 -1277 0
-3246 -2666 -149 0
2861 1390 -517 0
3087 -4629 -2415 0
398 1494 3913 0
-2200 277 -2967 0
827 -3340 -2760 0
4820 -3089 4861 0
4011 -436 -468 0
-3811 114 -3657 0
-826 -65 -2602 0
2939 -2306 -3207 0
864 -2946 -3705 0
3490 349 757 0
-629 -1147 1576 0
-4394 550 -2148 0
-876 2938 -1929 0
-2467 -4246 823 0
3031 2727 -2749 0
-4238 3844 293 0
-3215 -813 2969 0
1686 1557 -4208 0
3722 -530 740 0
2694 1731 -3312 0
-3017 -2807 207 0
-202 -1290 -1277 0
3717 -2555 -3207 0
2404 752 3121 0
4248 -1537 -3908 0
-4234 -4092 -998 0
-4700 4165 -3241 0
-2938 3021 3990 0
3247 660 -3162 0
2352 -1990 2769 0
3116 3673 1477 0
-4019 -759 157 0
4074 876 -4993 0
834 2791 -4234 0
3253 3484 1359 0
3552 -2025 3868 0
-1070 1337 2065 0
-4443 -1118 2601 0
-1479 1592 3411 0
4591 -561 3063 0
1994 -1229 2998 0
-3823 -1793 4417 0
-470 -4623 1635 0
-3770 1674 3663 0
4863 -2430 -4500 0
-1975 -323 -497 0
4590 2728 1528 0
-4134 4093 -4480 0
-2093 -4710 -1527 0
4186 3463 3363 0
-3900 2555 622 0
4410 312 -2737 0
2445 3123 3277 0
2542 -957 1524 0
-229 434 3098 0
1648 -3036 2831 0
-1728 -4546 -1174 0
-3429 -839 -717 0
-948 -332 -3906 0
2206 -3725 3669 0
-3413 -4532 -3155 0
-3004 -3365 3992 0
-4053 2140 -3999 0
-1498 -4285 2989 0
-4766 -2492 -2907 0
-3626 -1964 -946 0
-4181 -4504 2548 0
1187 4906 3271 0
199 -3155 -2365 0
1568 -3683 -2344 0
-897 -3107 997 0
4762 4169 -1524 0
587 4082 1589 0
-1309 2096 2697 0
-3416 -92 1000 0
985 2658 -2666 0
-3397 3822 -4944 0
-1065 -3637 -1121 0
-3309 -4614 -2120 0
-2121 1581 -4248 0
-3968 -4106 4353 0
1104 1743 -3409 0
-1165 1929 -3535 0
4539 -3055 -4324 0
-3689 4980 -4626 0
-3122 444 -4736 0
-4571 3997 -3178 0
2177 -876 643 0
-2257 -122 1219 0
2349 -1674 4788 0
454 2227 360 0
425 4240 3291 0
2520 494 -4975 0
-1379 -55 4686 0
-1641 872 1564 0
-2609 1703 -4861 0
266 1041 -1454 0
1692 -1000 2065 0
-4076 -1323 -2185 0
-2693 2670 3377 0
1699 -1216 -1060 0
-194 1123 2621 0
-2571 -2617 -3496 0
1535 -968 -2467 0
-2246 1453 4415 0
1592 4797 975 0
167 3771 4158 0
4694 879 3885 0
2683 -1901 -1478 0
-1815 510 2089 0
-1493 3800 -2906 0
-3060 551 -4195 0
1644 1682 3864 0
-2436 -2361 -1773 0
-4328 -830 1139 0
3508 2888 1988 0
326 -2373 2042 0
3313 -3050 -685 0
-3935 -4371 2684 0
3366 3548 803 0
-2640 4243 4248 0
-797 3735 -2305 0
-1569 -1469 -3142 0
-2178 453 3084 0
-2312 609 3198 0
3183 2815 3743 0
195 3923 4004 0
2954 966 4825 0
-2581 2256 4793 0
-4442 3922 -1392 0
-4982 297 -427 0
-2432 1359 4579 0
-1917 823 308 0
-3448 -1543 -4724 0
3013 -2021 -3978 0
4550 389 -2215 0
-2922 4005 -2600 0
-2725 -1900 3636 0
4673 4165 381 0
4785 -1418 899 0
-2462 -87 -4969 0
4198 -153 -2961 0
415 82 55 0
588 3465 -594 0
429 2695 4503 0
2464 -4681 3266 0
-3464 -3492 -2769 0
1185 -4256 -3948 0
4496 -1229 -2121 0
-4879 -407 2277 0
505 2103 4394 0
-3250 1549 -2574 0
4644 -4462 -854 0
-124 3827 -4310 0
642 223 1755 0
1261 -3345 1907 0
-495 -2187 1046 0
-4722 -220 1534 0
4366 -572 -210 0
-3835 2587 -4524 0
3688 -2283 3457 0
-4900 -3009 1137 0
2931 -3593 -1029 0
4759 -1062 -4782 0
-2776 -789 1250 0
-4328 -3444 -1734 0
-3187 -1449 448 0
1268 -916 4495 0
-3675 -3270 -4535 0
3622 -2818 -1702 0
-42 2420 -3862 0
-2500 3856 -1198 0
-4301 -1723 -2677 0
-1361 -342 1803 0
-1381 485 -1496 0
-4002 3861 2333 0
-2419 2063 1712 0
3896 -4629 -188 0
3216 -4793 3289 0
4185 -2580 3749 0
-363 4992 1522 0
-326 -3667 4329 0
1569 -1608 -3681 0
3074 4481 629 0
-3060 -2167 -4857 0
-964 -1255 1631 0
-739 -3354 -3692 0
-432 -4548 1407 0
-247 -3341 -4711 0
1611 3621 -1691 0
-3097 -3322 -2923 0
3508 -767 -1941 0
-3275 2746 1437 0
3490 2785 4450 0
2982 -626 1326 0
-3102 2873 1749 0
728 -2330 2167 0
3677 1527 -863 0
1777 3060 -2107 0
-3841 -1178 4418 0
-2762 -2531 81 0
-1038 -4602 -1521 0
1607 505 742 0
-1004 2922 1751 0
-873 1938 2275 0
3530 -28 1311 0
2494 -4941 -84 0
2349 4946 1363 0
-4677 -412 2964 0
-671 -2625 -430 0
-2610 4347 3350 0
1528 2035 1706 0
1038 -1569 -1811 0
4149 -1598 3239 0
4206 3488 -2846 0
526 -748 1773 0
2138 -3808 -3467 0
-2894 -524 1241 0
-1684 4690 -4377 0
912 126 -4862 0
4314 -2463 4628 0
109 423 -4625 0
1415 -2183 -2337 0
-3723 194 4584 0
4160 -3610 2162 0
4023 -4947 -743 0
4755 -4843 -298 0
-1559 4573 -117 0
4797 4334 2078 0
3840 -3022 4997 0
-4426 -1508 -1799 0
-2472 -2706 143 0
-1428 198 2214 0
4785 -3133 1143 0
1518 4188 1781 0
401 -424 -2111 0
1566 4737 -971 0
1977 -3464 -2884 0
879 -4302 4650 0
-2935 -405 3588 0
2074 3391 -2904 0
1721 -2499 -2102 0
3549 3976 3902 0
-2071 -3484 -397 0
-3733 -1632 212 0
3243 -2403 -2286 0
678 -2459 -218 0
2781 -2960 -4325 0
902 -3762 -3834 0
-3942 -2425 2784 0
3684 2969 1171 0
-1609 4632 -2058 0
-1347 2675 -572 0
-2345 -3297 365 0
361 3436 3657 0
2330 4591 -434 0
3385 -1380 -746 0
-2065 1234 1739 0
-4947 2945 -3818 0
2516 140 -803 0
-3054 -1273 -4288 0
-775 -4749 4204 0
3180 -1333 1417 0
1085 -3350 -1787 0
-2944 -1994 -434 0
-4374 -2194 1086 0
3637 1261 -138 0
-4327 -4746 -293 0
2841 -2572 -2480 0
-561 -2060 -3111 0
2353 1649 -4550 0
-1342 1 3567 0
1744 889 -4011 0
1072 3181 4135 0
2431 2217 -4904 0
1752 -1024 2575 0
-822 -4500 -1134 0
-265 -4046 4605 0
-1673 -959 1158 0
433 -3932 3647 0
-815 -2059 -4742 0
-3699 -2697 1822 0
2600 -1208 -1210 0
-425 3708 229 0
3334 -1426 1813 0
-1753 -18 -1603 0
-35 1396 1641 0
-208 -191 -3999 0
3627 -1766 2422 0
-3383 -1583 3698 0
-3879 -612 1972 0
1530 -2414 268 0
-3457 -4738 1186 0
4878 1393 -1790 0
-1457 -4283 -1574 0
-2450 897 -2246 0
1112 2477 -2553 0
-4021 1186 1416 0
4318 -331 -142 0
2959 -574 -3984 0
-1812 -3858 2368 0
-1841 3026 -918 0
1914 -1458 -568 0
611 3844 -822 0
-3452 1529 -868 0
530 1090 984 0
163 3230 -4961 0
4849 1000 -3922 0
-816 -2332 -826 0
-3534 2896 4198 0
825 -2805 704 0
4747 -3184 2339 0
4815 337 458 0
-3987 -1924 -2033 0
6 1930 -2628 0
-655 -3897 -4530 0
-2219 189 -4294 0
4047 4849 -4009 0
-1291 2177 3567 0
4850 3626 4223 0
-1562 2497 -1634 0
-44 -2938 913 0
-2053 -3681 532 0
4979 1756 -812 0
-845 4219 2175 0
-4627 3385 -3481 0
2016 -1873 2042 0
3894 -1242 -4310 0
-682 -2002 -3003 0
-1227 1842 1635 0
4115 2176 3477 0
-2100 2005 4170 0
-184 84 1537 0
-61 3650 -2547 0
-2858 2544 2580 0
3420 -796 -4852 0
-303 -2519 -972 0
-4747 -3388 -3464 0
-4236 1336 4128 0
3218 -2594 -1330 0
1043 -87 490 0
3004 -1658 1086 0
-158 -3857 -131 0
1419 3013 -1141 0
-387 3999 2139 0
3251 -1259 -2670 0
698 -416 2335 0
-2933 -4528 2998 0
896 -2363 1614 0
1715 -3678 4532 0
-4698 -4848 -4846 0
1685 4997 -1682 0
3804 3860 241 0
2079 -4886 -2076 0
-1457 -4554 4290 0
-3376 4828 -542 0
-1688 4835 2337 0
4323 -1059 -2384 0
-2022 3805 2174 0
-4369 4850 755 0
1055 -2924 669 0
-997 -1791 -951 0
-3077 -724 -4418 0
-1551 -3746 -4994 0
-1609 4669 -4434 0
1842 4359 4402 0
2687 -1723 1260 0
2158 4130 -3683 0
1180 -4928 -1284 0
1547 3667 -1706 0
4260 2850 1158 0
4512 -2286 -3054 0
940 -4591 -528 0
1991 2615 -4576 0
2825 -1140 2157 0
1488 1387 -942 0
-1853 -4827 630 0
-2640 3052 -2470 0
4661 1638 -64 0
175 4161 -2398 0
4831 1911 2489 0
816 -3242 424 0
-4868 -2541 -1654 0
57 -753 -871 0
-3293 -1237 -3207 0
-2987 -3233 2518 0
-571 -3613 304 0
-455 3031 -4509 0
-571 47 4245 0
1418 -2254 2433 0
-957 2719 -3781 0
-2832 3564 -4856 0
-2989 -4678 3194 0
-3412 -1607 1068 0
-1410 2551 4773 0
-738 -4091 -4831 0
-3800 4152 -2223 0
-2081 -4129 -3887 0
4058 -4026 4048 0
-275 2428 1423 0
1429 -3950 4992 0
-4726 2297 2485 0
-4646 -3230 723 0
1551 -4515 -3569 0
-2859 -3448 4536 0
-3198 -1253 4038 0
-2134 -1627 576 0
-3157 -3591 2888 0
4717 -1130 -1239 0
1996 656 -3776 0
-2360 2158 -3598 0
2470 404 -4787 0
1602 -381 -3126 0
3853 -3061 4412 0
4239 131 -239 0
289 2554 1656 0
-3695 -4356 -1087 0
-3874 -2667 1131 0
-4161 286 -1185 0
-1461 -2724 2909 0
3258 4986 -490 0
-3618 -2189 2388 0
-3504 2647 -4223 0
418 -2787 3833 0
-4041 4512 788 0
3718 1878 1220 0
-3772 -83 -2653 0
-2282 -2472 -3692 0
4270 481 3872 0
-3648 2553 4806 0
-1738 3719 643 0
-4570 2749 1275 0
-1393 2087 3836 0
-4943 -570 -4691 0
-425 4155 -1881 0
-4460 2153 -3261 0
-1101 1108 4027 0
-4071 1291 809 0
1058 -4648 4590 0
4045 2213 -3922 0
4317 -4032 -3386 0
4358 -4315 -4984 0
4493 2683 4890 0
3336 -1843 202 0
777 2454 -530 0
-2027 4338 -3704 0
-4827 -2591 3202 0
2645 4424 -3801 0
-2417 -1915 -22 0
1845 1006 -2354 0
3813 2829 -2666 0
-1975 -3312 1285 0
2603 -4509 4304 0
290 -2463 -1386 0
4473 2077 3635 0
-17 1616 -4569 0
1288 -634 1554 0
-259 3602 1291 0
853 1855 3089 0
-1572 -1772 1070 0
-3229 38 4346 0
1953 -958 3993 0
1518 -4563 -2049 0
-1563 4466 -1016 0
-4741 1702 3844 0
2259 1847 858 0
-1031 -3140 -2100 0
-723 4995 2291 0
-332 218 -1457 0
438 4149 3546 0
2211 -2086 -3273 0
1959 -4510 -4090 0
2372 -3313 -1141 0
545 -2131 2856 0
-4623 2624 3686 0
4402 -554 -3199 0
-4620 -3695 3614 0
153 -552 2568 0
-336 254 3683 0
1148 -3105 -1049 0
-828 234 1934 0
342 3225 2986 0
3087 -4481 -304 0
2375 -1477 1164 0
-4211 -1953 -4336 0
834 3759 3798 0
-356 3381 -1034 0
3508 4401 -2822 0
628 3343 3546 0
-1611 4706 -180 0
-681 2534 1798 0
2998 -4495 4826 0
-3825 -2324 -4026 0
-2888 2399 -1908 0
-2036 4609 3121 0
-815 48 3439 0
-4340 -4815 27 0
-444 4828 -3725 0
3793 -1871 -2370 0
1785 54 -1086 0
-861 1730 -4788 0
-2826 -4476 869 0
1763 -1407 1145 0
-3879 2307 -856 0
2223 -1193 -1316 0
-892 1334 573 0
-4599 4507 -1266 0
4424 1935 -570 0
503 -3736 -2779 0
4587 -1794 -985 0
-978 -824 -1876 0
-2635 -531 2110 0
2841 -630 637 0
-4800 -47 2756 0
4750 -4511 -2423 0
-3312 2629 -1485 0
4346 3810 1312 0
-2776 1803 1401 0
3100 -1699 -1626 0
3744 3035 2794 0
2766 -3634 -200 0
-4441 2941 -2189 0
-4080 4300 -419 0
2482 -892 3297 0
-3760 -1311 -870 0
-3793 -1777 3070 0
4681 1795 -2012 0
4800 -2716 964 0
-2514 2478 -4809 0
1101 2383 -3321 0
4648 -1387 4267 0
-3132 2258 -795 0
-4691 -4564 -1435 0
-2730 2318 -4320 0
-255 -4554 -4931 0
3051 4223 -4151 0
1553 2021 -1605 0
-3051 1647 489 0
721 234 4238 0
2740 -2955 -2779 0
2083 -2823 -3331 0
4662 -2892 3008 0
-1284 -1241 4720 0
3761 -1432 2005 0
-409 593 -343 0
-1406 -1394 -4943 0
-3554 4035 1503 0
-4355 953 -3754 0
2649 -336 187 0
3923 2036 4048 0
2735 2694 -4635 0
2367 2861 2883 0
-2079 -3114 -3332 0
-3250 -4279 -3964 0
3190 3554 -1658 0
-1633 1352 -1539 0
4755 -39 3020 0
3107 1950 1350 0
4818 4769 2374 0
3066 -56 4693 0
-3305 -3272 1688 0
-188 -2218 -1904 0
-690 4685 3245 0
3439 -3014 3868 0
3534 65 -4403 0
-4996 -2774 2682 0
3140 2410 -2880 0
4135 226 -4203 0
1346 -231 -4396 0
-3472 4895 -2259 0
708 -498 4134 0
-3623 -3386 3816 0
4533 -2516 -3892 0
-2223 -758 147 0
4761 2019 -399 0
-1829 -1811 2152 0
-371 97 -1468 0
1192 1609 -4455 0
2990 -2818 427 0
-4360 193 -4994 0
4585 4985 721 0
-855 4541 -780 0
4262 3884 -3741 0
2250 -3042 -3442 0
4318 2727 3399 0
-2447 -3980 -2949 0
2331 -2289 -4627 0
-1616 -1861 -4872 0
-4550 -1860 2184 0
1037 4786 4941 0
1020 -3346 -4599 0
-4567 2221 -1249 0
-2655 -3794 1669 0
-3517 3583 -1974 0
1592 -2993 -78 0
-3953 -228 -4086 0
-300 1786 807 0
-4894 -1680 4931 0
-1587 198 -4872 0
-4438 4137 1856 0
-3315 1737 1205 0
3269 4923 422 0
-4643 1945 -3485 0
-1660 544 1618 0
-2720 -3364 34 0
1463 -773 -1351 0
-936 -1496 -1146 0
1621 1237 1161 0
-1970 -383 -189 0
-2389 -714 1951 0
-4741 1669 -1509 0
-450 2977 2514 0
1119 2701 683 0
1350 1673 -3035 0
1457 1270 -3812 0
-3629 -1276 -1962 0
2461 4395 -659 0
3443 -4602 -851 0
1553 -4523 4882 0
-4156 -1261 -4005 0
2821 -2834 4009 0
2527 -3602 -3513 0
-2961 283 -4859 0
1754 -3377 1580 0
1374 -46 2562 0
2155 4476 1162 0
-1951 -2898 -3382 0
-2262 642 -3498 0
1550 1567 3680 0
-1775 1048 1207 0
3100 48 -881 0
1597 4852 1288 0
113 -4927 -3486 0
3001 451 -3042 0
-2907 -383 -2993 0
1865 2818 -3554 0
-3462 4185 3381 0
-2253 2746 -2895 0
2917 2595 -677 0
-1457 1537 2675 0
-931 -3074 -1133 0
-2491 -4883 543 0
-1520 1181 -4152 0
-4145 -1256 4295 0
-3155 3980 1180 0
-786 4769 -2039 0
-1027 1863 794 0
732 1608 -4056 0
-2677 469 -1975 0
-2383 3201 -3276 0
-2411 -969 -1744 0
2651 1878 -948 0
-2471 1683 -3765 0
-3585 -2043 -99 0
4828 -4325 -147 0
-3132 -3138 4971 0
-3881 -3786 -3943 0
-1240 -850 -969 0
-1249 -1853 -771 0
1606 -2992 1239 0
4823 4007 -522 0
3532 2051 788 0
992 -4454 -4126 0
4116 3606 -2712 0
-1542 -597 2371 0
-4793 -4761 1579 0
-4900 -4307 1392 0
1109 -3627 -2837 0
-3999 -4619 4661 0
641 1165 -2687 0
-3087 4432 -3716 0
-2661 4319 4016 0
2749 -2157 -3315 0
3367 -161 -2153 0
-1400 -2910 3379 0
4577 -1569 -2964 0
808 4533 -3051 0
4344 208 -3830 0
3393 -4887 1390 0
-848 3012 3256 0
-4105 2489 -3556 0
3500 -823 2986 0
238 -4940 788 0
-2071 -2214 -2001 0
1867 1922 1546 0
580 -872 4015 0
324 901 -2707 0
-4637 1627 -1925 0
28 -554 -4326 0
145 347 1643 0
4973 432 -4590 0
-1191 -4699 942 0
1221 -4253 342 0
-1980 -1711 -128 0
4108 588 4237 0
4948 1006 2664 0
4496 1247 -138 0
3552 936 1876 0
2199 -2724 -1688 0
3014 -3583 2844 0
-2495 2293 3808 0
3635 -838 3447 0
-2904 -2236 -3785 0
4112 2861 -1918 0
1594 725 -2409 0
-3763 -2803 -4192 0
2548 4717 -3288 0
-1284 2738 3469 0
-1903 1238 4370 0
-162 4862 -3444 0
-2961 1856 783 0
-4844 -2717 913 0
4797 -2632 -2036 0
737 4823 205 0
4431 2637 2251 0
-4084 3811 2664 0
-2786 -2862 -2382 0
1780 -4070 -1253 0
-3196 -3910 -671 0
942 -2857 689 0
-2480 3138 237 0
3548 971 1138 0
1511 -2091 2965 0
-1369 1319 4355 0
1222 -2899 4868 0
1088 1407 564 0
3577 2023 4343 0
-585 -3832 -2934 0
2903 884 1970 0
-930 -519 -680 0
-1540 -4632 -2931 0
870 -4332 -2689 0
754 -193 2809 0
-4126 4820 -385 0
2409 -2612 -3650 0
507 -2740 2145 0
-3669 765 -133 0
2799 2164 -666 0
2856 3993 -3207 0
-1942 -3556 968 0
-3504 -1451 -1019 0
1937 -3782 3941 0
4043 1614 -337 0
1285 -4699 2167 0
-2796 4122 829 0
-56 3714 4223 0
-4443 4142 2259 0
-4772 -4985 -3699 0
-1811 136 1144 0
-3638 4679 3644 0
-4546 -1695 -3319 0
-2348 -2972 1776 0
4697 -3954 -2699 0
489 2364 -4425 0
597 293 -4755 0
4759 4750 -1138 0
17 -1248 -45 0
-3537 2290 1292 0
-2964 3427 2324 0
353 3206 668 0
2539 2231 -4437 0
-4335 1372 -1982 0
-597 1970 2427 0
-1592 3794 -2069 0
1312 -432 -3941 0
-2475 -4152 -2489 0
-2402 -4648 -2742 0
2372 -2285 650 0
2593 4232 -2278 0
1893 871 -3855 0
553 -3633 2510 0
2793 -3985 4921 0
-3738 1106 3277 0
-704 2300 -1031 0
2304 -327 1127 0
153 -1283 -2935 0
-1812 3557 -1516 0
3058 221 4065 0
-4796 4972 -811 0
4820 1621 -821 0
-1085 3185 -2464 0
-3919 4033 4275 0
-2966 3493 -3438 0
1471 -3942 -1643 0
4777 455 -4948 0
-1597 438 239 0
4684 2388 -3912 0
2373 991 -622 0
-4000 3896 699 0
-2174 -2195 -393 0
3392 2658 -4763 0
-3792 2488 4669 0
3425 4301 -813 0
4135 -3306 2293 0
4059 -1432 2500 0
3959 3987 -1047 0
-4580 -3705 -1944 0
4418 -1695 -4927 0
721 -2719 -2101 0
4274 3943 -2612 0
-2747 3687 -4965 0
1775 -3506 578 0
-1612 1535 -2347 0
2799 -2609 2937 0
841 -3332 4471 0
4833 -1768 -709 0
-3533 -3332 -1385 0
3692 4963 2542 0
-4966 2164 711 0
-3674 4289 1909 0
322 1990 3340 0
-1488 4983 -965 0
3327 -4749 -3314 0
-1188 -1221 -2437 0
1232 3293 -4978 0
349 -2275 2705 0
-3531 -4837 1824 0
-4163 359 1236 0
-3303 -3799 -3618 0
2810 -4275 -387 0
-4782 4166 2920 0
2215 3318 3550 0
-3854 -1471 3413 0
2558 26 -2515 0
3797 2063 -3198 0
-3210 -1866 -1537 0
-1779 3361 4209 0
3533 1534 2406 0
2508 2114 -2942 0
-3574 4888 4206 0
556 -3778 2725 0
-4436 1342 1650 0
-4578 -1409 -2967 0
-4043 3962 3205 0
2021 -2657 -3118 0
4772 283 -1983 0
2394 2122 -3176 0
2291 2800 3171 0
2389 1857 -4948 0
-4915 -2599 -4632 0
-1660 -4483 4303 0
-1156 -4514 4672 0
-2786 3084 -2845 0
-3128 4297 3439 0
-1682 -3247 -1591 0
4870 2737 -4925 0
-1507 -1603 4401 0
-2099 -3346 -322 0
-814 4930 -29 0
1452 -2566 -796 0
2914 2012 -4508 0
-892 -3560 -4850 0
334 -4752 4598 0
503 -4797 -3923 0
1188 -2513 4141 0
4434 4403 -1849 0
4015 872 -2464 0
-1731 62 4610 0
4708 2743 2500 0
-1794 2845 2228 0
-721 4472 -3463 0
-680 -2940 995 0
1216 -1122 1126 0
4037 3025 4111 0
3161 523 4842 0
28 4579 -2133 0
-3462 2875 4343 0
344 4903 -4162 0
3964 -2763 -2782 0
-1721 1379 -3945 0
3246 1171 -2106 0
-4729 -3558 -820 0
4219 -35 3793 0
-3542 3380 1073 0
2810 -3258 -1565 0
-1190 -1895 -4368 0
4213 -2283 1157 0
-3678 933 1196 0
1391 3231 16 0
-1475 -1278 893 0
-4715 765 2617 0
1581 -2285 4994 0
-416 -3043 -1992 0
2340 3040 3529 0
545 4194 -4813 0
-929 -4097 969 0
3030 57 -4097 0
110 1199 -4902 0
-388 2119 2668 0
3262 -4078 -2512 0
-1615 3006 199 0
-370 4023 -4543 0
-2889 -362 211 0
-1563 2208 -3419 0
3043 3235 -3625 0
-4032 3781 1315 0
-3774 1818 3175 0
-1266 -597 53 0
1275 -1395 4532 0
-3860 -2275 -4020 0
-1191 2164 -707 0
282 -1401 3612 0
-4499 -2491 -4061 0
-855 1983 3261 0
-1110 -2201 -3578 0
-1057 1885 877 0
4375 643 -571 0
4564 -4678 -180 0
-1848 4852 -2623 0
80 381 1710 0
3383 3273 37 0
-1587 -4771 -1618 0
-4179 -3360 1058 0
802 4546 -1602 0
3506 3197 3115 0
2257 -4582 1584 0
2188 2128 -3475 0
-275 -2697 -2448 0
-906 -4944 -2957 0
3862 2884 3836 0
-2622 4586 2368 0
-3293 3969 4135 0
1373 4713 3452 0
601 -1330 859 0
361 2498 -1944 0
-416 -4191 3102 0
3920 -4855 -1310 0
-2430 -455 830 0
3730 -973 938 0
-4147 -4458 142 0
-876 -2271 1571 0
-1134 2363 -1362 0
3013 -4930 -763 0
-4778 -3238 3078 0
1151 -3617 3768 0
2759 -3457 2133 0
-2886 3138 -3870 0
3906 -1517 1735 0
4972 -3578 521 0
4601 4200 -973 0
1540 2749 -4063 0
1868 -1780 -1822 0
-1773 -2662 -656 0
4096 1738 2130 0
-854 3546 -168 0
2548 -3882 -2680 0
-1660 4665 2341 0
-2825 1390 2082 0
-493 158 -4682 0
-4072 4246 -4993 0
566 2556 -2408 0
4223 2469 -4106 0
1353 -4996 4912 0
2733 1365 -2286 0
1101 -2125 1074 0
-1235 -1486 -4964 0
-3372 3396 -991 0
-4365 -3624 3802 0
-4614 3566 4231 0
-565 -3643 -1342 0
-1648 4674 -2128 0
64 -4366 1409 0
-3545 176 3836 0
-4159 -4604 4101 0
-4170 847 1194 0
-793 3122 4143 0
-3963 -4451 1471 0
3160 -3687 -758 0
-1915 -1969 4980 0
-3814 -472 -186 0
-4409 -1388 4741 0
-1241 2613 2860 0
1117 4168 -3165 0
-2200 -3904 -3388 0
2608 165 270 0
1502 -272 -2706 0
612 433 3540 0
3084 -233 946 0
104 4128 -1158 0
550 643 110 0
-2267 -4178 -589 0
-3361 4686 3967 0
-3852 -861 3992 0
791 -4622 3940 0
-4609 3936 4258 0
-4377 4887 -3956 0
-2432 1510 -3266 0
-668 -1595 2628 0
-2329 -4054 3598 0
4168 334 1441 0
2282 -2518 2231 0
2012 4075 -1998 0
-456 -881 2380 0
-1503 2650 4180 0
-4599 -3395 3494 0
4115 -115 2554 0
1901 -1748 -3228 0
726 2706 -910 0
-644 -3586 1770 0
4010 -1125 3828 0
-2595 -990 -193 0
-2305 1845 -977 0
1002 -4132 3954 0
2775 689 3478 0
2627 2125 4178 0
3138 4691 -3770 0
266 629 3663 0
-2982 -4836 -3838 0
2623 4874 2141 0
4054 3590 3630 0
-3426 1918 -4185 0
2162 -1270 348 0
-4036 -850 3580 0
-4838 1921 1457 0
3799 1088 -2014 0
2308 4543 -1541 0
4986 1575 182 0
2447 4165 -4406 0
-2190 -3898 4098 0
3954 2069 4979 0
43 1150 2419 0
-1461 -4292 -4083 0
-2035 4863 4515 0
-2897 -927 -2992 0
1724 87 -2427 0
-2727 2637 4134 0
-2557 1241 2956 0
-4438 -791 -4557 0
-1194 1680 -977 0
-2954 -174 867 0
3649 3311 -757 0
-1787 1335 3629 0
-3347 1931 861 0
2994 -769 3728 0
3865 -1250 -718 0
-364 3206 -515 0
1671 -3596 1719 0
964 -3851 4312 0
-1695 -2356 165 0
4033 -1737 -4972 0
3026 -128 853 0
-2501 -2442 4284 0
3746 2681 -448 0
4633 703 913 0
-2923 -2724 1118 0
785 -1404 4769 0
-2500 -1255 -3377 0
977 -720 3826 0
-2400 -1779 -884 0
2284 -3167 -4193 0
-2458 4127 -229 0
3877 191 -4397 0
-2270 2985 -4543 0
2935 245 35 0
194 -4557 1949 0
506 -3118 -2986 0
-3165 -2578 -969 0
-3672 262 -1035 0
2136 907 516 0
-1688 -2740 -4957 0
2296 -3779 4087 0
2242 -324 3112 0
2074 -1281 -3797 0
-4955 -2075 -1603 0
-4922 37 178 0
4102 3675 2483 0
-4551 -3744 4211 0
-246 -632 1229 0
-3324 480 3740 0
-1509 4546 -4957 0
-3791 3724 -2167 0
4444 -2622 -217 0
-4256 838 -3564 0
4186 -1894 4769 0
-3541 -834 -924 0
2336 1033 3505 0
973 4358 -4684 0
4000 72 169 0
-3399 1569 3151 0
-1992 1737 2517 0
-1645 1849 -3406 0
-2050 3599 -2393 0
678 -1025 1422 0
104 -1828 -192 0
3772 4717 4098 0
3681 -4833 2598 0
2401 324 -726 0
-2150 4712 310 0
-1486 467 4024 0
820 1842 3036 0
-4502 -2685 2147 0
3999 197 1476 0
1064 -2785 3325 0
4655 -3160 -2696 0
3967 4991 1342 0
1664 -3297 4399 0
3118 3149 -4219 0
-2551 117 -4922 0
-3964 -4449 -2596 0
3093 1706 1908 0
-48 -426 -4143 0
-2650 -4320 -1111 0
1953 -2996 -4684 0
-2612 2648 -3634 0
4586 -494 3251 0
2644 -4662 2920 0
1544 -98 1628 0
-3777 4974 4230 0
3597 -2024 33 0
1353 -2111 -2289 0
-3745 -1326 4140 0
-2541 -2210 -3658 0
2846 4397 3289 0
1238 -3458 550 0
-2967 1636 2170 0
360 4818 930 0
2813 -3046 2130 0
-1712 2140 -4554 0
-1466 2347 -3422 0
-1393 955 1531 0
4337 3945 -1510 0
1451 -2178 1028 0
-82 49 -39 0
2895 -1035 949 0
4877 -1810 -822 0
-4272 43 -2570 0
819 -3768 766 0
4747 -2701 -102 0
-1131 -4488 -4235 0
-3097 -1291 69 0
-4956 -1176 4896 0
2352 -4204 1765 0
-2342 1659 -721 0
1067 -2659 -1898 0
4573 1595 4681 0
2092 -1892 3459 0
-3957 -3173 4298 0
-3816 998 -2285 0
-4443 -3325 333 0
4621 1261 3292 0
-4497 4185 2276 0
-2507 1620 -4347 0
-2576 -1586 4306 0
-4401 2857 -3514 0
1700 4967 -4569 0
2292 -893 791 0
-2041 3139 -2139 0
-3454 4960 1634 0
-1773 -4658 3317 0
-3900 -351 1870 0
517 1902 -1760 0
-2385 -487 -4284 0
2031 1846 4880 0
-4038 4679 -2787 0
3887 4952 3239 0
4486 -2979 -4120 0
-1387 4594 -813 0
4135 -2151 2147 0
-3432 2953 2622 0
2133 -4804 605 0
-66 -2961 -3009 0
-1461 -4463 296 0
87 -1098 -522 0
-58 -3859 -2016 0
-2990 4587 3298 0
3342 1272 -3295 0
-2362 1888 441 0
3405 2990 -702 0
-3772 -313 -2468 0
984 -433 2242 0
-1884 4380 -2366 0
2697 -3713 2355 0
-2503 -2602 3660 0
-3392 550 -4270 0
4898 3314 945 0
-3287 2377 -20 0
-2012 -3298 3137 0
2298 -598 -1066 0
4446 1088 1669 0
412 -1413 -1621 0
-2835 910 251 0
2668 1119 -689 0
-817 3141 -1756 0
927 2049 -334 0
2009 -1237 -2037 0
-1194 235 -3616 0
376 -2314 19 0
-1260 -1782 -23 0
2239 2888 -11 0
-2270 -2669 -4230 0
428 -893 4283 0
1766 1131 3193 0
-3610 4307 254 0
701 -2860 1876 0
-2647 3917 3852 0
1192 -4084 3829 0
-1206 4856 -3859 0
-2504 9 -3410 0
-2862 4510 1158 0
3530 -1661 3229 0
3081 4578 3952 0
-4794 -2767 1955 0
685 3540 2642 0
223 751 -1630 0
831 2545 -1344 0
360 4509 981 0
-4964 3726 2052 0
4469 422 -1282 0
1728 -683 1805 0
-368 -3347 3935 0
-2379 -2577 -2252 0
2202 3841 -4113 0
604 442 -4565 0
806 3817 -344 0
-447 -3038 4247 0
-2151 2652 3263 0
-3215 3688 3269 0
-4644 -1784 -4878 0
3431 -2538 4323 0
1631 4428 -3578 0
-573 4366 -320 0
2659 -31 2480 0
-1014 2166 1295 0
536 -1179 -4711 0
-3911 3161 -1833 0
1989 -4847 4727 0
276 -4722 -282 0
2642 831 -74 0
-2917 3204 -3249 0
3336 2668 4127 0
888 -1057 832 0
3671 179 -1657 0
2597 -4542 -257 0
-127 -444 3867 0
-4257 -3453 -724 0
26 -3405 3690 0
-670 4005 -3892 0
-4079 -113 -2006 0
913 333 -2888 0
-1583 1968 -4073 0
-2319 626 -502 0
2729 750 3100 0
2212 -3356 -3845 0
1930 1015 335 0
292 834 3346 0
677 -1325 -1733 0
2485 1727 3038 0
4224 -2841 639 0
-986 -644 -565 0
4293 -1445 3311 0
3276 -3657 1368 0
-1760 -2288 -1700 0
3865 -2020 973 0
-1439 -3137 -1877 0
-4832 -2952 -4096 0
416 1637 307 0
-2885 -1379 4401 0
-259 99 -1148 0
-321 1877 1694 0
-3048 2078 -697 0
46 4372 3615 0
3633 3662 -2835 0
-4509 -4419 -1642 0
-3769 -135 3743 0
-3882 2251 762 0
-2663 -1127 -1739 0
-217 -775 692 0
1550 -1223 -1723 0
-3010 3939 -1470 0
-2319 2742 3262 0
-119 3136 -3122 0
4482 208 -4836 0
-1561 807 -1297 0
-3405 -1394 -3634 0
-4590 -3282 -3749 0
3594 304 -4075 0
-736 3702 2436 0
-2442 3408 3133 0
-1380 2719 1081 0
-1629 -2433 4335 0
-3892 -4519 2221 0
-87 1115 1833 0
-3523 2654 -1666 0
2105 2824 -3382 0
-218 -4576 113 0
-2540 4243 -1045 0
-3349 2524 -1854 0
1814 2675 3182 0
-3502 479 3916 0
2660 3016 4026 0
4658 -3760 -2051 0
-4438 -1066 1976 0
574 4445 2367 0
-2872 1037 -117 0
-2898 -4781 914 0
2105 1925 -415 0
-3552 1461 425 0
124 2400 -384 0
1872 -2185 3441 0
953 4806 -2354 0
-1082 2375 4229 0
-4899 3471 -4819 0
-4042 -4537 154 0
482 -2551 -3842 0
-2973 4312 -2949 0
545 2869 2144 0
-1416 -1827 2865 0
-3042 -3665 428 0
1431 -3058 2095 0
1362 -4045 2186 0
-1846 -2432 -3679 0
-2781 -2160 -559 0
-350 -1873 -3923 0
2261 2491 784 0
4706 3459 2547 0
1359 -4693 -1706 0
3663 4124 4019 0
-2039 2802 1232 0
-2956 -1527 2471 0
2007 1155 3583 0
-150 3036 -1265 0
2441 133 1255 0
1423 -1677 4111 0
1103 1460 -4000 0
-2712 4086 3667 0
1370 2064 -3556 0
473 -4601 3174 0
-4553 4884 -3299 0
2895 1099 2959 0
-893 -2662 1132 0
4173 806 -3483 0
2727 278 -4619 0
-2955 388 -362 0
-515 -261 3432 0
4268 2556 -2214 0
897 4880 -4099 0
312 -4121 -949 0
-1297 -833 -573 0
-1247 30 210 0
517 -4042 3804 0
3670 -3420 -2821 0
-2391 3869 -65 0
-1890 1920 1862 0
-1941 3409 304 0
-2679 -2843 -2261 0
-538 3859 -2932 0
1003 -2464 -4555 0
-4668 18 523 0
1885 2463 -2007 0
2009 -2257 -1369 0
1632 4980 2052 0
-4161 -916 -4480 0
3920 -1682 4826 0
3542 -540 2678 0
4937 -4972 4060 0
-4243 1258 452 0
4024 2304 -1129 0
1765 446 -891 0
352 4346 -4889 0
-4986 3029 -3113 0
4205 3717 -1935 0
3222 2638 -1216 0
3087 -3885 1519 0
-3068 1694 4639 0
2241 1513 4835 0
4590 848 -2970 0
-3224 -1077 -522 0
1003 -2065 -680 0
-3247 -389 -1672 0
2089 -2517 1017 0
3663 -4844 4287 0
3449 2555 2764 0
-3648 120 538 0
3479 -4283 -4179 0
2078 -1402 1932 0
-731 2257 -3046 0
3223 289 -876 0
-17 -2845 -93 0
-4323 -2635 -4386 0
2652 3562 -232 0
-1972 -2592 2984 0
-1228 4616 3557 0
-4741 753 4268 0
-2454 695 -2451 0
4077 -4009 -1197 0
-4755 -4175 -3447 0
2085 1234 -393 0
-3836 261 3461 0
-1108 -1698 4849 0
1153 4289 -2598 0
-1546 -1959 23 0
1245 -1290 2386 0
-2384 1116 -33 0
-1281 1980 1568 0
2055 3336 2957 0
-4927 4714 -3519 0
-3133 3113 573 0
-2805 4485 1158 0
2117 1181 -2984 0
-2297 4416 2507 0
-3129 -4874 978 0
2083 468 3382 0
423 -4626 2961 0
377 3766 -90 0
2355 -1819 -941 0
2655 -4718 -258 0
-1975 -3196 1320 0
-603 -1379 3076 0
-2397 3478 1673 0
2337 -979 -1292 0
1072 -2430 804 0
4641 273 1697 0
1141 -1845 -4887 0
-3036 -4196 -694 0
-1857 3070 -3596 0
4888 -4238 570 0
2395 1540 -3510 0
-981 -726 2000 0
-1659 4433 3582 0
2549 -3269 -2997 0
-79 -1691 3958 0
-5 3104 -2920 0
815 2526 -3581 0
4179 -4197 -385 0
-4712 -433 -3438 0
-4243 -2413 -4326 0
4439 214 1190 0
-1789 -69 -839 0
2571 -4166 1391 0
-4121 3015 -1508 0
947 4526 3863 0
4136 2906 38 0
-3498 712 -943 0
2048 -1516 -313 0
36 3159 -4062 0
-3568 -4671 -105 0
-33 3793 -2036 0
3510 448 -1890 0
-3270 4116 -2567 0
1322 557 -2646 0
-2758 888 3696 0
-1654 -4840 4789 0
-816 -3521 1520 0
2892 -4678 -1907 0
-4021 587 4010 0
-2653 -799 4007 0
-2949 2417 -2301 0
-399 -4089 2709 0
1254 -2563 929 0
1006 -1291 -1653 0
-2265 -2097 -3982 0
-268 2748 2154 0
-789 -1821 2644 0
1404 1161 3440 0
2317 -4434 -2244 0
1033 4116 -4047 0
4203 2961 -4954 0
1180 4036 -3691 0
4681 1491 -3634 0
-831 -283 3067 0
-2937 -2259 -720 0
3190 1612 3149 0
-2237 -3812 -2155 0
4889 -2232 -2662 0
1348 4409 1941 0
-57 2593 -2977 0
-885 2138 974 0
-389 -4796 -3479 0
3870 3885 996 0
1320 3312 3566 0
900 1617 1938 0
-824 499 4957 0
-955 1252 1701 0
-4541 -3664 604 0
4735 234 4831 0
-1212 -4580 -2569 0
3263 2820 3101 0
-4393 3955 -1169 0
-184 2760 209 0
-640 2147 192 0
812 -3117 -1406 0
-181 -4088 1017 0
4420 -3303 2511 0
-1271 -3623 4915 0
-82 4921 4335 0
-2925 2198 3912 0
-1875 -174 598 0
4886 411 2665 0
396 3448 -826 0
1387 -709 537 0
-955 1641 4343 0
4876 -4389 2588 0
-3341 -4713 3746 0
-3026 -1181 3948 0
987 -2174 -1184 0
4619 -4956 2141 0
-4470 567 -4634 0
41 -956 2361 0
-725 -1041 749 0
-56 4872 3087 0
-269 4902 1880 0
4924 366 925 0
-4102 2294 1125 0
-106 -3730 3830 0
-2502 2505 198 0
3742 3527 -1950 0
-469 93 1694 0
-3275 3839 -1638 0
1148 -3565 1250 0
2542 4150 1852 0
-967 -367 -909 0
997 -4774 -4348 0
2005 1047 3445 0
-3165 1952 -4647 0
-4962 1872 -589 0
-674 1842 -1813 0
-3908 2939 -2093 0
-3973 -2275 60 0
-4493 -4466 -137 0
4564 3083 3674 0
2590 1950 -2437 0
-89 1922 -3731 0
1862 -366 -3387 0
4342 2673 2871 0
4506 3598 4512 0
2732 4957 3081 0
3329 -4085 3188 0
4913 -197 -3416 0
-3309 -2054 2129 0
-4421 -3821 2667 0
-227 4380 -4542 0
2613 3066 -4721 0
1869 -3117 -110 0
-1047 -847 4909 0
813 -4428 -1539 0
3808 4264 1082 0
793 1534 1752 0
708 -693 -621 0
-152 -4020 -3944 0
3487 -3349 -4828 0
3571 476 1503 0
-657 3293 -1718 0
-3036 2556 2852 0
1670 -296 1211 0
-2239 -2859 -1000 0
-1211 -239 3806 0
124 -4928 4784 0
3968 1187 3712 0
-1093 -2963 -68 0
4907 1548 4061 0
-1612 637 -92 0
-1549 4342 -1347 0
4723 1708 316 0
-868 -1360 -2565 0
-2361 -277 -1828 0
1900 2129 -2640 0
-811 4461 3882 0
-2108 -4600 -2539 0
588 -3587 2323 0
1136 2164 -615 0
4287 4766 1196 0
4076 4449 4440 0
-2395 -2516 -512 0
2188 5000 -1805 0
-2201 -3237 -83 0
-2785 3128 3879 0
-4113 2420 169 0
4482 3503 4983 0
1250 -369 -1295 0
3967 -3507 3809 0
4412 -2454 -4384 0
-3033 -1087 -4043 0
3566 -2801 4083 0
132 -2494 4350 0
2680 1087 1617 0
1026 1754 1579 0
1365 3389 541 0
4783 -4928 195 0
2033 -642 -2062 0
-577 3253 1709 0
1287 2 2327 0
2622 -1314 2620 0
-378 -4484 129 0
33 201 3102 0
1920 -3728 2602 0
-3068 4693 1132 0
-2873 395 174 0
-3776 303 2296 0
-4366 3644 -1859 0
2918 949 4016 0
4346 4569 -818 0
224 -963 -3473 0
-1320 -203 3106 0
-2553 -2375 4724 0
-4758 3103 -1533 0
-1155 -2999 3707 0
1165 1778 671 0
-3982 -718 -2783 0
-2412 -2428 2137 0
1844 -4316 4469 0
-2140 1284 4481 0
2344 2251 -1853 0
-1313 -3642 -341 0
-1352 4794 -593 0
-2343 2079 2423 0
-3650 2999 4427 0
4106 -1180 3620 0
-3911 -3917 -3999 0
2875 1857 -4791 0
-2836 -2981 -2392 0
2565 1394 2171 0
-4230 505 4153 0
-3788 -1481 2456 0
-3899 -131 -3458 0
-2771 4184 -2512 0
-2291 690 -4521 0
-4636 303 -1345 0
-675 4839 -4732 0
4500 1485 930 0
899 -2324 -2296 0
2353 374 -3205 0
3184 4394 831 0
-4365 -3256 -881 0
-1900 4660 1405 0
-1913 714 -2166 0
1388 -4013 3226 0
4680 -1985 2705 0
3584 1879 3165 0
3216 4175 609 0
-2340 4099 -2734 0
2835 3809 2944 0
1139 -2686 3959 0
1067 -263 796 0
434 -2637 -69 0
-929 -432 4448 0
1608 -4975 -1067 0
-812 -4236 -2849 0
876 -408 -2275 0
2217 -1273 3121 0
-2362 -3765 3251 0
4354 -3120 -1793 0
-2230 3854 2681 0
-3104 1111 -2935 0
-4411 -3473 1485 0
-4688 -4452 -4312 0
-2575 2359 4188 0
976 3655 -2667 0
556 -3338 2828 0
2017 -3945 -4936 0
-554 -1315 -666 0
1223 683 4912 0
-4915 3254 844 0
-961 3578 2484 0
-3743 4327 -1793 0
-3969 -271 732 0
-1610 1184 -1524 0
-986 -488 -2713 0
-3354 4487 -3802 0
-2192 1132 3292 0
2811 -582 4075 0
-3666 2212 -938 0
-519 4794 1692 0
1016 2523 1200 0
3115 -1823 -4778 0
-4130 -2795 -2470 0
-4104 -1027 -916 0
264 -3767 -4118 0
2102 -954 -4281 0
-2482 -3889 2340 0
3380 347 -4174 0
372 -1063 -4709 0
-2561 -3437 3538 0
2910 -2701 4445 0
-1330 -4610 1945 0
-2155 -4735 -2091 0
-4688 2077 -4786 0
4390 4919 -2054 0
3099 -206 3289 0
-477 -4851 3191 0
325 255 -2140 0
-3475 4763 1131 0
-625 4834 -816 0
419 223 -3897 0
1565 4329 -505 0
-916 4637 -3806 0
-2280 -1644 2016 0
2662 1874 3535 0
2114 -684 -221 0
3821 -2608 -4920 0
-1393 2922 -3545 0
1008 369 90 0
-2966 -3131 1147 0
-4112 4323 -4567 0
2450 244 -642 0
-3523 2445 -3702 0
-3556 4375 459 0
-4327 2215 24 0
318 -4105 -4356 0
-4842 3768 698 0
2922 -1161 982 0
-1302 4962 3373 0
1510 3941 -3189 0
332 26 3822 0
-1150 -3429 995 0
762 -2115 1198 0
4604 -71 1335 0
-127 831 -976 0
-4206 2395 4641 0
-635 -443 3761 0
-3621 342 -3606 0
-960 -4500 4928 0
3972 -1378 983 0
4200 3703 1391 0
-4695 2611 -2933 0
-2010 -4966 4784 0
-2303 261 2015 0
4991 -4521 1147 0
-2543 4434 4725 0
-3309 -1352 -637 0
-1568 4428 1508 0
-1064 1315 -247 0
-3566 -1393 -1637 0
-739 -3969 811 0
-3093 -1552 2040 0
-2494 2152 -1915 0
-2397 397 -586 0
1547 -1719 689 0
4169 119 3397 0
-310 88 293 0
4296 -4681 -4399 0
-4239 4502 -3287 0
3914 4821 -1151 0
-3631 11 1679 0
545 -3738 -1693 0
2806 -3849 -166 0
2144 -1541 1646 0
1816 -2417 3029 0
-2371 2250 -663 0
1430 -1749 -709 0
-2774 -2559 1452 0
1592 -4442 3768 0
-1189 -3811 -854 0
3439 2245 -2462 0
1846 -3177 -3286 0
3934 -2761 -540 0
-4784 -1772 -209 0
2108 -3505 -1799 0
-2251 -535 -2783 0
2845 444 -2312 0
4512 3025 -822 0
1214 1407 -1475 0
4447 -1412 2055 0
-3993 -301 1496 0
-4256 1230 874 0
-448 -4406 2107 0
-4379 -2442 1890 0
-3492 3914 3849 0
4999 2883 -2291 0
-2694 1011 2761 0
3504 -3285 -2763 0
-3537 -3069 4324 0
439 1604 3659 0
-3673 4951 573 0
-2545 4730 -271 0
-812 -368 -3989 0
-2599 4871 2516 0
-4431 -231 -841 0
-2197 3808 -236 0
-4095 68 2494 0
484 3395 -437 0
526 -4063 4164 0
3416 489 -48 0
2543 -4757 -2120 0
3571 4125 -3716 0
-557 2199 2149 0
3231 -387 3867 0
1820 1576 -2039 0
1961 -2026 2350 0
-3024 2158 1335 0
134 -4340 -4079 0
4883 -2673 4234 0
2109 -272 -1523 0
2503 -4952 -4275 0
3581 2001 -4872 0
222 2066 1702 0
4178 -2703 -3362 0
-4418 796 1153 0
4072 3943 -2741 0
463 4325 -705 0
4331 4932 2119 0
-1170 -3145 4123 0
1614 -3018 2430 0
2378 -4536 3849 0
-1721 -1889 3548 0
2997 -2041 4900 0
673 4883 -4023 0
-2287 -2129 -1150 0
3513 -2002 4957 0
-1186 2026 -4705 0
-3054 1173 -124 0
4519 3318 4594 0
2126 -1809 3603 0
-1176 2890 918 0
-4867 -1842 931 0
2952 1531 1967 0
-2621 1084 -2194 0
2227 -1212 -2458 0
1619 -3590 968 0
2912 -323 1663 0
-2450 -388 3609 0
-3081 -3939 -3209 0
-3699 -4529 2052 0
3969 4200 -4456 0
-840 -1657 -2546 0
3284 1058 474 0
-779 2467 -3754 0
3345 2828 -3178 0
-1078 -2065 3434 0
1915 4192 339 0
4636 2262 1701 0
-779 2431 2917 0
2835 4604 -2671 0
1395 -3174 -2247 0
1978 -1095 -4766 0
517 -1386 -4319 0
-2476 -2620 3687 0
-3742 -292 -814 0
-2012 2433 1394 0
2589 2117 2377 0
4258 -2699 -3766 0
1515 3720 3079 0
3421 -4147 145 0
-1734 -4991 -641 0
1140 -2483 1895 0
-1244 4756 430 0
3273 4032 -2397 0
-4608 4210 -4362 0
-4353 210 3714 0
598 -197 -676 0
-3285 -2966 -1502 0
2246 43 -4366 0
4571 -2341 -1446 0
4018 4671 545 0
-2579 2984 4682 0
2613 4220 840 0
-828 -1401 -2187 0
1189 2219 2836 0
3687 -2401 3106 0
-2708 35 4832 0
-3974 1622 -4045 0
-2 -2769 -1998 0
-2161 -1850 -1697 0
3865 4214 -1893 0
-3505 -120 -703 0
-759 -3640 1704 0
-2731 -273 1783 0
-1251 -2182 -740 0
276 -4583 -3460 0
-4102 -1734 -740 0
-1797 -4121 258 0
339 -679 -39 0
-2498 3537 4451 0
2648 579 975 0
-1782 -2474 -4149 0
3683 1867 -2740 0
4297 3066 -399 0
-4645 -4195 3709 0
940 -122 -3310 0
-660 -4355 3564 0
-1478 3761 2788 0
-1021 2537 -835 0
-1182 4732 3 0
2211 -3876 4163 0
-3306 -3697 354 0
2359 -575 3164 0
-4025 -644 858 0
-3293 2137 -783 0
-1268 3323 -1215 0
4352 -3082 -2886 0
-2903 -405 2128 0
1647 3267 -434 0
3243 -1940 -2193 0
-489 3183 -4788 0
1580 -3712 803 0
3048 -3427 3081 0
-4630 3538 750 0
3745 -2237 4445 0
3227 3184 286 0
-3020 347 4647 0
4028 1558 3201 0
2281 3012 -3118 0
249 905 -2178 0
451 -1035 -2144 0
-4562 3242 3296 0
-4481 960 -2678 0
-317 -128 4549 0
1248 -4543 -2013 0
-1906 4040 2510 0
2835 -2303 4941 0
-4374 -4823 3378 0
1829 -1429 980 0
381 -3405 1515 0
1886 -2678 3251 0
-633 4584 4124 0
1511 4472 -4277 0
-201 4310 1758 0
-4714 -3792 -4577 0
-4561 -4828 4577 0
-2504 2850 1264 0
902 -3571 3709 0
-2229 -2310 -3415 0
4547 -1505 -3296 0
-596 2934 4654 0
2598 726 3552 0
-3907 -3384 -4607 0
1939 1095 -680 0
-3103 591 -3320 0
-663 2452 -1971 0
2806 -741 -1019 0
1436 3206 -468 0
-2316 4737 -1056 0
-937 1123 -1651 0
-1281 2730 -723 0
-4405 -2886 2646 0
-470 -2417 -3486 0
4588 1167 -2886 0
3437 3400 1070 0
4481 4049 4032 0
-4953 364 2549 0
2729 4986 2523 0
-2972 1121 917 0
-335 -338 -1548 0
-3041 -2490 242 0
1260 2264 -1500 0
-1306 -3016 -2960 0
-4761 -3108 4356 0
-42 630 2227 0
-2158 4956 1946 0
-61 1596 100 0
-3974 930 3739 0
2847 -3820 -4674 0
-3600 -1598 404 0
-1202 -2528 3803 0
-4772 2977 476 0
3492 -2627 -4535 0
4740 -4144 -3440 0
-4751 -505 -1538 0
4974 -2236 -3760 0
2891 1369 -926 0
3441 -2327 -1647 0
2204 -3017 -4905 0
-4531 877 -4201 0
3533 1234 2726 0
1086 307 989 0
2552 3458 -1478 0
-2071 -3694 202 0
-4042 5000 -4111 0
1515 -3330 -4155 0
-4733 4430 111 0
4273 -4547 4338 0
-1523 -1020 -3080 0
-2656 -1169 -4556 0
-328 -3049 -4891 0
4766 -2670 -2961 0
4865 -2707 3378 0
655 -521 -4158 0
4224 2728 3622 0
-719 -4774 -4351 0
-1524 -1665 3426 0
-3478 1166 -3139 0
-2291 1489 2753 0
971 -4179 -1869 0
4974 -205 1331 0
-4814 4651 516 0
-3894 -2722 -4107 0
672 -4380 -4550 0
-3085 4522 -2782 0
-3462 -1693 -2114 0
4342 -1517 2408 0
-2298 -2951 4823 0
2620 -804 700 0
1675 -1316 3681 0
-4975 1799 -314 0
-4291 -1247 -4200 0
-3916 -1526 4807 0
4297 3402 -4041 0
4761 -766 -2516 0
-3927 -1442 -1345 0
3109 -3388 -3103 0
487 -2106 4621 0
1698 -2519 -1520 0
-4892 -2070 -3490 0
-4824 -2359 -3732 0
-235 -4733 -604 0
-2395 -2276 -4307 0
-611 2676 3621 0
-4701 -2783 114 0
-3275 -3950 2325 0
1707 4494 -1954 0
-2589 1777 -2396 0
-2722 441 -2161 0
-2806 650 -3837 0
2834 -354 1718 0
-945 4164 -4724 0
-4106 4579 1673 0
-4976 3289 -3864 0
-806 1965 -19 0
4432 -1731 -3513 0
-1262 -4918 1 0
-2437 -507 -3131 0
-2807 -1914 3438 0
1212 4406 3138 0
-4989 4507 3060 0
-216 329 -859 0
4161 4904 -436 0
1689 3460 1019 0
570 -4574 444 0
3755 3863 3568 0
-4284 840 1622 0
3740 -4078 3889 0
-2962 -3009 -2197 0
-204 519 -911 0
2203 -160 1092 0
3442 3896 -3195 0
3125 4271 -827 0
2301 -4211 1835 0
1751 2370 -781 0
2214 3761 57 0
4069 -3575 -3397 0
-4061 -1416 -261 0
3411 -4083 148 0
-2337 4782 3125 0
4014 -2372 -4382 0
-3039 -1976 -2807 0
-2237 4400 -4557 0
-1012 -4568 1703 0
353 -3903 -3550 0
4370 4617 -1691 0
2506 -3564 -3695 0
-4349 40 3654 0
-830 3082 -4493 0
2509 3506 -4192 0
-44 349 4191 0
3700 -3416 3730 0
-3596 1379 3397 0
4967 -4738 765 0
3633 -868 3360 0
3207 -1481 -1227 0
-2982 -2739 -3563 0
-3839 -992 3861 0
983 -218 -1656 0
2282 -1603 4037 0
-3434 -3447 -2941 0
-655 2388 -4652 0
-3154 1911 -2207 0
3892 1023 -1199 0
4230 1060 -592 0
-4537 -721 804 0
-918 -3680 3058 0
2863 -3087 -1408 0
460 2166 -4120 0
-4720 4525 -3025 0
-3430 -1354 3777 0
1493 2766 2759 0
-3354 -4118 4332 0
-4996 2485 -4181 0
2671 -4160 3997 0
-4009 -2442 97 0
-2643 -3777 2954 0
-2911 1472 -1399 0
1699 1741 -1973 0
482 -4176 -1560 0
-3041 -1972 -4257 0
1860 -4910 4671 0
3617 -3982 881 0
3394 271 2276 0
1584 -1017 -1194 0
4183 -1321 1419 0
-3296 920 2005 0
4478 -2299 4891 0
3396 2329 1516 0
-3973 -1862 2488 0
3169 -1984 3709 0
-2075 -1056 2815 0
3804 3775 -2254 0
-2477 -479 2788 0
-296 3042 -1666 0
1738 2091 2390 0
-1492 -3729 -1299 0
-4460 1523 2954 0
1555 -30 3065 0
-530 2699 3281 0
-4774 3440 -2223 0
4235 3842 83 0
2730 2632 -1426 0
-5 -4412 -1571 0
-3691 -4887 1016 0
290 -1793 3746 0
3243 -3805 -4567 0
-4766 -3218 351 0
3247 3082 -136 0
-1475 -1882 4725 0
4949 438 -1503 0
1259 -4942 -4991 0
2046 -2282 -3942 0
1258 29 -731 0
1958 -1634 3569 0
2194 2900 -3257 0
4074 -3747 -3546 0
2401 -4163 -4585 0
886 792 -268 0
561 -4924 3555 0
1055 4540 -2802 0
224 2948 -3775 0
-2274 -2487 -2733 0
-1772 -1143 2497 0
3355 -3554 -617 0
4973 4495 -3580 0
476 -1541 -2011 0
4032 -4353 4874 0
523 -1813 -1812 0
-3509 544 396 0
-3559 2908 -1293 0
1687 -2425 -460 0
137 4643 2291 0
2437 4660 1766 0
-3415 1600 -3340 0
-4090 2142 3915 0
-2819 -3635 -3834 0
-41 2040 2115 0
-501 -2907 -562 0
2035 2005 3193 0
-3979 -3668 2868 0
-1045 -1121 3491 0
2002 -3531 -4833 0
2406 4175 254 0
682 -2276 -616 0
3759 4761 -4322 0
3764 3108 -1407 0
4616 4776 2381 0
4450 -2039 -871 0
1303 -3771 -134 0
-4102 -3373 2528 0
-2768 2562 -3985 0
-2202 3360 2821 0
-1455 1665 -3885 0
619 3838 -4850 0
1891 2622 -2198 0
-801 4777 1897 0
3073 -3312 2641 0
-1160 276 357 0
832 828 -1741 0
-1539 -3596 2034 0
-4414 -2175 -3292 0
464 2938 -2111 0
-2575 -2224 1025 0
3133 -4754 356 0
2740 -2401 -3604 0
-537 -2844 2759 0
-2053 3320 -287 0
-23 2320 657 0
-3929 4423 4416 0
2105 3434 4054 0
4605 -4291 4060 0
-4567 -4785 551 0
4628 -401 -4452 0
-67 4540 3449 0
-486 1788 -839 0
3580 880 -2820 0
-1356 2286 244 0
-650 4374 -2196 0
587 -4613 509 0
1439 3173 1961 0
-4647 2344 -3995 0
70 -1593 2091 0
-3155 1587 -3792 0
4073 3223 -4957 0
1580 240 -158 0
-4106 -2667 2557 0
4245 -870 4683 0
-4566 1880 4752 0
2002 3885 4935 0
-4999 4312 527 0
-142 3693 823 0
-4198 -332 -4274 0
-771 4206 -4 0
-1137 -3999 -1633 0
888 4884 4978 0
1134 1939 -4435 0
-1912 -3900 -3348 0
-3075 4058 -2572 0
-2956 -1456 -969 0
-1876 -2892 -3699 0
-1729 2488 -2614 0
4731 -2740 3645 0
-3270 4002 2499 0
56 1192 -1711 0
-3588 2134 -4703 0
4016 149 -938 0
-368 -3366 1043 0
1665 4674 -3358 0
-992 4832 4596 0
-1025 -3627 -3482 0
3983 -4580 1607 0
-3270 -740 -2670 0
7 -158 4377 0
-1184 -2702 -3805 0
-1108 -108 -4126 0
-276 1462 -173 0
2526 33 4686 0
-2874 -4331 2133 0
3741 4100 948 0
-985 -2103 -974 0
-1705 3168 -1143 0
1564 4756 -846 0
-987 -291 -1596 0
-4902 -3629 -849 0
1600 -653 -2821 0
-4472 -2442 -933 0
-463 -2466 1939 0
332 -2736 2162 0
2646 2436 -468 0
-1130 -2607 33 0
4504 -2737 -193 0
2367 507 -4184 0
-3818 -4935 -1203 0
-673 3452 2446 0
2256 3000 889 0
1541 -194 3025 0
4490 1507 3495 0
-1363 4676 2015 0
-1353 -4061 3241 0
-372 304 -2547 0
4823 -230 -2906 0
-4414 287 139 0
-1709 -4147 4980 0
-4238 -4862 -839 0
-3628 -1343 1157 0
-154 70 990 0
-457 -209 -1116 0
-4901 -4796 4564 0
-2315 47 3301 0
-2629 -1105 4515 0
-786 -1902 141 0
-1652 -3224 -2002 0
4466 -2434 -3942 0
-3772 -1473 -3017 0
-2600 3443 475 0
-1072 3073 3766 0
-4336 1203 1784 0
-3365 3538 3428 0
1554 1662 -1006 0
3969 2077 -4645 0
-2239 1602 2382 0
2329 -4419 1387 0
-793 4760 -1299 0
-270 -1023 4068 0
-2971 -585 2810 0
-2000 4299 -4399 0
1370 1410 377 0
4522 -870 4201 0
682 -985 37 0
4400 -1098 -1680 0
1416 3113 -3247 0
3505 -3394 3658 0
2749 -3355 -2467 0
4727 454 724 0
-1874 -2984 -1633 0
1735 675 -2852 0
-1746 -1082 -2949 0
-1039 -1849 -4537 0
-3591 -217 -1369 0
-1246 -155 2879 0
-2780 2736 3984 0
-1167 166 -4701 0
-1687 -4567 1765 0
-3000 -4495 2324 0
-3000 -2228 -3061 0
-4884 1397 -3891 0
-4596 1214 -4641 0
2543 -2604 143 0
1405 -3121 -336 0
4408 -1983 2276 0
-1286 4005 -457 0
-830 -1962 876 0
2079 -2585 4634 0
-58 -1851 4838 0
577 2314 286 0
-2441 -133 -3626 0
2880 1346 -3213 0
1312 -3765 -1092 0
-2998 -4553 -4376 0
-2508 3196 -331 0
1192 -2307 -1439 0
3521 1838 2698 0
-4157 -2364 1165 0
-1803 2860 -252 0
1490 4424 1591 0
-1902 2111 -98 0
-1408 -2313 1182 0
4843 3326 1454 0
1999 -237 -3405 0
4639 -2775 -22 0
-344 2555 969 0
2416 4344 -4715 0
-1573 1639 -3625 0
2688 319 4106 0
36 614 -3732 0
-2156 76 -1927 0
4353 -3321 -1109 0
600 -2371 -4345 0
-2018 2559 -1183 0
-1657 4914 -1958 0
2326 1035 -1989 0
644 2427 3108 0
-3069 1163 3855 0
-2480 -2720 -2383 0
-1775 -502 -2332 0
3895 -3008 1584 0
4423 -647 -361 0
1608 -4432 420 0
-3624 4481 -1757 0
2172 -3102 4828 0
-3383 3293 -402 0
403 2636 4715 0
3612 -2569 1022 0
861 -4882 2993 0
2882 2078 -3928 0
911 -3480 -313 0
4227 3541 4848 0
-509 -3894 1731 0
1205 -3009 1674 0
1250 3091 -4550 0
335 4654 4782 0
4704 -771 -1569 0
-2168 70 -26 0
-3193 -4257 -4615 0
3538 -4085 -3543 0
-4341 -1110 3807 0
4738 1860 -1178 0
-2581 4749 -3727 0
-4398 3809 1762 0
-3546 -144 -2869 0
-1341 3841 2295 0
4391 -391 -2641 0
-4895 3722 1409 0
915 540 2840 0
-814 3630 -1152 0
-1150 4255 -2947 0
3132 170 -3333 0
2797 -3205 617 0
-2336 -4328 1279 0
-3699 2129 2575 0
-936 1108 -4602 0
-1349 -3819 301 0
-1201 3799 2239 0
3329 -4619 -1608 0
-1997 -1559 3521 0
732 1264 -3977 0
1663 -3720 -4926 0
-4202 -3311 -1944 0
4472 2718 4817 0
-204 1872 3185 0
4743 4229 -2207 0
3395 -451 -4682 0
1859 266 -1554 0
-615 -1231 3415 0
-4709 -3896 -3402 0
4970 -284 -2752 0
-2667 -1567 3551 0
163 -4742 2758 0
2854 1856 3574 0
4061 858 -1715 0
675 549 -4906 0
-2581 -4836 317 0
97 -2746 -1720 0
1569 -4758 3942 0
-1038 -953 -2722 0
-3639 -3611 934 0
-3039 245 2036 0
4583 4633 4152 0
1524 -3689 -230 0
-1591 -1381 -699 0
4226 -105 4455 0
-1540 -3201 -2388 0
1870 3554 4467 0
-4824 -4110 3308 0
10 4499 -3245 0
-2645 -2368 -2190 0
-1422 -871 2800 0
94 3840 -2282 0
-4907 -4946 2897 0
-1849 -4527 -2354 0
271 -4641 1249 0
2314 -1167 1683 0
4501 3891 -2766 0
-3936 240 -3994 0
1054 4915 3893 0
-3407 -2398 -721 0
16 -3503 222 0
-510 3103 748 0
-2634 -3949 -3419 0
-3205 -4585 -2266 0
-4258 1049 4497 0
-1059 -3870 1626 0
-2792 -1316 -1667 0
-3628 -3224 4245 0
-2385 2583 4062 0
2528 3507 -873 0
-2601 3968 766 0
767 -3578 1130 0
-1807 1748 497 0
3035 -2552 4445 0
-1264 3166 -731 0
2912 -1598 -2589 0
-2725 1854 1273 0
817 1558 -1506 0
3588 -3691 4519 0
463 -692 557 0
-711 -2652 4387 0
-1450 -2573 4717 0
2422 -3944 2993 0
4617 2246 -3184 0
-4205 -497 -2338 0
-4950 429 3345 0
3964 4868 -2744 0
-1688 1146 -4885 0
-4716 2346 -2351 0
2160 1498 3955 0
2092 -52 -561 0
-4791 -551 -1634 0
2836 -3741 -506 0
4951 3287 1386 0
397 1102 4878 0
2662 3330 -3327 0
-1597 1601 2645 0
1261 4815 -2940 0
-3190 3019 1981 0
1285 -1373 802 0
2187 195 -2551 0
3038 -873 4925 0
2624 6 -4191 0
-190 225 -878 0
851 -4737 -4174 0
3649 -3849 312 0
3312 3946 1158 0
-1228 -439 -3926 0
-4434 -3064 -2462 0
3253 3130 3893 0
-3461 1845 4384 0
-1279 3183 -294 0
4804 4354 -4192 0
4159 -4782 4810 0
4521 -2888 -2989 0
-3576 30 -2439 0
-4234 3243 -2215 0
1747 52 1219 0
-1349 3110 -1492 0
2580 -1196 3787 0
-2690 4420 -726 0
1508 -471 2057 0
419 -2189 4496 0
-1085 298 -1707 0
2852 -660 -4444 0
-3636 2074 -4007 0
-2553 -1795 -764 0
4492 451 2844 0
289 4448 2668 0
1235 -1835 -1285 0
790 -4071 2609 0
168 4831 -252 0
-3853 -3500 147 0
1040 2497 1386 0
3516 -289 -1279 0
3704 2267 -1306 0
-4035 474 4455 0
207 799 -4376 0
4322 3555 1117 0
-2635 -73 -2587 0
-2531 1273 -3864 0
-4650 548 -2095 0
-885 -2770 -847 0
-1932 -3652 -518 0
-248 -2471 -2646 0
-4348 -4838 -2576 0
-4203 -1763 3155 0
3167 -4567 3568 0
-464 3633 2998 0
-4447 -3615 4092 0
-166 598 631 0
2829 -2192 -4625 0
2990 3311 -3867 0
69 -467 4034 0
-4207 -2088 1173 0
-2817 4199 105 0
3520 -1601 -1747 0
-4960 2609 3668 0
-4162 2512 4334 0
-4460 -1748 -295 0
1882 2675 -3126 0
578 1681 2769 0
4881 -556 3372 0
-1880 -4984 989 0
-300 -4574 -437 0
-2432 4176 -3750 0
4023 -4277 -794 0
4872 -4947 -1225 0
-2615 1111 692 0
-3538 -759 2714 0
1835 4234 -1659 0
-3701 3364 -2468 0
3381 1600 3597 0
-4129 -1718 -224 0
-2921 -2687 622 0
4630 -3457 4924 0
-4832 3879 4093 0
2280 -1288 4749 0
4695 1599 744 0
-4687 4458 -2796 0
-4205 -43 -1513 0
460 -3296 -2991 0
599 -3857 4729 0
-2103 377 -1152 0
3744 -271 2729 0
-1738 3112 -977 0
-1034 -3409 -782 0
4038 -1654 -899 0
3479 846 3818 0
-305 -74 4534 0
3583 -4247 3933 0
4206 -466 -3429 0
2952 -4984 2994 0
3132 4509 -2277 0
4162 -689 9 0
-3076 -1001 3812 0
-1402 -3378 -1015 0
-1029 3442 3508 0
954 4554 -966 0
3754 -4561 -4774 0
1996 496 -4804 0
-4494 -2086 3941 0
-661 4947 -4935 0
3209 4392 344 0
2475 765 4135 0
-4775 272 2490 0
2252 3468 -4410 0
-2189 767 -1343 0
-4305 3895 -3982 0
-1105 -4674 -2582 0
-4491 2933 2782 0
727 80 580 0
122 2266 -27 0
-78 3084 2375 0
-1716 1770 -4345 0
-2067 -1174 -1627 0
-4076 -913 4781 0
354 3105 -765 0
-272 772 -1055 0
1623 2379 -4488 0
-3259 -2331 4562 0
-3533 -3754 -1457 0
-1708 -1798 2177 0
-477 -4891 -855 0
-1341 -409 -2330 0
-885 2223 -9 0
91 -446 -2896 0
-1797 -2383 -4605 0
-3778 -2864 -2181 0
2950 -4638 1633 0
-3162 -812 -2485 0
-1448 -2075 -3713 0
-4094 -4716 -3385 0
-2545 -77 -2281 0
185 91 862 0
-3224 -1530 4813 0
-2572 -242 -4217 0
-797 -3317 2844 0
-98 2976 -739 0
-547 -4527 -4134 0
-2323 -2755 -4977 0
-3690 -4357 2041 0
1210 -2811 -4505 0
-1582 1543 1485 0
-378 1461 -1661 0
4429 4057 -3755 0
-2427 3071 3879 0
2875 1850 1674 0
2267 -3886 -2907 0
-3216 -1583 -4294 0
4176 3829 -1673 0
-1460 -245 2602 0
-3328 -1687 -177 0
-2773 1905 2780 0
643 -1739 4072 0
-3870 -3462 4898 0
151 1698 1880 0
-3259 118 -827 0
3162 4757 -2075 0
-514 -4472 4499 0
-4693 2915 1514 0
-1439 2659 4579 0
-3123 -4794 4443 0
2902 -3443 -1111 0
-2824 320 3727 0
-306 217 -3354 0
-1199 -3374 -3524 0
2698 2690 -3345 0
-30 3047 -3239 0
1437 -4587 3093 0
-3708 2282 2430 0
4900 2091 -1500 0
2625 -3136 -2575 0
-3587 -1814 -3216 0
-2183 103 -3076 0
1279 4123 -3831 0
-1037 -1661 3168 0
-2348 1816 -2856 0
4076 -4790 -3307 0
-5000 2641 2909 0
4345 -4413 -1364 0
657 812 -915 0
3511 -2549 942 0
4081 -278 -235 0
-4065 287 1206 0
4559 -4973 1046 0
2307 1486 708 0
-465 652 -3273 0
4851 -3003 2329 0
-1968 1503 -4324 0
-3883 1552 2310 0
1570 1102 -2385 0
3448 -3639 -2975 0
2474 4765 3254 0
-2843 1474 2522 0
-1057 2385 2053 0
-1596 310 -2982 0
-1986 -3996 1660 0
-1852 1312 3409 0
-379 -1339 3415 0
4470 1439 3197 0
-1731 880 1477 0
-4646 3136 3256 0
3232 2469 4155 0
4924 -3769 -2469 0
-171 4091 -357 0
-3138 3673 4595 0
4220 2311 1120 0
3348 -1154 1531 0
43 4834 4256 0
739 -4578 -2530 0
-2268 909 4660 0
4692 -1415 -1219 0
-880 -2925 -3239 0
3609 140 717 0
3086 -280 -3271 0
4846 4568 2624 0
-4862 3642 716 0
2194 -1083 2158 0
-2024 -3442 -3887 0
749 -1938 1970 0
3258 2781 -415 0
4802 -3727 4599 0
-3576 -3717 -4444 0
3719 4887 -985 0
1505 2997 -770 0
-4130 -146 -4954 0
-1994 2542 -4805 0
-4288 -167 -372 0
477 3165 931 0
-4560 -4737 1245 0
3645 1112 4993 0
1716 702 -2271 0
1047 487 -1301 0
1835 -68 -1438 0
1166 -4428 1711 0
-787 3465 -3336 0
-2285 4955 992 0
3797 987 -2017 0
19 -192 2048 0
-871 4073 -741 0
4419 2319 3870 0
163 -3902 1838 0
923 -48 2360 0
1512 711 -3397 0
1999 -2371 -1991 0
3100 1323 -2774 0
-21 -4101 -1630 0
-1180 -813 -3554 0
4936 3289 -516 0
-395 -4143 1285 0
-3998 -2469 516 0
4078 -3464 1278 0
-4555 -1221 -4793 0
-4649 919 -374 0
1911 -3141 -3828 0
4931 1261 -4870 0
3259 3188 -3410 0
2302 -3919 1340 0
-1496 4906 -4772 0
-605 -3284 -4513 0
-4365 4268 -3902 0
-823 474 3892 0
-887 -2694 -4472 0
-4547 1742 1990 0
3707 -1377 943 0
1228 2349 4702 0
4339 -2922 495 0
2226 3539 -844 0
1919 1808 -3700 0
-4752 3438 -1294 0
-655 -3164 4640 0
1186 -578 3898 0
1180 -2353 4045 0
3726 -4200 -1744 0
507 -3866 -3400 0
-1743 444 55 0
572 -4173 -2964 0
2294 782 48 0
-3765 3396 -4422 0
-2467 -1625 1049 0
-3763 -2199 4689 0
3792 -2780 575 0
912 -2096 -4258 0
3866 -1686 -103 0
3962 2236 -2615 0
423 3095 2169 0
-408 2557 2839 0
-2530 -4481 -4084 0
408 -3744 -505 0
-4261 -1291 4055 0
4829 -430 4715 0
-3639 4251 -2241 0
-4493 -2158 -32 0
-2187 285 4152 0
-3439 2478 -3937 0
-3422 -4887 -2280 0
1380 4678 21 0
1920 3039 -625 0
4671 1537 -153 0
2395 1769 -3730 0
2445 -3593 -1769 0
-131 4258 -2824 0
4386 -2847 -1648 0
-794 -4547 2223 0
-3150 553 -4226 0
-3838 2964 4462 0
1712 2817 4095 0
-4097 706 -4046 0
-4670 -265 -122 0
711 1660 -2335 0
2381 330 3191 0
3421 612 2186 0
-4686 3296 -2222 0
-2007 2445 1112 0
1129 204 -37 0
-1031 -1020 -4036 0
-4959 2234 4024 0
-3914 1283 -4785 0
-899 1003 700 0
2058 4310 -1482 0
-3430 3581 -1182 0
-4699 3596 -463 0
701 797 -2324 0
1864 1889 -1831 0
-820 4114 449 0
4674 -126 -991 0
-3295 1427 -3632 0
-1129 2715 -3186 0
170 4023 -1436 0
2575 -642 3485 0
-3506 -4518 1282 0
-4849 -4865 -3622 0
3904 -2884 3417 0
-1902 4363 986 0
-4813 -498 1379 0
152 4400 1161 0
-1803 653 4752 0
4176 4487 2151 0
-2231 -2589 -3159 0
-4865 2701 -1371 0
-1310 2202 -1682 0
-3871 -2175 1504 0
2760 -787 1694 0
2899 -1195 79 0
-3332 3567 -683 0
-3768 4079 -3797 0
-1272 -1638 2039 0
-3546 -346 -2129 0
-2794 -946 -457 0
-3615 3957 619 0
-150 218 -4923 0
-2935 -91 -3134 0
-2182 -4886 -3994 0
1527 -2651 2944 0
3457 -1264 -3345 0
259 982 2784 0
1852 -298 -1451 0
-51 964 -2826 0
4771 3539 -4001 0
-940 2863 -1215 0
-3776 -1630 -911 0
1866 2187 -1554 0
-743 -2905 952 0
4942 2477 -2246 0
-2514 4300 182 0
-2718 -3982 -4670 0
174 -1756 2250 0
-3999 -733 -1485 0
1075 -4842 -2379 0
-1862 4299 -77 0
3915 -1559 2486 0
770 -1468 343 0
-4392 4294 2174 0
2771 2518 -1539 0
-1047 -3934 -4023 0
1304 2684 -72 0
-2611 4640 -2296 0
-195 1444 1749 0
-3431 190 554 0
-4213 2086 4597 0
4593 343 -3781 0
1627 3300 -812 0
2284 -528 -2385 0
2173 3528 258 0
-4227 2099 3078 0
3685 1236 3856 0
3727 -190 -3904 0
-4533 3902 -4503 0
2413 1134 -416 0
3252 1810 2189 0
3218 1810 -2820 0
280 -4369 1621 0
3947 -1160 -1105 0
2679 -4254 -4354 0
-1281 1236 -852 0
1373 4204 -576 0
-4983 -4898 3628 0
4766 -3538 -4649 0
629 -4617 -4928 0
-1605 4955 -1679 0
1769 -3234 2674 0
3603 -1264 -1563 0
-1260 -64 3648 0
-2941 1920 -2718 0
2965 -1186 -4624 0
-939 1182 3486 0
-600 3684 1650 0
-3172 -3960 518 0
-2155 -3263 2111 0
-1955 -435 751 0
-3149 781 -1651 0
-940 -4803 269 0
-3850 4635 -3700 0
2533 -4083 -133 0
4725 -1024 -1600 0
415 -3000 -1470 0
373 -256 3813 0
-4674 -2653 -2284 0
1155 4601 3797 0
3161 -2742 -844 0
-2368 2575 3160 0
1981 -3501 4825 0
601 -4881 -2404 0
87 -2024 4942 0
3996 -4353 515 0
2190 -4515 4843 0
4385 1078 -3241 0
-3960 -2711 1241 0
1020 -2594 2284 0
164 -2736 -3502 0
-664 -1824 -3038 0
-584 -3115 593 0
-2219 -148 -2456 0
3011 -4896 -1664 0
-1613 -2560 -4493 0
166 -3486 -1249 0
-1835 -3017 4444 0
563 4738 1562 0
-2642 -723 2253 0
-648 -562 3773 0
-2472 -2691 -476 0
3136 359 4956 0
741 -2739 1185 0
-3208 2519 3059 0
-605 -2772 4152 0
-2780 -2944 -3368 0
4779 3620 246 0
-217 154 -2175 0
-1299 -3270 -3120 0
-1728 -4717 -3818 0
-260 -2582 -1797 0
-1475 3665 -3643 0
-1426 785 3765 0
-2489 -661 -4947 0
-1157 4529 -1726 0
-2139 462 -1532 0
-4402 -2860 2561 0
4354 -1702 3706 0
-4085 -2484 980 0
-2262 -281 4130 0
445 3335 -1914 0
2269 4711 3744 0
4165 -3955 918 0
2805 3237 2207 0
-1968 4620 -4772 0
4486 2548 -4048 0
-3809 -621 588 0
4046 -2138 4085 0
-4959 2731 1251 0
-3428 -1623 -4551 0
4010 -3804 -3863 0
-1795 -4857 1712 0
3343 -1183 2322 0
2150 -2207 -4954 0
1686 3582 -4375 0
1330 -3043 -1115 0
-1822 -3085 -2556 0
2416 -4948 -4096 0
2765 3932 3379 0
-3209 936 -3049 0
3798 1043 3807 0
-2963 1003 1297 0
-3020 2170 -453 0
-1833 -2385 1297 0
-3511 2370 1780 0
-1003 -250 3250 0
510 -3583 232 0
1300 3053 3470 0
4727 -1280 1135 0
3736 -1037 4866 0
-4957 2917 2505 0
-2382 -4484 -624 0
572 3670 -2914 0
-2807 -1644 3981 0
-4495 -4256 -1704 0
-1747 3874 -1754 0
-3385 2447 3817 0
4453 -2597 -520 0
-752 4273 -4147 0
603 1919 -674 0
3546 -3800 654 0
3004 -2142 711 0
-3197 3617 4355 0
-2624 4866 1469 0
-1921 -1234 580 0
-4821 2770 3351 0
-4935 -2558 -1640 0
-3283 793 768 0
721 -4687 -1801 0
968 3950 -733 0
2733 -272 -2308 0
4968 -3208 4149 0
-1507 -3445 -2094 0
-121 1831 -3948 0
898 -3347 875 0
1752 682 3500 0
207 4521 4618 0
3615 2949 122 0
-2640 -2749 -692 0
3181 924 4968 0
2631 2567 -4573 0
3700 -2983 -1000 0
-3352 -3939 -892 0
-4209 -1384 -39 0
-4129 -4650 470 0
1632 -2702 -1508 0
-1800 -2372 -415 0
-1823 726 -1729 0
-626 4088 -1918 0
1591 -623 -4253 0
581 -2849 4571 0
-1430 848 702 0
3410 3582 1782 0
-190 -4961 -3115 0
4368 -3537 -626 0
-74 2323 2759 0
754 2390 2865 0
2272 -2317 -473 0
-2350 3927 2620 0
-364 -3161 -413 0
543 458 -4269 0
3604 4829 3693 0
-1036 4236 4446 0
-4945 602 1956 0
1518 1051 -615 0
-3833 -4584 -2884 0
1428 -4571 -1797 0
1547 -2510 -2434 0
-4322 3247 -983 0
1823 4325 -1387 0
-310 -768 4518 0
1613 2464 2272 0
972 4808 -882 0
-3757 -2330 3137 0
4681 -3947 783 0
1960 -4366 4012 0
-2423 4136 -2371 0
-1377 -182 -1951 0
-227 1214 4053 0
1034 -1196 -118 0
3809 -4915 -3706 0
-4768 -4681 3533 0
351 -2257 3122 0
425 -4503 -2011 0
28 1232 4899 0
1947 4425 4282 0
-4662 2556 613 0
1584 -4399 -1578 0
4062 -2619 773 0
-3752 3612 -4909 0
-6 3920 -3552 0
3659 2454 -4955 0
2618 -2024 2600 0
295 2487 -3232 0
3107 653 4765 0
1216 325 68 0
-2080 -3164 731 0
413 -1924 4351 0
934 1692 3075 0
-672 -4521 2798 0
3796 1843 88 0
3198 -3744 2299 0
-2431 -1062 578 0
-3926 356 4932 0
419 2799 -4838 0
-3281 -3740 4301 0
619 1992 -4088 0
4150 2247 -1872 0
3427 -352 1997 0
819 2298 3083 0
-167 1334 3594 0
-4501 -1100 3466 0
4441 -1829 4974 0
2776 -3144 -1403 0
-1092 3009 192 0
-4962 16 2076 0
-3464 287 1987 0
-2446 4215 963 0
-1194 -2035 -4849 0
3924 1445 -4913 0
-3502 -2965 -2882 0
-3402 2549 -3191 0
-274 -1242 3528 0
-3284 -1363 985 0
-1745 550 -1830 0
4638 -4147 2558 0
2929 -3528 2249 0
-1913 2935 -2895 0
4202 -2472 -1967 0
-4227 4823 -196 0
-4584 -2825 -2464 0
-1622 -1717 -1774 0
-2103 4674 -3815 0
3107 -1047 -4393 0
-157 -4542 4265 0
-3069 4801 4184 0
241 1401 -4239 0
1224 -3856 -3287 0
2980 -2315 -3836 0
-469 -2679 -3211 0
474 361 280 0
-3773 4816 2799 0
3884 -2722 -595 0
3794 1655 3386 0
-562 -1759 -3261 0
2345 -4503 -1676 0
-949 -2076 3871 0
-788 3507 -4784 0
-2145 2269 -4098 0
-2756 3203 -3818 0
-3820 3105 -4540 0
-4205 -3312 -4477 0
-4813 -4123 -1260 0
-1108 -3047 -93 0
2949 1298 -206 0
-3241 -3371 -2142 0
709 -71 -3156 0
-261 2143 4683 0
-4997 609 2824 0
3630 2835 947 0
2938 -2158 -2485 0
1466 -3232 1017 0
4862 1344 787 0
-3240 1170 -3728 0
-1706 -1222 672 0
3134 -3985 -506 0
3270 1822 -296 0
-3316 4037 -299 0
4342 2993 730 0
3549 -594 -3442 0
669 -3058 2449 0
-1946 3536 4193 0
3325 463 3552 0
148 -3931 2401 0
-1362 886 522 0
946 -3250 -4534 0
-871 -4184 -3 0
2822 965 37 0
3728 -2383 1477 0
2620 -4609 -795 0
-1219 -2879 -5 0
3360 -2892 -2155 0
1845 -1177 4036 0
171 -3862 693 0
1890 1439 1259 0
2274 -3327 4069 0
-3874 -2707 -624 0
3617 -2078 3194 0
379 2561 -4528 0
-4513 -2670 -2244 0
-2922 -1311 -3413 0
-1717 2102 3711 0
-4596 4996 -1949 0
3904 -4067 3127 0
-4022 -3747 4612 0
-4816 -3758 2274 0
-4049 -992 3637 0
-2843 4080 3743 0
310 -1196 -2899 0
-4303 -4942 -2813 0
-4295 113 3304 0
853 -1756 -510 0
3110 1976 -857 0
-4609 2890 489 0
-3813 -1694 -3737 0
-3467 1561 1492 0
-775 4858 1710 0
472 4582 4782 0
2169 3818 -3365 0
-2371 1399 -2509 0
-3223 -3572 2408 0
-4086 444 4932 0
-2591 -3527 -2033 0
3117 3216 188 0
376 -2496 -4988 0
-1504 -436 1327 0
-475 2858 2201 0
-4180 -4127 4199 0
3070 1975 889 0
2216 -1441 4770 0
-3974 -3434 -2518 0
-2658 2990 3526 0
3439 4720 3036 0
3495 1972 1602 0
-532 -3378 -3467 0
3087 -3439 1776 0
3435 -4263 3032 0
2434 184 3852 0
4512 4072 4715 0
866 -2584 -333 0
2927 -3065 4057 0
-4652 -4512 -1676 0
299 3225 853 0
3134 3640 608 0
1081 -453 -451 0
-2413 -560 -2416 0
4953 1755 4357 0
-639 1935 -1983 0
-4272 -1904 -4120 0
-856 -1447 127 0
3737 -2989 -3665 0
-4994 1911 4011 0
-4302 3472 4033 0
-1113 897 2322 0
-4535 978 -3041 0
-1120 1081 -2439 0
-1050 3130 -3202 0
1521 4202 3054 0
-92 -1266 4425 0
2393 -1201 -1787 0
316 3074 -1121 0
-3091 2018 2658 0
3270 -3921 594 0
2134 4909 -4641 0
1580 -2626 2181 0
-3125 4824 1727 0
4754 2948 -3998 0
2376 559 2108 0
-4565 -1718 4992 0
1755 1480 -4976 0
-3177 4606 3836 0
-1688 -812 1378 0
-3044 -395 2810 0
-428 -1736 -1997 0
4177 -2697 431 0
488 4935 -3714 0
-393 -2017 -2727 0
4750 2456 -1728 0
2827 -2662 2798 0
3178 3274 4098 0
-4019 -2376 -3815 0
-2282 -1504 -2455 0
-4569 799 -2433 0
-755 -579 -794 0
1642 3063 681 0
1523 337 4856 0
1192 2077 -1696 0
-4510 -1276 -4513 0
4839 -1625 -4821 0
3243 3533 -2185 0
681 2698 744 0
-499 -1677 2047 0
96 2987 941 0
724 3523 -1087 0
1753 3010 -1893 0
1901 3749 -3850 0
-2927 -3475 -25 0
-4021 -774 -2558 0
-4396 -4884 -1699 0
1088 -4034 4186 0
-2170 2589 -688 0
-1964 2402 3085 0
1724 3930 219 0
-4696 1817 4982 0
3928 -3765 4394 0
-1753 -3886 1306 0
626 -966 2805 0
-2370 -2392 -3448 0
-4051 -2593 -1039 0
-3882 754 2270 0
-3282 3336 4723 0
4014 -2555 -145 0
1355 1702 -103 0
-185 -4994 4938 0
-4047 4314 -808 0
2783 999 1018 0
1935 -391 -2991 0
-2796 448 -3079 0
4486 2329 1024 0
-174 4531 -726 0
-4890 -332 2388 0
-31 -4606 737 0
-3824 -308 -1206 0
4183 3128 -2049 0
2239 -2704 -4411 0
2650 -2675 2691 0
-3257 2606 -1997 0
3325 -1946 384 0
2644 1460 1905 0
3884 -2322 3375 0
-773 -3374 -1435 0
-122 2737 1116 0
173 3038 43 0
-240 -3346 4349 0
3256 -4159 -4673 0
-4901 -2759 3711 0
4361 -1560 -1624 0
-3883 -4829 1835 0
4521 2577 -4801 0
1181 73 71 0
-4839 -166 -2203 0
1899 -2253 4833 0
-3753 3678 -195 0
228 3392 4798 0
2965 -2778 -1822 0
-2549 2817 -3877 0
-3417 -2841 1555 0
3635 -4789 644 0
-3988 6 562 0
3336 -2652 308 0
934 -1008 2995 0
2066 764 -1060 0
-3942 -2687 2936 0
3329 -2180 -2012 0
-4132 -558 -3689 0
-1797 4616 -3312 0
-3361 -286 -3159 0
3271 4530 3148 0
740 2701 3860 0
2812 -239 732 0
-198 202 -330 0
3531 4972 962 0
-814 -1500 -4516 0
-2481 -2597 4132 0
-1735 2725 -4811 0
770 -933 4831 0
-2021 3042 -2038 0
189 -3779 488 0
2301 -683 1356 0
-3234 1647 -2097 0
1771 189 -4279 0
-3209 704 251 0
3625 2343 -3463 0
1782 -2913 -4422 0
-1195 -3865 3557 0
-665 -1267 -2475 0
-1449 -2752 2674 0
-1496 -4102 -771 0
-4998 -2614 970 0
1573 3501 -1930 0
941 3678 -4204 0
523 742 3439 0
3687 -505 4236 0
274 3983 4692 0
2482 4510 3077 0
-136 -966 -2035 0
-4887 -4301 -2277 0
3165 -3063 445 0
-2708 -481 -4609 0
-614 -1138 1757 0
605 3549 -3285 0
-1507 -4232 3523 0
-971 -2771 -4136 0
-4167 1768 1123 0
3913 -3781 -1843 0
2898 3279 -701 0
4143 1340 -3031 0
634 3040 1429 0
3134 3554 -2975 0
-3286 -2719 -2711 0
-2130 3074 336 0
3959 -2399 1702 0
2899 1608 -956 0
-2342 -4767 -4385 0
3387 -3675 -3375 0
3866 -1126 -1299 0
-1920 -2836 709 0
-706 3241 -1666 0
3522 4785 -1418 0
-1269 1417 536 0
-2463 1977 2680 0
531 -4607 -2837 0
4217 1003 105 0
-1820 170 -581 0
-447 3229 -1012 0
2209 -116 -3849 0
-4542 3490 -4964 0
-813 3022 -4158 0
3000 4374 2593 0
-2027 -1938 -1519 0
665 -3955 85 0
-4336 -3769 2254 0
-3483 -447 -3778 0
47 -4947 4288 0
1963 4781 2427 0
-2228 2218 -3333 0
1233 -3944 -2987 0
-3342 -2741 -2562 0
-4981 1242 4107 0
-4714 -4610 -2917 0
4607 4402 904 0
-3917 -1708 -107 0
1578 4201 1219 0
-4912 2477 4688 0
3311 1733 4306 0
-1704 -580 -3416 0
4505 -513 4510 0
-1838 4224 -3288 0
-4036 506 -91 0
-2118 1185 -1032 0
-1619 -2461 1459 0
-3770 -82 -1440 0
1141 -3424 1664 0
-1024 4909 2296 0
2767 -3613 1492 0
-4642 1367 -838 0
2920 -1187 2162 0
-4894 1804 3871 0
-3710 -4128 2899 0
2878 1363 1459 0
4503 3177 -221 0
-3310 1640 -3290 0
-354 2316 190 0
-3696 -4194 -1063 0
-971 -453 236 0
2687 -1143 4752 0
-2492 1460 1084 0
1115 -4455 -666 0
1109 1183 1190 0
-4286 3310 243 0
4304 57 -3613 0
3074 1259 -2399 0
4062 1659 1745 0
-717 3583 740 0
1247 -327 1565 0
-467 -500 -4355 0
-1018 -4874 3175 0
-3380 2374 508 0
-4579 3647 4979 0
555 -3767 -3378 0
3301 -3492 -1301 0
2658 -629 -4789 0
-4504 -472 602 0
1692 769 -2376 0
3773 -1875 957 0
1771 -1916 -3851 0
-354 1397 4317 0
-2103 234 -1499 0
1974 -663 -985 0
3537 -1736 4454 0
50 -3323 3087 0
-184 -2407 766 0
-2609 -1418 1716 0
-2664 -764 -701 0
4683 -166 -770 0
88 -377 -4445 0
-2035 4804 1823 0
4868 2638 -2190 0
3173 1261 -3036 0
-4149 -4205 -2628 0
-4179 -3378 -3109 0
2328 1383 392 0
-4867 -363 281 0
-1534 3270 -2187 0
3368 -3921 -3353 0
609 1114 834 0
1573 -3583 -1715 0
-561 -4542 -3243 0
555 -3995 -3015 0
1186 -2885 4384 0
-2085 139 -430 0
4007 118 1319 0
84 471 4700 0
1595 -2084 -3951 0
106 2526 -3760 0
4037 4714 1472 0
1588 -2730 -3154 0
-60 -3838 -1142 0
-4135 2792 -3529 0
4230 -2393 1284 0
1652 -254 -3656 0
-4239 -696 2234 0
547 221 2592 0
-3873 4092 -2593 0
1028 -3963 -2043 0
204 4410 -3686 0
523 -4112 1804 0
-910 1254 3584 0
-1370 1616 -3834 0
-4207 2132 1786 0
-3456 1754 3103 0
2066 -1642 1584 0
-1906 -3996 4952 0
-1551 4550 -1259 0
-4612 2208 3020 0
2337 -1582 -1010 0
-2952 3688 -2063 0
-1542 -3901 1339 0
1563 642 4025 0
-185 -4420 1363 0
-4827 -2448 -1719 0
3279 -4472 1669 0
-3470 4000 -4203 0
4085 -965 -4043 0
-4095 2572 168 0
3398 -655 77 0
594 -3338 -2895 0
3796 1181 252 0
-3461 1797 -382 0
-4567 2601 2444 0
-4801 -62 1385 0
-3463 -1301 1187 0
1806 -4034 3135 0
1447 4864 4014 0
3013 -2507 4266 0
2552 -2599 -4826 0
-159 -3856 -2559 0
-4347 3046 1664 0
1652 -3239 -3860 0
3979 -3864 942 0
1792 1374 -1375 0
2487 -994 592 0
-3611 3121 -1626 0
961 925 -3173 0
4128 -1891 2070 0
-4825 2223 3427 0
2278 -235 -2685 0
1880 -2254 1398 0
1642 -3693 2363 0
3117 -3329 -2097 0
1992 -2696 2615 0
2189 -2520 553 0
1952 -4249 -848 0
2889 3794 -3559 0
-3193 -2553 -1573 0
-2612 -129 2881 0
-2475 -3602 935 0
805 -573 1810 0
-4630 -2621 1004 0
-1897 533 4982 0
-3131 2683 2102 0
-3031 1689 -593 0
4829 -1314 -2438 0
-2440 760 -1902 0
2359 327 1357 0
-1654 1907 2592 0
-187 -4869 -459 0
1635 1826 4449 0
-1671 -4215 -4127 0
1891 -2342 -4931 0
1466 -566 2380 0
1095 662 3306 0
-2727 656 563 0
914 2903 -4991 0
-4975 -4763 1068 0
-694 1756 2331 0
-2510 -4424 -992 0
-2459 -2340 -3811 0
-2713 -4494 -4423 0
-982 3285 1117 0
-3368 -578 -3973 0
-3368 3199 325 0
-3441 -929 -475 0
1852 312 1159 0
-245 271 867 0
-4798 -3847 3731 0
-4487 1971 4009 0
2518 -1931 4204 0
3116 -1677 -4848 0
4481 -1780 4853 0
3578 2234 -3502 0
1263 -4932 2376 0
4465 -3153 28 0
1400 -3468 4573 0
691 3676 -3843 0
-1322 -3345 1354 0
1327 2922 -983 0
-4483 -1529 4148 0
2025 1851 4603 0
3137 -195 -2898 0
3344 -4948 -1142 0
-3614 -674 4910 0
2446 3635 -542 0
606 -3121 676 0
163 1978 -4182 0
-4504 -4114 -1019 0
-4009 -276 -4368 0
-4331 -589 -524 0
-694 -3083 120 0
-4336 -4790 -405 0
-1612 -3616 2588 0
-2673 3693 -1149 0
-2782 3420 153 0
1141 -310 -2960 0
1060 -1719 63 0
3564 -1304 -2679 0
839 -2745 613 0
-1383 -2287 -4730 0
3948 -3587 3361 0
-1176 2033 -2582 0
4037 -3824 2193 0
-1116 2369 -2629 0
-260 -4145 1268 0
4781 -685 -120 0
2486 -2414 -413 0
905 4302 1768 0
-467 -2699 2430 0
-3298 -772 -3225 0
-4374 -2199 -785 0
4488 328 -888 0
-2754 3326 -4464 0
-4355 2207 893 0
-3748 4477 1489 0
2007 -2177 4074 0
-2957 -3873 -3104 0
226 3017 1613 0
-9 781 3716 0
-239 1001 3127 0
692 -4320 -4083 0
1877 3981 -2227 0
3605 2609 -1823 0
672 -4658 2828 0
-4526 -4382 2373 0
-3699 -3929 4847 0
3781 1192 -3517 0
2305 1247 -4347 0
916 -507 3118 0
-3783 3379 -1289 0
4272 -4732 325 0
1402 -1897 2887 0
7 2572 -3135 0
4880 -789 -2164 0
-426 -2787 -2738 0
-837 787 4352 0
1002 1164 663 0
1999 1802 2801 0
-512 4963 3866 0
1259 -1295 -2584 0
-2197 -1283 -3465 0
-4033 4261 4697 0
-2896 -4113 -3067 0
2948 -656 2864 0
4457 -2488 99 0
2289 3474 -4455 0
-2572 105 3424 0
4418 4132 -1018 0
-3215 -290 943 0
-3465 -1952 -2999 0
-3005 -3172 3313 0
-4392 -4005 3425 0
-2554 -2264 1347 0
-4039 -1540 -2695 0
-669 -3751 2921 0
-3501 1839 8 0
163 3303 -4837 0
3041 4948 1689 0
2622 2860 -2249 0
2491 -473 2160 0
1352 3997 4988 0
-450 2229 -1971 0
3897 3635 -3877 0
3828 -3492 2359 0
2044 3530 1743 0
-3246 -4181 1237 0
2565 31 -2054 0
3441 210 3483 0
4943 4449 4838 0
-4820 -3704 188 0
-2820 -2360 -2261 0
-4057 2382 -2834 0
4330 4003 989 0
-3703 2760 654 0
-2232 386 4391 0
4853 -3870 -854 0
4661 -4167 -248 0
-1261 1709 538 0
2258 912 -3980 0
3546 -2562 3555 0
-2625 1404 -3086 0
2777 -831 1891 0
-3894 1100 -713 0
3450 4602 1011 0
233 -861 -427 0
1439 -2736 -3749 0
2213 -50 -2312 0
1440 676 4436 0
1464 3468 3458 0
-2078 176 -3330 0
2549 -842 3639 0
1463 3770 -2335 0
-4710 4545 -1990 0
-4485 -3224 1725 0
-1894 4065 4342 0
-4681 4211 2679 0
-1993 -3395 1370 0
4487 -4500 660 0
-125 311 -3758 0
-2734 -1015 -3681 0
3135 2800 -1820 0
-3633 3096 4619 0
1068 2018 -827 0
2540 2080 2337 0
3761 -4084 2049 0
4105 2836 -2094 0
-870 765 2631 0
1632 -4051 -856 0
-2703 -2381 2168 0
3548 -1480 -869 0
-522 4605 1282 0
3782 2860 1599 0
-3036 3666 -680 0
-3869 4825 -2360 0
4422 6 2929 0
-2962 1527 3556 0
3232 3033 237 0
770 -2215 -4975 0
-4717 -2778 -3540 0
-3356 596 813 0
4548 -1044 2352 0
647 -4930 -2613 0
1991 -2517 -3222 0
3739 -281 2766 0
-1987 3895 1111 0
1350 3827 4379 0
3155 3388 -2356 0
2578 2434 -667 0
-2551 -689 -1491 0
822 -4830 -1085 0
2733 2840 -773 0
-4094 -1588 -2744 0
-2275 -3902 -368 0
285 2433 3219 0
-3315 -1768 -4434 0
854 -3733 2355 0
127 741 -1411 0
-190 1600 4135 0
488 2760 -955 0
-3498 3573 1042 0
2139 2832 1785 0
-2080 3290 -3065 0
-4668 2885 -727 0
-882 3941 -3184 0
-4851 -3739 -3851 0
3885 -882 3747 0
-1908 -3608 1435 0
-4895 4364 -232 0
-641 2974 3690 0
-780 -397 -1925 0
-2971 -2423 -2823 0
1725 -150 1261 0
-2232 2035 110 0
4843 3605 -868 0
-4663 -598 4608 0
4480 -62 -1496 0
1451 4470 -689 0
-1079 4369 -4285 0
12 4361 -4599 0
-1757 4453 461 0
3696 4905 -611 0
940 -301 -3792 0
-757 -1677 -3549 0
815 1996 64 0
-1775 -1650 2645 0
-3823 -196 -645 0
2908 -3692 3020 0
4703 4893 -4762 0
16 2845 -2032 0
-2732 -2899 -3153 0
-2185 3965 1504 0
2392 3695 -3990 0
4320 -500 -929 0
2650 3240 -1260 0
-457 -864 3041 0
-1186 -180 67 0
-4063 -4116 1095 0
-3844 4020 1465 0
-916 -3646 2855 0
-4277 3172 -2883 0
751 -99 311 0
-138 2335 2233 0
-3295 -3958 995 0
-1148 1475 2953 0
-1817 -2794 865 0
1677 4733 -4924 0
3902 1730 -2020 0
-4700 -4317 -437 0
-2301 -1419 -4388 0
-3773 2805 1482 0
-4670 4125 2667 0
-4418 -2538 -3194 0
1345 -1984 158 0
4892 -3018 3874 0
-464 -4154 -81 0
1935 -4136 -842 0
-4109 -3812 2159 0
-1823 798 -1078 0
-4656 -2990 -4222 0
-2833 -198 1181 0
1275 1327 -3861 0
223 -4652 -1709 0
2667 -37 -73 0
-1349 4667 -2845 0
-4109 -3311 -2601 0
-3136 2401 -2755 0
-4688 -1566 -255 0
-136 2124 4828 0
-1629 -1412 1352 0
3116 -1462 -1589 0
-2318 -1911 1397 0
-807 -695 2903 0
-1439 -1472 3990 0
947 -4254 1015 0
4191 -4798 -1010 0
-3941 2073 1029 0
4638 -4272 -4919 0
1666 -3541 1515 0
3033 -4965 -2242 0
-4819 -1511 2074 0
1455 1800 2924 0
2539 -4533 3314 0
-1875 1622 4995 0
642 2946 4811 0
-3259 -412 -4340 0
2319 994 -1743 0
4086 4492 -2275 0
-1634 -427 4675 0
-929 -1164 -4677 0
-1240 -746 -3377 0
-3005 2182 -1125 0
3967 -3963 -4179 0
815 -3089 2336 0
4375 -3692 3859 0
4580 -1521 -562 0
4838 3490 3424 0
4926 4952 4129 0
1503 3639 -3829 0
-720 -513 2589 0
-845 -3700 -3329 0
-3857 1625 2728 0
732 1019 4985 0
4781 -4813 2454 0
-1905 -4672 -333 0
-1808 2108 1965 0
1619 -3684 -4390 0
1768 2391 1377 0
329 1695 -2202 0
-4027 281 -3380 0
-4285 3035 2824 0
759 958 -2098 0
3732 3047 -1018 0
-4927 4747 -2999 0
-3100 3587 -2809 0
-4316 -1329 3010 0
543 4795 4348 0
1437 -4576 -1777 0
-1932 4664 -3143 0
-3145 4193 -465 0
-4121 -2921 3729 0
4273 4031 -4360 0
-2213 139 -3297 0
-808 4579 -4478 0
182 3154 162 0
-4975 2335 4455 0
-3734 -4419 3845 0
499 113 -4907 0
-408 2626 -1230 0
4358 -714 3259 0
-3465 -2946 4694 0
3664 -1038 -4430 0
-2142 -4000 3245 0
-2025 -740 494 0
991 -2269 1852 0
-3987 189 -178 0
1188 -43 768 0
1956 -3864 3037 0
1471 -1835 -186 0
-4143 4372 4933 0
-1543 3168 -4411 0
-2844 2446 -4349 0
1039 -4986 -1310 0
-4051 -1555 -3012 0
-4936 25 -3885 0
191 -4879 -2045 0
2919 1551 -1705 0
-3525 981 3604 0
4417 -4454 2826 0
-2435 1657 -2671 0
-1335 -616 3793 0
3641 -4385 3817 0
3826 2184 -4951 0
-179 1725 966 0
-1638 1253 2058 0
1135 -2989 395 0
4740 2985 -1395 0
2942 -4751 -2230 0
-85 835 915 0
-4696 1993 -774 0
-2182 1370 3283 0
2512 4120 3076 0
-2668 1278 -623 0
3548 3094 2169 0
-4399 3033 -3957 0
-4535 2770 -914 0
-2424 2590 -4636 0
-3964 -4999 -2261 0
-1971 2027 -4569 0
-613 429 2685 0
4722 1001 3459 0
343 349 1225 0
4305 3199 2885 0
1482 -205 2860 0
113 4441 -3724 0
2148 -4765 -761 0
4225 4708 4800 0
-4882 1002 -703 0
2200 -1996 1609 0
-3353 1556 522 0
2574 -2092 1951 0
4990 177 -695 0
-4934 1541 4782 0
-1470 3352 430 0
139 -1863 1080 0
4637 -2705 919 0
2039 -3592 -376 0
710 2272 3554 0
-953 3382 3095 0
2825 4699 3580 0
-1233 4641 -3956 0
1158 1354 2736 0
-2243 -4323 -1655 0
-4231 477 899 0
327 -1729 -924 0
-110 -4743 1886 0
-4944 -3125 -3873 0
-3236 700 4335 0
3886 3828 -1257 0
3162 2357 2837 0
3517 -949 -3349 0
-955 3702 -3499 0
-4046 -394 -702 0
-1066 -1546 668 0
1304 -1891 -4410 0
1570 2868 3049 0
3364 2412 -297 0
-2721 -3350 4251 0
2033 -364 1618 0
4560 -3493 1320 0
436 483 3928 0
-4170 -2919 -4468 0
1838 -4870 -4835 0
2901 -2845 3807 0
-1145 -4313 -4943 0
357 3107 3681 0
1017 -1748 860 0
-3866 4025 -328 0
1666 3453 -3944 0
4827 2854 794 0
1860 -4838 3468 0
1722 -4623 -3501 0
3878 690 -1489 0
-2707 -2495 2331 0
-376 -971 2521 0
-4805 -2764 -517 0
-2411 2847 -3921 0
-4270 1615 -575 0
1971 -459 1494 0
123 671 -3566 0
-4481 -3131 3950 0
-4533 2568 -979 0
-3219 3576 4110 0
341 2459 -569 0
4408 2005 -2588 0
1116 3786 -4497 0
-4388 -2335 -1464 0
487 -3403 -4543 0
-1449 2808 4544 0
-1778 1220 2486 0
2145 -2823 4913 0
-903 -2920 621 0
-3747 2990 879 0
-3747 2473 -1576 0
4427 77 2453 0
-141 -258 -265 0
-340 2407 -219 0
2371 4527 -436 0
-1532 4293 2031 0
-2636 2016 -1190 0
-2010 -4162 -892 0
4667 -4563 -1378 0
3143 1096 3368 0
2994 2644 2101 0
3702 2570 3071 0
-1844 -325 -2507 0
-2547 -4997 2019 0
4744 3704 711 0
-1474 4116 811 0
2298 643 3883 0
-1177 -459 -663 0
-1289 2974 2506 0
-316 -949 -1183 0
3327 4809 4522 0
-4342 -1886 -1523 0
-3339 -2855 -3528 0
-398 1887 -3667 0
-36 -1016 2312 0
-1185 533 -1900 0
-3799 1543 -2219 0
2459 -4365 1657 0
-4328 2647 3002 0
4447 -2292 -3562 0
4230 4574 -4341 0
-1603 -165 -1626 0
4169 -4315 -1352 0
-2695 -3299 -2007 0
-4439 -2909 -2924 0
-1915 -1894 -858 0
-2198 4279 -1559 0
3157 1252 -4498 0
2253 3887 4164 0
-2492 3556 -2130 0
4305 3980 3083 0
-603 4309 -3601 0
2587 2316 1820 0
4722 859 -175 0
2241 -1458 -671 0
-2776 4704 -3411 0
-2425 297 4783 0
2836 3208 -1109 0
-4263 290 896 0
-4293 4611 -4942 0
3300 -3005 2462 0
3581 4880 2435 0
-1715 1061 -507 0
-3165 -3418 4000 0
940 418 -959 0
-3714 -3905 4077 0
-4702 3378 -630 0
3128 2260 -3590 0
-2101 1374 1417 0
909 -3119 524 0
1022 -1390 4617 0
-777 4971 1641 0
2795 -1484 -4035 0
3281 1174 -556 0
18 2746 4945 0
-199 1435 -2104 0
-3536 850 3204 0
4504 -920 4086 0
1993 -1598 -4327 0
3956 -144 -3959 0
-1332 -1424 -43 0
-2676 -3827 -2739 0
4597 -1198 -1341 0
1161 831 5000 0
3149 3899 1964 0
-3106 3727 1162 0
-4016 -1617 -3494 0
-150 1633 -2134 0
3375 689 3229 0
2193 1677 -2516 0
2976 2166 3574 0
-1820 3909 -4472 0
-2021 512 4139 0
3906 -3687 3219 0
2818 507 740 0
123 965 -2410 0
1433 1501 -907 0
521 -4471 157 0
-4552 -2706 -2137 0
-1981 3403 -1792 0
4076 -3940 -2687 0
-1828 2361 -3604 0
2149 -2850 2239 0
-2292 2497 4000 0
3905 2679 -2867 0
2203 2135 3224 0
-689 1356 817 0
2324 2157 2714 0
-4916 -2617 42 0
-3669 3028 797 0
-58 -2133 -894 0
4618 331 638 0
1873 -3875 2002 0
-2740 -4218 4097 0
4720 -1720 -1602 0
109 -331 2641 0
285 3970 -28 0
4354 -2378 -4777 0
-1075 1434 3367 0
2188 -4501 1620 0
-2087 1679 1946 0
3504 2373 1996 0
-3756 1465 -4136 0
1202 -3042 55 0
870 -1787 -2280 0
2781 1990 -4075 0
1954 -4772 -122 0
4210 -921 3412 0
-680 -894 -415 0
2797 4667 -4071 0
4542 3973 -4615 0
-2943 3650 3814 0
-1247 -2382 704 0
3471 -4754 -2583 0
4197 -3559 -4240 0
2721 3158 -3576 0
-682 -1356 2738 0
2796 -671 -2270 0
1633 1590 2118 0
4480 2356 1470 0
-4522 1429 -1065 0
-4852 1618 -823 0
-2788 -4698 -3592 0
-1102 2491 -3021 0
-3969 -4534 1848 0
-1072 -2884 -777 0
4749 2259 -4351 0
133 -139 2660 0
4265 -4396 -3506 0
-4948 -1829 -4189 0
-3019 -831 -3598 0
1466 4854 1057 0
-4249 -828 722 0
1297 -1808 341 0
-518 -4850 -2017 0
1810 500 3659 0
161 -4415 3029 0
615 -1395 -1786 0
-4274 -1499 1815 0
-4727 -4294 -4828 0
1746 -3951 -2725 0
-1523 710 1211 0
-3484 3735 -2980 0
-4185 475 -4685 0
3343 -56 -4261 0
-4302 1053 2052 0
1562 -2739 3891 0
-3572 2377 -233 0
4 -925 1240 0
-358 -4262 1419 0
314 -1358 451 0
-2071 2977 -2992 0
-1372 2166 -4861 0
-1163 3069 3915 0
-363 4792 -778 0
-2329 -995 4293 0
1829 -111 1651 0
-4217 -1398 4785 0
1269 4792 -2117 0
2974 959 -4148 0
-4486 -4627 1492 0
1481 786 3414 0
-4141 1174 -3204 0
2503 280 -3374 0
-2581 -2137 -449 0
-4426 -335 1002 0
-1649 3170 1772 0
-1482 3935 3745 0
21 -85 2284 0
3921 -4149 3067 0
2207 3417 1406 0
1354 -2700 -4942 0
3960 -3391 3600 0
-4855 -276 -2409 0
1508 -596 4799 0
2429 -941 3648 0
2366 -4243 -556 0
4737 -2064 2220 0
4390 -4117 2379 0
-3007 -3960 -355 0
-4324 -4414 -1483 0
2527 4815 3573 0
-1390 4795 3199 0
1974 1196 -3008 0
1727 -4941 -2918 0
4814 825 4985 0
983 -1692 -482 0
1185 -4629 -1851 0
-4542 2604 733 0
263 3257 4072 0
-4569 1469 3227 0
3645 -887 -4496 0
2534 2269 534 0
4098 -2849 1485 0
22 -2623 -2391 0
-4039 299 2571 0
4176 3720 2591 0
-2809 -3911 -4575 0
3184 -1118 -2066 0
-2777 -1478 4917 0
-3894 3919 3901 0
-3248 -4864 2322 0
-3504 -1613 256 0
-1050 2081 -2096 0
4301 4628 -564 0
-2665 -4058 -3549 0
4613 3609 -3360 0
1624 1803 1225 0
2251 -1614 2401 0
-3986 -2056 -2688 0
3431 2819 -4956 0
1268 128 -2093 0
-3201 2702 -4949 0
-923 -755 1759 0
391 4058 4171 0
-461 -1711 1030 0
-3769 4946 3261 0
4505 3570 -3732 0
2580 -4449 -2880 0
-2704 -604 1433 0
-3699 2406 4503 0
-2465 3837 1052 0
-2457 -4833 4229 0
-3047 -456 2010 0
-3131 -1212 -2097 0
-4051 4947 1885 0
3403 4187 4363 0
-611 -2933 -4176 0
554 15 -1683 0
524 -4721 1567 0
2946 -1511 2852 0
-59 4058 4977 0
-3863 -1210 -2408 0
385 -1550 -2470 0
2847 4928 1300 0
-1189 -125 448 0
223 1102 4583 0
-738 -3735 -1753 0
4136 2730 -2115 0
3347 873 4276 0
3992 -3696 -1571 0
-471 -997 -2808 0
-2141 3478 1973 0
-2309 3196 -1855 0
-3364 1204 -239 0
4470 -1937 1664 0
-3463 1771 -4251 0
4642 -1307 -1426 0
2745 474 4563 0
-3114 -1669 4884 0
-1149 622 4631 0
2156 -4650 -1155 0
-1857 3410 3992 0
333 -1888 -3409 0
3269 3250 -3689 0
1008 3947 4821 0
-2910 51 2116 0
-3809 -4527 3822 0
3255 -3785 -3996 0
-4727 2752 -487 0
2719 2612 -2487 0
-4053 -4213 4527 0
3083 -4032 2653 0
2024 304 2081 0
37 3690 -1513 0
-4526 3362 1546 0
-3235 -2955 4795 0
-690 -4874 176 0
1149 4573 4264 0
-4259 1026 -2504 0
-4629 3637 4467 0
840 3664 -2631 0
606 2539 3414 0
489 3226 -4180 0
-4088 -3125 1939 0
-2458 -1396 3037 0
4942 -2207 1016 0
-245 3980 1939 0
-3427 3609 -2005 0
-3174 2589 876 0
1552 -4094 1568 0
-1662 -3682 -1978 0
-2754 -2213 4551 0
-2503 184 -2051 0
4654 -1497 -854 0
-3821 -3798 2308 0
-3502 2437 2645 0
-3893 2830 -4800 0
-3597 4430 1886 0
-293 -2075 -4554 0
-3722 -3056 2300 0
-818 63 -1055 0
-385 -2673 -3562 0
-2555 655 -4562 0
-4699 2738 -4251 0
1742 -2989 -4971 0
-2612 2898 -4099 0
1633 -3637 625 0
-4424 -2736 -2554 0
-3812 -1323 -2382 0
-2384 -378 4032 0
2408 3492 -3721 0
649 -2042 -614 0
-474 -2404 -1583 0
11 2917 2968 0
-1724 4045 -4283 0
-2421 4951 1860 0
1963 382 -1679 0
-4202 -802 -1269 0
1778 1707 1816 0
-4791 346 -366 0
76 -4260 -4092 0
2673 -3608 -3197 0
1985 -4403 1430 0
1651 -295 4983 0
495 3830 -2075 0
-4543 519 -2626 0
854 17 3489 0
-4244 3735 -760 0
1894 1464 1955 0
-3305 -1907 -4282 0
1606 3982 53 0
-2074 1659 157 0
-4993 -3338 3385 0
-863 3333 1914 0
-3879 -2815 -2694 0
1469 -3382 -1368 0
3415 855 -4387 0
672 2607 1074 0
-4621 2656 4823 0
-276 3928 2402 0
-2365 73 1052 0
3315 2162 -4503 0
-2938 -3026 2085 0
-1930 2670 1170 0
2791 -2857 1790 0
-3066 1695 2339 0
-2605 4268 -3143 0
-3603 -2662 4534 0
1266 754 -3381 0
-4759 1313 -2940 0
71 98 -3091 0
-3479 -2227 2817 0
4536 3527 -1804 0
-171 2050 3923 0
782 2453 4075 0
-3252 456 -4474 0
-3694 -3502 -1488 0
518 36 -666 0
4610 2595 -3621 0
2741 169 -3427 0
-1565 2238 1563 0
-1543 2309 4462 0
4869 1131 1715 0
-1469 1374 425 0
-3349 3054 -2194 0
2424 -2296 1228 0
-1021 -4869 -1102 0
1002 -948 -4955 0
-1174 -1897 921 0
966 3611 4072 0
-2711 -3822 -4966 0
-3895 15 1545 0
3536 -3503 -760 0
223 2855 2136 0
1839 -3753 2596 0
1880 306 -2570 0
-4704 3345 -689 0
-1632 -1090 4862 0
-2934 -3903 -2746 0
-690 4267 -1378 0
-311 -688 -3986 0
3900 2363 3782 0
-3604 -3981 3894 0
-4061 -1736 -2532 0
-336 -142 -2442 0
2047 3224 -1055 0
1885 -2792 924 0
185 -1321 1055 0
1413 -2924 -660 0
-2882 -3518 338 0
3072 -630 1778 0
-501 710 -4629 0
-841 -2341 -200 0
4432 2320 -1645 0
1528 -804 -4108 0
-1731 2480 -4874 0
-1895 -4936 -262 0
4260 1360 -3006 0
4761 -3941 494 0
-4797 -714 4519 0
400 2396 -2895 0
-4549 -2776 592 0
3593 -2895 1601 0
-1015 228 -1655 0
719 3775 3215 0
1710 -2248 4037 0
-3337 -3423 -1452 0
-1514 -10 3115 0
-40 3839 -4044 0
845 -859 4322 0
-2321 3616 -2277 0
4602 1723 3598 0
-271 -2157 2873 0
1807 -3924 1970 0
4334 -4031 -3941 0
344 1205 -1076 0
-3668 2501 -159 0
-2861 -3063 -3039 0
3871 1064 2471 0
-1353 -3545 -3085 0
3187 -358 4241 0
3679 -2912 -914 0
-769 -1013 1890 0
-1502 4648 -573 0
-2077 -3744 -1128 0
2628 885 568 0
-3027 -2204 345 0
4464 -1033 -3842 0
3039 -665 4550 0
1194 -1460 -447 0
-4828 31 -1864 0
-2945 -3226 2052 0
-2894 -896 -923 0
-1014 3434 -3744 0
-3654 -1016 -2613 0
3128 3211 3409 0
4456 -3240 2587 0
-2234 -105 -4098 0
-2446 2583 -4772 0
2294 1861 3174 0
-2290 1234 -3794 0
3255 4986 2811 0
4909 -719 2668 0
2555 4919 -2746 0
3590 -1794 -3960 0
-1487 -4968 4725 0
-3968 -245 -1369 0
-3136 -3380 4215 0
-2094 -2983 -4258 0
4460 -4538 -2241 0
4569 350 -4613 0
4317 -2199 -2766 0
2084 2954 -859 0
-1619 2233 -2544 0
2341 3634 563 0
-451 -1877 -3808 0
966 -1814 -203 0
-3454 2280 4524 0
-2514 -2360 1547 0
440 4986 -2928 0
3917 -4389 -4733 0
-657 2081 -163 0
4601 3650 -95 0
-1484 -3530 -1269 0
-2130 -2110 -3835 0
-2430 -1416 -2137 0
-2553 3807 -1228 0
3574 -3100 1451 0
-1276 -2801 1686 0
-4587 -676 -1690 0
-3316 -2252 3646 0
3167 2523 -3929 0
-3456 940 3591 0
-4840 -4520 298 0
-2766 380 -4465 0
-1959 -3565 3957 0
-2218 -4124 -3484 0
-2047 -2219 -2327 0
2783 -1672 -903 0
-3426 3440 3613 0
2186 1662 4712 0
-3953 3891 3949 0
-3029 -299 3341 0
4553 2264 1812 0
4483 -2003 -4438 0
3644 1280 -1762 0
4579 -2655 130 0
134 2346 -939 0
3010 -1653 1216 0
-2896 -4205 1416 0
-912 -3294 383 0
-1088 -2782 -4572 0
1558 4077 1670 0
150 -2441 609 0
4456 -4930 -3728 0
3960 1254 2184 0
-277 4368 2113 0
-4375 1406 -833 0
-2090 2790 1293 0
4097 -679 4023 0
26 3751 -4110 0
3678 -4687 -3734 0
-1057 377 4895 0
3523 2144 48 0
-791 -4876 4971 0
-4892 -2475 -2999 0
2798 -615 -3058 0
-2033 -470 -2547 0
-4906 4292 -3332 0
-2192 -2740 1767 0
3743 -4117 -4101 0
4422 -1388 -2679 0
2263 -3517 2081 0
4268 609 540 0
1590 -4100 -274 0
2293 3904 3690 0
-1717 -4109 406 0
-2553 -1172 78 0
358 -296 -365 0
3565 2405 -2624 0
404 -779 -1249 0
592 4049 2974 0
-770 -3645 969 0
-847 -3575 -4170 0
3279 -3810 482 0
2691 773 -37 0
2068 -722 -4595 0
-1490 4643 -114 0
-4462 1817 -682 0
-2783 2719 3843 0
398 973 -2016 0
-27 -1154 -4387 0
-4071 39 -69 0
-151 -886 884 0
-770 2016 -3014 0
3439 -2997 872 0
3156 3776 1571 0
3570 3852 -3070 0
-2042 -4692 -340 0
2373 -1216 -3739 0
-4267 -471 1344 0
2725 -176 1076 0
-242 -1243 1572 0
-3504 3623 3289 0
-584 -4633 1806 0
-1496 -4264 -3934 0
2284 1 -4528 0
-2317 -2364 4933 0
-1556 2745 -2480 0
-2561 1027 -1970 0
-4487 4512 637 0
-505 -2801 947 0
4135 1767 549 0
1020 -1208 281 0
1971 4137 3475 0
-858 2365 40 0
-4429 2154 3226 0
4441 -3517 4830 0
-3860 81 3998 0
2345 4883 -3521 0
3934 4464 -2490 0
-1324 169 -501 0
2847 -707 -1290 0
-593 3123 4113 0
-930 669 4590 0
-3055 2209 -3873 0
-8 -2821 -237 0
3347 3711 3913 0
3336 3337 4767 0
-2180 -1057 -2115 0
2614 3878 4394 0
-4987 -3376 -462 0
-1126 -4767 -1904 0
-86 42 4112 0
-2818 4232 2867 0
-1131 -3088 4014 0
-4477 1739 -154 0
-1764 -3295 -4654 0
-2452 1179 1029 0
-576 3820 -1287 0
2075 3669 2156 0
-1831 -4475 2755 0
-4078 -168 1698 0
3438 2888 1580 0
2802 2145 3336 0
-1633 -175 -588 0
-1444 -3246 1493 0
106 -3238 4800 0
-3318 -915 2427 0
2399 -1541 -2126 0
1189 -2531 449 0
-1040 453 3219 0
37 41 2388 0
-2936 -3465 4896 0
-4989 -4179 158 0
-1163 -4681 -384 0
-1096 1731 2154 0
4107 3801 -2702 0
1908 275 -368 0
3629 2350 1264 0
-4435 -3580 -660 0
-308 2119 4093 0
1961 805 -1825 0
3872 294 -2081 0
-718 2928 2191 0
-794 -1787 3164 0
-1865 3367 2334 0
-4023 -92 4328 0
4272 3231 -408 0
1868 4601 -4710 0
-1441 -4545 -910 0
399 -3 992 0
-3981 -802 -1624 0
-2085 1161 -1532 0
2973 104 1797 0
-3868 -1551 1596 0
-1459 1142 584 0
-3716 344 -4022 0
2400 1750 -4350 0
3651 -2721 1217 0
1386 1568 259 0
4353 -803 1705 0
3973 1660 -3685 0
-936 4762 -3240 0
-1096 -4805 720 0
-3755 -3448 -2730 0
4279 -4161 -2030 0
1504 -2769 -695 0
1929 -2560 -2993 0
4716 -4580 -4668 0
-3708 770 -3677 0
4640 -3877 1664 0
-2786 -3666 2098 0
1835 -4126 1455 0
-4380 -4234 -227 0
1254 -2513 4412 0
-4909 2665 -3370 0
1419 1636 15 0
1898 -2532 -229 0
-3352 1143 2074 0
-266 -4246 -4548 0
4536 -218 -1656 0
-2331 -1361 4049 0
-1793 382 -2242 0
4605 3398 2205 0
-1802 3240 -1312 0
-1447 -4367 -3495 0
-930 4123 -145 0
-3419 -2085 3921 0
3552 1910 3663 0
-232 3988 4904 0
-4329 -648 -2051 0
-1682 4870 572 0
-3470 -4773 1219 0
-4237 4434 2228 0
-3547 -2926 1679 0
4351 -3525 -1274 0
3817 1227 2360 0
-1519 3927 873 0
1173 -825 -3066 0
-2320 619 961 0
-4994 -1013 2145 0
-1801 -1481 -2507 0
708 1460 -1536 0
-2618 -4205 -2547 0
2607 -3276 -409 0
-1858 4879 3056 0
-4272 -2232 -2219 0
-3004 -3365 -2668 0
-2812 -4943 -3291 0
2123 -2304 2295 0
-4053 -3487 4307 0
-4231 -1663 -2556 0
-4697 -2159 780 0
-622 4199 4544 0
694 -2794 -4039 0
-1791 3871 1323 0
3329 -3691 -4399 0
-1848 2953 1586 0
1782 2936 -4037 0
-210 -2008 -3053 0
2274 3642 4631 0
-370 1670 4468 0
-4083 -1198 -4938 0
2215 2831 -2731 0
1088 4888 1255 0
-3938 -405 1575 0
-3606 644 -1586 0
1147 2604 -827 0
3867 1902 -625 0
-2596 -3112 4074 0
1792 3947 4465 0
-3581 1597 -1929 0
-2090 -1317 -2590 0
-1733 3910 1474 0
650 1895 3103 0
-2656 741 4734 0
-4852 -1987 4408 0
-3445 3693 990 0
2109 1429 3324 0
52 3778 1093 0
3101 -1708 350 0
1096 2673 -2520 0
2622 1808 4160 0
3452 4139 -1543 0
4262 4139 4186 0
3532 -1373 -324 0
-671 1892 3084 0
3940 3987 1285 0
-3327 -1759 -1598 0
-1718 -2769 4177 0
-3123 298 4097 0
1735 3339 1336 0
2040 -1381 4097 0
-2335 443 -1867 0
2586 -2240 3897 0
2264 -643 -4956 0
-4451 -1749 4955 0
1288 -1533 -2276 0
-2164 -4865 -4755 0
1242 393 -1370 0
-2543 3343 4551 0
-2778 -851 3379 0
4057 -2536 -4678 0
-1979 274 -2272 0
3514 3301 -2332 0
1583 -497 -3523 0
519 187 -1595 0
-1940 -4170 557 0
-2722 -4921 162 0
-1356 797 2394 0
2898 -3212 -409 0
-4943 -1747 4804 0
-1949 2489 2727 0
-2114 3816 -569 0
-4193 -275 -752 0
-827 2181 1090 0
-1389 -3603 -3406 0
3448 546 3464 0
3811 79 479 0
-1603 1108 -4448 0
-314 4450 -2952 0
1181 -1279 548 0
4877 -1783 -3874 0
-2865 583 -947 0
3260 -785 2426 0
3707 460 -329 0
578 -4038 4253 0
1267 4257 -2203 0
-4496 1482 -135 0
4877 -300 -2941 0
-1722 -2866 3951 0
4922 183 -942 0
3815 -2468 1299 0
1372 2900 -2743 0
-4448 4976 467 0
302 -4762 -2434 0
-4934 3790 2063 0
-3264 -1223 -3007 0
-1467 4914 -1688 0
-4996 -3904 -3698 0
1037 3876 2404 0
1617 -2186 -744 0
-762 -3908 -3107 0
-4316 -185 -2960 0
-3029 4316 -502 0
-134 4145 4756 0
-246 -2874 962 0
-1814 -1013 763 0
441 2281 -969 0
-3892 2859 -3449 0
218 -3598 -2378 0
738 1238 -1476 0
-2450 -3523 4330 0
-4434 4999 -245 0
-661 2673 -2316 0
2209 92 3185 0
-3996 -1272 4314 0
411 3258 3898 0
2575 -3940 2333 0
-336 3243 704 0
-2748 -1699 1588 0
3309 2185 1117 0
4265 4958 -3670 0
-2664 2271 2877 0
-2297 -1368 3426 0
-4615 4623 -2590 0
-1630 2638 3549 0
-781 -762 -2752 0
1846 3105 -186 0
4957 98 -4906 0
-2130 1654 2692 0
-316 -1185 463 0
2242 850 2673 0
-4641 498 106 0
-3100 1206 1365 0
2384 3892 1273 0
3549 4142 -4274 0
1361 3822 -4661 0
-3272 -3403 4529 0
3480 -199 988 0
2184 2773 3347 0
3832 2325 -3028 0
-2829 2066 -2984 0
879 3292 -1056 0
3565 3974 4244 0
1044 -1161 2210 0
-3248 3604 1020 0
-4838 490 -2759 0
-2235 -2492 -4161 0
-3438 1757 1319 0
-3836 -4182 -3692 0
2149 2241 -4535 0
295 -4142 -3689 0
-3633 -2288 -3781 0
4793 2193 1276 0
1865 -3908 4504 0
3750 -3446 3430 0
-58 -2086 1866 0
-3155 3831 3506 0
1695 1935 2617 0
479 -982 4073 0
1638 2708 -1149 0
702 1653 -3435 0
-4283 1869 1050 0
43 516 -3579 0
-2521 -3365 3094 0
3267 2273 3976 0
-4216 -220 -51 0
519 -4064 -4716 0
2375 4828 4427 0
-896 1343 3749 0
2519 -226 2656 0
408 -30 -2388 0
1382 -3326 -360 0
-1687 -4576 1084 0
2733 803 4109 0
3037 2311 -3579 0
385 -345 -2323 0
4396 4420 55 0
2364 454 4715 0
-4224 2278 255 0
1412 2937 -3417 0
-2267 432 3501 0
-3963 -3426 -1933 0
1364 3748 -1262 0
-1853 -1999 -2757 0
-2462 3233 -3067 0
4969 -3727 -97 0
4622 1977 -196 0
-1409 778 -3561 0
-605 -351 3217 0
61 -3608 4734 0
845 1306 -2687 0
-2456 -2297 -635 0
2969 -2763 4297 0
2145 -1243 4034 0
283 3089 -273 0
2305 -1402 348 0
3303 -2625 -2778 0
2756 1233 1471 0
-2280 -4862 3676 0
592 -3451 -483 0
487 -3251 -884 0
967 -4355 2053 0
-4550 -1674 -2714 0
-1386 4175 3587 0
-2735 -564 3737 0
4796 -659 -3205 0
3347 809 1138 0
-507 1943 3620 0
1906 -1677 4106 0
3213 1619 -4918 0
998 -3602 -884 0
-1938 -150 -2200 0
-2573 -1482 -3659 0
2137 -1406 -2940 0
-1384 801 447 0
-1644 -2965 2781 0
-155 -3715 -4929 0
2026 -3419 4622 0
-822 -4896 2367 0
-2342 2513 3413 0
-1552 76 -2920 0
4020 -3365 2657 0
3325 -2419 -506 0
4763 3347 -3561 0
-3481 -3342 56 0
-1066 2338 -3451 0
15 2847 -927 0
-3451 2556 -2237 0
-3592 -55 -4638 0
4524 -3416 4077 0
-1410 -1666 -4014 0
3060 1536 3873 0
-4847 -3925 1977 0
-3951 -626 1426 0
4379 1006 4728 0
-2258 189 292 0
2126 -2424 -4830 0
4677 -2172 -3372 0
-1198 1911 -438 0
-4690 2342 -3406 0
729 -3669 1514 0
-1046 1986 -4260 0
2402 4450 -2020 0
-1851 796 602 0
-2096 3981 -4695 0
701 -791 -501 0
-2432 4475 3805 0
-1144 3530 -2017 0
1250 -1556 -2635 0
665 4361 -2515 0
-1051 -3437 -4070 0
3417 -4089 1086 0
-1970 2967 -3129 0
-750 -404 -4972 0
2773 -4146 3492 0
-197 3044 -802 0
-1877 -4983 -1196 0
-3319 3450 -1101 0
171 3774 -736 0
-2621 1925 2431 0
3645 568 4072 0
-4312 554 -3541 0
4214 4495 -2228 0
-3442 -2054 2896 0
-3605 1744 -21 0
-2955 -1711 1729 0
-4846 4813 -4816 0
-4875 -868 610 0
-4741 4168 3417 0
1136 -4476 689 0
5000 1042 3356 0
-259 4504 -1993 0
1035 1359 1466 0
-1369 -3453 4571 0
3863 4831 4019 0
-1116 2037 -3613 0
-2034 4392 4996 0
1218 -867 -2303 0
1493 -669 -992 0
-2742 138 177 0
4631 4683 -4562 0
517 -812 1916 0
-4142 3611 2593 0
2257 -1160 -4675 0
3629 2694 -1359 0
1514 -1991 3864 0
2567 -2752 4018 0
-3678 -3648 1753 0
4810 -4519 -3245 0
-428 3058 -3813 0
1783 -4944 3112 0
4870 4739 1872 0
3528 4293 2141 0
4632 -3462 4613 0
-4990 2585 -1964 0
-2923 -2799 -2613 0
-1191 4463 -3924 0
3072 4978 2159 0
2785 -695 -3979 0
4832 363 2467 0
-3116 -2905 -1089 0
-3213 4487 -500 0
2462 1420 -2025 0
4330 -3475 -3377 0
1721 1347 -2464 0
-4645 2421 2389 0
1969 3879 4467 0
3488 3346 -4004 0
918 1857 -2505 0
-1354 661 -4985 0
1446 3385 -3571 0
-1537 3093 3459 0
-3857 -206 1674 0
119 -1483 -3456 0
2841 509 4669 0
4409 -3504 -4931 0
-2594 938 1726 0
-3904 -2806 -3333 0
476 -3951 3970 0
918 -3114 -2572 0
4746 -199 -239 0
1595 3779 -1905 0
364 -2111 4777 0
-2483 -3538 1544 0
1348 4475 -4997 0
1238 563 241 0
1664 2316 -3612 0
-1558 -230 -515 0
4768 4942 68 0
2553 4119 2726 0
1790 -381 2305 0
312 4082 4103 0
684 632 1217 0
1419 -2678 -3082 0
552 -3028 -3335 0
-4444 -2031 -2876 0
4102 -4249 -4453 0
3929 -2523 452 0
4717 -627 -3440 0
693 970 -3478 0
-4629 3652 -1568 0
-2646 -4804 3990 0
3746 -2053 -2794 0
-4136 -4997 -3106 0
-1066 216 1117 0
4329 3616 4901 0
2606 3390 4094 0
-4667 3646 2109 0
1793 1055 -497 0
-1358 2913 1374 0
-2839 -2153 -62 0
-2329 2853 -2903 0
-4846 2842 1795 0
-622 2739 -2720 0
-4664 1023 1388 0
2643 -3658 -274 0
-1067 998 -1353 0
-2526 3477 3379 0
-197 1304 1877 0
3198 2250 4163 0
194 -2800 4295 0
-1265 -3255 4444 0
-4328 2800 -59 0
3998 643 -3239 0
94 1892 2146 0
-2734 4334 4302 0
-342 -2471 -2719 0
-1979 -3747 -2531 0
3083 4813 3034 0
-2657 974 1349 0
2177 4599 2008 0
-648 -3608 1291 0
1710 -1944 676 0
3454 -3927 2177 0
-3028 2301 1921 0
1633 3367 897 0
3441 -4249 -2562 0
600 -3120 1383 0
-4672 -1313 4739 0
-4173 -2494 -3193 0
1256 -4527 -2238 0
-1045 -2051 478 0
3215 238 3212 0
4287 4120 3668 0
4519 2548 -194 0
-1739 -739 4362 0
2514 -2259 -3707 0
-1360 -3266 -4978 0
-563 3936 1063 0
4841 3729 737 0
-3041 2621 -3440 0
-57 3208 -1718 0
-1229 1575 -1704 0
4278 3115 1566 0
895 -1353 -4723 0
-2432 -2815 -80 0
3330 614 -352 0
-4106 4872 -3698 0
-2027 -1604 3381 0
-2745 -2838 -3801 0
375 3692 -2980 0
-691 -1831 -2258 0
-4639 1117 -178 0
152 4398 -4963 0
-4986 -197 2237 0
-4594 2682 -621 0
-1819 -4679 -1534 0
-2272 54 -2462 0
-2930 -1724 -2185 0
-1425 -411 4055 0
238 4157 3632 0
3823 223 -3894 0
-4474 -3848 1947 0
-4210 -1720 -737 0
876 -654 -4971 0
-1658 608 -1453 0
1583 -4955 -1239 0
3867 4564 -4252 0
2150 2831 -3782 0
-2826 2021 2511 0
2363 4453 3746 0
49 1089 -4944 0
-3353 -3050 768 0
-4730 -2805 4112 0
-2345 2394 -3577 0
-2053 -3367 -571 0
-342 3873 -2507 0
-3397 2939 -2798 0
-420 -241 -1313 0
-1352 -1138 -2327 0
-4983 -4302 -4031 0
4456 994 -288 0
-2064 4105 712 0
2158 3179 4076 0
3259 4264 -1905 0
4879 1368 657 0
-3254 1520 2546 0
-3575 -2341 1492 0
-2750 4069 -3801 0
1079 2798 -2729 0
3709 2433 -4559 0
-1018 919 -1405 0
-4259 -3293 -413 0
563 1621 -2165 0
-2016 -2292 2493 0
3751 4803 -2235 0
-2662 -161 -3057 0
-2945 -4763 1130 0
617 4770 1635 0
1515 -2810 -4212 0
-3645 -1637 -1875 0
-4932 -182 -360 0
-1650 562 -2406 0
4259 1989 -2200 0
1643 4819 481 0
-3791 1368 -2920 0
-1276 295 2086 0
1649 4786 1759 0
3436 4544 -738 0
-1572 633 3170 0
3469 3362 4150 0
1801 -2937 -4358 0
2613 426 -2386 0
3664 3078 -2388 0
2149 -981 -3995 0
-4983 1491 2240 0
-1112 -2271 499 0
1294 -1132 -3917 0
1535 -525 766 0
327 -3935 -436 0
1666 448 1361 0
-2787 3745 2761 0
1298 2409 -2437 0
-4416 -2280 -1461 0
3019 3735 181 0
-3461 -4838 637 0
-2216 2485 2271 0
-2298 4006 -919 0
-3297 -3785 2568 0
4598 -2309 3224 0
-717 -1010 -4991 0
-1280 -4633 -3182 0
2366 1332 2381 0
1274 -3920 349 0
4866 3005 -4671 0
-4893 -3132 3987 0
50 4288 3558 0
-3355 4417 -186 0
1152 -4049 -4664 0
2886 -899 612 0
-2287 -1698 -972 0
410 2267 -4968 0
-1596 10 -1660 0
-2121 -3407 -3001 0
469 -3438 4907 0
453 -371 -3955 0
1284 -3348 -2859 0
3053 -2331 -463 0
-2605 370 -3289 0
-4145 3319 -2788 0
1683 766 3701 0
134 -4350 -2254 0
-137 4736 516 0
232 666 4845 0
-566 4876 553 0
-2425 -1921 4600 0
-3320 -2386 -3452 0
-4819 1303 -4741 0
-638 -1617 219 0
-1738 -4049 -4484 0
2975 490 2749 0
-3456 -4768 2127 0
4147 2654 -1303 0
-1013 3006 -742 0
1594 3895 4589 0
-2964 -1190 -129 0
-3581 2641 3557 0
-3143 -3114 -4017 0
1315 2968 -3164 0
-4801 1660 -3606 0
-3533 4362 801 0
-4595 -2530 4885 0
3779 -3229 -3187 0
-195 -64 -2079 0
-2299 -4608 -4790 0
-3758 -974 -3662 0
-770 1465 1386 0
572 -4381 -4339 0
-2019 -4756 3982 0
-4054 -4765 -2956 0
2753 -600 -211 0
4458 857 3310 0
-3018 -2724 4878 0
-4635 1968 -3646 0
3572 3964 3073 0
4836 -1611 -3593 0
673 -71 -2795 0
41 2574 -1291 0
-144 3672 3405 0
2156 102 4868 0
2244 4016 -3294 0
-129 1769 3574 0
1425 957 -2661 0
-2638 -2718 988 0
-4496 3277 -4971 0
2042 2743 -1780 0
-4977 -3752 -486 0
-2383 4274 4107 0
2367 -1829 -3859 0
3149 -3661 -4842 0
208 -1467 803 0
-3723 -4790 -2504 0
4361 4253 -3027 0
-3324 -3916 -1147 0
134 927 -1172 0
-4720 2226 -2551 0
1762 896 -1199 0
-3317 -676 -3284 0
-1324 271 4830 0
3375 -93 -1605 0
2057 4738 4122 0
-437 4975 3364 0
3132 1438 -3723 0
-4483 -3886 3303 0
2485 -468 1042 0
-269 2998 -221 0
830 -351 2594 0
-1661 2833 468 0
-277 3715 -566 0
-4937 4790 2189 0
-8 -456 -1374 0
-3636 4445 -694 0
3799 2258 -3461 0
3808 -1279 -1666 0
1062 3001 -2274 0
3202 -2792 -2736 0
2800 4643 4259 0
-1824 971 7 0
-2937 2467 3336 0
4891 816 379 0
-4724 3561 3643 0
-4679 -2524 2194 0
-3902 -2544 1297 0
1788 393 815 0
1022 438 1326 0
-2343 -2044 4129 0
2007 -1220 -3311 0
3335 -2803 734 0
-4680 -3512 423 0
4772 3904 3247 0
-3866 4152 4760 0
2879 -1287 3167 0
342 -3321 1478 0
482 2475 -121 0
29 -606 -153 0
629 4691 3350 0
251 1653 2355 0
4733 -583 -2020 0
3910 -2843 237 0
1644 4092 3372 0
2465 3599 1320 0
-1784 -1263 -4823 0
-1574 1657 -4429 0
4599 4102 887 0
4387 246 679 0
-106 -1842 848 0
1959 -529 -1431 0
-299 -3129 -902 0
2750 2821 3574 0
-924 -2614 802 0
-3188 2627 -3962 0
-4748 -730 -1622 0
-1733 457 -719 0
-4565 -2806 546 0
2318 1884 3059 0
-3259 4991 2338 0
-2179 1652 2008 0
-280 2461 -3526 0
-260 -2326 706 0
4172 517 -2534 0
4453 575 -77 0
-1209 234 -3336 0
198 128 2732 0
-932 -1492 4511 0
2486 2458 -3267 0
851 -2819 4475 0
-1226 -52 -3615 0
-3086 1193 -161 0
1893 1555 -4287 0
4771 4777 -4246 0
-1395 -1659 29 0
4600 -4673 -2224 0
-4879 -3587 -3564 0
4690 1490 -1938 0
4972 -1306 4418 0
-3967 -3801 -794 0
-2276 4051 -65 0
1120 -856 1186 0
55 1886 4998 0
-511 -1594 870 0
4427 4519 4259 0
-26 -2708 -2671 0
442 -2271 -4972 0
2816 -885 4382 0
3958 -3473 847 0
4380 -1156 -2441 0
2101 1967 -2957 0
-2252 -2812 723 0
-1040 666 3944 0
-2175 -1915 3634 0
4528 3486 4864 0
-4019 -2221 3247 0
-2664 -396 3305 0
-1919 -3623 -3608 0
4810 4202 3752 0
-2908 -3396 -1536 0
4674 -1014 1518 0
4330 4109 -2666 0
-398 -1150 -4352 0
-1300 -1834 490 0
242 2365 -3443 0
4035 -4649 -4417 0
-1465 2009 1729 0
-2012 3435 -4161 0
1519 2618 3785 0
931 -4074 4671 0
1176 -3497 170 0
-4402 -1481 -2146 0
-4975 -450 2856 0
2648 -4467 -429 0
-4114 1189 143 0
4648 -1065 -4976 0
-1558 2254 4292 0
3688 -3368 1157 0
-309 -4359 -2012 0
-419 -4875 -491 0
4428 4230 -1437 0
832 4088 1258 0
792 -3997 -1797 0
2629 -4820 1621 0
564 -2678 -4701 0
4947 1617 3975 0
-3011 -4768 1287 0
2955 -3390 2051 0
-2245 1602 -2281 0
2489 -4219 3577 0
-2270 1997 4698 0
4854 -3458 2094 0
-1453 -1809 -777 0
2699 -1890 -4874 0
1922 -4955 1122 0
61 3973 -332 0
2980 -2598 2210 0
157 -960 -1315 0
437 639 -1914 0
1756 3907 3700 0
-512 3619 3307 0
2021 -3318 4241 0
-710 -1450 3188 0
-3961 -2854 -699 0
3265 3749 -4293 0
2035 -3755 868 0
4052 -4707 203 0
4468 2834 -2524 0
-2743 4941 -4262 0
3645 -2264 3227 0
976 -1963 142 0
1029 152 -1772 0
2560 536 818 0
-4517 4350 -3516 0
1157 -4392 4463 0
-2176 610 3633 0
4423 -4686 -1575 0
2230 -386 3688 0
-1118 620 -3159 0
-2076 1948 -3513 0
2169 1064 3761 0
-1684 26 -4581 0
-1165 -780 -3114 0
4597 2618 1102 0
-2215 -850 -4307 0
-699 2134 -4978 0
2792 4817 3125 0
-26 -1303 1409 0
3118 3297 -934 0
-703 4270 -4911 0
1390 2393 -4128 0
-4579 2206 -963 0
4828 -1949 259 0
2116 -4642 2837 0
4803 2829 2111 0
4808 4953 -59 0
-3481 4685 -2296 0
2214 4796 -3259 0
993 4515 -1036 0
4152 787 -1221 0
1869 1860 1181 0
2863 -3043 -2316 0
-1597 4299 2047 0
-1450 35 -1517 0
95 2741 2399 0
373 -4525 -4395 0
-1472 -811 2011 0
4567 -221 1743 0
229 430 -4211 0
-3018 3674 -2707 0
-2675 -4039 -4490 0
-4116 -2396 1406 0
-1326 -3537 1243 0
-4015 -2549 726 0
-2533 711 -2736 0
4711 519 1148 0
234 2119 1215 0
-1934 2372 -83 0
-4909 -4332 1215 0
3429 -4044 100 0
2140 2525 3798 0
-1849 -2414 980 0
3370 -2746 1061 0
-3303 -628 -2793 0
-2518 738 -857 0
477 218 2195 0
2593 2142 3016 0
-1807 -4073 3714 0
-1524 -2534 3304 0
-480 2 -4844 0
-2315 -4105 2926 0
-4114 3782 2684 0
-2618 2322 -2751 0
-731 -1893 4084 0
-2839 -2151 -4590 0
850 -4793 -1464 0
602 -3986 -2662 0
3591 -2313 2852 0
657 -1926 -1740 0
833 -405 3533 0
-1813 699 -715 0
-3548 -1420 -2152 0
-4622 3136 3732 0
-3973 -1413 169 0
4064 -2748 -2951 0
4726 2000 -3939 0
-295 -2552 -2987 0
1696 -4693 -3041 0
-17 1815 -2564 0
-2557 3560 -3930 0
-2877 2046 2534 0
-223 -4927 1651 0
-4395 -3907 3761 0
-2645 -377 1579 0
2250 3450 1333 0
-251 -4693 -970 0
1586 2702 597 0
-3218 -3965 1140 0
1064 668 1310 0
-2225 -4943 591 0
-3369 2196 -437 0
-516 -4911 1608 0
-610 4015 -2102 0
-1427 3963 -1063 0
-3902 -4980 -3666 0
1812 2356 3220 0
3153 -3383 4665 0
3239 4151 -3365 0
-3523 2001 4852 0
3346 -2169 -3440 0
-1484 -3547 -368 0
3360 -565 4375 0
1984 -1072 4732 0
-733 973 90 0
-2824 4902 3669 0
-1524 -4113 3614 0
1207 805 2696 0
-3505 -2218 -1335 0
-3216 -2733 -2803 0
-3135 -1834 -3077 0
-4615 626 2023 0
4114 746 798 0
-4859 -1847 -821 0
-391 -4959 895 0
2650 3820 4838 0
824 3940 1782 0
4674 -1112 3005 0
2369 -512 -1438 0
1100 203 -4728 0
1523 -2553 3871 0
3981 -1840 4664 0
-1368 -210 -1345 0
-867 -2672 -3347 0
4574 3309 190 0
2969 -231 1903 0
-3552 1382 -3151 0
28 2374 -263 0
-1772 2852 2850 0
1087 -1727 2698 0
307 -3717 1882 0
3616 -1145 -1472 0
2376 4950 -4000 0
1302 1171 -3698 0
-3737 3102 4613 0
-3133 4280 -4041 0
-2747 -2023 4466 0
-1686 1976 -3700 0
3576 -1994 4648 0
-994 4739 -4103 0
-2010 -3283 -3157 0
691 179 2699 0
-2425 1408 -3879 0
462 838 -4692 0
-1992 -2920 -1943 0
1266 -4784 -1097 0
3175 2207 3578 0
-4095 4808 -706 0
1579 4888 -3128 0
3658 -4420 -3228 0
2919 2415 -2569 0
-2771 -3809 -4083 0
-2550 -715 -3934 0
2647 4938 2400 0
4377 -3882 -2354 0
-2572 1973 -1751 0
-2631 -288 4617 0
-4289 4217 -482 0
3214 -949 1610 0
4031 -4390 4857 0
-3559 96 4091 0
3768 1723 -313 0
183 -1734 -1955 0
-1108 3858 4231 0
240 -1320 -1276 0
2764 3702 3948 0
-2464 2978 -513 0
-3979 2899 4121 0
-2648 4901 1910 0
4992 -2491 1454 0
2208 -4656 1519 0
585 -1996 -3408 0
-1831 -3898 383 0
-1591 -4222 4720 0
2909 3624 -2892 0
-2994 -4680 1281 0
4099 -4581 2038 0
-3497 2155 -3252 0
2967 -3919 -2193 0
-3185 2601 -4584 0
1280 2726 -3942 0
2023 657 3678 0
2462 -4656 -3582 0
-3711 -4204 4608 0
1227 357 4369 0
4966 -1213 1584 0
3051 -1925 660 0
-1188 770 -3924 0
4276 -3333 50 0
-869 -2358 -2385 0
-964 -3110 -3375 0
-2705 -707 791 0
3943 1351 3418 0
-616 -3813 -2981 0
-3863 3468 267 0
406 -4233 -3022 0
-4487 1476 778 0
-2479 -4302 1333 0
-2414 -794 832 0
586 -4248 4421 0
4145 -144 4255 0
4642 -942 -2949 0
-360 2246 1828 0
402 -3991 4215 0
-125 3741 4974 0
-513 -3896 -2912 0
2950 430 -673 0
2670 4210 1972 0
-2657 -1352 1088 0
-1957 -1214 4332 0
-35 1070 -4212 0
4126 -2490 1550 0
-933 3117 -1893 0
-209 -1287 3714 0
-924 2114 1680 0
-4370 -1913 3985 0
-3014 -3670 -3250 0
-2951 2781 -4800 0
-1836 3818 -4904 0
1433 2981 2247 0
1018 1181 -3351 0
3118 1444 4298 0
-4887 2800 4980 0
-3956 -2009 -304 0
-838 1639 -3502 0
3950 2351 1400 0
3210 3988 4051 0
-2975 1020 -1403 0
-1952 -1123 3450 0
4594 2432 295 0
-2914 1959 -1180 0
4524 1461 4932 0
-4959 3675 3598 0
-1596 -4675 -3281 0
-3731 -182 24 0
-3856 4488 -4576 0
-2418 4429 -316 0
1227 4670 4698 0
2617 -4150 -4635 0
3538 3397 -3473 0
2411 1162 4452 0
-3069 -1835 -3834 0
2627 -2989 3261 0
2279 -3518 586 0
3763 2316 842 0
2090 -4997 4462 0
-2676 79 -4682 0
4008 -4445 2460 0
4245 357 4288 0
216 -3694 -1878 0
-1763 -442 -3181 0
132 -2017 3786 0
3101 4125 3708 0
257 -2126 -4375 0
653 -194 -3577 0
2322 -106 182 0
2763 -1918 4436 0
3605 499 -2374 0
1593 549 2380 0
1746 4022 1034 0
-332 3358 791 0
656 -3433 4275 0
-2236 2587 -2471 0
1512 2286 2888 0
4722 -4232 2780 0
3370 1374 4202 0
4062 -2017 2755 0
-1530 4422 4375 0
-292 -2204 2422 0
4925 1980 688 0
-2043 -809 2648 0
-1805 -640 -3986 0
-4246 913 -2543 0
4908 -3241 -862 0
2792 4499 -3100 0
-2818 4722 1081 0
517 -1784 -1214 0
2822 1515 -3881 0
-4517 4419 3095 0
-950 4711 -68 0
2787 -1188 3070 0
2280 1391 124 0
1015 606 3145 0
-2391 2374 -547 0
-448 4906 493 0
-400 -955 -509 0
3883 4449 3293 0
-4611 4226 -2418 0
3275 -4626 -4460 0
-1942 4456 3286 0
-2257 -3984 -2694 0
3285 -3739 -1655 0
-1405 1055 -4255 0
847 -4588 1240 0
-416 4949 -753 0
4003 4920 -1144 0
-205 918 -4716 0
-4826 -412 -9 0
4894 -3760 2927 0
4744 -4323 -3317 0
-3579 2181 4532 0
-4763 3700 -3682 0
-3801 4156 1063 0
-2152 -2909 1226 0
4446 -1 2628 0
2108 1252 -2665 0
3465 3041 1083 0
-4536 -893 -1268 0
4380 4305 3943 0
1888 -2305 -1485 0
1737 -4493 -478 0
-3182 2084 2507 0
-1784 3383 255 0
-2422 87 -2525 0
-1816 -3677 -2342 0
-3992 -650 1551 0
-3422 -4022 -1698 0
1765 -1813 -3669 0
-193 -3607 4256 0
-992 2508 -1012 0
-4948 4969 2423 0
1128 -270 -4075 0
1424 -3047 4697 0
-608 -2345 -1493 0
-1315 -2953 -3982 0
-3178 -4770 -100 0
-4983 -1322 2142 0
-2697 -1289 -4155 0
-828 -4949 2771 0
-1323 1894 -3525 0
-3155 -1653 1422 0
-630 2950 532 0
-1919 4253 520 0
3475 36 1016 0
-1818 -1888 2305 0
-4352 -2818 1943 0
3289 -1067 -4361 0
2098 4685 -3451 0
4346 1765 -3505 0
2803 -4324 -2949 0
3731 -4400 1316 0
-1224 -1369 -2920 0
747 4951 -4126 0
-3023 3008 -1281 0
801 3608 4522 0
-4234 2651 -4560 0
1231 3338 -278 0
2940 -3422 4100 0
2566 -2759 -3445 0
4585 770 -1095 0
4419 3296 -1001 0
-902 691 4687 0
-4756 -4081 -2224 0
-2281 1682 4523 0
-1540 4068 -2136 0
1517 56 -874 0
-542 3375 -3374 0
4981 4106 -3601 0
2403 1462 -596 0
-3078 -552 -4456 0
-3113 -3918 -136 0
3932 -1270 -4981 0
4300 4859 -1419 0
669 3750 -2287 0
-4711 3172 -3738 0
1613 -2760 -781 0
1916 -1929 -424 0
3966 451 553 0
-3216 -2293 -4589 0
-2862 -1287 2853 0
-4775 3197 -4850 0
196 -306 -2028 0
2118 1949 1861 0
-2108 -4527 104 0
3289 3104 -1399 0
-95 -2757 581 0
1175 2330 -1570 0
470 1631 2390 0
57 4166 -3553 0
4188 -3706 461 0
674 2810 -4337 0
-3429 -320 161 0
-1599 -4293 -2975 0
388 2719 3611 0
2761 -1518 653 0
-601 3551 -4248 0
-2499 -278 349 0
3371 123 2411 0
-3839 4629 -2156 0
1357 -361 3054 0
-1094 4872 -3804 0
-4534 1761 2069 0
-2143 -2859 -4238 0
3456 -4369 -3500 0
774 1764 494 0
3635 -3343 4248 0
-4672 -522 -1608 0
3331 -1992 2702 0
2607 3795 -4367 0
464 4686 3084 0
688 2390 -160 0
2301 2669 -3524 0
2945 -3278 1597 0
3556 -3111 3830 0
-1941 -4190 1382 0
2435 1219 -2623 0
-4239 -1935 1093 0
-3450 3240 3048 0
3169 -1020 4387 0
2819 -4747 -4010 0
-508 4314 -866 0
2798 -4311 2364 0
-2365 3636 -3426 0
2910 4369 3072 0
3663 -2566 -938 0
419 1456 273 0
-494 -3822 -2870 0
3709 2771 -4228 0
4028 3132 -3228 0
1797 -864 -4645 0
-4286 -4482 4346 0
1740 4073 605 0
2901 2008 -963 0
-772 4348 3475 0
2808 4604 4788 0
-1747 2210 -1003 0
178 2115 -1175 0
-1414 1491 1392 0
371 3185 -3963 0
1653 3540 -1163 0
-3031 -3805 -3907 0
-2809 -380 -936 0
1934 2294 -4530 0
1865 737 -1774 0
-3608 3564 1058 0
-807 -2038 4386 0
1710 520 341 0
2280 -3390 956 0
592 1398 691 0
1050 -695 2583 0
-207 -3665 4679 0
424 832 -3892 0
583 -70 -2069 0
-2303 2727 -3611 0
4098 167 2874 0
-997 904 -4606 0
3959 -4528 3063 0
-3395 -3621 -226 0
583 3337 3318 0
-4061 2121 -947 0
3865 4793 -3033 0
4586 1965 -1750 0
2704 -4277 -3345 0
1866 1286 1651 0
452 1828 4820 0
-2852 -41 74 0
1165 -1175 2400 0
4563 -3790 -3720 0
-3387 -4632 1078 0
497 -3356 -3147 0
1460 1285 3115 0
-90 1570 797 0
-771 1077 -3461 0
3853 4808 3448 0
2115 923 1398 0
4441 2581 -4845 0
586 -403 4884 0
4273 -2074 600 0
1621 1743 -2862 0
-1427 3924 1333 0
1157 388 4378 0
4180 1719 3238 0
3034 2227 3528 0
-4588 1358 848 0
-1759 -4447 334 0
4626 -4571 -1501 0
2334 -1248 -2025 0
4593 3336 -2455 0
3955 594 1972 0
-4783 -4538 -1880 0
2849 72 2763 0
-1675 -4268 3818 0
-2632 4708 2795 0
-2201 -1693 -2331 0
501 -4556 -4772 0
-2309 4655 4386 0
-4032 -3052 857 0
-2797 2066 494 0
3136 1025 3623 0
1916 -4823 -744 0
-384 3730 -869 0
-3105 -3378 -4947 0
-941 -144 241 0
-4380 2040 2910 0
3428 -2770 -4225 0
3796 -1318 -1422 0
-1405 4892 -342 0
1486 2051 -4026 0
1919 2569 -3200 0
1864 -2828 3689 0
831 4449 -4953 0
-3429 1060 2182 0
499 2821 -3248 0
-111 4310 3446 0
2044 4407 591 0
2097 3599 377 0
51 2760 2874 0
275 4769 14 0
1546 1934 86 0
-3757 -3959 -1324 0
-2106 1435 -4530 0
80 4723 -1127 0
3464 4345 1572 0
-1290 4366 2744 0
-4343 -2273 -956 0
-4011 -1776 1651 0
-2198 -3833 -3756 0
-4234 -4938 -2828 0
-4811 -3400 3221 0
4945 -1637 -954 0
580 -3502 992 0
-4704 4387 -1253 0
-3337 2839 2890 0
883 1567 -2158 0
4987 -4769 3798 0
-4865 3950 767 0
-1410 4014 -1265 0
4870 -2953 -4973 0
-4238 548 4373 0
-2523 -509 -2657 0
1835 -2781 -2044 0
-4952 3663 4530 0
4417 4427 -1951 0
-3938 3398 -3825 0
-183 -1955 514 0
1789 -1133 -122 0
3779 -1837 -586 0
-241 4234 124 0
3323 2218 1001 0
4666 -837 4889 0
234 -4079 -759 0
4046 -4199 1119 0
3918 1235 -4740 0
3141 1422 3691 0
862 4145 -2656 0
-3016 -786 -4978 0
2195 849 -485 0
-662 -1235 -1915 0
-1434 1557 -2176 0
-662 -1427 4060 0
781 -2885 -2870 0
4920 2527 2149 0
-1084 -1858 1979 0
4210 2184 -2030 0
2447 371 1826 0
3579 -1953 3654 0
138 167 4447 0
-766 1690 2992 0
983 3347 3883 0
176 1902 3742 0
-886 608 1019 0
973 -572 2929 0
4698 2367 -1221 0
1964 -281 -3569 0
3056 -4097 4961 0
-1670 3424 4881 0
-1931 -916 -2829 0
4008 1927 3222 0
-1292 -389 1642 0
4559 -2235 2134 0
-3738 1431 -764 0
507 -2757 -1920 0
2878 2995 -3328 0
-2367 412 -1011 0
1423 -3019 507 0
1409 -34 3531 0
-716 1952 -4149 0
2051 -2760 2834 0
1137 -4281 -3171 0
2864 -2149 4943 0
906 2063 4082 0
862 3573 3981 0
-16 -245 1393 0
-1970 -3320 -3118 0
-4446 4148 2175 0
3184 3094 -424 0
4607 -2800 -196 0
4340 -2314 -2162 0
2428 -927 4682 0
1112 -4487 -538 0
4412 -1811 1065 0
2452 3729 4736 0
-4301 4778 -2572 0
-769 767 3693 0
-4434 4749 -137 0
-4685 -3504 3269 0
-3279 2416 -2751 0
-1785 -531 3323 0
-4496 -3397 4286 0
4824 -1703 4995 0
1468 -2364 3818 0
-1933 -1976 -2642 0
1020 -4082 -533 0
-213 -1949 -1408 0
-3665 208 -2270 0
4225 4598 -2577 0
-4324 -3241 4541 0
2770 4528 1337 0
-279 2262 2984 0
4394 3800 -3885 0
-4277 210 -3841 0
-3383 -380 2036 0
-4700 -4457 -200 0
564 201 -692 0
-3502 -4024 4561 0
-295 -3897 -4356 0
3175 -4553 369 0
481 -4920 -2644 0
-824 3447 -626 0
356 -958 1845 0
-1697 -3322 -4459 0
-1591 1652 -4822 0
-4659 3129 1137 0
-935 4632 -952 0
-4269 2529 -4423 0
4220 -1594 485 0
-2922 4534 3885 0
1624 -240 -3313 0
-4049 -2912 -2410 0
3950 -5 1142 0
-461 4055 312 0
-2430 2771 2010 0
659 -4281 846 0
-3491 2057 -1014 0
3461 -3950 1465 0
-3992 1369 -4209 0
-709 3197 1159 0
4405 4101 3255 0
1270 1242 -3118 0
3102 -4036 3393 0
1763 -2586 3695 0
2675 1903 2133 0
-322 2485 4758 0
-4246 -47 -3250 0
4854 994 4476 0
1149 2683 1842 0
1355 539 -158 0
-3057 -4875 -879 0
4900 -1637 -2838 0
-2028 -1718 -4500 0
1497 -4452 -2432 0
-2237 -4633 -3209 0
1725 -1810 -3252 0
-512 -65 -996 0
4235 1219 -1359 0
-4826 1638 -2215 0
-3391 50 -1069 0
-2475 2394 -4825 0
289 1535 -778 0
-3755 -2995 -1027 0
-3032 2612 -4391 0
-4338 -646 4730 0
-3037 -2826 -1150 0
-2834 4699 3150 0
-2214 3733 -572 0
1501 2808 2859 0
2300 646 4541 0
-4212 -3219 -1887 0
-4028 911 -252 0
1862 2177 3078 0
-2725 -1004 -2804 0
-1599 -2743 -569 0
-1093 597 -4007 0
-2777 -2498 3849 0
-4823 -661 2430 0
-1849 4690 -566 0
3192 -3722 -4762 0
-2383 -3045 3187 0
189 852 3522 0
-1696 2597 -490 0
839 -2021 -1482 0
-4589 -1114 4185 0
-4733 4604 4242 0
-4783 1249 -150 0
-3317 -3702 -2507 0
-1257 -177 2818 0
-1714 -4843 3050 0
-918 -1708 4473 0
-180 4232 419 0
3148 -2934 4597 0
406 3400 937 0
419 3351 -1184 0
4873 -378 -2236 0
878 -1192 1584 0
528 -3884 -4408 0
2445 3802 4277 0
3986 4778 -4119 0
-2527 927 -3081 0
2255 -2815 -3772 0
-4939 -778 3481 0
1290 2255 -4205 0
4056 4407 3374 0
1987 4798 -2967 0
-1414 -188 -99 0
-966 -2606 1127 0
-2403 -3144 -1080 0
-3433 -282 3889 0
2779 -618 2483 0
1218 -3632 2405 0
1003 -4327 -2657 0
-1091 3757 1190 0
2026 -4970 -1769 0
-3082 4782 -1577 0
-1798 -4340 -4610 0
-210 3258 -4234 0
-2682 -588 -204 0
505 1272 -331 0
1668 -3244 3620 0
2241 242 4137 0
-1225 1425 3689 0
2439 2287 -2656 0
-2263 -1429 -43 0
1802 2864 1589 0
-3881 -2982 3171 0
-4645 494 3038 0
-3374 3397 -1443 0
-180 3270 -1836 0
1013 1445 2400 0
4668 -3286 -1860 0
-2705 2364 -4183 0
1569 3638 286 0
1952 -3974 2594 0
-3768 2048 -3156 0
-2127 -4542 4183 0
-3347 1137 -3640 0
-3236 -2390 1716 0
-139 4814 1786 0
3476 2743 -2944 0
-4097 -1343 1064 0
-1515 -1575 -2331 0
-1436 2226 2803 0
-2830 3814 -1526 0
2337 -333 2055 0
1495 -858 4485 0
753 4950 -2594 0
1224 867 -3221 0
1576 -1385 21 0
2673 -1921 2940 0
4164 2407 1055 0
4460 1768 2869 0
-1541 -4072 929 0
1752 -1570 2411 0
-2862 -4849 -3846 0
980 1291 4616 0
1610 -4394 4739 0
-4667 3613 -1269 0
-647 2158 1042 0
-4395 -4896 2686 0
-904 -1395 1512 0
-2807 2144 4372 0
-3160 3243 68 0
-1034 -92 2409 0
-2897 -3430 2774 0
-1400 -3388 3153 0
-4162 1489 2337 0
-1869 -3418 3125 0
4634 4626 1290 0
1136 4956 -2783 0
2712 3528 -3865 0
-4881 -391 -751 0
1683 3524 3185 0
-443 635 2368 0
3868 -1112 156 0
-2775 -4987 -2328 0
-330 2016 -2182 0
-168 -1714 3500 0
575 4738 -1145 0
2644 4318 4465 0
-2090 4591 -159 0
1293 2336 -373 0
-2086 3339 -2112 0
-2764 -2325 293 0
-510 -3234 1669 0
-2281 4197 2111 0
-4214 1364 -1507 0
-2176 2347 -4244 0
3791 3554 -4515 0
2119 4751 1923 0
3725 1150 3950 0
-3990 -2498 58 0
-3823 -1313 -1072 0
-3190 -43 -2389 0
-2221 -3876 -1354 0
787 -1740 -2210 0
47 1776 1693 0
4285 447 1 0
-2058 -4491 -3676 0
-2351 -773 -1463 0
2547 -962 -2904 0
2659 3103 3795 0
-4123 861 -3722 0
-524 697 -2911 0
1482 -4966 -4373 0
-4514 -4125 4267 0
-3500 1747 -3253 0
-2126 -1920 -4516 0
4638 3801 4948 0
-1843 338 -3192 0
-1534 184 745 0
259 2224 -3639 0
4764 -4426 -130 0
-3371 -336 145 0
620 317 4133 0
1176 -2826 3289 0
-1352 926 3883 0
4209 -1987 540 0
4410 -1271 -2201 0
-994 -1696 1010 0
-1669 1883 -2928 0
-3671 1401 1746 0
3204 2021 2609 0
759 -2836 4115 0
-577 534 1776 0
893 -307 3547 0
-2027 1834 -2098 0
-1471 -4883 225 0
-3401 701 -1528 0
-3000 2936 -517 0
2982 2833 -1939 0
-3416 3179 -1412 0
194 4249 3705 0
3677 4715 -4308 0
-1420 4303 1713 0
3133 -3635 -2900 0
-4441 2276 3839 0
1703 1892 3246 0
1357 1765 -3282 0
4523 1481 3980 0
-4005 2133 2945 0
4299 4173 -2527 0
-4040 3912 -3977 0
-1250 -3629 -3369 0
810 -2879 -1995 0
-4987 4830 3085 0
-2342 2230 -3753 0
-3995 -3210 580 0
83 2735 2010 0
2220 1455 -4832 0
4584 4469 567 0
1397 -4815 -3030 0
3030 -2485 1433 0
-4644 -3064 4908 0
3672 1730 2973 0
2325 -3880 4372 0
2909 1982 2200 0
-1231 -2398 -1380 0
4825 2154 2485 0
344 -4330 -964 0
-4246 -2801 -1129 0
4555 3480 2082 0
-2138 -2386 -720 0
-882 4077 4561 0
1970 -4367 1247 0
-2825 -1898 -3789 0
-4838 -2468 -3139 0
3189 -1163 -3933 0
989 4033 4862 0
555 -812 4819 0
1302 -8 4802 0
1486 4850 4246 0
-2 3225 2324 0
3071 2735 -1770 0
1449 -3327 -3688 0
838 -4820 155 0
-4028 -4722 236 0
-2723 123 4977 0
-4199 -3902 1050 0
-2319 4298 -1336 0
-1492 -1319 353 0
-3778 -3028 1568 0
-320 -983 -1651 0
4304 -4426 3236 0
-3385 347 661 0
-1816 4074 2141 0
-1605 -2705 -3516 0
3674 2232 3531 0
2292 -2636 170 0
4430 2614 -52 0
-2775 -1443 2084 0
3 1701 3579 0
41 -2784 -1359 0
-3461 2746 3051 0
-3330 -3303 -4938 0
-3752 -583 3296 0
-1446 3665 325 0
3648 2960 414 0
581 -4394 3637 0
3975 -2081 -4290 0
-2517 155 -1825 0
-4338 4975 -4821 0
2871 -4086 -1727 0
3071 4900 236 0
899 2965 368 0
3962 1791 -1419 0
1518 -3462 4372 0
-1454 -3725 -3342 0
3444 462 -2910 0
945 4860 -3409 0
2563 3536 -3354 0
307 -4664 3853 0
3753 -4914 -4861 0
-2337 3926 -1693 0
4243 -56 1979 0
-2974 1426 -451 0
456 -4910 3684 0
-2420 -2017 -881 0
-2811 478 -1615 0
2846 -2470 -3112 0
-4056 2238 -1792 0
2721 -598 -2396 0
-1100 -4181 -3621 0
4639 2007 807 0
-3848 3512 -1054 0
3937 -4874 570 0
-2057 -2880 1762 0
-2635 -2189 -1592 0
2623 -2320 -1315 0
-505 -2449 -1172 0
1373 3688 938 0
1747 1279 -2945 0
-3198 -3825 4899 0
-222 -3734 -417 0
3240 3620 -2261 0
4437 3180 3548 0
-2173 -4036 -4911 0
-2032 -207 -92 0
-538 -1835 -4701 0
-3828 1312 -2923 0
-1776 -3145 3395 0
-591 1010 3430 0
3211 4999 2603 0
769 -176 1037 0
4824 1060 697 0
-3353 -3392 -2465 0
-4075 -173 -3734 0
2038 763 4451 0
-3892 -4533 -3562 0
-2153 -3609 -3107 0
4266 -4685 832 0
-1594 2659 953 0
3886 4280 -1733 0
3082 -2962 -1317 0
659 -4826 -1452 0
-580 2614 -3988 0
-2522 57 251 0
-22 4168 830 0
420 -3958 1667 0
4635 -1599 -4351 0
1680 2580 4655 0
-2647 -1689 2873 0
-1072 -3062 -1607 0
-71 4594 -4953 0
4362 -2590 4009 0
2597 -924 4694 0
4465 4802 -3246 0
4344 4119 1189 0
2526 -482 -4001 0
192 -1396 2761 0
2843 -825 928 0
-110 -4146 -476 0
3927 -3578 2108 0
2448 1337 -596 0
-2898 -919 -2514 0
889 848 -3630 0
-1754 -4311 4216 0
-2824 -3748 -2683 0
3283 2716 137 0
4398 -801 -1056 0
-3376 2762 -1686 0
-3096 551 -1733 0
-537 -4299 -4965 0
-3435 -2683 4597 0
479 -609 112 0
-4250 -1468 -924 0
4988 -2967 -293 0
-2655 1007 -1864 0
3908 -520 4745 0
4551 240 3888 0
-2072 4206 1567 0
-3034 -1708 -3697 0
4963 3011 -4848 0
2189 -4088 -3961 0
-1811 -4836 3881 0
-1262 -328 -3157 0
-2779 -2526 2466 0
594 851 -2028 0
-4331 265 1160 0
-86 136 -3987 0
3683 -3584 2208 0
494 319 -1403 0
1689 1749 -1356 0
1558 -781 3129 0
-702 2386 2779 0
-1840 -2578 2339 0
-389 3401 -4766 0
3805 3199 3285 0
-3930 -1693 1354 0
4448 2447 -100 0
-2843 934 1960 0
-3686 -3118 4310 0
263 -1007 4855 0
3977 -670 -4638 0
-3061 -584 1430 0
4631 4719 -3171 0
-2052 -804 -4820 0
-1307 1101 -2814 0
-2081 3911 610 0
4742 -2985 -1442 0
-1726 -4203 -2900 0
3942 -3063 477 0
4291 172 3098 0
870 -4131 2071 0
2801 2881 -709 0
-1947 3833 -1855 0
815 -954 -2389 0
3733 2059 658 0
-4867 -1350 2016 0
-3912 2426 4277 0
4227 -349 2596 0
1903 3220 -1874 0
4690 844 -1914 0
-4227 1044 -2545 0
-3117 4572 -3855 0
-747 -3396 -1903 0
-2932 -3726 3246 0
-453 -2418 -3373 0
2283 -1829 1348 0
4607 151 3790 0
4645 -2966 1546 0
-3345 -1545 3225 0
-2474 702 1056 0
535 -3023 2490 0
-3043 4908 -2176 0
-2268 2696 -1892 0
-4429 -4293 2082 0
3626 1222 -3731 0
3455 -3088 -1435 0
-338 -1796 -699 0
2844 287 4169 0
-1599 -4032 -4611 0
2532 -2007 3523 0
3681 4273 4413 0
863 1291 -1023 0
2252 -4112 2423 0
-2922 -678 -2486 0
-2631 -3154 -107 0
1037 -4432 3691 0
-2780 911 3931 0
-2860 -2043 3012 0
-3924 2819 -4314 0
3198 -3403 -331 0
628 -4649 -2161 0
-2713 1571 -1733 0
1641 1416 1891 0
-3101 4874 -3100 0
-825 -2415 -738 0
-2995 -3895 -1845 0
-789 3862 3449 0
-985 4643 -2946 0
-1784 4680 -2112 0
-2395 -1110 -1734 0
-2090 -2305 471 0
-4770 -2967 82 0
4565 -877 -855 0
3173 -2337 4086 0
-3027 1129 -1271 0
622 3458 4092 0
-1566 -1990 -1048 0
1921 937 1347 0
-3842 3434 -2021 0
4448 -4858 -2318 0
-4081 1178 618 0
2512 466 -1939 0
-2948 -827 -3016 0
-464 -1983 395 0
-4535 1214 -161 0
3952 -2627 1556 0
-1491 1286 -3522 0
-3747 -1367 -4757 0
-3774 -4916 -3994 0
-1298 -565 1392 0
3110 3305 575 0
4669 181 3337 0
1769 1912 -4912 0
1882 4669 3395 0
4987 -673 3856 0
185 4327 3828 0
4342 3973 803 0
-3608 1447 -690 0
-1556 -4458 -945 0
4407 2640 -4102 0
-4695 951 -2471 0
-3691 -4897 -1984 0
2568 -955 -1575 0
-1037 1268 2794 0
3331 -1482 365 0
1763 -1741 1790 0
1204 -2003 3727 0
1606 -277 -3591 0
1274 -258 4013 0
979 -4300 4248 0
-812 865 -1817 0
978 4097 -3207 0
-2864 3009 1990 0
2749 -2061 2015 0
-4895 -1838 874 0
-4363 999 3453 0
3451 2578 -4148 0
-4577 -3080 2881 0
59 -787 -3675 0
-2131 -2255 -3130 0
1253 2434 3425 0
3001 -4172 -1013 0
4577 -1472 -903 0
2659 -3965 -4467 0
-479 -1706 1016 0
-2377 2907 -2559 0
1314 1955 2409 0
3390 -3681 3549 0
71 3370 1269 0
-705 -2173 2322 0
-1785 4361 3339 0
3222 -4005 1246 0
2437 53 -1550 0
-396 1615 -459 0
1021 -4826 -4969 0
-4199 -962 -728 0
2369 2208 -1070 0
-1554 2890 4898 0
1649 3909 -19 0
2355 216 -4831 0
-3608 -2477 2041 0
-4167 -4844 4141 0
-1011 -808 563 0
-3007 2218 3941 0
4588 -3215 353 0
-1670 -4911 3840 0
-2394 -3381 4860 0
-2805 2581 4311 0
-2087 3028 -1792 0
-3864 -1834 178 0
16 444 -3855 0
-3169 -2600 -683 0
1305 4661 -2485 0
4887 -332 -4673 0
3380 3843 -3799 0
-2143 2326 3101 0
-4096 -2732 -317 0
100 -1700 1826 0
-4424 679 901 0
4301 -2083 1797 0
3442 4766 -3790 0
179 -2108 -1741 0
-1339 -1498 -4757 0
-1082 2100 2717 0
2284 3333 -4536 0
1804 1876 96 0
-139 3717 -2579 0
1956 -4637 -230 0
1098 254 3985 0
-4601 1005 -4086 0
4153 -3571 684 0
-1176 3366 -580 0
-2751 3866 65 0
-2521 1544 4361 0
3764 -11 -4327 0
-577 4318 -3728 0
-4544 -3730 1103 0
1207 2769 3909 0
705 -3355 -4985 0
1300 1911 2868 0
3903 -64 -181 0
-3563 -3716 -1485 0
-402 846 -928 0
4052 1256 1340 0
-3573 4422 716 0
1602 4521 2804 0
1498 -4552 3806 0
1096 155 2235 0
-1486 3090 363 0
3650 4398 4685 0
1879 -4193 -663 0
4477 4873 388 0
997 -4005 -3283 0
4393 -2875 20 0
1050 2993 -1078 0
-510 -3234 3678 0
-4711 2882 -4490 0
561 4650 4402 0
2978 263 -2824 0
-4412 3028 1436 0
728 3874 561 0
1418 -2972 2325 0
-2347 847 -3047 0
-992 4344 2161 0
-1565 -131 -1305 0
-96 -782 -1954 0
-4678 2647 1358 0
4335 -2154 -1033 0
-2225 -4680 -3487 0
-905 -3456 3508 0
996 -380 4484 0
-3433 629 112 0
2940 -329 3559 0
-4720 2972 -4908 0
1018 2891 1110 0
732 -3525 1269 0
-4545 -79 -2395 0
-758 1687 -704 0
-4401 -4566 352 0
-4739 -614 -4534 0
-1255 -2252 -1040 0
4323 2498 3020 0
1211 4316 4856 0
-2321 3790 -646 0
-720 -2225 3698 0
-331 -1000 -1121 0
1789 430 -4008 0
2519 -4009 4019 0
3781 2197 4234 0
-3965 4649 754 0
-2328 3337 -1366 0
2747 3387 413 0
4883 1027 3984 0
2956 1152 242 0
-815 -4622 -4868 0
4844 -4710 2686 0
3115 1649 -4436 0
563 3007 -1510 0
1888 1809 -1641 0
-1546 2931 3830 0
-912 569 -1940 0
-486 -4452 -4508 0
2757 905 4070 0
1317 3191 -1067 0
1569 420 1721 0
2540 2345 366 0
3430 4492 -1571 0
-4987 -3667 -517 0
-1907 -1487 -2554 0
-1631 -2343 -4357 0
1824 -4111 4606 0
-1909 -3934 -2867 0
-3268 -2625 881 0
1021 693 -3723 0
3060 -52 3574 0
4412 -3246 4934 0
3519 -3073 -3982 0
-1382 1002 -2018 0
-2529 3612 -4731 0
2428 3620 2843 0
-3475 2003 -3938 0
-3944 2489 4982 0
4402 2217 -1137 0
923 -147 -495 0
424 4987 277 0
-4957 -1437 3869 0
-2493 -3700 3708 0
1111 -27 -2705 0
-483 2971 1534 0
2757 4723 -1912 0
-3748 -4224 -2679 0
-4011 1804 4029 0
2863 -81 -3245 0
2242 4576 -313 0
2591 -3667 -2582 0
1149 2556 3912 0
-336 851 559 0
4605 -4652 -1854 0
-2632 -4167 2452 0
3245 199 4684 0
-277 -1884 1707 0
3586 673 2276 0
2610 -2262 1721 0
182 4601 -4358 0
-189 4917 1991 0
804 -3877 4577 0
-943 3556 1249 0
3458 -246 1766 0
-628 -3790 2157 0
4876 -632 -1734 0
4412 118 859 0
1407 -1925 3880 0
-3438 496 -4229 0
4933 2099 -1710 0
1633 -1914 4160 0
-3717 277 -940 0
1550 -1121 3959 0
248 -621 -2866 0
4068 -4229 2200 0
-3173 4272 2025 0
-4215 -1533 -2973 0
418 -2167 -3696 0
1593 -2793 3446 0
2418 -4082 -1397 0
-4467 -4782 4979 0
-4625 1024 -4005 0
-2847 -4545 -1029 0
-4361 -347 1591 0
1163 4123 3339 0
-4745 -3259 -1380 0
-4585 -4012 25 0
-4876 -2388 4818 0
3560 1908 3674 0
4574 3597 4973 0
4124 4938 2735 0
-849 -3002 353 0
-1518 2387 3618 0
1173 -1935 4243 0
-2552 4111 -547 0
562 2698 -3379 0
-4420 -483 -2518 0
1764 4875 27 0
-2983 43 -4141 0
-3703 -3358 1173 0
2471 767 4954 0
-4735 1805 3532 0
-2049 4660 -1287 0
-2120 1342 1293 0
-3237 -4322 981 0
-4826 -4362 -892 0
-4810 3275 3752 0
4192 -3611 -835 0
480 3673 -4947 0
1036 3298 -260 0
3127 4438 4122 0
-3739 -1694 -3670 0
1082 -3856 3229 0
629 4999 2634 0
-3335 4478 2527 0
3692 3201 -2919 0
2812 4287 4723 0
4539 -3444 688 0
540 -58 -933 0
-753 4653 -4607 0
4082 -43 1597 0
4519 352 4998 0
-187 -592 -3551 0
-2855 -2751 2319 0
1478 1010 -4063 0
1498 -4204 4465 0
2179 3390 2618 0
3825 -1935 -4896 0
2557 3244 -2060 0
-1340 -303 -3785 0
-1475 1768 3806 0
-2119 2246 -319 0
4243 -4958 2847 0
-3458 4708 -3073 0
-512 -3231 -3953 0
-627 -1277 4094 0
-2908 3928 -3281 0
2008 461 1785 0
-3248 -4182 1916 0
653 3880 -4709 0
-2132 -4686 4906 0
486 -351 3301 0
875 -2542 -1498 0
1260 -413 532 0
-3747 -1719 4285 0
-437 221 1237 0
1676 2102 -1553 0
-2942 -4913 -2371 0
-813 -1965 -2516 0
-1256 -4555 1999 0
1461 191 3023 0
2430 368 -1849 0
2593 2657 65 0
-2245 2580 2461 0
2402 -2045 -2682 0
3174 3413 1701 0
877 2745 4014 0
1056 1371 1926 0
3398 -4157 4708 0
-1788 4654 2031 0
4116 3638 4410 0
3897 3098 4855 0
-1803 1645 -3123 0
2395 -2725 -612 0
-455 -4809 1995 0
1795 -4118 -3519 0
4804 -3645 -3668 0
4761 2825 3442 0
-1873 -950 -842 0
3282 -3652 -551 0
-3071 -1558 4003 0
1617 -2856 3613 0
353 2799 2944 0
3074 3435 2947 0
1734 1697 -4161 0
-2095 3227 -2063 0
1361 -4052 -3825 0
-132 -4901 510 0
3479 1790 3057 0
-81 4185 637 0
-1135 -2768 3659 0
-673 4080 -647 0
-4283 263 -3969 0
-3386 -1954 4317 0
4691 -3806 3786 0
1728 -308 3397 0
1736 1901 -2933 0
3734 1377 -453 0
-2456 -698 -2469 0
2119 3076 3764 0
-4456 -4385 659 0
-1521 604 -1408 0
-2510 4707 2424 0
-3997 -4160 -4273 0
4610 2721 1475 0
-4337 -2654 1092 0
-4759 2989 3506 0
-2924 2284 3970 0
841 -1846 -4940 0
2071 4283 -1760 0
-4629 -4674 3405 0
2036 -3813 4412 0
4841 3619 4916 0
-2828 534 -1653 0
1289 -629 -4685 0
4905 -4917 3645 0
844 -812 4451 0
-3534 -1090 1392 0
-160 -2410 2047 0
-4270 -2434 -3988 0
-3644 -3700 3199 0
-984 -1713 -4885 0
-1006 -4118 -908 0
1571 -4943 1410 0
1939 -4938 321 0
3086 1667 -4377 0
-2909 -4694 1492 0
1587 -1487 -567 0
3501 -3667 4882 0
2511 -3948 2110 0
-3570 -3740 -1910 0
1062 -3004 -4752 0
1718 2227 3748 0
1202 4973 1675 0
3959 -1067 -2493 0
-2368 3766 -471 0
-2126 -4385 -1334 0
-2494 -1811 3003 0
2774 -399 -2323 0
2462 1314 -376 0
3824 1464 693 0
1296 2863 1813 0
-3785 -1398 215 0
-3580 -3841 3671 0
4698 -2594 3978 0
4939 3969 -615 0
1046 315 -3678 0
3227 -4622 1837 0
3234 3773 -713 0
-1288 1516 -3033 0
-3954 1249 -293 0
882 -771 4971 0
-1136 -4064 269 0
3097 1202 -3968 0
-3878 2728 779 0
1622 -1838 -3932 0
1714 389 1364 0
-1691 148 3738 0
1946 2976 3388 0
-3364 802 -1150 0
-556 2604 -2807 0
1385 -4395 -4137 0
3535 4786 -2739 0
-4449 -1548 611 0
-1820 -1865 2210 0
-1329 -3328 3534 0
835 4806 4041 0
-46 -3146 -4322 0
71 4164 -4248 0
-2296 -2141 -4959 0
4453 -2132 -3096 0
3682 -3600 -779 0
4612 4611 2770 0
3142 -3478 -2279 0
-2124 3055 -1196 0
382 785 -705 0
3028 2562 4221 0
797 4735 3063 0
4117 -1243 -167 0
-810 907 -4884 0
-4428 -2690 776 0
-1439 764 1374 0
-1351 -1448 -630 0
-3716 -3276 -3502 0
-4459 3619 2843 0
1030 2286 -3292 0
-1284 -671 -287 0
60 706 1387 0
4983 1226 732 0
-4120 3844 -3618 0
4917 -3842 -470 0
-4402 -2969 -2756 0
-3678 -3897 -3988 0
-4256 -2520 2220 0
3147 3204 -994 0
-374 -4269 3967 0
-2928 49 -1894 0
-3833 2338 -2945 0
-4951 2515 -3843 0
2285 -3212 -621 0
672 -633 1173 0
1810 1622 -4123 0
-1347 578 -2277 0
-292 428 3040 0
-1187 -1223 4196 0
4503 470 4131 0
2287 -3089 4403 0
899 -4512 -1266 0
2521 2680 -1639 0
3923 -519 -2900 0
-2731 2614 -1615 0
-2209 -3957 -1387 0
4316 2258 -513 0
-118 -2876 2108 0
2777 -3059 2038 0
323 1600 3911 0
-1677 -709 3633 0
3678 -680 -452 0
-1692 3414 2584 0
263 2982 3254 0
-850 -4709 -15 0
4543 3207 3822 0
3905 2009 -3033 0
1180 3702 -4832 0
-3555 476 -1853 0
2820 3429 3247 0
3043 -2349 -3644 0
-2292 1791 4863 0
-2894 -2559 -2897 0
-258 -592 -4344 0
-1275 -951 4660 0
4931 -2072 -2792 0
326 -4479 4645 0
-1530 1259 2870 0
-2186 713 -3493 0
-1974 -4310 4819 0
-3846 904 4064 0
1210 -4672 2474 0
-2109 -1548 1943 0
-3986 4632 -2924 0
4833 -3592 3235 0
2862 3483 -1006 0
-702 -2421 -642 0
-3437 -4520 -3547 0
-3518 2321 2292 0
3485 4288 1826 0
-4646 1109 2146 0
2164 -4419 -1479 0
-495 -4928 -3805 0
-915 -1816 1676 0
-4323 -2263 4654 0
3325 -2248 3024 0
-4102 4877 2921 0
-4839 -56 3 0
4552 3881 4411 0
1369 3695 887 0
-1616 -876 -4650 0
-3147 -4071 518 0
-475 -3458 2406 0
-599 -1168 669 0
1009 854 -4139 0
-3415 4169 -881 0
442 -3810 1830 0
-4902 4075 -4686 0
-777 2519 -4036 0
-707 88 3791 0
4211 2685 -4523 0
-1503 2948 3218 0
-2317 4920 -2593 0
-3376 1017 1767 0
2957 3728 1323 0
-1858 1417 -1307 0
-556 1808 -3736 0
2809 -1533 1603 0
-3325 2655 1778 0
320 79 2287 0
-2104 1734 960 0
4339 -3750 4063 0
423 117 -1178 0
1084 2306 -4392 0
-2882 1468 -2085 0
-1544 -3105 1500 0
3330 3482 -1043 0
-1930 3963 -768 0
-3105 -4249 3685 0
4687 -2452 -4071 0
-2336 -3053 2619 0
-1870 1708 -4770 0
-1486 2869 1146 0
-4960 -1490 -3262 0
3982 4984 -1207 0
4456 -4736 -204 0
-1219 1701 -2080 0
-4885 269 -3802 0
-4900 1188 -2036 0
472 -4024 1558 0
4637 2169 -1667 0
4439 -4966 -3351 0
3022 -2640 -947 0
2404 3684 -2876 0
3188 -1978 4543 0
-3702 -1093 -1646 0
-2622 553 -1816 0
-4760 -4430 -1524 0
-2351 -4166 2503 0
-2664 4156 -2963 0
1832 1758 -3798 0
-3056 -3269 -1805 0
4521 -4502 -2877 0
476 -4368 -3380 0
-3057 -2368 -3596 0
-2542 1233 1795 0
524 3214 4245 0
1345 2313 2393 0
2940 -4740 2643 0
-866 4442 3156 0
-1504 3149 -1549 0
-332 -4703 -3759 0
4812 -2297 -390 0
-568 -1764 646 0
-921 -2652 -570 0
-2666 2784 1348 0
1127 4832 3098 0
-3288 3559 1550 0
-1334 962 -428 0
1240 433 4762 0
924 -4401 4656 0
-1750 13 -4601 0
-4595 252 339 0
-996 125 1700 0
1584 -2928 -4981 0
2360 -1040 376 0
-2996 3063 -1220 0
-1071 3215 60 0
3621 -949 -1085 0
776 -4957 -211 0
-1235 4929 687 0
-4285 -1385 -2198 0
-2376 -3829 2086 0
-4598 -2098 2121 0
-1005 -4711 -1597 0
-4939 -215 1913 0
-4875 1542 576 0
4628 -189 1683 0
-1878 -2256 -1703 0
-308 540 3303 0
-1870 -3053 -1582 0
1577 482 -478 0
-4162 309 3535 0
1222 2663 4682 0
359 -654 1441 0
-2314 -2449 -4376 0
-2962 827 336 0
2202 -351 255 0
-1473 1981 3211 0
-1133 -2236 -1408 0
-869 1616 2531 0
-3427 -2442 4887 0
1683 -2915 -1191 0
-1446 1992 3397 0
-4964 -262 1489 0
-3513 -174 2033 0
-3590 265 -4689 0
255 -4741 -4697 0
-3470 3016 -1915 0
-3156 4406 -2933 0
4071 1582 2209 0
-4479 -3146 -1104 0
-537 -3464 -2643 0
-3253 3087 -1923 0
1252 -4427 493 0
-4689 -2160 4757 0
1774 -875 -359 0
-152 -110 3801 0
2686 24 4991 0
4498 1157 -3369 0
4105 4735 -778 0
2448 -1390 -3539 0
-3951 -4738 2953 0
4358 2987 -1244 0
1190 2246 3465 0
-735 3531 -4209 0
-1773 -3243 3357 0
3493 2428 563 0
2303 -2805 -4072 0
-3912 4338 3669 0
-1988 -3495 810 0
-1175 -641 -311 0
-3423 -4562 2556 0
3904 -3166 -288 0
2229 -1742 -4375 0
2609 -4442 -1499 0
908 -1021 679 0
2897 -4548 157 0
4642 -1560 -3302 0
2258 3304 4864 0
-2260 -1313 1518 0
-4758 984 -3043 0
-407 1361 4901 0
-71 1136 1022 0
79 4068 1077 0
-4248 -132 -4181 0
-2522 -1961 1617 0
2982 4143 3295 0
1096 4909 501 0
1401 -1478 2888 0
1130 3754 4022 0
-3494 -4178 611 0
2930 -2621 -1282 0
377 -1282 -1720 0
-3806 -3721 3961 0
4758 -1830 -4293 0
4384 -1101 4174 0
-2926 -951 -2034 0
-1344 -1555 -1734 0
3475 1084 -2563 0
-2145 2077 -2587 0
1796 932 -280 0
497 -3416 -3582 0
-4876 65 4573 0
-2996 -2581 -2604 0
-1111 453 -4307 0
-4303 4681 4104 0
-3514 -1673 -1801 0
1992 -4224 1147 0
-1962 4437 4259 0
3470 2945 -4758 0
4251 4817 -2287 0
4687 2114 2595 0
-3577 -2122 -2030 0
-2810 -2199 4267 0
2829 4981 -4715 0
-1966 -3127 2277 0
-1547 -4204 -346 0
991 758 1390 0
-3104 4953 3925 0
3052 2203 2771 0
4563 -2098 4613 0
-1588 -3353 -1543 0
-4753 -4795 1992 0
-515 -1586 2193 0
1023 1227 -1496 0
2549 -3563 3220 0
-1361 4406 -1893 0
1744 3775 384 0
-3418 4303 -4133 0
-2931 -4160 -1764 0
3442 -2958 4384 0
989 3305 3179 0
-4550 -3673 3294 0
-3467 -1899 -4568 0
-2135 3314 -4172 0
1861 2632 1445 0
487 -2215 2047 0
-499 -607 -2401 0
364 1393 4060 0
10 4170 -1343 0
-168 -4603 2362 0
-4958 4004 -2785 0
4934 4153 -2602 0
845 -482 -363 0
273 -4409 1568 0
3308 -1751 -1235 0
-926 -2087 3632 0
-4310 -3148 -3875 0
1713 -3721 -2301 0
-3110 -1169 1841 0
-211 -2834 1839 0
1151 3031 -538 0
-4123 -639 -180 0
1777 547 254 0
-2674 75 -4123 0
-2562 2090 -2269 0
-1805 -1811 4199 0
2217 2556 -1816 0
-4263 3385 1798 0
-4143 1279 3160 0
62 4345 -2027 0
-2205 3693 -1407 0
3625 -3585 153 0
-358 3621 -2082 0
-4935 3226 4001 0
4562 1215 -1512 0
3225 -4001 137 0
-4604 -4875 -3349 0
2145 -4490 -561 0
2157 2374 2863 0
3908 -4580 -2540 0
2754 4406 590 0
-577 -541 3848 0
-4182 -4889 -1684 0
839 3317 -1085 0
809 2855 453 0
2029 4860 -4438 0
2839 -4189 4550 0
2913 986 -2008 0
-4010 -4004 -2675 0
-3607 3447 1317 0
2543 4396 -269 0
-4070 -2278 3088 0
-2049 3580 3446 0
-1795 -3282 3050 0
3117 -218 291 0
-4328 -377 1725 0
2608 -4573 -1724 0
1001 3948 2797 0
-218 4029 1622 0
-4556 -279 4050 0
-1493 -4480 -2330 0
417 491 3471 0
4781 3956 3060 0
2045 4202 3191 0
-2913 2254 1219 0
317 4992 -1916 0
4135 4116 2802 0
4965 200 -666 0
96 -3878 -1259 0
-479 -918 -2326 0
-4608 27 1656 0
1049 2386 3450 0
-2721 4476 1154 0
2356 3769 458 0
-2831 -4863 -4327 0
4716 -185 -1758 0
1779 4507 -4450 0
1527 1254 3385 0
-1754 2998 2323 0
4000 298 2913 0
4703 -4499 141 0
-1242 4086 1475 0
4934 2893 683 0
-1472 4200 -3718 0
462 2316 3969 0
1086 3467 2834 0
4350 67 2110 0
4314 2010 4532 0
-2375 -2642 3937 0
-3907 -2766 -2613 0
-2369 3889 2352 0
-414 4607 2179 0
-2484 -4196 -1294 0
2592 4103 -2534 0
-1071 4374 -85 0
-2346 -4351 2455 0
-2086 -4875 -2914 0
2144 1112 -3655 0
-1898 -736 3824 0
-642 3379 -3578 0
-4372 -148 -1911 0
-4880 -2378 -2037 0
-3553 -2768 4435 0
868 1205 -3570 0
-4418 2702 1508 0
-1326 -1725 -2448 0
-739 -4872 4900 0
-4273 -4204 -155 0
3524 -2312 1855 0
4322 -2537 -1581 0
-1899 4343 1240 0
-2839 -305 3370 0
-2481 43 1505 0
-330 592 -3565 0
-4096 2800 2989 0
1095 1390 4475 0
-3673 1666 -4625 0
-2733 -2005 1270 0
2634 4967 -1540 0
-3747 -4180 4077 0
4293 4628 1906 0
1583 2638 4486 0
-3885 2143 628 0
873 -3045 2370 0
3299 -1485 -2527 0
-4625 4654 -1045 0
1469 -3890 -598 0
4637 -4972 1641 0
-1711 -4221 3546 0
3759 2819 -1315 0
-1724 2204 1098 0
-4328 959 -1933 0
4670 -1734 -252 0
-4595 725 -4305 0
-3845 3761 4394 0
4596 -62 3906 0
4566 2917 4632 0
-292 -2186 97 0
-1574 -4698 2970 0
-3610 -4194 3548 0
-2124 634 70 0
2901 1015 -1718 0
-3132 1024 1135 0
3098 -1611 -4783 0
-2839 -2060 4766 0
-4441 3078 -4378 0
-2546 -2900 1178 0
-121 2145 -861 0
2689 -1320 -341 0
588 -3314 2038 0
3089 3869 988 0
-3994 1642 -412 0
-1611 3072 -1794 0
2087 2072 -4724 0
-3955 3027 334 0
-4656 4155 1123 0
149 -2557 4055 0
-1884 2525 4194 0
-3029 2285 2520 0
-2498 -1462 1228 0
4741 2290 4574 0
4807 -4870 -2534 0
-1719 4048 3097 0
-3605 4528 4540 0
2842 4126 -2153 0
-2164 -4413 166 0
3306 1134 3958 0
4434 1146 1270 0
1472 4696 803 0
-1698 4626 -4857 0
3297 3000 4653 0
-1545 -418 -1834 0
2990 -4037 4031 0
-4124 -4940 -2881 0
3551 3874 -2611 0
-1299 -3326 4890 0
-1825 4633 1078 0
-3850 4379 1939 0
-150 3480 -3888 0
3672 2048 3272 0
2434 -4852 -2920 0
-4418 -1809 -3524 0
-2383 -1983 3664 0
1857 -2821 3358 0
-4111 -3512 -2255 0
-3914 39 -1031 0
-2536 2954 3141 0
4480 3502 -810 0
4556 1668 -408 0
-4087 -3078 4497 0
-2400 81 4313 0
-1076 2285 3829 0
-1032 2913 -2985 0
-3731 -4306 -2179 0
-356 204 171 0
1986 -2130 1128 0
1901 -3959 2054 0
2435 -1382 -1954 0
-287 161 549 0
4159 239 2139 0
3472 -2949 2847 0
-2116 -2565 -2709 0
2222 -4556 1788 0
490 142 2947 0
-2681 3209 -1908 0
-4000 870 -3882 0
4081 -2651 3349 0
1857 -57 1309 0
-3935 -428 -296 0
-205 3835 -1720 0
-4418 3027 581 0
-1941 -4314 4278 0
204 -4763 2737 0
4423 365 -1327 0
-3328 4351 -675 0
1880 -2245 -1969 0
-2727 -1921 -4437 0
4472 4550 324 0
-3511 4667 551 0
-4514 -1690 -2291 0
4887 144 -4236 0
4131 2404 -3693 0
-2555 -4107 -552 0
-1508 3238 -212 0
-1122 1297 1665 0
2616 -216 3044 0
942 3449 -1617 0
4801 -2090 -2973 0
1308 -3402 595 0
4943 275 -3181 0
-3831 -3247 -1326 0
-881 3203 1140 0
-4876 -1839 -660 0
3200 -4335 2146 0
-4081 -3808 4070 0
-4927 -1595 -690 0
2942 788 -3176 0
1495 -2636 -4676 0
3756 1254 -1545 0
1565 -1860 2233 0
-1883 -705 -1036 0
-283 2303 -1893 0
862 1044 -4940 0
4285 -1598 3532 0
-488 -534 -131 0
-3117 4613 -1583 0
-1574 -967 -4681 0
1214 2695 553 0
-3889 -4222 3258 0
-3784 2940 -1280 0
-1981 2061 -1895 0
2813 3999 -2950 0
-906 -4386 -4707 0
-2020 2457 310 0
-2963 2089 -873 0
299 -4333 -4451 0
-1730 -4201 -2691 0
1052 4378 86 0
796 -1109 -293 0
1353 3330 -1797 0
1030 -3254 -4287 0
-282 976 -87 0
-3713 -4168 4875 0
4134 -2204 4022 0
2888 -1712 -1503 0
2162 -1542 -1811 0
242 -3870 2587 0
-2387 1325 3333 0
2141 -4884 -3152 0
-2194 -1289 -1026 0
-2404 -3501 -3709 0
-2838 2170 -3385 0
-3053 587 2626 0
-1879 -4673 -4391 0
-3974 -984 -1658 0
-2424 3167 -399 0
1142 -45 -1171 0
4906 -371 3729 0
-4732 3088 -1431 0
1161 556 -361 0
-3706 -1797 -229 0
-2419 374 -1657 0
-2305 -4971 1507 0
-4551 -4707 3727 0
186 -114 2838 0
4517 3464 3508 0
3869 2074 956 0
641 -4339 1150 0
-1901 -917 2228 0
4188 3450 -976 0
4940 3286 2225 0
-3683 2089 3464 0
1999 1040 -4728 0
-1731 -1285 -843 0
3002 2808 -636 0
-3050 1955 4871 0
4778 -3671 -2927 0
3854 208 -1133 0
724 281 3684 0
-3165 4520 4967 0
-3404 -4617 2686 0
-10 1990 -4783 0
4536 1507 4101 0
-3793 -1935 -4523 0
1785 -2840 -2653 0
-4689 423 -4935 0
-4377 3167 -2720 0
-2218 -1798 -4711 0
477 3706 -2842 0
1304 3473 -4506 0
4128 1293 -1561 0
1597 4525 987 0
-565 -3829 4468 0
1241 2376 1675 0
3581 3913 3831 0
2756 -283 -2922 0
-1355 3996 2746 0
183 -2558 1594 0
2367 4955 4826 0
-3646 624 1087 0
3284 -2002 567 0
-66 4280 -747 0
119 -3475 -1952 0
-2148 -43 -94 0
2179 -2978 -3149 0
4729 -2936 -4869 0
846 -1414 1408 0
-1437 -2560 2642 0
-2963 1239 3936 0
-2191 3423 2149 0
-2738 3165 2331 0
-2967 1357 -2298 0
3810 -2484 -1690 0
-1637 -1924 -3953 0
-2931 -3516 431 0
820 1296 2595 0
1013 -201 1825 0
256 246 4685 0
2038 2990 -707 0
-4247 4231 -1406 0
4666 -1910 -3142 0
-4895 -2168 -3182 0
2838 3070 605 0
2578 4979 -328 0
1551 2429 1302 0
3046 3441 4520 0
-4838 -441 -887 0
-1925 -4289 391 0
-1432 -1503 1681 0
-3315 -2419 3572 0
2207 4110 -2561 0
4901 1875 1370 0
4656 -4222 -1832 0
-4481 4219 -4955 0
525 -3602 -122 0
-4372 -1537 -3808 0
-915 1381 -4909 0
1659 4700 -1235 0
1271 -2768 -3822 0
-3287 -931 -4097 0
-2113 3086 -4909 0
-4589 -552 -2925 0
3653 752 -2832 0
-3282 1574 2299 0
-1041 2360 711 0
-2942 1056 -24 0
1649 -2004 -641 0
-3443 4496 -3773 0
-1089 -2998 -4055 0
4578 -3996 -490 0
-1753 4133 -634 0
3627 -3094 -3838 0
962 311 -104 0
3049 -1994 -2153 0
-4038 -1529 -3409 0
-3322 3591 4560 0
-3269 2478 4523 0
3630 -3799 3804 0
4583 1101 -3601 0
-4547 -2092 4756 0
-4304 414 -3465 0
2868 -4787 1713 0
-2857 -1063 -4122 0
1789 -1435 80 0
2758 -2435 -989 0
-4428 4909 1465 0
1574 3847 1931 0
3707 -982 -3481 0
-1946 -3744 -1715 0
2725 4580 3915 0
684 -578 1013 0
3801 -4671 -448 0
536 4323 2552 0
-248 4982 -692 0
3746 2091 4606 0
-833 3857 4587 0
-3349 -1091 3809 0
4052 1405 -2670 0
292 -1132 -3231 0
-4486 4057 3382 0
4093 788 -3813 0
-4861 3215 -3793 0
4028 4752 -24 0
-3224 -1494 4607 0
-3138 4472 1925 0
-2498 -1747 -2009 0
844 3001 1491 0
-2159 -3657 3416 0
-2215 -2054 -3469 0
2776 2629 -1623 0
-3538 4294 1271 0
3443 -1202 -1547 0
1992 -725 -3700 0
-1603 4684 2132 0
2729 306 -4746 0
2078 2134 -3750 0
-1602 -1915 -4736 0
1263 -532 2779 0
4032 -3269 3738 0
344 300 -3923 0
-2761 3772 842 0
1583 -3770 -327 0
-771 3434 22 0
4650 543 4433 0
-4549 -144 -3646 0
-1012 -2076 24 0
2908 3874 -4977 0
-3926 -3817 4913 0
-4638 -632 2850 0
3292 -1628 -2522 0
-1644 -3451 -3174 0
-239 1804 -2945 0
4893 -4412 3693 0
-2162 178 1965 0
-3765 2453 1521 0
-1153 -4323 2082 0
-2267 4848 -3577 0
-2408 2467 4608 0
4866 -3776 -131 0
2104 -2692 2918 0
887 -368 -4260 0
2714 3083 3213 0
-4258 -1031 -2005 0
4234 1620 3540 0
4854 -569 -4952 0
-3207 4186 2363 0
-2327 3016 4445 0
-1367 -4296 1517 0
4258 -4629 -1758 0
-4825 388 2449 0
-4949 -3129 1457 0
-3609 945 413 0
310 822 3604 0
4158 -782 -1003 0
688 2900 -3703 0
1923 -3656 -1614 0
4065 -2550 441 0
-4533 718 -2238 0
1669 -4023 3339 0
3982 -1228 2943 0
2640 1513 -3983 0
4991 -3155 1718 0
1628 1185 -2050 0
2482 -1041 -3170 0
1812 160 315 0
-4344 -101 -693 0
-3564 -4174 2214 0
2555 2509 -952 0
-316 -876 12 0
-195 305 -4642 0
4867 3688 916 0
1198 2830 4028 0
-3496 -298 -1746 0
-4298 2466 -688 0
2178 3249 -646 0
-756 3942 -4273 0
1176 -82 -2697 0
-2178 1759 -1762 0
4755 4061 -3223 0
-2611 -3241 -2396 0
-2476 -2061 4303 0
-4993 4101 -4481 0
3840 3863 3882 0
-4732 -2261 -4830 0
816 -714 -1959 0
-3868 -2011 1097 0
-4236 148 2729 0
-2028 832 -4526 0
2014 -2959 1238 0
-3952 167 2908 0
4480 191 3452 0
-544 -2879 3758 0
-524 437 3564 0
-236 474 -2468 0
3441 4421 -2330 0
-4075 -1254 3981 0
1568 -2914 4330 0
-3723 1205 1090 0
4123 -482 1149 0
-1026 -3454 -223 0
-3858 -4706 -984 0
3299 -3321 -514 0
3767 -4731 -4515 0
3977 -1000 349 0
1284 -1684 3342 0
1265 3622 2965 0
-1114 70 -2683 0
-1687 4707 -3647 0
-4555 4994 3451 0
3915 -1237 -4106 0
-493 4109 3917 0
4594 4399 1032 0
4094 -1239 4220 0
640 -3012 -3095 0
-1731 3752 -4750 0
-415 4368 2491 0
-2808 -2502 657 0
3023 -1233 2400 0
-1993 -757 -960 0
1717 3293 4042 0
-4156 -3912 -4415 0
-4882 4938 -2406 0
2935 -2636 -1550 0
-2178 3510 -3610 0
-126 2010 -70 0
1087 -109 -4193 0
-2715 -1165 1491 0
3809 -2771 -85 0
1862 -2270 -1410 0
-1458 3278 3337 0
1896 -4149 -974 0
-3619 -1302 -2913 0
4368 1882 2807 0
-1962 1834 3721 0
3930 2782 -3488 0
2690 -1930 -1286 0
1631 2282 4657 0
423 -996 -1076 0
1593 2812 -4656 0
-4168 -2920 2870 0
-2014 -4394 -1371 0
-1544 2538 -1671 0
4140 -3717 4980 0
2860 649 2105 0
308 -3205 -2648 0
1968 -4312 1692 0
4570 -1937 -1863 0
1570 -4888 622 0
-241 4346 -2777 0
-11 775 -1384 0
1848 -4864 1831 0
-68 -518 837 0
4137 -3550 3250 0
1990 148 1725 0
-2736 259 4444 0
1993 1287 -3198 0
1444 -965 854 0
-108 -4346 3471 0
-70 -1645 630 0
1309 1328 -321 0
1786 -3420 -2048 0
-3378 -778 1511 0
4740 -1076 -112 0
-1326 1267 -1884 0
-4663 -366 -2678 0
-2869 -4686 1403 0
-934 -4612 -4027 0
2042 -2325 -4484 0
4614 -1495 -1611 0
-4087 -131 3543 0
-2359 645 -810 0
3182 -4232 -1185 0
-396 -477 2235 0
-1773 -639 -3787 0
4385 -3323 1476 0
-1132 -283 -1917 0
-4887 -3159 4492 0
2927 2695 3752 0
-1434 4877 -4227 0
-3309 919 920 0
2442 347 -4086 0
-4862 3597 3998 0
-3427 -3 4482 0
2435 -3852 -2888 0
-841 2143 -2858 0
2599 2650 -2320 0
2436 1978 -3515 0
1056 3971 -246 0
1076 -4872 1207 0
-3784 4513 3698 0
-3189 2308 4400 0
-2749 -937 -4717 0
-451 2228 -2645 0
3709 -3665 3909 0
-4877 4471 838 0
-1890 2727 2923 0
4470 2018 -2666 0
1731 100 -1218 0
-4213 -2772 -4157 0
1923 1474 -2790 0
2583 3177 -269 0
-2047 -957 -2188 0
4826 4196 350 0
-3659 -3848 -3341 0
4677 -4430 -3360 0
2310 -3569 -2339 0
-2271 3883 273 0
-2587 -2296 -687 0
-3391 -2351 -1984 0
3446 2120 3742 0
4739 -1747 -857 0
-4984 -4923 -536 0
-4151 -3628 -2247 0
2213 -4882 1730 0
2651 2927 771 0
4666 -3640 4441 0
1766 4905 -542 0
-2710 -1423 -6 0
-4235 -3446 3312 0
911 3834 -3066 0
3305 -1812 -4092 0
-2890 -4606 -1510 0
-3002 811 3736 0
1820 3540 2968 0
1744 -1539 -3780 0
204 -3602 2926 0
-1287 -3592 -1248 0
-3472 -1248 351 0
4920 -1661 2201 0
360 -1871 3043 0
-3863 -4699 -1640 0
3519 -99 2074 0
-4936 -1281 3042 0
-500 -3312 3766 0
-1017 1041 4602 0
-3948 -2193 2258 0
4390 -2375 3340 0
-3465 2311 2510 0
1191 -1690 -3142 0
-88 3026 -4049 0
-435 -3860 -1049 0
-2293 2921 1050 0
-3488 1466 -3143 0
1762 -179 -2333 0
4069 -2692 2376 0
-158 208 -2580 0
2521 -195 -4235 0
2986 -2023 -2214 0
-2184 4970 -2402 0
-3564 3575 -282 0
4982 4148 2070 0
-2622 -2490 928 0
1792 -505 3226 0
2564 -488 592 0
4188 -1382 1466 0
-988 2212 -517 0
2751 1465 -428 0
-670 -2350 2867 0
4993 -4274 3058 0
-2205 -753 -3569 0
-2221 -4299 4890 0
1981 -4841 -749 0
357 4033 3520 0
-1480 2657 1221 0
-2646 2167 -4234 0
3779 4813 1102 0
-2516 -3993 -4000 0
4072 -2927 3548 0
1410 -2054 2619 0
-1560 -4327 4254 0
1914 -19 2044 0
1918 -4530 3629 0
4914 -1956 3205 0
-454 -1927 4069 0
1762 -2945 -325 0
-2921 -4451 -467 0
421 -1685 4125 0
-4880 3235 2413 0
4168 3961 -1692 0
494 1768 -419 0
-2380 -82 2247 0
664 -4390 4639 0
-354 3320 -2077 0
-4552 -1092 3532 0
229 4368 1455 0
-105 1498 -334 0
-2929 3208 -2917 0
607 -4177 -2339 0
-1663 -2750 3626 0
533 2265 -935 0
-1992 3278 1947 0
-3317 -656 3557 0
-3716 963 4968 0
1223 1560 -3539 0
3402 -1040 -3643 0
859 1184 1527 0
4124 -2919 1847 0
1697 836 -4772 0
83 -2105 2439 0
-3196 -722 -1622 0
4476 128 -1235 0
3392 -713 3285 0
1035 125 4016 0
1141 -1855 2142 0
-1435 -3088 -3450 0
3301 1155 -1435 0
2451 2370 2146 0
249 -4275 -1419 0
-2171 643 1229 0
-4456 4260 -1059 0
-2274 3748 -2826 0
-2106 3443 1471 0
-2710 -1377 -1553 0
-2534 -2776 -312 0
-894 -4454 -1287 0
3164 3845 -2774 0
4957 1545 -499 0
-3537 -3442 748 0
-3350 -1001 -2593 0
-2692 2167 4040 0
417 368 3235 0
581 2868 -3537 0
2159 -1939 -2054 0
676 -2036 -1400 0
2412 1008 2080 0
1654 -1780 -1262 0
-781 -2002 4858 0
-2797 4849 4337 0
-3611 1092 -1988 0
870 1999 548 0
2994 -2400 4135 0
2661 -4942 1900 0
-2409 605 -2326 0
-675 3286 -2486 0
2384 -3009 2060 0
-941 -1452 -1416 0
-2023 2951 2796 0
-491 -3538 -84 0
2079 -4564 -40 0
-1732 -2390 4279 0
-2408 2159 1545 0
4115 3887 2669 0
-1370 947 4998 0
-834 1497 1156 0
-2338 -1330 -4605 0
-4195 2652 3382 0
4756 4986 -2518 0
-1869 1550 1424 0
-2719 223 4241 0
-4179 -3173 -4266 0
-1536 -2870 4773 0
1481 2204 4094 0
-1264 4535 2129 0
3309 4389 -4606 0
-2662 3513 -945 0
-2837 -4004 675 0
1731 -218 -946 0
1636 2802 15 0
-4771 -99 -2808 0
3760 -1120 2785 0
2854 3361 1148 0
75 861 -2285 0
-3285 -4016 -1708 0
-3857 -890 2292 0
-4855 -2879 -783 0
-2419 3092 -6 0
1475 232 -3203 0
-1459 -4815 4775 0
-3771 1398 -168 0
-2360 2411 -2844 0
4735 4616 -773 0
-4604 2942 -346 0
1134 -3858 1963 0
-252 3514 -3464 0
1549 -4621 555 0
-1354 1032 1017 0
3748 -890 3624 0
-2672 -1693 -1121 0
-3959 4903 2987 0
-1184 3888 1556 0
-3701 4529 -1948 0
2860 -2206 -3417 0
-4934 -4780 3118 0
2207 -1346 -3425 0
-1717 2557 -1055 0
-2513 -175 -3826 0
1576 -3639 -4951 0
3943 -4870 3110 0
3900 -1770 2568 0
2710 -1126 3565 0
2039 963 2565 0
-1618 -4450 -3834 0
-2068 1597 -2277 0
-1258 -4137 597 0
-4509 4952 4589 0
4789 4076 2624 0
4328 1373 -3471 0
-3397 -4599 2379 0
-2151 1811 -525 0
-731 -1862 1269 0
-3525 -3745 2195 0
-2338 1270 780 0
-1774 -4551 -3110 0
1440 -4331 1037 0
-684 -3868 -3850 0
-3033 3146 1839 0
466 -409 4427 0
-2837 1780 -4614 0
-4478 -317 2035 0
19 2505 -2568 0
-3464 -795 968 0
-2498 -4354 -245 0
670 2202 -2415 0
-1845 -1167 -3009 0
-2718 3113 -2074 0
3845 -501 -1497 0
-4455 -3113 -4084 0
1704 1108 -4698 0
-1243 -4753 -3161 0
-843 -1663 -4024 0
273 222 2847 0
-3593 -738 -4179 0
-2426 -2769 2280 0
2559 2937 4890 0
599 -592 2505 0
925 3706 2979 0
-3682 -1533 1037 0
-3867 2654 2307 0
-1390 1404 -455 0
1987 -3378 3236 0
-4978 1671 -3924 0
3760 1558 -2892 0
1121 579 3153 0
4706 -3672 1780 0
81 3666 -1612 0
-3396 522 2501 0
2275 -1998 2359 0
1496 -2554 1131 0
3635 -4348 1629 0
-4288 -2417 806 0
-3117 -4257 -2175 0
117 4326 -3876 0
-1236 -3340 -3358 0
1588 -522 -3076 0
2694 -3032 -3880 0
4501 2124 2645 0
4427 3718 1332 0
-4017 -1015 -4707 0
-2533 -9 -4366 0
-476 -3896 1180 0
2266 3540 -3323 0
710 -1020 2760 0
-338 -952 -1489 0
920 -4142 2806 0
-4684 -2529 564 0
-2804 -3520 3548 0
99 -2715 -3558 0
-1301 -3426 -4115 0
-3177 1598 4597 0
4206 2735 -3494 0
1935 -289 4394 0
-3629 -4773 -4774 0
4015 -360 29 0
-1578 1018 1411 0
-905 -3707 -4771 0
420 -4560 1971 0
-1766 -1378 -4621 0
-3145 -3082 -3754 0
2939 497 3115 0
-423 -3878 -705 0
-1357 -1850 -112 0
-3740 -4672 -107 0
-820 4096 2881 0
-4249 -4206 1054 0
-1267 -1734 4513 0
-3355 -2477 2978 0
-4690 3125 665 0
2332 -505 -1668 0
-3271 -460 1732 0
3373 -4761 -4762 0
1334 4038 4070 0
1239 -4258 -4126 0
11 2867 -4787 0
1175 1058 4537 0
2098 -4806 -1762 0
2063 1676 -2650 0
281 85 3004 0
2467 4902 -1041 0
-2364 192 -4946 0
-2105 -3628 283 0
1187 3387 422 0
1236 -3354 369 0
515 -1304 -1207 0
2821 4546 3472 0
-4116 1298 -3867 0
-2542 2143 2278 0
-4894 -1475 -1145 0
3107 -3076 2468 0
1892 149 2650 0
4047 -47 -1376 0
3173 1674 -3939 0
855 -2629 351 0
785 2927 4754 0
4288 4449 4299 0
4666 -175 -741 0
4471 -1106 -362 0
-4435 3600 4424 0
652 898 595 0
3861 -382 -1572 0
3687 -1173 3323 0
459 -3792 -4702 0
-3164 2078 -83 0
-2491 -4855 1778 0
1981 -119 -573 0
2125 3357 -4011 0
-4013 -4848 2283 0
297 -3648 3624 0
-4608 -3141 4244 0
3413 4989 347 0
1151 -1964 -3978 0
-1457 4514 -4205 0
-4293 -1895 4209 0
2009 -3835 3991 0
2784 -3046 3537 0
-4220 -261 980 0
4227 1030 4540 0
1372 -909 -3069 0
-420 -3317 -1422 0
3264 -2482 -1 0
1947 1082 3349 0
-221 -3326 -3688 0
-2842 3621 179 0
1595 239 -4822 0
-2769 2741 396 0
540 2546 1758 0
3932 1885 -3909 0
3772 -4876 -3139 0
307 -4373 -3985 0
-4800 991 2655 0
135 -2290 -2924 0
118 1609 1796 0
-108 -292 -1563 0
-1541 998 -4133 0
3634 717 1373 0
4630 908 447 0
-1208 4238 -3394 0
-2349 2121 3489 0
-2696 995 4237 0
-2024 -437 2057 0
-3675 217 2872 0
2590 -4624 -4327 0
2985 4128 -541 0
4760 4495 -1847 0
2804 -389 -4990 0
-2392 153 -44 0
3477 -4171 -3453 0
693 -1035 3983 0
4351 3672 2302 0
-2692 2128 1879 0
292 1634 -3899 0
-191 -3799 -1868 0
-414 -793 2571 0
-4411 4898 -1458 0
680 -1610 -4808 0
-2143 2518 -1294 0
-2878 3594 -392 0
-4699 -2785 -1088 0
-1801 2765 3621 0
-3988 -2981 -424 0
-1991 1066 1287 0
987 -2920 3530 0
2099 4104 -4971 0
-1262 -460 -4017 0
4694 3802 -981 0
-4002 3222 -4987 0
-1608 -3393 3627 0
-2473 -2883 3003 0
-11 -1474 3680 0
-316 646 2293 0
-645 -3489 -1425 0
-1492 728 1103 0
-3945 3590 2958 0
-4503 2216 -1570 0
4680 -1298 1889 0
4638 4360 2580 0
-4391 938 -2831 0
-268 -2013 -2713 0
-3745 3969 -2000 0
-4773 3068 -4478 0
-528 -3732 -3886 0
-3448 -4445 -3539 0
3246 1022 -1057 0
-2884 -1347 -799 0
-2425 1697 -228 0
-4921 3625 1725 0
2878 -891 -958 0
-1244 -4666 -417 0
2098 2131 2950 0
-2249 -715 -629 0
-345 3479 -386 0
1652 1605 3154 0
-3676 2966 3477 0
-4471 268 4995 0
1363 4189 1986 0
3326 -319 -1582 0
4152 2859 1050 0
-2990 -225 2813 0
4035 3060 2410 0
4909 4606 -3030 0
-4587 -1105 -48 0
-2504 -3036 3293 0
2658 4036 1849 0
27 2819 -4775 0
-1372 -4967 3454 0
4210 234 -3196 0
-2179 4253 4436 0
4511 -2787 -3364 0
-353 1401 3489 0
-1161 3112 3948 0
3974 616 -1157 0
3077 -1801 -3345 0
-2470 -3246 4373 0
2074 -2712 -2445 0
732 -2144 1100 0
-2600 -1940 -2698 0
3305 -4530 434 0
-1254 3994 -3803 0
3363 2745 -3777 0
-3786 -4989 -375 0
4696 -787 -3781 0
2289 -4996 697 0
4472 -490 -4463 0
-2165 2174 2843 0
-4842 1947 2644 0
3504 -3446 -2787 0
-3065 404 4362 0
-421 4300 -3547 0
-4230 332 -1609 0
-384 3933 -1313 0
-192 -476 15 0
2073 1371 -923 0
-4421 -3451 -2570 0
3281 -1765 1907 0
4177 -2456 -1764 0
89 -3598 -1929 0
-605 -4852 -1496 0
4641 720 2848 0
-2236 -4367 -2580 0
-684 2987 -421 0
3397 101 2253 0
2444 -4900 4821 0
-4497 1481 477 0
-1170 338 2501 0
-3361 912 4679 0
255 3909 -749 0
-880 3177 788 0
-2612 1512 4309 0
-3287 -2494 -2067 0
4492 4384 -4751 0
-604 -4457 1628 0
-4280 -3054 3222 0
-2980 2626 1184 0
-2700 3878 3110 0
-2681 -100 -4777 0
2954 3516 -830 0
-382 4691 -723 0
-3823 -1926 -4895 0
-2631 2778 -2615 0
3266 -2940 -4293 0
-4673 804 -2603 0
-4468 1665 -839 0
3171 -323 -4439 0
-3952 1783 -3794 0
-4627 -1344 1137 0
-3835 -3610 4299 0
2339 995 -4571 0
-2808 -4658 -1419 0
625 -4557 4124 0
493 3365 2738 0
1124 -1223 3204 0
-988 -1550 -806 0
2043 945 3115 0
1435 1407 -1017 0
-333 -173 -755 0
-1693 1000 -345 0
-2071 105 3837 0
-2991 1060 -3282 0
2362 -1892 3791 0
1871 -465 3705 0
-1168 3151 612 0
2645 -405 188 0
-4481 863 -4573 0
4850 -4399 -2122 0
4555 4713 2055 0
3871 326 2828 0
-4547 -4014 2072 0
-3186 1930 -1885 0
2130 -4249 -4337 0
2038 -4966 2767 0
-1922 -4338 1516 0
3118 -2326 -2817 0
-1886 -216 1642 0
751 -1308 4032 0
-802 -2126 221 0
1849 1564 -2163 0
301 -2292 -3341 0
2231 -2894 -2515 0
3473 3114 196 0
4131 -2031 4419 0
-1013 -4795 2676 0
-1994 -1751 -1582 0
1957 -3996 3002 0
-4545 3878 500 0
512 -205 2608 0
-4575 -1320 4285 0
-2142 -316 2080 0
-3594 3661 -3310 0
4445 4075 1628 0
-3893 -4339 3891 0
2781 1449 -727 0
-4410 3685 3771 0
386 -1369 2635 0
292 3908 -2407 0
-1071 2487 -3282 0
-2945 -344 -1546 0
-1026 -936 4103 0
1806 -2588 303 0
-179 -3640 -4223 0
2079 -1610 4093 0
-2238 -3517 -671 0
3335 -2789 3989 0
3261 -222 -1329 0
4351 -3463 2036 0
2344 -1745 2828 0
-2233 -92 -1689 0
-1843 -1415 730 0
2898 2762 -1384 0
4934 -3142 483 0
-2329 -3823 -4046 0
-923 2763 4714 0
4507 -382 -2747 0
-3901 -277 4068 0
4310 -4203 -3450 0
-169 2085 -817 0
3844 -4500 -2956 0
-3991 2516 -3294 0
-2283 1676 2022 0
1934 -4783 -1024 0
-3357 2580 954 0
2501 -1052 -1642 0
-2940 -3637 1158 0
1057 283 -1027 0
-39 2923 -1089 0
-1202 -4873 3738 0
386 -3765 -4181 0
4903 2118 1755 0
-1526 -1758 -2180 0
-2227 -4740 -2922 0
4115 -3240 -2265 0
-1420 4768 2090 0
2112 4803 175 0
816 3612 2769 0
-4297 916 -4883 0
974 1883 2010 0
-639 702 4492 0
-668 -4581 233 0
4162 -4382 -638 0
4724 -4011 -2904 0
62 -1494 -2025 0
-2764 -2829 -153 0
2360 -3932 -3248 0
1690 -3978 -2950 0
4615 -249 2610 0
-4745 -337 969 0
3051 2147 -2785 0
-3278 83 -1342 0
695 4631 -270 0
1654 3188 1632 0
-3740 218 2333 0
-287 4363 1178 0
-1650 -4561 -109 0
-2271 3179 4572 0
-2311 4107 -3042 0
-2836 2587 2528 0
1162 -3922 3730 0
-3191 -2594 4555 0
-4866 1905 -2206 0
-1919 -4959 -691 0
86 -4927 3917 0
-2495 -4368 1727 0
-905 4280 3583 0
-2121 -1034 -661 0
-3197 36 -2648 0
4062 -566 -3243 0
-1039 -1289 2361 0
-3043 735 4227 0
-1688 -4887 -781 0
-738 2597 3262 0
-2002 913 1328 0
-2040 -2251 -4800 0
596 -1319 -745 0
2330 -4089 2240 0
4168 2603 2852 0
-3203 3217 -1744 0
-333 -1769 -1384 0
1439 2490 -798 0
490 4188 -2902 0
1119 3021 630 0
293 1180 -3894 0
422 2601 411 0
-1155 270 111 0
1641 4866 1760 0
-2012 -1689 -917 0
-1892 -3240 -1100 0
-35 -2643 3595 0
4964 4240 -360 0
-4636 -1357 -985 0
2507 -4855 1812 0
-897 3207 -2472 0
-2520 3988 -2435 0
3182 -4415 -3858 0
-820 4837 -2048 0
4433 -2195 -2987 0
4545 -4586 -4744 0
1591 -2545 -3493 0
-3883 3809 2594 0
-2859 1895 1484 0
3441 -2210 -1670 0
-1121 3792 4046 0
-2170 3182 -2021 0
1458 307 1346 0
-2145 2793 534 0
3172 -3042 -3756 0
-360 3928 2093 0
4887 2701 -2175 0
-4027 -2115 -977 0
-4790 -3223 3969 0
641 1107 3823 0
-4920 3053 2839 0
1584 -1262 -4761 0
-3639 32 1651 0
1546 4918 4618 0
4595 -854 3383 0
-1802 -1924 -3806 0
-318 -3259 -2518 0
-1682 1634 -1190 0
-1300 3920 4567 0
-1660 2210 -3874 0
-4705 2777 1709 0
-976 -267 375 0
3798 4093 -301 0
2596 2422 -1154 0
1390 4758 1971 0
-1381 -1584 1643 0
140 -2942 -4431 0
-4575 3944 -2166 0
4564 4343 2246 0
2161 -2507 -663 0
929 -880 -1031 0
-4448 1899 387 0
1117 -1289 -2276 0
-4351 -1762 -695 0
-2444 -4297 3665 0
68 -1270 -2468 0
-1128 -800 2999 0
-3987 -3792 -2535 0
4954 -3934 -4325 0
-216 3435 -2208 0
-2641 4028 -3195 0
4344 -1260 -361 0
-671 -1986 -1147 0
-1627 -4453 1644 0
3801 1222 -4539 0
2965 1912 1261 0
-1085 2072 -796 0
69 -3165 3161 0
-4122 3759 -2138 0
1693 2978 2047 0
601 -2407 -1012 0
-2670 1777 4498 0
1585 -1198 -1171 0
373 3366 4231 0
1248 -1311 3867 0
2778 2472 2300 0
-268 -2997 4093 0
2518 -319 2212 0
2403 4806 2861 0
920 -1059 2652 0
3041 -4917 -4346 0
-32 3650 -2438 0
-615 3971 57 0
-1284 570 2992 0
3701 3251 -4218 0
-1070 3680 4283 0
-4791 4913 3375 0
2792 2252 -2564 0
-4236 -4128 -129 0
2550 -2840 867 0
-1315 4430 -1566 0
-1720 -2602 -1695 0
4290 1054 3617 0
-1099 363 2189 0
989 398 1638 0
-4125 4276 -4294 0
-3245 -4214 -3927 0
3907 4134 2559 0
39 666 -832 0
631 4388 -1294 0
-2798 1588 -4575 0
-4027 -4209 2199 0
-158 3421 -4499 0
-4258 -4996 -4616 0
-639 3324 2244 0
3432 -4079 3123 0
3103 1640 4807 0
4674 350 -1613 0
4103 -544 -878 0
-4653 2014 1878 0
4127 1262 2963 0
4193 -3284 3460 0
-1386 -4479 -3532 0
-3259 -1191 2945 0
-2850 4645 -58 0
-292 -3309 -4269 0
-3908 -1557 -3707 0
4629 1064 4516 0
-3612 -4774 -3991 0
-138 456 1653 0
3032 1313 -4764 0
4619 -3237 -1612 0
-4249 3199 3011 0
190 -369 -3697 0
2024 -2655 -1698 0
874 1482 744 0
1883 -2058 -2991 0
4601 3870 2474 0
-1775 3617 3287 0
-995 2222 4809 0
-3562 -3006 2480 0
-3887 3798 1175 0
-4280 -942 -4896 0
219 -250 -3147 0
-4175 -3940 -621 0
655 1978 29 0
-2038 2688 -1951 0
-119 -3240 -3746 0
-2156 -349 -2078 0
29 4822 352 0
-3796 -1897 1444 0
4510 -4315 -3115 0
4549 1378 2442 0
2598 2936 -2693 0
4915 -1863 3164 0
2536 1458 3433 0
4760 -4895 4385 0
-4207 975 3643 0
4182 -1891 -4278 0
-4487 1608 -3218 0
-2576 -1816 -1658 0
-1802 -3414 -1434 0
4184 4181 -1912 0
4496 -2114 -3225 0
3260 1500 -4430 0
-4099 -1317 -4400 0
126 2417 -99 0
4617 -4045 728 0
2081 4141 556 0
-4045 1854 1334 0
-4152 -3428 1122 0
-3206 -4802 -3713 0
3849 843 -4724 0
-4360 -1401 3951 0
-572 -4149 -834 0
2390 -4409 4864 0
-3087 -2227 2359 0
-4207 1106 1475 0
1481 1874 1199 0
-1954 -265 -1757 0
-1030 -1147 -1923 0
-352 4274 -703 0
3681 -1564 648 0
1087 102 -3440 0
945 -130 -316 0
-3312 2937 -1778 0
4070 -2671 -3540 0
-3009 2616 -4792 0
-4159 -196 -2312 0
-3449 -3791 -1914 0
-3550 -2286 -628 0
-3689 -4077 -4204 0
-1753 -4806 -1529 0
-1482 -2583 -3932 0
1040 220 3420 0
4519 -2184 -4751 0
2127 -4921 -4000 0
610 3057 2157 0
-2920 448 3359 0
3891 648 461 0
251 272 -3769 0
2514 -3586 -327 0
-4858 -4616 -5000 0
-4125 279 787 0
2383 -3115 4897 0
3780 2 363 0
-4661 -402 -1502 0
4145 -4625 2063 0
4429 1455 4488 0
3494 -1936 -2586 0
1795 1326 -3665 0
-918 2430 -2531 0
-3235 -4787 635 0
4665 -406 -3388 0
-2145 -1468 899 0
3070 -4126 -3245 0
3103 -3072 -1735 0
-1272 2532 1896 0
3481 4876 2544 0
-4601 2129 -554 0
414 -816 4273 0
-5 2176 -3173 0
3829 377 -4477 0
4220 4245 -3439 0
2619 4340 4558 0
-680 -702 -824 0
-3388 2556 4446 0
-968 3185 1642 0
-2961 4630 4097 0
3194 501 -3389 0
-982 1888 2767 0
4355 -2328 2654 0
-2270 -1230 4432 0
3210 4044 -1707 0
-999 1292 -1279 0
975 -2345 -2434 0
-2147 -1868 720 0
-1803 -1578 3463 0
-68 -1478 -2502 0
650 4216 -55 0
4145 -2143 -970 0
-2830 -3093 -883 0
716 3016 1717 0
861 2178 -2333 0
-6 241 3845 0
-3269 -1382 4133 0
310 -2964 628 0
-2502 -4799 -4842 0
-260 1855 -3621 0
-4640 -4115 -2029 0
-575 4643 3721 0
-2853 3658 2885 0
186 -4068 1196 0
3835 -2114 2542 0
-4227 3199 3275 0
4417 -1806 -1164 0
716 1132 1619 0
-4189 -4088 4174 0
1041 4782 2821 0
3795 4509 -4126 0
544 -3858 -4407 0
-868 -3060 51 0
2085 -2282 1312 0
-113 2196 1837 0
-1100 4196 3505 0
698 -4684 4281 0
1428 -3961 114 0
-1655 2793 2166 0
3674 -933 -1229 0
-1639 4893 683 0
4975 1621 1602 0
-4709 -1386 -796 0
-2177 1856 2880 0
-2649 -1850 2024 0
4951 2270 4528 0
-3942 1184 -4700 0
-955 -4321 1566 0
-2738 -2185 3631 0
-836 2881 3933 0
-2244 2069 1515 0
2864 4992 4822 0
-2157 4753 -2815 0
-4728 2602 -2149 0
-4784 -634 -3210 0
2719 -2079 -4938 0
-1277 -1271 2488 0
2719 -2492 2839 0
-4694 -3623 4395 0
4890 -1170 4437 0
2639 -1480 3092 0
-3443 -1992 1256 0
2675 17 2165 0
2104 -380 -1776 0
1236 -1441 3014 0
4257 -767 -3769 0
-1253 -4663 3111 0
-1040 653 3097 0
2292 4589 -3051 0
4623 3823 -3533 0
-4164 -1657 2133 0
-2096 313 4668 0
3648 2860 -3683 0
-4628 -1149 3776 0
-1243 -1046 -3680 0
2239 -1193 -960 0
2816 -2504 3708 0
-1088 -4452 602 0
-1406 -672 -3081 0
1009 -3336 -150 0
1935 2645 4875 0
-4760 2801 -2621 0
-3084 -256 3212 0
-1094 -118 2220 0
1130 1938 4833 0
531 -1668 903 0
-4509 -3142 -872 0
-258 4598 636 0
-4981 1213 4998 0
-2572 2582 -923 0
-1256 4396 -3728 0
1086 4266 4802 0
3459 2129 355 0
-2415 1695 2145 0
1275 4106 1236 0
-2507 -1534 -3514 0
3824 -3419 -1142 0
291 -946 4021 0
3905 -949 2431 0
-2633 3852 3100 0
-2112 -1308 2503 0
-1959 83 -2428 0
-901 -4904 -974 0
4898 -2518 -1070 0
2778 4889 2638 0
615 -4403 3505 0
-356 -1308 -3388 0
-1956 -418 -151 0
1709 3833 119 0
4277 85 4342 0
4350 2088 896 0
4859 1891 -3467 0
3661 -278 530 0
-2176 -904 1628 0
-2742 -4269 4813 0
4039 -55 -4168 0
-3335 4970 -1052 0
418 -1434 1203 0
4074 172 415 0
940 289 2767 0
-4241 -461 -859 0
1193 4040 4290 0
3988 -2486 4501 0
-695 3284 -3100 0
4663 -3164 1447 0
4776 3497 1726 0
-1071 -1567 3729 0
3577 -3817 2774 0
1860 4767 -4523 0
-1910 -3171 2298 0
-1255 100 -658 0
1002 -3644 -3578 0
-1710 3697 2237 0
-2950 254 1734 0
3942 3571 -1392 0
4545 4420 3000 0
-210 2205 413 0
4474 3435 -3070 0
-2732 -3120 -1509 0
4599 3599 762 0
-280 1499 -4976 0
2453 -767 -1175 0
1982 -4960 4702 0
1373 3333 4010 0
3065 -4626 -848 0
-1463 -4420 3722 0
4495 2313 480 0
-1105 -4267 -1183 0
-3801 322 4073 0
4047 758 2759 0
718 -3286 -4390 0
-1828 -479 4636 0
1835 2291 -430 0
-212 1649 536 0
-1519 -180 3822 0
-4823 68 3976 0
-4059 -4399 3114 0
501 -3800 -2545 0
-3515 -2563 2098 0
-1411 4598 -1739 0
2067 -4395 1795 0
-2229 4648 783 0
3139 4707 -1950 0
-449 -1564 -2987 0
-1090 -2206 -2037 0
4782 4091 3307 0
-43 2111 2027 0
-785 3799 -2276 0
-3269 4930 -2375 0
4500 2842 1260 0
3974 3497 4603 0
-1234 -3861 -2151 0
1554 -3209 -4179 0
-3787 -3464 2685 0
664 -1266 854 0
4410 -2144 4559 0
1488 176 1966 0
3706 4507 1278 0
3209 -1936 2146 0
-340 3907 -2301 0
1770 2963 4212 0
-4061 -1091 339 0
-798 4222 -4531 0
2904 -4117 -104 0
-2354 -370 -1602 0
-1545 1184 1600 0
-2024 -3655 -2861 0
1789 -2032 601 0
-655 -1325 2019 0
-4046 -3663 -2376 0
3930 3210 555 0
3251 4892 -3917 0
544 2888 -4928 0
-117 2361 -2704 0
280 3403 -959 0
642 4796 -263 0
352 941 -349 0
3537 -1004 2332 0
-244 -3359 -2962 0
4129 3932 1914 0
4783 4479 -3270 0
1450 1622 4341 0
3574 2615 -3678 0
-3184 199 -83 0
86 -3841 906 0
4651 3648 -2384 0
2171 -2585 -796 0
1205 -1408 1809 0
-1694 756 -2689 0
-2907 4038 -2114 0
4537 -690 609 0
2770 3762 3259 0
-1566 -4741 1585 0
-4165 4059 4535 0
3716 -4360 -412 0
612 4115 -1341 0
-939 2266 2485 0
2513 -3046 -4936 0
-1598 -3210 -1298 0
4238 1293 -4903 0
4680 -3650 915 0
16 -501 400 0
-4123 3816 2722 0
2286 -2206 3194 0
3000 -4566 -2245 0
-4160 3484 -3696 0
-2504 3357 -3438 0
-1066 -3157 -278 0
-3409 676 422 0
-3811 -2704 -4519 0
4172 2552 4784 0
-4816 -468 473 0
3341 -972 -3638 0
4816 319 -1590 0
-1203 2952 2713 0
4308 -956 618 0
-2701 3698 -335 0
-1820 -1010 -3260 0
-1075 -4733 -3752 0
-2289 -1541 2067 0
-2272 3816 2303 0
-48 -3501 -39 0
2179 2447 -914 0
-2680 -1277 2993 0
317 -165 2871 0
-4275 4358 -136 0
4341 -4480 -1197 0
3737 4731 -2810 0
-1983 3629 -2984 0
-4859 -985 4790 0
-2700 -4487 3657 0
4599 3604 -4265 0
3811 -1903 4506 0
-1116 236 -2421 0
-3407 -697 3478 0
-540 -3743 1205 0
-1911 3661 878 0
-4588 -4954 -1189 0
-1342 2771 -1581 0
-2639 -132 -1257 0
-870 2741 2270 0
4447 984 2543 0
-3446 4575 -2036 0
-1424 41 -1109 0
-3844 2112 -4162 0
3291 -1451 1830 0
-584 3867 -4365 0
-4214 -553 -13 0
4325 -1349 -445 0
2345 219 3557 0
2893 -2703 -4769 0
2212 -4928 -1842 0
91 3757 2179 0
2714 4948 -1612 0
-4530 4014 -2479 0
-639 -3037 -4435 0
-4113 -4887 2700 0
2950 -2364 -1501 0
-24 -118 2484 0
-3848 -2854 -507 0
-260 2903 -1363 0
-4878 4340 3120 0
3543 1516 2048 0
-210 -2175 -1340 0
221 2358 2657 0
2547 -1500 -4192 0
925 675 -3677 0
-1120 3236 -1552 0
-3533 -2321 -4297 0
1965 -517 3999 0
2811 2643 3012 0
-346 2291 1985 0
-960 4593 -4556 0
-1508 251 -71 0
-3864 844 2162 0
1161 3289 3729 0
-889 -365 1549 0
4327 -3435 -1368 0
4838 -4663 4177 0
-1966 2501 -1831 0
4612 -4167 -3935 0
3456 1952 1090 0
-3035 1724 -899 0
-909 1362 3812 0
331 867 -893 0
-1056 -560 -3520 0
-898 -616 1965 0
-3900 -3902 3002 0
3887 3426 2891 0
372 -4268 4050 0
3643 -4492 1975 0
1663 -4743 1002 0
2855 -2154 3046 0
-1769 -1543 -2785 0
3855 -3587 4893 0
289 3729 3890 0
-895 -1990 -3479 0
-4598 1885 185 0
-273 109 -1255 0
2395 2744 -3655 0
4423 2923 -1195 0
328 -2273 1671 0
-799 2050 874 0
-1596 1288 -4290 0
-4473 -2976 -3069 0
148 -1944 2470 0
-1428 -4529 3559 0
3753 2933 -4477 0
-4550 4787 -1320 0
-4589 521 1133 0
-3774 4598 4025 0
832 -3471 -332 0
-3018 1755 -2252 0
3025 4369 -3110 0
665 -1586 3339 0
3680 -4462 -3778 0
-780 -2419 2452 0
-1670 3617 -3690 0
3019 -4536 -1547 0
4369 -3944 -423 0
4433 -4886 4108 0
-23 2823 1605 0
-269 2446 -2116 0
-1132 -607 3002 0
4167 -3388 4413 0
-3398 -4597 3701 0
-2701 -2915 -2950 0
-3735 -1362 1398 0
-4270 1568 1340 0
-3747 2591 4672 0
2441 75 4009 0
-4133 -891 2965 0
-3523 780 -2423 0
-3663 -351 2342 0
-1256 4933 4123 0
-3084 3803 4153 0
2481 4887 -4174 0
-473 2218 -1898 0
1263 4704 1523 0
2428 -3897 2345 0
-4012 -3360 -1871 0
-1808 -4743 -3279 0
-333 -3162 -2891 0
598 4455 -2413 0
-871 -995 3067 0
-2047 1761 4646 0
-4666 3358 1601 0
2463 -2525 3160 0
2559 -501 236 0
4434 -3605 -1223 0
4312 -4820 -1775 0
4878 1291 -221 0
-2388 -3548 -3639 0
-1715 -835 -448 0
-4660 3733 4808 0
-4495 -1572 -1351 0
-4233 -2264 -3261 0
2102 -4191 820 0
-3248 -4947 719 0
-4282 3698 582 0
-4037 -4433 1591 0
2782 853 4577 0
2873 4364 1304 0
3763 -361 2715 0
1636 -4763 -773 0
3918 618 4466 0
3862 -795 -1250 0
2221 -3241 4066 0
2927 3186 -4590 0
-211 -1280 -2863 0
3641 -1709 2397 0
4526 -3672 4870 0
571 4931 708 0
3529 566 -1578 0
-2164 -4756 -3963 0
2674 4700 505 0
-25 2056 -3436 0
-3013 577 -1473 0
1573 -309 -570 0
421 317 727 0
3812 -3478 -2877 0
443 -3274 -1754 0
-4831 -4966 -1067 0
510 4053 -2688 0
4673 -2464 -4295 0
-1536 2460 4037 0
-3809 -1705 -2806 0
1522 -1884 -3312 0
941 -4660 983 0
2415 -2711 200 0
-4067 -345 2154 0
309 -3402 -3223 0
3626 -1518 -1196 0
-4553 -384 -3788 0
-1033 -3828 -4641 0
-1384 1599 3030 0
-4625 1367 -1237 0
3997 -2952 4765 0
3814 -182 -4261 0
618 -396 404 0
-2896 4193 1368 0
-131 2992 -1256 0
-502 -1874 -3328 0
-1183 -2895 -1825 0
1135 434 4926 0
-3655 3498 -2825 0
-2119 -3664 3603 0
1413 1441 -1879 0
-3454 -4094 397 0
-547 1257 -4940 0
3032 -29 1344 0
1973 -4191 742 0
3304 -328 -4913 0
1139 -3669 -1606 0
1562 622 393 0
-1609 -3669 3136 0
1004 161 3043 0
3741 2898 -62 0
-2347 -804 -3841 0
-2405 3695 -3937 0
-4621 579 3224 0
-3680 1137 -835 0
2042 3633 -1366 0
-2398 -203 -2028 0
1557 1433 -3351 0
-1904 -2398 -4043 0
-3634 3030 2130 0
1392 -3890 2973 0
2109 -3041 1658 0
-138 2658 -4703 0
-1030 -3651 -3245 0
360 408 -3875 0
366 2010 -1865 0
2350 -4412 2188 0
1860 3841 -2531 0
4092 957 372 0
3027 4482 3145 0
4611 4148 246 0
-4983 4041 1322 0
4789 -3098 -3037 0
831 -1862 3061 0
4553 -267 3375 0
2492 -1256 4150 0
3931 -3875 1520 0
1903 1957 -2743 0
4737 1904 1898 0
-933 -2323 -2133 0
-2182 -2414 -4590 0
-3343 -4714 -310 0
-2746 2188 -1488 0
-4555 -3922 -2585 0
4213 -1593 -2580 0
4070 3954 2418 0
-3670 -1008 2447 0
-3461 -1318 314 0
1991 -4091 3461 0
4371 -304 676 0
-3438 3794 -2836 0
2863 -1050 -3955 0
-594 -1300 -803 0
3503 4678 1240 0
4334 -428 -423 0
-3797 -1437 3544 0
-1393 -4286 -2001 0
2692 -1206 -1045 0
2088 -6 -3937 0
3316 2019 -129 0
-4681 -2400 3366 0
-1541 -3093 4018 0
4334 4037 4295 0
2385 -2906 -1870 0
3891 1000 -3447 0
589 -4447 3678 0
-2428 4555 -4193 0
2672 128 3646 0
874 846 -1740 0
1205 3929 1776 0
-686 -3988 -947 0
4845 4810 -1293 0
-3011 -2636 888 0
1929 -797 1514 0
2103 -2883 3185 0
-3085 184 -3025 0
-2939 -3957 1255 0
-1769 1797 1863 0
-320 -1296 3624 0
4520 2387 82 0
-2580 3754 2823 0
334 -2834 1046 0
1984 -1631 551 0
477 -3415 -1589 0
3135 1955 -161 0
4563 -1550 3218 0
319 -1238 -4756 0
3674 703 -4977 0
839 2461 -4542 0
-2057 2719 1226 0
-3678 -2048 -2437 0
-290 3164 3460 0
-1603 -714 -439 0
41 -2513 2139 0
3648 3678 -1387 0
3114 -1357 296 0
-2361 -1393 1432 0
4068 999 -2235 0
674 516 3940 0
-1913 3105 -3725 0
-2602 -4223 2365 0
-1857 157 -2832 0
-3669 3592 1235 0
780 517 -3484 0
3654 4823 2007 0
3521 -2433 -1262 0
3160 2199 4775 0
-2511 4199 1447 0
-1869 4005 2023 0
1946 -2984 1269 0
3480 2863 3156 0
2638 -1544 3291 0
2622 -915 2640 0
-4254 4506 -1548 0
428 -4726 102 0
-4813 833 -1174 0
1028 -3691 -1173 0
3525 -2718 3662 0
-2348 3685 -2216 0
-376 -3478 -4567 0
-3118 -4256 -2807 0
-4267 -1311 3724 0
-2141 4090 1911 0
4715 -2248 -457 0
-574 3611 4799 0
-3926 629 -1505 0
4323 2144 -3326 0
4071 -3784 -4454 0
1360 -4353 1381 0
3421 4736 334 0
-3976 2010 436 0
-1568 3702 2853 0
677 -2579 -2444 0
-2884 -1885 2378 0
999 -4059 2442 0
-3975 2287 176 0
-3073 3910 -3394 0
2096 -3039 3718 0
3419 -922 2651 0
-96 -2589 1661 0
-182 -1317 4874 0
-4743 -375 2875 0
-249 3416 1447 0
-2321 3600 -891 0
1994 -3458 -3101 0
-2722 -3635 1652 0
-2658 3747 1088 0
-3798 4777 744 0
3151 2514 2574 0
1820 4014 1785 0
2272 4021 471 0
-195 1410 -1277 0
460 -3913 2212 0
1025 3623 1970 0
3543 -2078 -1499 0
2285 4070 -2545 0
179 -725 -4260 0
622 2965 3573 0
-992 3218 -4055 0
-3776 42 -2945 0
-1039 -4960 -3095 0
-4271 -3544 -1730 0
-4211 -1338 -1901 0
3458 2497 -3431 0
3709 -4256 236 0
3077 -1712 3026 0
-2299 -2941 -4385 0
4474 1099 -3228 0
3068 -67 980 0
1607 -2337 -2356 0
-4571 -2070 3725 0
1431 439 1238 0
4911 902 4926 0
-3477 -2816 -4136 0
-1098 1151 1858 0
-2220 -1684 3671 0
138 -3349 4336 0
2159 2716 3079 0
1738 -802 -3291 0
3223 -2891 2159 0
-920 -2116 3340 0
2380 -3392 -2595 0
-2402 -1560 -2022 0
-1326 1912 3150 0
-1586 -3734 -1240 0
-2054 736 -546 0
1677 2970 -1198 0
-3403 3008 -4555 0
1168 2693 162 0
4061 340 -226 0
-3145 -1775 -388 0
-548 -4050 2972 0
2362 69 -1024 0
-4062 -4869 -4243 0
3423 1257 -1102 0
-2771 -2016 -3070 0
-1084 2022 375 0
-4254 2033 -2286 0
4564 3286 -1661 0
-4720 -2409 -2890 0
202 4716 -1733 0
1071 2334 2735 0
2655 -244 4753 0
1056 2922 -881 0
123 1453 -4696 0
-2244 3868 2236 0
693 -1581 -3019 0
510 2253 -772 0
1000 1766 -4492 0
3666 1006 1968 0
2806 2751 -4889 0
-2791 -3526 -2330 0
4037 1721 1664 0
-592 -110 1731 0
4198 -4932 2150 0
3468 -202 2535 0
310 -1425 -2402 0
2136 -1705 -3315 0
-1934 4569 -134 0
-1739 3424 -2323 0
-1144 -1325 2294 0
907 2027 -2802 0
-4998 -78 776 0
2072 -868 -4855 0
319 -767 -4943 0
1024 -995 1255 0
-3963 522 -1526 0
-4768 -2666 2648 0
4355 3977 4298 0
2377 3829 -1593 0
-4193 -2991 -1067 0
-4952 -2133 -159 0
-902 1845 -428 0
4295 -1886 -4645 0
-4508 1041 -3604 0
-1970 -2482 -460 0
2685 64 2820 0
-1215 1529 -114 0
-2258 2738 -2220 0
540 -895 3741 0
4459 -345 -317 0
896 -4049 3920 0
4438 -628 2705 0
-3503 -618 -567 0
-4855 -2015 -1868 0
1295 3918 -390 0
-589 -1568 65 0
-3234 2933 -4529 0
1829 1697 4193 0
1136 2420 4441 0
4012 3751 2960 0
-4396 465 -1917 0
-1559 2654 -4529 0
-1129 -4514 3741 0
-607 4698 -4591 0
-3129 2266 4809 0
3223 1845 352 0
2515 -3420 -4771 0
-678 -1354 4113 0
-3645 3279 -3283 0
1757 -1206 2552 0
-3513 -4800 950 0
-4769 -4791 -2022 0
-1999 4533 4037 0
-1045 2548 -4502 0
4245 -1756 -2654 0
3197 1388 4249 0
-1848 -2979 -4273 0
-1822 -210 -2797 0
1598 -1709 3739 0
-1165 -2526 2632 0
-2055 -3147 -2060 0
845 3602 -205 0
2325 -4111 -3973 0
1373 219 4062 0
1198 882 -1711 0
2781 4539 81 0
-1080 -2039 -4446 0
-504 4734 -763 0
1445 4996 1667 0
-1034 3450 4557 0
1989 -467 -3936 0
-1645 3947 -1492 0
4984 1245 -4223 0
-88 811 4137 0
4630 -3533 -4265 0
4407 -500 -3131 0
-2183 -3912 -3179 0
-2259 3591 -807 0
2678 2843 1830 0
2576 694 -2971 0
4658 -1791 4843 0
1761 -3517 1757 0
8 691 3643 0
385 -249 -2801 0
-1210 1198 -4079 0
-993 -1439 1703 0
137 -3363 -4352 0
2099 4855 -1878 0
2165 -3377 3092 0
-4688 1410 4953 0
-4192 -4895 1205 0
438 2811 -1442 0
-4775 -165 763 0
-3612 -4005 -2126 0
34 -2737 -4362 0
-1151 1719 -2120 0
-805 2614 3505 0
-4589 -494 -1827 0
-1393 3793 -3986 0
-4480 -4038 2666 0
1917 4076 4264 0
-759 2933 -1040 0
-1238 -1821 3351 0
1368 -2189 724 0
4755 876 1582 0
3264 4173 -2031 0
-600 -2139 -3177 0
3446 -3756 61 0
2340 4711 4178 0
4799 -4300 -4471 0
-4010 3242 281 0
596 2533 3645 0
-537 2033 158 0
735 -4019 -3099 0
-3778 -2875 3787 0
679 -3533 -3728 0
-2865 2499 2670 0
1059 -333 -2446 0
1791 -451 1542 0
1705 -450 -3438 0
-3080 4451 3868 0
-4138 3643 3459 0
-523 -981 3929 0
950 1411 2323 0
907 855 2491 0
-486 -3132 2699 0
2925 451 2325 0
3690 2433 -3865 0
-476 2343 -620 0
4664 -2101 3690 0
-379 3446 -3890 0
1888 4060 1025 0
4086 -2074 2664 0
1145 -2002 777 0
-3298 763 -3506 0
2187 2912 2933 0
-1304 -1669 687 0
1187 -2983 -4409 0
4049 146 4717 0
-2422 -1986 3566 0
2577 -3154 130 0
4649 3564 -2256 0
2918 2511 -3404 0
1 -267 -639 0
4079 1230 2151 0
3350 2266 -94 0
-4795 -3595 -653 0
3231 4531 2754 0
101 -4345 1336 0
1931 4950 954 0
2844 3164 -4280 0
-3893 -4341 -2253 0
1959 609 -3640 0
-1631 4587 937 0
3820 979 -3748 0
-831 1752 -153 0
4864 4546 -2593 0
4993 1465 -3631 0
-479 610 -4469 0
963 -3346 4181 0
3795 4149 864 0
-1376 -2181 -3146 0
-4030 2718 254 0
-1984 403 -1377 0
3156 2229 -1268 0
-2954 -3283 -1121 0
-63 -3328 -359 0
2938 4147 251 0
-2094 -2363 -2057 0
4711 -3411 87 0
-588 3368 -2607 0
4071 -1273 2970 0
4971 -2747 -158 0
1293 -1963 -4862 0
4507 -3959 -699 0
3806 -2954 4874 0
1364 -4220 -3426 0
2236 615 -2553 0
1788 -2720 2372 0
3013 -2128 -3037 0
4547 -3370 3715 0
2906 -1914 -4869 0
2524 242 -4076 0
2809 -2066 -1562 0
337 76 892 0
-4430 3357 2619 0
-1042 3635 -1255 0
-23 -2907 -449 0
469 -3579 2303 0
738 -4821 -1653 0
-1211 2025 -4566 0
2219 -4619 -4697 0
3905 4228 884 0
3017 3941 1085 0
553 1612 3822 0
-3994 -80 -729 0
212 2860 3322 0
4112 4580 -4809 0
-1312 90 2209 0
-1725 3592 -2300 0
-3436 -1889 1438 0
-3949 -2462 4305 0
4346 871 2665 0
1067 -573 2830 0
-384 480 -243 0
4172 249 -987 0
-1115 800 -410 0
-2529 1017 327 0
647 4879 -2858 0
-3052 3481 -4981 0
-2650 614 2368 0
844 784 4783 0
2877 -3776 3900 0
-1728 -1944 1282 0
1849 13 1178 0
-2786 -2052 -1480 0
-4592 -4036 1162 0
3074 -2502 2484 0
4695 1444 -288 0
1097 486 3714 0
-1282 -2294 -2441 0
2050 2150 1929 0
1153 -4379 -1871 0
-3987 -4981 2178 0
4958 147 -2033 0
-2461 457 4989 0
2132 -217 2567 0
3710 4689 -4867 0
3472 437 4186 0
2361 -2553 -1124 0
-1614 4556 -3375 0
2550 -1469 3742 0
4534 -4855 3500 0
-3480 608 2740 0
-682 1612 -3944 0
4137 -3075 -2591 0
3173 4789 2892 0
4589 2605 4222 0
-366 320 1322 0
322 4084 -3871 0
-4463 -1888 2432 0
-3822 4292 -1186 0
4643 -4170 -2109 0
4995 -734 -3605 0
-4854 1908 -575 0
-3006 -3207 -1003 0
-4032 4415 -4166 0
4683 -3797 -1665 0
2425 4462 2359 0
-1271 1709 -1316 0
-4955 -940 -3891 0
1926 695 87 0
4314 -2854 2915 0
-1294 -1189 -1343 0
-4199 -1017 1379 0
2987 1494 -1956 0
-3543 3480 -3336 0
-2742 -2729 1339 0
2615 1201 2476 0
-3911 -4149 -4299 0
3479 -2725 -3963 0
-3307 -4198 -4765 0
-1063 4842 3798 0
-2985 2346 4131 0
2083 -432 -4144 0
-261 2587 540 0
-4811 -1461 -54 0
-2934 -2506 4404 0
-3519 -4194 -3942 0
-921 -513 3373 0
716 4848 1174 0
631 -263 3628 0
-2951 1902 -4182 0
447 1167 3119 0
1325 -1255 4689 0
2038 -3594 -4377 0
-1244 -2688 -4157 0
3375 -2005 2874 0
-2899 -3033 4547 0
-2335 795 2234 0
-4579 2014 1997 0
-4666 -545 -1635 0
1283 261 -328 0
-3834 2450 3163 0
-1256 -4976 4253 0
-3039 3761 -2740 0
-2318 -3828 1426 0
-1882 1722 3402 0
4688 4279 -3041 0
-3515 4177 2321 0
937 243 -3592 0
-3709 4299 -290 0
-396 2386 1491 0
-3306 -4235 -2707 0
-37 2644 2600 0
-2652 4122 2732 0
-4042 -903 -3797 0
-2740 1258 -3756 0
-1504 -4910 2863 0
-1262 -4441 -4188 0
4775 2406 -4584 0
-1958 -2481 -2828 0
2217 2001 -3849 0
-624 -793 -4875 0
1675 -1715 -1573 0
-4118 -4372 -4448 0
-2016 3939 4004 0
-3930 -2213 2511 0
3638 728 -833 0
4879 -3945 4458 0
-991 -1283 -3360 0
464 -1134 -325 0
-3272 1162 3758 0
-808 -3427 883 0
-345 2235 2114 0
-1354 -2563 3390 0
-3698 3971 -1374 0
3899 -591 2097 0
-4966 3374 -3867 0
3750 503 2256 0
-3634 4838 -1155 0
-3054 -2283 1896 0
-1073 430 -2658 0
259 -2225 2102 0
1073 3416 -3307 0
2874 665 971 0
1706 3242 -2644 0
4112 1436 -2783 0
1167 -3399 -2545 0
-1974 4516 3413 0
2373 1339 1751 0
1991 -2428 -1049 0
4521 792 -4497 0
4217 1709 -3787 0
-4094 4535 -501 0
3949 4463 3956 0
2332 -4292 1159 0
-4576 -1669 3343 0
1231 3813 -3327 0
-4524 -3348 -4957 0
1806 -3045 -4495 0
-1241 1297 4436 0
-916 2914 -1901 0
4054 712 3882 0
-2703 -4887 -1883 0
4044 -1242 -2479 0
1067 1713 -3384 0
4354 693 -998 0
-1628 3750 1017 0
-1920 -3422 2903 0
-4681 247 -3899 0
-893 4450 -4760 0
-31 -4185 4874 0
-2696 2369 1525 0
-4957 3085 -4286 0
1206 2535 -1044 0
268 470 1211 0
604 12 4159 0
-445 -1680 -1023 0
1961 427 -3110 0
3929 4278 1205 0
-4905 3517 -99 0
-2474 -2343 -240 0
3422 3656 -3827 0
2501 -2783 4734 0
-3645 1567 -2134 0
4411 3902 4733 0
899 3426 -4539 0
2685 -2600 3706 0
-2960 3029 -2543 0
1594 -4158 -4544 0
246 1352 4648 0
1730 -2348 4149 0
-3994 -3642 -2666 0
-206 4261 426 0
-2368 -4790 -682 0
-3039 3942 4403 0
3308 1229 4782 0
4546 4496 -3781 0
2173 2878 -599 0
-1186 1293 316 0
3167 -2380 925 0
-3908 -806 -4902 0
4973 2565 3551 0
-711 -4801 -3547 0
-1629 -4366 -4227 0
-276 -77 -3621 0
1608 1696 1879 0
-2863 1790 -2483 0
663 -2905 1520 0
-3075 2085 340 0
633 -3469 -1451 0
2916 -3129 -166 0
4502 1535 2813 0
-2137 950 3024 0
3567 -324 4097 0
1147 -3087 249 0
3570 -1373 -3006 0
-1053 -582 2795 0
-4988 3990 -820 0
-4513 3996 2063 0
-128 -60 3520 0
-3955 1645 -2746 0
-2876 -2881 -2494 0
-2110 2267 -4249 0
726 -3859 -4039 0
3371 2406 4917 0
3507 -2521 2986 0
-748 -4966 -4097 0
4403 -3025 3127 0
2309 -1173 -225 0
3308 -2261 -1366 0
3772 2684 254 0
-4500 -800 -982 0
964 -165 -3714 0
-3511 -3351 -3591 0
3065 3722 -1037 0
-1266 -4969 -675 0
-3571 3679 4922 0
3795 2241 -462 0
3093 1859 4512 0
-515 1433 2707 0
2400 -4517 4421 0
634 -1016 840 0
-4286 -584 -1832 0
4111 -1936 4992 0
-4732 -2704 3106 0
-418 -777 299 0
-138 2766 933 0
-3686 -4960 -2386 0
-191 -727 -4537 0
3733 3739 434 0
1889 -4379 3519 0
3038 -1140 -3908 0
-3604 -4796 -3526 0
-691 438 1299 0
-1712 -830 -3962 0
1032 -2725 -481 0
-1072 -1093 -2129 0
992 1900 3009 0
-13 -4983 2709 0
1497 -2538 2134 0
-2316 2135 2001 0
3571 804 -4546 0
-4000 3111 -387 0
-2764 2902 4257 0
1429 -38 -4737 0
-3583 -4143 -4176 0
-1961 -3691 3225 0
-3673 -2225 4214 0
1917 2459 815 0
-3303 1345 2830 0
4119 864 3200 0
2409 3951 2783 0
-4803 2318 -4793 0
-3537 -3392 3762 0
-2676 -1149 -4516 0
-2271 3812 -3054 0
-2864 225 1684 0
-331 448 -1587 0
1966 -2872 4819 0
1316 784 -3557 0
3677 -4311 1094 0
-260 -217 -3884 0
-1780 -4591 -539 0
2868 -4638 2363 0
3813 -1741 -1598 0
2885 -2704 -4202 0
-3784 3499 1183 0
-612 2104 -2011 0
2711 1313 3305 0
-4849 -3027 3018 0
-3943 -3294 -3469 0
-1525 685 -1564 0
-1068 -209 3182 0
-3519 -3281 -3826 0
-2862 -1337 1762 0
769 3704 -3996 0
197 1589 4437 0
-4538 -2099 -2321 0
-2107 1107 -617 0
965 2503 2034 0
-4449 -2690 -776 0
-1970 4670 -3774 0
4867 3879 3097 0
-3966 -4478 -1360 0
2117 1890 -3617 0
2574 3660 450 0
623 -964 2201 0
-2240 2925 -841 0
266 1768 1841 0
-13 -3448 1501 0
793 -4480 1306 0
2889 -1299 2274 0
459 -2974 4609 0
1062 2719 -1652 0
-3055 1638 -3031 0
-1573 -1513 -2103 0
-2367 -4884 2244 0
-317 -615 2697 0
-2233 -4934 -758 0
-1198 3281 2289 0
-2722 4114 4060 0
80 -1876 -3591 0
-4642 -725 3200 0
-4884 -4680 -3437 0
3281 -1237 4431 0
-3886 -3820 2828 0
1348 -960 449 0
-4683 -3160 -1935 0
1458 973 -1639 0
-651 3909 3189 0
-1048 4403 -3416 0
244 -2378 4693 0
3084 -390 2480 0
-321 -2516 -2720 0
-2064 4002 -1499 0
-1577 25 2763 0
-3933 -2227 -4920 0
-4026 1260 -1852 0
-4519 3121 -2106 0
-2021 -945 1274 0
299 4805 3461 0
-3456 -696 1679 0
-4639 -767 4777 0
-593 -4835 4398 0
-2391 3357 -3891 0
1195 41 -2328 0
-671 955 1263 0
-95 -1945 1091 0
-2349 -231 -1658 0
2371 -877 -4608 0
2036 -3291 2185 0
-980 1048 -4273 0
673 1298 -402 0
6 -4354 1892 0
-4389 -1090 -3377 0
860 -4462 68 0
4105 1818 -680 0
-368 -4864 -4755 0
-1804 -616 4775 0
3523 3323 -1165 0
-1007 2768 -3713 0
2739 4413 -3247 0
2537 -3976 2435 0
-1416 1082 1500 0
755 -1965 3794 0
-2141 3286 -1110 0
878 -1659 -1501 0
-2786 4509 70 0
4570 1299 -1380 0
3497 4516 1493 0
3574 -1008 -441 0
-4767 -4677 -2679 0
-1336 -1269 -76 0
-728 2225 -4858 0
-1441 -3170 4618 0
-1623 -2851 4904 0
-2645 1066 4235 0
2147 4521 2851 0
1378 4072 -399 0
-4409 -4351 -3782 0
95 4514 3493 0
-4417 -2640 -356 0
2032 -496 1801 0
-4031 472 -3405 0
-1016 680 -2802 0
2002 3498 -799 0
-1742 217 -142 0
-2421 -867 -39 0
4288 -4453 2453 0
4304 796 -2137 0
-3524 -3948 -907 0
-4658 1986 1698 0
3327 963 4191 0
-1835 4183 -2513 0
3522 99 -2361 0
2823 4942 -3161 0
-4028 -2648 -2593 0
2698 2438 -3355 0
4652 -1665 -269 0
930 693 -3409 0
3146 921 3899 0
4778 3318 -4537 0
-4390 2597 -2053 0
4802 -3172 -3950 0
-924 2495 1719 0
3662 -3101 1930 0
4010 -3046 2431 0
4954 3386 -3668 0
-886 3236 593 0
4003 -2050 -3198 0
-4525 2056 -2760 0
3720 -1550 -2966 0
-3796 -1249 -2918 0
-2662 788 -3078 0
2768 1483 1335 0
-1341 -3579 320 0
3763 4566 -36 0
4522 2215 -1313 0
-2792 -3677 -2718 0
477 1173 -149 0
-4941 836 2571 0
-1290 1078 3352 0
4144 4774 -1117 0
-1551 -1652 -1566 0
-3908 4823 -4061 0
2731 3333 -3348 0
15 -195 -4338 0
331 -4652 146 0
1994 -672 389 0
1349 -1815 3259 0
2686 -2386 731 0
4882 -1540 -287 0
-465 -696 719 0
306 -160 -2841 0
-122 3236 -1952 0
1508 -1137 4380 0
1044 4854 -129 0
-3003 709 3912 0
1836 3364 566 0
2447 -2666 3674 0
406 409 -1375 0
4723 -4154 202 0
3775 2167 2530 0
-3725 3971 2852 0
3637 1099 -2324 0
2244 -2 -3811 0
2257 -4474 -3488 0
4743 4379 2135 0
-1031 1333 -4023 0
-4762 4236 -4114 0
2228 -1656 -1544 0
-2416 -29 -22 0
-4115 -4707 399 0
2112 -3932 3488 0
-4324 -2946 3060 0
-3410 3398 -1164 0
-2296 -2891 -2837 0
4597 4178 -3942 0
3710 -4691 877 0
2313 528 -1729 0
4021 -2546 4283 0
2680 -1220 1351 0
857 -3004 -2334 0
3338 -4160 -3465 0
2977 -3923 -4023 0
910 4883 1666 0
4084 2363 4600 0
3988 4330 1321 0
400 -3472 3567 0
4714 -3797 3537 0
-504 -3491 2050 0
-4014 4348 2103 0
-2917 -1228 -3107 0
3001 2165 -3359 0
3045 -4599 -4252 0
-1651 -2700 -3155 0
-86 4594 -1338 0
-4090 -3170 -2036 0
485 -4705 3086 0
541 2080 4330 0
-4910 -1944 333 0
1448 -3016 -4272 0
-2110 3122 -4609 0
-912 -4555 -4166 0
-4085 774 638 0
-4803 -508 -3861 0
3581 3949 3598 0
4370 2560 4624 0
-4895 2055 877 0
2413 -3546 569 0
676 -1710 -1465 0
556 573 -4586 0
-4745 -2812 4771 0
1269 -1817 1014 0
4973 1270 4424 0
-4614 -2762 -3098 0
4124 -806 -2130 0
-177 3860 4424 0
1464 2849 227 0
-3926 -115 -4026 0
1632 3169 -1689 0
-1941 1874 3165 0
2022 3147 2933 0
-4327 2167 1290 0
4333 1278 3576 0
-4976 -2993 -4004 0
3167 -121 3939 0
1969 -435 -4818 0
2942 4670 -1158 0
-401 -3400 2337 0
-4383 495 4541 0
-3587 1333 429 0
3546 695 -2262 0
2639 -4723 -1172 0
4868 3465 4673 0
906 1018 1892 0
344 348 -588 0
-915 2105 -2257 0
687 2178 -3748 0
2674 -866 4835 0
-1053 881 -2370 0
1905 -2173 1184 0
-1097 3328 3329 0
4686 4018 -2789 0
-957 -25 3748 0
462 3085 1512 0
-2022 1667 -3205 0
2444 2118 -4791 0
-847 -852 707 0
327 -3008 829 0
-4855 135 4240 0
-1974 -91 -4861 0
1304 -2965 -1653 0
514 -508 2982 0
2475 3454 2636 0
-4158 -1962 -1177 0
-2965 1970 -717 0
-952 3878 -501 0
586 3474 1907 0
-3747 -979 298 0
950 -3138 2747 0
1896 540 367 0
-4955 -2000 -1761 0
1718 618 -1814 0
-4396 1245 1374 0
-3142 21 -2946 0
-4489 -4642 196 0
-416 -4740 1504 0
175 3861 -777 0
39 1039 1162 0
-1569 -484 2526 0
-4954 -569 -3754 0
1730 -4733 -2822 0
2608 2506 703 0
-1742 4632 -532 0
1357 -661 -4563 0
1022 -642 -2860 0
655 388 -4380 0
4666 803 -4932 0
-1673 3859 -4278 0
473 2554 2395 0
-3659 2378 -2986 0
-1616 4392 1917 0
3584 4331 -4532 0
2972 2926 2204 0
-2083 -4230 -2318 0
-3021 4092 -784 0
-723 -2225 2296 0
-2481 4910 3426 0
287 -4338 161 0
-778 2512 3510 0
653 2584 3166 0
1363 623 -1396 0
2589 541 923 0
723 -2546 2201 0
-2820 1203 -371 0
4301 709 666 0
2595 -4337 -377 0
2024 3224 3344 0
1883 1078 -4993 0
-2 -756 -460 0
-4297 -3418 561 0
1011 3503 -1202 0
38 2659 -3556 0
-1549 3765 -3458 0
3670 -1483 2279 0
3330 -4334 -2397 0
-415 1 1636 0
-1449 793 -1587 0
2982 -4140 2737 0
1608 -2218 -1122 0
730 2766 1240 0
936 3340 1917 0
1209 -3 2385 0
-2600 -4421 -1049 0
4890 1344 4084 0
4668 1372 3970 0
2375 -3830 4793 0
-2047 2191 702 0
4266 1716 3931 0
30 -4658 -3360 0
-3567 140 1057 0
-1909 -711 -297 0
2545 868 1242 0
3370 -132 -1105 0
1805 -2569 -4979 0
-4440 381 2006 0
-1581 2771 4728 0
-480 3437 1727 0
3726 -4813 2659 0
1718 -66 564 0
577 4343 2703 0
-4888 -3257 3905 0
-4786 3749 -2654 0
2726 1382 1857 0
-4412 -953 -3304 0
2517 2662 1267 0
1887 -2728 -3113 0
532 4914 1288 0
-723 -1811 1263 0
-2849 -4362 -847 0
-1169 2126 1250 0
2539 -2965 -2348 0
2519 -533 -13 0
2294 3206 3897 0
-193 803 4982 0
1822 -4634 1805 0
3119 1820 4545 0
1685 -1542 -3043 0
-885 393 -3772 0
3719 3071 987 0
-1643 4013 -4150 0
642 1188 4836 0
-4716 -3419 -2889 0
-1544 -395 -1906 0
-3713 -3993 -3145 0
4918 2283 4046 0
3683 -4153 -3132 0
-505 765 -930 0
4732 -584 1796 0
-1082 310 -1252 0
494 3675 4280 0
-2084 -4277 -1897 0
-1764 1906 -1737 0
-4108 -3407 -2848 0
-148 -3724 -2919 0
2824 4540 -3155 0
4477 -840 485 0
1708 4597 1881 0
1897 4331 -1685 0
-124 -263 -4232 0
484 -1793 -4187 0
426 -2545 -1089 0
-4181 4231 -4925 0
-94 3006 -2927 0
-121 4880 4482 0
3142 2984 -3965 0
-2252 -3979 -1045 0
423 1970 -1118 0
4186 -1447 -3326 0
-1394 -399 -3688 0
-4806 -2248 318 0
3032 2026 4718 0
149 1041 1891 0
-1454 -305 -3183 0
-3848 -2970 4263 0
4261 -1031 1309 0
-4652 369 -4675 0
-3438 2439 324 0
-1289 -4863 -865 0
-676 3574 4340 0
1776 4903 -2973 0
-2777 -2703 221 0
4836 1238 -4428 0
-4003 -4974 4932 0
-2940 4843 -2258 0
-2481 4469 -2484 0
3053 1938 -4157 0
-4954 -111 -4033 0
-2063 -4261 -1089 0
-911 4639 1544 0
1033 4950 840 0
4689 -3121 -3139 0
448 4491 -3199 0
1341 -2130 -2121 0
-2561 993 408 0
-4900 2698 2897 0
-1495 3900 1696 0
-2197 -4850 866 0
627 1680 2285 0
-4445 1806 -1107 0
3435 1577 4284 0
-4220 2037 4678 0
-4402 4775 -485 0
2013 1161 -141 0
-4139 -4294 4940 0
176 -156 -1016 0
-1249 492 -363 0
-4796 -2243 -2476 0
-4873 -2986 4675 0
3487 638 92 0
1577 162 -103 0
4319 -1810 -1003 0
2680 -4559 1749 0
789 -1644 4352 0
-1483 2179 -4232 0
-1814 4368 -1574 0
3295 -1097 -1165 0
-2258 -694 -3780 0
-4392 -335 -2444 0
-327 -3049 -1649 0
2093 72 -411 0
3441 2037 -3962 0
-2717 -2994 250 0
1364 -827 2969 0
-2580 3108 -429 0
2270 -357 1786 0
-89 -2245 -3359 0
-3408 4491 -634 0
-2296 -2295 1568 0
4968 -295 2265 0
-1596 938 894 0
4836 4496 958 0
-1353 4007 3030 0
-2230 -1701 2548 0
-1965 -1714 -2854 0
-889 -880 1354 0
-2289 2245 1119 0
1277 -267 384 0
3849 171 -4825 0
4747 3632 -2828 0
-1441 4906 -3949 0
4954 -2872 -1447 0
-4144 -4180 -1672 0
1316 874 -399 0
-1927 890 4530 0
-712 3876 -3414 0
-512 -3700 1923 0
1340 -1859 -1909 0
1939 3425 2174 0
4651 -3526 4317 0
-137 1372 -398 0
-4810 -3508 -1271 0
3721 2460 -2764 0
2124 2574 -3156 0
1 -2447 -2434 0
-2839 -918 368 0
654 4772 416 0
3919 -1535 607 0
-197 2899 3685 0
3910 -3583 1530 0
-4532 -551 -4914 0
592 1002 -2224 0
2470 2475 1772 0
-3185 -3881 1610 0
-2204 -1141 -578 0
-916 -1526 -725 0
4619 4544 -1813 0
1235 3429 -45 0
-244 1267 -2682 0
-2628 -3884 4734 0
2841 4295 -3202 0
558 -907 -2299 0
-68 -1450 4061 0
-2196 3254 -4623 0
2436 -3417 2418 0
-1257 1173 -2078 0
-3653 1749 4186 0
3402 -306 -4242 0
426 1600 2182 0
-2899 3376 4886 0
4790 1038 -690 0
2834 3809 1534 0
-365 4786 1468 0
-824 4103 2475 0
784 2067 -4016 0
3644 -3245 -3323 0
-1172 613 -265 0
1665 -2385 740 0
-3632 4961 1224 0
3845 2523 -643 0
-1109 4117 -2278 0
637 225 -4524 0
-205 -2869 4765 0
4095 1180 3148 0
-611 -4062 182 0
-3835 659 967 0
782 -596 -4719 0
29 3156 4369 0
-1967 1212 -1546 0
-3533 -369 -3995 0
1151 -2344 -3812 0
-4060 2364 -4651 0
-1533 -4589 -2277 0
-4973 -230 -22 0
1106 -3520 -1109 0
2919 1341 2019 0
2101 -1074 -1669 0
-514 -4529 3522 0
-964 179 -4549 0
1231 4227 -3774 0
-968 2352 4695 0
-2127 -1864 -3468 0
2993 -3009 -4011 0
-84 -845 2170 0
-139 -3983 -1010 0
-2990 4774 1617 0
3510 3185 -2558 0
-3718 4422 3357 0
-1740 -1113 2460 0
-3391 2699 -2788 0
-2197 -3047 163 0
-4471 539 -2885 0
2525 3610 -334 0
-1270 -1158 -3817 0
1235 412 -1268 0
2499 -602 -808 0
1746 -851 -4328 0
572 -3090 1855 0
543 3719 2451 0
3694 -4371 406 0
-1082 -26 -4469 0
3252 -3962 3651 0
1045 -1807 4131 0
316 -3524 -2505 0
4929 1886 2922 0
1735 2416 -4048 0
2822 3230 -2601 0
133 -4678 4751 0
-2205 4534 318 0
-1416 1029 -2321 0
-529 -3978 -2023 0
3425 -3922 -4436 0
-3026 -1672 515 0
-1493 3440 558 0
3338 1405 4579 0
4201 -548 -2958 0
-1874 -1499 1944 0
1077 3214 3444 0
-4270 1899 1916 0
-1824 -1457 2385 0
4146 4760 -2041 0
-4939 -2515 4353 0
-1290 1871 -4546 0
1985 697 2519 0
4568 -2109 141 0
3951 1787 -3704 0
4299 3304 1826 0
-3864 3011 4654 0
-2128 -2070 -3447 0
-31 2690 -1672 0
340 -2064 4536 0
190 -4992 -4281 0
2516 3586 -4692 0
4091 2089 -2343 0
-435 1704 -2006 0
251 -3393 4383 0
-2506 2757 -1274 0
3241 -602 -1665 0
-1951 2388 -2362 0
-1144 4201 1268 0
1721 -4327 -3140 0
-4153 -1157 -3684 0
1858 -943 -963 0
-2718 1247 -3423 0
-2545 3093 -4051 0
4450 -3548 -1128 0
4569 4891 -28 0
-1396 4946 -276 0
2389 -3514 3588 0
1641 3033 3564 0
-3170 -1949 2867 0
4869 4447 4901 0
-3940 -84 -303 0
539 -3776 -1300 0
-534 3304 1440 0
2218 4962 25 0
-4140 4064 -613 0
3922 -4846 894 0
-3095 349 -2821 0
-2985 2528 3829 0
2873 1120 4132 0
4174 328 4407 0
1184 2810 3415 0
-4985 -1701 3745 0
4169 157 -3368 0
-3480 -2751 -2833 0
-1623 -2400 2833 0
-1196 1354 213 0
2854 -165 4924 0
-2940 3499 3414 0
-3096 -3326 2097 0
-2331 598 4399 0
1095 3676 -1360 0
3406 243 2670 0
-2281 299 -4031 0
-3284 3866 3374 0
-4073 -1947 1281 0
-997 707 4886 0
3826 39 3874 0
-2158 -1738 -443 0
-3465 -4281 2578 0
-550 4199 -1822 0
-4546 1566 3837 0
2979 -3210 -1128 0
4907 -4006 3892 0
1997 895 4911 0
2841 -3767 -2416 0
-537 954 1321 0
1774 4961 4154 0
-4654 4258 448 0
3726 4309 -2206 0
-981 2302 -1840 0
1994 -3383 491 0
-3777 -2322 1914 0
1020 -1688 -2526 0
3774 568 -4812 0
301 873 2277 0
-2666 -1304 -2910 0
4462 1630 3337 0
1552 -2923 -1135 0
2300 -3612 1044 0
-928 -256 -2649 0
2298 834 -3603 0
-335 -1825 -1462 0
-281 -4224 -4 0
-2792 4690 -1970 0
3523 -4308 -1588 0
141 2770 -3816 0
-4608 -2353 -280 0
3656 883 4073 0
205 3113 834 0
-3193 -4511 -916 0
-146 -769 2928 0
3813 3412 -1152 0
-1406 -4117 -4466 0
3220 -1576 -2380 0
4945 -4324 -1123 0
1356 -533 4516 0
4480 -996 1785 0
4789 3572 -1127 0
14 1729 2796 0
-4398 460 -3846 0
1584 2759 -2594 0
-4540 3771 3076 0
2151 -1827 -1597 0
1508 2312 -4307 0
236 2364 4744 0
3992 1232 -2987 0
4846 -3055 -4842 0
-2372 4217 -3025 0
2427 -2285 -3126 0
-4400 611 -3484 0
2296 3752 757 0
4305 -4315 -852 0
-415 1181 -3703 0
4596 4542 -3616 0
-2655 1257 4483 0
2836 -36 4445 0
3806 -4146 1597 0
131 -4569 2909 0
510 4280 -3544 0
4701 684 697 0
2276 2124 858 0
3760 -2047 427 0
4335 -4326 -917 0
-285 -298 4853 0
1504 983 1374 0
2743 378 -1103 0
-508 4126 748 0
412 2042 4307 0
-1854 -2183 265 0
-4150 3516 1751 0
-736 4805 4211 0
1863 -4463 1878 0
-3020 4476 1204 0
633 2998 3158 0
3203 -3426 1708 0
-2900 -925 2162 0
2510 4726 -4328 0
4782 4470 -1785 0
-2232 -810 -3082 0
3037 4519 1559 0
-1631 -4803 -4448 0
3942 -996 -3306 0
-2571 4232 2106 0
985 -4123 461 0
1432 -3475 4494 0
-3225 -3043 1540 0
652 3871 -4553 0
-4826 -4888 -4408 0
681 1444 293 0
-4640 -1748 -2990 0
1926 -126 2081 0
-1311 -158 3248 0
1589 3111 -1080 0
-4339 -4117 248 0
-3737 -4252 -3561 0
3231 -2565 -323 0
-441 -3014 2600 0
1519 -4342 -580 0
764 3624 -66 0
1820 4695 4256 0
3637 551 2766 0
-2814 -2453 -1429 0
-4222 4307 2773 0
3311 1433 4006 0
4003 -1593 -4417 0
-755 -2792 -3863 0
1469 -2905 -2306 0
-3207 -4812 -1753 0
622 544 -4720 0
-1108 132 -3880 0
4957 -1008 -2427 0
-3041 -924 1076 0
4935 -3852 -3396 0
-597 -651 1222 0
-1403 129 1525 0
1785 -3037 145 0
2487 -3597 1622 0
-171 2234 3202 0
3342 -446 -3015 0
-546 -2251 3374 0
-1653 4336 -2837 0
710 3297 3915 0
3821 -2370 3699 0
-3437 2204 -1044 0
-3843 3375 2906 0
-1426 757 2896 0
-1615 -2313 -3326 0
-1034 -721 -1621 0
3593 -3981 -901 0
-939 -671 -3902 0
-4592 -4663 -3527 0
-3677 4938 -1514 0
-160 553 -2532 0
326 -3772 -324 0
-3008 -4164 -3818 0
1878 3518 3197 0
3203 2966 2501 0
-3747 -3149 4571 0
333 377 1932 0
-4489 1729 4612 0
-1693 620 1573 0
-4555 -1981 578 0
-4870 -3284 -3223 0
20 -4137 3407 0
550 -4161 3512 0
-941 2767 578 0
-800 2656 -3470 0
1151 2092 -1067 0
-2268 -493 3081 0
1681 -1619 -522 0
-4222 2373 -4398 0
1563 -2418 395 0
-4903 4459 -1788 0
-3834 2313 -4159 0
3929 1460 -2990 0
-1630 4314 2067 0
-137 -1238 3222 0
210 2276 2326 0
-4001 1056 3249 0
-2066 -267 -4476 0
-4685 -3925 -4689 0
-2269 -811 2910 0
190 3979 2149 0
2046 -4482 4258 0
4929 -699 -3925 0
-3999 1634 -3702 0
-4618 3437 4297 0
-1110 1279 -1784 0
543 -1033 4798 0
4645 2672 -2513 0
-4746 940 -507 0
-1002 -3009 1336 0
2244 -1940 -455 0
1199 1973 4032 0
-4163 73 -201 0
2140 -3868 2941 0
791 -309 -1358 0
-334 572 497 0
-1386 -648 -2381 0
-1751 4556 3595 0
1953 -2139 -865 0
1673 3177 4916 0
-1175 -4442 -1780 0
1465 3180 -2184 0
3190 -1589 4239 0
-4852 4334 -1311 0
-981 4393 427 0
1735 -477 -4026 0
2003 -4939 -4593 0
-3172 -969 -2790 0
-1121 3301 -4150 0
3530 3313 -3813 0
3910 -1369 3293 0
-616 766 -1306 0
-4830 -3391 1830 0
-3061 4884 21 0
1196 3827 186 0
-3859 -766 -3869 0
-1578 2545 3057 0
-2563 2399 -3918 0
-4906 -3291 -897 0
-4039 -2727 3213 0
-1061 -871 -4755 0
1534 4180 4399 0
-1845 4273 1423 0
-2976 3194 1780 0
-4407 -4701 2183 0
882 -1880 -1567 0
-3259 -4353 2587 0
4204 -1202 -1295 0
-4019 2426 2285 0
-2479 -415 2438 0
4091 2480 -1315 0
-1566 4701 -4567 0
2840 -2300 -4022 0
1033 -1382 -2966 0
4918 -1559 -4254 0
2641 -2589 -2218 0
68 3361 -2809 0
-1430 4278 1078 0
2733 -273 1881 0
2017 4152 -591 0
144 850 -585 0
132 4533 -3014 0
1611 949 778 0
3027 2353 2793 0
-1286 -1235 1991 0
-150 4512 1979 0
-2732 3601 -1175 0
-428 -781 3553 0
-2037 4252 2723 0
-2411 2200 798 0
-3406 4865 -240 0
-3030 -2563 27 0
707 4468 4634 0
-4950 1414 215 0
1145 1394 -4882 0
2539 -4579 -3534 0
-1018 -2085 -2799 0
-1283 2876 -4098 0
-583 3732 -4051 0
4167 4588 3694 0
-3902 392 4809 0
3863 4044 -1806 0
-92 3706 -3194 0
2856 -1326 -2991 0
-1846 3510 2538 0
-1307 -4626 -1080 0
-263 -4408 295 0
1595 -2017 -3680 0
-4221 -4013 3931 0
1593 -4714 -4821 0
-3221 4367 -1277 0
-2477 -590 1626 0
-497 -1958 -1355 0
4787 1884 -3471 0
3475 3903 2857 0
-652 1245 -4845 0
-993 2443 -1166 0
-2527 -1534 -4983 0
857 -330 -3628 0
108 2559 -34 0
-1861 562 4890 0
-4666 -632 -4332 0
-839 798 -12 0
-2683 1542 -3178 0
-4542 4573 1482 0
4829 -1135 2269 0
-1891 -4753 890 0
297 -321 -3319 0
-2852 -2195 1226 0
4236 -1725 1480 0
757 1741 77 0
3499 1288 -2499 0
-966 -1248 4452 0
2728 -3263 -4063 0
4903 3223 -4802 0
1531 1821 4421 0
3591 -4522 564 0
3884 3642 4521 0
3491 -1476 -609 0
4093 -4607 -2460 0
275 -1698 2103 0
3412 666 -2627 0
923 -1138 1446 0
-2222 546 -4154 0
-503 -2515 -1200 0
-1771 -694 1318 0
-1274 1959 1880 0
2417 -3778 1164 0
594 4554 -2672 0
-1363 -479 -914 0
-2177 -3849 3997 0
3414 1153 4139 0
2392 2309 -425 0
-731 471 2298 0
431 -3671 4619 0
1738 -2647 2325 0
-3480 -4037 -872 0
-3492 3494 389 0
-2468 -4824 -3155 0
-210 1332 4760 0
1397 1329 1302 0
1142 1723 -170 0
-1705 -2073 388 0
4432 -4771 4647 0
135 -4180 -633 0
2778 -4694 -1156 0
962 -2347 -4681 0
-1153 2857 4620 0
-990 1824 -4701 0
3044 1512 -4892 0
-804 3375 2458 0
-2867 -484 2665 0
3051 75 -2734 0
4413 -2049 2602 0
-2838 3472 -3862 0
-2545 3083 -3530 0
4063 3316 -168 0
-2638 -4000 3994 0
-375 1503 855 0
736 1581 -4818 0
-968 -1253 -3808 0
-4395 -2502 3556 0
3092 4404 -4371 0
1079 2233 -1045 0
-3202 -4495 -1335 0
-3585 2199 -3149 0
-4574 -1520 -2692 0
1485 1125 -2654 0
-901 -4418 1843 0
4944 4271 1388 0
1600 -1901 633 0
-3184 -1973 3848 0
3839 -4718 -3606 0
3513 -4379 1749 0
778 4929 -2202 0
421 -3544 3376 0
-4906 -1923 -3455 0
761 2100 -3073 0
233 -4678 2544 0
-4272 -4877 -4334 0
1863 -594 -302 0
3360 1698 -1462 0
2414 1920 -2350 0
3084 2780 1552 0
-2412 4661 -1221 0
1500 4460 -700 0
-4356 2599 3740 0
1409 558 -2252 0
583 1139 -3939 0
1929 -3153 3878 0
700 -555 -4580 0
25 1832 4495 0
3982 633 -586 0
-2201 2140 -1599 0
-2066 3041 1954 0
-3997 2782 4264 0
-4041 11 3653 0
-2509 -2188 3395 0
-101 2492 -4159 0
-3901 986 1929 0
-3302 -1669 -3357 0
-1891 2229 2656 0
1254 -1928 3026 0
-3719 1136 -2791 0
-1814 -1823 2194 0
-3871 -3611 3834 0
2885 -4321 3803 0
4803 -4058 -117 0
3603 527 -65 0
3786 4458 1714 0
-4110 -2067 2739 0
4521 -2347 3318 0
-4415 -3143 -3634 0
-1058 -819 3485 0
2025 -4177 -3113 0
-3686 -1861 4891 0
2977 -3209 2330 0
-1124 -760 -3194 0
-4715 -2517 -1587 0
-1786 3353 1151 0
-3446 -3957 -842 0
4092 3998 4554 0
-4853 3702 -2359 0
-4383 3341 -3194 0
-763 -4595 3336 0
2873 -3676 4112 0
-1863 -1858 -1268 0
-3477 -385 -4379 0
497 -2098 -3536 0
3109 3781 3207 0
3826 -3690 -3562 0
-3453 3748 -3467 0
-2034 4154 4434 0
2411 -4634 4770 0
-1690 1015 -131 0
2321 1943 -2750 0
2906 1515 3317 0
-1499 2019 -4074 0
1132 -3139 2943 0
4833 4029 94 0
-3 -3856 -1881 0
1361 -1506 4540 0
-2056 3067 -1385 0
1751 -4430 -3136 0
-3263 -2844 -4654 0
2189 471 -2147 0
-3295 3683 3622 0
2193 -1923 3412 0
3790 2372 -619 0
-4741 -4799 -1049 0
3458 -334 -4427 0
-2211 3172 90 0
4295 -2467 861 0
861 394 -1476 0
304 -2322 695 0
1935 906 -2668 0
-3855 3758 -2415 0
-1394 -3344 1095 0
-1975 3879 -3149 0
-1597 -4722 4775 0
1103 -424 -890 0
-3200 3238 -2698 0
1568 303 -2867 0
-1952 -1167 -412 0
-274 -3309 -19 0
4152 -4355 3193 0
-1063 3703 2903 0
4418 2815 -3535 0
429 -1074 218 0
2377 1498 169 0
4046 2466 -3051 0
2068 1714 2642 0
1338 1376 748 0
2968 4622 -1335 0
-1492 1905 3650 0
-3615 -636 4413 0
-4849 -1512 1847 0
837 -101 -1283 0
2633 -1513 -2921 0
-1513 -3485 -4762 0
-2897 -2925 3068 0
2415 1993 1982 0
-3011 -4173 -2621 0
-2004 976 -533 0
4138 -2094 -3252 0
-2386 2381 4308 0
4522 -2961 -4917 0
-1173 -1025 712 0
4024 -1658 3166 0
4734 -41 652 0
-809 -4501 3399 0
-2517 3839 -140 0
-3430 1754 4702 0
4693 3750 2866 0
4659 92 -2705 0
-4948 2288 1612 0
-432 -3164 775 0
4840 -2273 4103 0
59 -2368 2901 0
-3290 -2113 235 0
4229 -232 3554 0
2406 447 3686 0
-2652 2996 -2359 0
-2273 785 2166 0
-4311 4326 -3779 0
-3712 -316 3056 0
-2355 1112 -2719 0
2247 3174 768 0
2511 -4832 -4738 0
2816 3888 3423 0
1855 -791 4406 0
-3393 -430 -4383 0
-2804 664 2675 0
1119 -140 2821 0
-1678 2720 1781 0
614 -2648 2499 0
-3691 3658 4384 0
-1772 259 -3116 0
-4394 -4915 4703 0
1877 -3349 -204 0
-3730 -4403 3544 0
-4673 873 437 0
-2851 2924 -3847 0
2006 -1737 4546 0
-4859 2554 4110 0
3321 3288 -3191 0
1856 -1459 759 0
-142 -2477 -4281 0
-215 -1345 4915 0
4480 -4065 -3498 0
765 228 1442 0
2385 377 -539 0
895 1553 3047 0
-720 -4416 3555 0
-2101 -4947 -2959 0
945 -2653 4407 0
1726 4419 1021 0
-2533 69 1638 0
-867 -975 -3351 0
3919 -1935 1923 0
-2916 3636 1133 0
-318 -2744 2517 0
-1558 3915 3839 0
-4253 -897 -2690 0
2581 -2337 -1272 0
-4697 1026 3065 0
-4266 222 788 0
3079 2311 -1478 0
-2369 102 -2992 0
4666 -1901 1087 0
1692 2848 4286 0
1850 -1189 -1360 0
32 2948 -1943 0
-3613 1040 -1167 0
396 3546 1417 0
2366 -224 274 0
4090 3430 1673 0
-3185 3811 -4301 0
1245 1248 -400 0
3743 4899 2270 0
-1663 2657 -4950 0
-2565 922 903 0
-3914 2727 -3682 0
-457 2622 -3069 0
3027 -4485 -4624 0
-2328 960 675 0
-4081 62 -3345 0
-820 1054 3396 0
2290 2159 -4645 0
2925 4157 3338 0
-4979 -3240 2429 0
400 -4467 -3309 0
-2719 4544 -1433 0
4688 -4374 -1253 0
-3222 1198 -4087 0
-3621 2595 2042 0
751 -872 -1469 0
-3276 -94 3713 0
4371 4933 4461 0
-25 -2165 1367 0
852 1208 4474 0
139 1217 -4095 0
3160 -3717 -2727 0
1298 224 -3087 0
916 3624 -519 0
-1982 -309 2200 0
4469 1715 -895 0
2032 1916 855 0
-3774 4265 3975 0
-2035 -484 -50 0
-1400 1888 -4529 0
1496 3746 4310 0
-217 -2555 -2474 0
4982 -1908 1220 0
-1844 -4083 -1176 0
-3820 1754 4817 0
-3208 -3281 3346 0
779 -4914 -2996 0
2649 -1876 4135 0
1433 -3204 897 0
34 76 3198 0
983 4223 -4952 0
3928 1703 -1187 0
-1955 -3710 609 0
795 4424 4975 0
616 -1388 1705 0
3933 -373 -31 0
2269 -4648 478 0
-968 -2653 1807 0
-1836 -2011 3519 0
4230 -2896 204 0
3762 -601 -3106 0
2089 -444 1204 0
4480 3419 -4727 0
-345 -1715 4749 0
3228 -4907 -4476 0
-3221 -2049 -3197 0
-3887 -1984 -4524 0
4978 3624 4548 0
4893 -4834 -2118 0
2068 2417 1260 0
-45 -1995 4804 0
-1858 4460 -4709 0
-3365 4186 -4833 0
-2180 -4300 -742 0
-1679 -2058 -132 0
1207 -4886 -4122 0
-3285 1597 -2775 0
-2747 721 1668 0
1308 3738 -2024 0
-4908 -4670 -4567 0
2738 -3388 -2139 0
4711 2538 -4989 0
3128 -2127 4512 0
2822 828 -662 0
2030 -2960 4909 0
-679 -1315 -2506 0
-4340 2368 2778 0
1169 -384 -4029 0
860 -639 -4661 0
-2989 1136 -1219 0
2597 919 -1607 0
-129 3907 -4928 0
1031 -4787 1299 0
1253 2572 241 0
-3160 -1999 -3257 0
1042 -3661 -4186 0
3300 2751 1900 0
2569 4130 1578 0
760 2733 -3889 0
1313 -1651 -4759 0
-91 4647 -2665 0
-4220 -1059 1562 0
-2289 -2721 2766 0
2259 2496 -101 0
679 -2912 -4034 0
3400 1532 2504 0
-3522 461 -177 0
-2916 2262 2217 0
3828 -3473 388 0
-295 2854 -2490 0
1593 -1199 -1443 0
845 3611 -2582 0
2744 -4609 708 0
-4720 -4785 3553 0
401 -1857 2687 0
-3365 5000 4786 0
3176 514 -544 0
3725 -2191 -735 0
-1106 2792 -226 0
4358 3602 -1268 0
-1870 3297 -2762 0
2249 4766 972 0
-3408 -453 -3199 0
-3689 4824 -3995 0
704 3448 -1983 0
-1575 -3203 2509 0
-332 1765 522 0
4932 3893 2063 0
-2233 -1079 -642 0
-827 1231 -2332 0
-3930 -667 4170 0
-2517 -3924 -1554 0
1733 -2016 -2866 0
-2547 319 -1658 0
-466 -3707 3071 0
-1456 2108 4455 0
2200 1349 -4003 0
-3282 4526 -2631 0
-3193 -749 510 0
4140 -3698 3938 0
-4118 -3409 -3468 0
-3779 -433 788 0
4452 1964 1809 0
2938 4642 4475 0
-120 -1495 4741 0
-4770 -2639 -3156 0
4649 -4949 559 0
2097 -764 635 0
-2655 -4226 -4629 0
-2315 -735 -3390 0
938 -3718 -848 0
-2120 -4163 4957 0
-1685 306 3035 0
-4760 4207 3182 0
739 4354 356 0
1087 -1260 -489 0
-1413 -3296 586 0
4071 3385 440 0
2553 -1838 362 0
-3827 937 3733 0
-2043 3358 -349 0
1540 -2026 4654 0
-3714 -112 -3620 0
-430 2249 -2480 0
1819 2837 2106 0
-216 4210 4712 0
3606 -3974 -1884 0
4846 4232 -4083 0
3695 4303 3017 0
-27 -4448 2767 0
4403 766 -886 0
3376 -4050 -2771 0
3978 -2109 4189 0
1340 -4164 865 0
2263 4048 -4259 0
4256 605 4707 0
4856 -1078 375 0
-1504 -2894 692 0
1288 992 3825 0
-2289 -2473 4139 0
1475 -1879 -3445 0
-4176 -333 -464 0
4560 3166 993 0
3933 -4972 -3555 0
3147 -1779 1872 0
-4651 767 65 0
3061 2945 -3631 0
-125 -2807 4097 0
-3671 -674 -3344 0
1217 1438 -1246 0
-2844 2719 -1872 0
1151 -1770 4805 0
2075 2252 -1652 0
-3356 -2508 1098 0
2361 4769 -90 0
-1307 -2870 1330 0
2883 3538 -264 0
-730 -1395 415 0
-1175 -1292 -1444 0
2214 4765 -3783 0
-3542 -4510 3529 0
-829 -954 1913 0
4503 -2956 -2248 0
805 -863 -3350 0
-748 3596 -3695 0
-1768 -3766 4391 0
429 4078 767 0
-3427 -802 -4089 0
65 88 -1062 0
4876 -2005 4406 0
498 -1413 1763 0
-2560 -4230 -2432 0
199 -142 1540 0
-966 887 740 0
-2186 4715 -4443 0
1012 -1450 886 0
2005 2829 2029 0
2481 -2795 3077 0
602 -1811 -4778 0
1886 -2000 1371 0
-1542 -2852 3776 0
-415 3481 363 0
3165 -3736 2758 0
-2162 -4557 4712 0
1233 1124 -2338 0
-2193 813 2853 0
-3959 3521 -1731 0
2123 2853 4145 0
2768 -2700 -3636 0
4573 649 -1470 0
3892 -4829 2439 0
-2647 -2663 4262 0
-3686 872 -3394 0
2909 -3427 -631 0
-4979 1302 3194 0
-2060 105 -2947 0
-3192 -3574 -1927 0
-1543 -1635 3416 0
-4512 -2726 3817 0
-456 2828 2766 0
-3712 -4883 -435 0
-4529 3187 -171 0
1886 3060 4972 0
-3557 3490 -4757 0
-1099 4375 2542 0
340 1677 -1141 0
1096 4848 -4183 0
2614 590 -3505 0
-2659 -2262 -164 0
-2783 3820 1784 0
-1021 -1736 136 0
4936 1218 4957 0
-1048 -1997 -1884 0
-1101 3942 -1047 0
3591 4006 2003 0
-1044 -3510 4297 0
837 -2363 1362 0
-2234 3004 -3805 0
-1521 1179 -1442 0
1538 1003 2260 0
3654 -1809 819 0
-4604 -2608 -2799 0
-849 687 1029 0
-1139 -1607 -2623 0
2481 -476 -4393 0
-4544 -971 4458 0
-1918 4135 -1911 0
-2565 4351 -4172 0
3932 371 1157 0
-20 -2473 -1594 0
3635 -502 -1289 0
4678 -2804 -4576 0
-3678 -3402 -1630 0
2608 341 -4409 0
3144 4396 3196 0
-2997 2077 2667 0
-4223 -4103 3086 0
3031 -4064 3315 0
-3466 -2187 -4374 0
2134 -2560 808 0
-1658 3429 1880 0
-1966 -4828 -4474 0
867 -1837 667 0
-225 1866 356 0
3981 -2398 1835 0
1318 -2138 -4362 0
2130 3061 -1899 0
2357 -724 -3576 0
709 4209 3394 0
-3200 1221 -2220 0
-1438 3684 3549 0
2767 4172 -553 0
4555 101 -2393 0
2377 -420 -3701 0
3053 3880 1596 0
1722 -3639 -3346 0
-1149 3566 -2266 0
1498 -2886 4901 0
4633 455 774 0
-2723 689 -2527 0
-1845 -4122 -557 0
-2697 4764 3966 0
-2188 -1698 -73 0
4320 -4318 -2045 0
574 -4741 4236 0
-3936 3910 -3048 0
318 3977 981 0
840 -4331 -3976 0
-3523 -4695 -3831 0
-3105 -4591 809 0
200 3065 -3948 0
-1780 3391 3565 0
-940 -3912 -697 0
-241 -3297 -4325 0
4741 3650 1280 0
1272 -1886 -1691 0
-119 -4904 426 0
3428 3055 -1302 0
-1126 -1909 -2553 0
-328 3151 -1999 0
-3487 999 -4049 0
741 -3623 1047 0
-4408 -1799 -3218 0
-4965 -4056 3360 0
3930 -4389 3324 0
-394 -1320 956 0
-758 -2156 3130 0
-3257 3659 228 0
1436 2883 3302 0
-4490 -2186 -2941 0
4663 -972 192 0
-403 -954 -3854 0
1179 4927 2562 0
-3140 -4747 35 0
206 2386 -3848 0
1262 700 -3559 0
125 1608 4206 0
-4024 -4914 -2011 0
1485 -709 4954 0
3711 4984 -620 0
-2826 -925 -774 0
-2481 -4482 4623 0
2251 -1181 -2293 0
1570 1387 4280 0
1321 -2358 2312 0
-1865 1944 -4055 0
1781 -3731 -2632 0
3213 -2417 4251 0
2099 -933 4325 0
4225 3769 297 0
1962 -2788 4660 0
-3863 1422 -1288 0
1517 -990 4295 0
-2137 2463 -2362 0
4316 2140 163 0
755 1929 -124 0
-2495 -2761 2102 0
-1535 564 546 0
4153 -3778 4232 0
705 -4043 -4266 0
-2930 -2065 -1770 0
3991 -3703 -2580 0
-4350 -2387 3988 0
-2700 4032 4426 0
-1123 4888 -4113 0
-2113 1600 -1211 0
2480 -1193 4417 0
2755 -3431 1647 0
-2236 2383 -2890 0
4451 -4024 1711 0
1996 3434 4374 0
1990 -784 -3115 0
4179 -3110 4022 0
-2588 -3697 -2359 0
1591 1235 -619 0
-1012 -219 -458 0
2386 2792 -4814 0
-3280 4522 -4846 0
4667 -3256 -4766 0
-3244 -904 -355 0
-1014 -1085 497 0
-2333 -4889 1318 0
3429 1103 2136 0
1708 -4412 4632 0
-2126 3264 691 0
3730 3825 4699 0
4403 -3236 915 0
-556 -2578 4235 0
-4019 -3409 3221 0
-1681 -4903 -1158 0
-210 4885 686 0
887 -1483 2635 0
998 2292 913 0
3374 -3776 -4447 0
-1299 -2647 -3721 0
-3520 -3995 1300 0
3069 -4038 -3887 0
3646 3102 3507 0
1279 24 -4144 0
-4051 -3504 4586 0
-2906 664 4829 0
-2500 -3369 -1267 0
3826 974 442 0
-2251 4293 1580 0
-79 712 4594 0
-3173 -1100 -1837 0
-50 1290 -2297 0
-2026 -475 -1209 0
4885 -4485 2480 0
4756 1299 -3008 0
-3963 -949 841 0
687 -3909 -3474 0
-4544 1940 -2907 0
-1399 -2191 3707 0
-660 3664 4731 0
212 2152 -3876 0
1051 3595 -4168 0
-2165 -3749 2796 0
4696 600 3961 0
-828 -4284 1209 0
754 1157 2523 0
-4298 4416 2212 0
3732 -4862 -2674 0
4964 -2464 -4037 0
-4922 -94 3576 0
-4702 905 -2030 0
4429 1551 -555 0
-2200 795 3347 0
-70 650 743 0
3999 -1833 -3903 0
792 -370 -3811 0
1676 1671 684 0
3229 -4132 3871 0
-4592 -1802 4030 0
197 -4181 -2196 0
-1656 3748 4855 0
564 -2388 -2549 0
-274 -3191 5 0
2842 1371 165 0
-190 1475 2161 0
-2699 215 4998 0
4414 -3999 748 0
423 -2886 -1037 0
-3478 -4598 4967 0
-2892 -4829 816 0
-1372 1846 -4261 0
-3279 4966 4991 0
-4159 -594 1334 0
-1215 2910 1963 0
4877 4745 -4014 0
-2912 -4252 4981 0
-3398 3792 1833 0
-344 -2792 868 0
-3745 3832 -4354 0
-2180 2897 -227 0
2583 -4770 2892 0
3439 263 -909 0
-4176 610 5 0
-4437 -3199 -3773 0
396 3938 -905 0
1844 65 -1608 0
-4326 -192 4050 0
1120 2871 2559 0
2851 4245 1940 0
-4557 -925 -3864 0
2808 -3526 840 0
-2484 -3194 2292 0
3714 214 -3823 0
1995 4284 3442 0
-2373 -649 -3462 0
-3973 -4616 -3333 0
-2466 8 1450 0
-3650 2695 3105 0
-4966 550 -4561 0
-571 1238 -1281 0
1405 -1734 4137 0
2744 -3287 4159 0
1003 -956 -3745 0
294 1910 788 0
4661 2397 -2166 0
4517 -3808 4072 0
2000 -1690 779 0
-3062 -3614 3504 0
-885 1406 -1073 0
-1753 -995 -3539 0
2686 -2690 1099 0
-2465 4158 4984 0
-3800 913 -3481 0
-4819 -404 -2004 0
-70 -4747 -1773 0
-2156 -414 -72 0
3937 -1582 2841 0
3797 -4765 -3275 0
3640 -4421 315 0
4236 1649 -2971 0
-3074 1105 2589 0
-4468 -4163 4401 0
789 2944 450 0
2053 1294 -2302 0
-1162 -1420 -1367 0
3310 -330 -134 0
-2668 -1779 4404 0
4908 3694 2921 0
-2781 3136 -1314 0
-4779 830 4263 0
1736 -4342 -4403 0
760 -3813 720 0
-4923 43 3291 0
2057 -2329 348 0
3744 -3557 2338 0
4524 365 -1511 0
680 -3629 -1270 0
238 4318 -938 0
1967 -3431 -3389 0
-1945 1644 3650 0
-2852 1005 -3521 0
-2171 -4055 3809 0
2985 1555 1730 0
-2903 723 452 0
-2868 4521 -1779 0
4109 1700 -4309 0
-2353 4913 -4667 0
377 -1372 -750 0
2320 -294 -3361 0
-1312 2154 -3466 0
2619 3300 -1377 0
4844 -1352 3915 0
2607 -4754 -1597 0
-2921 -1328 3578 0
-4838 -1318 -46 0
-3 -1207 -3001 0
3347 3225 157 0
-1099 2398 -4788 0
3804 2612 2791 0
-3111 4431 3076 0
-2712 4758 -2530 0
-3716 -336 3678 0
3639 -2292 -3162 0
188 3771 -4507 0
-1966 -3133 -3289 0
2234 -3455 3688 0
4437 -4051 4757 0
-4445 -3178 -486 0
-2539 4122 2115 0
2654 261 3139 0
-4716 1739 -1468 0
3419 2277 4697 0
-3244 1144 -4553 0
1077 3146 -1745 0
-4029 2691 1065 0
3333 -4931 1726 0
-4951 -1656 -4430 0
607 1153 -210 0
1794 -83 1558 0
2425 4903 -4542 0
-605 -3309 -330 0
416 -3934 -3536 0
-4725 3036 2255 0
880 3847 -326 0
1610 3020 -2873 0
398 -772 120 0
1310 -3808 3381 0
911 709 -1320 0
2158 -4735 301 0
-753 -3031 832 0
4411 1187 4393 0
3113 4829 -4735 0
4765 -1486 -882 0
1783 -1912 -4072 0
-3416 -1895 -836 0
-475 1211 -4673 0
-480 -1024 -2903 0
2081 -1648 3311 0
3814 3414 -4618 0
-2836 3237 -695 0
-863 4157 -872 0
4607 351 4735 0
3488 -3025 1989 0
954 2971 4781 0
-4801 -416 -1051 0
-45 -291 3832 0
3636 3891 2012 0
3578 4109 4939 0
-4798 4123 2265 0
1927 -2371 -4289 0
1690 -21 -3418 0
1872 -3575 -3982 0
1799 -4352 759 0
3001 4023 723 0
-2648 551 1322 0
2164 -4704 -1393 0
4974 -3057 -1095 0
-631 -3085 -3033 0
3847 1390 828 0
2350 3898 2468 0
-2979 3399 1727 0
-3168 -1620 -4195 0
-678 144 230 0
1130 -1702 -4665 0
2071 -2186 -285 0
3741 2405 -930 0
-3758 -2152 1550 0
-342 3782 -334 0
-2770 -1689 2076 0
-175 -4029 -2059 0
-3296 3569 -4616 0
-3182 -863 -42 0
1789 -2783 3537 0
2713 -2552 -2195 0
-2905 561 -547 0
2049 3245 380 0
-3357 -687 -2320 0
2188 3770 -2003 0
1874 1752 4895 0
3527 -4688 -843 0
-2053 4809 -2004 0
-2045 -2976 -1793 0
4876 3180 4158 0
3572 4116 365 0
3372 -4483 331 0
-4975 2351 -2433 0
2697 1795 -3378 0
3690 201 -2555 0
799 1080 -3169 0
-1078 4654 1185 0
-3058 4890 635 0
4253 2802 -2399 0
-371 898 4016 0
1153 2924 -3772 0
-2894 308 -1217 0
2727 4905 -1150 0
-1088 3643 -4819 0
2517 4199 1088 0
1724 -4899 -2086 0
3003 -3919 1068 0
-34 -1366 4028 0
2306 -923 -4653 0
-705 -2361 -1466 0
2531 -3929 2603 0
4923 2668 -3370 0
-168 -193 853 0
1157 -4438 3130 0
-625 -777 1480 0
4504 2657 -2159 0
22 -1967 4381 0
-1180 -1276 405 0
-1778 969 -2769 0
-4898 3934 354 0
-4127 -1116 2941 0
4920 4815 -2538 0
-338 4832 2183 0
3414 -754 3348 0
4450 -1363 -3850 0
-569 -2842 -4659 0
2360 4671 4463 0
-706 -592 681 0
-158 2157 3341 0
1810 -2744 -3608 0
-966 -1917 -3514 0
-458 2205 -1606 0
2243 -718 -4934 0
1449 -3401 -131 0
2595 -237 4863 0
4696 -4164 -4460 0
-2718 3867 2873 0
3180 3133 -357 0
2307 -1027 4959 0
3273 -3353 206 0
-219 1336 -3790 0
-874 4361 948 0
3712 -1362 829 0
1061 -3467 -4486 0
4084 1829 2311 0
-2300 -4923 -1299 0
3296 3480 -3088 0
-1619 -1839 -2534 0
784 2293 -4696 0
4853 1516 52 0
-3908 -2700 1821 0
2839 -1423 3595 0
1579 39 4877 0
2500 4771 4383 0
685 4049 4451 0
4465 -578 -3330 0
-3745 3370 1348 0
-3312 -1532 4466 0
1088 -1790 1919 0
-2830 -4424 552 0
4307 -2664 4767 0
4121 -2914 3436 0
-3999 -4891 2429 0
1471 -1164 4684 0
-3864 -2788 -4691 0
2711 -3401 -4100 0
-4918 -675 105 0
-1693 2589 -171 0
4267 4331 -1930 0
1551 -1434 3317 0
-3464 -647 2395 0
2263 -3533 609 0
-3554 -3488 -4890 0
342 -4101 -2703 0
-4279 -4303 2824 0
-3373 4975 3888 0
1310 -3279 -1251 0
-2151 2410 -4288 0
1225 -2363 3688 0
3568 3773 869 0
-432 3175 2936 0
-1846 -4980 1864 0
-174 -767 2337 0
1512 -4832 -2163 0
-280 -3546 3254 0
-647 2481 -634 0
336 -2750 -4055 0
-99 -141 -4680 0
1660 -3615 -954 0
4619 -1903 2588 0
-3953 -2947 -2855 0
-121 -139 -782 0
-557 1630 2394 0
-880 -102 -1909 0
3565 -2888 -1312 0
-4412 3490 4767 0
-3451 2311 -430 0
-3796 2234 -3638 0
3493 -983 1190 0
-4809 3308 -646 0
4 -4572 -4942 0
42 3535 413 0
-3329 1292 3831 0
3587 -4978 -1231 0
-1534 580 -803 0
-1799 -1034 -1714 0
-4475 -4726 704 0
1065 1144 -1596 0
4733 -1040 -3692 0
3764 2735 2202 0
581 -4427 655 0
4420 -4378 518 0
-984 3887 -2391 0
2651 4681 -4277 0
-2179 2263 -2021 0
-3791 -760 1713 0
3920 -3971 4674 0
-2610 -2285 1429 0
-672 1321 1368 0
2349 -1309 1553 0
-2802 -2241 1121 0
-277 -1443 -3229 0
145 -890 -2213 0
-359 -1802 -2482 0
-4870 -4980 4964 0
-466 1366 -173 0
-1202 -3749 701 0
-861 915 481 0
1172 -4622 2633 0
2390 4149 -2354 0
-3023 2757 586 0
492 -1510 2376 0
-729 2557 -1166 0
-87 1985 -845 0
1763 2429 -3600 0
-281 -771 4644 0
-1295 -1513 1328 0
-904 -3910 2974 0
-1023 1049 -1409 0
1853 -220 3804 0
-2288 -378 -4083 0
-2534 -1842 -1992 0
-3140 4964 -4920 0
1919 -1715 -390 0
-339 2240 527 0
-339 -3175 3017 0
2623 3378 -1857 0
-4761 -1459 -4049 0
4497 1984 -1225 0
2698 2885 1474 0
-3705 -2703 618 0
-1975 -3648 -2621 0
-591 2596 2044 0
2804 -2321 2086 0
759 2109 -2310 0
-2833 -68 3783 0
37 573 -1318 0
-4216 3024 -593 0
-2163 -1248 3269 0
2580 -4908 -365 0
-3954 632 2452 0
-413 -4631 4156 0
-312 594 3417 0
4396 -912 3566 0
-1434 913 1900 0
4194 -3533 -3454 0
218 1582 -3554 0
-1929 -415 -2499 0
1660 -3438 -1354 0
-671 2627 1539 0
2675 292 1993 0
-3585 3312 1617 0
-1094 -4738 -3435 0
-32 2512 -2915 0
3034 -4475 1357 0
-883 4558 3859 0
-616 3345 2464 0
513 -2104 -3744 0
-4623 2692 -4337 0
-4651 -3148 -3474 0
4723 -1033 1923 0
923 1026 1214 0
1952 2077 1250 0
-55 -1322 105 0
-4187 -4775 697 0
-2069 -948 -2488 0
4452 2533 4676 0
-1931 -4222 4014 0
95 483 -4812 0
4267 2018 250 0
-1214 -1058 -3720 0
-537 -472 4532 0
4147 -2803 3262 0
-4546 -2850 -3204 0
-2817 -532 3601 0
4060 -3042 2911 0
4162 1916 4114 0
1637 -232 1220 0
-4732 -2335 -3835 0
-307 -293 4717 0
3393 2359 4325 0
948 -2674 -245 0
2695 3783 3505 0
768 525 -4139 0
408 1634 -753 0
2454 -3371 -2002 0
1182 -3008 -3570 0
1425 3290 7 0
4983 -2521 3085 0
-4961 -958 3291 0
-319 -2900 -3176 0
-294 1085 1244 0
-508 -1995 -4579 0
900 2004 -285 0
-3664 -1381 4392 0
-1758 4479 1431 0
-480 -23 -1655 0
-2897 -4065 4111 0
1513 -787 -3651 0
3939 -3068 -117 0
-3016 -2279 3395 0
4704 1716 -2503 0
-2261 4131 -647 0
1694 1054 4235 0
-16 3235 -3846 0
-4141 -595 -98 0
15 660 3746 0
4884 -4238 -2676 0
-1966 1626 -739 0
3988 -1540 241 0
909 4650 1843 0
1324 -1933 -657 0
3492 -3611 2439 0
2971 1573 3709 0
315 -4207 -4885 0
-4677 -1756 -1969 0
2161 -3954 4097 0
-796 2743 -2641 0
1532 3033 -265 0
3210 -1068 -1866 0
-1581 1634 -4557 0
128 -2060 3980 0
585 -1741 -3447 0
-2125 -4856 -483 0
4520 -291 3708 0
3987 3384 -2527 0
4922 -3693 4413 0
2785 -2752 -4521 0
3976 659 1915 0
-4200 -4446 1240 0
-2982 3690 775 0
4680 -3141 -2440 0
-3371 4924 4277 0
-733 2988 -2313 0
-2662 -4901 -4032 0
2975 -2747 -2468 0
419 3143 4724 0
245 1453 -466 0
-1224 42 3134 0
-2166 1881 474 0
-1605 -1390 963 0
-797 3586 4671 0
-3368 -2799 -2736 0
1185 792 -3654 0
-965 4561 1737 0
3910 -2413 1037 0
-2570 1948 -3954 0
-3701 -3165 -3300 0
1029 613 4830 0
-1928 -2380 -452 0
-4349 19 -1600 0
-209 -2550 -1815 0
-4306 1902 3658 0
3202 -1525 3590 0
-3428 3740 1789 0
4289 1653 4884 0
3737 914 -3350 0
-2226 3378 -3434 0
-4632 -2328 -3137 0
-1208 -2441 -3570 0
-4926 204 -4170 0
1706 -2789 4772 0
-577 2945 3939 0
3953 556 -4111 0
-2164 2138 -2729 0
1596 4737 3036 0
-2567 -978 -4887 0
-2151 1283 1632 0
-1200 69 1569 0
-383 1341 -3586 0
3148 4530 193 0
-3306 1804 -4727 0
2786 -476 -3546 0
3996 -4072 2854 0
4362 -4000 1203 0
3508 -2327 1757 0
1086 4369 1530 0
2136 1061 4965 0
-1522 4207 -3656 0
-215 2622 3454 0
-4044 2976 -2326 0
3005 -706 161 0
-4416 -1323 -1881 0
-705 -3762 2332 0
704 -3116 489 0
2098 4440 -1539 0
-3533 -133 1805 0
-230 420 3651 0
-323 -1513 -39 0
-3604 -1850 -3337 0
2520 348 -1401 0
-3862 3243 3990 0
1789 -2470 4715 0
-245 3273 2673 0
4213 3706 -981 0
-4329 548 2642 0
821 -4267 -2509 0
-4937 -2695 -3495 0
4870 -4456 -1544 0
-3734 -3921 -3998 0
2945 -4189 2018 0
-4987 4906 3487 0
-4993 4680 -4455 0
-3050 523 -983 0
598 -1661 2544 0
-1463 3828 3814 0
-154 4413 -2839 0
1953 571 -3174 0
450 -4377 3832 0
-753 2110 -4411 0
2073 2811 2080 0
-763 -1687 1968 0
834 4541 -3635 0
3176 3214 -4404 0
184 -2825 1131 0
3400 4401 -860 0
-2496 -4110 906 0
-838 4272 -1238 0
-99 2064 1979 0
-161 -1538 1250 0
4782 4930 -2433 0
-4465 329 -2762 0
2649 2254 -2835 0
-729 36 -3038 0
3703 -170 2304 0
-3560 301 -486 0
-4486 -973 -1080 0
2896 -3471 4945 0
-19 817 1487 0
-3571 -5000 962 0
3935 -1487 1978 0
-2893 1831 -214 0
-1772 -1025 1382 0
2187 1172 -4432 0
4059 -3481 -3471 0
4152 4648 4163 0
2809 177 -2456 0
-2356 -2583 1948 0
-421 1827 -2257 0
4009 2321 -4666 0
-4376 4644 4882 0
1115 -2293 2223 0
-4592 4032 -3112 0
3549 -4762 4344 0
-4639 4435 3042 0
-358 -1125 1137 0
1721 -3334 3808 0
4785 -515 -2032 0
4845 3079 3440 0
-3237 -3269 -4084 0
1956 -2431 -2529 0
-4113 -840 -1622 0
-2681 -4974 -423 0
4181 2627 4785 0
1673 3312 148 0
-810 -1209 -3107 0
375 -4403 -3701 0
2484 -712 1265 0
-2765 -2449 -3875 0
-3488 3717 1293 0
4302 1948 3816 0
624 298 792 0
3185 3452 -4648 0
-2121 -1891 1803 0
-959 25 -3544 0
1137 3035 1014 0
-2138 -1761 3833 0
-2545 2582 2138 0
3691 3847 1502 0
-370 265 -3610 0
-1397 -3639 -4740 0
218 -4002 -4807 0
-1872 -3072 -4995 0
994 -3566 -2044 0
-2271 -3985 -4385 0
4301 -2546 -248 0
3588 -4523 -1321 0
1512 -3546 -2931 0
1965 878 429 0
-3214 4074 -386 0
4021 -3888 3555 0
2510 2073 1868 0
4621 -2818 439 0
-3488 -3297 884 0
175 -1705 -4256 0
140 -93 -4397 0
-4210 1495 -4477 0
2152 -3838 2613 0
303 -4482 1662 0
2299 563 -3568 0
-1438 -4085 -780 0
3259 -1959 4203 0
-4659 -1148 -800 0
1342 3655 3474 0
4464 4909 -392 0
-4988 4431 1981 0
707 339 -4012 0
-4471 4418 -487 0
-3309 1318 2368 0
3226 4797 2422 0
4395 -892 -4564 0
-1500 -2213 -646 0
4958 2286 3981 0
1186 -1934 2412 0
4627 4014 -4613 0
-477 4691 2615 0
2685 3224 3218 0
4552 645 209 0
-2623 867 -3047 0
-1960 234 2612 0
-2228 1154 1439 0
3756 -2707 -1583 0
999 2341 534 0
-3980 -1903 -3088 0
-1426 239 -2153 0
2206 2260 1018 0
-1446 -2084 2357 0
-1957 -630 4560 0
711 -3847 -2539 0
-4639 2716 4471 0
4223 -3472 1391 0
-2348 99 -2248 0
-3604 4092 -4552 0
-3170 275 -327 0
-1054 -4193 709 0
225 3284 4280 0
-745 62 2120 0
2981 -3714 -613 0
3377 -303 -3149 0
-3122 -125 -4377 0
-4400 2633 482 0
-3379 1759 -2592 0
24 4562 3125 0
3172 475 -1889 0
2748 -617 2183 0
-373 -833 796 0
-1650 137 -465 0
532 -4816 4946 0
2919 -4769 -3701 0
-174 3539 1576 0
-2213 -976 -831 0
1064 -4960 -4350 0
-653 -727 -1259 0
-1914 -2208 3178 0
-3678 -1758 -3333 0
-2193 -4566 -4367 0
1189 -2322 4675 0
-3201 1157 1772 0
-4815 796 -66 0
1529 -1114 -4926 0
1284 -2896 -921 0
-2478 -2780 -385 0
517 -1722 620 0
1423 -3798 -3668 0
-901 -4701 4830 0
-3844 1989 -4551 0
-2910 4090 -3117 0
-4838 -2734 4120 0
-4891 4333 346 0
-309 3839 -4252 0
551 1226 -1225 0
3814 -3620 -4154 0
4226 -2693 -3559 0
-3549 -2560 -913 0
1913 1438 343 0
3420 -4319 -1066 0
4319 -1225 2011 0
984 3184 251 0
-4237 908 -490 0
-3200 -622 -228 0
-4821 516 -680 0
2469 3386 4297 0
-1157 -1109 3186 0
-2568 498 -8 0
1365 -4116 -1125 0
-3867 -4379 3909 0
4508 1555 41 0
2253 -3071 -4452 0
3145 2079 3400 0
-978 4367 -3277 0
-2542 2150 -1187 0
1944 -856 -768 0
61 -2133 -2398 0
-4984 -4712 3419 0
-4673 45 -1221 0
-1868 -1319 397 0
-925 -1509 -3234 0
-3657 -4924 941 0
-1870 -4696 -2624 0
2158 1017 -2077 0
4180 2451 8 0
-4168 141 -4103 0
2704 -756 4824 0
-4922 1847 1751 0
-3616 3151 -4894 0
-1558 -1563 138 0
-2522 -2956 -3725 0
-540 471 1572 0
-599 2101 3553 0
119 -1807 2768 0
-3103 -3407 2095 0
111 -505 4441 0
4866 -1112 4702 0
-304 -1728 136 0
-884 1738 -2540 0
1156 -2643 4011 0
1205 -3996 550 0
1566 3307 -2846 0
-4992 1800 -1988 0
3385 1256 3998 0
-3227 -1574 4687 0
-403 2063 -2690 0
-612 3039 1570 0
3165 3775 -2758 0
2139 -3847 4812 0
-1685 -3531 -2846 0
4440 4506 -86 0
-4612 863 -4093 0
-4961 -1086 4908 0
-2629 2178 -4666 0
-3830 301 2351 0
4746 1217 3435 0
-399 1525 2332 0
1944 -3666 1285 0
172 493 -2809 0
-1991 4085 -4868 0
-32 -4001 -862 0
2647 4604 4575 0
-2761 4911 -358 0
-3401 3961 2755 0
-4234 596 813 0
3099 1751 -4889 0
353 1297 1095 0
-1477 512 -937 0
4561 -1355 -795 0
2075 772 3795 0
-3425 -4118 3453 0
-245 -497 -2851 0
4584 4187 -3041 0
-4997 2275 4953 0
-784 -4514 -3930 0
-3821 4381 1325 0
-411 1173 -2019 0
4312 -1750 -1379 0
-4323 1329 903 0
3635 4377 2762 0
-219 -643 -1550 0
3326 -2401 4222 0
-1343 -2067 -519 0
-4517 2360 4075 0
-503 2318 4500 0
2404 -3193 -4024 0
-4572 -1194 1183 0
913 -3436 -3055 0
112 -824 2871 0
-371 1103 1096 0
2081 4880 -4444 0
-211 2701 -4671 0
-2830 4580 2840 0
1757 1322 -2201 0
3407 -144 3869 0
-4248 2682 1485 0
3001 -717 -2518 0
-988 1200 2204 0
4937 1018 -518 0
1767 -3349 2485 0
-2316 -659 -3874 0
-4682 -1222 -4134 0
-3727 -2349 -3043 0
1870 3894 3974 0
4055 -3927 -100 0
-1564 -1630 928 0
2557 951 -1933 0
2967 3502 4496 0
-2698 1855 2148 0
-2040 3458 1811 0
-3453 -88 2316 0
-2705 3627 2760 0
-3627 -1012 -4167 0
-3956 3600 4587 0
-3768 4123 2262 0
2549 2147 -2300 0
-1362 1360 -157 0
-2218 -2448 397 0
-4495 493 -3363 0
-1700 2901 1552 0
-760 1645 -437 0
-4592 -3311 473 0
1597 -1086 988 0
2622 3303 2284 0
1477 2422 978 0
4270 4584 1914 0
3673 3538 -2746 0
4127 -1989 1533 0
-2725 -727 203 0
-709 372 -3166 0
3822 -4531 -2470 0
-1567 -4429 -1432 0
4332 -1964 3840 0
-90 -740 2627 0
-4435 1787 1862 0
-1740 1063 2301 0
3455 -2918 1349 0
354 1881 1365 0
-4488 370 4252 0
1810 155 -344 0
-1077 4757 1407 0
-3125 -4334 1034 0
-3984 -4397 -2681 0
-4635 -297 -1719 0
1994 -4392 323 0
2912 -923 -2452 0
-1467 -3595 1272 0
45 -4166 2986 0
2069 -1628 -4373 0
1282 -868 -4194 0
-3129 -1781 3715 0
1690 -1013 -963 0
4214 -1971 -4828 0
2456 2869 4062 0
3857 -1287 4376 0
1992 -3291 3902 0
-252 -4595 4110 0
-4086 935 375 0
-3232 4399 3312 0
2649 -4414 -463 0
2781 4845 2620 0
-1100 3174 1846 0
-3609 2722 -739 0
-1054 3989 3175 0
4275 1265 4029 0
3933 -2902 -3328 0
4019 -3839 3727 0
-4741 -4143 -1685 0
4175 2734 -4110 0
707 -4717 2634 0
-1594 1860 2993 0
3848 2360 3725 0
-407 -230 -2640 0
-3297 515 455 0
-3105 1529 -4891 0
-4923 -343 -4564 0
-1442 -2113 -935 0
1517 1750 1849 0
2874 2551 -3281 0
2388 1304 1343 0
116 2112 -4037 0
-2133 -3868 -4011 0
-3877 -2502 1523 0
-1748 -871 -562 0
-3107 3096 -1257 0
3053 -2060 -2168 0
-1960 -619 -4508 0
3566 -2570 3462 0
-4821 -2536 -951 0
-3096 3843 11 0
-1356 1332 -113 0
4594 -3379 -1325 0
-1959 1948 4324 0
-1125 1338 2471 0
-4582 -4251 -822 0
4317 1394 -4170 0
-3593 1333 2404 0
1116 -115 2370 0
-4880 1579 -279 0
-922 2169 2147 0
4354 -3560 943 0
3137 2270 -3972 0
-4499 -4516 -1716 0
-2942 4813 1487 0
804 1144 1478 0
-3525 -2551 2514 0
3460 -576 -3404 0
2788 -3080 1298 0
3009 -368 -3405 0
-284 -1979 -1736 0
-1539 -4331 219 0
3400 3849 3203 0
90 325 -4100 0
-3427 -3029 3211 0
-3937 4837 -2095 0
2785 2934 -4470 0
-1589 -4552 392 0
-1397 -4026 2337 0
-139 -1442 -534 0
-1118 -1367 4815 0
959 3242 -145 0
2693 3205 -4928 0
3863 4034 4407 0
-393 4860 1819 0
2073 987 2021 0
-842 -2153 2307 0
4306 734 1395 0
-4094 -2436 1637 0
-1212 2784 3053 0
-4550 -4157 1692 0
-3148 -4259 3780 0
-3141 355 -2834 0
500 -2113 935 0
259 197 -2175 0
-3107 -4479 -668 0
904 988 4380 0
-1846 -1126 863 0
-1589 -2619 3284 0
-3529 -1158 -3942 0
3339 -4437 -1759 0
330 2762 -2618 0
722 -2259 1370 0
1641 -1117 2528 0
983 -3378 1952 0
-4262 2047 -571 0
-2267 462 4495 0
660 965 1827 0
2128 -270 -332 0
-2032 -3531 19 0
-56 -1388 209 0
-2207 -2284 -2269 0
-2178 -330 835 0
-4727 2241 -2803 0
-4865 1117 -1604 0
1451 557 -73 0
3206 -4092 -1266 0
-2926 -2754 2847 0
2633 -2473 1259 0
-2921 -2130 -47 0
2471 4322 1946 0
1813 -4871 355 0
-2125 4306 2278 0
3750 2698 3624 0
3938 -4555 -264 0
3263 -4020 -3046 0
-4682 -3583 4640 0
1507 3315 3786 0
1856 -1996 4950 0
-353 -2887 4530 0
2124 542 -79 0
3273 4715 3895 0
1716 402 -4687 0
-4725 -1083 751 0
-4337 -247 4948 0
-4837 -3473 -933 0
-4674 -4393 -1950 0
238 4712 -2831 0
-2563 -1231 2682 0
2431 -4632 3987 0
-3318 -3693 -1203 0
638 -2404 -395 0
-3457 -1689 -5 0
-3827 -2977 204 0
-4134 -3323 4687 0
2499 3258 1417 0
-4589 3046 1458 0
1884 3390 588 0
-4539 3279 465 0
-1907 -3389 157 0
-1076 246 2327 0
2533 494 -2720 0
-676 4758 -4411 0
-1986 -1904 -2419 0
2350 4656 -356 0
1285 1831 1758 0
-1135 2796 -4703 0
762 -3064 3100 0
1598 611 -1087 0
-113 4285 2946 0
1277 -2797 -4222 0
-1460 -2372 2758 0
-1525 -4772 3733 0
4455 -4259 -3715 0
65 3841 79 0
-4689 -3966 3101 0
3334 4042 1694 0
1631 1357 4058 0
4344 -1619 -189 0
2951 -680 2797 0
4689 -4877 -3008 0
-207 -64 3141 0
-37 1617 4478 0
496 -304 930 0
510 707 -4676 0
3974 -3662 521 0
-2557 -3010 -1581 0
4242 -4522 46 0
3523 166 -4982 0
4712 -2640 -3487 0
-4020 2300 -4425 0
-3378 -2407 2315 0
-641 4414 -4314 0
-4905 -1914 2806 0
3869 418 2794 0
-2622 -2495 -2264 0
-2651 -2200 -743 0
3851 4972 3513 0
4147 3978 -1521 0
3911 -2030 -2641 0
-1174 -1363 -894 0
-2033 1529 -533 0
1190 4018 -376 0
-101 -4700 990 0
-4810 -1847 703 0
4303 3938 -4741 0
-3327 -2500 -954 0
699 -3551 -4517 0
2275 -2920 -4364 0
-3826 4014 3096 0
776 -1351 -3659 0
1507 -3585 -2295 0
3369 -1243 4655 0
-4222 -56 4950 0
866 -4158 -2589 0
-141 -4131 -2780 0
-4881 26 3313 0
669 -405 -4096 0
-1263 -994 4769 0
1539 -3815 -3637 0
2343 4685 3091 0
2314 2543 -4517 0
230 -2556 -2337 0
-2913 2342 -2751 0
-4283 -4731 534 0
-1097 -2801 -4962 0
550 -1403 1948 0
-846 -3936 -4253 0
2168 -142 4776 0
1132 -4181 -4486 0
433 -2449 754 0
-2025 -2150 -224 0
666 3736 -4782 0
2252 -315 4167 0
1238 4749 2348 0
4025 -4314 4829 0
1307 -3015 -3996 0
-4365 2413 4526 0
4676 2464 1657 0
-2202 2197 978 0
2155 3461 -2577 0
876 -4962 4928 0
2965 158 -1222 0
-3807 -3349 -2119 0
1532 -4284 211 0
-2318 2470 -3955 0
-3571 -4873 -2432 0
2055 -2513 1928 0
1370 -223 746 0
144 -2579 313 0
-4872 -1707 3545 0
-3199 -2336 -525 0
-4235 -976 4079 0
689 3371 -1518 0
-3061 2834 -3663 0
3572 -2299 2783 0
-2043 -3562 1810 0
4729 -1321 -4799 0
-1454 4053 -940 0
4370 2502 -1335 0
-1212 4118 -2896 0
-3326 -4194 -2738 0
1551 -4318 -3246 0
2128 1701 634 0
617 -4767 -4748 0
-4878 -509 4110 0
1825 994 3830 0
538 4629 -2252 0
-1089 2675 3835 0
367 -768 1591 0
4255 4650 -2123 0
3073 -133 -992 0
4717 4926 -2526 0
-3868 -1139 -2462 0
665 1672 3239 0
2161 4150 425 0
3848 -1357 -354 0
1447 1838 740 0
3964 4559 1341 0
-1391 -2181 2614 0
-855 -2986 4877 0
2533 2542 805 0
-4742 576 3377 0
-1704 -2179 3636 0
-3251 -403 -481 0
4299 2023 132 0
-834 -3066 -1919 0
2810 4729 778 0
-164 -4989 752 0
-3899 3399 716 0
-1667 1807 2066 0
85 -4791 -545 0
2796 3341 273 0
-3195 4435 4370 0
725 3958 -3043 0
2647 1376 1770 0
2399 -4124 2954 0
356 -4081 -4054 0
4356 -2371 4539 0
2953 -2691 -4353 0
-2950 3668 -3992 0
-984 -3687 -1519 0
2410 -3660 2359 0
-1953 -4547 -3778 0
972 173 -3575 0
-2608 3328 3435 0
3402 3212 349 0
988 -4654 1618 0
-1145 -2234 221 0
-2097 917 3923 0
-4526 4165 821 0
-3487 2924 2898 0
2199 -2600 1357 0
-4080 2879 -3270 0
1458 2160 1221 0
3022 -2152 10 0
-1258 -4171 2695 0
-4677 -2293 1083 0
209 -1855 1634 0
4583 1449 28 0
3601 2647 4141 0
-3205 -2109 969 0
-1261 4213 -2354 0
4035 3092 -820 0
-3232 -3814 -843 0
215 -2640 4862 0
-492 1714 706 0
2615 1686 4457 0
2230 845 -2632 0
3684 -3359 -2155 0
-3649 989 -2523 0
331 384 2054 0
-2682 -489 4305 0
-4745 -637 -198 0
-2887 1966 -4756 0
-815 687 2781 0
4985 -2094 2467 0
3403 -4378 924 0
-2673 -2419 -3653 0
4459 -3519 -3014 0
4792 1501 -1907 0
316 -758 1993 0
1313 -849 2593 0
2813 -4469 -2439 0
-296 -199 -1474 0
1047 2605 -2448 0
2495 -800 -4266 0
2632 -4311 788 0
1760 4777 -3066 0
-3062 2426 3976 0
4061 2471 -1576 0
4682 -3962 2927 0
4100 4761 2307 0
-4556 4814 3265 0
-4258 -3599 -3489 0
-345 -1576 -2360 0
2598 1425 3592 0
-761 -4025 -361 0
3423 2390 4800 0
991 632 -1001 0
741 2241 -2876 0
2645 -4508 2061 0
-3270 -3813 2068 0
-4013 -255 -4615 0
-1390 -3877 -3999 0
-4763 -3058 -1268 0
-1118 1512 -1519 0
1679 605 4317 0
211 -2488 4235 0
3993 -4032 2987 0
2646 3629 392 0
4696 -2920 -468 0
489 3446 -4803 0
-28 -4691 -3142 0
-3412 -3185 1687 0
4080 -4671 -121 0
-1755 1266 -1564 0
2949 2621 -4125 0
-4980 -1319 -1443 0
-1372 -2946 -3127 0
-607 1227 2006 0
-984 -2102 -3411 0
-2546 3749 -101 0
4275 -2995 -1860 0
1479 1268 473 0
51 1919 -2898 0
-2063 188 1486 0
-4645 -783 -1812 0
272 -4055 1370 0
2653 -1528 4692 0
4640 -3704 4405 0
3310 -3076 1467 0
-3886 -186 323 0
3433 3055 -3484 0
1175 -1624 3840 0
4140 1449 -4965 0
-4392 -4114 -76 0
-2610 4 -2622 0
-1604 -1046 3131 0
3762 4691 2745 0
3969 4738 1895 0
1726 4947 3431 0
-2726 3395 -3789 0
4271 -1304 189 0
-4521 -3561 1409 0
4285 3372 3900 0
-655 -9 569 0
4883 988 774 0
-409 4330 -4018 0
-3584 2432 2417 0
-633 56 -2799 0
-2489 -461 406 0
-1588 893 3313 0
1277 -3441 1709 0
-1901 4555 1542 0
-398 -2806 2486 0
-1252 2206 2606 0
-180 4758 1001 0
1735 3171 -348 0
4930 -3199 -2875 0
941 1468 2763 0
-731 1505 -234 0
-3479 3170 2784 0
1478 -4117 4507 0
-1821 -4875 728 0
4636 -3495 -1272 0
-2033 -3006 3391 0
1280 -1449 -1703 0
860 356 4641 0
-4333 -3232 1820 0
-3730 2602 4138 0
4839 -3021 4547 0
1492 2620 -2349 0
1613 4023 -4652 0
-511 -2533 -4135 0
2546 1430 -4784 0
3295 2164 1812 0
1489 152 -3528 0
3374 4299 704 0
3349 1360 892 0
-2832 -2733 -4518 0
3883 610 2455 0
-350 871 2183 0
3610 2820 -4649 0
-4020 1658 -1909 0
766 -98 -4515 0
-1027 -1494 -333 0
3034 -4844 -598 0
-3971 2517 4166 0
120 1630 -4606 0
-4588 -2068 -1133 0
-1109 3118 3537 0
-334 -3663 3467 0
57 -725 -2907 0
2786 343 -2035 0
3766 -3225 4623 0
-2797 3628 537 0
-1761 -2166 -4835 0
2712 2323 -3887 0
732 2931 -1707 0
2935 1838 4095 0
4142 -889 1680 0
2117 -4736 1436 0
357 1592 1032 0
-585 -4051 4504 0
227 4378 -4835 0
-2712 -2381 -1606 0
-4523 1178 1188 0
3941 1495 -2729 0
4892 -1036 -3370 0
2882 1665 3431 0
-4035 1395 3523 0
-1771 3285 4229 0
4003 3305 3782 0
-2826 619 -1818 0
-3627 3230 -3416 0
-4826 4986 -3767 0
-3318 -172 4630 0
3946 4184 -3559 0
4612 3210 -2608 0
-2722 -3772 594 0
2430 -3092 -1548 0
-3824 3012 3722 0
-2313 3369 -4101 0
3205 -2983 3504 0
-4942 -3430 2914 0
-1119 64 -2403 0
-556 1676 -2819 0
-3786 -3746 -1854 0
-494 317 2401 0
555 -3882 -2814 0
-1334 -4284 1710 0
2065 2794 2186 0
1817 2216 4380 0
4627 -3663 2233 0
1303 -3387 439 0
-4073 -566 -3445 0
3715 2814 -4837 0
140 3719 -1575 0
1831 -4166 -1051 0
3430 -2317 1290 0
3001 -2390 3066 0
102 287 -2135 0
2279 -2985 -4172 0
-3670 3627 1667 0
-2651 954 -3975 0
1810 4275 -476 0
1808 2115 354 0
-888 -1109 -622 0
2633 2737 -2305 0
3155 -922 -4948 0
-3755 827 4242 0
2512 74 784 0
-4953 4110 1889 0
2328 1481 3205 0
-3752 -734 2350 0
-1948 -4571 -1637 0
-1434 -244 592 0
3741 4533 -1306 0
3456 -252 4691 0
-4531 -4690 -1536 0
-3237 -1406 4174 0
2436 4202 -4127 0
-3232 849 279 0
1900 1125 2559 0
3489 1775 -4865 0
-4843 -1428 -1552 0
1047 2129 -3086 0
-4650 -3748 2953 0
-2329 -2909 1888 0
4385 1208 500 0
-3211 -4101 -1159 0
1285 203 2486 0
490 2082 3415 0
4274 -4029 1893 0
-4868 -2097 -163 0
-1334 4094 3676 0
-1261 2266 -2148 0
-3807 2385 945 0
-4153 3246 -4630 0
-924 -2196 3820 0
1245 -4360 -4228 0
-115 941 -4752 0
2707 -3114 -4845 0
4655 -3606 2008 0
2263 -1834 4845 0
2504 -2404 3045 0
1004 -231 -59 0
98 2000 -4052 0
-656 -1272 -93 0
94 4453 -3535 0
-1259 -964 4658 0
3633 3572 3041 0
-4977 -1217 4316 0
2353 -918 4417 0
838 -4293 -1512 0
772 1574 156 0
3859 -1874 -2334 0
2307 -4922 3567 0
-3533 -2428 1806 0
-716 149 271 0
4483 -2196 -3820 0
3224 345 4957 0
3821 -2170 1698 0
-3231 -1720 -4034 0
-2418 110 2065 0
1406 783 4918 0
-3412 2580 2799 0
-563 -3224 381 0
-4090 3418 2405 0
4642 -3842 167 0
1403 -4262 -4886 0
424 -4055 -2507 0
-1162 -688 3101 0
1774 2149 -3845 0
1456 -2616 3041 0
-3452 -3431 2877 0
1302 -1957 343 0
-2744 3330 -4819 0
-4688 -3614 4137 0
-1274 -3090 -3287 0
-1702 4513 265 0
4435 524 -2505 0
-1070 2213 -3734 0
972 4695 835 0
213 2074 40 0
-3149 -2812 2307 0
2240 -2179 726 0
-954 4305 4645 0
4795 -4620 119 0
-4340 3611 600 0
-480 1701 -3342 0
-3405 1443 -2574 0
3678 -489 -708 0
-4267 1976 -2880 0
-1419 -3202 -3223 0
-706 1312 4669 0
2212 3379 1240 0
-3754 -548 -1616 0
-4501 2901 -4229 0
-1412 -2977 3477 0
1301 -4010 -4519 0
4937 -32 4389 0
-3588 21 120 0
-1539 4954 2027 0
-1449 4942 553 0
-2158 1154 4265 0
4375 1625 -4965 0
-690 -1283 2794 0
664 3367 -1614 0
3344 -1053 3603 0
3310 -2047 -884 0
-4509 -561 423 0
-1357 707 4600 0
3045 -3720 -2330 0
4147 -1884 -3895 0
-340 3525 3401 0
487 -762 -3428 0
1344 3619 -2410 0
-2933 -3795 -3495 0
3302 454 -3410 0
-3969 2288 2264 0
-4795 3643 -1237 0
1534 2050 -317 0
-625 -611 686 0
-453 3696 -29 0
2203 24 3967 0
-3 -206 2586 0
-1343 -2064 -244 0
4096 -3952 4157 0
178 3966 -3399 0
3453 2227 -2858 0
588 -3686 4522 0
2692 165 -4621 0
-3093 3022 -3926 0
-3416 -1718 -485 0
-463 -1919 1680 0
-3062 1507 -125 0
2346 3352 -4534 0
4237 203 -606 0
-1934 -1786 -1295 0
-4316 1276 -817 0
-4274 3090 -4002 0
-2180 1435 -278 0
-2640 582 1370 0
-1295 -4535 1281 0
-4089 -1187 -4783 0
-3816 615 3933 0
-3888 -3162 -1578 0
-4744 -356 621 0
-121 2556 4653 0
1497 -2526 -945 0
-635 233 71 0
-911 -2560 -1628 0
-1065 3594 1775 0
-3099 390 3686 0
2897 937 2543 0
-2640 498 3126 0
2900 -4080 -111 0
2398 -1284 -1398 0
1349 -812 -1719 0
1024 -1494 38 0
-1326 -3992 519 0
-2740 1456 -1066 0
-3471 1060 -3707 0
-1294 3303 4178 0
1092 -273 192 0
-1103 -1742 4381 0
4504 1657 -3543 0
1861 -3823 -4412 0
3990 -1749 -4305 0
1226 3761 309 0
-2274 -998 -1121 0
2335 4387 -2559 0
2407 -458 263 0
-2195 -3173 991 0
-1516 -397 1864 0
-4714 3796 -4174 0
-3594 622 3224 0
2266 -4102 1735 0
3602 1888 -4583 0
-4662 2964 796 0
-3668 3445 4379 0
-832 -2469 3936 0
-2695 -1348 4395 0
2910 -698 -3847 0
-3552 -3467 719 0
-2709 3040 1543 0
-2922 -1203 1012 0
3992 1326 -399 0
3298 -2147 207 0
2075 -4282 4146 0
4118 3800 -1500 0
2702 2546 -4907 0
1371 -864 -3314 0
4683 2092 1468 0
-4719 -3294 -4473 0
2023 1491 1501 0
4638 -4624 1009 0
-4991 -3892 -3239 0
-3592 -2678 -342 0
4854 1861 3129 0
-266 41 545 0
2302 -2872 4335 0
-2113 4319 -3599 0
4926 -1918 -145 0
-3861 -1927 1560 0
-2162 1714 4669 0
936 1541 2456 0
3414 -1636 -4328 0
1094 -947 -2656 0
4711 -4508 -2038 0
-2354 -4326 2105 0
4359 -2142 -3503 0
-2271 -2429 2991 0
-449 -4232 1023 0
-2806 345 -2799 0
4901 -2740 2629 0
-4961 3649 -4603 0
2756 -4257 -2808 0
2357 -4748 -3087 0
2171 1445 -3900 0
-4151 -2000 -1126 0
-2835 -4952 4453 0
-4017 1692 -1703 0
-4848 1468 4991 0
-606 2395 -3247 0
-1477 4601 4554 0
200 4699 -419 0
-2515 -2708 3742 0
3490 -3934 2918 0
2474 -2169 2979 0
-4470 2582 4918 0
3613 3327 -4849 0
-4563 -2962 -3153 0
-345 -1847 -3631 0
2594 407 2057 0
-1626 -220 -2895 0
282 4385 -4633 0
1331 -1558 3465 0
3028 -4176 -2268 0
-3800 969 -755 0
3268 4942 -3151 0
-1565 -1845 2766 0
-1587 1881 2100 0
-1265 771 -3991 0
-3575 1772 2582 0
-704 4579 -2131 0
1513 -4326 -2135 0
4712 -51 902 0
1493 -4082 2507 0
4332 2774 3528 0
4782 943 1212 0
-4098 2737 3859 0
270 -1853 -2607 0
3476 49 4434 0
-516 -1688 81 0
182 -2674 3817 0
-2712 -714 4877 0
3331 3996 1033 0
-1036 -1246 3838 0
3418 -1344 3335 0
-3116 -1986 -3372 0
-2987 -121 1771 0
-3989 -3578 -160 0
4979 -599 -4960 0
2238 -1562 -1317 0
506 -3649 1491 0
4961 -2373 4157 0
-346 -3066 -822 0
2046 -1637 -1579 0
-1324 728 4823 0
4095 -2355 -412 0
-3016 -4106 49 0
2989 -1390 -3460 0
2682 -499 3704 0
-2988 -4 3439 0
-3355 2396 -2786 0
2596 4620 856 0
3694 -1877 678 0
-490 2363 1071 0
1950 -2853 -4194 0
4045 3576 1773 0
-4102 2324 1560 0
4354 657 1310 0
3491 2658 -2218 0
3075 4683 4407 0
4171 -3739 4385 0
1029 -4122 1541 0
4087 -753 -23 0
1637 -4564 -2509 0
-3412 97 -3315 0
-4385 1637 -2375 0
-4428 -2448 -414 0
4849 -4700 -1133 0
-1767 -4890 1284 0
-1360 551 4815 0
-3316 3536 -1191 0
4217 -1967 -2509 0
3184 -3751 4351 0
-2824 -3611 724 0
-3698 -1566 4947 0
-1484 -2655 -4239 0
1716 3825 -1486 0
4418 3484 1952 0
-1965 -3027 1318 0
-1725 1729 -1408 0
50 656 -4124 0
1345 -3172 413 0
-1412 -1964 -2878 0
1881 4168 -100 0
1575 2558 -832 0
-916 -4315 825 0
-3813 2113 -4131 0
-1613 -2504 4451 0
-1924 -4435 -3221 0
-2853 163 -3472 0
-4780 4107 1135 0
4725 3519 -3838 0
-2004 3577 -2233 0
-2976 -3131 4429 0
2439 -335 4548 0
-3232 4679 -1706 0
-1044 -2381 4578 0
3015 -107 -4629 0
-144 -3469 -2946 0
-314 -460 3254 0
-569 2465 709 0
-4643 3845 -3257 0
3349 4565 -1151 0
1753 -4788 496 0
4895 -339 -2814 0
-2371 -2870 -639 0
-3946 -1100 -1250 0
-2180 1222 496 0
-4846 -3284 3744 0
-1381 1161 -1779 0
1682 -143 2730 0
832 -1046 611 0
3532 -1210 -1004 0
-693 3944 3092 0
3386 -3618 3599 0
3225 2919 1896 0
-4991 -509 2268 0
1355 2950 -3393 0
-1406 4341 -1181 0
4774 -4104 -2300 0
1719 781 -1321 0
3424 2400 -3635 0
2874 -85 4954 0
-4468 -2085 -1217 0
-2255 2535 -1202 0
-1870 -3685 -121 0
-340 -1239 -575 0
1894 913 2265 0
1079 1185 -4059 0
138 1617 -3577 0
3930 -4473 -678 0
681 69 -1381 0
3424 4345 -2776 0
3143 -2735 1232 0
3900 967 1603 0
-3465 3885 1096 0
4410 2830 4663 0
-2316 -2202 -2033 0
2491 1407 4073 0
3400 4832 1199 0
-1635 -855 -4668 0
2226 3898 -3243 0
-2418 4957 4683 0
55 2123 189 0
4586 -1626 -1592 0
-919 -4141 -1746 0
-3592 -3160 -2627 0
-4712 -3859 -4136 0
-3082 -4244 -2968 0
2118 -2221 -2690 0
-1762 2351 37 0
607 2452 70 0
-4795 1666 4127 0
888 2631 281 0
-4577 -4996 1042 0
4689 3352 -359 0
330 294 -2856 0
558 -1798 -3071 0
315 -3253 738 0
-1760 3818 -1763 0
2321 2867 -2279 0
1267 -2693 3874 0
3278 4782 1646 0
3772 2676 -615 0
-2492 1637 1868 0
3657 1439 3669 0
345 2583 -3560 0
692 4185 1436 0
-1505 -4926 3176 0
-4292 214 -3441 0
-4673 -525 -1227 0
-375 202 -357 0
-4754 868 -3314 0
-4876 762 1041 0
-3597 530 1067 0
3017 -3367 4065 0
-145 1908 -799 0
-2683 -4600 -3390 0
-1584 -3122 -621 0
-4364 267 -2881 0
1812 -3758 2147 0
4771 -397 -3605 0
-1024 -1489 -4971 0
4888 -1423 -3278 0
-1603 -1291 4992 0
-4632 2955 -492 0
-3273 -524 -2692 0
1438 4267 -3546 0
-3972 2813 -368 0
2786 -4682 -240 0
-3828 2494 -3982 0
-4949 936 1207 0
753 -4604 689 0
-2009 -885 -1620 0
-3826 974 4583 0
-382 -1111 -2074 0
2605 375 -4560 0
1284 1234 -2916 0
-43 -3359 1200 0
-4657 -4385 -141 0
-2118 4314 -731 0
-4272 -4239 3385 0
-261 1434 -1159 0
1953 114 -4520 0
711 -2757 931 0
4601 -1981 -3825 0
-73 -222 -589 0
3979 -3418 3028 0
1942 -892 -1279 0
2902 -4452 903 0
1591 -3809 -2296 0
3365 686 -3677 0
2547 966 2035 0
-100 2686 4178 0
1845 1870 3221 0
821 1853 2281 0
4905 -4898 -6 0
-55 1975 -2393 0
-382 -1888 -1105 0
3117 4579 -2722 0
-3962 3213 -1953 0
2894 3792 1748 0
2294 1785 1775 0
1059 -601 -1662 0
3124 -4508 -3323 0
805 4160 -1897 0
4773 -3646 -2052 0
-2960 4757 -3706 0
198 -1956 -3252 0
658 2718 2091 0
-1882 2098 950 0
1144 3017 -2493 0
4846 2837 -876 0
-1411 2083 2879 0
2537 914 -2877 0
4723 -1105 75 0
-3339 3562 4696 0
554 4910 2876 0
-4177 -4458 3525 0
2860 3393 3105 0
4072 -2483 -1011 0
-977 241 757 0
4020 4336 -2963 0
-2315 -2015 -1266 0
-1189 1556 459 0
718 1539 -4844 0
4396 -2550 3514 0
1227 2785 4761 0
-2299 -3284 -754 0
2359 -4120 16 0
28 -2035 -3945 0
463 2948 -2739 0
4717 -424 3901 0
-3678 1977 -4077 0
945 -910 3012 0
-4627 254 786 0
182 850 -2917 0
-1571 -4500 -1408 0
2994 -3093 920 0
-1789 -1180 4422 0
-765 3463 4228 0
-1598 3764 3211 0
4828 -1368 -3902 0
-829 1382 3792 0
-2451 -1291 -3002 0
-23 16 2069 0
1905 -3737 4790 0
-145 -3858 4722 0
1723 -688 -4764 0
4765 2108 2780 0
-342 1009 -2751 0
877 -3195 2186 0
-3746 3421 4762 0
3246 -716 -1418 0
-2990 2761 -2219 0
4019 3775 4253 0
-3758 1837 -419 0
-3505 2223 223 0
333 -1789 -929 0
-3436 -842 -2104 0
4949 3408 -4463 0
191 2464 -2459 0
-3622 -1646 -2373 0
-3500 -271 -1207 0
-1403 3578 -4949 0
514 265 2885 0
-2199 3986 -3128 0
715 -205 391 0
-2018 -4786 2893 0
-4093 -1692 -338 0
-2174 -3293 1573 0
3536 2336 658 0
4543 -4609 2541 0
-1185 2817 1260 0
4250 4850 -2442 0
4141 1291 2962 0
-4187 2366 -961 0
-2169 1569 3208 0
1182 2060 1610 0
-1899 -3926 3913 0
-2179 -578 2908 0
1765 680 4577 0
-3183 -2037 2159 0
-1621 1756 2988 0
4950 4566 -1943 0
4169 1862 3135 0
-3800 2151 1495 0
-878 798 -3959 0
-2488 -2553 3688 0
3744 3699 2210 0
-1794 -2969 4536 0
-4555 -1417 -2559 0
1558 -3775 -3373 0
-1536 949 1826 0
-4259 629 1991 0
3751 -1448 -2807 0
-3443 1532 3190 0
-4228 3121 4713 0
2927 -3704 -436 0
3762 -1269 3410 0
3700 1876 -3680 0
-404 -2694 -504 0
300 4668 1009 0
-4642 4200 -4795 0
3482 -4851 3363 0
899 4412 -191 0
-1126 2077 2642 0
2498 1171 3083 0
4305 3891 4140 0
1557 1924 -4149 0
2375 215 2024 0
4637 -4286 1552 0
91 -3779 -1817 0
-3810 843 2072 0
3547 3335 2147 0
2266 4714 2207 0
4795 -4591 -4966 0
-3759 -2451 -4468 0
-4006 -1208 3243 0
2856 2103 1318 0
-1942 3363 -4758 0
-830 1941 3325 0
3550 -721 2003 0
-2744 3549 -874 0
-3798 4266 -4324 0
-3149 -4580 4913 0
-76 -1969 -2901 0
2994 -2195 -3000 0
153 -1140 2695 0
812 -4179 -2769 0
4310 3289 3101 0
1899 3566 2273 0
-3351 3896 1802 0
-2891 4562 1627 0
-1786 -2719 3205 0
1026 -3584 3467 0
3363 3454 -1179 0
448 3447 -2229 0
-4314 -3335 -1511 0
-70 -277 823 0
3472 4444 -2143 0
3161 4693 927 0
-1690 -1073 -4185 0
3785 1335 2315 0
-4996 -3863 -1292 0
-4530 -1385 -2734 0
2619 -3011 -2151 0
-66 -1381 4696 0
2758 2005 4688 0
-598 2292 3157 0
3551 2931 2289 0
-1403 -4120 -4902 0
-2919 -2128 -3491 0
-4060 3285 99 0
-2906 -3170 -995 0
543 -54 -2014 0
3851 -3931 -4686 0
4813 1007 -2135 0
-869 -3137 822 0
-4931 -2102 1619 0
1188 4992 -1377 0
-4774 360 1838 0
-1628 -4192 -140 0
-2219 -4634 1503 0
1440 4095 -4020 0
-3768 1207 -4398 0
-3634 -1535 -2893 0
-2072 575 2438 0
-3760 1100 -2127 0
4062 3259 1303 0
3874 -3062 1035 0
-318 3446 4703 0
-4076 3 3300 0
3429 -1865 2504 0
4581 -3794 -2652 0
706 3354 1383 0
1741 1165 938 0
4731 1321 -4289 0
4802 -2276 -3540 0
-2972 -4678 4994 0
887 2129 3813 0
4295 4797 -1660 0
-4757 2969 -4184 0
4107 -175 3117 0
3368 3571 -1947 0
-1028 1814 -2940 0
4328 -4029 -1704 0
222 264 3887 0
1090 -2574 639 0
2945 2656 2772 0
525 -707 4346 0
3434 -48 2420 0
646 -1404 4875 0
1451 2191 3529 0
1708 1114 878 0
3436 -158 4261 0
3252 534 1169 0
1053 447 2671 0
65 1031 922 0
-3950 1560 121 0
-169 -1130 -1756 0
621 807 4154 0
-2453 -3081 -3593 0
-4101 -3328 -278 0
-21 119 1532 0
1370 -3729 261 0
-2678 2694 -509 0
-3194 530 4599 0
-3495 -1094 4732 0
707 811 -274 0
4763 -449 4673 0
4119 -1603 -249 0
1606 -324 495 0
-2191 2881 -4329 0
-2229 2427 -2779 0
-464 4685 -1309 0
-2283 -4665 -762 0
1992 -775 -3908 0
-4676 639 1697 0
4254 -4691 2483 0
1724 4680 -2489 0
3080 -493 411 0
941 2531 294 0
-1564 1003 4723 0
4854 -2585 3550 0
-4467 -2880 -4485 0
-950 -4462 1909 0
2286 -3567 2438 0
-4703 -342 -1231 0
-1142 4675 -2389 0
-1497 -3792 -69 0
-816 3715 -1150 0
4892 4560 -518 0
-3999 2164 -1810 0
909 2272 2886 0
3370 2405 4563 0
-1633 2315 4796 0
2470 37 2511 0
392 -451 3735 0
-3689 2429 -4547 0
-2443 -3622 4685 0
3043 2339 4789 0
-641 -780 3723 0
2509 4466 1139 0
-3370 -2594 2645 0
1266 -1043 -338 0
-3102 806 3354 0
-912 -3235 2483 0
-1411 301 -638 0
2893 2228 -350 0
-3812 3477 -716 0
-1538 1228 -2862 0
3099 -212 278 0
-1469 -4615 2730 0
-3982 -4900 1912 0
435 -4249 -338 0
2313 -4878 673 0
-2238 -3866 273 0
4258 1169 -2002 0
-2878 -693 3975 0
555 -987 -221 0
4153 -993 960 0
-407 -3924 -2294 0
-3159 390 3414 0
-3329 1792 4901 0
1089 4713 -286 0
-3770 -2870 950 0
-3254 3485 -1179 0
-1130 505 4430 0
-3587 3857 -3436 0
-1269 731 -4060 0
-909 -3716 1853 0
-1431 -2660 -2073 0
4588 -2867 2525 0
3254 -541 -4989 0
303 -411 773 0
-1849 1462 -3709 0
4330 1961 4838 0
-3598 -3476 3268 0
4572 -4397 859 0
-2244 -3081 -774 0
-2046 -1556 3808 0
-3992 -3262 -677 0
3877 -4645 -787 0
2182 585 89 0
4561 -3441 -4126 0
-324 2081 -3640 0
27 -4433 4722 0
4878 -1891 308 0
-877 -947 -2877 0
4717 -1465 187 0
2485 3678 -3164 0
-2374 -4666 -2497 0
1991 3437 -4630 0
-4139 -3778 3681 0
3912 269 -587 0
-4881 -3301 2803 0
216 4040 -4911 0
4745 4103 -4755 0
812 -1396 2888 0
-3365 -352 1211 0
-1150 -4194 -1884 0
2631 621 2308 0
-23 -1955 2427 0
702 947 -319 0
84 4480 3004 0
3221 843 -165 0
4545 185 -3352 0
251 -1264 -3896 0
-3869 3952 2487 0
-2889 -566 -3543 0
-3394 3079 3034 0
372 4698 3699 0
-4735 -2044 124 0
-3948 2097 1246 0
4506 -4730 -4439 0
-2336 -503 -755 0
2147 -1866 1923 0
4304 -1631 1883 0
-1291 979 2500 0
-3235 -1405 -3329 0
1950 576 -2556 0
4507 4703 4042 0
-4315 271 1165 0
847 1578 4310 0
-2256 -3344 1937 0
-1685 1531 3283 0
4183 -4341 -1277 0
2327 4139 -4937 0
764 1362 -1953 0
-113 -420 4761 0
-2361 3295 3781 0
2902 -2497 -2522 0
-1810 130 3706 0
4751 -1051 -1636 0
-4931 -2492 2037 0
-2780 -605 -525 0
2969 4265 -2453 0
-3343 3397 -4453 0
39 -216 528 0
1614 2320 3481 0
-3458 501 3706 0
920 -3336 -969 0
2544 -369 3030 0
3295 -1980 -4114 0
-315 448 -3116 0
3546 -2872 4699 0
-1903 -821 3364 0
-3565 3905 3498 0
-1295 2767 -3191 0
1420 -329 4260 0
-4973 2528 -563 0
628 224 1485 0
-44 -4716 -1157 0
400 4343 4199 0
3574 -2992 -3091 0
-576 -2501 -1872 0
3969 -344 1906 0
-4917 -2384 -2363 0
-1461 -1237 884 0
3220 -1845 1496 0
101 269 -853 0
3655 1909 -4343 0
1078 1611 2725 0
-2143 2509 2452 0
4795 -1760 3480 0
-1223 3873 -583 0
-2069 4165 -1670 0
4991 -2949 160 0
-2277 -648 -2769 0
-1559 1831 2381 0
841 3903 -117 0
-3245 -1159 579 0
1218 -1051 -757 0
3784 4396 -3136 0
758 1358 708 0
3592 3017 -3790 0
4633 1841 -508 0
4715 2409 2842 0
-4814 -3667 -312 0
-1594 -4203 4628 0
2757 -2470 3095 0
-2898 4991 1376 0
2135 4696 4681 0
3728 1811 4935 0
2821 4499 1669 0
1195 -1949 -3547 0
-1903 -4278 2731 0
-1645 3732 2543 0
-1296 -3381 369 0
2788 3687 -2979 0
4712 -380 -1273 0
2751 -1618 -2977 0
-398 -1622 -2963 0
-4008 -1042 -3190 0
4777 4043 -3752 0
-2696 4229 3525 0
-1278 -2032 1117 0
-525 -3160 -735 0
1490 2555 1054 0
-3071 -4696 -343 0
-3631 1637 -4132 0
149 -377 -420 0
3884 2807 4546 0
4252 -3416 -2552 0
2595 4887 4822 0
-2117 1618 -4127 0
3611 1640 -4866 0
-3115 4024 3125 0
3606 4923 -3161 0
-2381 -2185 4764 0
2283 -4495 -3419 0
3609 3418 3995 0
-2551 1845 -3992 0
1864 3898 1970 0
4868 2736 -3048 0
-2080 -3268 2814 0
2868 2388 -3172 0
2372 2662 3778 0
560 4925 -400 0
2177 -4401 -4673 0
3189 -356 584 0
-1330 148 1790 0
2169 -1476 -4483 0
-2980 3528 4548 0
-1885 -3418 2329 0
-3856 2976 -3133 0
1971 -2579 689 0
4906 1340 -3308 0
-3579 4728 54 0
-124 417 4282 0
3105 4432 -3708 0
-3473 -1727 -2133 0
-4544 469 678 0
4765 194 135 0
-4727 3277 -4268 0
3799 -2025 967 0
-2785 1602 -2301 0
-3456 3086 4640 0
362 4298 606 0
1291 -1606 -2998 0
2517 -4211 3172 0
564 -845 1431 0
122 4772 -3413 0
-4551 1565 -1829 0
-566 1071 -1446 0
4199 3492 -2851 0
4366 428 1453 0
-2588 2552 -4434 0
-2117 -4712 -4966 0
-2212 -817 -247 0
-906 3746 -3735 0
-2572 -4379 2144 0
-1950 -941 -4561 0
2921 -2172 -4353 0
-4025 -4044 -2271 0
-3382 2379 4885 0
2171 -1959 1085 0
1106 -3005 -4950 0
-798 -3829 711 0
1872 -293 1526 0
-1346 2908 4577 0
-1249 -1558 -661 0
-3499 -1573 -343 0
-3596 -3269 3097 0
3574 -2342 -1684 0
-941 1948 -2649 0
4174 4385 -1014 0
-1554 2605 -2938 0
2376 528 4229 0
115 -3129 1226 0
-4654 274 2506 0
-2890 4478 493 0
-1730 2804 3127 0
-430 -2372 3678 0
-1330 -2160 4655 0
4161 3622 -430 0
4768 3811 4027 0
34 -3320 -1884 0
1048 -1439 369 0
-3444 -1432 -474 0
-1379 4157 -3321 0
-772 -3462 -3338 0
-2912 485 983 0
-3229 -790 4245 0
3223 -1559 -3120 0
2494 -2734 -3861 0
3061 2462 -479 0
-3181 3325 -1726 0
4584 1923 -4617 0
-3587 -4320 -4831 0
940 2868 2062 0
214 4686 1440 0
-1297 1743 4361 0
-1796 4098 -638 0
3647 -1874 -507 0
2003 2398 4340 0
-458 -448 4767 0
-22 1202 2507 0
201 1606 -2242 0
2825 -598 94 0
979 488 2695 0
1748 -1076 3731 0
-1976 -4875 1747 0
-4743 2841 -3390 0
4459 1960 -1246 0
4473 -1925 2284 0
929 -4568 4740 0
4439 -1101 -2551 0
4289 1044 4283 0
43 4020 1155 0
35 -2856 3130 0
4367 2834 4348 0
-3032 -4462 747 0
-3853 -1232 -4926 0
-2224 -1341 2097 0
-2307 -967 763 0
3966 1761 -1726 0
2931 -4143 3247 0
-3121 -1017 1082 0
2443 3290 -3270 0
1577 -3966 -325 0
-1134 -417 1980 0
3253 2959 -2949 0
3473 613 -159 0
4275 3859 -18 0
-4909 3947 -4667 0
4204 3655 -2569 0
4591 1122 -2929 0
1945 3391 -2017 0
-345 -2266 -4171 0
2131 -1017 -4061 0
-2587 3438 4190 0
-3548 -4184 -888 0
3743 666 3333 0
4555 323 -4407 0
190 1798 4509 0
64 1243 -639 0
-2902 4266 2333 0
2962 1391 4136 0
-1124 2849 -933 0
2014 -2455 1905 0
-3131 -4487 761 0
-2817 4085 -1994 0
-1728 4964 932 0
65 1357 -3997 0
2251 -706 2461 0
-3873 -3476 3207 0
4453 4209 4879 0
-3153 -2939 1491 0
-468 -741 2033 0
-2237 -1109 -3138 0
-2631 2193 -3308 0
3991 -3095 221 0
4033 4790 -903 0
-3563 -3438 -277 0
-566 -4344 4500 0
-4403 1004 -4222 0
872 -367 3374 0
4545 4566 -1326 0
-4586 4981 2055 0
-2379 -2797 -4738 0
-3690 4238 -1517 0
-2034 1597 113 0
-3451 -3853 -468 0
3342 2803 99 0
-848 -1924 -4181 0
-3711 2300 1081 0
4037 1221 2365 0
-4424 2639 -2930 0
-53 3246 1417 0
4031 -627 3376 0
-2933 -3956 -3033 0
1614 -1895 340 0
3000 1488 -2948 0
-982 -4738 3428 0
2367 -1178 380 0
500 2317 -4252 0
3710 2300 961 0
-2156 -1600 -4255 0
-2780 969 -2507 0
1045 -1867 3996 0
2590 -2240 -4713 0
2446 412 564 0
-2365 3590 -1212 0
-311 -4690 -1264 0
2723 -131 2390 0
1873 1601 -3928 0
3700 -2731 4536 0
-2915 -2260 -2176 0
1414 1310 3020 0
1766 1635 426 0
1673 -4496 3986 0
1943 -1893 1861 0
1995 -3980 4738 0
-2750 -4460 -1154 0
-4616 2981 -1680 0
3686 1392 1000 0
1151 -3385 2095 0
869 -4622 -671 0
-3260 -2493 -1468 0
-1088 197 -4578 0
-4808 -4429 2691 0
3350 -2004 -4873 0
3700 607 -2758 0
4345 3017 2692 0
-4332 -135 -1402 0
1650 2062 -4419 0
-3105 2902 -3019 0
313 -3567 61 0
247 -3309 -4936 0
-2022 4127 3513 0
-1320 -4064 -2851 0
-3259 -561 -1629 0
1982 -4117 -1911 0
-1674 2631 -2799 0
-2914 -4666 -1575 0
-993 3228 -3842 0
-488 3871 -4499 0
3970 -2960 -3808 0
360 23 1608 0
420 -4424 1970 0
2536 472 -4313 0
2570 2260 2107 0
-399 -3294 483 0
649 2796 -2344 0
-2788 2398 -1819 0
-4559 2684 65 0
-3684 -4048 -220 0
1588 -100 -2332 0
-2081 -824 -901 0
-565 3525 -2042 0
3787 4452 2702 0
-484 2515 -491 0
1809 1755 -1240 0
3057 1687 -1611 0
-1804 -2804 -1167 0
-311 -2933 118 0
-3605 3378 4095 0
-4716 -815 3587 0
3234 988 3945 0
2193 1121 -870 0
2693 2128 2822 0
-1812 -3699 -1338 0
-3301 -1009 3954 0
4871 -732 -1906 0
-4695 1580 -4782 0
647 -844 -3761 0
-1332 2326 -1659 0
-219 -3859 -2691 0
2559 151 -3944 0
1827 2570 -3686 0
-1502 -304 -794 0
-132 5000 -463 0
1472 -1466 4410 0
-4076 -124 1383 0
3546 3821 4078 0
-1944 -120 -759 0
-3107 -3720 -8 0
-628 -16 -168 0
3185 557 2410 0
2706 -2925 -1692 0
4428 -3433 -1023 0
915 -4606 -1106 0
2603 2288 -4454 0
677 -1235 -2508 0
-2971 616 4256 0
4026 -4312 467 0
821 3276 4998 0
1982 718 -3561 0
-1435 3766 -3472 0
-4112 -1950 -2415 0
-4727 -3043 -3554 0
-4480 -2685 3209 0
2935 -4444 2230 0
374 -2872 4055 0
-591 7 -1507 0
-3811 1907 -87 0
-1470 1412 1596 0
1723 -4781 4182 0
69 2250 2946 0
-2345 4455 -1671 0
182 4146 -1227 0
1290 -2075 4188 0
-2874 -1914 -4515 0
-2283 2593 -533 0
4557 3699 3810 0
-568 -3763 4436 0
4500 1371 -1042 0
525 -1553 -2938 0
1697 1112 3199 0
-2828 -3623 516 0
4244 -2457 -448 0
-2615 1205 4571 0
1617 210 3541 0
2022 -2986 1269 0
-1837 -1948 2022 0
2696 -1634 -1481 0
4589 1860 2277 0
-436 -1196 -2403 0
-4303 384 120 0
665 -4467 -4852 0
-604 2361 -4634 0
2966 -1289 3869 0
-3687 -228 4706 0
-3056 2730 -2820 0
-2429 -4738 -2792 0
-1728 2322 3064 0
2473 4698 -2097 0
568 4803 -1623 0
-538 -1991 4010 0
-2593 2910 -164 0
385 2386 2762 0
-3467 -3738 -2453 0
-3324 -614 -2357 0
3603 827 646 0
-1638 -3809 -4041 0
-4960 596 -600 0
-4786 -2484 3821 0
562 314 3647 0
3212 -107 2188 0
-2352 4220 803 0
-3594 2919 1623 0
-4636 1667 2400 0
1441 -2737 2744 0
-321 1090 2668 0
1169 -1164 3154 0
4692 -3205 -2946 0
4126 909 -4381 0
4562 328 -850 0
-353 2236 -4966 0
-2186 -238 -3903 0
4749 1325 1794 0
3933 -3510 -1552 0
234 -4719 4790 0
205 -1898 3271 0
734 -3196 2621 0
2564 -827 -1543 0
3075 -2756 -1673 0
-65 1701 4468 0
-1590 3434 -1842 0
-2370 -2776 -306 0
-2816 -1438 2314 0
-3006 4312 -995 0
-3184 2729 -4712 0
2929 -105 -572 0
873 4164 -1009 0
-696 -1998 -2554 0
1971 4127 -1009 0
-3625 4031 -3941 0
-3967 4042 2525 0
-1480 -4565 -4428 0
-2693 -2524 91 0
762 -1616 -660 0
-2702 -561 -3096 0
3483 -3268 -4092 0
648 -1819 -2344 0
362 -540 -4971 0
-2119 3112 2604 0
-1616 -99 -1567 0
1203 -4335 -3070 0
3969 1234 758 0
-3621 668 -1603 0
670 -4317 -3068 0
-1664 3428 -3976 0
2517 3824 -2377 0
4159 -3135 -2532 0
1155 -1812 -754 0
-4487 -3560 300 0
-1747 -167 980 0
-1183 -41 -1821 0
-3473 1588 -484 0
-4665 2653 -3555 0
931 220 1883 0
3453 -2028 -2231 0
4365 -875 -1895 0
-2266 4443 -2623 0
-1660 1464 -4569 0
2193 4266 4856 0
2148 -2915 -1605 0
3444 3461 4704 0
4395 4590 -3730 0
-2829 -715 4959 0
4216 -1053 -3078 0
-4760 1636 530 0
-1993 1290 -2994 0
1038 -3582 -2046 0
-2461 3933 2625 0
-1002 -3520 4902 0
-840 102 -1485 0
3653 2448 -3278 0
3983 -716 -4674 0
178 2767 752 0
-2077 2428 -4155 0
4638 -1723 -4817 0
-2061 1057 1807 0
1118 3501 3185 0
2492 -844 -4339 0
-2885 673 2790 0
-162 -3066 366 0
-2519 -4403 -4174 0
-3786 4342 -1559 0
-3142 -3467 4102 0
-1362 869 3514 0
-3276 -4643 -2836 0
-993 -2292 4747 0
3384 1511 -1706 0
-2639 2763 1701 0
-1649 4902 2532 0
4868 3687 -4755 0
-2164 -4085 -4823 0
919 1515 -14 0
-3963 626 3975 0
3 4436 -3547 0
3951 -1763 822 0
3067 -4028 4106 0
-4528 2206 -1126 0
748 3647 4077 0
4951 -1197 456 0
-3043 -786 3325 0
-4798 -734 4821 0
-264 -2579 1158 0
-403 2564 -1949 0
-1434 -4240 1253 0
-4513 263 1833 0
1400 -3320 -4480 0
-1864 3089 2844 0
3830 -3628 3862 0
3600 -3135 -686 0
4841 -2007 -4283 0
1385 -1130 -397 0
347 2814 -1082 0
1188 4708 -3123 0
745 -1839 288 0
2545 2448 4781 0
629 -4285 -4452 0
-4963 -3773 883 0
-1575 -3238 3309 0
3677 -2747 -4083 0
-2089 758 2614 0
-1543 -1257 -2614 0
4867 3045 1857 0
-3630 -4093 2555 0
-1867 -883 3700 0
1373 -2374 1044 0
2162 4098 -2673 0
-4874 -3918 3037 0
-4668 -3125 2386 0
4209 2488 -1331 0
-1286 1023 -4643 0
3589 440 2146 0
4103 -3276 2030 0
-1757 369 -221 0
-418 477 4532 0
-3657 -3875 -2792 0
-707 3257 -2745 0
488 489 2457 0
1720 -3922 1165 0
3069 -2693 -2646 0
3604 -184 4277 0
1594 1034 -329 0
-4213 411 -3287 0
-3635 -494 3691 0
4316 3726 378 0
4434 -3756 -4518 0
3840 1423 -4205 0
2958 2258 1599 0
271 -1363 -735 0
-4070 -1616 3486 0
4417 -4581 -449 0
595 2270 -2927 0
3366 -4636 -4467 0
594 2247 8 0
-2759 2820 -2886 0
4163 1634 -2971 0
-3905 3402 -2446 0
115 1532 -2207 0
3527 4561 -1850 0
-2872 1664 -3726 0
-3721 454 3888 0
2104 -640 -14 0
232 -3783 -3359 0
-3454 2636 -2107 0
-3410 2983 -2108 0
-163 -139 711 0
-1716 -4050 -4312 0
-639 498 1953 0
4223 448 -445 0
-2921 -117 -1881 0
-4274 1906 -965 0
-2870 -4926 850 0
1411 2376 4720 0
2003 -1367 -3134 0
4481 -3608 -4321 0
-2210 -4869 894 0
3784 -2497 1903 0
2747 -3134 3425 0
-3672 -3129 -4911 0
4269 -459 -2320 0
-2222 -3089 -2359 0
2026 -4102 3812 0
-411 4369 -4988 0
-877 -513 -226 0
-2497 -712 2367 0
-2330 -4643 178 0
3049 -2231 3294 0
1407 -2244 -3401 0
-2942 -4830 -1687 0
2166 545 -2864 0
-3702 -3833 -3172 0
-4647 -413 52 0
3730 -3145 1586 0
3417 -3969 3847 0
117 -3770 4131 0
4217 -486 507 0
4552 -783 -4930 0
4534 -4050 4184 0
-4945 -800 1450 0
4104 2804 -3455 0
-3606 -4488 -4744 0
-3408 764 3623 0
-143 3586 -1701 0
3864 -2739 -2738 0
1782 -2585 -1887 0
4687 1317 4327 0
-4573 -3678 -843 0
3608 347 -883 0
2619 -4892 2455 0
-4665 -3678 2361 0
1914 2062 1353 0
3493 302 -3734 0
3024 -342 2079 0
-4486 -3653 -993 0
1802 -1888 4181 0
-3392 -3599 2731 0
1225 -3447 2436 0
1427 -574 4093 0
-199 3617 270 0
-3581 -894 -2204 0
3198 2500 867 0
972 -476 4055 0
-1324 3902 -1282 0
-2150 -4754 -4264 0
3873 -3108 4632 0
-2566 -3873 -1370 0
-3771 3738 4781 0
484 -711 2458 0
1949 -4153 2735 0
1207 4590 -1323 0
-2959 3565 -1969 0
-4912 -1347 -3873 0
-2233 102 -596 0
-379 2605 -4011 0
-3074 17 3181 0
3718 3792 -2878 0
-410 4056 2283 0
831 -2996 2829 0
4651 -2898 -16 0
4226 1003 -71 0
-3829 -663 1093 0
800 -1287 -732 0
-3418 -947 4474 0
174 481 -3376 0
-3685 4206 3493 0
-1309 1151 4752 0
-894 1955 -3827 0
4468 -1266 -3154 0
-863 174 -2506 0
-3906 468 -1980 0
2456 2022 -4727 0
-4460 -1108 368 0
-2344 1245 573 0
909 -4241 2572 0
-2924 3996 2247 0
4946 3185 2328 0
2067 -3330 -1968 0
-1374 2612 2745 0
3278 1881 912 0
237 634 -4247 0
991 4893 669 0
-3661 -1244 -2405 0
4020 4014 -49 0
122 856 119 0
-1479 -1715 238 0
-3272 -15 2777 0
-4122 -2933 1418 0
4955 -1493 -3332 0
1195 -4016 -311 0
1055 -509 -875 0
3774 3484 4234 0
-92 3299 2373 0
-4497 229 -1754 0
4662 3235 -671 0
3810 -656 2511 0
-3143 -1700 -2874 0
-1599 -3558 1470 0
-2931 -1108 3661 0
-3004 2339 2472 0
3432 4150 539 0
-1316 -4058 -980 0
-3279 4583 2555 0
3449 956 4409 0
3939 3449 -1154 0
-157 4971 1774 0
1120 185 2296 0
1025 -1145 1799 0
-1682 -2923 -4669 0
-112 4126 1982 0
-1904 1207 -4700 0
4764 235 -2543 0
-4462 4318 4952 0
3127 -4713 -1565 0
1860 3929 -353 0
-1706 3472 400 0
4919 -3057 1296 0
3648 2064 -1838 0
-1086 -1646 -2455 0
986 531 3563 0
2633 1332 -4952 0
-3530 4272 -4925 0
-161 -1188 2599 0
1950 2602 1030 0
-2593 -3691 -2280 0
-4447 -78 -4865 0
3861 -4878 -2491 0
-3178 3488 -1145 0
-4945 -4950 4851 0
-1347 2042 2498 0
3182 253 4998 0
4903 -1175 -1592 0
-2409 2098 -4303 0
-1268 848 330 0
-4839 -4124 40 0
-2032 -3753 3926 0
-3556 -3789 4333 0
-1804 -3859 1018 0
-2055 448 2236 0
-2225 -3458 538 0
-435 -902 -1193 0
2863 -3915 -4121 0
-4805 -2947 343 0
-3014 -4641 -158 0
-1659 3682 -2264 0
4932 674 1584 0
1197 -1459 3405 0
3905 3552 -530 0
-2412 -2396 1094 0
-4009 1419 -4577 0
1219 3947 957 0
-4594 -3982 -2178 0
-1693 4034 -4978 0
-2123 2132 1809 0
1556 -3649 4625 0
1656 -3456 4854 0
2030 -3979 -1782 0
-679 1103 3798 0
-4112 332 -4283 0
1599 3880 2694 0
4980 -158 2725 0
-405 2064 -289 0
-4058 4820 -3549 0
3115 2293 -2034 0
1213 -943 1133 0
-4106 -2734 -292 0
-4977 887 1291 0
4758 1705 -1765 0
368 -4040 -3009 0
-2305 2527 2316 0
-3053 3954 -4566 0
96 544 -1966 0
-1663 -740 1212 0
3874 206 383 0
-2832 2072 -4181 0
-2723 409 3577 0
-1301 -1581 -2910 0
1975 -4637 -782 0
-4117 788 -4743 0
-3941 -1160 -4226 0
4638 4631 -1436 0
4114 1279 4748 0
4675 -1807 3043 0
-2959 3653 1988 0
4716 3085 597 0
-3050 -610 2496 0
-4213 2522 -4234 0
485 -4531 1432 0
4841 -4165 -2425 0
-2780 -162 2279 0
1219 -1244 -422 0
-464 3338 -2301 0
-1001 -3570 -2999 0
-2402 -1771 -3964 0
-2877 -1432 4661 0
-123 -2855 4155 0
-2213 -668 4241 0
3328 2551 -1314 0
-1117 1681 1993 0
-380 3837 -3016 0
4374 -2792 18 0
-1001 2695 4635 0
-4673 -2005 -2898 0
1200 2518 2387 0
2622 2871 -3393 0
2062 -3904 -1338 0
-836 -525 4751 0
746 3324 4628 0
944 690 -720 0
-90 -2872 -1466 0
4969 1324 3007 0
2335 3796 -2632 0
2283 -2133 -64 0
-747 3838 -3634 0
-4041 1061 -4377 0
1863 -347 3278 0
-4236 -4777 -4629 0
2152 -1079 -4372 0
-470 -2105 3617 0
261 3347 3872 0
407 2364 3759 0
826 2721 -2579 0
-64 -8 -1504 0
3968 -858 408 0
1148 -4399 2662 0
-4987 4744 2033 0
-2751 -2602 2530 0
-2194 -3757 -122 0
2953 241 -90 0
2473 -4975 -924 0
-3616 2178 2898 0
-1724 -2110 3448 0
1885 1223 3576 0
3672 -289 3066 0
4496 -2835 -2569 0
4209 2007 -4962 0
-430 -3508 -4639 0
1009 3366 -1794 0
676 2267 1629 0
-3972 -4794 -540 0
-4666 -3290 4834 0
4719 2085 -4064 0
-4739 1212 3709 0
4713 -606 -3605 0
4221 -1954 -2165 0
4309 1560 2320 0
-3358 -3885 3642 0
-301 -1329 3249 0
3890 -2931 -496 0
4050 1289 -580 0
467 -1476 -1294 0
4686 -3902 4483 0
-2610 4905 -4893 0
-1255 -4075 -2541 0
-1644 -3212 -3755 0
1639 2956 -1870 0
4272 -4133 -911 0
4104 1675 -3434 0
-2648 -362 -3219 0
-393 -658 1514 0
1723 -920 -707 0
491 4219 1312 0
3895 619 1260 0
-276 1553 -4839 0
3977 -3675 -4757 0
-2894 388 1386 0
3634 -3129 -3690 0
-4762 -3215 175 0
-2173 -2164 -3359 0
4235 -1021 -2529 0
-2981 -2194 3750 0
-4257 -349 -1211 0
-4420 2163 2954 0
-3006 -4641 -382 0
2162 3133 2104 0
3839 1805 -275 0
463 1063 1408 0
2552 2803 2660 0
-4705 -1998 4164 0
2142 -1181 -4884 0
2489 63 -2538 0
3875 4031 25 0
1464 892 -2534 0
1126 -3555 1992 0
1003 -891 -133 0
-1603 -1200 306 0
4949 3554 3367 0
-4505 318 -3326 0
-3460 -516 1065 0
2671 -1338 4611 0
-3739 2152 -3846 0
-2342 -3562 -2289 0
1106 -2880 -886 0
-2038 1454 4796 0
-3588 -655 1895 0
2445 2188 2375 0
704 -4153 -1330 0
4991 -2913 4495 0
2278 2834 -2905 0
-1421 819 2242 0
3176 4563 -2158 0
-2732 1894 -2846 0
-2823 4915 -4076 0
4361 1307 577 0
-551 4640 -170 0
2526 3221 3199 0
1521 2399 -4005 0
1917 -2944 -255 0
560 1294 2945 0
-2570 -2002 -172 0
3442 -3060 2695 0
636 1841 -819 0
2325 -1186 -2455 0
-2961 -3399 4216 0
-4702 -908 4996 0
1008 -563 -4344 0
-3166 2522 2528 0
-1765 2099 761 0
-1090 -582 -3165 0
143 -1135 816 0
-786 -1680 -3287 0
-1872 2988 -3699 0
196 -2858 -2876 0
-3290 -4247 -63 0
1898 -311 -4341 0
-1250 -2572 -4024 0
-2031 -776 3615 0
-843 273 2766 0
3470 -1707 4617 0
525 -2618 4818 0
4592 -1007 -2976 0
755 -2652 -4491 0
-490 3671 -3490 0
2107 4410 -2448 0
4193 -934 -2322 0
-2534 4611 -355 0
-2769 -147 -2937 0
4938 1540 -3811 0
-2342 -1128 -4265 0
3535 -566 1467 0
-4887 -64 -2366 0
-1116 4270 -186 0
1311 -4060 3637 0
3691 3220 -844 0
695 -2110 4866 0
1322 -3518 -2957 0
-881 -2718 3048 0
1313 3980 -4496 0
583 3513 280 0
766 -149 -3373 0
-4884 -4603 -1313 0
773 4096 -1003 0
-1190 -3952 -2593 0
-384 1929 2438 0
4205 -1476 2435 0
3353 2339 -1247 0
3347 4514 -2563 0
908 4821 -1389 0
3666 -1764 978 0
3352 -1975 -450 0
2492 -1256 -1227 0
-2131 1854 2206 0
258 -3643 2334 0
1180 -1359 -3106 0
2674 2168 4709 0
-4608 -2214 -1675 0
-2924 4560 -3638 0
3681 -1962 1253 0
-3424 4506 1 0
1773 4123 -957 0
-4182 -2109 48 0
-172 2058 2528 0
3644 -3826 -505 0
4812 -3639 -2428 0
-4317 -4032 -2138 0
4760 -3518 167 0
2322 469 1932 0
-479 2285 -1908 0
1874 -3832 1350 0
-412 -383 2624 0
-3781 1328 -3264 0
-2024 -4648 -2704 0
1758 2534 -4367 0
-303 3709 -2924 0
-470 -1466 4468 0
-289 2568 -19 0
1241 1959 -2894 0
-389 -1628 -2182 0
-3131 2600 -2416 0
3947 -3210 -3368 0
4614 -2493 -1748 0
-4949 23 -3405 0
3966 -664 -772 0
-1497 -4647 1622 0
-2717 2791 1236 0
-1265 -576 354 0
-1796 -3464 -2641 0
-1139 -2601 -4049 0
3775 -3208 4732 0
-4543 2457 996 0
-4528 1317 3927 0
-916 4475 -1577 0
-4086 -4046 -3491 0
4238 292 -1632 0
1007 -3671 3113 0
-1431 -3485 2850 0
-2001 1073 -1878 0
-1096 2672 3049 0
2467 -2391 1156 0
3722 4896 -2926 0
-3116 -4551 -431 0
-3508 -1712 4103 0
-3952 -2499 -821 0
-3918 101 2194 0
-208 -3863 1980 0
2900 -372 4961 0
3488 -2394 -2270 0
389 2196 1603 0
1139 4014 2580 0
4549 1320 -4489 0
3995 -2024 -1076 0
3577 -3696 708 0
3534 2900 -127 0
4117 4042 3098 0
2719 3639 -2558 0
831 -508 2118 0
-3175 2976 -202 0
-4082 3187 2671 0
-34 22 3791 0
-3304 -2041 -3844 0
-1025 -3847 -3713 0
4766 3801 -485 0
613 4408 -767 0
1120 -3232 -1075 0
3313 -1410 2874 0
-573 -3304 2978 0
268 1150 -2387 0
-2643 -925 -2845 0
-40 -3166 3781 0
888 69 -2393 0
-3542 -3027 4836 0
2469 -2799 -4950 0
1211 559 -1008 0
-2651 1210 4806 0
3463 -1297 3923 0
4551 274 -4508 0
-4516 3511 -4573 0
3492 903 1283 0
2476 -1844 4342 0
-4972 1199 1862 0
4785 -1973 2646 0
1329 356 -1640 0
-4179 -4310 3314 0
3254 -446 4315 0
-2694 2054 4101 0
-3921 -1930 -246 0
4538 2029 4556 0
-500 3708 -4546 0
-3724 3393 3410 0
-3960 -3870 2295 0
3718 3880 -3848 0
-3423 1139 302 0
-418 -3210 3322 0
4161 2564 -797 0
529 -3033 -3491 0
-1359 2073 4991 0
-1973 -2179 4994 0
-4231 27 -1615 0
-2871 1453 -1544 0
-338 -162 1649 0
2595 -608 -3655 0
2253 -167 1238 0
2504 -3676 -3565 0
4648 1912 4671 0
2204 -1619 -4308 0
4050 -4644 -4035 0
1777 360 -4903 0
-3838 316 -4503 0
-4414 858 3111 0
-1566 88 -3384 0
-2215 -2898 1179 0
-2599 -4391 1020 0
4616 -1048 4624 0
-2972 4780 544 0
4730 2840 -604 0
-155 2003 1990 0
3298 1509 -2468 0
-3276 -2944 320 0
3346 -3333 -4454 0
-2200 -224 -3198 0
-3037 1509 -1018 0
2553 3976 -1036 0
-4942 -1510 -1262 0
-1812 4362 3568 0
-2450 2392 -2429 0
2280 4266 -874 0
-4073 -2886 -1932 0
3891 -2247 -3845 0
-1685 -4794 -2719 0
-1275 4313 441 0
3321 3889 -1635 0
3132 1959 -1819 0
-3644 -3459 -1320 0
4128 -121 -4351 0
4581 -4410 4629 0
-3731 -4474 -4054 0
-4182 -777 -4881 0
4812 -2782 3928 0
-3296 4751 1051 0
-1328 1474 3492 0
-4052 1078 -849 0
-997 -4884 1119 0
1740 -2296 3284 0
-1708 -230 2964 0
1177 -3553 2338 0
2004 677 -2243 0
-2971 -510 -3716 0
-3697 -4758 3542 0
-2180 160 -1220 0
4956 4033 -1535 0
2766 -1159 -2454 0
107 4498 -4383 0
-3732 -4050 435 0
-1736 -464 3361 0
-293 4722 3009 0
4690 16 -2174 0
-124 -4151 3344 0
-1707 2585 -3893 0
-438 4081 2004 0
-1491 2829 -1038 0
3071 2363 625 0
-2810 1002 -1831 0
-3630 -1908 4754 0
-1882 2794 -3673 0
4767 -1483 4068 0
285 4917 2970 0
4228 75 604 0
-4842 4736 -2566 0
3393 -3623 1010 0
2122 -3884 -3221 0
-4204 4821 -2699 0
-1753 -2109 -936 0
1728 -3968 -4341 0
-2222 2578 4300 0
2305 -942 -2253 0
2513 3097 -2878 0
2335 -1410 -315 0
-1522 4757 -3071 0
-4329 -2147 -3758 0
1367 12 -30 0
-1377 215 2823 0
-2045 241 3425 0
-3083 -89 -1833 0
56 987 -3041 0
181 4639 2952 0
-1084 408 4461 0
951 -4196 -214 0
2832 3974 -1731 0
3047 -4091 2211 0
4475 4337 3479 0
-1563 -3509 -2367 0
720 -1354 -1158 0
1277 -4581 1192 0
-2303 -4766 -921 0
-4546 -1607 -3542 0
-379 3575 4275 0
1306 -365 746 0
-540 2334 321 0
725 -3139 417 0
-1720 2634 -3728 0
2335 1362 310 0
2855 4096 -3244 0
1378 -868 -3605 0
701 4767 -2858 0
-3921 1698 -1003 0
-1551 200 -299 0
222 -1505 -4703 0
-1230 -3350 -2390 0
3371 -1011 4469 0
3716 -4094 4327 0
-1384 528 4991 0
1613 -4621 2496 0
-1868 3203 -4837 0
4824 -4233 -498 0
-5 3903 3312 0
4322 925 -1959 0
-3921 -4012 -2894 0
13 378 -1023 0
-3580 -2149 -699 0
-1352 3345 -2617 0
-3739 -898 -4405 0
-2134 -957 2640 0
-2246 -1223 4677 0
-3738 -2974 -3848 0
-2579 -19 2039 0
-3084 -4562 -166 0
1576 4617 1017 0
-4561 3293 -3480 0
-980 56 -2032 0
-2323 -3574 -4821 0
-4908 -4654 4877 0
-2882 -3223 -4335 0
-2762 -1992 4212 0
-3530 1540 3748 0
1981 1130 3497 0
2151 -1233 -1492 0
-1878 3541 830 0
238 414 -3209 0
850 3487 -4509 0
-834 4113 4706 0
-1497 -2604 4537 0
-1897 3850 2845 0
-1422 4900 120 0
-2380 -880 -720 0
2004 434 -2233 0
3954 -2292 -3916 0
-4833 -4126 3730 0
-1865 20 -661 0
4635 1610 -3340 0
-736 2860 -4177 0
759 -1190 3660 0
380 466 -3090 0
-4990 -3043 1724 0
3557 -708 4199 0
4196 -1812 -3276 0
2447 773 4839 0
-661 -597 -3550 0
144 -1810 -1327 0
-1966 2467 2361 0
-1583 4573 -4534 0
-1389 -1387 4987 0
-4698 -20 2135 0
2146 -4202 -962 0
-972 1150 -2699 0
-3760 -4368 -2101 0
1247 -4334 4900 0
-3119 289 -2165 0
-4359 282 -4235 0
441 -4526 -346 0
-656 3774 3355 0
348 -677 -3569 0
3892 3597 -2461 0
-294 -1343 -4877 0
4799 2844 -2426 0
-751 88 4009 0
4363 4912 -2641 0
-4172 -3556 -2189 0
1690 -1876 35 0
-140 577 -1367 0
1957 4080 -2063 0
4490 -2857 4587 0
1053 -1632 2298 0
3522 2937 -4450 0
-2231 -4184 403 0
2864 -1342 3588 0
3523 3690 19 0
4936 2845 2775 0
-2217 -4961 2345 0
-3962 2329 3811 0
-962 227 -2205 0
2442 -1156 -4907 0
-3659 -2609 3760 0
-4420 515 -3642 0
502 -2299 3372 0
4553 1988 826 0
961 2642 -3396 0
3854 -4150 3031 0
3827 -550 -1793 0
-4080 -4908 -4216 0
3563 -1179 1694 0
-1519 3320 902 0
2374 646 2284 0
2576 1446 -1212 0
-4862 538 2730 0
-1707 -1116 3227 0
3361 1959 3418 0
56 -1095 -2055 0
3384 260 -2726 0
-1030 2390 -1150 0
586 2290 1713 0
-2276 2299 4172 0
4514 69 -2342 0
2538 538 -1093 0
4397 -1850 -1617 0
2253 -1562 73 0
299 3308 3009 0
2369 1636 4768 0
1146 1463 471 0
4845 -3373 -1225 0
3035 -4400 707 0
-1358 -3506 -1452 0
2567 1921 -3440 0
3046 1689 -862 0
-1485 3915 3034 0
-2633 477 2956 0
-2788 4458 -3787 0
-651 479 -943 0
-4239 4610 -4442 0
2557 823 -738 0
-3398 3484 2188 0
3329 -2348 -1487 0
-1619 -4164 -1105 0
4995 -1642 1300 0
-4881 4512 4558 0
-1672 2252 -1528 0
2766 -878 3208 0
4622 -1510 -2843 0
-1235 -4921 -2468 0
-1312 4631 -4507 0
-3144 -3758 -1302 0
-4593 3698 3343 0
3458 1170 2718 0
-2571 -2333 3871 0
-4993 -3497 -1598 0
-4963 258 4385 0
4005 -4568 -3089 0
1268 -3717 2553 0
4240 4469 368 0
-3268 2606 -408 0
-2736 3301 -473 0
-2201 3125 1735 0
-1699 -360 3806 0
4012 -4373 -4078 0
16 2919 2400 0
748 2026 -4749 0
1257 4241 -4256 0
-3620 2396 -1584 0
-3283 374 -4058 0
-112 -3894 -635 0
1078 -2334 -1578 0
2062 2351 1267 0
-3008 -1103 -3096 0
-2746 3105 -918 0
-1434 3601 225 0
-3625 -4724 -4340 0
-967 -1153 -362 0
356 4964 -2810 0
4352 -4572 -3461 0
-633 4794 308 0
-2956 -2056 -3867 0
1095 314 -3439 0
1316 4150 -3665 0
4780 -4384 446 0
4956 -927 1041 0
-3119 -4162 4931 0
919 2346 -3904 0
-227 -3335 -3771 0
-1909 4083 1669 0
1730 -439 3228 0
2189 -4102 1227 0
359 -4465 382 0
-967 434 -2680 0
-14 -1448 -631 0
3973 -2634 -3457 0
3624 2917 -446 0
4892 3177 3978 0
769 -2768 2502 0
3319 -3188 2433 0
-3352 -387 3467 0
4731 2568 -3003 0
-4253 1644 1781 0
-4820 -4625 -4145 0
-236 -3981 -993 0
3082 -519 215 0
4769 1596 -2245 0
1101 -4544 1480 0
-2508 -1038 1620 0
4120 -432 195 0
1488 -4217 3170 0
4209 -1744 -3534 0
-1568 -701 4686 0
-889 -3672 -667 0
638 1811 -178 0
3027 18 -1996 0
2607 -4982 1995 0
4119 -3877 4209 0
-166 -1619 1165 0
1477 -2471 -1985 0
-2124 3485 -3808 0
3029 -4817 3519 0
3312 -1413 3595 0
-3929 1128 -4476 0
920 2179 -986 0
-2209 643 2460 0
1948 -1386 4320 0
3637 3946 -2899 0
2285 1774 1971 0
-2400 -39 -4521 0
-2748 -3831 3017 0
2002 -3428 3046 0
3627 -1007 1151 0
-560 1502 59 0
2273 -1892 -3922 0
1159 -4988 -1479 0
-3133 -2168 -4481 0
-2105 4217 -1283 0
-1781 -4029 966 0
-2040 -579 4277 0
1683 4547 -4770 0
-3445 622 3616 0
-17 1652 449 0
-3910 -4031 -2642 0
-1128 2633 -4676 0
-4872 -1039 3210 0
-2842 1532 -3540 0
-1666 4904 20 0
414 -4706 3266 0
-1199 -2982 -1592 0
-722 -4758 2843 0
-4026 -1443 -1529 0
2161 444 -1155 0
-1120 3740 2692 0
-2732 1913 1603 0
-2568 3483 -3738 0
-1099 -3091 -2026 0
-4739 1470 -1442 0
4221 1885 3416 0
-2905 -2174 -564 0
-4440 3194 -3567 0
-266 2120 3722 0
1016 -2854 4124 0
4614 -1610 -3651 0
3221 4014 -4754 0
-2207 -4554 2827 0
3041 3297 1877 0
4094 3287 4 0
634 -4944 -4543 0
-720 -320 -159 0
4624 -248 -3654 0
-4040 -4698 -4188 0
-1040 48 -2858 0
1682 -4047 -276 0
1485 -2135 620 0
-3938 -2758 2317 0
1205 1845 3153 0
4602 -2974 -1573 0
3411 -2082 -1071 0
929 -1124 -3003 0
-2484 1689 263 0
-2184 -3377 -3044 0
-2186 2675 1667 0
-676 4465 -4221 0
2404 -2095 2180 0
3316 -1742 790 0
1003 4780 4814 0
-2560 -1252 4814 0
-29 -4205 608 0
-3452 4604 3516 0
4410 -4928 2763 0
-264 1909 4874 0
-643 -4993 853 0
2248 1473 3697 0
2386 -4093 -4993 0
4546 3743 -757 0
791 -2078 -2258 0
-4612 2076 -4672 0
3778 -2427 -2049 0
-3124 -4155 2660 0
-2588 112 -3872 0
3566 -568 -2554 0
-2609 -147 -4804 0
164 943 -2812 0
4420 -2899 2934 0
1544 3529 -1164 0
1585 2045 -4622 0
-1773 1558 3365 0
-4283 -4872 3209 0
-1100 -1708 -4998 0
-270 3250 4272 0
-4662 -4232 3312 0
-551 4102 1670 0
-1603 -3632 -2368 0
-752 -262 -2402 0
-1426 -1928 609 0
2685 3210 3675 0
84 919 -50 0
-714 1321 -4903 0
-3906 -2883 -1070 0
-2652 -750 587 0
1646 4168 -884 0
-3656 -3742 2608 0
3292 3319 -1514 0
3166 3397 479 0
819 4336 -4223 0
-1038 442 1753 0
-2915 2182 -4112 0
1957 3753 -4780 0
1316 -729 2811 0
2355 -3863 1695 0
-1843 -3716 1746 0
359 2288 3163 0
-513 -2425 -2747 0
1477 -4226 4620 0
-3791 -4915 -4974 0
-779 2689 -2773 0
4728 -492 1615 0
-3587 -1376 -4018 0
3333 -1485 4930 0
-3636 -2127 225 0
-3552 4594 2061 0
2369 -2074 -1518 0
1004 1517 -146 0
-3323 -817 2416 0
1848 3596 4246 0
4115 -4203 2184 0
1264 -572 -4505 0
-439 -309 1457 0
-4587 -967 1158 0
1320 -3663 -225 0
2146 -933 -46 0
-110 299 -231 0
-4139 -398 2404 0
-290 3623 1380 0
4367 -2268 -1226 0
1039 -1214 516 0
991 1875 -4319 0
-3252 2521 3351 0
4251 4984 806 0
3353 -4501 -1684 0
-4834 2993 -2638 0
3423 4574 2729 0
-2319 -1556 -1801 0
672 4388 3062 0
3963 -2667 2788 0
-2668 3692 -1131 0
-3249 -3899 -354 0
768 -3771 -787 0
-3542 -3752 3357 0
2859 -4308 3281 0
2496 568 -4566 0
3104 2923 -3353 0
4126 -2684 -1669 0
-2816 347 3461 0
1013 2616 769 0
2910 -4173 -4090 0
-4418 1665 1976 0
-640 -3132 -3388 0
-4491 3314 641 0
-2610 2110 -3361 0
2537 2491 295 0
3077 4573 4078 0
3076 -4265 283 0
-2699 1296 298 0
-3180 3216 2491 0
4247 -1745 2910 0
3265 1311 -4287 0
