c Large 3-SAT formula for GPU testing
c 500 variables, 3000 clauses (ratio: 6.0)
p cnf 500 3000
-471 262 243 0
372 110 -160 0
475 187 406 0
59 -116 382 0
-58 -61 -35 0
-357 -303 279 0
-24 496 341 0
372 -416 -329 0
175 294 -224 0
-452 -145 92 0
181 -467 -73 0
-375 168 -458 0
-236 176 57 0
281 151 347 0
-42 158 -178 0
152 108 -235 0
373 -19 -182 0
-52 -448 466 0
481 489 -332 0
-145 161 -6 0
322 353 -227 0
339 -237 53 0
494 -420 71 0
-499 -268 -207 0
-330 274 256 0
-485 164 -328 0
-454 194 495 0
-451 -49 180 0
-384 114 326 0
-72 355 -4 0
-237 -135 430 0
388 52 356 0
-354 -195 -253 0
53 -181 111 0
86 -224 416 0
-471 -11 23 0
148 244 -434 0
-433 -233 -128 0
246 -299 -174 0
476 -402 74 0
120 -404 134 0
327 -51 493 0
-85 65 461 0
72 -433 -166 0
-175 272 -65 0
435 305 -103 0
-434 479 231 0
-133 -93 267 0
368 -65 342 0
-98 34 -251 0
-120 -417 307 0
273 410 382 0
60 -155 246 0
387 493 -108 0
-498 401 -489 0
-424 -313 24 0
-180 448 -151 0
337 90 -36 0
159 202 173 0
296 401 -148 0
-206 353 125 0
-450 321 -409 0
417 471 -27 0
-342 -30 290 0
483 347 -411 0
-20 -185 -406 0
-108 240 -383 0
203 446 210 0
-161 119 291 0
-262 326 208 0
-27 156 -389 0
174 -349 221 0
377 -138 -332 0
262 -147 215 0
56 293 -459 0
386 -53 431 0
151 63 166 0
453 162 -182 0
-388 -376 162 0
-177 -432 57 0
186 312 -257 0
-140 489 214 0
-434 -360 230 0
166 209 -497 0
371 -175 -435 0
-171 -424 -350 0
-146 343 -280 0
223 -194 313 0
-85 365 -6 0
-462 -198 231 0
-300 -236 -143 0
-176 255 -28 0
-336 -111 443 0
392 214 -162 0
-282 -459 -284 0
417 -301 -194 0
-221 -140 -158 0
-478 -197 73 0
-113 277 -450 0
293 304 295 0
254 -415 229 0
223 81 390 0
357 -135 -192 0
-351 209 -475 0
105 -223 -301 0
-300 -63 -303 0
-100 -475 277 0
488 379 -58 0
-390 -195 -73 0
110 -163 -195 0
-231 -6 238 0
409 -236 -242 0
389 332 10 0
58 7 -318 0
-65 -279 263 0
207 371 -295 0
239 -41 120 0
-460 -166 -74 0
361 -450 -363 0
426 146 -277 0
-254 122 156 0
466 68 480 0
-344 -379 455 0
64 -52 -432 0
477 171 192 0
262 33 -114 0
-390 407 324 0
48 -378 -263 0
267 358 448 0
72 263 -61 0
495 -288 -307 0
155 107 291 0
268 -409 500 0
465 -379 -89 0
-396 204 246 0
-136 -76 456 0
-6 -452 -363 0
447 -68 65 0
151 -396 -469 0
-362 347 -116 0
-225 284 348 0
105 -334 479 0
-499 -416 459 0
209 -320 -244 0
-352 329 297 0
-178 -131 -329 0
-468 -270 -131 0
102 121 -230 0
117 -116 459 0
-488 -437 -184 0
122 140 104 0
169 -445 -496 0
-254 23 36 0
-77 -79 -344 0
-369 432 -30 0
-417 -259 -462 0
452 75 20 0
-223 142 -132 0
25 123 -108 0
-211 -173 18 0
-333 -252 190 0
145 246 84 0
-49 495 -179 0
489 -273 55 0
178 269 -150 0
-445 -173 199 0
137 -267 -389 0
201 43 374 0
90 -469 425 0
307 32 63 0
482 -147 -199 0
393 202 -172 0
-304 -377 -325 0
-136 453 -445 0
-278 73 -183 0
231 -132 372 0
172 -201 271 0
476 -344 349 0
-47 -352 338 0
394 -274 484 0
-463 -169 -76 0
148 48 -404 0
159 -166 117 0
-207 -369 291 0
72 16 160 0
-315 -147 -49 0
105 -373 254 0
426 87 -325 0
-181 -440 -484 0
-310 -123 197 0
436 303 -134 0
188 83 -357 0
459 126 -42 0
111 240 -80 0
157 210 452 0
-285 5 465 0
-209 -253 137 0
-168 -402 484 0
-342 -481 188 0
471 -72 309 0
-377 425 -199 0
-52 -259 -415 0
248 26 -439 0
-192 71 92 0
64 -305 -489 0
295 -93 -405 0
374 -166 -129 0
180 104 -414 0
-12 -224 259 0
225 160 460 0
-98 -467 -22 0
-201 347 -493 0
-492 425 -331 0
-103 -388 -457 0
-394 145 456 0
457 239 -386 0
-45 284 28 0
-56 -4 -1 0
157 -440 475 0
72 -67 -319 0
-114 421 -440 0
106 321 -335 0
-263 54 -118 0
463 213 -437 0
302 -238 -424 0
199 73 357 0
239 326 51 0
-389 486 -183 0
115 -329 -48 0
457 36 -404 0
134 218 339 0
-280 -336 214 0
295 -185 -462 0
479 -374 73 0
-210 285 -9 0
-150 -276 -346 0
275 112 -373 0
32 259 94 0
-475 423 -290 0
154 468 -31 0
121 -401 464 0
-400 -144 275 0
18 -232 280 0
-234 270 378 0
-272 2 305 0
-432 104 -467 0
-19 277 -203 0
-76 -497 -259 0
-497 -386 -276 0
-83 348 -453 0
370 -262 324 0
316 -121 -383 0
-37 11 -424 0
-117 -270 -144 0
-377 -184 107 0
54 172 -332 0
-420 -184 -251 0
285 247 264 0
-172 -170 -459 0
-149 -129 -445 0
-318 -444 42 0
19 485 -30 0
24 17 -62 0
-450 -11 206 0
145 391 255 0
55 111 298 0
179 109 48 0
249 -353 -411 0
254 330 -285 0
79 -414 -242 0
-467 190 324 0
436 -391 177 0
301 -85 -214 0
410 -180 -31 0
-452 -304 -126 0
30 -414 226 0
473 238 -175 0
-48 493 394 0
-120 369 -302 0
-184 170 418 0
-490 56 -431 0
211 7 76 0
202 430 163 0
-449 -344 396 0
304 -455 -475 0
-172 -209 140 0
-171 222 -352 0
223 -59 44 0
115 -379 -205 0
-187 -375 110 0
-119 423 -368 0
-356 -400 465 0
448 -132 -342 0
-490 -310 317 0
293 -474 141 0
78 -391 239 0
39 -303 352 0
225 -384 495 0
222 379 -108 0
65 272 79 0
-189 -19 -367 0
331 138 487 0
-317 149 466 0
495 -18 -121 0
164 -304 210 0
-203 68 -225 0
348 -277 192 0
469 260 202 0
486 -321 263 0
-46 -343 -479 0
333 -309 -10 0
88 118 -162 0
-79 481 20 0
396 167 -497 0
-249 294 -271 0
-391 135 -59 0
-268 131 -447 0
259 338 472 0
333 475 427 0
-187 281 417 0
226 -44 -477 0
394 -153 -306 0
-422 380 -460 0
17 169 -170 0
135 360 201 0
81 -99 -199 0
439 352 458 0
500 412 367 0
162 229 298 0
-410 -276 144 0
-208 -131 -80 0
31 422 403 0
122 -188 405 0
301 413 -420 0
165 262 -391 0
198 -279 200 0
185 -337 -162 0
401 15 -119 0
123 -291 -446 0
211 -456 -410 0
279 365 -321 0
-161 199 474 0
243 -301 389 0
121 -159 -433 0
-309 369 189 0
-260 247 -346 0
393 -432 -88 0
68 -92 -243 0
-49 -360 376 0
-235 469 209 0
-84 -235 436 0
52 -27 -3 0
-287 -406 478 0
-467 155 154 0
-42 -94 -392 0
-260 326 -411 0
-33 463 -193 0
-384 -199 -76 0
463 -137 343 0
272 54 46 0
-243 40 -411 0
471 -479 -417 0
10 426 -122 0
302 315 -309 0
-212 302 -436 0
164 489 254 0
394 266 -45 0
209 -357 -163 0
93 -7 125 0
-431 490 -141 0
366 348 400 0
-160 -253 -255 0
-118 22 365 0
-52 -393 -206 0
122 425 -395 0
87 -125 -387 0
458 -188 215 0
-412 -61 -151 0
349 271 -32 0
436 -103 102 0
435 -190 202 0
-59 -99 96 0
237 215 -59 0
287 -142 -248 0
425 404 -188 0
-163 12 158 0
-426 -57 405 0
-397 314 180 0
-218 442 148 0
-265 29 -440 0
-425 -358 310 0
-279 -232 44 0
-405 -303 336 0
114 2 -255 0
-378 -403 67 0
-108 245 71 0
-369 -12 -476 0
-200 -126 -51 0
-356 270 -133 0
-105 148 357 0
74 -161 -141 0
297 -130 52 0
-327 466 -185 0
469 402 -286 0
275 -129 -101 0
-69 12 -387 0
-150 -166 -453 0
-211 -85 271 0
200 -240 183 0
-372 120 -9 0
-424 -76 -291 0
-488 228 149 0
-117 361 150 0
-205 295 -395 0
-203 -487 -356 0
-237 -89 452 0
-452 -5 -79 0
-46 96 -283 0
422 -47 58 0
-409 -164 -459 0
-347 484 -101 0
-366 -229 -275 0
296 151 373 0
250 389 -357 0
-55 106 -266 0
-220 301 -71 0
-152 273 348 0
83 94 205 0
-60 -77 409 0
26 -23 75 0
-317 474 -283 0
310 291 438 0
352 313 151 0
-18 -91 277 0
480 -449 78 0
-373 496 285 0
-119 -199 131 0
-144 93 454 0
231 226 -338 0
-248 -68 401 0
-83 -286 -170 0
177 131 240 0
-322 -381 209 0
-220 -405 -207 0
332 -343 196 0
261 -296 151 0
489 445 -113 0
-153 303 151 0
80 -483 428 0
223 491 -444 0
449 -126 322 0
73 -263 -498 0
-202 -72 87 0
260 -85 134 0
493 -326 260 0
50 -477 385 0
126 -205 238 0
-264 28 -444 0
348 270 102 0
403 304 -111 0
491 -34 -83 0
33 332 -118 0
188 -494 -229 0
313 -30 316 0
435 -339 -414 0
208 -129 -160 0
499 -6 14 0
151 -246 -256 0
18 -75 136 0
160 56 -402 0
231 361 428 0
75 498 -204 0
410 -53 442 0
-326 435 108 0
190 279 -182 0
37 221 306 0
439 122 -251 0
-422 464 -228 0
-481 -49 464 0
-472 77 -464 0
-417 -3 429 0
456 424 -481 0
-47 343 386 0
160 -299 230 0
-119 398 206 0
-404 399 -421 0
-1 -161 -160 0
-471 217 42 0
328 374 -308 0
-332 425 13 0
54 -413 -428 0
-479 -315 140 0
-17 -284 -424 0
447 497 176 0
-128 -166 42 0
168 176 487 0
100 420 -423 0
76 -88 -187 0
-221 -498 451 0
-250 10 203 0
-161 -486 -23 0
-383 27 310 0
-210 -458 327 0
-317 -233 -406 0
-481 -112 459 0
-288 336 -38 0
-409 401 473 0
-10 318 -118 0
40 202 -274 0
413 209 -236 0
86 -280 -471 0
82 -199 315 0
365 400 -220 0
157 16 -452 0
-494 306 -378 0
-295 -144 418 0
-470 131 137 0
-27 431 -238 0
-204 -374 310 0
-195 475 13 0
-115 71 413 0
-7 387 -287 0
429 156 -238 0
84 17 53 0
-404 -340 475 0
59 125 -23 0
-166 -336 -6 0
16 -63 -305 0
145 -387 -489 0
-73 292 -155 0
-194 434 -223 0
65 -103 -457 0
152 -80 -100 0
464 111 38 0
-221 -151 21 0
-143 -3 341 0
-280 -235 69 0
389 -134 500 0
197 29 -468 0
453 -135 349 0
237 346 -12 0
-290 362 -330 0
-12 122 -214 0
387 293 378 0
332 442 454 0
461 -185 -17 0
-85 311 238 0
-125 381 -386 0
76 230 -341 0
410 431 122 0
484 -488 201 0
25 -65 174 0
-1 309 226 0
-298 439 466 0
-228 -131 500 0
200 -327 373 0
104 -396 -323 0
315 494 -375 0
-449 -88 -453 0
-284 -376 48 0
497 -270 -297 0
205 -98 437 0
-219 -160 -432 0
-145 -273 35 0
360 -6 207 0
-174 222 -362 0
358 389 246 0
-428 182 -424 0
-104 -377 -186 0
-411 -190 347 0
29 120 402 0
-419 450 -434 0
-58 -361 -482 0
-436 39 -206 0
159 154 2 0
-76 -32 -13 0
-266 -190 -396 0
-169 473 249 0
51 294 327 0
28 -95 238 0
355 176 391 0
-238 -179 14 0
-214 -358 80 0
-2 161 110 0
-13 -91 65 0
364 -224 358 0
-485 -58 -225 0
110 80 -60 0
-329 -148 438 0
328 -409 251 0
-96 -262 84 0
-356 -399 291 0
-404 342 -15 0
20 487 -209 0
405 283 125 0
-337 401 145 0
115 -199 -487 0
-416 -49 -89 0
129 385 -418 0
-61 -295 249 0
-65 237 66 0
495 314 -454 0
364 476 309 0
-159 -382 -346 0
56 -360 -116 0
-225 -380 -32 0
-484 24 -323 0
-380 426 -58 0
254 -267 -211 0
-312 353 -15 0
-321 479 440 0
-268 -455 61 0
475 -336 25 0
57 -279 -13 0
-136 -226 -70 0
-201 -410 -470 0
42 176 197 0
278 92 293 0
-487 400 -359 0
-95 198 -389 0
386 459 -78 0
83 -384 75 0
-484 54 421 0
-208 -470 255 0
-497 311 38 0
367 -456 -481 0
-429 -1 -420 0
-12 -368 60 0
-73 -134 123 0
-126 10 330 0
432 151 -40 0
477 326 -307 0
33 198 -378 0
-322 -125 -91 0
367 -338 -204 0
46 -457 465 0
474 305 74 0
99 144 296 0
-464 -119 426 0
255 -228 459 0
-303 108 334 0
-82 188 478 0
-467 388 345 0
342 -452 -296 0
358 -70 -251 0
185 36 -61 0
-388 -108 -151 0
188 -252 -42 0
-307 496 -44 0
492 131 180 0
462 -90 -185 0
195 286 -290 0
-287 -119 -257 0
263 401 -419 0
66 326 -95 0
382 -419 406 0
321 485 7 0
-278 -312 -198 0
426 -249 -152 0
259 174 -26 0
415 133 -476 0
-266 -449 351 0
79 95 294 0
-275 -25 -170 0
-160 -31 -326 0
-495 230 247 0
-190 170 268 0
-478 -68 303 0
-326 -122 -162 0
416 -431 -189 0
110 301 -167 0
-265 -229 126 0
-328 -364 -126 0
-219 159 435 0
-143 425 39 0
419 -280 357 0
176 450 279 0
386 -365 -321 0
144 -134 189 0
421 236 -220 0
100 386 36 0
105 -110 -222 0
393 -153 -53 0
-49 -52 -257 0
-438 106 -186 0
-86 -27 55 0
345 241 17 0
268 -145 142 0
-61 479 301 0
396 -305 129 0
481 -141 -81 0
417 -70 447 0
115 313 -431 0
-100 455 146 0
-284 -76 309 0
8 -282 -33 0
-25 189 -113 0
410 124 -38 0
-70 -66 113 0
15 379 396 0
-127 -352 -460 0
93 21 381 0
-152 385 -81 0
107 -403 -463 0
-180 -21 83 0
326 237 -487 0
61 -272 -91 0
31 413 -376 0
370 -205 -45 0
34 -51 -67 0
293 -278 45 0
22 -269 26 0
-350 382 -480 0
142 59 -101 0
-163 -278 331 0
212 71 -313 0
-204 53 -149 0
219 -281 -114 0
350 458 -459 0
-444 -220 -130 0
-104 36 190 0
-82 171 -372 0
4 79 289 0
-119 -402 -388 0
229 -12 -151 0
-389 -20 -278 0
293 -496 -214 0
-96 -491 296 0
113 -246 -355 0
-92 315 62 0
-190 463 -182 0
-128 51 -178 0
477 5 280 0
-10 395 106 0
185 316 63 0
-40 -403 -333 0
360 79 -344 0
50 360 -363 0
447 -318 -466 0
-344 -341 -98 0
317 -492 -258 0
-429 -217 398 0
52 114 100 0
-206 247 337 0
331 -328 142 0
-163 -439 364 0
-433 -227 -292 0
-483 -1 411 0
-454 -467 40 0
14 269 422 0
-296 201 -353 0
24 190 -401 0
-402 -396 79 0
-84 97 474 0
167 -202 191 0
464 115 83 0
-200 43 270 0
449 -296 -306 0
446 185 -253 0
207 -149 -436 0
82 305 -450 0
-449 -242 471 0
100 332 -269 0
-117 -490 -500 0
-151 -51 -476 0
-170 448 114 0
82 -201 -466 0
-329 -447 -44 0
-202 433 -265 0
-292 69 -384 0
93 368 -214 0
266 -185 -138 0
-65 372 480 0
294 382 -70 0
365 114 406 0
-215 345 -392 0
-254 372 115 0
-3 -299 305 0
-210 -390 346 0
-421 282 309 0
-137 -362 -189 0
-21 -222 121 0
382 294 -167 0
-97 345 483 0
-8 -494 -421 0
478 -208 449 0
446 -134 444 0
337 375 -389 0
60 217 -95 0
-89 -212 -141 0
206 265 224 0
-290 -108 -443 0
100 421 -38 0
238 -284 263 0
236 -9 166 0
173 -111 308 0
-276 -32 391 0
-70 -221 -140 0
95 -497 -356 0
-453 130 264 0
97 -9 289 0
99 -384 -489 0
-131 226 159 0
-328 -170 281 0
191 -399 473 0
-270 -10 -290 0
-223 221 77 0
60 -154 3 0
-57 -418 159 0
-19 -419 -113 0
-336 120 391 0
38 388 -195 0
-220 -384 -402 0
-137 204 -115 0
-475 24 -401 0
-97 -104 150 0
409 -208 354 0
-273 -221 -493 0
140 251 -18 0
193 -389 84 0
-239 77 -272 0
238 69 487 0
345 -223 -455 0
-329 250 -371 0
-359 -459 203 0
-399 -332 291 0
216 -48 197 0
162 327 -227 0
493 -343 92 0
-360 -410 -425 0
-253 -457 234 0
417 275 444 0
-149 -181 482 0
196 440 -282 0
-228 302 -249 0
429 64 452 0
494 -138 -17 0
-390 -201 35 0
297 298 -263 0
449 212 -409 0
-359 495 2 0
363 132 -156 0
-387 394 30 0
-447 72 -101 0
-63 -389 100 0
-22 -148 -11 0
456 -184 -149 0
-54 238 32 0
-477 456 270 0
401 -157 -50 0
-12 94 87 0
-208 180 468 0
5 203 342 0
197 -156 329 0
-185 -232 421 0
-86 -115 108 0
-57 -261 -314 0
46 68 -255 0
-491 411 413 0
146 195 -413 0
-398 471 452 0
-456 -194 296 0
262 -346 -90 0
-241 -308 103 0
-304 -302 290 0
-488 -381 -15 0
-319 -293 -101 0
-171 227 271 0
-466 -319 -289 0
-301 -167 271 0
-218 -136 -486 0
-350 360 5 0
478 -246 319 0
488 378 -56 0
121 497 14 0
-125 -240 379 0
-401 -290 200 0
-149 -55 35 0
231 98 109 0
-330 230 -176 0
232 435 -126 0
-373 175 70 0
147 111 263 0
-325 -290 -474 0
359 169 -275 0
245 443 -23 0
-12 66 29 0
369 -216 -157 0
-255 -121 207 0
-479 -276 265 0
-155 -341 271 0
364 -382 312 0
447 -3 421 0
55 143 -37 0
283 489 239 0
261 -419 376 0
-352 80 27 0
-272 211 -255 0
383 -446 -287 0
-361 279 208 0
222 52 -350 0
283 -163 338 0
-384 112 -450 0
487 -421 323 0
-277 -200 491 0
253 353 463 0
-7 -500 323 0
-440 491 -295 0
75 -73 -313 0
34 -273 98 0
-409 -276 242 0
-67 328 -488 0
-59 496 -404 0
-189 263 244 0
301 -20 -58 0
403 206 -301 0
355 398 -150 0
421 18 363 0
-410 232 -419 0
-96 483 -162 0
288 -9 245 0
-179 260 25 0
-476 -254 -344 0
348 -140 407 0
-178 -79 -222 0
306 -94 261 0
249 -161 257 0
121 -66 37 0
-305 418 122 0
495 316 25 0
101 -222 483 0
376 -32 25 0
-404 -232 -71 0
-229 37 278 0
353 -379 60 0
407 -216 241 0
54 440 -180 0
456 -6 452 0
463 85 -470 0
-384 -56 -346 0
109 409 -419 0
478 -279 156 0
249 -333 -55 0
-189 40 294 0
-12 -34 -125 0
446 -355 344 0
-314 -195 191 0
-70 176 -432 0
-414 -57 162 0
345 -16 -388 0
-9 156 -98 0
486 416 -112 0
-248 -155 223 0
202 -285 -326 0
428 499 500 0
-90 412 475 0
-433 198 -483 0
142 259 -89 0
-500 119 -250 0
-138 -210 172 0
-406 -305 -92 0
-177 345 40 0
-50 -444 39 0
465 -34 95 0
-386 -480 405 0
288 -499 201 0
-174 212 -177 0
283 24 416 0
-402 137 -388 0
159 495 -293 0
-272 456 490 0
-80 -445 -265 0
334 212 23 0
-251 62 357 0
-282 437 498 0
-302 -379 399 0
-213 -26 70 0
145 -230 -479 0
328 470 -210 0
-137 -431 287 0
449 269 -454 0
354 -402 -160 0
84 -65 456 0
-10 -167 -328 0
497 -8 -220 0
-361 -451 -400 0
425 -363 373 0
-189 453 310 0
422 40 498 0
-261 -460 -2 0
78 161 -321 0
-449 75 23 0
-228 300 114 0
96 270 220 0
-282 22 66 0
218 -499 -18 0
165 457 -13 0
89 -331 -181 0
-297 192 460 0
-475 49 -67 0
270 473 -121 0
243 386 412 0
-327 -305 -258 0
-8 -418 -54 0
154 339 -311 0
-72 173 179 0
139 -10 -412 0
-29 161 -277 0
369 -25 -467 0
349 382 379 0
-72 372 -206 0
-201 -171 308 0
-350 -212 396 0
-318 -448 -443 0
-279 -389 373 0
224 -64 192 0
177 -109 -403 0
3 441 -92 0
-412 -296 287 0
-301 144 255 0
-259 271 -444 0
-375 -246 -349 0
-478 392 317 0
114 200 59 0
-300 419 181 0
414 415 -289 0
-288 -263 272 0
-85 -365 -217 0
-388 -237 340 0
233 415 482 0
-112 -33 -362 0
62 163 -478 0
-475 -383 434 0
467 -358 107 0
374 127 368 0
289 396 76 0
-112 -162 166 0
449 -168 392 0
195 -84 222 0
135 315 -316 0
448 115 -468 0
-35 425 244 0
-224 -353 326 0
-68 -329 134 0
277 -231 -500 0
-154 445 -325 0
470 27 -103 0
-366 182 227 0
-76 220 -259 0
-185 -465 145 0
-352 409 130 0
3 10 -475 0
-339 22 91 0
425 -460 399 0
-278 -287 -78 0
290 4 -452 0
303 10 -52 0
-407 -283 -15 0
306 -259 -398 0
-400 -397 126 0
400 7 448 0
-226 461 -346 0
-38 73 443 0
206 88 -285 0
365 110 130 0
267 -208 -117 0
166 29 351 0
-27 -408 131 0
-451 378 -349 0
-212 -184 -99 0
302 193 -144 0
-442 315 -46 0
235 -322 472 0
-355 -15 158 0
122 492 463 0
220 7 -209 0
-75 -208 164 0
154 -492 464 0
-35 -248 88 0
9 -466 342 0
281 -38 433 0
-198 -251 -357 0
362 393 -189 0
-242 434 -364 0
-357 448 -332 0
-235 -287 -329 0
-401 -89 -8 0
318 2 -128 0
464 -10 176 0
220 335 -288 0
-103 473 410 0
205 -96 48 0
-178 368 -181 0
-387 233 106 0
17 -482 463 0
110 156 -217 0
-322 -372 5 0
-161 -409 465 0
448 -416 460 0
103 104 -148 0
43 -438 328 0
336 -172 -94 0
292 473 -356 0
118 -278 -358 0
-78 -79 148 0
191 241 -193 0
-454 36 -151 0
-343 312 -111 0
363 63 319 0
394 491 378 0
249 -103 456 0
-194 268 -87 0
-245 83 -173 0
-65 348 324 0
71 122 -229 0
-340 -171 -348 0
-487 279 115 0
59 487 -464 0
-66 6 156 0
-421 84 333 0
322 272 368 0
309 242 417 0
-3 229 146 0
-273 275 67 0
-292 353 -49 0
-257 -169 15 0
-379 106 60 0
-407 -326 -325 0
-164 -498 171 0
-400 -30 86 0
-457 -453 320 0
49 -139 327 0
426 177 157 0
-242 -497 19 0
-331 -55 453 0
-332 60 129 0
328 -25 249 0
-317 -142 242 0
-6 268 -28 0
-478 -253 -60 0
-442 -180 97 0
-150 492 -470 0
-357 -287 -192 0
-195 -26 220 0
-178 -403 342 0
171 -281 -284 0
-221 306 -456 0
58 -495 -119 0
405 -397 482 0
227 60 130 0
153 130 -396 0
410 -230 53 0
-459 -133 -487 0
-177 -487 418 0
106 -232 356 0
-23 -119 -109 0
124 271 -441 0
-420 -74 394 0
363 178 -440 0
-70 404 87 0
405 -433 201 0
304 129 -189 0
96 97 -344 0
374 122 -10 0
-174 459 228 0
109 -254 124 0
43 -282 -392 0
135 190 -208 0
-447 -170 -230 0
-222 -433 398 0
-304 -14 286 0
-484 -171 -51 0
-135 -500 -384 0
-425 285 -23 0
-292 459 -319 0
-294 24 415 0
316 -170 -483 0
163 -427 171 0
-385 -235 -418 0
125 194 -428 0
-99 -227 -8 0
350 -495 289 0
-83 429 141 0
149 423 -150 0
159 -154 130 0
495 -265 290 0
63 457 48 0
-275 -4 -249 0
-172 -225 -37 0
204 -262 378 0
493 -118 244 0
-344 -264 -129 0
-165 476 183 0
-226 -430 382 0
-431 -64 -388 0
455 -435 106 0
-400 382 -209 0
-498 -356 12 0
-227 -155 -296 0
-279 -464 -337 0
435 -398 -53 0
267 -119 -148 0
192 300 -184 0
-193 -276 -91 0
-125 467 -468 0
248 -308 -351 0
-194 -65 -132 0
255 33 67 0
-28 430 285 0
272 -17 -339 0
77 -349 240 0
316 385 -246 0
462 12 206 0
-458 -84 -462 0
429 363 -269 0
-456 164 13 0
-345 437 -239 0
-411 -269 -169 0
-263 -24 -152 0
446 -75 25 0
-467 200 -201 0
-225 312 -85 0
188 310 430 0
-500 -248 261 0
-399 226 -390 0
162 -329 -348 0
-256 -212 409 0
-391 278 47 0
-217 -17 -18 0
287 -6 -39 0
-392 397 297 0
-405 -326 37 0
393 -215 73 0
-223 -334 248 0
-52 259 -271 0
171 -420 -118 0
5 -313 -181 0
393 297 37 0
137 107 104 0
141 279 -135 0
-234 264 306 0
-48 -441 -49 0
-315 -386 330 0
-487 -199 362 0
-5 -442 -343 0
-381 -85 46 0
-481 255 -407 0
-177 -73 253 0
183 -160 369 0
322 285 373 0
-271 3 141 0
268 228 -314 0
245 -379 -331 0
-466 336 219 0
-362 -152 -25 0
-359 142 -224 0
-399 -317 263 0
-374 326 -390 0
68 485 -210 0
-193 -285 339 0
336 -316 -177 0
-8 -37 -181 0
-73 -427 -295 0
-138 -447 -58 0
133 -352 -186 0
126 117 127 0
56 -55 73 0
-391 -91 -75 0
103 257 15 0
-139 63 -365 0
-232 380 -162 0
152 -442 -375 0
41 334 -117 0
221 -324 61 0
-232 -414 431 0
322 397 -414 0
-397 106 -59 0
-55 61 466 0
-122 -186 -201 0
-204 66 338 0
-255 -315 375 0
276 145 291 0
426 -463 -443 0
-194 193 433 0
-318 499 -267 0
-456 353 -172 0
-409 269 10 0
48 381 -325 0
-221 -304 -384 0
409 181 -500 0
20 188 495 0
-199 220 -424 0
20 35 -253 0
-499 218 -497 0
-393 -66 386 0
-86 165 -247 0
-76 473 -335 0
-168 359 -78 0
-465 288 222 0
366 -200 20 0
408 -185 492 0
123 337 -171 0
-442 49 -436 0
-353 -367 40 0
-275 127 -43 0
-411 173 -9 0
-129 -197 471 0
-78 -249 391 0
330 -320 495 0
252 -367 86 0
-34 -145 -102 0
-332 -492 -182 0
372 369 -479 0
-263 -190 170 0
388 357 65 0
-457 29 329 0
-350 271 467 0
-361 459 130 0
222 -474 463 0
-248 -389 -214 0
-77 23 -406 0
-237 -45 7 0
-25 -108 205 0
251 -445 -150 0
-146 194 404 0
-381 42 254 0
-6 20 -172 0
-341 339 -162 0
-268 254 -363 0
145 14 432 0
-85 -256 136 0
-423 84 -197 0
-197 -51 -304 0
-495 203 -420 0
226 -372 80 0
313 -345 -352 0
193 403 65 0
115 -390 169 0
472 300 258 0
242 -326 33 0
-226 132 106 0
141 -480 -254 0
356 262 -181 0
264 -317 -196 0
-330 -56 159 0
210 -143 -175 0
255 -185 -129 0
-292 185 464 0
342 305 -240 0
260 335 391 0
-235 80 -261 0
-413 468 -75 0
246 -328 455 0
-373 -415 -347 0
-163 189 498 0
-234 -317 -332 0
-369 336 -114 0
-162 119 -11 0
408 358 215 0
45 -317 -126 0
296 -171 -218 0
436 -286 48 0
430 380 316 0
307 -470 40 0
123 -471 -11 0
180 74 213 0
485 -183 -107 0
-58 -29 89 0
307 -253 200 0
-186 -223 285 0
-73 -444 -87 0
-279 -20 326 0
423 -84 -96 0
150 -158 483 0
498 163 -147 0
81 386 19 0
47 -361 222 0
-433 475 -464 0
286 58 -129 0
-467 -54 -281 0
-15 -131 106 0
-225 178 -105 0
-61 -377 -207 0
454 316 -416 0
-329 -246 -305 0
-342 357 397 0
-280 382 -185 0
237 -149 127 0
297 128 -225 0
-248 -28 288 0
-32 181 444 0
248 -74 -336 0
-279 -96 351 0
500 85 197 0
126 253 -355 0
60 276 -452 0
230 18 434 0
443 25 86 0
392 -109 -133 0
343 -167 -364 0
-149 346 371 0
-223 -194 72 0
-64 192 374 0
248 -249 -355 0
-259 377 -281 0
-208 -326 4 0
-304 325 128 0
-250 346 494 0
338 223 -470 0
179 -56 -44 0
320 54 321 0
-291 135 -447 0
445 -279 160 0
285 77 382 0
436 -23 -57 0
481 262 -348 0
-268 327 464 0
-147 472 412 0
444 485 -414 0
-10 415 -99 0
310 370 -325 0
-216 -37 147 0
455 -119 248 0
-31 -59 -261 0
-486 242 449 0
335 -309 -102 0
-23 17 -221 0
-38 -181 -88 0
325 423 14 0
-219 -120 270 0
77 -210 326 0
150 -264 -88 0
326 -496 214 0
-179 -71 -30 0
-165 101 -77 0
-210 -53 -252 0
471 -207 327 0
-20 345 281 0
-247 362 -371 0
-59 -281 337 0
405 35 -341 0
-335 95 384 0
-297 -498 -79 0
-248 246 70 0
328 -392 438 0
337 373 348 0
355 -284 -200 0
317 -31 359 0
-469 454 -179 0
-354 356 -140 0
-213 149 -468 0
107 -25 -420 0
-498 -294 136 0
-459 407 340 0
-38 351 432 0
226 -430 447 0
-83 406 21 0
499 6 -168 0
-100 -55 -322 0
-255 -145 -304 0
-307 343 22 0
-427 -95 -379 0
276 12 420 0
406 -21 -365 0
388 -8 420 0
144 377 325 0
-368 -414 480 0
234 45 -468 0
148 -425 355 0
-410 54 1 0
15 -75 -293 0
330 -234 -433 0
-391 -39 -380 0
-177 155 125 0
132 -326 244 0
-49 -15 -59 0
404 -199 -82 0
-241 -411 436 0
-275 201 -194 0
-391 162 339 0
-122 191 -151 0
235 -348 266 0
415 108 292 0
-289 312 454 0
-311 -125 382 0
-175 -472 -217 0
-21 102 -344 0
171 358 99 0
14 -480 47 0
469 106 182 0
445 -340 -254 0
-13 -357 -130 0
59 11 -12 0
221 415 165 0
-240 -491 368 0
387 340 489 0
55 274 -191 0
260 436 419 0
419 441 492 0
23 -421 -213 0
-441 171 -449 0
457 -435 429 0
163 161 -170 0
-272 151 75 0
-414 -294 183 0
245 495 -323 0
-402 366 261 0
-202 290 -363 0
89 -222 71 0
-331 112 -13 0
-106 -39 -68 0
265 390 -135 0
-460 -83 148 0
39 429 -457 0
-470 29 -234 0
284 94 -247 0
436 254 -363 0
232 233 88 0
-26 433 -276 0
54 309 -468 0
-229 164 132 0
-287 -122 224 0
-17 -33 -62 0
59 -326 -479 0
451 431 77 0
-313 100 397 0
208 -83 163 0
407 -429 -333 0
457 337 471 0
18 -377 166 0
-16 -489 208 0
-219 287 457 0
371 -315 -165 0
394 -37 175 0
-268 198 426 0
219 -393 32 0
434 73 325 0
-86 262 446 0
274 93 -148 0
-334 201 -283 0
142 -381 58 0
404 -268 -379 0
-229 -80 92 0
63 -355 -404 0
-431 116 44 0
184 458 -364 0
-150 307 251 0
301 -326 -405 0
257 466 -10 0
319 -428 -430 0
269 4 -61 0
458 -57 436 0
-272 -475 158 0
124 327 -408 0
-274 421 -152 0
35 121 -20 0
-104 99 -126 0
-295 -175 -466 0
-229 -274 -388 0
-179 64 -433 0
-129 369 15 0
-496 -101 117 0
182 -338 235 0
-437 227 -480 0
424 109 -128 0
442 -79 456 0
53 -446 155 0
-399 221 -12 0
-69 -358 253 0
447 -437 -220 0
207 137 438 0
-482 -369 33 0
-302 -282 373 0
-454 -373 77 0
9 -480 32 0
282 -426 -456 0
-316 239 402 0
-253 289 390 0
-368 -67 -346 0
-193 371 320 0
-255 -344 379 0
-484 71 153 0
366 -453 -46 0
-151 400 -141 0
-58 -272 -88 0
-393 467 -441 0
-5 143 -81 0
-344 -26 151 0
-457 443 20 0
-290 40 122 0
232 -427 155 0
-486 -339 -334 0
341 71 -37 0
-413 295 370 0
206 -87 414 0
346 170 -108 0
398 95 351 0
-205 -390 -33 0
130 152 -311 0
-156 38 111 0
325 253 459 0
202 -170 35 0
-453 164 -433 0
-7 15 -14 0
464 326 -383 0
-405 121 87 0
-472 202 -229 0
-396 -48 5 0
489 205 -21 0
374 362 -6 0
184 -426 431 0
389 -109 -310 0
452 -323 -111 0
346 366 -57 0
-150 437 278 0
-244 -457 -297 0
474 -118 161 0
86 -105 158 0
387 327 413 0
-155 489 -151 0
62 67 327 0
-336 -299 108 0
54 -342 418 0
-152 -52 75 0
-179 -423 -121 0
406 483 -369 0
-167 -52 -395 0
184 2 -155 0
-431 -232 -499 0
-257 -332 -304 0
-493 250 228 0
-341 -411 -141 0
-203 426 -393 0
273 364 -101 0
303 226 94 0
-310 -412 -279 0
420 257 126 0
177 -383 -214 0
216 273 -206 0
445 -486 219 0
-144 -331 -188 0
346 -330 181 0
-140 -193 -308 0
-354 168 -292 0
-457 428 384 0
289 -204 -348 0
-45 388 -232 0
-142 419 -383 0
-225 -195 115 0
253 457 -312 0
-499 -350 131 0
423 -487 -182 0
-43 -408 -230 0
366 77 150 0
-356 14 -483 0
-327 -137 -356 0
464 190 -168 0
-417 108 -91 0
463 50 399 0
-297 -169 -187 0
-483 -151 58 0
458 452 -429 0
226 -11 473 0
81 -44 67 0
-440 -363 -397 0
477 -135 256 0
-363 -124 -481 0
-266 438 232 0
-253 31 -38 0
-480 433 -45 0
319 294 186 0
-175 406 -364 0
348 -126 -172 0
467 -97 -135 0
-373 100 -337 0
38 138 -5 0
-166 -348 379 0
-175 476 300 0
-487 -126 195 0
-291 367 -182 0
-258 -92 -199 0
468 3 408 0
-437 96 -20 0
-423 84 97 0
-195 -158 98 0
183 -294 -450 0
-176 -337 197 0
440 -261 -9 0
-437 -200 467 0
-468 50 -309 0
-315 -280 -355 0
129 410 -126 0
188 -112 -40 0
13 -19 6 0
-326 -406 -149 0
415 183 -439 0
487 -437 447 0
-85 292 -169 0
-48 389 51 0
398 177 -93 0
301 -248 -115 0
-403 -41 -378 0
-88 398 -464 0
-314 -412 -254 0
-117 -411 -474 0
60 241 -193 0
89 230 -12 0
-486 -458 -166 0
372 -34 -491 0
118 241 -161 0
56 325 411 0
-235 -335 103 0
-196 142 292 0
232 102 41 0
-304 189 -159 0
-267 268 -495 0
-196 -396 172 0
-474 -425 -453 0
-36 -10 -190 0
-68 151 -431 0
-236 93 -412 0
-490 -173 185 0
256 -445 -446 0
322 305 -315 0
270 -51 280 0
-151 409 204 0
424 254 -331 0
309 425 197 0
-445 -123 -495 0
-478 -463 -288 0
-405 109 159 0
353 -356 -101 0
63 -489 -155 0
-157 267 -309 0
327 -364 -205 0
-371 -142 320 0
-180 34 -24 0
347 -439 204 0
-265 -347 13 0
-339 269 -475 0
147 -236 121 0
271 -421 31 0
-124 -450 -21 0
301 349 -435 0
272 354 96 0
-488 262 -104 0
-296 -438 444 0
444 -311 107 0
-396 -259 5 0
-164 -196 38 0
114 -285 454 0
-57 -400 496 0
-468 82 -7 0
-305 -272 -26 0
361 -424 -74 0
5 39 106 0
332 213 279 0
277 -128 209 0
-314 12 -276 0
443 241 80 0
-1 -436 20 0
150 -192 217 0
-236 364 -500 0
-356 203 267 0
-5 -253 305 0
-485 -238 -408 0
-57 41 -441 0
389 -444 222 0
126 -195 43 0
35 189 322 0
-159 177 -209 0
-133 479 -175 0
-278 191 -420 0
-13 397 -476 0
-51 -291 -298 0
468 -392 366 0
-147 167 61 0
-160 203 -344 0
-206 -439 347 0
92 -379 157 0
356 -456 -185 0
-195 244 61 0
32 -169 22 0
-294 420 -124 0
488 61 268 0
-18 102 -198 0
-236 -490 -288 0
387 433 323 0
-396 -27 -439 0
-244 -399 345 0
-193 -71 -389 0
329 -51 -117 0
-206 323 33 0
-490 -197 -247 0
457 5 -26 0
-357 281 -180 0
41 366 -92 0
198 39 218 0
359 418 -218 0
125 156 -453 0
-483 141 251 0
-49 450 145 0
-353 424 -387 0
-42 363 -476 0
-46 -44 -458 0
-349 -360 -67 0
428 31 162 0
38 291 -433 0
-174 -28 -4 0
-199 -134 312 0
29 -286 374 0
271 334 150 0
-133 -217 -205 0
348 -497 377 0
499 -71 338 0
49 -418 377 0
377 -452 -54 0
46 -399 -409 0
15 -251 400 0
420 -393 139 0
254 472 -390 0
-458 -431 -252 0
95 -117 73 0
-384 -251 -260 0
281 -342 -87 0
236 -271 442 0
362 -161 -459 0
-436 485 -25 0
-495 -310 -235 0
-374 -3 141 0
234 -266 410 0
-144 -450 -295 0
-13 5 -194 0
499 -134 190 0
224 138 452 0
-210 407 110 0
-293 -112 -313 0
211 -486 98 0
-146 115 -222 0
4 445 180 0
355 415 134 0
-21 127 53 0
113 -412 161 0
-421 330 -196 0
426 -296 -259 0
-452 -100 52 0
-235 317 91 0
432 -476 108 0
423 306 76 0
371 110 -360 0
31 -60 80 0
-374 479 -395 0
427 -492 203 0
-358 113 -296 0
-169 366 -404 0
141 349 -358 0
51 429 390 0
112 -348 -435 0
466 -297 335 0
248 -333 241 0
382 -197 381 0
138 -78 -116 0
267 -384 -132 0
310 104 -35 0
422 -429 388 0
320 453 -1 0
486 -206 -342 0
-320 291 -437 0
420 384 -255 0
-443 -250 278 0
238 -453 144 0
52 -71 -369 0
-272 341 270 0
45 35 236 0
-251 -240 -273 0
-327 406 -260 0
-402 -368 -342 0
-161 -167 -15 0
-314 -133 327 0
-68 -30 -392 0
460 -123 -204 0
-366 252 467 0
390 -144 107 0
166 15 -173 0
12 363 282 0
-490 -158 267 0
-355 457 49 0
-274 359 341 0
175 -46 374 0
-295 497 -324 0
-127 -337 -299 0
256 -75 109 0
444 -173 -270 0
-247 398 445 0
395 198 -24 0
464 325 -412 0
500 -326 -7 0
160 365 71 0
-330 -419 171 0
433 -193 368 0
-6 -126 227 0
-157 -97 494 0
30 -23 -488 0
214 -455 -243 0
404 -121 -408 0
-280 -412 -108 0
-407 92 253 0
423 -480 490 0
-329 -209 -175 0
370 454 -122 0
296 -203 -354 0
-85 215 5 0
481 -464 -359 0
54 91 442 0
-288 -232 242 0
79 -263 -464 0
385 -259 -377 0
-94 244 395 0
17 204 -499 0
-172 483 167 0
-305 -180 216 0
483 151 163 0
231 390 223 0
285 -272 -302 0
-71 390 244 0
-457 39 -260 0
-134 27 -448 0
-22 -333 -318 0
-293 -61 -296 0
-189 -165 317 0
19 -131 -493 0
-469 460 60 0
450 -246 220 0
376 214 306 0
-279 -396 -145 0
-95 23 356 0
339 -394 452 0
192 65 -158 0
120 -193 442 0
349 -417 415 0
-249 332 -452 0
-364 162 -475 0
-35 -484 289 0
-204 -454 -276 0
350 276 155 0
137 -51 -220 0
156 327 271 0
-31 38 -113 0
389 152 -440 0
390 187 -186 0
21 312 193 0
317 -287 -418 0
-18 153 -350 0
369 242 106 0
-464 481 124 0
-258 -382 67 0
-170 431 103 0
-40 423 92 0
75 -283 -268 0
261 151 495 0
-43 -495 54 0
499 -147 456 0
-192 88 12 0
-441 282 -338 0
-385 -60 197 0
-213 -185 -215 0
-190 276 476 0
480 -452 141 0
437 -447 56 0
-463 -443 425 0
97 71 -324 0
-8 -101 20 0
-74 55 -391 0
-182 -471 -273 0
248 398 57 0
-368 -274 -483 0
320 -211 473 0
-173 120 286 0
411 -317 263 0
-359 -28 240 0
-161 -10 -11 0
-2 104 -108 0
-485 294 250 0
-42 441 -60 0
-348 -409 116 0
-407 396 147 0
363 59 -199 0
-499 -158 -386 0
435 380 -494 0
437 424 66 0
22 459 -237 0
-29 -57 -8 0
-338 -327 -428 0
199 27 -29 0
250 246 248 0
-63 278 183 0
-404 159 -329 0
305 -333 -471 0
-326 -341 422 0
-12 -263 -442 0
-72 77 -58 0
-410 -173 -243 0
-179 113 273 0
122 -85 -288 0
140 352 265 0
438 294 230 0
-416 104 -403 0
-93 -434 286 0
-183 -177 118 0
363 -370 128 0
72 -98 242 0
-361 -400 -180 0
-244 -93 -191 0
-113 398 -340 0
-38 57 -370 0
-486 497 260 0
-262 451 -68 0
341 -76 -67 0
279 439 386 0
-176 -72 310 0
192 -276 -22 0
39 -91 254 0
-286 275 -171 0
-384 404 46 0
-411 278 -423 0
317 54 -260 0
62 47 178 0
399 -500 -330 0
-399 184 -361 0
-379 -387 187 0
241 -90 328 0
-33 -316 466 0
202 204 400 0
197 -419 397 0
-345 242 -448 0
453 -215 -182 0
16 141 -327 0
-285 342 407 0
-73 77 222 0
431 135 -442 0
-159 -1 339 0
-125 109 -98 0
-389 425 271 0
5 -156 -118 0
-380 323 245 0
-194 1 466 0
140 275 2 0
-351 -263 -221 0
-201 -169 461 0
-11 220 -68 0
-459 231 266 0
-265 -471 176 0
93 -149 488 0
403 -274 360 0
393 39 7 0
-449 187 338 0
-253 -414 -178 0
-378 173 -82 0
-407 -377 436 0
-481 13 -158 0
-348 -363 254 0
153 -454 -223 0
78 102 -435 0
265 141 489 0
484 -476 322 0
207 -428 452 0
-260 -61 -354 0
-262 -175 324 0
-480 -226 -117 0
325 166 -481 0
-256 212 -68 0
45 255 456 0
171 52 30 0
141 -382 -173 0
-375 12 27 0
-356 -390 -282 0
-28 -49 -20 0
-271 406 466 0
54 437 419 0
-152 -35 -414 0
-461 108 -465 0
350 -15 173 0
157 -436 -81 0
486 -404 295 0
317 -269 -313 0
-46 -423 -163 0
-239 151 422 0
-320 47 -152 0
464 -499 -348 0
29 32 -131 0
236 84 56 0
410 -418 -341 0
81 -440 -411 0
-328 -225 72 0
407 -80 471 0
372 232 -126 0
232 -322 -451 0
483 -334 -437 0
-53 327 -193 0
-223 464 13 0
-8 -38 -251 0
-4 -392 -71 0
-251 194 -289 0
-204 283 -72 0
183 -95 -137 0
-309 268 -266 0
-112 -227 -39 0
9 -470 66 0
73 -120 -69 0
-492 -23 -85 0
-407 176 -86 0
-454 -274 -174 0
-156 457 -19 0
-316 149 43 0
-84 35 -467 0
-483 100 273 0
48 -283 385 0
34 119 -165 0
177 42 -488 0
423 452 53 0
294 -101 332 0
-306 432 358 0
-41 386 148 0
208 198 -345 0
158 -348 -256 0
238 -380 446 0
55 167 -170 0
-242 -12 -111 0
-431 -337 -457 0
-60 194 -446 0
-137 -140 -440 0
15 -157 -99 0
192 -24 54 0
77 -43 -476 0
-379 174 159 0
-286 -412 437 0
-355 191 65 0
402 -486 492 0
-298 -288 -227 0
336 -320 12 0
8 252 184 0
64 -108 408 0
-346 -363 -58 0
-70 148 -262 0
-175 26 -148 0
170 190 76 0
-466 -496 -76 0
-1 442 394 0
349 285 -101 0
57 -453 406 0
370 -285 29 0
-65 226 -416 0
-151 495 158 0
-201 -383 480 0
61 456 -124 0
-147 417 259 0
-285 -61 365 0
3 -341 223 0
-95 50 98 0
-453 482 91 0
-98 462 -360 0
-496 25 172 0
240 12 -84 0
-458 -56 -370 0
279 104 28 0
-414 81 -451 0
-306 -342 242 0
-61 484 -41 0
-115 423 66 0
-211 155 -180 0
-155 -261 323 0
-140 -170 -75 0
-478 -183 430 0
-318 -379 387 0
-287 54 75 0
227 -251 -356 0
181 366 -193 0
132 403 -500 0
254 -481 37 0
216 -230 -256 0
-124 497 -395 0
-66 414 -174 0
-397 470 -357 0
342 -387 47 0
127 -201 474 0
-71 111 294 0
-235 155 193 0
438 133 -172 0
414 381 418 0
115 249 316 0
-446 94 -19 0
-268 139 -135 0
-223 -477 -176 0
70 -438 -376 0
204 -58 382 0
-45 -33 -458 0
81 -444 -92 0
-246 359 -27 0
-190 296 -449 0
-485 -404 -19 0
113 -124 375 0
-87 185 243 0
206 236 -130 0
468 -228 -141 0
473 -366 326 0
-492 -197 471 0
179 227 415 0
-157 279 377 0
-309 -22 25 0
333 49 92 0
221 -486 -265 0
41 271 -141 0
-443 -127 -307 0
-263 33 312 0
195 465 -67 0
-494 -296 -53 0
-334 68 312 0
251 -336 163 0
-373 486 -473 0
363 -445 244 0
-420 -478 -425 0
171 5 -403 0
-59 60 153 0
306 -142 78 0
-87 203 -374 0
-172 367 -328 0
316 -92 431 0
430 136 493 0
-300 -154 -40 0
-264 358 -336 0
73 453 154 0
437 -212 25 0
-351 170 -482 0
-77 -433 476 0
-7 -221 403 0
-461 -98 204 0
331 54 -164 0
208 -234 402 0
-432 151 66 0
293 -48 -442 0
233 -7 -222 0
-59 -274 -296 0
-194 -444 -325 0
-485 148 204 0
405 434 389 0
404 254 -179 0
58 -101 -418 0
-248 120 -454 0
197 -173 -151 0
-446 -229 -13 0
-444 486 -365 0
-48 -2 -470 0
156 -34 -155 0
-95 68 7 0
287 -70 454 0
-53 104 -4 0
370 393 500 0
496 -417 -239 0
400 20 214 0
20 -438 202 0
352 -337 139 0
-338 -83 -317 0
-286 -440 459 0
438 -256 -376 0
-107 330 338 0
62 249 131 0
-426 53 251 0
414 238 53 0
-423 16 -387 0
128 249 -343 0
-365 306 -476 0
-84 -458 -146 0
461 -313 290 0
247 9 193 0
299 -327 493 0
81 -153 -453 0
-78 159 415 0
240 390 178 0
213 150 302 0
-87 -302 -439 0
496 -61 200 0
136 176 279 0
-119 493 327 0
-139 -313 481 0
121 488 -191 0
323 55 -277 0
-129 410 -469 0
-60 83 474 0
-43 373 44 0
-395 322 44 0
475 72 350 0
165 -330 -111 0
-432 -106 287 0
211 -250 -32 0
-59 -241 334 0
-215 -247 -379 0
-217 485 346 0
-264 119 244 0
-443 489 60 0
-272 -413 329 0
-28 434 71 0
-388 -245 255 0
477 -76 -249 0
-499 436 321 0
94 -477 -124 0
156 -243 -33 0
69 -92 82 0
106 -493 191 0
182 -250 302 0
-23 -463 67 0
482 470 71 0
-239 -467 -388 0
376 -482 -458 0
324 55 -405 0
-460 -222 230 0
223 -355 242 0
-397 67 143 0
365 -388 37 0
443 -429 143 0
419 -286 374 0
344 443 240 0
366 -357 -458 0
-313 -458 395 0
-87 -64 -103 0
406 -345 339 0
-489 -406 -416 0
497 -460 -161 0
278 369 409 0
-193 -299 203 0
192 259 -87 0
421 8 -92 0
185 -407 11 0
227 229 -7 0
381 -474 488 0
50 208 388 0
-443 67 -434 0
-245 -264 -416 0
443 -135 -230 0
269 -57 -76 0
-263 67 -332 0
-321 -272 -228 0
312 -198 -165 0
79 -320 -388 0
-322 331 -294 0
176 -151 312 0
-118 400 -345 0
-204 -398 -357 0
255 -284 -221 0
-232 -453 220 0
85 84 -359 0
-148 431 101 0
-394 276 -166 0
55 255 259 0
-85 -94 429 0
407 172 -485 0
-446 -328 -78 0
370 -344 -495 0
384 -270 -421 0
307 -143 -54 0
406 -4 3 0
-446 -441 217 0
-179 -311 -201 0
243 -125 -14 0
439 -131 -4 0
-451 -200 -241 0
147 326 451 0
-66 -441 78 0
129 484 -118 0
10 180 47 0
-92 39 319 0
108 -334 -207 0
-316 -76 86 0
117 125 140 0
413 237 186 0
-421 -282 -11 0
-298 134 -76 0
324 472 -466 0
385 -78 -192 0
-67 -174 -287 0
211 -477 309 0
-399 297 54 0
-269 -260 71 0
90 -99 197 0
-218 61 5 0
476 -439 27 0
-111 377 -450 0
-101 -150 -147 0
9 200 -236 0
422 74 -192 0
269 405 -45 0
488 -393 -358 0
42 277 -295 0
353 403 -453 0
-428 290 126 0
-273 212 -59 0
-205 -426 406 0
432 -383 -342 0
177 -120 -13 0
464 -91 -105 0
-172 164 345 0
287 -164 418 0
-72 71 -352 0
-277 412 -58 0
-52 400 -444 0
-138 -330 137 0
-500 324 303 0
228 -147 -175 0
281 156 7 0
-334 -95 494 0
-133 -127 138 0
-257 384 -240 0
87 -187 -346 0
453 -457 -214 0
89 -331 -252 0
37 498 -257 0
-329 369 231 0
-125 -158 390 0
250 248 227 0
-435 -215 -44 0
-107 -129 105 0
28 -178 119 0
-3 -23 -19 0
70 21 -254 0
-213 223 -92 0
-409 -448 -171 0
127 193 -452 0
-138 354 499 0
248 -182 -184 0
-210 325 208 0
-401 161 180 0
-364 446 -145 0
212 -384 -323 0
-98 334 386 0
-160 265 209 0
385 -402 297 0
-459 182 -15 0
88 -231 -54 0
332 -44 393 0
81 214 -396 0
-5 -449 -159 0
75 -225 21 0
210 471 51 0
-386 -156 -217 0
-409 -378 37 0
-344 -143 -400 0
259 -470 28 0
360 428 -183 0
-1 377 -148 0
-124 -52 192 0
-223 -4 -125 0
345 429 -439 0
-277 -117 -266 0
-233 -64 -364 0
-115 -351 219 0
412 92 -351 0
200 425 66 0
54 339 304 0
151 64 -362 0
-110 -209 26 0
-118 -469 -194 0
-394 461 204 0
19 111 -258 0
438 -417 374 0
-163 473 -297 0
-331 159 -326 0
485 344 269 0
222 135 458 0
19 461 -131 0
-292 -280 -216 0
301 309 -175 0
-97 -402 -117 0
-349 380 -379 0
-120 -249 -33 0
-302 -227 -272 0
157 473 -276 0
-107 230 56 0
-336 363 473 0
-415 381 463 0
212 -281 98 0
209 -264 73 0
39 177 442 0
-365 -10 479 0
-167 -23 441 0
-398 -227 -131 0
-466 -405 488 0
-285 -377 -90 0
27 -170 229 0
-391 -128 350 0
327 371 434 0
192 -499 -311 0
301 290 -363 0
331 -487 89 0
-133 432 -97 0
280 285 -458 0
-117 -487 -209 0
270 -93 -405 0
-258 -483 -364 0
252 -198 400 0
-77 -204 143 0
-363 93 -206 0
230 -106 141 0
-179 -222 241 0
80 -364 -92 0
-430 -495 74 0
-363 310 -14 0
326 -419 -70 0
334 -222 -377 0
453 -447 24 0
-44 -453 417 0
24 315 375 0
-337 -444 348 0
481 489 319 0
373 303 -236 0
-399 -438 75 0
-331 437 146 0
-193 -481 319 0
-190 441 -288 0
53 -290 432 0
-284 180 94 0
-226 -312 66 0
-318 -161 -339 0
-17 332 396 0
29 -183 -47 0
307 93 -168 0
246 50 -317 0
-45 -478 -121 0
-393 173 -434 0
-302 470 353 0
-187 23 164 0
-392 278 471 0
-486 361 231 0
-204 331 300 0
96 444 -406 0
-313 -454 -17 0
301 121 -323 0
-29 288 -73 0
251 469 474 0
-79 247 -328 0
224 121 300 0
369 123 328 0
-251 424 -260 0
266 490 177 0
-322 -308 -178 0
-53 -325 -7 0
-44 54 -275 0
26 -212 393 0
-195 24 -460 0
373 357 -345 0
445 56 -403 0
144 -15 231 0
-63 404 -39 0
-295 -46 363 0
-365 -100 -316 0
-121 -254 -223 0
385 173 381 0
268 -453 -418 0
8 202 -194 0
-332 -444 -117 0
-372 153 -278 0
127 -173 -194 0
387 83 311 0
139 404 -162 0
267 -209 -407 0
-499 239 249 0
15 -146 444 0
336 313 56 0
229 -284 274 0
364 -71 265 0
-427 259 91 0
-82 56 471 0
-398 322 -397 0
343 -210 310 0
-451 -267 -337 0
-257 137 -475 0
-326 385 -30 0
135 425 -249 0
259 -75 -271 0
373 -390 -334 0
159 -45 -490 0
-377 201 213 0
311 259 229 0
-150 140 230 0
-141 -2 388 0
-113 356 -87 0
109 -377 279 0
193 -138 22 0
214 -17 -402 0
-45 -247 -439 0
-3 -79 -328 0
-300 -2 -379 0
-381 429 -443 0
-178 271 -491 0
302 -202 -269 0
287 267 106 0
-394 355 -330 0
-231 -335 -244 0
100 73 -270 0
263 308 -471 0
-396 -268 201 0
-256 334 -125 0
182 132 -85 0
278 119 466 0
407 -419 -217 0
-58 -49 -231 0
-144 -70 -161 0
-215 248 -6 0
-138 -161 481 0
223 -51 299 0
-316 469 -161 0
-392 -327 -44 0
475 -126 70 0
212 -211 -20 0
-419 -27 399 0
-271 -128 -262 0
-387 -122 -149 0
152 273 -480 0
57 192 91 0
169 420 -84 0
248 -28 468 0
275 -337 443 0
408 73 151 0
434 291 72 0
-481 -178 -194 0
238 -349 445 0
-50 399 -400 0
172 -422 145 0
421 361 -257 0
182 96 431 0
-66 193 459 0
412 -87 235 0
38 323 141 0
357 -394 -440 0
-127 -65 117 0
-195 -47 263 0
272 -106 351 0
129 -197 379 0
410 -175 -271 0
341 118 217 0
-52 -166 -475 0
314 -197 -45 0
44 36 -197 0
-3 113 26 0
-24 -125 -292 0
87 -371 35 0
-249 106 430 0
-400 194 235 0
476 347 298 0
-498 95 -500 0
-472 -85 283 0
285 432 -459 0
-388 -313 -253 0
410 -459 454 0
7 191 -384 0
-347 191 -364 0
399 77 -426 0
-17 340 351 0
94 -436 -400 0
339 -405 -83 0
86 -183 467 0
-175 366 238 0
-425 137 379 0
488 -477 352 0
190 -394 471 0
325 -66 116 0
440 -109 176 0
-117 -417 -461 0
-273 139 272 0
6 -438 98 0
184 -29 178 0
145 -252 -230 0
-447 -347 -495 0
-488 495 479 0
-183 30 391 0
-330 33 460 0
137 31 381 0
76 450 -368 0
-256 81 -394 0
482 343 -136 0
439 114 -393 0
-366 418 -426 0
-409 -369 -339 0
2 -481 -493 0
135 -309 -425 0
377 434 201 0
333 477 -180 0
-166 -413 -459 0
187 383 -327 0
66 397 420 0
149 -422 69 0
-160 239 108 0
259 -112 55 0
-120 -324 74 0
182 -169 236 0
98 -403 150 0
-319 -420 453 0
414 369 495 0
139 -447 -140 0
-363 156 -263 0
-380 -366 411 0
126 138 -111 0
-445 -331 -97 0
357 288 -231 0
-160 226 -300 0
-102 481 110 0
222 233 -419 0
-386 -397 -426 0
-377 -468 -393 0
-61 481 148 0
20 -3 -134 0
-318 -216 -178 0
-457 73 -130 0
-381 -279 181 0
33 -273 -96 0
-345 -250 219 0
-430 -46 298 0
-351 349 117 0
435 256 400 0
385 -403 -454 0
-35 -396 410 0
357 247 26 0
-204 -274 119 0
335 495 287 0
-173 93 -108 0
125 -258 -44 0
-299 324 -291 0
-356 189 444 0
-201 468 -16 0
145 -239 -434 0
-294 -491 -185 0
-245 -211 -414 0
-309 -424 95 0
-345 -193 -216 0
-85 -367 383 0
-277 433 -417 0
391 -211 -227 0
-376 361 -238 0
134 -83 405 0
-392 -379 346 0
158 382 -6 0
101 -419 228 0
362 -351 -279 0
-460 211 450 0
124 -76 360 0
428 370 -435 0
-135 412 455 0
351 328 114 0
-256 442 -36 0
-345 -5 -147 0
-219 28 -257 0
-300 -231 -209 0
32 -475 269 0
107 -321 385 0
-355 -265 359 0
-151 192 419 0
-82 95 -412 0
-268 -435 -423 0
96 -466 -55 0
76 358 174 0
-425 275 -355 0
194 -139 459 0
-165 393 -113 0
474 -355 -399 0
-443 201 437 0
-83 -324 -398 0
416 108 -278 0
166 59 -222 0
-231 265 -473 0
-237 169 -94 0
362 -264 21 0
-105 63 70 0
383 -73 229 0
-378 -354 473 0
300 297 -280 0
214 -77 47 0
313 315 114 0
-398 -406 -414 0
337 -351 240 0
-211 -147 72 0
-330 -257 -29 0
446 297 -207 0
196 234 209 0
-239 -258 136 0
-443 219 -28 0
-492 -159 -377 0
-360 269 -297 0
-495 -70 26 0
283 378 369 0
466 492 33 0
395 -98 -419 0
500 -132 89 0
-44 -376 256 0
-209 476 29 0
269 498 466 0
-418 -82 -3 0
169 30 -272 0
252 -419 443 0
495 -181 185 0
-296 61 -333 0
-144 13 -442 0
434 149 215 0
-212 -14 -37 0
-165 3 34 0
489 -21 328 0
224 61 -139 0
-37 195 -278 0
291 -299 336 0
-210 -343 -462 0
495 275 -139 0
-491 72 454 0
-263 -73 432 0
-232 486 16 0
-423 207 376 0
-206 293 395 0
244 241 -411 0
174 492 -424 0
410 489 -173 0
228 434 206 0
339 29 -437 0
-108 -132 53 0
-362 -338 -133 0
426 394 236 0
-236 -232 -81 0
311 -369 -77 0
-318 331 223 0
-44 307 403 0
26 150 346 0
-80 -214 421 0
-207 60 -408 0
-86 -260 -134 0
-112 -70 488 0
-11 357 5 0
221 -143 -188 0
291 434 479 0
-67 -62 -375 0
-336 -488 32 0
-488 222 485 0
163 -18 -36 0
-238 -132 -221 0
87 237 118 0
273 399 363 0
264 -274 -27 0
-480 404 384 0
-174 -445 -497 0
-210 -116 198 0
500 -214 436 0
-174 -414 313 0
-66 486 -417 0
-418 -30 110 0
-268 74 -390 0
-334 -132 -224 0
-381 -341 42 0
-278 -367 496 0
-415 -452 -71 0
-54 -227 120 0
-369 476 288 0
249 190 499 0
-361 171 467 0
452 432 391 0
144 -173 -190 0
88 67 473 0
-483 57 372 0
-405 -465 -417 0
-146 -474 -244 0
-457 66 -166 0
-451 351 296 0
-76 195 -396 0
180 -151 -217 0
322 -275 -471 0
-68 -13 -228 0
-343 -104 -438 0
120 -22 -472 0
-97 -477 -165 0
-455 396 -95 0
229 -300 457 0
494 -89 3 0
351 -100 -262 0
-487 -408 -443 0
-450 -327 34 0
-292 -248 264 0
-111 3 431 0
-479 271 395 0
-386 -197 -266 0
454 -210 164 0
55 415 329 0
13 -40 76 0
435 382 -315 0
-358 -301 -372 0
-328 131 325 0
69 275 308 0
314 284 169 0
183 -86 483 0
-436 -91 -116 0
-376 304 19 0
-289 -467 -410 0
-481 -285 395 0
148 -499 -498 0
-323 130 -432 0
-344 -472 -402 0
-457 352 78 0
-456 67 -64 0
-34 266 -29 0
-249 -391 162 0
118 52 -345 0
484 -158 -322 0
363 -262 -345 0
-467 335 -154 0
-424 -85 377 0
-270 -353 151 0
-12 -472 -264 0
219 -202 306 0
262 121 171 0
356 -161 -464 0
-323 499 -99 0
416 449 46 0
-437 421 311 0
335 468 -83 0
-75 -43 289 0
477 398 293 0
-286 -39 -129 0
88 425 426 0
-313 147 -243 0
85 -131 458 0
-367 123 235 0
-266 288 -5 0
413 -54 -400 0
-420 281 477 0
214 -319 85 0
-245 227 300 0
-205 -306 296 0
-391 -34 -95 0
-8 -275 2 0
-262 337 -3 0
241 -416 249 0
186 371 -398 0
437 75 43 0
-241 484 -94 0
-386 -357 461 0
377 -439 183 0
484 -245 -455 0
-37 -494 -448 0
-158 -202 230 0
-298 201 50 0
-497 -435 -95 0
-137 23 32 0
424 442 -16 0
52 -446 75 0
60 -141 150 0
268 -414 469 0
370 -393 89 0
-362 63 -21 0
-287 444 494 0
-282 -19 -242 0
176 -380 -146 0
-344 135 304 0
17 -460 391 0
-277 -91 -88 0
19 108 377 0
-193 206 392 0
-328 -89 -329 0
-194 462 410 0
30 -114 482 0
-76 -4 -247 0
2 -314 84 0
309 -284 354 0
166 -374 44 0
-474 -437 370 0
165 27 -188 0
137 -285 -238 0
-118 -351 -64 0
402 436 -23 0
-169 483 60 0
362 370 263 0
-111 231 489 0
290 56 179 0
371 445 198 0
404 376 -96 0
-231 -325 203 0
465 138 80 0
478 -367 -247 0
-144 446 -439 0
42 -389 -134 0
15 160 -252 0
-356 -360 -5 0
-90 96 44 0
-385 -101 -351 0
160 25 446 0
-375 97 -447 0
-173 -186 47 0
-41 352 428 0
302 493 61 0
-385 213 -432 0
142 31 -463 0
262 -385 21 0
-318 -113 437 0
-261 352 -124 0
423 -208 182 0
104 239 87 0
468 -161 122 0
-340 224 -471 0
-481 -331 347 0
