c Large 3-SAT formula for GPU testing
c 2000 variables, 12000 clauses (ratio: 6.0)
p cnf 2000 12000
1244 -862 -789 0
-1981 -1199 354 0
180 -512 -1396 0
298 -526 -121 0
410 -1099 -205 0
1742 171 857 0
-1891 -623 -1057 0
524 714 -1038 0
-1699 1062 1833 0
503 1256 146 0
-1223 1994 -1074 0
-1885 -261 1374 0
-22 -1325 -52 0
-847 1002 1415 0
1173 769 -735 0
947 -1946 1182 0
1900 1115 -1542 0
-323 -955 706 0
1389 -1362 -467 0
-1548 -374 1694 0
-14 1541 992 0
-1575 -1090 -268 0
717 -1893 923 0
-1358 -858 694 0
1759 109 -749 0
839 1201 -1561 0
529 1648 1322 0
-1123 1343 -200 0
-55 -1046 1776 0
1530 39 -1218 0
918 1926 -1621 0
-1378 349 82 0
-130 4 -553 0
944 1239 -697 0
-1079 1715 -512 0
1174 1681 1872 0
-466 1901 -340 0
-1931 1075 1130 0
1917 199 819 0
-1012 100 -1910 0
-170 -1319 248 0
-985 403 -991 0
957 -507 1811 0
-1928 572 1001 0
-639 -1171 -108 0
1270 -1566 1681 0
1951 -426 -1585 0
798 471 -477 0
1427 -1231 -1354 0
405 849 -622 0
1252 -1978 -1407 0
1160 4 1138 0
588 -1673 1877 0
-475 1093 -938 0
-1175 1198 665 0
806 -828 1097 0
-1944 549 1370 0
649 1199 886 0
-1401 -454 1517 0
-320 1272 -896 0
1741 -611 361 0
398 -879 -1234 0
-1536 672 -19 0
434 1648 1173 0
908 1510 1259 0
850 301 604 0
1051 119 -1289 0
-156 -1161 158 0
-1441 525 938 0
991 1331 -1645 0
1976 -800 855 0
-1812 1037 -464 0
-1110 1815 -1638 0
73 -821 -1559 0
1613 -622 858 0
-1774 -919 584 0
-1814 1220 79 0
1391 -882 -1505 0
-527 1486 246 0
-39 1626 1413 0
1958 1156 -1248 0
492 1603 1735 0
1488 335 -1973 0
-1554 916 -1092 0
54 -26 815 0
1603 -1819 719 0
-1307 545 91 0
1127 1262 1302 0
1204 -216 191 0
14 1813 -462 0
585 -374 -1329 0
-680 -1696 781 0
-1099 -1073 -753 0
1654 -1858 -1410 0
-1232 1079 -592 0
1029 -12 1518 0
1659 -1856 1645 0
26 226 -1178 0
1915 1633 1975 0
1957 -1533 -1981 0
-383 -984 1001 0
1620 -940 1792 0
496 924 474 0
-1098 -1768 -765 0
373 46 -1146 0
-895 389 -1628 0
1796 -1446 -1284 0
-862 -569 1169 0
-1405 -98 -8 0
-447 -652 -1271 0
897 -383 1800 0
-855 -1874 -1409 0
1279 1243 -1918 0
-1936 1739 1894 0
-54 1526 -735 0
84 1228 544 0
-721 463 -644 0
-487 -1088 876 0
-1719 232 -1704 0
1699 -227 -44 0
-1572 1527 1411 0
708 -22 1717 0
421 -1264 -1266 0
785 -155 -1089 0
1401 1827 495 0
-256 1164 -645 0
1218 -646 -678 0
-34 -873 839 0
-1753 -1274 -1126 0
1986 1813 -1818 0
-1713 844 -617 0
-289 1121 -290 0
548 1969 764 0
122 1840 1801 0
1802 -157 -389 0
828 1750 1204 0
-1111 871 -1473 0
1691 1658 -712 0
59 -1720 32 0
-352 -461 -965 0
876 -1100 99 0
947 -330 -895 0
1113 1678 -457 0
1284 -1009 714 0
-1242 350 -1054 0
-1629 -1614 1912 0
301 538 564 0
254 -750 -991 0
-1328 235 1049 0
-562 491 1003 0
462 -172 450 0
654 -613 1648 0
-1769 1954 48 0
-560 596 949 0
-707 -1226 415 0
113 1973 -209 0
-841 79 -1646 0
1017 327 128 0
-623 1455 207 0
1890 -95 478 0
182 -366 -1975 0
-695 -1320 1714 0
-1558 1505 694 0
-661 1447 653 0
-1183 -1378 -1016 0
1212 -1331 1519 0
950 -899 1795 0
1781 -864 171 0
-1841 1207 1228 0
-1343 -1017 -1200 0
704 1228 1309 0
1892 1485 841 0
83 595 1801 0
356 -1175 -579 0
-282 -231 -53 0
-209 1709 -33 0
1115 -1787 1750 0
-156 1727 1378 0
-807 1952 -1219 0
1770 1029 -1411 0
1186 -1156 -1800 0
-916 -1056 1808 0
-1406 -159 -1475 0
-1800 1061 -1865 0
-642 -1835 -1004 0
283 -1115 -1286 0
510 -192 835 0
-1406 1017 -349 0
162 -1208 -413 0
199 518 793 0
-1623 1797 458 0
-1816 46 165 0
-7 -1034 -1668 0
1865 -1946 1292 0
1587 -98 1451 0
396 1708 -1829 0
-1290 -892 -930 0
310 1881 1978 0
-1664 686 -656 0
831 -625 -981 0
1013 290 468 0
-1509 49 841 0
601 522 -1839 0
1412 299 739 0
1478 -745 -298 0
614 1365 1735 0
673 -520 1716 0
-1718 -1450 707 0
-260 1659 1679 0
203 993 -870 0
654 1190 -1623 0
1383 738 -1650 0
-1309 -14 796 0
-1372 1626 -94 0
-1025 913 1408 0
-1724 634 1013 0
-284 -1935 405 0
-94 497 1510 0
1822 1365 1130 0
-119 1994 1152 0
1469 -34 519 0
1221 1224 791 0
1266 -90 1029 0
1356 45 -527 0
-1405 -179 1020 0
1899 296 -1079 0
-97 -1463 -1067 0
258 -1668 -120 0
1933 -1588 1243 0
-596 -130 -681 0
317 1944 1370 0
-1414 1896 -1565 0
129 -1780 1707 0
-612 555 636 0
540 1222 -694 0
-74 1731 -909 0
-1835 268 1083 0
-1553 1490 -1994 0
1640 1803 1204 0
-1879 1131 -398 0
-1983 811 333 0
1772 -1678 1400 0
1808 -1285 201 0
-1663 52 1178 0
1114 -1836 1561 0
25 485 511 0
-912 83 -113 0
676 -496 196 0
374 1945 696 0
515 -806 -971 0
152 878 -1742 0
510 -1062 237 0
586 1317 -1663 0
1144 -1034 1375 0
-340 1481 850 0
-382 1159 1061 0
1684 -276 -1184 0
1580 1420 1023 0
-1717 214 29 0
1659 255 -1370 0
1441 441 -1343 0
-1317 -1467 352 0
-1571 1826 -1332 0
699 -1674 695 0
1014 407 1329 0
587 1882 1086 0
-832 -1432 -28 0
-1013 -1183 994 0
-104 -1759 711 0
69 -9 -620 0
-455 -503 -43 0
-1462 1392 1214 0
34 -1712 -609 0
-803 -667 884 0
-924 -1896 -213 0
-241 -546 460 0
-210 345 104 0
-11 -1960 -1453 0
65 -644 1088 0
-1151 -186 937 0
1151 -1835 -595 0
1397 -760 1205 0
1283 -1033 -1068 0
1580 -205 1117 0
1555 1291 1004 0
-1666 337 1767 0
-157 -186 -15 0
-33 -907 1619 0
592 909 170 0
-1398 1958 -573 0
-704 1426 -485 0
-291 1820 1398 0
-412 122 1062 0
1473 917 1253 0
1643 1784 1031 0
-516 -1095 1775 0
78 1884 -1208 0
-1834 -815 1808 0
-1245 -1376 210 0
1785 1954 1364 0
-1749 -759 -1010 0
989 -150 -620 0
1399 871 1646 0
-1979 -479 -834 0
1054 1292 -398 0
-130 42 -280 0
-752 -372 1231 0
1443 1625 -1342 0
-754 -797 1565 0
1671 427 753 0
575 92 -848 0
1083 1155 191 0
-1640 563 -1491 0
-447 556 -1470 0
-1196 1447 122 0
-1293 -1547 104 0
-1585 292 -924 0
-100 59 -443 0
1413 689 1811 0
141 266 497 0
1571 -1838 1402 0
-1331 1388 1217 0
-504 1884 1491 0
-1582 -802 -513 0
-666 -1523 -984 0
1580 -1054 1922 0
-1997 726 -1102 0
209 1240 -703 0
-353 -1045 991 0
-711 1284 1913 0
-1175 -584 1838 0
489 -85 -369 0
-998 255 125 0
-732 258 -90 0
-1193 5 1559 0
14 -1369 -537 0
-1450 -1311 1555 0
723 1385 1419 0
-567 -1191 1487 0
-48 972 67 0
-1579 383 801 0
1192 -1032 -118 0
-914 -1378 575 0
-1610 1554 1949 0
151 916 -1863 0
-1240 -421 -1010 0
-1589 489 -805 0
-688 1246 452 0
-83 -441 1842 0
-794 -1892 -1351 0
558 1277 871 0
1888 1823 1934 0
454 140 -759 0
1039 1204 1029 0
1967 -360 -509 0
-1833 1662 1899 0
1965 -484 -1237 0
603 -1818 408 0
-1264 140 -1640 0
1888 -875 -1671 0
-574 1678 1972 0
-477 -1135 -1403 0
-1616 -1164 643 0
1524 -1506 -1881 0
-1463 581 -881 0
-1225 -945 575 0
81 794 -1578 0
1720 -317 1751 0
1449 1097 -1475 0
590 -1940 -1081 0
1607 848 82 0
-187 308 573 0
-632 -1211 1430 0
-868 1323 741 0
551 -1118 -170 0
1955 -158 -691 0
909 -1582 -1444 0
828 135 392 0
-967 1765 -701 0
227 -934 -1576 0
602 -1572 910 0
-1727 -1604 -139 0
1213 724 -525 0
-1193 1559 991 0
-826 -644 968 0
287 682 1074 0
-1397 -854 -1389 0
-489 1590 366 0
390 100 1599 0
1814 97 1253 0
1802 1778 1848 0
1156 -50 607 0
-1859 1207 1051 0
731 -62 987 0
-281 -306 -1082 0
-1423 -897 1172 0
1944 -527 -1699 0
-168 1211 -361 0
1271 -434 -702 0
254 -1801 -601 0
663 -619 1395 0
-523 -577 701 0
1148 982 -1048 0
625 -884 -1374 0
1426 -1440 137 0
-1259 -877 1005 0
-378 -1150 -1559 0
496 -911 -605 0
1445 401 1234 0
1053 -418 -63 0
956 683 1611 0
-1006 1603 -1762 0
-1574 1853 -1538 0
-1296 1438 417 0
364 -840 -791 0
1626 91 14 0
1789 -338 250 0
408 305 779 0
859 5 1777 0
1116 1351 361 0
225 -236 461 0
1687 -1730 977 0
-384 1083 1651 0
1883 -1339 -405 0
-587 -1064 1099 0
-335 99 -1819 0
1614 1156 1284 0
-1452 1458 -607 0
-91 1745 -1915 0
394 1398 -324 0
-1382 1853 -1707 0
1523 -1801 229 0
1615 -993 -474 0
1947 862 -432 0
-1123 1375 -261 0
185 442 -1502 0
799 -1121 -1449 0
-243 1012 -1199 0
-221 1501 -871 0
591 1532 1740 0
-1685 1809 -1147 0
-1168 -1149 1727 0
849 1310 -1524 0
387 705 1735 0
297 -236 1936 0
681 1315 -1280 0
-744 -1960 1627 0
277 1357 1427 0
107 1855 1081 0
1987 -213 -1049 0
-653 -937 -1884 0
143 41 -306 0
-1017 -1698 -38 0
594 -365 -83 0
1516 -1901 1514 0
-1520 1225 -376 0
-814 1453 -1601 0
1177 1442 637 0
-1036 -401 -1473 0
1187 571 -927 0
-1583 -157 749 0
1473 -1535 764 0
-50 -1534 308 0
511 1862 171 0
-1037 91 1180 0
1766 -212 1932 0
-466 193 -214 0
-665 -495 -1786 0
246 -1843 1304 0
-1306 1232 -1953 0
-263 1346 622 0
1326 -107 -1574 0
847 -1588 875 0
-15 -1270 1401 0
-1592 -1804 664 0
-350 1417 -1875 0
1210 1176 -155 0
250 -473 -1663 0
1441 -872 250 0
523 1145 -1006 0
1359 -139 -1750 0
920 -137 1106 0
155 -817 947 0
-1362 -1332 791 0
-723 -1569 1967 0
-1089 1149 1419 0
-313 1252 -1663 0
783 -1672 480 0
1349 1969 452 0
-1372 -1489 -1969 0
-36 -112 1774 0
1173 -1355 -1897 0
739 1666 -1706 0
-358 -1402 -1126 0
9 795 -1478 0
-1215 1101 699 0
1054 -777 829 0
-295 1322 652 0
1870 382 1350 0
-539 602 -1833 0
1390 -1099 309 0
346 -820 -1143 0
-1793 1620 1116 0
151 441 325 0
-765 -494 -221 0
-447 1919 1632 0
1820 1305 531 0
-578 294 -879 0
-1480 1974 470 0
1403 535 760 0
-1123 663 1272 0
-1734 -359 1959 0
1789 194 -1633 0
-1649 -453 -1542 0
301 -1582 -547 0
325 1211 1300 0
1403 769 1474 0
983 -427 -1605 0
1514 -830 -559 0
739 558 -815 0
-923 1945 -937 0
1040 128 -1617 0
1883 238 781 0
-445 -1343 -887 0
-1525 543 -1089 0
1996 -1927 -1776 0
1777 566 -706 0
-912 -379 -441 0
-324 -831 191 0
116 854 1635 0
1940 -1926 -947 0
-1028 565 192 0
367 -35 1706 0
1953 -827 191 0
-703 210 -609 0
1380 1261 -973 0
-1551 1198 1964 0
900 -529 1404 0
-1391 -385 -207 0
1254 520 -296 0
-1923 -374 1247 0
198 1250 165 0
-425 1754 1283 0
-310 -778 -1848 0
-694 -868 -638 0
351 -1552 -1874 0
753 357 1554 0
-850 749 1351 0
-1942 -510 -1341 0
-949 -37 -1785 0
1339 -108 -899 0
769 -511 -1631 0
1084 -1489 -1095 0
-353 -1898 1716 0
551 -748 1449 0
898 -1990 1449 0
-672 -518 -208 0
-995 -1992 -1706 0
-1198 -479 1277 0
693 -1097 820 0
944 -1764 1623 0
-1271 -1753 -1041 0
-410 -1459 555 0
993 1618 -1610 0
-1946 658 1660 0
-1845 -160 658 0
1670 -901 -1025 0
1744 553 826 0
-181 640 -385 0
863 597 -1242 0
1757 1906 -1481 0
1579 1321 1509 0
516 1040 341 0
382 -1607 -1483 0
-619 -1691 -926 0
-998 67 -1638 0
-1522 1760 1370 0
-1289 -119 1504 0
954 1357 1556 0
-1397 153 1800 0
-234 872 1975 0
-1347 -840 -1270 0
-118 133 728 0
1760 -1926 66 0
1515 -1781 -1500 0
-1616 1520 -1025 0
789 1984 -400 0
-1512 762 -771 0
-1805 791 -388 0
-714 -672 -715 0
-339 -1386 1495 0
1264 71 950 0
-1049 -791 651 0
-1436 1786 858 0
1847 1735 -1217 0
1799 199 639 0
1840 1500 -1240 0
-200 -738 614 0
1219 996 305 0
-207 -243 1932 0
-1871 -1605 1788 0
54 1096 1854 0
-661 1461 1908 0
-55 -1994 1565 0
-618 1333 -98 0
1059 869 261 0
-1733 -1837 -167 0
417 -96 -1892 0
624 -635 -100 0
1408 186 121 0
602 -514 1230 0
-1391 94 1783 0
375 -1585 -1906 0
168 153 1201 0
1214 839 -1885 0
1339 -383 -116 0
488 -351 99 0
-1374 1592 -1438 0
-638 1522 1045 0
-1289 1027 1310 0
-1276 -1634 -1263 0
1123 791 523 0
786 -97 635 0
-1459 -1105 523 0
240 -1177 -625 0
-1150 425 863 0
1116 -508 1696 0
-533 -1001 1815 0
1795 -1726 1325 0
1498 1734 704 0
-1030 -1165 -1181 0
806 1410 -296 0
-98 -1918 393 0
-1975 -629 375 0
-865 1249 1201 0
-1330 848 491 0
-1222 -618 359 0
890 -1496 -1252 0
674 1663 85 0
-1820 -1818 1931 0
1226 -702 921 0
857 1746 -1653 0
207 -645 -1442 0
1212 1601 -994 0
-1193 616 300 0
-93 1277 1490 0
-763 -1649 1234 0
-784 -813 1379 0
530 -1198 1462 0
1963 607 -192 0
-267 869 1906 0
-994 -1519 -1122 0
235 1232 1958 0
-1192 1053 -755 0
-1936 -1046 1164 0
-1891 297 -1276 0
-1353 -983 220 0
1599 825 -100 0
1061 1539 1888 0
-851 1908 598 0
794 827 -384 0
-1759 145 60 0
1369 -516 -1037 0
701 -1755 -1227 0
-606 916 -1182 0
984 -1774 -459 0
-1389 -1424 -1994 0
-428 1076 1702 0
548 1660 840 0
1221 1019 1548 0
-1626 -1288 -1194 0
464 1298 10 0
417 -776 -288 0
-32 -1904 544 0
-435 -1609 1714 0
175 499 -1932 0
900 -1813 -92 0
192 -950 -1746 0
-260 -465 661 0
1286 717 -646 0
-1994 1540 1695 0
650 -1644 -1517 0
-1092 -419 -678 0
1397 600 206 0
1845 -938 1365 0
-98 676 1220 0
-1811 -996 -956 0
343 247 -680 0
1643 1745 -1775 0
1886 205 714 0
689 -843 -1758 0
-992 54 1469 0
242 52 150 0
-1399 -948 1114 0
1911 -822 1583 0
-16 1377 415 0
-977 1179 1902 0
-342 -364 1298 0
-1689 -1521 977 0
-1147 -1659 -1333 0
205 -223 849 0
1664 -1111 -997 0
-34 -578 -396 0
992 -1055 1147 0
528 -119 1319 0
302 1475 -1830 0
402 1428 -32 0
944 -535 -1678 0
-1338 -1560 1340 0
-467 -329 -1925 0
557 680 1278 0
-31 -670 417 0
1193 -1129 1174 0
-1397 -678 -1239 0
-1923 2000 1468 0
-1533 1950 -938 0
775 1989 1383 0
-1992 1003 1373 0
-11 1245 1071 0
1840 17 -1836 0
-756 1908 -1703 0
-868 -1756 1189 0
-598 1007 1093 0
-343 472 1645 0
-1338 -393 42 0
-1751 -634 -1786 0
-1058 633 1264 0
490 1496 1690 0
664 -219 -409 0
-249 666 1016 0
-1440 1099 -1207 0
947 1768 87 0
-1936 -935 -1724 0
73 1231 1713 0
218 -213 1904 0
1135 32 -680 0
1187 -516 -873 0
-973 690 -1041 0
-1216 1009 -535 0
-701 -1181 -164 0
-342 -853 1842 0
-559 -629 870 0
-1520 1902 -939 0
-387 -1472 307 0
-719 -1092 -569 0
1494 -1237 -1235 0
-1748 1942 1295 0
997 -391 1837 0
1475 427 1249 0
-2 89 1879 0
-648 1978 -139 0
490 -514 -1774 0
84 1500 -11 0
-119 -1110 -164 0
-172 -852 -1444 0
-1088 -1780 -890 0
-1107 -1042 -675 0
-1735 -1523 -1255 0
1572 49 1599 0
1250 -1722 749 0
-925 -1253 -1757 0
185 -99 430 0
1807 -1617 -256 0
1369 1689 -85 0
-1648 1324 1793 0
1081 -1180 155 0
-972 646 -1998 0
767 -1254 1011 0
-477 -814 -703 0
-1903 -1568 1967 0
1297 -1958 -1621 0
-947 -1783 -1844 0
-1466 -242 -1054 0
345 -748 955 0
1059 1603 -8 0
-1346 1036 1748 0
-525 1960 -1153 0
-546 -1984 -52 0
-1302 1052 -1682 0
-378 101 1439 0
-1344 -9 -1608 0
911 1566 1120 0
149 -1126 521 0
-1443 714 -1891 0
1026 -1211 1636 0
-205 888 -1424 0
-177 -1331 -995 0
-772 -1980 448 0
-899 -1410 -783 0
1407 1988 -682 0
1250 1535 939 0
-948 1691 1166 0
-670 -111 -421 0
805 1443 1599 0
556 -732 -337 0
81 -745 -1250 0
-22 1882 -167 0
669 -970 53 0
1859 -1734 248 0
49 -1753 -1613 0
793 1166 1015 0
1920 698 271 0
-1844 1400 -910 0
-589 -161 -1820 0
-1278 626 -1720 0
935 1944 875 0
-1604 -1634 -356 0
-1696 1165 830 0
-1386 -327 -37 0
128 -1539 -979 0
279 1731 -886 0
1382 1063 -256 0
1832 -782 -165 0
1016 733 1033 0
868 1555 -1245 0
-546 1643 1951 0
-1949 870 1912 0
-573 825 -1211 0
1232 1509 15 0
-1401 -1130 -548 0
813 -1551 725 0
441 991 587 0
1851 523 -374 0
-90 1514 -1560 0
1614 1451 198 0
897 626 -261 0
-1885 1257 332 0
1636 -717 -428 0
-1356 -1060 1214 0
-674 -750 94 0
-1094 -1335 695 0
-1059 -918 1637 0
-82 868 -152 0
-242 1227 1177 0
1166 875 184 0
-17 -326 240 0
-94 1269 -638 0
1780 1468 -24 0
-1025 328 402 0
1261 -1628 1059 0
763 1532 662 0
-1839 1678 396 0
956 -1292 -809 0
-1846 1910 327 0
162 769 -1589 0
-876 646 264 0
-1319 -1689 920 0
1186 247 525 0
418 -1013 -330 0
-887 1469 1949 0
-1682 -1190 -103 0
1821 -172 742 0
-1311 1645 352 0
1314 -1555 1763 0
-257 473 -501 0
1601 -670 1337 0
155 779 -1775 0
1656 -1371 398 0
-1906 -1912 866 0
-12 -730 602 0
1340 -280 985 0
654 1032 -761 0
955 -187 1574 0
-1040 -1050 1885 0
761 -338 1715 0
833 -955 -1912 0
1871 531 -898 0
497 -605 811 0
-1769 -606 -1667 0
-1277 977 1721 0
886 1982 47 0
1402 -766 -879 0
-1977 -754 -381 0
1381 -691 204 0
-1937 -1497 -1554 0
-1191 1035 -975 0
-91 837 -422 0
834 -559 -1802 0
-1114 50 -1832 0
-552 1470 -1806 0
-464 1706 -1680 0
438 -443 592 0
805 820 383 0
-107 -268 -1022 0
395 -794 946 0
-807 113 695 0
-942 1261 167 0
-1405 -671 505 0
106 384 1690 0
-1540 1334 -1411 0
-1203 -441 345 0
-122 1941 307 0
-1210 -1537 1273 0
1229 1562 -463 0
-1676 -7 905 0
-1649 1477 1682 0
1951 703 1028 0
-845 -477 -1482 0
-1652 -307 275 0
737 860 537 0
10 -1040 1166 0
-803 924 220 0
195 1581 -696 0
-1278 -919 -1711 0
105 1743 -237 0
749 1441 176 0
-708 -342 -56 0
-1914 1726 1512 0
1106 1416 554 0
-729 -764 1911 0
-1905 -696 1517 0
79 1829 -1548 0
1154 -316 926 0
262 959 81 0
1907 700 -671 0
896 -1269 1300 0
1553 213 -1104 0
1374 1788 -1781 0
-687 -1971 692 0
902 1212 -1208 0
-1415 1378 347 0
458 -578 -1620 0
168 758 -865 0
-73 1780 281 0
1163 -1040 -1980 0
6 1795 621 0
136 1060 432 0
193 1224 1848 0
-1635 1937 254 0
115 1404 -1754 0
-471 1567 455 0
1901 -1192 -1708 0
564 81 35 0
691 1048 1988 0
-1656 -1539 -197 0
134 1775 1965 0
336 -1562 -455 0
-1755 -1703 1990 0
184 -1327 -218 0
1364 -556 -686 0
1865 -203 1690 0
-1488 1462 415 0
-358 390 -1156 0
-1175 1907 -1316 0
1564 -1571 1300 0
-1743 1752 -1090 0
407 480 596 0
-1900 120 -411 0
-440 -1937 -1910 0
537 -538 -1786 0
-36 829 673 0
1833 -1115 146 0
1423 -1130 340 0
1956 1750 -670 0
-1273 809 355 0
1548 1737 1179 0
1126 200 630 0
-1798 467 1078 0
-1426 560 -232 0
103 -95 -741 0
175 -657 -701 0
-1447 1290 -897 0
-1467 -1169 -668 0
33 -1 -1168 0
772 -1010 -130 0
1259 305 1665 0
-1208 -1947 -671 0
-1230 1674 1559 0
165 -1829 1562 0
-528 -1778 322 0
710 -1779 1755 0
-1237 -1430 300 0
1921 -1799 1256 0
1232 -886 795 0
-1732 1130 -1647 0
-608 -1179 -1037 0
1937 1379 -1641 0
-1415 1928 794 0
341 1798 -590 0
-1930 -1506 1213 0
-1035 -1798 -770 0
1771 -1170 1873 0
629 71 575 0
-130 225 559 0
1002 1811 -75 0
-501 -90 -166 0
1222 13 786 0
599 -1425 1829 0
1180 1785 -1196 0
-1710 -1815 -746 0
75 1438 1394 0
-513 1106 22 0
1787 1264 -1627 0
121 -1653 -920 0
-1687 24 -817 0
-383 -1083 902 0
1709 -308 1378 0
-1788 -513 -277 0
-1062 809 -847 0
-1107 1239 1982 0
-1465 1630 -307 0
1314 1188 979 0
-1292 -1134 -293 0
-1244 -1898 -1879 0
1631 -1322 -1254 0
1186 428 1301 0
1146 1056 -1561 0
1319 -249 -59 0
10 1662 -1741 0
-1649 -616 -1891 0
-599 -670 211 0
-909 736 1642 0
-1473 -1069 754 0
-139 347 1535 0
-281 -1875 1256 0
1208 365 1606 0
355 -1288 793 0
-1436 1344 -369 0
1586 222 1935 0
306 707 -720 0
-616 -455 -402 0
1132 -1527 -1831 0
-593 527 250 0
1012 1735 819 0
411 1202 1796 0
1362 -1860 -1946 0
-1851 216 -516 0
-538 260 -1302 0
1758 52 615 0
696 1442 -1049 0
-177 -1713 689 0
-202 -1477 -1079 0
1869 -992 -133 0
-1323 405 -304 0
-764 -54 366 0
-825 -1572 597 0
1621 -1554 100 0
252 518 -1353 0
258 -1196 -933 0
-1108 -1224 1664 0
-1195 1117 978 0
646 495 -1228 0
41 -70 1301 0
757 -1053 -324 0
-713 -1347 845 0
484 848 368 0
-1566 -178 -106 0
-54 -1036 68 0
1 -169 -638 0
-1508 1670 -340 0
1990 -427 1000 0
-1539 -481 1738 0
-1372 243 1335 0
-824 -918 881 0
338 1669 -1343 0
1695 180 -1137 0
1213 1356 1342 0
145 14 -1246 0
-510 1828 -1103 0
-505 -1221 -284 0
728 -609 -623 0
-1010 -1547 423 0
883 1753 -307 0
-697 1900 -1683 0
1777 1784 1831 0
1211 -65 -14 0
481 569 -1396 0
133 791 -296 0
-327 -197 -1670 0
-836 1763 -655 0
-758 602 1614 0
819 -1236 223 0
-200 1908 -1754 0
-1156 -343 -219 0
-1013 1708 796 0
-1422 -1531 1853 0
1326 244 -47 0
-1466 239 779 0
1478 -1237 -885 0
569 706 1036 0
-1988 -747 537 0
850 -1651 -1461 0
-1905 -568 -25 0
-1694 -1870 -383 0
292 1125 1576 0
-796 317 -1350 0
867 -178 -396 0
441 1616 1184 0
-61 -127 678 0
-1056 -553 -1550 0
-1277 268 -103 0
137 -287 -1098 0
938 759 776 0
-1780 -472 179 0
-12 338 1049 0
-1721 1329 590 0
-1447 -960 -673 0
1058 -1832 -1451 0
-474 1935 1067 0
293 -1214 434 0
811 1801 -1177 0
-1372 -73 752 0
1830 -46 -1838 0
-981 1161 1871 0
-1092 -777 -1227 0
1661 1882 -616 0
1856 992 -1312 0
-1499 325 123 0
311 112 -1944 0
-1500 -383 -1463 0
-1689 1569 -336 0
1310 1707 237 0
725 588 -763 0
-969 1299 654 0
26 648 -747 0
-1785 813 -725 0
-309 597 1748 0
1559 1496 -1011 0
1249 1887 -312 0
1517 176 -1774 0
-897 1815 1531 0
564 1737 -1639 0
-1677 -1574 -777 0
1284 -1469 1590 0
182 1633 3 0
1513 816 1287 0
127 205 788 0
1017 -1417 45 0
-18 -1203 -1110 0
-1282 -1410 1818 0
815 1081 1799 0
-1012 1006 771 0
662 -523 -288 0
452 7 1756 0
1234 -481 78 0
-1598 1245 -192 0
1651 1236 133 0
1592 407 -889 0
1099 1715 -386 0
151 1244 964 0
497 1343 -512 0
1662 840 -755 0
1713 -1675 573 0
1398 -1613 -3 0
1497 -1977 -1605 0
-68 -1514 162 0
1488 -1646 -967 0
1653 -82 -1039 0
-536 1578 989 0
460 -203 967 0
-1888 -1371 -1311 0
802 -951 -791 0
90 1202 397 0
718 -368 1274 0
-648 -427 -1563 0
-1268 1241 -137 0
-1871 -1652 1513 0
-1740 887 -1350 0
-1073 -1038 -501 0
-1375 -1842 -1088 0
1821 -290 1717 0
1519 517 1377 0
1305 -84 961 0
-1518 -1586 775 0
1744 984 -124 0
-1921 -945 -1794 0
-1603 1698 -767 0
121 -1835 491 0
-1689 1249 -1544 0
825 1282 -257 0
156 -1862 1392 0
51 949 128 0
151 -441 1978 0
226 1515 -890 0
1999 1845 29 0
1650 -517 1254 0
860 -696 -1839 0
-1002 212 -968 0
509 -1435 -1831 0
-1269 -166 1823 0
1432 1801 -1864 0
282 1825 414 0
1045 451 -1245 0
-1445 1114 384 0
1787 -1422 1500 0
-212 714 1466 0
-917 -449 847 0
443 643 -315 0
397 -1975 659 0
-243 -1689 -357 0
1062 -450 -1386 0
-713 1772 -56 0
-31 1056 -911 0
1779 1327 1572 0
949 237 55 0
-851 1793 1957 0
1628 -911 -48 0
318 1304 1106 0
536 113 1322 0
-1706 -436 1952 0
240 -1908 -239 0
53 -175 803 0
1190 766 -388 0
1183 112 431 0
-1582 -285 -717 0
-486 632 -589 0
715 -534 -806 0
-649 631 -147 0
824 -44 -1429 0
1526 1769 -818 0
539 1550 -687 0
590 1633 -1042 0
-1642 -1790 568 0
1811 862 1002 0
-48 1935 -1670 0
-42 385 -930 0
1973 1642 -264 0
1804 -1067 94 0
1449 -1898 -134 0
-173 -1616 -611 0
-1688 -1470 -347 0
126 952 1267 0
-1208 -785 1729 0
-59 160 1962 0
1782 605 1878 0
-917 -117 1599 0
-1010 -1455 -148 0
-1447 465 978 0
3 442 -1431 0
1311 1397 1227 0
-1055 1028 -414 0
-1734 625 -95 0
511 1724 39 0
-1262 -575 337 0
-391 -11 -1460 0
-251 1583 1271 0
1796 1131 -1624 0
1047 -1641 724 0
-259 -943 1836 0
1255 -441 261 0
314 -1668 1436 0
-154 -1538 1818 0
-1314 -1395 644 0
-306 -715 1146 0
1220 1721 1090 0
1541 -1695 1948 0
-1221 -1030 1359 0
1357 -1576 -1765 0
392 -887 755 0
-1455 1101 612 0
-1860 361 1350 0
-714 -387 -1257 0
-439 -1157 692 0
303 -119 1345 0
652 565 1697 0
1261 -52 -1907 0
727 439 1809 0
-747 -1712 -1701 0
340 231 -25 0
1746 -1828 -1969 0
-1026 1759 -1188 0
1843 -68 -44 0
-204 -760 1119 0
-1959 -1100 119 0
107 955 990 0
636 -304 -533 0
-1525 1703 119 0
-667 -1458 -1760 0
1386 668 1793 0
1070 108 -1458 0
-838 1095 -631 0
1599 -872 1739 0
892 -964 1875 0
-126 521 -238 0
724 -627 1969 0
225 976 288 0
-770 -422 -717 0
-1634 1633 417 0
942 -687 112 0
-781 -1305 -1575 0
1630 963 144 0
-193 -928 -1510 0
1178 -551 399 0
-966 1627 279 0
-1741 -674 425 0
398 1042 -669 0
571 -526 1882 0
-1883 -1055 512 0
1599 390 1053 0
-138 974 1801 0
-1060 1601 -1950 0
-1122 1542 728 0
334 1526 -797 0
36 -1080 1869 0
1887 -1151 -78 0
-547 -927 683 0
-597 -690 -1773 0
-263 1222 122 0
1987 664 -636 0
1383 -37 1596 0
1656 -1130 896 0
1008 -1279 700 0
-1415 554 -1363 0
564 -1086 1468 0
-552 -55 390 0
645 -1631 -652 0
1410 177 -423 0
1872 -1115 -259 0
-613 1442 787 0
447 1492 640 0
-517 -1008 418 0
-1232 748 -132 0
-1391 -964 -1354 0
3 1119 341 0
1290 36 -1931 0
984 754 -203 0
-1756 -1186 1782 0
-1881 -33 394 0
-921 -1495 -137 0
312 -1896 1638 0
370 1074 74 0
1519 -1793 1448 0
40 -723 -1172 0
-117 1029 513 0
97 918 -860 0
-709 -1142 1089 0
-352 309 -763 0
41 -1419 307 0
333 -1271 1263 0
405 1174 1308 0
-1697 1128 -427 0
-182 -1353 -511 0
1582 308 -1335 0
1966 -1143 -1967 0
266 -1772 -1586 0
1844 591 -1380 0
1110 -1313 1739 0
-1466 -168 -1686 0
599 -1090 -1097 0
-830 460 1665 0
1658 298 1141 0
-1748 -652 -1761 0
-7 1970 607 0
314 1076 109 0
256 1735 -586 0
707 -959 534 0
496 -1232 1755 0
1143 -1382 -1891 0
1528 -1731 1508 0
146 -1208 477 0
609 728 1594 0
779 -1552 322 0
-2000 -1338 -1630 0
-1882 -895 -595 0
-778 1429 -1069 0
-1745 -1414 -1583 0
-1160 -589 -739 0
-856 1671 -199 0
-1444 1468 -10 0
1497 725 1145 0
1542 236 864 0
-523 190 -96 0
343 -709 323 0
1336 1787 -946 0
784 -739 1972 0
-1116 -552 1905 0
1871 -1776 -680 0
-199 1023 -1438 0
-1512 -1276 -1463 0
1202 293 969 0
1464 363 1528 0
-265 -347 -1878 0
122 -1121 -274 0
941 453 -481 0
655 -1892 -452 0
-1737 1227 1629 0
-809 -1024 -306 0
1928 663 -1297 0
976 -1905 1041 0
-964 914 1474 0
-177 901 38 0
-364 -1833 1433 0
-747 -1618 -826 0
1817 1623 -1183 0
-475 697 -1371 0
-227 1108 1565 0
692 -503 -92 0
-452 331 -1309 0
-706 -1622 -1124 0
-1099 -345 830 0
-1440 921 147 0
-589 -1795 1336 0
-1078 1169 -1795 0
-613 -1351 358 0
1338 1761 375 0
-1599 122 81 0
-1922 1847 -1611 0
325 851 -1912 0
146 963 -957 0
-1526 -198 -1714 0
269 -887 -1893 0
1972 726 1406 0
299 -1573 724 0
428 1600 -718 0
-1520 -42 -1430 0
950 1355 -1583 0
-1522 1481 1639 0
-875 -58 -324 0
-1993 -1634 1023 0
1232 -620 -428 0
1455 -548 -1603 0
-858 -799 1334 0
-675 -267 300 0
-1655 -400 1974 0
-726 -998 -1574 0
489 -1667 -356 0
-1802 -1898 1583 0
1455 -1289 -1053 0
561 -84 -1331 0
1272 849 -559 0
-1313 -502 151 0
-459 1598 -1389 0
62 1769 -1063 0
-1332 -1338 210 0
135 1918 -1882 0
141 -619 409 0
-516 1159 1221 0
862 -139 -1355 0
-850 665 -1177 0
-843 185 36 0
361 1359 -359 0
-245 235 -683 0
-1264 158 1566 0
28 -1903 -851 0
595 1213 772 0
-1506 1800 -521 0
820 -1780 -577 0
-84 -1170 854 0
-418 -843 1778 0
-906 -554 1043 0
-1108 44 931 0
1924 970 -451 0
1801 -1207 462 0
-905 -1328 -1140 0
-1114 -1442 -1557 0
-1739 -1266 -263 0
383 1797 83 0
1190 -1311 -927 0
-853 1981 -202 0
-263 -198 -1384 0
1273 -423 1976 0
-193 -1225 -476 0
183 695 765 0
1097 -749 441 0
1567 103 87 0
1068 -1870 -1799 0
-247 1599 -1926 0
-1319 1103 830 0
-1053 -1665 -1960 0
-1979 -1284 -1107 0
-1191 1916 212 0
867 1196 -274 0
936 -1197 -545 0
1952 -1068 -629 0
-186 -571 -1632 0
-912 -1722 -367 0
-1546 1861 -492 0
-83 590 658 0
-1120 -435 -1665 0
-1811 1397 1304 0
309 -543 -204 0
-177 1533 -1980 0
1813 499 1070 0
340 115 -1219 0
1878 -1311 -624 0
-1836 1438 1396 0
1563 -1190 1491 0
1161 87 -136 0
1942 -1433 1299 0
-1489 -14 788 0
-2 482 -117 0
-1146 -1738 -641 0
-1320 1305 -117 0
577 -600 -1782 0
-1388 1537 -913 0
-1033 -1998 84 0
-253 1663 -1277 0
1842 -1896 173 0
931 -91 211 0
-724 1703 881 0
1012 -1733 -1164 0
-437 -1630 -661 0
1401 -901 820 0
-855 -1070 -1253 0
-1561 -1867 964 0
-975 -1061 1176 0
709 -1193 1471 0
1562 993 1102 0
-1228 -1655 1037 0
-288 -947 -77 0
1726 350 629 0
921 -44 -1577 0
885 1858 384 0
1716 -66 -1370 0
1015 1543 567 0
599 -1053 1563 0
-1618 -1068 1453 0
-1512 -1865 1141 0
675 -1763 -1179 0
617 232 1635 0
1604 1393 -1318 0
-1581 632 -1444 0
-1464 209 -1347 0
26 -869 115 0
1961 1449 725 0
-690 -192 1922 0
1935 -898 -293 0
-1086 -209 -326 0
1326 1616 -1384 0
681 -754 -544 0
1824 1269 -1340 0
1921 -1494 297 0
-1235 -598 -1241 0
-512 -1008 1612 0
874 -473 466 0
-73 1083 965 0
-1177 -642 -1571 0
1657 -1049 -457 0
1848 1907 -1603 0
-459 577 168 0
88 -1439 -1464 0
1086 1185 -277 0
-141 -1671 -309 0
-1568 623 -1803 0
753 -1769 1189 0
-1221 -55 66 0
79 -1343 1439 0
-1280 -831 1485 0
-1503 1095 -450 0
-1430 -372 -1798 0
1565 327 452 0
861 -1958 1072 0
815 804 900 0
1859 1778 379 0
436 -1317 -1486 0
1881 -1386 -738 0
-1858 1792 -1136 0
-1746 408 -788 0
-1752 1664 874 0
82 -1598 -1289 0
1370 -1750 1311 0
1003 -1963 -906 0
1136 -1997 -1972 0
1551 -1602 211 0
-869 -1611 1024 0
-1965 1542 -1354 0
1831 1061 -204 0
1754 -359 1962 0
-449 -1214 -602 0
1474 581 -1048 0
-934 -375 425 0
-271 1637 -803 0
-76 1673 955 0
1583 -1163 -1251 0
-507 -1666 435 0
1912 -759 370 0
18 600 140 0
914 1065 896 0
-1821 -331 1276 0
832 1148 -975 0
828 457 -1475 0
1282 1333 1331 0
841 -986 -1195 0
-1293 -323 -1091 0
439 -1374 836 0
-71 -1623 -96 0
-338 -1988 -1783 0
1147 1642 -503 0
1648 583 506 0
351 -777 -1641 0
-1514 1923 -1821 0
-975 1316 1035 0
243 35 194 0
-1937 796 222 0
360 -1378 -14 0
509 -196 136 0
798 1790 -672 0
-416 -1451 1592 0
1894 1611 -670 0
-1930 -738 -1664 0
-786 1352 1721 0
-718 1363 -814 0
76 566 958 0
1063 1472 1594 0
1667 1526 54 0
1712 -1483 314 0
1766 -206 1325 0
1258 -1580 1607 0
-185 -501 -1697 0
-777 277 -1273 0
-1526 -586 -812 0
1748 -794 -1188 0
1478 1744 1661 0
-601 -707 408 0
1783 1759 -1377 0
-441 627 724 0
1981 757 -245 0
1372 -1122 -595 0
1604 -243 -860 0
-920 -348 806 0
-1618 -129 -481 0
1181 -1734 -622 0
1604 51 1376 0
-292 -1131 145 0
-372 -1701 1981 0
-1033 927 -343 0
174 316 -379 0
-1789 1410 -1676 0
-1302 481 -1739 0
-1355 1823 -1910 0
-1946 1824 761 0
-1377 -1949 1912 0
-83 -440 1598 0
1672 -46 -526 0
-1999 875 -1850 0
1843 1338 796 0
996 412 784 0
1376 43 -1481 0
-1334 1432 1254 0
-238 578 -1759 0
412 1694 1703 0
-1611 1878 1229 0
-1056 355 -1578 0
1068 -1389 1384 0
-431 -947 705 0
1554 -341 -1813 0
372 1078 1534 0
-913 -1202 964 0
-352 -1869 -120 0
993 -1102 392 0
314 -1612 1249 0
-1744 -103 -621 0
4 263 -1999 0
-63 -742 24 0
1050 -1765 12 0
-577 949 913 0
606 -63 1214 0
-1949 -999 -234 0
-550 -405 -643 0
259 1820 516 0
-76 -609 1673 0
-1248 -1727 -172 0
-1029 1253 271 0
-1461 1417 636 0
1485 -844 521 0
1402 -581 -133 0
-1215 -1519 751 0
-724 232 469 0
714 -895 -1345 0
-1601 1056 1717 0
-1903 1438 -271 0
-1229 322 787 0
1357 -1673 -1318 0
556 1657 937 0
-1814 -934 460 0
-1707 144 704 0
593 1319 770 0
1069 -347 1273 0
1404 -465 -1967 0
-144 1909 -1000 0
-696 300 -1733 0
-873 -1289 732 0
1021 -1378 -810 0
-1276 -1885 -1318 0
-1926 -77 -1911 0
789 -1480 -159 0
973 966 -1451 0
1084 -1141 -271 0
-1130 -1849 725 0
406 -710 697 0
521 -1169 86 0
-1298 755 -140 0
795 1006 -858 0
731 -512 1606 0
1549 1394 -18 0
1711 -1713 -1991 0
-367 -1524 -590 0
-1008 -778 1412 0
-1412 1811 1732 0
-390 828 -1168 0
-1136 -1930 1413 0
-665 -650 1350 0
149 1050 -648 0
-1331 -406 -663 0
1138 539 -665 0
-725 -443 -1436 0
436 -592 1025 0
-478 844 781 0
-798 -217 1544 0
-1623 1386 -463 0
1797 -384 417 0
-800 1162 -1915 0
582 -853 1233 0
-778 -1345 -1335 0
-303 -371 1194 0
1206 721 1738 0
-1733 -629 252 0
678 -1026 724 0
-1312 -1945 78 0
-739 -464 1982 0
772 1279 -1728 0
1412 -1891 -1727 0
306 -769 1803 0
280 -639 -1352 0
782 -734 1397 0
-116 -31 277 0
-711 754 -1668 0
-1916 -1938 -1067 0
-1329 736 190 0
-1087 -731 769 0
-1581 -735 -1102 0
-169 -1287 -1772 0
-598 780 -495 0
-1362 -17 386 0
-1902 -1682 -1527 0
1676 -2000 -584 0
441 1672 -1036 0
1997 1158 1881 0
141 -18 40 0
-1872 1037 -1816 0
-1978 1430 1095 0
818 -623 -1316 0
1489 1282 -271 0
-534 1840 925 0
-471 -1819 1121 0
-44 -1929 -1281 0
-422 -1331 545 0
1768 -1308 717 0
388 1885 1682 0
1853 689 -1014 0
-1117 -728 1376 0
1047 -979 -747 0
-1708 -581 -1236 0
889 1826 1944 0
-267 1078 -1845 0
-961 1649 -1111 0
-812 -1429 936 0
-1921 -1894 1960 0
-903 1589 1242 0
1163 -1893 1991 0
1136 1539 1974 0
93 -1596 -1732 0
1468 1976 -1065 0
310 -784 -1793 0
156 -5 -703 0
-1353 -781 750 0
-1655 632 1090 0
-1139 1908 -1206 0
1659 -1260 1759 0
-1840 205 -1198 0
-1672 973 285 0
1456 -881 -460 0
-1884 423 -1386 0
-1679 1407 -667 0
-1966 1369 -1973 0
-1344 280 1538 0
680 -1865 994 0
1285 -1141 -1884 0
1755 -1590 -761 0
889 -1276 1563 0
-396 -1675 -935 0
739 -1027 1619 0
1063 777 1202 0
1874 1230 629 0
-1879 1412 -967 0
1700 -1972 -1629 0
-1822 -1189 -1728 0
1341 -855 108 0
1675 -1806 -1456 0
-397 -1246 111 0
-147 -115 -1204 0
-749 -681 -1957 0
-1510 -795 -13 0
1653 -805 606 0
474 -1170 -1573 0
1272 -840 -1496 0
-601 1155 1562 0
-1210 -55 1726 0
1172 -615 339 0
1771 -1571 -569 0
1134 655 1051 0
-648 -722 498 0
-1038 643 -163 0
-129 1810 -473 0
411 1729 284 0
-116 175 1217 0
-1192 491 477 0
-1352 56 -937 0
1779 1997 1204 0
-1264 1176 795 0
-880 -1787 1818 0
1297 985 -1456 0
1990 15 423 0
-698 -184 -242 0
1625 -1061 204 0
579 -96 1700 0
782 1927 989 0
-1675 244 -1133 0
-825 1015 979 0
1309 1536 512 0
-1801 -186 493 0
1199 -1086 1543 0
183 551 -1994 0
-1783 -695 1250 0
-1449 -908 1368 0
640 974 1091 0
-101 1948 -1721 0
-1574 569 1695 0
-505 -592 -1396 0
-749 1766 -103 0
-1217 1277 1747 0
1462 1379 -997 0
1423 -960 -1277 0
1983 1959 1676 0
199 1769 -1663 0
-800 -1750 880 0
944 1439 1385 0
-280 -330 -715 0
-178 -166 1988 0
-908 414 -462 0
-776 -1598 -543 0
357 1529 175 0
63 -1911 -846 0
-1149 1038 -279 0
-1718 -384 -938 0
-977 -1561 -1860 0
1823 -71 -1391 0
1358 944 -1411 0
-1781 -340 -531 0
-1760 -1915 -1031 0
1232 286 -597 0
1321 -1098 -376 0
1111 -648 591 0
-1246 729 -173 0
-1311 1112 -1700 0
-1502 1355 1266 0
613 1224 -47 0
-1457 -725 -461 0
1268 1431 -49 0
761 1337 1333 0
1726 -1151 -635 0
1155 -795 1962 0
1675 -619 -654 0
-1280 1770 -1471 0
319 1864 -921 0
902 1557 -1554 0
1523 1920 -677 0
854 -1266 -1072 0
-1806 -539 -143 0
-1271 877 340 0
-1501 706 -1883 0
773 -1292 196 0
-46 884 -833 0
-246 -251 -644 0
-991 97 -738 0
-480 1644 -1921 0
1042 1190 777 0
-1611 -1666 -800 0
1106 1658 1904 0
1899 -1304 1616 0
488 -103 1096 0
-1978 1649 1291 0
391 -1474 1298 0
-600 -813 361 0
1748 1255 -470 0
-454 412 -670 0
311 680 1717 0
-1492 -1856 1770 0
759 -1171 591 0
171 -512 491 0
-1357 -449 -1172 0
1498 1175 1276 0
1456 1901 1631 0
518 -1558 -1292 0
-658 -840 -1253 0
-572 1482 1458 0
1985 810 -916 0
-1801 1881 1950 0
-490 1853 591 0
425 507 1464 0
-499 -1041 118 0
1277 -1998 447 0
1701 379 -521 0
-920 -1570 -1104 0
1936 -59 -958 0
616 -1825 -1311 0
-1415 846 -1382 0
94 -848 -1067 0
-1348 890 128 0
-792 824 -969 0
-1191 418 361 0
-1437 860 -114 0
-563 -212 476 0
341 1791 -183 0
-897 793 -726 0
-330 -1485 -1597 0
1441 908 -500 0
-1474 456 -1327 0
1945 648 426 0
-1398 -917 -1758 0
-1748 -1181 317 0
896 713 -1687 0
-450 1475 1102 0
-1304 -1333 -915 0
1263 -750 -1234 0
-1899 -517 -770 0
1525 765 1805 0
1860 1423 -1261 0
-1558 105 788 0
1223 -1236 258 0
745 -1889 -601 0
1679 -354 -1701 0
-155 827 584 0
-1122 -1449 424 0
1447 -1011 -1133 0
8 -336 124 0
-1499 108 1342 0
1210 1380 -429 0
1185 965 -1204 0
-317 93 1225 0
-706 -1027 1456 0
-1116 640 -290 0
-688 818 983 0
-1115 -1012 1348 0
-1502 -226 1730 0
1510 -1634 72 0
121 896 -1419 0
-908 -137 -1425 0
-793 -737 146 0
446 -1460 -16 0
1205 -1742 -278 0
574 1949 918 0
1253 -144 -1026 0
-1223 -687 618 0
-206 1653 34 0
1371 -1321 936 0
147 -1278 -299 0
-1209 -1205 1516 0
1920 -1910 -575 0
1470 -1122 -929 0
336 1018 2000 0
-626 -97 -387 0
-1193 619 1159 0
1344 -1099 -1111 0
-14 -550 -497 0
1290 1557 1310 0
-1310 211 -889 0
1060 715 -388 0
-1876 1594 1701 0
1458 1761 1223 0
267 -805 613 0
-1308 572 882 0
-305 1673 1426 0
-1296 -552 1458 0
861 -663 98 0
-827 310 -233 0
961 1723 -1545 0
-1787 -1568 -1722 0
-277 -34 458 0
-1014 1940 881 0
-1238 -898 1948 0
-24 1587 533 0
-1511 36 1861 0
1737 770 -936 0
-1167 46 -700 0
308 -67 -992 0
-786 680 1192 0
1698 1920 -213 0
1685 -155 1668 0
-1271 -1583 1455 0
-53 -909 1509 0
-401 -1617 1127 0
-939 -571 -1718 0
-683 137 698 0
87 -381 -1445 0
-205 749 -1562 0
-1949 -476 1218 0
1934 1342 1639 0
768 -1635 -1615 0
-1095 397 637 0
-1633 -997 -629 0
180 700 -1966 0
1322 -231 -803 0
1211 -1578 89 0
-803 -1110 742 0
979 1202 175 0
-764 -356 789 0
1852 1244 1742 0
-653 -137 1126 0
103 1599 -1988 0
270 202 -1234 0
1708 -1670 -126 0
953 -1117 195 0
-1065 1934 575 0
-1834 -1680 -328 0
-1399 1777 1774 0
1584 -1177 -695 0
-1959 -158 -656 0
1794 -604 1920 0
17 708 73 0
1838 898 -524 0
1105 -689 375 0
243 -772 -1764 0
-1533 -29 1182 0
-1961 -1434 -707 0
-294 1908 -1515 0
-1506 1847 598 0
-312 -836 -1266 0
161 1049 -375 0
1470 -854 311 0
-1826 -254 -1447 0
-395 -1552 -1612 0
-1583 1260 -210 0
1451 -1806 77 0
1252 -1273 -193 0
-1642 -551 -1412 0
1734 657 -70 0
-814 -407 1096 0
1661 -15 660 0
-1705 631 283 0
-1830 -300 -840 0
1332 -1209 -1201 0
-114 1736 -21 0
635 775 -1015 0
-835 -944 -540 0
-574 -1219 -916 0
-365 -1109 1502 0
202 -1461 1060 0
-1401 958 -482 0
-416 -429 1469 0
-324 -563 1547 0
-840 -1877 -614 0
1727 765 1873 0
1775 946 1062 0
1158 -275 -662 0
234 1681 -641 0
206 -1253 549 0
239 120 -1625 0
176 -1600 -1495 0
861 964 -1557 0
-872 -1834 -1706 0
754 -1259 1099 0
-1153 -1077 -1664 0
-774 -867 -1258 0
567 1688 -471 0
582 1979 -333 0
-608 -1192 -293 0
-1964 1894 -170 0
-1645 -689 -585 0
-900 -1211 1043 0
432 57 -324 0
1029 -411 1824 0
1864 -1236 512 0
1426 556 -1392 0
-1709 1630 -65 0
613 1779 -1377 0
-265 -1893 1590 0
777 -1138 222 0
1607 -1870 360 0
-673 1665 1041 0
1929 1656 -239 0
-772 -977 -1378 0
925 574 -857 0
1178 1743 1195 0
-485 -848 -293 0
1245 552 -329 0
1523 -757 1598 0
788 -361 1958 0
980 587 1136 0
151 -209 1097 0
-1937 -1811 832 0
-1185 -614 5 0
-295 1259 -490 0
345 1754 1600 0
-171 -1987 -523 0
1256 -1882 415 0
819 -588 1492 0
-1125 -1748 -474 0
-1663 1322 270 0
45 1065 596 0
335 1150 1927 0
1226 1515 1420 0
101 322 1947 0
1528 1862 753 0
1510 488 -1526 0
1838 1587 514 0
-967 -483 -1306 0
658 79 869 0
751 501 -1576 0
-1531 1829 -1996 0
28 281 -1275 0
1435 -1931 1140 0
1212 1240 -335 0
-778 343 378 0
205 -1285 -791 0
-243 -419 -1250 0
-1786 -1707 -1307 0
1675 359 -1551 0
-2 -1268 -1119 0
741 1915 -1131 0
-920 1243 336 0
-1020 -1688 314 0
-1395 -359 -835 0
1676 -669 -1147 0
-1681 450 407 0
-178 -1918 245 0
432 -779 -427 0
164 719 1312 0
-1045 -638 -79 0
-1736 612 -682 0
1552 1217 1407 0
-1126 -1836 -509 0
1567 -870 1789 0
-40 1644 170 0
-1938 1487 -1073 0
147 1467 -1808 0
1568 -1119 -1196 0
160 1416 -1814 0
-776 1922 -1353 0
-406 1444 -1037 0
-916 -1658 -936 0
1905 -159 308 0
382 1762 -1698 0
-1103 1099 -83 0
-1107 1477 -775 0
-75 1468 -536 0
-38 -1737 1760 0
-1172 250 -492 0
996 -1304 -21 0
-270 -1139 830 0
166 605 -909 0
-352 -228 -1200 0
-1409 -1425 1311 0
-1221 -1859 -90 0
-1956 1102 -100 0
572 -1818 1912 0
-1064 -1121 1557 0
-1019 526 1793 0
450 -633 611 0
-829 47 -1211 0
1580 -1277 -721 0
1144 33 1716 0
910 1207 -689 0
678 -1423 303 0
1532 -941 1024 0
1128 -1239 -1160 0
-999 -944 1464 0
1040 -598 -389 0
1736 1675 -1321 0
558 952 990 0
-703 -387 -59 0
-107 1107 788 0
1821 -1526 651 0
-793 805 1036 0
1572 -362 783 0
1618 -1067 -734 0
-1482 -165 42 0
1149 545 -1250 0
1638 677 -1647 0
-892 1013 -955 0
-1036 1951 -29 0
-1813 -237 838 0
909 -265 -1908 0
1452 1075 72 0
-1101 -760 1428 0
-13 -410 1694 0
-1360 769 1373 0
-1654 -1467 424 0
-606 -1415 1340 0
-1381 989 1110 0
-1865 1572 1349 0
-86 -742 -740 0
1902 -1403 -1313 0
1062 313 549 0
100 -331 -848 0
1336 -936 783 0
-630 -610 -216 0
1403 -1262 934 0
-181 -781 -1169 0
50 775 -1860 0
-757 1964 1301 0
-887 -395 995 0
-366 -148 -226 0
-24 1836 816 0
-693 778 1543 0
25 1433 -1246 0
784 1429 -1315 0
119 -901 -820 0
551 -1566 655 0
1121 684 1749 0
846 1744 -1040 0
404 1096 -165 0
-125 1605 -1535 0
-1458 -428 1244 0
248 106 1471 0
1723 -1290 -1376 0
1584 -1532 -948 0
-442 -350 1979 0
-1869 -1042 -621 0
-1135 -719 -348 0
424 1066 -1285 0
-1525 -1665 552 0
-128 -1126 132 0
-1633 -1429 1117 0
1906 -1317 370 0
-1642 1526 -17 0
-618 -493 -550 0
-1912 78 1146 0
-1612 828 945 0
1854 1712 -524 0
-913 -268 1943 0
-1792 -746 1170 0
614 993 72 0
1812 -804 -384 0
-972 118 -173 0
-391 -1286 1366 0
1784 -1245 -1960 0
-495 -705 1259 0
-739 -1262 1928 0
-774 -1048 -1969 0
570 694 -960 0
933 1282 -1340 0
-165 1308 -1745 0
-1166 1970 -1562 0
1133 -1525 1908 0
1023 -1307 463 0
116 -1658 -607 0
116 915 -124 0
-1311 613 99 0
978 1877 -353 0
935 -1433 -1950 0
-3 1826 -145 0
-810 -1114 -1531 0
-1192 -1193 432 0
1450 -1072 -486 0
1499 -1714 -1283 0
-301 -1187 -177 0
-249 -1426 -1029 0
-1342 -1235 -1803 0
194 1463 60 0
-902 -916 -1854 0
1617 153 -907 0
-904 1149 870 0
415 -1277 751 0
954 355 -1137 0
-1294 33 929 0
1752 -1497 415 0
-111 -512 1193 0
-581 -237 -1618 0
-1094 1569 -1359 0
886 140 -1251 0
-465 -446 925 0
-227 418 204 0
-1466 -952 379 0
-161 1752 140 0
1664 -817 1153 0
863 -74 -1872 0
1914 -606 1639 0
1109 206 -806 0
-760 781 -1737 0
1391 -306 238 0
-1255 -223 1965 0
1315 -476 -1023 0
-812 -1888 1509 0
249 183 1234 0
-1370 457 1718 0
-47 -694 105 0
-447 -995 1206 0
94 -1249 -1211 0
408 -649 -1251 0
-105 -1088 1825 0
-1657 1377 34 0
-1215 513 -1087 0
-979 123 -147 0
654 -86 -1120 0
595 -980 773 0
1756 1693 1717 0
-1105 -1702 -1789 0
861 -583 -1956 0
-1537 1907 207 0
1057 -1021 -1095 0
-1594 1808 -1076 0
-1001 -1685 419 0
-31 641 3 0
-238 4 649 0
246 1410 845 0
-343 -1736 352 0
-1002 -726 -744 0
859 -1311 -629 0
971 -1194 757 0
-930 -348 -1877 0
-1821 1745 705 0
702 -1345 -412 0
77 -1800 59 0
-222 1388 -954 0
784 1944 1295 0
-1320 -447 948 0
-1639 -1481 778 0
601 -1785 -1497 0
1169 1715 363 0
1864 1276 1789 0
-761 -634 -338 0
-996 605 829 0
1295 1031 112 0
-1621 836 -1853 0
-1038 -928 1887 0
1570 -1720 1269 0
259 -1382 -1938 0
1146 1094 -1426 0
-1446 1690 -79 0
1073 466 -1276 0
1765 1635 200 0
1522 222 394 0
-63 301 -549 0
167 -1571 -941 0
379 -816 1170 0
-1592 1562 1762 0
1214 -719 1544 0
698 486 -1715 0
1391 -289 510 0
1609 -1370 -778 0
362 -159 -1476 0
-1951 -971 -376 0
-97 -1390 -1003 0
1934 1434 -1309 0
-67 -1915 -1902 0
-1343 1544 1715 0
130 1694 -675 0
-856 1803 -1383 0
-1978 -386 1604 0
-1244 409 879 0
1391 916 781 0
-1540 -626 -101 0
-102 -1354 -1146 0
1777 820 -534 0
1476 -631 1390 0
-626 -481 1332 0
1552 1014 547 0
-1690 174 -1345 0
334 1665 -1747 0
494 79 -950 0
-1781 1509 659 0
259 1650 -1779 0
-912 -736 96 0
650 1525 531 0
-1594 995 -1033 0
-1773 1295 -1881 0
1637 319 23 0
1605 811 1234 0
-685 987 -935 0
1849 740 1085 0
-630 1494 1276 0
-1377 -1022 1427 0
1002 -1818 -494 0
349 -1468 1132 0
-1575 -1315 1898 0
1298 1944 1841 0
1769 -1547 -850 0
-1767 -1872 -1070 0
291 -1404 902 0
-1152 -1346 547 0
798 362 -1418 0
-1646 714 827 0
-596 -606 1280 0
-243 -88 -1542 0
-975 -1838 1563 0
-626 -410 449 0
-572 1074 -239 0
1967 580 1592 0
-245 -1170 384 0
1356 -1869 -71 0
-1051 -558 -957 0
848 435 -1257 0
-1744 1111 1578 0
-1680 -1483 -601 0
-1304 1091 -993 0
-1887 935 -765 0
-793 1134 -1108 0
716 911 1891 0
-1711 1073 -1176 0
1241 -534 -175 0
-323 -1574 -1816 0
64 136 1701 0
-1885 358 1757 0
-708 1593 -655 0
-1201 -1356 -1901 0
1860 1638 -558 0
131 -426 1227 0
220 1716 -133 0
-1237 1973 -1895 0
68 -1207 -977 0
-1112 1763 -1823 0
1010 1033 545 0
1649 -1556 358 0
1401 1896 1070 0
1870 -392 -325 0
616 657 -1390 0
897 1609 -1103 0
1701 617 -1731 0
1759 -1708 92 0
-347 197 601 0
1941 1221 -104 0
-1027 436 20 0
1559 216 -220 0
179 498 -1799 0
-1284 -1206 592 0
1476 -328 401 0
-622 1094 -1457 0
1468 1123 -254 0
750 -41 1909 0
27 -1680 -1385 0
-1087 1811 1123 0
-456 1126 -1785 0
-46 -889 -1955 0
-564 -872 -927 0
-1976 -1981 1069 0
481 994 427 0
1293 -393 -1704 0
-1901 25 -798 0
-1085 -311 1215 0
836 -1553 479 0
-578 -1478 -379 0
1088 188 1458 0
1744 1995 -1424 0
-897 -77 1377 0
-1491 -964 -636 0
-658 855 -1154 0
-242 -813 1388 0
1475 -1734 -1369 0
1869 1087 -590 0
-1436 1006 924 0
664 1886 832 0
415 1401 130 0
100 -1256 995 0
188 -136 -1493 0
-693 1133 -659 0
462 1309 -1774 0
612 1089 134 0
-900 -1484 1504 0
1497 1495 -1054 0
-260 -1583 1978 0
309 -526 -310 0
318 130 645 0
37 630 -1552 0
-981 -1782 -1891 0
1751 -1218 -226 0
-1055 1474 1579 0
497 -831 -959 0
-1434 -962 -1689 0
-519 -1068 854 0
-1517 693 180 0
-1183 524 -1553 0
-450 -147 388 0
-1993 672 -1281 0
1072 1163 -961 0
-1939 -728 746 0
698 -1297 1612 0
1202 -373 270 0
-637 928 -319 0
438 -787 -1702 0
-1743 315 218 0
-1448 739 -1526 0
1501 -30 -503 0
1866 -686 -132 0
-146 659 893 0
1596 -1706 -424 0
731 152 -1529 0
-687 1054 -208 0
-1694 -1934 1814 0
-704 1679 -646 0
552 -939 -1019 0
-420 1130 387 0
-1001 -1462 1103 0
-1541 -1969 1987 0
386 -900 -234 0
88 1486 1573 0
-1538 -1900 -378 0
-1000 -580 -34 0
-1438 1492 -774 0
1260 -646 -582 0
1925 915 -1870 0
-1083 259 -834 0
86 -1594 -517 0
904 -1450 382 0
-791 1293 219 0
196 -566 -1768 0
-718 1963 991 0
-609 -676 -1646 0
1616 -706 703 0
-1960 -1035 1097 0
320 -557 616 0
841 -1570 465 0
-110 1596 1766 0
-198 -1927 730 0
-1250 -64 -1548 0
399 1436 -536 0
-1524 -479 999 0
-887 1265 1788 0
681 -1306 1182 0
1905 790 -507 0
1095 -1744 1594 0
1097 -1633 -747 0
1026 323 -1488 0
1038 -1798 1638 0
-1883 1079 743 0
1517 -1420 -409 0
1903 659 -1352 0
-405 -1657 923 0
247 2000 222 0
-181 447 -1037 0
1567 -239 1871 0
-907 -31 -1176 0
1357 -109 811 0
-167 935 -567 0
1168 -671 -1949 0
-187 -402 -1859 0
-243 1417 1521 0
-145 630 -304 0
799 -331 -370 0
348 -1512 1153 0
1355 -616 1295 0
221 1908 -1172 0
17 1008 1980 0
-921 -603 -1999 0
-1887 -1810 148 0
-277 854 -1471 0
1156 -1999 -160 0
-1745 602 1425 0
-1910 -1721 -972 0
-436 1546 -1320 0
633 -314 1927 0
-1872 -1507 -1446 0
-522 -1310 -214 0
-1036 -1815 1377 0
-972 1702 -1677 0
-1174 853 827 0
-1333 645 1309 0
1325 327 -130 0
-1923 1187 1677 0
-1652 92 366 0
50 670 -377 0
-101 -1851 -194 0
1927 -1182 -428 0
-63 -1322 1746 0
-1594 955 -1656 0
-1044 1748 687 0
-1939 -1672 1963 0
-257 -9 496 0
2 878 -1459 0
1551 -100 419 0
1939 608 1251 0
1624 -121 754 0
-621 -1919 -333 0
1897 487 1642 0
470 -270 -492 0
178 -1886 -894 0
-380 4 1774 0
1446 -33 1619 0
1506 -1367 -1958 0
455 1908 1026 0
-1415 904 1459 0
1365 -1072 -1608 0
-404 -1824 -1248 0
-58 -165 517 0
-1987 167 1560 0
-1847 -1119 -1875 0
-773 1197 1830 0
-1231 316 1364 0
728 223 -944 0
-735 206 944 0
-351 -42 -1445 0
-332 1652 -1634 0
-1997 -1232 1081 0
197 114 -1331 0
511 1121 1079 0
103 1988 -58 0
-99 381 1720 0
664 1913 1104 0
294 -14 -488 0
787 -1967 1512 0
1667 996 -1082 0
1838 1180 -166 0
-729 1745 -1551 0
-1297 -747 1650 0
73 -1871 -1289 0
901 312 -193 0
486 -508 -1661 0
1705 1104 746 0
676 254 -886 0
-1599 1429 1388 0
-1558 391 384 0
-1576 71 1050 0
906 -1869 -1583 0
809 14 -1555 0
852 -1691 855 0
-1019 -32 -1514 0
-1729 -664 267 0
-777 844 998 0
1176 1210 -281 0
-962 -1658 -891 0
1423 -59 430 0
-952 -1114 1054 0
803 -960 669 0
1670 1369 1127 0
-1767 -1088 -1753 0
1955 1877 -1462 0
1306 543 -11 0
-1275 592 -969 0
-489 1468 159 0
-172 1359 -1126 0
-94 165 1246 0
42 -1706 -1090 0
-322 739 1501 0
1799 1774 411 0
494 1554 -1901 0
1400 -1004 -542 0
781 -1689 -1669 0
-1286 -1877 -1006 0
-1744 1033 1226 0
-1752 1757 -1955 0
-265 -1527 505 0
-1841 1453 -640 0
-1902 -992 1731 0
-1568 -361 278 0
-1767 -792 -691 0
-980 -631 1687 0
656 -1747 -1014 0
1059 1559 966 0
498 304 -1519 0
1379 1329 -193 0
282 -989 1625 0
897 1637 -1165 0
1022 -234 -1930 0
-1257 -221 278 0
494 -1325 -395 0
-685 -227 983 0
-1033 950 -312 0
-1991 -1500 1839 0
-292 1277 -1903 0
1730 -672 -1548 0
1253 -1864 1852 0
-260 1177 531 0
960 631 -308 0
230 952 1596 0
82 675 1090 0
-256 -470 -1075 0
1580 1160 864 0
-471 698 -615 0
1925 -529 -546 0
435 644 1355 0
-1648 -1435 -1024 0
-817 1920 -1478 0
-1025 -636 1045 0
-706 941 112 0
-994 748 977 0
265 1832 -917 0
-450 -459 1308 0
-1291 1834 -440 0
-445 514 -740 0
-1127 343 419 0
-859 -467 1830 0
-1213 221 1409 0
1041 -1389 -1749 0
244 529 710 0
477 1635 -1990 0
955 11 102 0
-747 1117 265 0
-349 702 1045 0
-908 -1294 -1564 0
-595 1061 -571 0
1804 74 1328 0
441 -1716 -1389 0
1906 -1967 -1210 0
17 888 1173 0
336 -142 -329 0
1092 -78 1574 0
1938 -559 1565 0
551 -1024 -1362 0
433 930 -1316 0
-1021 140 376 0
1042 -25 199 0
-1441 -454 658 0
-111 -993 1922 0
324 1619 -1922 0
-1980 427 1939 0
903 -1222 1433 0
-164 247 1668 0
-1592 -797 1998 0
-329 -496 -783 0
-219 -1263 -931 0
729 1386 -711 0
-1021 -1494 1668 0
-1107 464 950 0
1317 1685 1744 0
-1092 -1297 1667 0
1471 1502 -1604 0
867 -981 -1549 0
-106 -482 -826 0
1727 -1863 -725 0
1867 1345 1934 0
1341 -1568 -317 0
-1565 -1177 -1237 0
-1737 -1304 1055 0
-1991 -346 1786 0
-279 1922 1545 0
1842 746 1837 0
1068 236 693 0
1453 -1966 -1934 0
762 -1410 1114 0
53 1420 35 0
1515 -882 655 0
585 -375 -259 0
-1610 1048 -1973 0
-853 -173 -57 0
1608 -961 -660 0
-130 713 -1067 0
-672 398 -1730 0
1025 1727 -440 0
-1794 1421 1552 0
-341 -1632 275 0
-1839 1120 -1041 0
1857 1535 640 0
-40 -1732 1206 0
981 -1029 784 0
1190 785 -1455 0
-375 -349 -451 0
-1765 1860 -1648 0
1087 626 831 0
-940 846 1946 0
1362 1142 -910 0
-758 -1249 -662 0
-250 -1097 1669 0
900 811 -558 0
-5 973 186 0
-604 1357 -593 0
-959 -1291 1773 0
158 1086 473 0
1129 1750 -1916 0
1156 1530 -1475 0
-1901 -865 1748 0
-1721 774 -827 0
1686 -1115 66 0
-1657 -339 -1283 0
-852 -1746 -285 0
-1673 -1879 807 0
-1609 493 -1839 0
-1180 577 -1670 0
1039 -765 803 0
-286 1759 1720 0
716 -262 1743 0
-1069 1173 1761 0
1383 946 453 0
598 827 -334 0
-1314 539 1363 0
693 -909 1318 0
1431 -134 -383 0
-1013 751 1552 0
-781 -1542 -337 0
-1793 -1155 -1821 0
-1893 -1453 -741 0
-1648 -69 -873 0
1288 1575 -712 0
-630 -1413 -101 0
-98 -1491 -761 0
-758 878 -690 0
160 -117 1453 0
1854 754 -1150 0
-966 909 417 0
1237 -1177 -1262 0
1118 1639 -1782 0
-168 1996 -1366 0
460 1045 184 0
-326 595 843 0
-1228 -338 -178 0
1987 -608 1082 0
-1419 -500 -210 0
-457 1514 -1024 0
-1440 1434 317 0
-124 -38 1793 0
1450 -1233 85 0
-1819 -1597 429 0
-172 -1385 -1917 0
1536 -575 1221 0
-938 514 -229 0
-1842 127 1413 0
1582 -209 -233 0
-1912 362 -1443 0
-1152 -472 760 0
-96 95 -1420 0
1356 -1855 349 0
-1818 -1685 -143 0
-1394 -540 185 0
-646 355 1628 0
800 990 -745 0
-228 1058 488 0
1294 -835 343 0
1700 1501 1506 0
973 965 1625 0
-1051 559 -594 0
-10 -77 392 0
-160 1920 -1109 0
-1267 -1568 740 0
-591 -1764 -1532 0
-766 -1251 387 0
-839 -1567 284 0
1461 1983 -680 0
1344 557 -100 0
1471 109 1563 0
-944 -1229 -1672 0
-336 1250 249 0
1647 323 -1024 0
-1957 301 1242 0
-590 1260 701 0
-157 1151 1539 0
1425 901 -1225 0
605 447 275 0
621 1128 1268 0
172 1732 -1717 0
-1896 -1000 -1388 0
-854 -1148 -1883 0
1387 581 -1539 0
945 805 -645 0
1639 -1441 124 0
343 997 68 0
-1381 1835 1662 0
898 -206 967 0
1148 17 1318 0
1506 1431 -244 0
-1069 -40 -1982 0
689 -1582 397 0
-1722 1488 -1086 0
41 -50 239 0
-334 370 -777 0
-304 -660 -884 0
197 -667 -407 0
-1360 383 -591 0
-491 -288 -675 0
689 1675 1627 0
-1448 -531 -573 0
-1170 -738 -1948 0
536 -843 570 0
-1276 -936 -1049 0
-939 597 -1637 0
-458 -365 -691 0
-723 1475 -1349 0
1980 1626 -893 0
-1315 1319 1810 0
-18 -713 644 0
1877 1104 42 0
1314 1389 1936 0
1352 -1420 -20 0
-273 -787 283 0
-1810 -1209 -1696 0
1018 950 1151 0
5 -1146 -395 0
777 1854 -932 0
1305 447 1764 0
-1254 -966 -1355 0
-1784 -616 -109 0
-1296 823 -817 0
-28 -528 -1966 0
-959 1871 -1424 0
862 -931 -730 0
1635 -692 -433 0
-255 1916 372 0
-1447 -9 -1990 0
1234 837 1764 0
1174 -1652 291 0
682 465 -1562 0
-669 -1027 1324 0
-1807 990 387 0
1416 599 485 0
-1819 -1266 -1932 0
1553 1848 -2 0
1609 -601 -402 0
-1768 1905 -415 0
1392 1622 882 0
-1491 966 -891 0
1513 1031 -557 0
1143 312 -1632 0
-1370 509 1112 0
219 450 12 0
-1855 1810 -454 0
1672 -139 -935 0
1358 -1077 -1121 0
1817 -66 -1944 0
-1727 -1734 -1896 0
422 -1847 -1068 0
312 -1867 -150 0
855 -999 616 0
1195 -575 -1058 0
1872 -215 1677 0
1711 -1216 905 0
-1621 -397 -897 0
-1741 -304 256 0
-482 637 -1661 0
-1306 -991 -652 0
1035 1482 1452 0
1158 661 1301 0
213 1193 -1177 0
-1128 638 676 0
1829 423 229 0
-1740 1440 -1398 0
655 345 -639 0
990 471 1888 0
85 1637 -1932 0
-428 -223 441 0
-1125 59 1386 0
-1397 -300 471 0
-1734 -1660 -581 0
1950 1557 411 0
-1255 508 -1567 0
-1020 1916 1282 0
1763 149 -45 0
-24 -1264 -553 0
-878 -509 1609 0
-1067 1311 -1917 0
20 -1524 1475 0
361 -351 -561 0
1637 -403 -253 0
155 -1471 1040 0
1801 -1498 1343 0
-562 -1056 1607 0
947 -1675 678 0
-1812 520 417 0
1441 -1992 -427 0
805 -1495 577 0
831 213 1443 0
1567 -987 1295 0
-391 1000 -1398 0
1517 -1856 119 0
1935 741 1471 0
1796 1466 -377 0
1576 -1671 1957 0
-1185 1330 1103 0
619 -59 467 0
99 -630 897 0
171 1811 271 0
852 -1137 -1308 0
-624 790 -4 0
1688 -1651 -1463 0
1247 1479 1665 0
-528 -478 657 0
1801 -1384 469 0
1758 18 -874 0
1429 1855 -784 0
-1467 -1131 1953 0
32 293 520 0
-359 -1827 1387 0
-1406 47 1405 0
210 304 939 0
-205 -1023 -959 0
-85 1030 1674 0
-843 1159 1253 0
-732 -686 1143 0
1824 -1833 1873 0
-1646 -1321 -725 0
-85 -882 -241 0
824 -1094 1661 0
54 1329 -418 0
955 76 1248 0
-1354 169 861 0
-1132 -207 495 0
-1012 -557 -662 0
1132 1180 -283 0
-1320 591 -153 0
-1427 -462 142 0
1008 -1073 160 0
1953 470 -248 0
524 -1244 486 0
977 -1359 1354 0
-747 1124 -1372 0
787 -1049 -712 0
1546 1300 -1643 0
1099 -1516 -1224 0
-1840 633 1287 0
-906 258 662 0
-704 -611 1093 0
1297 -1631 -1157 0
1066 534 1208 0
397 -1278 548 0
1135 -578 -254 0
-969 1488 879 0
-241 -1431 -248 0
-1957 995 967 0
-601 -1229 -1828 0
-1142 -666 -301 0
-1171 1880 -563 0
-1279 116 1201 0
-1357 2 -640 0
-954 -1770 -1566 0
484 1172 -1753 0
-1197 1031 -537 0
223 -1538 -1021 0
1987 409 -165 0
954 -1732 -1837 0
1714 646 -703 0
-320 990 -1363 0
-1654 442 -824 0
134 -99 -1397 0
211 -1875 444 0
-1726 -279 868 0
-1672 -769 -139 0
-204 -193 1913 0
-37 1971 -105 0
669 -166 137 0
-1712 -913 -889 0
971 -1918 -1591 0
-1358 1104 35 0
-473 -205 -1917 0
-1694 -559 1307 0
-1844 -1361 841 0
1423 1025 337 0
1635 1676 -269 0
1493 -961 1113 0
-293 539 -1715 0
172 -45 1747 0
546 419 129 0
331 1129 1453 0
1783 -1401 334 0
1197 -1765 -369 0
-1206 1073 -23 0
-1976 10 844 0
-1111 491 1253 0
563 -1719 510 0
1304 -867 1469 0
658 -1742 1844 0
135 543 -123 0
-108 917 -830 0
-1744 1663 -1837 0
-1880 1317 757 0
-1961 -987 -218 0
1965 -1012 228 0
-564 -461 -336 0
-1790 1636 -769 0
-751 -833 706 0
257 1159 1245 0
-1003 -1288 437 0
1455 -1848 -305 0
240 24 -918 0
372 -492 1800 0
453 -496 -354 0
1658 -1375 108 0
288 1884 -1819 0
1809 -1526 -1205 0
1747 -509 876 0
-1381 15 -1141 0
-1461 -695 -448 0
236 -613 953 0
-592 -762 -292 0
1549 -1502 282 0
-1418 19 -1954 0
-778 103 431 0
1547 -1045 964 0
-297 1469 -1311 0
-821 1096 -1725 0
-663 1081 -653 0
-1612 836 -1535 0
1948 830 1447 0
-1837 955 1952 0
-1532 -827 -297 0
-1476 -747 -1953 0
1796 -1582 92 0
-1253 -1453 302 0
-131 -143 367 0
-993 -591 -41 0
646 -456 -762 0
-1881 -618 391 0
1207 626 -52 0
-1444 -1796 461 0
1841 1559 129 0
748 -1159 415 0
-1854 1390 1466 0
1128 359 -99 0
1686 1890 588 0
687 657 -310 0
-1611 -1246 -1941 0
120 -167 -996 0
1869 278 675 0
-715 -938 1831 0
-979 -615 -57 0
1348 -1839 1374 0
55 1890 -1152 0
-1838 887 -1541 0
-4 1083 423 0
-1072 1145 1817 0
1153 168 -501 0
-1729 -1054 -1720 0
682 -1261 -278 0
1574 1539 -527 0
-1989 -1249 -1704 0
-1154 1562 -247 0
64 -719 -1797 0
-1186 249 -1430 0
1882 1887 -1519 0
-1553 -1757 -193 0
1794 1877 -1102 0
-1300 1361 -305 0
-787 256 1490 0
1905 -781 1974 0
-563 -1771 -468 0
1884 -1489 1984 0
-1312 -1179 1424 0
1750 1507 868 0
1695 -1126 83 0
1394 -867 -1156 0
-1755 949 1834 0
-186 -1877 1513 0
-736 70 1165 0
-1846 1268 -231 0
1265 -1017 -1024 0
1840 -1867 358 0
-391 1696 -1178 0
-251 1889 -1817 0
454 -733 1885 0
-1623 -556 708 0
1912 -914 -1652 0
895 558 -1006 0
1917 374 1343 0
921 -875 -1480 0
1597 -679 -1577 0
-1443 1833 1688 0
1795 -1025 -19 0
-906 -307 1917 0
1234 1562 935 0
874 -1287 -1816 0
285 -817 114 0
-566 284 -1931 0
779 -741 -1737 0
568 -1562 587 0
1536 1098 1401 0
-1748 780 -1623 0
-1237 1122 256 0
418 -1996 1626 0
-299 -85 1792 0
-1605 160 852 0
-443 1800 1928 0
1001 1912 -1440 0
-1316 950 -355 0
677 1172 -1646 0
1071 -1448 264 0
-682 1998 -636 0
-59 1314 -1379 0
1689 1021 -402 0
-1817 -1472 314 0
-915 -142 122 0
505 -1082 609 0
-1571 -1477 1471 0
-1703 -1597 -1453 0
-1405 605 1527 0
-69 534 63 0
-1234 1556 1179 0
-1137 1134 421 0
1378 1581 1480 0
-366 155 -535 0
474 -1963 -485 0
842 351 732 0
624 252 1404 0
367 607 836 0
1362 1925 1933 0
1365 1390 248 0
821 -97 -699 0
-1620 835 994 0
-67 1578 -910 0
-1705 556 -1508 0
890 -1821 -1646 0
821 1267 -917 0
1294 -1435 -701 0
1639 -1651 -1923 0
1589 -907 -46 0
40 1620 -741 0
-646 -1696 -1851 0
822 -876 206 0
-228 -536 52 0
-1163 -47 -1983 0
1120 -1011 -697 0
1020 -419 466 0
-1636 -1915 993 0
208 1997 42 0
-378 -251 -1572 0
-104 88 1557 0
1360 -1723 -570 0
1115 1302 -262 0
591 -1152 1422 0
-70 253 -239 0
171 -513 771 0
1047 -1067 -1829 0
-1340 -566 1087 0
965 367 -876 0
1067 1125 -1359 0
-435 489 -1625 0
-1284 -187 -399 0
898 659 196 0
-1821 -1087 -713 0
856 -1068 1623 0
-779 311 -1842 0
-1377 -480 -291 0
67 -943 1858 0
-279 221 75 0
-546 -70 -1394 0
-1922 808 -93 0
-1157 -651 -436 0
1027 1403 -1020 0
577 813 -941 0
1552 684 -400 0
-526 462 811 0
1935 641 1179 0
-792 -992 519 0
-285 2 -876 0
-1557 1313 861 0
806 1070 -1377 0
296 707 1369 0
1167 1949 -1309 0
1593 -613 -1160 0
-1563 1941 1048 0
1578 372 -995 0
371 738 -252 0
1807 1936 1887 0
-1223 -746 178 0
1025 559 -515 0
-1430 -1653 642 0
1983 1688 -550 0
131 -419 987 0
-617 -32 570 0
136 1311 1045 0
601 731 614 0
786 1642 -298 0
-1662 -1412 -351 0
-1342 -513 -1053 0
-1375 1995 -1882 0
1266 -1571 -1184 0
359 1745 -1589 0
1977 -1655 -685 0
-529 1521 -1127 0
-1520 273 594 0
1753 395 -693 0
763 727 -1335 0
-291 -1414 -1360 0
-1896 -1929 31 0
-1063 1259 90 0
-1751 1630 1438 0
409 -1558 -112 0
-208 615 1051 0
-1632 -979 1198 0
-1972 -1420 102 0
1800 1110 -809 0
535 1269 -1965 0
-647 206 469 0
16 -369 1341 0
-690 1777 1908 0
1210 1579 -1725 0
-747 -969 1144 0
996 -1343 -1870 0
-1697 526 -415 0
985 351 -700 0
840 -1042 189 0
-1468 1705 -1287 0
1333 -1254 -1673 0
-139 11 410 0
268 -766 1660 0
1846 1370 235 0
270 938 -1589 0
-581 1575 -556 0
1709 -29 -444 0
983 -1922 -1040 0
-38 -1423 -990 0
-1930 1677 -470 0
-712 1505 1939 0
1047 301 -960 0
-705 1013 598 0
1189 -1850 1372 0
-1414 433 -1195 0
1158 764 1418 0
-1739 1565 -829 0
-1361 936 570 0
1482 573 -1772 0
896 -889 -653 0
1151 951 -908 0
-1288 1175 -1639 0
-236 1599 1726 0
-54 -798 -437 0
795 445 -1906 0
2000 351 1509 0
-168 -1348 838 0
-129 127 1163 0
-119 421 1951 0
1166 194 -864 0
1015 -865 -1477 0
-785 -793 -974 0
1677 -1859 1172 0
45 126 -1030 0
1623 757 1426 0
1200 -76 1413 0
658 1639 766 0
1151 -1057 -335 0
-1197 1888 -1493 0
-796 -953 -896 0
1008 -1647 -660 0
-101 -504 1223 0
1340 -774 287 0
1842 637 -1357 0
-1321 1827 900 0
-218 265 -1687 0
-1603 893 -1019 0
362 1787 -1951 0
1677 -1289 1255 0
1039 -479 -1015 0
1461 -202 1776 0
1181 1095 1102 0
716 -464 378 0
-1339 -1722 1158 0
-474 902 -840 0
-856 96 -9 0
1813 -1792 -831 0
1840 1790 205 0
528 -1945 -1694 0
11 -623 1534 0
1708 -731 -147 0
1025 1350 1725 0
162 1850 403 0
1419 1654 1601 0
-1063 -994 1288 0
658 1208 -871 0
-526 -1627 -1347 0
1828 -816 -1759 0
-595 1824 -1791 0
-1161 959 754 0
-408 -530 -836 0
-1007 866 -378 0
-1511 1846 -1888 0
88 -789 1825 0
565 -1019 769 0
-772 630 496 0
1885 -1330 -1029 0
-1802 1285 -1445 0
430 1077 100 0
1043 1495 83 0
-657 495 1500 0
90 -1547 976 0
239 -995 -1915 0
-267 492 257 0
1297 -106 1967 0
1701 1072 1932 0
-836 782 -894 0
303 -836 543 0
-503 1968 705 0
-548 1447 -556 0
930 1487 1800 0
1848 592 -1771 0
-648 1389 -1257 0
-591 -826 -244 0
719 -1822 -556 0
-511 975 724 0
1431 1986 38 0
632 -1059 1814 0
-120 -649 -1751 0
-462 -1546 1074 0
-670 -373 -961 0
-1717 44 406 0
1366 406 1 0
-1974 -1155 1176 0
-784 -1906 -589 0
-877 848 -789 0
-440 636 256 0
-1959 1103 -1162 0
-1369 583 -1200 0
1779 1575 -264 0
1775 1432 50 0
-1286 -216 -1750 0
-1368 -739 -261 0
1565 333 -828 0
1876 1808 -1711 0
-633 224 -1781 0
-763 -1657 -1317 0
-1786 780 -251 0
-690 1768 -1895 0
-704 1050 -1859 0
-700 19 1616 0
1308 393 1770 0
-1078 -250 -1081 0
1306 -1867 880 0
1778 1575 -1087 0
973 913 -720 0
364 -1579 -825 0
-64 1952 -476 0
-897 553 667 0
345 -1634 -1986 0
39 -821 1027 0
1936 391 905 0
-199 -622 -1177 0
-1099 -1820 -165 0
1448 1206 1354 0
-370 1564 -1853 0
-863 -1683 -965 0
-31 -1733 -1944 0
1220 450 -350 0
1691 -400 -286 0
-1511 1638 -591 0
-1173 -793 1302 0
1463 -1654 14 0
-1917 49 -558 0
1255 10 -1059 0
-757 -1965 1281 0
98 -71 -1162 0
1446 1397 -868 0
945 372 -902 0
548 -1405 -691 0
-901 -1753 -1267 0
-1797 -1510 1041 0
-1185 -730 -1977 0
1991 -190 -956 0
-186 1148 635 0
-1319 -257 -1980 0
243 806 156 0
1381 9 -794 0
271 -1017 -905 0
64 1445 1774 0
258 1837 -476 0
1478 142 1436 0
-1847 -596 -50 0
-321 279 166 0
1759 -63 -1810 0
-628 -883 -1162 0
1665 -1990 1926 0
-724 289 494 0
-449 1242 1781 0
-1913 -1445 -736 0
-323 1082 945 0
1691 -1946 -169 0
1780 -236 -1846 0
719 -1340 -1874 0
-137 1151 1203 0
164 732 1775 0
-1922 -1243 -674 0
1869 1811 793 0
-1023 -459 -1287 0
1251 1594 55 0
488 -290 -1462 0
1890 1871 -1345 0
152 617 -1534 0
645 -154 -902 0
-635 392 1584 0
-1871 -290 1032 0
-849 1288 -942 0
-152 914 1899 0
959 705 -1835 0
819 -876 327 0
-62 -1491 -498 0
-1051 1825 910 0
-1601 -677 1834 0
-532 -54 1133 0
-461 1407 -1169 0
-1796 1983 1892 0
225 959 1722 0
-325 -1077 -1000 0
1621 689 1156 0
-1254 638 900 0
-1187 -1454 -1614 0
-1361 -597 -1728 0
-1905 1584 -1690 0
624 1673 977 0
1604 -170 1871 0
-1070 1287 -794 0
1373 450 -1662 0
1752 356 -1347 0
1224 -816 414 0
1073 -396 623 0
1467 -1629 1871 0
-355 980 -380 0
274 47 -1055 0
-1968 -1886 1346 0
218 -88 701 0
-167 56 1720 0
-447 -365 -610 0
1387 1863 -264 0
-1878 1420 151 0
-407 984 -1800 0
63 -456 1988 0
-1452 1933 -870 0
1044 1575 -330 0
205 752 281 0
-349 -1596 -1389 0
-1856 799 -423 0
1524 -1726 -206 0
-1119 1952 -777 0
1580 -845 452 0
1027 -1647 1110 0
1085 -637 -1774 0
-468 -1136 -274 0
1126 874 -1318 0
1025 341 -707 0
-1857 479 -1902 0
-125 -1835 -1480 0
443 989 -493 0
1061 -1560 -1797 0
-1586 -1323 1680 0
673 500 -457 0
316 1023 1288 0
1272 1444 1470 0
-1202 -1328 188 0
-1141 -1110 -1472 0
933 171 1692 0
260 989 1529 0
-1502 1713 -1674 0
-609 1884 1953 0
-294 1106 1026 0
-718 -825 -1624 0
-1350 668 -1949 0
-457 531 963 0
-1253 -1351 312 0
-1163 -542 -1069 0
-736 1443 -1429 0
1277 -625 61 0
-1666 -456 680 0
220 729 -489 0
-1154 1744 1320 0
-60 220 1580 0
582 267 1366 0
1121 1455 1864 0
1679 -424 564 0
495 -1513 -767 0
1301 -1455 -1068 0
-236 1278 -1298 0
-824 -910 -1440 0
1638 1114 -1134 0
-1317 -1165 646 0
-1248 -50 1753 0
355 746 1888 0
1242 -204 1468 0
-755 530 -1427 0
10 -507 -737 0
1543 -852 -641 0
-1236 -1145 1492 0
601 -1255 102 0
1020 -282 1074 0
1442 494 -38 0
1276 583 -162 0
-965 1222 1884 0
1282 -1345 1368 0
-1665 -764 1612 0
-1683 -505 -1013 0
-1393 -1162 -1582 0
-1910 -275 991 0
-1287 1447 796 0
168 -1949 603 0
552 362 -193 0
1343 660 -1704 0
-627 114 1084 0
1506 107 728 0
-1685 1475 1315 0
-871 -860 203 0
-1374 -459 787 0
600 -342 1296 0
19 -924 1024 0
722 871 68 0
1646 575 -343 0
-1100 850 1146 0
1074 -1364 -1263 0
-1487 772 1525 0
-786 684 968 0
-1937 113 941 0
233 787 52 0
-1543 852 1142 0
-130 1428 1668 0
349 -341 1304 0
-501 -1192 -1122 0
-662 634 -515 0
-1648 -1427 -524 0
129 1868 -1842 0
-1876 -959 250 0
1139 1891 1288 0
945 1449 1549 0
156 1011 26 0
-375 1325 -134 0
1737 -1358 1408 0
-183 -815 -776 0
-231 -1511 -500 0
1991 107 -426 0
-449 34 -1401 0
1343 1095 137 0
-1991 923 -807 0
-60 266 1605 0
1213 -1020 418 0
-983 457 1987 0
26 831 -62 0
-96 657 1512 0
950 -81 1451 0
-1941 -162 -44 0
124 -1272 -1690 0
-1925 652 -1534 0
593 -855 434 0
-1142 -1535 1435 0
900 318 -1547 0
-1122 445 1983 0
-1233 -1531 1465 0
-1947 275 73 0
850 -1160 -1445 0
-422 -1726 -1749 0
772 -1833 -270 0
-1611 1968 1679 0
1772 -1266 -1376 0
-1165 765 1575 0
-180 -1936 -572 0
-1387 528 769 0
-1940 1367 -1053 0
1732 -1247 -1089 0
1196 86 599 0
325 -537 -454 0
444 -1578 1939 0
151 1917 1760 0
247 -415 585 0
-1006 1840 1301 0
461 943 -1727 0
401 -42 -1494 0
1994 1303 870 0
-1798 1384 -1184 0
-1312 599 -116 0
-943 -1387 1279 0
1833 1844 -18 0
-1737 -1781 -329 0
-1927 119 127 0
-944 1735 184 0
-1808 792 1225 0
368 -1002 -1084 0
210 -751 777 0
1058 1263 939 0
631 1995 -49 0
247 251 -160 0
1202 949 1769 0
-1281 -730 -307 0
237 1043 503 0
547 622 1571 0
798 -1975 -1644 0
631 -1959 -1327 0
-483 203 206 0
-1894 521 -829 0
-490 -445 -1696 0
-703 -526 179 0
832 571 515 0
-1477 -772 1029 0
-1489 1394 -1471 0
1307 1608 1496 0
885 1736 1091 0
1833 316 -1006 0
1073 1072 -441 0
-1280 -1847 -1288 0
1437 1713 -186 0
76 -861 663 0
-109 11 259 0
-1107 -1968 -1992 0
1402 410 73 0
1913 497 -1469 0
525 -677 -1361 0
-1917 807 -938 0
1038 677 -1542 0
-1109 1778 -1856 0
1552 -804 459 0
-1220 -860 -116 0
461 595 1077 0
-1920 -1677 672 0
-1225 543 1800 0
-405 -1448 1909 0
-519 1532 -1161 0
537 -1031 1107 0
-845 -1619 -796 0
971 1612 343 0
1302 -1950 -945 0
-979 1782 -1968 0
-475 768 645 0
1498 -128 -765 0
-644 1016 516 0
1442 1438 912 0
-1146 -64 -159 0
1534 1238 579 0
-764 1602 -943 0
-1060 -1603 -1839 0
1759 1729 -529 0
840 1783 1126 0
1270 -840 507 0
-239 1674 -721 0
-1067 1007 -1159 0
1302 -1422 29 0
1277 -1341 1087 0
-48 -10 -517 0
-209 1892 -519 0
1683 -343 -1872 0
1142 -43 1182 0
383 -1000 -629 0
160 342 625 0
648 711 1016 0
-233 1192 1455 0
-354 -1811 -1536 0
-976 -1892 -458 0
523 1435 1229 0
749 -1874 1180 0
-238 1545 -1937 0
-459 1235 1504 0
416 588 -445 0
-832 -846 -1273 0
270 281 1883 0
-52 677 -1148 0
-1299 -161 -859 0
-991 918 1986 0
971 -826 -1468 0
1078 1488 404 0
-1261 1906 -1016 0
1145 1159 -1569 0
-1720 -1483 1755 0
-429 -1019 -87 0
346 -35 -1821 0
-273 -589 -412 0
-93 -824 1695 0
-774 -1258 1222 0
842 -671 -1660 0
-1239 -1842 -1274 0
379 1520 -858 0
-1369 1289 437 0
1773 1224 -1309 0
-42 -212 1890 0
-423 -393 -661 0
1955 1540 79 0
1097 1703 -136 0
-543 -1637 -1491 0
-152 -153 1796 0
269 -1736 -1446 0
366 679 -1615 0
1482 -352 1911 0
1746 781 -1248 0
1307 -1570 -1864 0
-704 1245 1686 0
1410 -1363 -470 0
1056 718 817 0
-1980 1070 1113 0
-653 -447 1658 0
543 1777 1588 0
-717 5 1154 0
508 -137 -1694 0
401 1929 570 0
-1513 -1287 1649 0
-609 1450 -1823 0
1488 -1096 -853 0
-509 -504 72 0
1522 544 621 0
-1960 -1354 609 0
248 -1922 876 0
-201 438 -310 0
-989 587 -1718 0
-843 -1584 -1814 0
148 -420 1194 0
-1995 -396 -435 0
1875 828 423 0
1443 972 820 0
-995 1719 384 0
1842 -1727 -1672 0
-334 -819 -350 0
681 1844 -1291 0
-742 1124 1550 0
-160 -1498 566 0
1428 -667 -992 0
592 1313 599 0
1653 -255 373 0
-1980 171 1573 0
759 839 440 0
1698 1294 1116 0
784 -364 -844 0
-1117 -1308 689 0
-1683 -910 -124 0
-1489 836 -582 0
-1671 759 1781 0
1677 1232 202 0
-1225 -1084 1853 0
-1733 -576 -360 0
-1592 -356 -1820 0
1798 1948 -1159 0
192 777 1101 0
823 190 -1387 0
-134 -1644 1715 0
102 -708 1182 0
-206 -1213 757 0
1650 -324 -1428 0
1577 -140 -667 0
432 -1964 -1195 0
-195 -1614 666 0
-1986 -466 348 0
-614 1088 -1023 0
1708 -1524 -1800 0
-954 1159 -585 0
-1645 -205 559 0
1663 1771 -1510 0
-769 -797 215 0
67 -348 -1672 0
1640 -1438 1229 0
1253 -1480 1688 0
125 1983 462 0
169 1602 -999 0
-1357 -141 65 0
-1992 -1850 349 0
-1704 -1188 -642 0
-1535 475 -1078 0
-1472 490 -1164 0
-1796 1835 -1462 0
980 217 -468 0
811 -195 869 0
778 929 -1510 0
1523 -478 -1363 0
-1349 -391 529 0
888 -231 908 0
486 -1625 -1803 0
-1544 233 399 0
-1686 1423 1406 0
-502 541 -98 0
-518 -1599 1882 0
-165 -1392 -139 0
-1975 527 -1933 0
-1574 221 -1601 0
-1342 -1387 1647 0
1167 -1943 -543 0
-1213 811 1131 0
-686 235 -1001 0
1166 1293 1951 0
1222 -154 273 0
-1322 1687 284 0
-111 -1665 -758 0
1571 -1680 -1274 0
1784 -1213 265 0
94 1778 -530 0
1259 1190 1026 0
-235 393 1481 0
19 1963 786 0
-425 -545 -1861 0
-213 1796 -1085 0
-5 1526 -1849 0
1743 296 -938 0
-850 -452 -1566 0
-1200 -581 69 0
-1151 -879 1387 0
-1127 58 -832 0
-1188 1066 -908 0
602 1178 -1052 0
-481 -1090 707 0
834 1112 954 0
-1662 -1024 -808 0
154 -1592 -315 0
-1628 1835 -633 0
-1476 -1669 1692 0
141 193 513 0
348 -120 940 0
-623 254 1801 0
538 -382 -1664 0
1098 1741 -412 0
-1995 -1109 -1111 0
-341 1725 1518 0
239 -727 636 0
-313 352 -1490 0
-867 -444 -1713 0
1191 13 -1258 0
-579 593 -138 0
-948 -818 -1731 0
-110 718 -1121 0
-436 -1121 -1816 0
-1547 596 1953 0
-1829 -1544 375 0
-790 -1273 1568 0
1168 1814 -392 0
-1541 -74 1550 0
1052 -1198 -606 0
-251 -149 -547 0
1224 -1571 -178 0
1879 -1611 -32 0
-683 74 -521 0
572 -1001 251 0
-457 -1735 110 0
-1398 -1263 142 0
1579 304 -344 0
1839 -1269 -737 0
-1417 195 -1013 0
-853 1161 724 0
1291 -1707 -1477 0
1193 -989 25 0
1171 1005 -211 0
-1105 -1459 998 0
-81 1232 1832 0
119 499 -18 0
592 1455 -166 0
-1392 770 1238 0
-942 485 830 0
-1425 -258 -874 0
-1465 1671 -282 0
-709 -599 -1818 0
1028 59 -308 0
1215 -276 -1042 0
264 1577 -1954 0
-1620 -1979 1241 0
939 705 1848 0
-265 -762 -1661 0
-1587 906 -1403 0
-1370 -1626 275 0
-1740 866 1284 0
-289 116 1688 0
-827 -538 -325 0
-1731 -31 1993 0
215 1601 -1291 0
-788 -293 1974 0
-16 846 -717 0
-817 -1014 -1995 0
-986 1767 11 0
-998 -948 -292 0
464 -456 1305 0
173 946 1150 0
-394 647 -630 0
-1912 -720 859 0
1426 826 -771 0
1011 491 1717 0
-1242 1956 -356 0
-605 -933 697 0
1265 -1130 -379 0
-569 124 -1597 0
-1845 -736 1776 0
290 -1630 -640 0
-141 1839 895 0
-1200 1265 -307 0
1914 1126 675 0
-482 1071 -707 0
-68 691 -1493 0
1068 1723 -261 0
1579 -1711 -1595 0
-107 -1506 -1624 0
25 1993 -1459 0
-391 513 601 0
4 -835 -1747 0
721 -305 1280 0
295 1135 -1258 0
-902 -500 18 0
-690 -134 162 0
-1585 -1180 -765 0
-1590 -937 158 0
1465 -1947 -829 0
990 1510 -285 0
1754 428 -584 0
-427 1356 -1517 0
901 1478 -1727 0
-1388 -128 639 0
1748 780 378 0
1773 998 -795 0
-636 1471 910 0
-442 997 -94 0
1738 1943 -535 0
-1722 830 -1009 0
678 -1531 53 0
-381 -1878 -128 0
-1816 -924 1964 0
961 1174 -30 0
-1461 -1995 -873 0
275 667 -1497 0
-1015 -1310 -1251 0
-1686 -719 1961 0
238 -1016 -1815 0
-1183 -1192 1373 0
-1036 -1231 -1916 0
-645 1199 413 0
1497 703 1535 0
441 884 1518 0
1154 78 628 0
1667 1762 -508 0
-1644 1451 1721 0
-677 -1911 -1515 0
1552 573 258 0
1877 -1621 -780 0
-1127 120 -1111 0
30 -1483 -20 0
662 -1907 -392 0
-1515 877 1812 0
20 -232 -833 0
-165 1330 1058 0
1993 1215 -992 0
386 -1412 -775 0
-218 -1770 372 0
-1598 1512 -1277 0
1247 -795 384 0
-602 1027 191 0
-260 1208 -1619 0
-1237 1646 1152 0
746 1702 -111 0
496 988 -682 0
1039 71 -170 0
-680 -745 1476 0
936 1201 957 0
1388 -437 1441 0
1276 -739 -465 0
96 -95 -245 0
680 -248 -1014 0
479 -1368 -50 0
1392 735 -353 0
-1396 -279 1057 0
-556 1048 -804 0
536 -1633 1576 0
-1986 -962 -1961 0
-156 1253 1360 0
437 156 431 0
-280 -486 -1950 0
-84 -1967 1999 0
1616 1556 -562 0
1411 -498 1144 0
-813 1334 1780 0
1772 1775 1547 0
-1693 1853 -252 0
705 -548 1869 0
-505 1240 724 0
670 946 -1049 0
-914 -408 -1914 0
-133 -432 1140 0
-1084 985 -1430 0
-819 569 1706 0
-1854 -1277 29 0
-1472 1272 1304 0
-733 1363 864 0
-1591 -458 360 0
-1525 -499 -1096 0
-1584 649 531 0
-714 -453 -507 0
1029 -538 1003 0
1857 -1257 1534 0
1325 715 1063 0
-1806 -825 -337 0
1747 71 1554 0
1863 -608 1727 0
1818 -1161 1648 0
623 -1809 -112 0
1153 -1066 465 0
-809 -1913 606 0
-265 -1560 -1359 0
-880 -1497 -1136 0
1920 756 -413 0
-1919 520 60 0
1392 692 -1163 0
-344 1728 -1626 0
-1031 443 1052 0
1371 -1023 -381 0
-426 -217 649 0
-1433 662 -1123 0
1770 -1273 -908 0
126 1263 1445 0
-681 -214 574 0
-965 -819 -1477 0
1172 1497 502 0
-1449 -1915 -1074 0
1710 599 901 0
-1862 -740 -1274 0
349 -1034 481 0
389 1444 -246 0
-291 -322 -1536 0
841 -189 -928 0
923 1442 -1915 0
1739 1059 -1800 0
465 -416 5 0
1952 853 800 0
-1291 68 -179 0
-2 -489 -660 0
-1333 -1003 1044 0
-134 -1275 1527 0
1666 52 -1282 0
162 -527 -1222 0
-616 -553 -1553 0
-602 -1612 -462 0
-1758 655 -395 0
-863 -1152 -1355 0
-667 342 1850 0
-371 88 -829 0
1967 -193 -134 0
-492 524 -1548 0
-556 -237 -542 0
-1160 1218 -863 0
-1191 -804 -423 0
-1605 1227 776 0
1410 1536 -939 0
-794 -1323 1748 0
990 188 -1728 0
1416 1974 -1139 0
-1911 451 1283 0
-251 104 510 0
1956 491 268 0
-816 520 871 0
-78 -519 -1864 0
-1112 -837 -1321 0
1066 919 198 0
1732 945 65 0
1350 790 -637 0
-1061 -1566 -431 0
-1749 -1913 -1796 0
-1833 1555 -1632 0
-588 18 -716 0
21 -110 1562 0
221 -1897 621 0
1075 1426 -1925 0
1951 -867 116 0
-1099 463 154 0
-89 1291 678 0
1965 -1681 -671 0
975 874 941 0
-1256 -170 1573 0
452 -1655 1447 0
648 -883 611 0
396 42 -900 0
-1160 -814 -1991 0
-574 1347 1465 0
-935 1500 697 0
1161 346 -1191 0
-1148 -1995 1838 0
-1936 368 1308 0
-814 885 -104 0
-1913 -420 -172 0
288 -228 1027 0
1581 414 735 0
-336 -926 -590 0
-809 -1908 1112 0
31 1790 -1301 0
-1292 1568 1779 0
1381 99 1535 0
554 1249 197 0
-1715 -833 964 0
-613 1624 -801 0
365 1421 1124 0
-1869 -1701 -1888 0
-74 651 -1019 0
1833 342 502 0
1894 -289 -1244 0
-185 1581 -496 0
229 1846 1999 0
-721 -1610 541 0
-1132 -304 1160 0
1953 -1063 -734 0
-534 -1800 -924 0
1076 -873 -506 0
1591 374 216 0
-102 1332 -27 0
122 -784 -1861 0
-1373 -140 -936 0
1102 -788 -461 0
-785 -1558 -1024 0
498 -951 1201 0
1736 -1952 -1591 0
-82 -798 -1418 0
-225 -1325 -650 0
1945 -1635 -1714 0
1106 96 1064 0
-156 -43 -1706 0
1750 -626 1429 0
1321 586 -962 0
745 1770 -96 0
1857 -353 1279 0
602 -868 1489 0
-1065 625 -1526 0
358 1601 -927 0
-519 373 -576 0
1118 -1850 796 0
1385 156 402 0
1229 -1881 -510 0
-857 -1727 262 0
1813 -1661 -1771 0
32 1121 -472 0
-432 1464 -1828 0
427 1062 1674 0
-1216 -1979 -577 0
-1313 19 -1250 0
-1358 -658 1511 0
1211 1262 1783 0
990 1855 1230 0
982 -1 -514 0
-34 1259 1639 0
-1269 1323 -1615 0
1846 315 1624 0
-1935 634 1325 0
213 -6 762 0
-1879 1937 -1254 0
242 607 -1037 0
241 -254 667 0
1989 1969 -1758 0
-1817 -1700 879 0
642 -1196 801 0
-1746 -147 1576 0
1039 930 117 0
213 1486 -1537 0
421 -1915 -610 0
447 -547 -1000 0
-375 -739 1487 0
858 -1498 -1523 0
1269 -1409 532 0
838 -1027 -1778 0
1481 -414 40 0
78 813 498 0
947 1116 -1983 0
205 -1576 -76 0
-276 -1491 1948 0
-620 -1324 -568 0
-1495 124 -442 0
1489 1907 1323 0
1568 -872 1225 0
-1046 61 -1105 0
-686 1906 -1099 0
-1867 1602 1385 0
-86 33 -421 0
23 1727 16 0
-1228 -1678 134 0
817 -1986 -85 0
481 -1468 1511 0
-182 1450 -1344 0
-55 1880 -250 0
436 1937 523 0
799 -292 1455 0
-1440 513 816 0
1899 1539 -1079 0
426 -932 -1528 0
1397 -1956 1780 0
-1239 432 -1395 0
-521 -722 1759 0
-204 -1889 -1501 0
-1798 -202 -1427 0
1998 544 77 0
1427 -1973 -1801 0
868 1027 -452 0
1669 951 843 0
-803 -1796 1070 0
-1264 145 -546 0
1654 -1398 -1663 0
-776 -1678 -949 0
-407 688 1770 0
271 36 1405 0
-1904 -1563 -229 0
905 -1374 1742 0
-1773 664 1154 0
1359 1074 -696 0
-1107 -1902 523 0
-387 1320 1860 0
-603 1019 -1161 0
-1321 883 -137 0
-183 1599 1120 0
-1627 -1579 -1791 0
-1581 494 161 0
545 686 -1699 0
-1118 -1903 -852 0
-1141 -922 -1472 0
-189 -1644 386 0
1652 214 833 0
-1093 853 1199 0
-247 976 1703 0
1097 1370 1966 0
-442 28 -816 0
733 1549 1340 0
-1344 -264 724 0
172 -1542 1676 0
1431 -1831 153 0
327 -1072 -1503 0
-1222 -437 -1961 0
553 1987 -73 0
1331 -1499 -1582 0
-1594 -1628 -283 0
713 714 -903 0
-1817 292 542 0
1327 498 -589 0
-1773 698 1089 0
-528 -1493 -1514 0
-146 1591 -1058 0
-1781 823 -1591 0
195 -494 280 0
54 403 1449 0
-411 -117 126 0
624 794 -788 0
1673 1936 -1123 0
663 1678 -1195 0
-524 1036 1711 0
-65 1515 1923 0
-1606 -1686 -537 0
-607 -601 -1441 0
1477 1961 -599 0
1792 -1595 -1249 0
-1533 1461 1362 0
-1735 510 1119 0
-270 -1957 1788 0
1069 -1694 336 0
583 434 -644 0
721 1798 951 0
-1206 -331 -376 0
625 1913 -1181 0
-64 1665 1512 0
-1847 -1065 -1462 0
297 748 1072 0
-607 1235 -1967 0
1176 651 1550 0
911 -1740 379 0
325 -849 -1112 0
-1963 1139 -259 0
-979 1701 -766 0
-326 743 -1711 0
118 -838 -122 0
-1619 -1562 -1377 0
1664 1854 -696 0
921 1438 1544 0
1966 592 776 0
-1873 14 -1463 0
114 165 -1554 0
-997 852 -88 0
-45 298 -1451 0
-1757 -556 -1668 0
-622 1846 -1627 0
366 -454 -472 0
1208 -1510 1878 0
570 -206 -695 0
-1178 23 1789 0
-762 983 -1823 0
174 -746 254 0
-397 523 1378 0
228 1905 231 0
-55 -374 1062 0
1271 1957 -524 0
-642 -740 -1570 0
1253 -1469 523 0
1350 272 -1379 0
-1849 129 518 0
-687 -1050 -823 0
756 516 1009 0
1766 843 -28 0
-108 -1815 1150 0
1667 1314 1002 0
-1672 475 -766 0
1208 462 213 0
-1816 -932 -1569 0
811 -361 1423 0
-914 1141 149 0
-1691 1567 579 0
815 -1336 1004 0
1526 710 -1970 0
-1096 1235 -445 0
66 -426 -675 0
-350 -838 -1293 0
1025 978 1182 0
1259 232 910 0
960 484 -1400 0
-184 -1217 1831 0
-1903 1654 -1831 0
-1314 268 648 0
-1456 1546 585 0
1880 -1718 -101 0
1466 -1320 1418 0
-966 -1842 -932 0
-541 -1044 1904 0
-212 459 660 0
-1700 492 -940 0
455 1106 1690 0
-1733 1607 843 0
1479 -453 1594 0
941 1414 -1504 0
1980 1202 873 0
-329 -1425 855 0
478 -624 587 0
-1581 154 1761 0
-1089 1450 -543 0
-981 1902 -1730 0
385 1879 -439 0
-686 1325 1585 0
147 383 1864 0
-1374 -803 -286 0
-1092 -457 77 0
1649 -430 -79 0
-1965 -1851 788 0
1266 894 -546 0
535 -989 1525 0
104 -396 -1220 0
-296 -1863 1780 0
743 807 -1288 0
-1394 1846 -294 0
1991 327 1242 0
-807 -512 37 0
-1962 1988 -1532 0
626 -14 -1950 0
-744 -275 606 0
-1467 1453 -968 0
1497 1204 171 0
-401 1933 -1323 0
1210 -255 1624 0
25 -467 1274 0
1586 67 -1999 0
-1550 -840 -1360 0
1432 -568 -54 0
1863 390 47 0
-725 -546 -1361 0
1286 1706 931 0
-1357 -90 1222 0
383 1077 460 0
1877 -1181 -1035 0
-1404 1527 450 0
-1075 1769 82 0
-1707 1408 -1916 0
-274 -1409 -635 0
1970 1065 -1582 0
1605 -479 665 0
-1917 1189 112 0
1642 -641 1169 0
1690 -208 -340 0
-1431 1898 -1934 0
-483 -1089 1996 0
-202 993 296 0
1766 -1521 -1620 0
-735 1723 952 0
1825 787 -850 0
-1103 -411 1480 0
-673 1521 -1916 0
-1851 500 -535 0
73 343 307 0
1999 1113 1832 0
867 -739 -1226 0
1806 -1092 -642 0
1695 646 1319 0
819 933 1488 0
-1081 1567 954 0
-1762 -1489 586 0
-618 596 1287 0
1892 -1 1644 0
-1996 112 1741 0
-771 -912 1537 0
-2 482 1627 0
-667 1597 -1999 0
-1993 335 1577 0
573 942 -1109 0
-405 1590 945 0
1353 -1544 908 0
-1886 1385 1922 0
1621 738 224 0
200 -185 1318 0
1321 1659 -198 0
1769 -507 889 0
-164 634 -1798 0
-1778 -1000 -491 0
1130 -1814 -1881 0
1489 -1751 -462 0
-1931 1698 356 0
869 -1646 -73 0
1072 -735 -527 0
56 807 -1147 0
504 1552 805 0
-24 1182 431 0
-1034 1224 46 0
-1363 1348 -1470 0
-1636 181 -1111 0
-1617 -496 -852 0
-1078 40 -837 0
-1181 -751 328 0
722 1120 -1181 0
637 1739 1214 0
-26 -283 1228 0
-1251 -753 79 0
1114 133 1587 0
1707 528 896 0
-790 -1712 -781 0
-1029 58 -1714 0
-996 -1707 -387 0
1598 -1802 -1949 0
868 348 -1270 0
-1247 278 -1621 0
-434 190 -49 0
1063 -1507 514 0
1494 435 -1566 0
976 1962 -494 0
353 621 -1586 0
1846 319 -1795 0
-751 -133 753 0
396 1370 1623 0
-1771 1833 -768 0
1960 1024 -974 0
1574 216 -119 0
1887 299 695 0
1819 1788 1632 0
-1731 -1869 -1715 0
-158 879 410 0
-704 888 1543 0
-1808 1759 -217 0
1272 484 -986 0
512 -517 923 0
-1836 -1897 -1877 0
-756 -1341 352 0
-169 -1458 -591 0
1242 1253 -1598 0
1589 733 1868 0
1468 1302 -1353 0
1319 -83 -620 0
1950 -897 733 0
-1263 521 60 0
809 -1672 -1579 0
1749 1396 -1175 0
1023 -450 -660 0
-1621 930 1966 0
-506 -1584 1720 0
-1462 -899 271 0
1874 -1957 -537 0
-1966 72 -882 0
1907 1983 372 0
854 -145 -1018 0
1432 162 1935 0
-1196 1137 1599 0
-1679 -1542 1188 0
1805 -1759 -1344 0
-1725 -1873 1483 0
1896 -939 -706 0
1615 1961 230 0
246 -1151 -1882 0
-1061 595 1351 0
-321 237 791 0
-567 1862 1458 0
1208 1128 -1412 0
179 654 1841 0
-1645 1587 -1784 0
-1017 747 1834 0
-323 822 -902 0
-1338 475 234 0
651 188 641 0
1224 -291 1352 0
362 -494 -233 0
-706 164 -1929 0
511 931 855 0
-1053 1642 216 0
-334 1501 -1648 0
1947 -1460 830 0
-1812 1404 -891 0
256 -338 -93 0
1235 1558 -919 0
-727 1083 725 0
951 1119 -1524 0
-1084 1046 111 0
560 -838 -750 0
-960 -662 1873 0
-317 1736 1989 0
1162 -1318 346 0
-168 1411 -8 0
-875 -1706 1261 0
-1456 216 1339 0
-431 406 1201 0
-676 -1693 -1869 0
1694 1189 786 0
1833 560 -136 0
47 1840 140 0
1085 -243 824 0
-720 412 -1167 0
1413 269 -1895 0
-341 -24 -1268 0
-1856 -1509 -711 0
810 -1294 1055 0
1207 811 -830 0
730 -1549 -1795 0
1248 1606 1449 0
1734 -501 -1435 0
784 -1332 281 0
-690 692 1577 0
-1811 -810 1956 0
-455 -1669 -360 0
-997 -1279 1966 0
1814 586 -524 0
-997 -274 1867 0
-1875 -1202 -1735 0
-1924 1242 192 0
-375 179 1 0
1425 -287 -1375 0
573 -1299 -550 0
85 -1940 1180 0
1892 652 853 0
-26 731 -1489 0
-1183 -1361 1107 0
-353 1953 -792 0
470 -1536 -996 0
874 -823 -248 0
1084 -1585 56 0
1545 -1801 416 0
566 -1767 -886 0
-1201 -1915 74 0
-1098 1095 1053 0
1299 -1260 619 0
41 -1235 -1875 0
335 614 468 0
-920 -1979 -758 0
-1393 924 -404 0
384 -1427 1979 0
-1168 1342 -1906 0
-1127 232 -1824 0
-1068 -1814 -177 0
1654 -1648 1468 0
812 -1486 398 0
-1361 -1865 -415 0
1502 -237 1414 0
52 776 618 0
-1196 285 1815 0
1330 -1261 1676 0
1726 897 688 0
899 -1115 218 0
-21 -83 216 0
-835 -455 1621 0
556 -1906 704 0
1699 -1977 1631 0
1309 -1224 546 0
923 -412 -1463 0
-1479 957 -1258 0
74 928 402 0
-139 -1549 690 0
723 -1571 -188 0
-1441 369 1007 0
-293 1179 912 0
-1765 1589 1085 0
785 88 -28 0
-910 -967 647 0
-686 -350 3 0
1788 205 -780 0
-1973 209 35 0
861 -270 604 0
1647 -817 -236 0
-611 -1465 1144 0
1764 1375 347 0
-917 -1635 -1489 0
-1735 1849 -1 0
542 1004 1062 0
-1275 1088 1353 0
1039 -191 -1109 0
-1731 97 596 0
1590 -534 -1811 0
-192 888 -1077 0
1352 468 -1483 0
1503 -19 -495 0
-1524 61 1703 0
-429 -1058 1361 0
-696 -1177 -1425 0
451 -1695 -1491 0
1107 626 -360 0
-330 -1134 -1984 0
1069 -1349 -386 0
953 -348 -529 0
-1818 1294 1237 0
-1556 676 -950 0
715 80 -1817 0
-1155 -16 734 0
-751 -651 -364 0
69 -122 1755 0
-87 894 247 0
1451 -838 1680 0
645 -557 -1359 0
-1523 1618 -508 0
648 -21 -1719 0
323 1434 525 0
1961 1002 1303 0
-1732 1078 -1084 0
1211 909 1150 0
-425 1643 925 0
-734 -998 -410 0
637 -1317 -977 0
310 -1164 -1930 0
1580 -1320 -1745 0
1876 1560 -1467 0
690 -813 -1120 0
1345 1513 752 0
-1611 1152 1342 0
-88 1054 1632 0
1695 -1258 -1067 0
-194 -272 -914 0
-603 984 -1188 0
1281 544 -1449 0
1560 1229 -541 0
-1462 149 656 0
412 814 -1208 0
1465 913 1695 0
-937 584 1462 0
1537 1281 -603 0
1639 1610 -2 0
1324 1074 941 0
1063 118 -348 0
-518 369 1171 0
-58 -389 -1734 0
-1343 -1571 1006 0
-367 1421 -138 0
-826 -1714 -346 0
-630 -1978 -1831 0
-316 1070 -384 0
-613 -334 1414 0
287 -627 1173 0
1130 -898 -1900 0
-907 666 -213 0
-1237 -21 974 0
1816 1008 1534 0
1414 1094 -96 0
139 1135 1083 0
-1819 1305 191 0
-776 163 1860 0
-1336 122 247 0
697 -340 32 0
-718 638 -1470 0
277 1037 763 0
-1446 -526 -947 0
-1900 678 -176 0
1954 -1356 1389 0
1114 -597 963 0
-577 -1013 -795 0
1257 1342 -398 0
586 913 1679 0
1689 1401 -766 0
-1140 -1961 -1516 0
916 -245 -100 0
907 1400 -179 0
-1703 -1778 751 0
-650 770 512 0
801 1446 115 0
249 -730 -676 0
690 -554 475 0
-1413 638 1949 0
1958 -876 -1339 0
-325 -932 1859 0
1379 -769 1755 0
-761 1235 -1254 0
-673 -87 -1518 0
1666 -1198 42 0
-514 -844 1773 0
1712 280 -581 0
-290 -403 -1681 0
118 -1992 23 0
-1324 -275 -1508 0
1667 -323 1478 0
424 -1009 -1145 0
-1369 473 -411 0
-158 -750 -795 0
1457 420 535 0
-376 -420 -936 0
-1346 -287 -1564 0
477 -892 285 0
1034 1102 -837 0
598 780 1321 0
1541 260 -574 0
1557 -1759 1261 0
1886 637 250 0
554 1723 -169 0
-794 157 1917 0
1900 1847 -1291 0
-676 -931 1067 0
1666 404 1268 0
1672 -471 833 0
-1757 -1481 -1487 0
523 -283 1080 0
1688 1589 1307 0
1060 -257 1729 0
-964 1901 -1438 0
1710 1381 654 0
-1942 1795 1072 0
113 -1080 -1726 0
-17 -1712 -504 0
291 -1997 1099 0
-122 286 -1890 0
-1825 -1143 758 0
-1804 819 -1653 0
1283 59 -832 0
478 1313 -1476 0
-7 -441 -564 0
1485 1907 394 0
-433 -399 429 0
1189 938 -531 0
-151 -314 -933 0
544 1523 1411 0
1692 1465 -1784 0
26 1291 827 0
-1763 -181 -620 0
-879 -1098 -133 0
-1205 1042 -588 0
1095 1651 -304 0
1808 1277 -951 0
-1176 1069 849 0
462 -118 -1518 0
1726 1596 1018 0
-747 784 -1386 0
1145 439 1714 0
-501 -1338 1349 0
-798 1716 164 0
-1400 1964 1528 0
356 -807 588 0
-859 -360 604 0
1067 -1625 -971 0
-160 -769 1281 0
112 1545 -639 0
1489 838 751 0
1592 -1460 1986 0
-27 -875 -132 0
785 -47 -9 0
-49 -1894 1482 0
-302 1888 569 0
-1000 -1650 1280 0
-322 -508 -357 0
-47 -1303 -416 0
456 -1150 -1660 0
1406 -1062 -13 0
-1927 1948 -221 0
-1128 1485 -1196 0
1250 -1705 -1304 0
1519 -1028 -1052 0
-22 248 546 0
-1255 1811 905 0
-1914 1376 -1192 0
562 1547 -1167 0
-1874 -1104 -1867 0
400 -326 -1196 0
-1071 965 460 0
-714 114 -1059 0
1624 -1389 -497 0
1164 -499 -1466 0
-256 -801 1029 0
-104 1325 -573 0
870 -1689 -318 0
767 1558 -1393 0
-1425 272 431 0
20 -1411 1110 0
1815 139 -717 0
510 618 -1066 0
1749 910 577 0
1517 -780 1613 0
-1633 -1782 561 0
80 -1578 794 0
990 1794 1526 0
881 1648 126 0
-1822 -1599 -1209 0
1727 -860 -751 0
-21 913 -929 0
130 -847 -272 0
955 -33 571 0
1983 -838 131 0
-631 1019 1342 0
652 -198 1004 0
-1560 312 -209 0
1648 -1490 -1120 0
-1759 -547 -1205 0
794 243 -1794 0
-1414 -1869 -696 0
606 1199 1902 0
-1445 1147 -1549 0
1497 -1444 -976 0
615 -1674 12 0
777 -1354 -1321 0
1007 284 1338 0
1105 -1611 -219 0
-1110 -1468 -754 0
-727 1908 -1728 0
352 -113 970 0
566 -487 -1726 0
1884 1336 -1545 0
130 385 -1814 0
-429 1504 1546 0
-396 557 1219 0
870 1284 -67 0
157 1040 -738 0
-585 1898 -243 0
-1023 -1128 -1106 0
984 -255 1733 0
50 -1382 -971 0
-444 1346 1037 0
-473 1271 -584 0
1874 514 -989 0
-1306 -478 -755 0
1510 444 -842 0
-1177 374 673 0
-1765 1075 -268 0
1349 148 1511 0
51 -376 -106 0
-1287 -458 -1644 0
1080 -1284 319 0
-1886 1914 1922 0
48 1463 -751 0
57 942 1110 0
-1732 -899 -1599 0
573 -1856 1909 0
1586 876 -1640 0
400 274 1954 0
1863 674 1242 0
359 -1139 1920 0
712 702 -216 0
-1846 -730 -1393 0
-579 -1570 -1465 0
660 3 283 0
-1174 -739 -890 0
424 -1794 1008 0
769 1181 1441 0
-573 919 818 0
1220 -1792 274 0
1213 -18 306 0
-1487 1138 -159 0
-1623 -1601 -343 0
-650 1162 -1550 0
-352 1364 -37 0
454 -1753 -1763 0
1648 525 -1893 0
224 410 -1164 0
-1650 80 -1673 0
690 1291 -730 0
1941 238 -286 0
1210 1129 -230 0
67 1523 -445 0
203 -1507 714 0
629 1689 742 0
1557 1842 1840 0
1501 1912 -145 0
915 1331 1837 0
151 -1815 -1727 0
1016 -991 -1612 0
1135 -386 704 0
731 21 1404 0
-1139 -1038 -1735 0
1150 123 -610 0
-1716 677 1970 0
94 178 -970 0
-1722 -203 -1854 0
-104 1415 1257 0
-1442 -280 -984 0
1774 194 1647 0
-1004 806 -1887 0
1924 -906 713 0
1735 -63 -1538 0
-539 -1370 179 0
883 -935 32 0
679 -1422 578 0
704 255 -972 0
108 36 -367 0
381 1021 -977 0
1554 1276 1035 0
-1028 -881 -665 0
-188 1876 1968 0
-1628 -1996 892 0
-1476 1643 -186 0
432 621 901 0
-288 1971 -1742 0
-1467 -1515 1395 0
785 -182 -1021 0
201 -1569 -177 0
838 1586 1606 0
-26 -1314 1016 0
-1657 -599 -1082 0
1700 1226 82 0
253 -412 -1609 0
663 -637 666 0
1421 994 -548 0
1215 899 -1900 0
-1682 -1622 -7 0
-1919 1602 -116 0
-1654 1645 829 0
810 -1110 -970 0
-1875 -995 -482 0
1148 -1266 -1110 0
1801 1460 -1966 0
-1134 -244 953 0
-164 976 -655 0
681 -485 329 0
1599 -1889 -960 0
1745 -1782 -100 0
1826 -1275 -1273 0
-627 806 -335 0
-519 32 5 0
1732 -1208 -1813 0
-599 1189 1185 0
-1520 1152 -627 0
-786 -716 343 0
607 -1031 -1877 0
1298 1444 -1561 0
-773 1842 -309 0
-937 -506 -1789 0
-1887 564 43 0
-1429 1867 486 0
-1426 1763 270 0
-1386 1787 -1804 0
-899 -1343 436 0
-1288 -38 -1021 0
1599 -825 -1632 0
1684 527 1786 0
1626 1322 1057 0
790 -1638 775 0
1464 755 -1736 0
-153 1103 1824 0
1809 550 -1605 0
-1047 -664 -1109 0
1924 -1753 -1257 0
-865 -1655 693 0
1704 -1313 -71 0
-1288 -21 642 0
-1701 -1263 1497 0
-871 -348 1019 0
578 745 -1114 0
1477 -1343 -1229 0
1415 682 1553 0
677 -1950 620 0
1241 520 1770 0
1738 74 -1858 0
-283 674 -1254 0
-1681 887 -890 0
-1203 -1271 373 0
1102 -131 1265 0
1219 -82 1834 0
-706 582 -1944 0
1012 -1684 1389 0
1052 -207 -696 0
-1247 -142 1216 0
340 898 -1066 0
1446 -307 1174 0
219 -1325 1192 0
1729 -337 1497 0
1244 1345 123 0
1262 77 1547 0
1752 355 791 0
-1596 1182 618 0
-769 -1453 1727 0
131 797 1425 0
-1008 -1895 -1091 0
-98 -396 1655 0
134 -1128 -1607 0
57 -55 -17 0
-458 836 1131 0
1538 422 1530 0
-915 1143 -1107 0
-728 1623 -436 0
-1169 1884 389 0
-1104 -921 1346 0
-299 466 -1094 0
1030 -1973 541 0
924 -77 252 0
-1870 1666 -1994 0
531 510 -81 0
-1937 -796 1982 0
-1482 124 1800 0
619 934 -783 0
1028 -288 1923 0
-5 1773 -1284 0
1316 -874 1008 0
-751 -1064 255 0
-130 137 1121 0
13 1311 1798 0
-1478 -1729 228 0
-502 -1817 -377 0
-1736 -1756 -524 0
-726 -1701 -1180 0
62 620 -491 0
-1881 833 1977 0
583 397 1614 0
584 -971 1265 0
1770 74 537 0
1552 1889 245 0
410 -349 983 0
1151 1410 -1599 0
-881 1571 -250 0
-15 1345 1993 0
-790 -1624 -1201 0
-456 -1392 930 0
-48 104 -1340 0
295 -953 614 0
-799 -1786 1846 0
1836 1619 -62 0
-856 662 646 0
-1178 714 388 0
1276 561 -1993 0
-1485 1419 567 0
-642 -1306 -1247 0
614 -1747 -29 0
-1870 1019 -241 0
1144 1956 -1184 0
-1471 1055 -1564 0
287 416 906 0
1773 -1038 417 0
1820 -1910 -32 0
678 -373 -566 0
-1012 -423 225 0
-1219 1517 21 0
1519 -652 -1850 0
-1994 -533 -617 0
-680 -285 1642 0
-1940 -1303 -1236 0
-1403 -1863 135 0
350 -159 1774 0
-813 959 -1830 0
1109 -107 -92 0
683 -1538 -1003 0
385 1690 710 0
691 -286 -1604 0
-128 1422 -934 0
-378 908 -409 0
-1501 -57 -1394 0
94 -718 1785 0
1113 -426 -1669 0
907 290 1728 0
747 -1270 1648 0
1529 372 1219 0
-1747 82 -267 0
-764 1733 -1093 0
-216 -1526 1204 0
-133 108 1047 0
860 -1206 -819 0
951 -875 1376 0
-785 -928 -673 0
1636 -1393 738 0
1041 687 963 0
1505 203 1822 0
930 300 1819 0
1714 -446 -261 0
731 -14 1385 0
-1207 -579 -169 0
-845 -1027 -1616 0
12 -468 157 0
-1229 -976 569 0
-1056 -1344 -1643 0
1149 -340 1759 0
924 -1213 -1901 0
-798 782 375 0
227 585 -1451 0
1778 -1602 -1248 0
-183 -19 910 0
1285 573 1914 0
-1089 -1005 -945 0
1029 -1416 -414 0
629 494 -1574 0
883 -34 621 0
123 558 1201 0
1677 -116 677 0
-834 -20 -630 0
257 569 -1974 0
-1263 -1730 -1268 0
1739 -1630 -294 0
-789 -1232 -68 0
-1968 -1148 -1456 0
1085 483 -1800 0
-1711 -856 922 0
1795 -1303 -1134 0
-1661 1432 135 0
-1818 -1321 -1918 0
26 -1386 -1611 0
1711 1244 662 0
-990 -460 -810 0
-1028 -1585 968 0
-1726 137 430 0
665 -1207 -13 0
1545 1667 1910 0
1960 687 1391 0
815 -1587 -494 0
-375 930 -1975 0
-1839 -980 -1187 0
-286 -485 1131 0
-477 -1196 992 0
1138 353 2 0
902 -1624 1592 0
-328 355 1260 0
-195 -272 -1551 0
-1945 979 658 0
1247 -1231 -1614 0
-1241 1914 -1014 0
347 1759 -217 0
235 -1561 411 0
-1899 1937 204 0
-1139 1782 946 0
-466 -1486 -517 0
-726 -1469 -366 0
609 904 458 0
490 709 -476 0
-1564 418 179 0
163 169 1423 0
-1379 -1176 -1081 0
-944 932 1479 0
-1818 1798 -641 0
-518 -1225 -1472 0
832 1339 -492 0
-339 1299 986 0
653 -246 -1618 0
-1603 -1671 -109 0
-221 929 -1041 0
941 -1128 -1165 0
1451 1355 932 0
1587 -1779 793 0
-1360 856 1090 0
-598 1809 833 0
1917 216 -1204 0
1933 -1431 49 0
-217 1732 -191 0
-973 175 -1848 0
-492 1105 -792 0
1614 -1655 -1847 0
-507 99 1491 0
-626 1927 -971 0
-1338 -423 -1536 0
-1633 -1303 1933 0
-248 -1824 -1780 0
1174 590 -300 0
333 -1961 -1712 0
-489 657 16 0
980 1561 1608 0
221 -972 -1404 0
1885 499 892 0
-1937 755 -965 0
-438 -1804 -1054 0
-1905 817 -596 0
-1280 -1277 -495 0
872 -951 -1089 0
-1525 1876 -1673 0
-224 1716 294 0
190 792 1770 0
-923 1623 661 0
-734 -1366 383 0
-961 425 866 0
1671 -686 1275 0
563 1725 -1625 0
675 1693 -1281 0
929 233 -1827 0
1572 -36 -52 0
-48 562 160 0
-72 232 1604 0
1727 1657 -104 0
-1141 410 -1738 0
996 1937 1360 0
35 -110 747 0
-1991 1320 985 0
1210 1728 1812 0
-1562 935 -1029 0
-1791 -669 1056 0
198 -849 1673 0
1710 415 -371 0
-1516 -53 -693 0
635 -754 733 0
1173 859 1986 0
-574 1950 1807 0
-1449 943 -732 0
-278 -1886 -459 0
931 -1851 -65 0
701 1217 -1189 0
-403 -808 -1243 0
1665 717 -1768 0
-915 1772 947 0
-930 1119 -1029 0
274 1657 340 0
-1745 441 -218 0
-220 265 1001 0
-742 274 -1560 0
1063 -1024 1317 0
-1856 -1150 -1679 0
640 203 -312 0
883 127 1789 0
-1667 162 1517 0
-291 -1739 1139 0
-1353 -623 218 0
406 -1962 1705 0
-1932 -335 1107 0
-1884 1603 1655 0
496 -638 1644 0
-1298 -194 1965 0
-1762 1445 -252 0
1601 879 1054 0
1095 -475 1617 0
-212 -1027 1647 0
37 337 -1524 0
-1327 935 -1281 0
-1262 -1552 -1538 0
-410 -401 337 0
-1457 606 -607 0
-1168 -1606 -691 0
1695 -1507 -372 0
554 371 -1143 0
377 -38 1897 0
-1861 1476 -564 0
1018 -694 1661 0
-259 -787 467 0
1273 -377 1663 0
1853 876 1617 0
-649 504 -1539 0
158 -1667 -71 0
-1363 1399 162 0
550 -1604 -715 0
176 1498 1332 0
-225 -1466 -1897 0
-719 152 772 0
1075 -461 -1699 0
-952 1980 1755 0
1122 -1054 530 0
1130 1977 -48 0
890 451 210 0
1908 697 1408 0
839 -13 -1723 0
-1210 1476 1150 0
502 269 1313 0
-1900 532 -1310 0
-1553 611 1561 0
1040 1388 -248 0
-1198 188 -928 0
708 -428 -896 0
1890 -1110 -1556 0
-1714 685 -1850 0
1878 60 1362 0
-261 -1806 -1908 0
-1414 -1965 1589 0
-1144 743 1149 0
-150 -94 844 0
-822 1588 842 0
-483 1558 -959 0
-1675 1608 -16 0
-1014 -32 319 0
1286 631 446 0
104 882 -45 0
-1237 -98 -1340 0
-836 902 -855 0
-1827 -1741 1397 0
-24 -720 1751 0
35 1295 1601 0
-1363 570 -1075 0
-1645 -24 -1807 0
35 -1482 -33 0
-427 1700 -1883 0
-849 -1398 -1079 0
-1060 -819 -1612 0
789 -702 -1932 0
-1288 -627 38 0
1470 1197 367 0
182 -1569 -1404 0
-1354 -1089 1484 0
728 1603 1639 0
1359 -590 409 0
-307 -728 -882 0
-151 -1115 1571 0
-1300 -552 1228 0
1371 1466 -1806 0
1005 -936 1210 0
1691 1482 1668 0
-1504 761 -1070 0
-1406 505 1322 0
1204 -665 1539 0
1151 684 -723 0
1291 -1412 -416 0
-1578 -1292 -1002 0
-1090 1146 958 0
1589 -424 324 0
414 -1802 -1366 0
952 1070 1909 0
-874 -611 -869 0
1261 1423 -1828 0
1481 -1737 195 0
1794 1763 1455 0
1057 1047 -1576 0
337 -392 1725 0
719 -9 -1347 0
805 1344 590 0
285 240 -1119 0
-722 -358 -1521 0
-1515 -1145 120 0
1778 563 -1775 0
-334 -746 1955 0
-1981 434 -195 0
1893 1044 1311 0
-475 815 975 0
1036 944 521 0
1178 -1659 -1174 0
1506 1722 1527 0
1561 -846 -1123 0
1248 1274 -1521 0
-1672 1735 1800 0
1797 545 155 0
1159 850 1488 0
1365 1933 490 0
-511 -1138 -1401 0
-1097 -494 -1596 0
823 -466 -198 0
-818 439 1278 0
-1468 1853 1877 0
272 1312 -483 0
-1183 1210 1949 0
936 1163 117 0
-1227 -327 -1971 0
-1646 1662 -529 0
-299 430 378 0
-722 -1880 -1054 0
1767 1296 27 0
498 1751 -1919 0
-1493 1930 87 0
1715 -742 -373 0
-120 23 -373 0
1336 1394 537 0
-302 1787 693 0
-1327 -1165 1480 0
512 167 1897 0
1987 -388 918 0
660 1705 788 0
1851 -1911 1435 0
1418 45 1428 0
-74 365 34 0
-1229 -1499 -1844 0
1828 -1374 794 0
1728 -1908 -83 0
-1339 -301 344 0
856 -1688 1232 0
-13 -779 -660 0
-1286 1966 754 0
-251 -1794 1785 0
-349 -624 1594 0
1931 -1961 -1906 0
-254 1160 -20 0
1246 -1847 1001 0
-620 -1969 -680 0
1376 1687 711 0
-1664 72 514 0
-489 1367 -487 0
438 -1629 1733 0
1376 -895 1114 0
-1765 1433 -392 0
-1930 497 1451 0
-1372 1296 -655 0
1499 1013 812 0
-1550 756 1850 0
1906 1825 -1853 0
1677 1249 -1731 0
714 1012 1483 0
457 459 67 0
-1139 -1404 559 0
-8 1598 -1775 0
897 -1772 -1729 0
-728 625 -1751 0
1719 653 623 0
1473 -1450 -51 0
1191 1992 878 0
542 -1424 15 0
1986 -1761 1807 0
-1903 1248 610 0
761 -191 -1135 0
999 1293 -1198 0
1034 810 -1977 0
140 -217 197 0
-6 -322 -1265 0
998 -124 -1625 0
1223 1237 1102 0
423 949 766 0
-1626 -1584 961 0
467 443 -1539 0
1725 1175 435 0
48 -636 1175 0
948 1885 636 0
-418 1713 881 0
-1725 1153 -1530 0
1796 -1177 744 0
-1406 949 1319 0
1630 265 -15 0
-671 1541 1129 0
833 -836 1881 0
985 472 1992 0
-339 317 -1694 0
1298 -1135 596 0
936 -1776 -1877 0
629 1884 209 0
1760 1404 -844 0
510 -1004 -688 0
-1581 947 -57 0
-402 1892 288 0
979 1772 -826 0
853 1025 825 0
787 -860 -894 0
1207 -1173 -725 0
-1106 119 -1099 0
-1425 1711 1330 0
182 -1998 -213 0
1901 42 -1362 0
958 -1320 -1135 0
-647 -1545 639 0
1114 509 -54 0
191 -839 -252 0
473 -1254 1255 0
28 1786 -300 0
-600 824 617 0
1978 -364 -700 0
1580 -1181 -1535 0
913 -307 511 0
1375 100 1631 0
280 1563 -1713 0
-26 -1799 1700 0
-1819 1830 591 0
-1850 1852 333 0
372 -694 -480 0
706 -1772 505 0
904 -1876 -1603 0
1564 -1850 1378 0
-1644 -1751 -1437 0
-280 -1644 -1655 0
-407 1036 532 0
-1069 598 534 0
1539 1372 -375 0
-1733 466 472 0
1918 -1118 -481 0
-644 1734 -980 0
1882 739 -1448 0
1392 640 732 0
953 -279 895 0
-1149 968 -1926 0
562 1539 -488 0
1413 1617 -462 0
-273 -1298 -376 0
-522 1116 273 0
1253 890 456 0
-278 410 1786 0
258 761 147 0
813 -470 -1547 0
1187 -127 1135 0
1433 -28 1665 0
44 -830 488 0
1963 986 1156 0
1867 1064 968 0
1289 -1290 -36 0
67 -387 -29 0
1352 -1625 -1099 0
1710 748 -27 0
1810 -263 747 0
1566 -45 1594 0
-35 1574 223 0
436 1430 -1398 0
-551 331 -335 0
840 97 864 0
-1375 -1474 -139 0
-1996 -444 -997 0
1153 -1036 -1808 0
1881 1876 -978 0
-455 696 1877 0
503 227 1738 0
1076 1100 233 0
951 116 385 0
1303 1098 451 0
960 932 -1333 0
329 -1878 1984 0
1672 -562 -13 0
1664 331 -235 0
539 471 1161 0
773 1250 -231 0
-1328 -378 -1983 0
59 -1090 -1210 0
-887 -154 254 0
-871 -1595 1844 0
-764 1704 110 0
1527 -909 1735 0
687 890 1221 0
-801 -1871 -777 0
-804 1425 349 0
194 1590 1159 0
-657 811 946 0
1968 -174 245 0
-852 497 -686 0
-893 1423 -619 0
1472 -878 -1807 0
-105 909 1107 0
738 -930 -1365 0
-753 777 -834 0
-1558 -1491 -184 0
1248 995 1149 0
-79 -1066 402 0
-1738 570 590 0
1583 1814 -406 0
-1484 -1033 -627 0
-530 -375 1951 0
-334 1473 1171 0
770 603 1659 0
626 -637 -247 0
517 -1310 -316 0
1315 285 1784 0
1604 -1668 790 0
1626 821 -264 0
-1335 430 1331 0
-1082 1723 -1442 0
1974 1138 -1552 0
460 753 1862 0
-842 1315 -1309 0
-77 -1081 1288 0
-217 14 -1395 0
-343 -1884 326 0
-1386 1796 1881 0
1471 1137 -1865 0
-5 -1985 1137 0
-1034 790 -439 0
-1069 305 1796 0
1730 -117 1322 0
-209 -1867 -941 0
-854 -1437 1701 0
1281 288 -1779 0
1791 1885 -548 0
953 -245 -1004 0
119 -597 262 0
-1815 -535 1530 0
1210 499 -695 0
1358 -1552 -991 0
971 -341 -1681 0
-744 -1201 -1757 0
-159 857 1676 0
1100 -1292 -171 0
1826 -1147 -1345 0
-1253 -706 -972 0
287 778 -1467 0
16 -1394 1010 0
322 1561 -1689 0
1486 617 -475 0
-607 -1877 1571 0
1458 -865 -1875 0
-127 -768 449 0
-673 540 1285 0
-1977 -1687 146 0
-390 1400 -1801 0
1141 511 411 0
1802 -1019 -347 0
1459 625 -1024 0
1049 254 1800 0
1205 200 896 0
1252 381 -460 0
-1761 1260 -482 0
-1260 -453 -160 0
-627 -1587 -1021 0
1594 601 -1429 0
806 -1452 -1406 0
-585 -1069 -57 0
-432 -1549 198 0
625 -1050 -1821 0
-28 1296 -478 0
719 -176 299 0
1380 -329 588 0
-1305 345 881 0
-379 316 1322 0
1763 -1051 -1012 0
1979 -1370 -1870 0
-125 1602 1343 0
198 -612 1905 0
735 402 -628 0
499 1585 -1012 0
595 232 297 0
-1813 668 331 0
-271 -1255 718 0
1318 -1329 1048 0
1184 976 -1607 0
-1084 1417 1896 0
-288 -1600 -1417 0
-1879 828 523 0
-1327 121 -1318 0
-1917 -857 1554 0
96 -1819 798 0
912 -867 -1147 0
-1556 1580 1513 0
1346 692 1721 0
-1493 -939 120 0
-1597 230 1237 0
-1110 -666 -841 0
-1693 484 -234 0
-1176 1761 -1089 0
489 -1759 -594 0
758 -904 -485 0
1799 308 -761 0
1404 138 1369 0
-359 1526 1488 0
1241 1780 -1071 0
-1661 -20 1297 0
-65 383 841 0
-95 -1741 -503 0
654 1021 -1251 0
-1182 526 396 0
1818 -1643 -947 0
-1101 -707 -147 0
162 1594 -301 0
505 -1229 1939 0
-181 -969 -1156 0
1006 -1984 -775 0
1831 -818 -1162 0
1412 -1682 -768 0
770 1725 345 0
1700 1694 -717 0
1539 -979 1211 0
-1725 1989 -1196 0
1693 510 910 0
1087 -1350 -1031 0
-748 -1343 1572 0
408 -1281 1397 0
238 1652 -1619 0
-1127 -1766 373 0
274 -1087 1597 0
-159 -684 -825 0
-1695 1308 1916 0
-1972 -1717 515 0
-746 -1848 -682 0
1920 -975 -1392 0
356 -619 -945 0
-1553 -1654 -21 0
614 616 -371 0
235 297 -1029 0
1543 -1253 -1663 0
-1567 1352 1700 0
1516 -144 -507 0
-459 1198 393 0
-1995 1054 1269 0
-1514 1603 -1954 0
-962 -1739 1320 0
-1106 1460 1996 0
302 1459 -90 0
-1076 -341 -1733 0
-1744 -1649 1462 0
1567 -1125 -1271 0
-40 -1168 -508 0
24 1707 1100 0
1112 -567 -729 0
-878 -116 1982 0
-709 68 1558 0
-441 1992 -681 0
305 988 -1185 0
1034 231 -826 0
826 -1344 1319 0
-1874 1444 1092 0
435 842 -344 0
-1550 -1773 -583 0
1058 -1835 1605 0
-1836 1063 -574 0
-193 -1743 1332 0
516 -136 -1876 0
-243 -1205 -221 0
1111 214 826 0
-337 1224 429 0
-402 936 1469 0
-1379 -1148 1221 0
190 318 -910 0
1793 -1138 -1663 0
499 810 -1451 0
1957 -1727 -741 0
1656 -198 1124 0
-216 994 732 0
-1226 483 -1975 0
772 1859 -412 0
-1776 -1261 -1322 0
1007 1619 -1904 0
858 1348 -222 0
1288 1705 -1958 0
1551 -1910 -1613 0
-277 -1654 1686 0
982 491 1112 0
1370 -1794 -1356 0
267 260 1210 0
751 -1711 1422 0
1791 -1162 203 0
38 -52 1617 0
-1 991 411 0
1363 227 -1403 0
-445 -1246 1812 0
-14 -1821 824 0
-1918 1610 -859 0
-1189 -1158 -57 0
1564 1069 -1061 0
-1295 385 863 0
374 -159 -1456 0
386 1654 -1029 0
-1262 1561 -1239 0
1901 -665 -1110 0
-737 -248 640 0
465 1596 -585 0
-796 673 1108 0
-1125 1579 -459 0
-1792 716 1020 0
460 594 -734 0
1535 301 106 0
751 -1324 -1082 0
404 81 -1719 0
-207 119 -1604 0
-687 129 -648 0
-15 -1521 432 0
1442 -1292 1398 0
1487 999 -13 0
-735 1950 1687 0
1601 -997 205 0
1088 -858 188 0
-1242 -682 284 0
-293 -433 -1313 0
891 1249 -1303 0
-499 1622 5 0
-1349 1811 1555 0
-1788 1736 -1184 0
-1108 -1604 1504 0
-829 -1729 396 0
208 1847 1748 0
-486 1417 -1251 0
954 -505 -1511 0
-515 102 1053 0
1128 -1690 650 0
-713 1008 974 0
-943 1722 -584 0
1510 -1237 634 0
1098 688 351 0
1098 845 1973 0
-627 -1688 755 0
-132 -1073 642 0
-843 -529 1298 0
442 -1604 1162 0
1442 -1471 996 0
-462 -1653 1933 0
-400 1411 123 0
143 1046 750 0
-477 -1583 -1820 0
465 -1281 75 0
814 -836 787 0
900 116 -675 0
-160 -1499 -1235 0
1647 -52 115 0
36 491 1491 0
-318 -1934 -1067 0
-1415 1371 -1425 0
-372 -298 -1230 0
556 557 -1913 0
-1117 -58 1573 0
1563 354 -1734 0
-1894 1878 914 0
1018 -1519 -809 0
-1011 -1485 1816 0
-924 1957 1498 0
-1278 308 549 0
-886 -922 -1019 0
-1128 941 1022 0
-499 1205 1527 0
652 384 -588 0
-104 -1209 733 0
1589 1732 1547 0
-520 1023 -1353 0
-711 792 -184 0
999 -308 867 0
-824 -642 -724 0
153 -514 863 0
-1545 -826 1955 0
-889 -1715 1775 0
-1208 683 -1121 0
-1223 -1577 -1419 0
-290 -1269 -1783 0
1897 339 317 0
-130 -1395 257 0
-1923 1062 406 0
1522 213 1603 0
-935 -754 -1814 0
-1262 1685 -1155 0
370 -925 -1611 0
-1262 -329 -1567 0
-902 761 348 0
1317 -485 731 0
1366 1680 1067 0
-441 1502 1225 0
-1451 -1251 -1210 0
1616 -1099 -1240 0
-909 -643 1855 0
-808 1986 -164 0
626 -269 -182 0
661 -106 -679 0
733 -788 321 0
1960 -1468 584 0
-82 -872 14 0
-546 -68 -1798 0
-246 -1359 -852 0
-1750 -285 -653 0
1396 253 1389 0
-1772 -241 -496 0
-458 1604 -1009 0
70 -1337 775 0
-48 -64 474 0
-25 1730 1210 0
-364 -811 1958 0
-1508 1821 -1640 0
616 1331 1012 0
1779 1998 -62 0
-271 169 -437 0
-1612 -1520 355 0
-316 1120 -1646 0
-498 1444 737 0
554 -354 1461 0
-326 140 161 0
654 -227 545 0
3 -1932 559 0
1716 702 -1982 0
1992 -854 929 0
-1341 958 -1807 0
-403 189 -1818 0
1942 1535 -953 0
792 1340 530 0
-1488 -525 275 0
-1423 -625 776 0
-1352 -1853 -159 0
-1176 -1751 -887 0
1407 -1978 169 0
1504 275 -430 0
-734 -828 -452 0
-1565 1163 -497 0
-858 2000 -1011 0
1959 1261 1890 0
905 -404 1865 0
516 1380 1571 0
-255 89 849 0
640 1062 92 0
-1603 1727 687 0
382 -1641 945 0
44 -1488 -1061 0
-1277 -1944 477 0
155 982 297 0
1024 567 -1017 0
30 67 -1913 0
243 1680 879 0
1160 557 -174 0
-508 -38 -1419 0
149 -1715 -682 0
-1101 147 993 0
1846 -1968 1117 0
-1834 -722 1057 0
1430 -784 840 0
1560 1632 1118 0
340 367 -1951 0
1932 308 353 0
-40 -252 1413 0
834 1497 -1458 0
507 1730 617 0
-1645 761 1792 0
-1178 -1905 -281 0
1904 -1198 871 0
878 -905 574 0
-951 -1939 1916 0
-60 1198 387 0
-628 -1843 -1840 0
1461 -532 811 0
1760 -1324 1750 0
-1076 -230 -1773 0
1086 -1267 -1364 0
-463 1281 1594 0
270 -1572 1782 0
1051 1850 168 0
-270 -112 -266 0
-1370 1359 -1126 0
387 302 -1517 0
-1542 1751 -1487 0
-1105 -1439 -1375 0
306 -1551 -1837 0
-1634 1650 738 0
-1213 -721 1526 0
797 147 1643 0
1328 581 1305 0
-1952 -1670 1275 0
315 1460 1883 0
-1239 -1343 869 0
-1903 -854 -1025 0
-1768 -1031 1095 0
1300 368 260 0
846 -1417 58 0
1366 195 -1261 0
828 877 892 0
398 -464 -1932 0
-1535 -109 -1370 0
354 -830 -1243 0
969 1192 -922 0
-1237 -631 1534 0
-472 5 -1980 0
-644 568 -1525 0
1960 -140 -1383 0
-1250 470 -1112 0
1866 -165 1565 0
1036 36 -29 0
1399 -1299 1565 0
285 901 -823 0
-1075 1820 418 0
1850 1076 -999 0
-1860 789 -991 0
-1041 1397 1804 0
1274 446 -1841 0
1220 1293 117 0
-1573 -887 1851 0
-497 -1126 1645 0
1633 -1433 -1551 0
1496 295 1515 0
-393 -1601 1772 0
-109 -728 522 0
537 -427 1630 0
-1791 1952 777 0
1314 -1467 1365 0
1152 691 -738 0
-375 1031 1126 0
1362 -1766 1731 0
-1711 1623 1476 0
-415 1348 1642 0
77 1270 -799 0
-1106 1898 1666 0
-66 -1758 378 0
-98 1212 104 0
-79 -1684 -1726 0
1583 689 785 0
245 390 531 0
1585 93 -1784 0
298 409 1621 0
202 -1345 119 0
-1481 -1340 165 0
-1563 957 -167 0
209 289 927 0
-1389 318 -844 0
956 -1634 205 0
-976 -1227 296 0
-1061 -1514 557 0
-923 -908 -491 0
-1287 1346 1687 0
823 894 1584 0
-850 1634 1393 0
1043 1653 -1170 0
-1581 -1929 -1549 0
1755 1877 -313 0
-637 -1788 1142 0
-304 -1460 -1481 0
-819 712 898 0
-759 -945 -835 0
997 -553 1254 0
-143 1297 -1853 0
617 1980 1345 0
1251 -306 -459 0
590 -756 -1505 0
-613 1442 -399 0
-527 702 -196 0
-1338 -71 -1420 0
1376 -1039 -1308 0
-1679 1229 609 0
-1463 -568 -317 0
-1271 30 -1076 0
-490 -1590 1009 0
-29 -1518 -1797 0
242 387 -912 0
-456 -329 -821 0
-164 1230 -404 0
-1902 -1171 -915 0
-487 839 -1811 0
-1262 1417 -845 0
-470 -1428 -1118 0
1726 -737 -1522 0
-138 142 -563 0
-516 -688 -90 0
1142 1108 -40 0
1862 -209 -1902 0
1669 -30 963 0
862 -1438 -576 0
-1088 1718 -621 0
709 39 165 0
-469 574 762 0
207 1511 -1399 0
-813 1136 -158 0
1120 -1992 1153 0
1027 1597 -1598 0
-489 1363 -207 0
-1483 -277 271 0
-686 -655 289 0
-1580 -1378 -644 0
317 62 104 0
1577 -612 10 0
-56 -294 -931 0
-207 628 1410 0
1525 -321 -299 0
1761 403 -1305 0
-1748 -1684 -1591 0
-1129 1432 91 0
1157 774 1477 0
-549 433 -563 0
-972 891 -988 0
1930 889 334 0
195 1888 -168 0
1560 -1716 -305 0
721 -1861 -1265 0
-897 -1250 -332 0
-464 47 1053 0
34 1699 499 0
946 -1548 1488 0
1355 -833 -244 0
1691 -245 1483 0
1323 -299 -1688 0
53 845 -67 0
-243 -698 249 0
-277 -432 498 0
583 -248 -1965 0
-625 -516 62 0
-1339 93 1840 0
-1386 -1297 -731 0
586 1966 1523 0
633 1139 -495 0
-753 1765 1237 0
344 837 -450 0
-725 215 432 0
862 -96 814 0
66 -993 174 0
783 1914 -457 0
-100 -117 1581 0
-513 82 -1588 0
-581 2 -685 0
1993 -317 -1719 0
1261 1626 255 0
630 -899 842 0
1365 -1489 -577 0
1496 1826 -367 0
1448 -408 51 0
601 -968 -751 0
1068 -1607 -356 0
-969 -1652 1777 0
-139 1631 -1028 0
-1780 1080 1267 0
1584 -732 -1273 0
-1802 1545 -1200 0
-1011 375 -1517 0
188 -575 212 0
-1608 -770 1938 0
890 1593 -1310 0
-94 -1492 -1512 0
1082 -267 -1258 0
-601 -1990 1031 0
266 1387 954 0
48 -131 927 0
1399 800 -1253 0
-1042 -1605 -481 0
86 -1155 -1518 0
1932 -322 181 0
1066 1125 -1334 0
1076 -59 631 0
-963 1166 196 0
692 1418 -342 0
947 -277 -164 0
-667 946 -289 0
-434 1851 -39 0
-1190 1390 -1585 0
878 83 664 0
-172 -659 1995 0
1194 1645 1664 0
1595 1540 -29 0
1264 -1624 -1947 0
-855 67 -1265 0
-938 669 -1039 0
821 535 -1498 0
154 -161 -780 0
1401 1357 -1758 0
315 -967 -289 0
-967 1809 -353 0
690 1582 53 0
-741 -888 2 0
-1156 -1818 1690 0
-1255 -1211 1855 0
1773 485 -50 0
-347 -1054 1417 0
-1525 1497 -716 0
-1715 -1115 -1072 0
740 -722 1926 0
-1067 1335 -760 0
1402 -752 814 0
-498 67 -1672 0
-1907 1216 -965 0
-277 -1281 622 0
-1078 1816 -728 0
314 790 994 0
-574 -1984 797 0
1593 1958 -1670 0
-806 694 -973 0
1434 1391 -1465 0
-112 1127 1562 0
1695 860 1387 0
376 1472 -1645 0
-36 -1192 -1615 0
-290 -500 -1974 0
1297 656 -467 0
-958 1447 -749 0
1549 -1496 -1934 0
1945 1774 1677 0
333 -276 602 0
1144 -1884 -636 0
-572 891 -446 0
-1691 678 -1122 0
198 1412 1133 0
-150 1770 -1502 0
-335 1992 454 0
539 -452 571 0
1928 -1553 -248 0
-1616 572 1458 0
-1712 1995 -986 0
-886 530 -47 0
-1716 983 1589 0
-23 -1892 -1860 0
-1068 -1804 1635 0
-1748 1142 -128 0
593 -454 1692 0
1816 912 260 0
-1475 927 -495 0
1669 -1192 -1729 0
666 695 487 0
1823 1017 853 0
390 -1031 -1002 0
-511 382 517 0
1746 -1383 -566 0
1708 -436 -1323 0
1998 1741 -1643 0
-720 -1116 1266 0
-1843 850 -1897 0
1092 -1679 459 0
1100 400 -1948 0
-1321 -1839 -740 0
-923 1483 1794 0
-1498 1871 1399 0
1520 -1754 876 0
450 303 -1376 0
-1048 -1482 366 0
-1143 811 1900 0
-379 1406 -871 0
893 857 420 0
-528 -297 532 0
1811 686 1141 0
-412 -259 783 0
114 -819 -206 0
1776 205 -1830 0
-856 1570 -1997 0
415 821 640 0
1447 327 1575 0
-719 1134 135 0
-1842 1110 -1168 0
1922 -1481 1917 0
-1257 -1938 -1759 0
1140 257 632 0
779 -409 -516 0
-1668 -1266 1029 0
-1147 -767 -528 0
-1052 -935 766 0
-238 1761 -1285 0
279 1948 1566 0
-1885 1358 -1182 0
-423 1787 -815 0
-707 1945 -301 0
881 -1937 1535 0
373 988 1511 0
301 -1982 1029 0
867 885 1883 0
-1731 -1363 -1883 0
-670 -233 944 0
-1981 -1173 354 0
928 -478 -1203 0
-435 1131 -1449 0
1768 113 -774 0
-1449 -46 -169 0
249 1242 1793 0
-971 -186 969 0
-1533 -1195 1151 0
-1877 -59 779 0
-330 1867 -43 0
-1959 27 -305 0
252 1985 87 0
-1182 -1788 1938 0
1406 -1422 970 0
-1634 -1776 1204 0
1151 -1052 1130 0
1293 -999 -1990 0
-880 149 1219 0
1002 1180 1785 0
-1942 -1385 -1033 0
-362 -891 -1015 0
-400 -472 4 0
1700 -819 -1046 0
529 429 700 0
369 784 553 0
-1994 1064 549 0
261 468 1217 0
1263 -1170 -1276 0
383 1994 1147 0
-802 -710 911 0
1517 -1259 -1728 0
-1367 1832 -729 0
-1357 301 561 0
792 -755 -833 0
-6 1051 1249 0
1956 188 -1234 0
537 157 -481 0
400 794 985 0
-1943 657 -129 0
393 -1042 -465 0
-1564 -1981 441 0
-1283 -1062 -244 0
-1404 -1104 -219 0
775 81 1795 0
-1022 484 218 0
-994 -1236 -57 0
125 -38 1164 0
240 -1430 477 0
1313 622 807 0
-1354 -1165 1786 0
175 -337 -1118 0
-1748 1041 -283 0
1992 -1495 1325 0
829 -1342 1120 0
28 -852 -367 0
-89 -435 -1108 0
1033 261 715 0
-1003 111 1750 0
759 -1043 -1378 0
1256 914 685 0
-210 -1774 -1513 0
1832 -1126 -1564 0
601 -1470 469 0
558 -1447 -636 0
-1821 1339 -951 0
-96 1860 116 0
451 -314 923 0
-1431 1466 -1645 0
-1999 -1138 142 0
984 -1282 -421 0
-404 869 1874 0
1164 1872 65 0
-1536 -1618 -555 0
-280 -271 779 0
-1523 1895 -639 0
-1209 144 -798 0
-1312 651 -1839 0
192 -1115 366 0
-555 -1978 -1973 0
-1747 1879 -1650 0
-1661 -1625 300 0
366 1927 1765 0
-1512 730 -1599 0
-1231 -783 84 0
-1438 -87 -1598 0
-558 149 -21 0
-1384 1096 883 0
9 -720 583 0
-134 1489 -1020 0
1120 416 1406 0
-1332 1167 680 0
200 -816 -1955 0
-1851 -117 -1013 0
-1469 -788 -1543 0
-1922 1470 -1694 0
361 29 -584 0
-640 -512 -508 0
-1492 673 38 0
-464 1469 -126 0
1748 1047 836 0
1824 -1255 212 0
1095 285 1672 0
-1990 -788 1241 0
-1905 1534 542 0
1709 1806 1478 0
-630 1444 1156 0
-1256 -483 1539 0
138 -592 -109 0
-44 1314 -1882 0
261 945 -381 0
-953 -642 -1120 0
1673 782 -1601 0
1271 370 1028 0
301 -1324 977 0
-125 -651 -158 0
522 997 499 0
-1848 -1333 927 0
287 -1683 1534 0
-1627 861 -393 0
768 877 339 0
-445 1945 -1479 0
-251 1957 -1453 0
600 1023 867 0
225 1881 1312 0
919 26 1515 0
1978 -237 304 0
1917 327 432 0
240 -1632 -1643 0
-1248 772 -1391 0
21 -1880 831 0
-544 -1276 -1577 0
-711 1518 -1740 0
1405 -1123 500 0
-1388 1496 1711 0
-637 -666 398 0
1649 827 -1273 0
-1202 -1572 -633 0
1332 1056 -30 0
-225 964 631 0
693 483 58 0
649 1162 314 0
-1276 -318 -1022 0
-1155 -1813 1389 0
-516 -370 410 0
655 -398 -1814 0
-108 -1148 896 0
214 524 -900 0
-903 1642 -37 0
-1616 -1499 1981 0
-748 1235 -64 0
1345 1812 -1445 0
-1867 -1322 1245 0
-1628 -413 1977 0
-230 -1285 -185 0
-700 1753 1224 0
-649 -1533 -1759 0
-1638 1476 -1904 0
-533 826 -440 0
1436 -1171 1876 0
1132 1708 1879 0
37 -613 -184 0
-1769 -327 -1301 0
126 1973 -1860 0
258 -176 1204 0
-398 763 278 0
1989 -537 175 0
499 1963 -830 0
-1756 -684 -1591 0
-1542 1633 381 0
1557 -782 -1798 0
1377 240 543 0
-1436 965 1447 0
1441 546 -280 0
13 -1571 1610 0
396 645 1221 0
1016 -1856 308 0
-59 4 -1401 0
1110 1499 -91 0
-213 -63 979 0
1589 63 -1925 0
-995 -1424 1231 0
-847 902 1996 0
-776 -98 577 0
-1330 1740 -1237 0
-1025 -428 -124 0
-1812 -588 -1350 0
1147 -1827 -1069 0
1581 -1287 68 0
-1956 1529 -510 0
1449 -1254 -61 0
320 1593 -999 0
-1005 684 1225 0
558 1983 -1933 0
58 627 -1366 0
558 1193 -765 0
-287 -852 -1401 0
-844 -1004 -1990 0
1164 -1413 -1003 0
1865 1738 -488 0
932 -1868 -453 0
-751 -1154 693 0
-138 1427 559 0
285 -728 -1238 0
-1554 1937 318 0
90 1630 -1951 0
-1201 505 -122 0
-889 -1931 -382 0
40 928 -374 0
-778 431 535 0
259 -1665 1941 0
-39 -661 -977 0
-180 1011 1957 0
855 1990 1222 0
-884 126 684 0
835 1924 1311 0
1452 -980 1441 0
1717 -1995 -1512 0
362 -1098 464 0
1123 1637 1288 0
1709 -1514 289 0
1276 114 641 0
1588 1113 -1143 0
-542 1293 -210 0
206 1579 -38 0
1134 -1106 1850 0
269 -1571 -1130 0
-1977 -706 331 0
-1999 -823 1735 0
102 -1142 -1925 0
1216 1431 -1298 0
-1372 908 1827 0
1666 11 1368 0
410 -1713 -778 0
1605 1421 1677 0
-1088 -7 889 0
-64 1782 1946 0
-402 938 1631 0
-212 411 621 0
1404 -68 1687 0
1233 421 1272 0
-1522 -1762 1963 0
-1063 -56 914 0
1295 962 1495 0
961 677 1863 0
-343 1814 1766 0
-1418 1271 -157 0
6 -1110 -969 0
781 -1443 241 0
-563 225 499 0
-1914 -32 321 0
-1192 828 750 0
1175 1541 1911 0
1417 -1320 354 0
-239 -1418 1245 0
580 316 -98 0
1457 771 -1994 0
-218 1832 -690 0
1636 1629 -840 0
-512 1224 1383 0
567 -184 -664 0
1024 558 661 0
1645 1140 1102 0
191 281 -377 0
-1469 153 370 0
872 1402 480 0
-1045 250 472 0
663 916 1641 0
1615 216 -508 0
-1238 708 -1487 0
427 1066 -330 0
-473 373 1695 0
1357 -846 -262 0
-686 -1805 -1679 0
1533 1499 1743 0
358 1131 -1217 0
-389 1451 -615 0
1834 -590 -1050 0
-1213 209 -609 0
-415 1999 -73 0
1404 1766 722 0
1565 896 925 0
826 79 -1592 0
-989 188 -1476 0
-948 -1184 478 0
422 -548 1433 0
1764 -1144 949 0
-1078 -358 360 0
-184 -792 741 0
1216 -736 1736 0
-435 -934 -275 0
1607 136 -1366 0
-921 1340 854 0
-1643 919 482 0
-448 -1165 -1670 0
1285 -245 493 0
-1010 -968 -1838 0
844 -1776 -1259 0
-491 168 1035 0
-1133 1716 1290 0
1332 664 773 0
202 841 -303 0
1445 236 -916 0
990 -1617 1078 0
100 -1921 -1314 0
-1472 1692 998 0
243 63 -1020 0
-1519 128 1878 0
-1864 223 -864 0
1855 362 1317 0
1615 -264 -1871 0
-778 -1527 -1204 0
-1058 -12 -521 0
625 -150 -501 0
1356 558 1805 0
411 -1211 2 0
-143 1398 317 0
205 -1647 1519 0
1659 -260 1692 0
-323 1229 -1343 0
1984 342 -1839 0
-196 -58 -1814 0
1804 1988 559 0
1144 1870 -472 0
-606 -672 -1817 0
1632 -1856 -1367 0
1091 1636 1601 0
-1128 33 -29 0
1229 -1173 -1969 0
-526 538 -1681 0
-973 972 688 0
-1585 185 829 0
-593 628 1792 0
873 -162 744 0
1136 1989 -1062 0
1613 -22 -1896 0
-312 1414 -1500 0
160 1339 -1291 0
1127 1459 -1392 0
111 837 1362 0
1963 1789 -361 0
-413 -1507 -141 0
-1602 977 1717 0
690 1621 -31 0
1428 592 610 0
-615 -25 1310 0
946 1661 951 0
-890 -707 852 0
-846 1406 1553 0
-731 1326 621 0
862 955 566 0
-270 1021 1423 0
1994 1341 904 0
-219 1218 -686 0
-130 -666 1243 0
-1004 -1113 1552 0
-1270 -517 97 0
89 -1738 319 0
-756 -1617 1120 0
-1988 -1888 1998 0
1735 64 -715 0
-776 -1220 -1745 0
983 771 -1441 0
-105 1194 1135 0
4 1233 -1677 0
-1378 1134 1586 0
-1906 693 -274 0
809 966 -82 0
1636 -1503 -180 0
-226 -1371 -547 0
-131 468 1787 0
1622 -340 -410 0
-4 1678 -660 0
-1455 -1820 -1436 0
737 -1934 -1373 0
-1664 1420 797 0
-865 989 -1466 0
1830 1433 801 0
1684 -203 -566 0
-32 -362 1322 0
68 663 1633 0
-1812 -911 33 0
1130 1486 444 0
864 277 -1821 0
1950 841 1987 0
419 1585 509 0
-487 1799 1254 0
-1375 282 802 0
1477 -737 1193 0
1275 -1265 -1735 0
1209 22 41 0
-1055 -419 98 0
1328 -1657 1224 0
912 -607 -1853 0
-604 520 844 0
-1398 626 1069 0
-1546 513 714 0
-1058 -615 899 0
245 128 -1464 0
-1701 1156 819 0
-274 401 -214 0
1893 1160 -91 0
-553 1320 211 0
-1575 33 -1115 0
71 -1380 -773 0
857 1937 1439 0
-1414 1107 -1339 0
186 1773 1753 0
529 -1460 -833 0
227 1795 -482 0
-85 263 -1494 0
766 -983 1511 0
407 -1488 500 0
-1242 -261 -1716 0
-190 1650 1225 0
-617 -1504 -670 0
-1509 858 672 0
1683 -734 -56 0
-1833 -763 78 0
100 -1335 104 0
-1350 -415 762 0
-1281 -1657 548 0
1222 -344 -1661 0
592 361 -199 0
-1898 -1839 1128 0
984 -1216 -1579 0
-83 60 1176 0
1219 1277 -601 0
1098 -1216 902 0
755 -265 -1885 0
1873 -1227 520 0
-840 -926 -1000 0
-524 452 145 0
-1841 761 -175 0
-919 -1719 -510 0
1908 -1240 -1 0
285 1015 577 0
-1341 -1634 628 0
990 1780 -86 0
1379 1491 1361 0
-1949 -327 1056 0
1545 1426 -1452 0
-1994 -412 462 0
16 -52 -310 0
1147 188 -1003 0
-792 -1583 1767 0
-626 -1543 183 0
-532 1033 1546 0
575 1591 1282 0
-1546 561 -369 0
-1351 -303 -505 0
1363 -483 -332 0
-1976 -1847 -20 0
588 -843 -1034 0
1969 1081 558 0
-749 -1091 -143 0
-218 1087 1024 0
-570 1844 1113 0
-332 -1407 1976 0
-1721 471 1057 0
-1276 -63 -252 0
1168 -458 -725 0
1535 -14 386 0
-1652 -1116 136 0
-99 -1391 -1116 0
-1391 -718 1235 0
-1320 64 -1485 0
731 -1318 -390 0
-1946 -1053 -512 0
107 1079 1097 0
650 1263 20 0
525 879 -502 0
674 211 1485 0
-1480 571 -955 0
478 92 -1697 0
1183 932 -1110 0
973 126 516 0
-1484 201 -251 0
-1223 1914 -336 0
-761 -747 243 0
-1781 629 -1030 0
219 1983 7 0
455 -1798 1112 0
385 -957 -1228 0
859 -1750 -605 0
1869 -1997 1642 0
-56 -492 -421 0
659 -1052 -1144 0
1223 -1438 1592 0
269 1300 -1992 0
-23 861 969 0
-582 -1078 1786 0
-802 -1918 -861 0
218 -959 1374 0
1959 669 1822 0
-366 1208 -1901 0
-1367 1499 1961 0
1287 -1329 -322 0
744 980 857 0
-1255 47 1968 0
-1266 581 904 0
-1616 221 478 0
-1239 1195 -1250 0
411 1867 -1787 0
-1555 -101 -741 0
-934 214 1318 0
-1975 1484 -8 0
-1431 -358 -1751 0
1122 625 895 0
-348 503 910 0
884 -1818 -808 0
1374 400 -1907 0
875 1711 495 0
-510 -1684 -1581 0
-73 -897 -1066 0
626 1898 -970 0
-1798 857 -1392 0
1291 -1042 1136 0
-1647 554 1517 0
-55 1933 333 0
-138 -1743 -439 0
-1782 326 -927 0
-1988 -632 789 0
-412 -1917 -1430 0
1371 -419 -1467 0
-1720 1861 713 0
1000 624 1902 0
-360 1875 1398 0
1777 1983 304 0
-110 1116 1965 0
1669 157 -829 0
-324 560 1530 0
1023 1496 690 0
1103 -723 137 0
1504 -1315 -1314 0
-1491 1028 1231 0
1940 -1053 -1725 0
1664 -354 1600 0
1399 -600 1183 0
-1373 -755 140 0
-345 -141 -1984 0
-1725 639 -759 0
-38 -1245 383 0
1739 -1359 -395 0
-1274 -1714 1836 0
1486 -781 -1106 0
-821 819 -1103 0
-1074 5 -620 0
-1530 1692 99 0
-794 950 -90 0
-125 -797 -744 0
-1710 102 141 0
-1040 932 -761 0
-1294 1106 571 0
-1421 1089 -1526 0
1086 -1269 1463 0
927 -1450 -787 0
-698 307 -235 0
499 -1025 -227 0
386 -693 -1984 0
-1966 1282 -653 0
-989 -672 1053 0
984 -274 -716 0
729 -1300 -320 0
-1381 1294 -1829 0
1369 -1517 266 0
-166 134 -46 0
1689 1759 -1448 0
-1969 -1176 -60 0
-425 1194 -1476 0
-453 -103 -1790 0
1787 1881 -1113 0
-815 1957 -1249 0
711 -1132 -1594 0
1884 -1666 904 0
-668 106 -888 0
1998 -762 -1560 0
-1519 607 265 0
-674 757 -869 0
-1081 -1059 1094 0
1696 -1005 -849 0
-157 328 -855 0
-1115 66 -1831 0
-1762 158 1604 0
1671 -484 -1713 0
217 -342 1579 0
-1453 36 1560 0
-309 -131 426 0
-929 -1077 1453 0
794 1316 -1502 0
-428 -1610 252 0
-846 -315 1465 0
-1314 -920 393 0
-416 1768 -981 0
-1301 -838 -231 0
-1032 1482 1842 0
-492 691 -137 0
31 1513 -1771 0
531 -1345 171 0
1575 -244 740 0
-19 114 1607 0
-403 -905 475 0
197 856 1126 0
1735 1443 1306 0
260 265 -867 0
818 -203 1270 0
667 1022 -388 0
315 -1955 -1164 0
-741 1253 -285 0
1391 -269 -1525 0
1946 12 -426 0
827 1065 -1541 0
180 -1142 367 0
-1248 1144 -253 0
1696 374 -1251 0
-1234 1373 -1162 0
-210 10 528 0
1729 -1046 -1742 0
731 -1012 -535 0
-1282 7 563 0
-474 -1936 1221 0
218 -1807 -1769 0
1368 189 -1643 0
1284 -1019 -1635 0
558 -330 1962 0
1266 1781 -778 0
461 1181 -567 0
-1746 -130 6 0
-1219 1217 -1730 0
1276 -797 -520 0
-752 176 -1833 0
631 -1959 354 0
195 907 -1934 0
319 1502 -1623 0
-1483 668 -1651 0
-1327 -1971 -1642 0
214 -485 -1701 0
1264 -1490 1331 0
-1183 -1854 575 0
887 1809 -1531 0
-1790 132 -333 0
-1242 1074 -863 0
1010 1814 -676 0
-216 -844 661 0
-364 1145 1712 0
-1017 -458 -361 0
-1705 -1423 -1056 0
1462 402 -1115 0
-1198 494 -491 0
1079 -1949 -1583 0
1837 -1258 670 0
1662 -728 530 0
1649 -582 234 0
968 1757 -102 0
1462 706 -1883 0
994 1171 898 0
-447 733 -673 0
4 225 -1168 0
1741 -1325 -1056 0
-1803 -1620 -1360 0
1733 1018 -15 0
-438 1954 389 0
1401 -1134 645 0
-1147 1047 -1641 0
962 545 1966 0
440 227 -862 0
-1468 -945 -444 0
-1251 -1986 820 0
814 359 1195 0
-1326 321 -1250 0
-1694 -1374 -1382 0
-273 -937 1405 0
-1106 781 -1736 0
-1062 -254 1443 0
-1623 -254 925 0
-1828 -1074 1225 0
524 -862 -313 0
1255 -743 541 0
-65 -1311 -243 0
1294 71 506 0
-226 -707 -1941 0
-1569 16 -1492 0
-624 1379 -1060 0
-1354 -372 834 0
1400 -9 -1017 0
1700 -992 1264 0
-64 1002 -35 0
-924 1277 -134 0
1847 993 -1707 0
-1158 523 470 0
1345 -190 1913 0
1108 -383 -1769 0
-1736 -1014 -314 0
847 -86 -1899 0
660 908 -1880 0
-1136 519 -879 0
264 -132 1617 0
-1377 1118 -725 0
854 1382 -1664 0
153 285 -971 0
-1191 -1545 117 0
-1514 1519 -1436 0
-883 785 1477 0
-651 1117 -1651 0
-282 -653 -102 0
-1563 -1516 552 0
745 -708 -305 0
1842 -1138 -1192 0
-691 1920 269 0
598 -1 -1800 0
1873 1060 667 0
1414 1228 1482 0
-908 1593 -169 0
436 -1452 535 0
824 1686 -1793 0
-1913 -1449 836 0
-1987 262 -426 0
-1398 102 848 0
-1859 -227 -679 0
-236 -885 -624 0
1631 -187 -1826 0
1592 -16 276 0
-558 -190 -247 0
1253 -1954 183 0
366 -501 1483 0
-1667 1817 -267 0
-86 1075 -1270 0
-1000 -905 -1448 0
840 1836 -631 0
-1283 1300 452 0
-841 -1293 596 0
1460 708 590 0
368 274 712 0
46 850 740 0
1057 -99 -1546 0
-1469 -343 1422 0
-827 1010 -22 0
-440 989 -612 0
802 -1191 1847 0
-1570 6 -999 0
-1871 1581 124 0
-39 636 1811 0
732 206 -1929 0
733 -1109 -1731 0
1051 31 1991 0
1495 -35 957 0
55 -1546 -167 0
-1627 219 370 0
-232 838 1863 0
-851 605 -440 0
1519 1670 -838 0
1073 123 -883 0
-699 -82 266 0
1716 1661 1342 0
313 661 244 0
-641 9 523 0
-6 1405 822 0
-398 -939 -507 0
617 -49 1283 0
-1645 -81 -557 0
125 -1424 -1344 0
506 -862 -905 0
1489 1709 704 0
-420 -1992 -523 0
-383 572 -1892 0
-1498 -161 439 0
1209 -1778 -79 0
-137 983 1184 0
578 -619 1076 0
-443 749 -297 0
-1894 329 -1345 0
836 -1010 -1702 0
-621 455 -186 0
918 1885 425 0
502 -1316 -1413 0
-1079 -68 1678 0
1882 -1218 -189 0
1727 -1685 -461 0
-16 -1426 1430 0
1532 332 -501 0
-1008 1978 -1075 0
-1754 1477 9 0
898 1896 1326 0
1869 673 232 0
-637 -1364 -538 0
273 119 -1192 0
716 -1446 40 0
-1243 767 124 0
-238 -1494 -1258 0
1089 -1118 -1113 0
829 670 455 0
-389 -1718 -1340 0
1327 1348 -1034 0
-1524 965 1246 0
-1719 -790 -1487 0
-1066 -1984 1891 0
1653 1181 -172 0
-1374 -1841 983 0
356 1110 -525 0
-791 29 -1362 0
-421 740 1961 0
-647 -1632 1046 0
-1904 1704 1051 0
1581 341 -1453 0
-883 -394 -217 0
-926 89 1910 0
-1091 1421 -1606 0
1845 1032 1475 0
-519 678 -764 0
-324 -1222 -1467 0
1845 954 -706 0
-1034 -953 1111 0
234 1376 1209 0
-822 392 809 0
1267 -450 1803 0
-1977 903 112 0
866 -672 1818 0
-849 76 -904 0
-356 658 -103 0
-405 -391 1585 0
1373 454 990 0
-1967 -1606 -1899 0
186 -1625 1355 0
-1442 669 128 0
1334 1721 1307 0
-1661 -312 -103 0
-550 -1148 1010 0
-458 223 1100 0
961 -1856 -551 0
-789 -1517 -1423 0
1 868 1001 0
-199 -1495 -371 0
1408 -275 -524 0
-1413 1148 1751 0
-142 371 -369 0
-1474 -1357 -1696 0
-729 379 580 0
194 -1465 -1051 0
-793 1934 -347 0
1730 1969 -1231 0
-1255 1461 130 0
-1372 561 1834 0
-548 154 226 0
485 -1349 1756 0
-1432 1215 -1447 0
160 -1156 710 0
1435 1144 -548 0
1585 168 875 0
1919 -1368 -121 0
-1924 735 -1627 0
1598 -1792 -966 0
1830 -445 1591 0
-1609 -485 1487 0
-395 -11 -1690 0
1007 74 453 0
919 -1792 1151 0
662 -740 -1069 0
-1934 1889 1823 0
-425 1908 437 0
886 -1596 358 0
855 15 145 0
-696 1147 1152 0
1702 -335 629 0
1188 -218 -1228 0
-673 -832 443 0
1562 -415 1082 0
-743 -233 696 0
-810 373 -1675 0
878 1479 1066 0
-154 -1202 -702 0
1671 1680 281 0
-1577 -1716 -898 0
-1541 237 -1958 0
1331 1478 1336 0
-984 -1044 -1087 0
-1994 -1023 1488 0
668 1608 638 0
1502 1173 -895 0
-598 1806 -521 0
106 -1607 883 0
-422 1785 -647 0
1778 1775 455 0
-1864 1044 1370 0
-105 -178 555 0
871 251 660 0
-1606 -1581 1756 0
-712 488 1580 0
27 -789 -1985 0
1118 -137 -460 0
581 -714 406 0
542 1460 -579 0
819 -1452 1805 0
887 -1709 -1178 0
-206 296 299 0
-1530 528 -924 0
-25 1917 237 0
-1928 -1938 1197 0
1549 -1238 1149 0
409 -1852 157 0
-1498 138 -920 0
729 -291 1712 0
477 626 969 0
641 444 1615 0
773 17 -1312 0
-254 -916 431 0
1523 1564 1225 0
-1957 -559 1899 0
-1833 -1915 212 0
-1145 -790 -295 0
1546 -1878 1373 0
1505 1617 562 0
-519 686 181 0
-1052 -1092 -821 0
383 1955 1049 0
1442 -1571 1664 0
426 -278 1195 0
882 1345 -608 0
852 -371 880 0
-871 1277 771 0
-610 1188 663 0
-507 -1490 -303 0
1528 -253 -890 0
1899 -514 1255 0
-294 -1361 -1266 0
-1476 -1805 1541 0
222 -965 1633 0
1269 -829 -1394 0
133 640 -1495 0
-1218 -510 -612 0
376 -824 346 0
-1482 1290 356 0
887 1411 -1677 0
-1208 1740 -354 0
-70 41 -1045 0
1463 1145 1861 0
1039 -1490 -516 0
271 -516 -590 0
-892 771 -1075 0
-950 83 -1041 0
335 -235 -339 0
1062 -1480 327 0
721 1835 -625 0
567 -575 -32 0
1112 -1219 1566 0
-239 1736 1373 0
-659 -627 1946 0
116 -1136 -746 0
1341 739 -414 0
-199 -289 1008 0
-1237 -1398 61 0
1703 -685 128 0
1342 1507 -987 0
188 45 -1383 0
837 -353 -1411 0
979 1853 1945 0
-674 -1893 912 0
46 -571 1935 0
460 -1124 -297 0
-901 -1881 -1751 0
731 -65 525 0
1952 1834 -338 0
381 -1847 -975 0
620 -649 1003 0
-1767 108 -1649 0
-692 -555 -1811 0
988 -1089 115 0
-438 801 -103 0
-76 1495 951 0
1046 1739 -1267 0
-1903 1834 -1028 0
-125 787 315 0
-60 -1362 -1117 0
-1102 -222 -205 0
1436 -1338 151 0
362 -566 -77 0
-135 -333 153 0
354 122 1368 0
-1086 1502 585 0
1716 992 875 0
5 -280 -617 0
-1963 169 -1036 0
-388 1845 1347 0
-279 1789 980 0
901 -1939 -1532 0
188 779 -700 0
-1381 -964 -751 0
-744 170 1131 0
1087 1345 -971 0
1869 -1853 333 0
-899 -1412 802 0
657 -285 -1927 0
-968 68 962 0
642 1670 -1570 0
1882 -691 -90 0
1634 -895 320 0
-1767 553 1769 0
-1412 -673 558 0
358 -1961 -289 0
79 -1760 238 0
-1163 -657 -651 0
-1813 1930 -157 0
-1080 -23 1617 0
-1513 -1635 -1890 0
-201 724 -1398 0
850 -1900 1111 0
17 -169 -340 0
1123 309 980 0
10 -1985 326 0
1795 1450 1098 0
-1812 -1255 800 0
1756 -1679 -712 0
1866 -910 -1316 0
-1002 -1056 1943 0
610 573 754 0
1198 -933 1720 0
-1771 -376 192 0
-843 1814 -388 0
669 1092 -1300 0
1406 -1337 -572 0
-597 1454 1038 0
1997 -1639 -349 0
605 1636 -244 0
-1663 -725 289 0
-796 1846 -414 0
-1236 -241 1025 0
-1339 1070 1548 0
1636 1546 1693 0
679 -1512 1463 0
1783 1138 -132 0
-1461 159 578 0
60 -808 1330 0
1209 1540 -435 0
506 -1772 501 0
-776 1274 395 0
1886 1557 1858 0
2 -833 1132 0
1486 15 1439 0
-837 733 313 0
-348 1201 -927 0
-796 -1591 22 0
900 -1925 -1494 0
-907 -1162 1653 0
1753 617 1826 0
-1439 1193 -1663 0
-1199 1247 -1166 0
-1282 -1223 -243 0
119 -1454 1272 0
-165 -567 265 0
1558 103 -1251 0
-1688 -1773 -449 0
-1024 -408 -680 0
34 237 1700 0
-501 1326 1868 0
-1250 1473 -1451 0
-363 -1392 1169 0
120 -1671 -1755 0
517 1582 1368 0
1743 -141 818 0
212 1890 -924 0
-980 -1239 -955 0
1080 1224 -1585 0
-1178 1130 -1407 0
-1895 1381 1771 0
829 1754 -17 0
881 936 167 0
-1239 258 -974 0
-381 -1571 1338 0
1751 -87 -351 0
692 1415 -22 0
937 656 -738 0
1324 688 653 0
187 -1926 11 0
1483 -952 -1727 0
-1860 903 -214 0
1809 -753 601 0
247 -1433 -543 0
-245 -1241 624 0
370 -615 -1148 0
543 -1304 -1179 0
-1414 -508 -1969 0
1017 1365 -1428 0
-1739 -1996 -1944 0
182 440 -227 0
577 -1771 171 0
-1685 -81 1306 0
376 421 -1796 0
-158 -1814 -1933 0
-727 479 1794 0
-1598 306 -1526 0
831 -1053 1438 0
1988 891 -914 0
-1476 1263 1938 0
-691 422 629 0
-482 -428 -1099 0
305 318 1201 0
520 392 -1035 0
1349 1419 3 0
-112 1536 -1026 0
1250 -1478 1220 0
-830 -1983 -627 0
-976 -662 -1020 0
449 -768 490 0
279 -1584 1819 0
499 787 -1295 0
-1430 1684 1857 0
1206 487 -660 0
1027 -1866 -1675 0
-1477 1160 216 0
1561 -82 1933 0
623 -1695 815 0
-9 -677 451 0
-1097 1827 -1675 0
839 859 23 0
571 -1882 -818 0
-1520 436 -1445 0
-83 775 314 0
36 -386 577 0
1627 586 -446 0
-489 -1859 -468 0
897 307 -1300 0
-781 253 1126 0
527 1778 1642 0
-1572 -1129 -823 0
-1303 1112 -1169 0
-1900 1094 -1281 0
1643 1899 501 0
-669 1307 -724 0
1095 694 448 0
1537 1560 -729 0
1092 -1542 660 0
-820 1461 880 0
1735 -942 1718 0
1338 1546 -159 0
-176 1500 -1521 0
1351 318 -1122 0
-1735 1504 -692 0
1267 940 -1839 0
865 1767 -893 0
-1255 -649 1519 0
-1426 -822 -1247 0
-150 1774 -1176 0
1019 -1528 1611 0
-1065 286 -1439 0
-850 -114 -1687 0
546 150 1769 0
-569 -309 -1889 0
-501 1963 -1466 0
904 -1899 1620 0
-688 1457 -1083 0
1355 1081 -1745 0
-1740 1291 -1745 0
-11 1026 -677 0
-433 -468 1396 0
-797 -270 -476 0
1999 820 1518 0
-1664 -1082 168 0
-1495 1443 765 0
-1780 -1961 1843 0
1193 -1153 1833 0
-1969 929 1991 0
-883 542 949 0
352 -129 3 0
184 -1841 -446 0
-590 1331 -1259 0
761 1180 817 0
-1166 1748 -879 0
446 -1636 836 0
1770 1127 -1451 0
256 -661 342 0
707 -1984 1565 0
1462 -1242 744 0
444 1787 1775 0
-208 -1558 322 0
-343 -604 -944 0
-726 1097 1352 0
-1365 758 -1377 0
-296 -2000 764 0
-277 1476 840 0
-156 -821 1947 0
1877 -1256 -1383 0
1986 1534 -1444 0
-443 203 1329 0
31 -389 -1492 0
660 -1473 35 0
1834 -574 -1516 0
717 -1912 509 0
1318 -1706 1101 0
-758 -1388 -471 0
877 1036 536 0
-1049 1773 909 0
721 -296 -89 0
1033 58 1437 0
513 166 -1918 0
-1356 1260 1626 0
331 301 1060 0
-1577 16 -571 0
1849 -871 -1839 0
-1514 -314 50 0
-1005 1432 -1972 0
262 -1173 994 0
1129 186 1720 0
-1502 199 1624 0
-706 -1483 -757 0
387 587 918 0
-5 979 -613 0
861 1729 -523 0
-852 1759 1914 0
-107 829 1078 0
-1444 -1376 -1228 0
857 -629 -1472 0
-999 -657 -563 0
-1570 -465 1470 0
-629 -1153 1624 0
-1443 -1204 791 0
-825 -382 -1662 0
941 -595 -935 0
1270 1233 1192 0
1718 -638 -1651 0
-1453 291 1344 0
-1160 171 383 0
-86 1685 -1530 0
521 1095 -693 0
-686 -986 -376 0
-169 1 -1097 0
1537 514 -565 0
809 -974 -469 0
844 38 1510 0
-1421 1518 772 0
-969 1076 128 0
1557 -247 -764 0
-91 1899 -581 0
1442 -807 1078 0
1801 305 289 0
767 753 -1919 0
-1088 1305 -1865 0
-697 1136 -1766 0
-237 452 -1605 0
786 -12 757 0
-133 -1546 1724 0
1111 -1015 -1110 0
-766 479 -1209 0
991 581 -1143 0
337 991 -1941 0
-1665 763 -337 0
-871 14 -802 0
-1520 991 -146 0
-74 1213 1650 0
-1631 1837 -587 0
-258 -835 174 0
-1471 1346 385 0
3 -610 -27 0
1774 -1277 -339 0
-1285 -1451 1552 0
-1717 659 1556 0
-509 829 1578 0
-976 -760 1862 0
-1433 863 -243 0
-1196 889 -1460 0
-1078 1524 538 0
-1297 489 -1589 0
-60 626 1280 0
1947 1576 1177 0
856 100 -1301 0
-1611 1978 1846 0
-87 -1799 1409 0
-244 786 -1502 0
-532 1129 -157 0
1483 756 -1900 0
692 -1855 704 0
-1637 -1790 -1737 0
-1190 -1611 604 0
-1495 1528 1800 0
387 -1878 -449 0
972 -120 113 0
333 1957 1876 0
-644 -446 -39 0
-965 1727 -1675 0
-57 835 -999 0
1026 337 341 0
-139 615 -3 0
-1418 1928 1620 0
1396 -1746 1122 0
-1308 550 -1755 0
-1697 278 869 0
-450 540 -111 0
-1026 457 -608 0
1591 607 -816 0
-1557 -897 1192 0
-668 1116 -1420 0
1331 -1218 231 0
-1887 -277 1981 0
142 136 -858 0
-1892 -1699 1275 0
909 1788 -1871 0
-1851 -1576 -1938 0
789 378 67 0
1695 -1018 -422 0
-1139 1043 1993 0
1524 1389 797 0
60 1796 142 0
1923 -712 1174 0
784 314 1574 0
-1356 1179 824 0
236 73 -906 0
1451 967 1985 0
-552 -562 -1413 0
-108 297 7 0
-498 -1678 -378 0
1266 157 -1920 0
49 1350 1562 0
1737 -659 -821 0
895 -1494 1692 0
-1846 1347 23 0
373 23 1107 0
1821 -1431 -249 0
629 387 271 0
-1984 -1586 673 0
1103 1801 580 0
682 -1008 93 0
376 1930 967 0
1965 -523 -1799 0
-1053 -1577 483 0
-1109 -577 -1123 0
1589 -1805 1884 0
-1405 -1352 1935 0
-518 -503 843 0
1741 1579 -804 0
766 260 -1154 0
-1828 75 513 0
529 -1306 1642 0
747 -1469 615 0
679 -45 618 0
-150 1056 -55 0
667 -1634 -1187 0
-791 811 -1748 0
-1038 536 -494 0
1248 -574 -1143 0
-1033 -266 1928 0
-309 1117 1712 0
206 1484 176 0
1039 419 -853 0
144 -288 205 0
-1957 934 1423 0
-549 1456 -987 0
207 -1476 1909 0
-1054 1653 1266 0
-934 883 922 0
1244 -812 834 0
-55 -1251 -501 0
584 -282 1849 0
-1718 858 -686 0
-657 1745 -575 0
979 -1930 1806 0
-170 1352 379 0
465 89 -1122 0
-506 1315 1794 0
-925 -867 645 0
446 -434 599 0
-1435 1813 -1406 0
-148 -348 -1372 0
-1272 270 1701 0
-1205 472 1301 0
616 -717 -1726 0
-348 593 -1908 0
1267 1269 -1299 0
618 1485 1001 0
-1566 778 1477 0
438 -41 347 0
1185 -1255 1217 0
1736 -1416 -1850 0
-1438 1063 -859 0
-1028 -793 -91 0
-1940 -423 1148 0
41 -623 767 0
1778 434 -381 0
-126 1145 -1462 0
-1415 -1631 1462 0
1438 1045 1610 0
-528 275 -52 0
-1245 -1812 -187 0
1413 255 1286 0
1996 921 54 0
335 -5 -1902 0
211 -250 -579 0
804 -1016 368 0
-1154 1666 211 0
-1020 -780 -813 0
520 1438 1256 0
-1508 -1918 -356 0
1065 -1041 -531 0
1402 -744 616 0
-820 -1605 292 0
-736 149 -1479 0
-1833 -261 1141 0
887 247 1750 0
-938 -1129 -955 0
1671 -1389 -1130 0
-1191 698 518 0
-1302 -1118 -326 0
-1115 -1328 -1258 0
-1432 1020 1670 0
554 -1561 -762 0
3 43 1857 0
-1511 -1416 -1640 0
-1699 1133 618 0
-639 1147 -1456 0
-1713 -194 -1097 0
-782 -1218 -327 0
-157 -1079 1881 0
-1554 -1877 831 0
1138 -1359 -39 0
429 -1623 1658 0
-322 -756 -1304 0
1071 823 1039 0
1052 -1989 -1692 0
1754 1556 -218 0
1887 749 1033 0
105 -807 1563 0
584 100 403 0
-1415 535 1599 0
653 -817 214 0
-928 -699 97 0
1506 1312 -631 0
-257 -262 1316 0
-929 -589 -1749 0
-1968 1082 1876 0
-1690 1125 -1045 0
1364 1141 -1958 0
479 96 47 0
-1719 -438 1238 0
-1337 1627 -1787 0
-348 -1214 506 0
1988 432 -1902 0
106 -219 -461 0
194 1134 83 0
-1336 659 -410 0
1192 -445 1579 0
564 1272 -1347 0
1771 1302 900 0
1106 1060 902 0
-1294 -1941 377 0
-872 -1768 -1369 0
622 1850 -1881 0
78 1783 -520 0
471 726 -1196 0
-1681 -829 -875 0
-1799 842 1307 0
1303 -435 -1623 0
-1128 -1308 245 0
98 -1684 -1996 0
1070 -826 1887 0
-504 -1192 -1520 0
-36 -203 577 0
-1716 1042 -1405 0
1309 -931 3 0
-548 -956 -1456 0
1076 1173 -1786 0
1068 1008 -776 0
-774 -356 186 0
348 -731 768 0
-52 1109 130 0
1923 -39 879 0
-209 1363 1414 0
-626 -542 -756 0
-335 -1047 -1291 0
1925 456 1130 0
-1080 -574 -907 0
-1666 8 -1887 0
-691 -1437 -1601 0
1860 576 -1864 0
-169 -1323 1632 0
997 1518 -1402 0
1319 352 -876 0
-1802 848 -1526 0
6 -480 1686 0
-203 222 1306 0
97 484 78 0
-1285 -83 740 0
1886 1805 -1704 0
987 -1165 1795 0
1980 1314 1654 0
121 1064 1453 0
1872 -1231 1679 0
1394 -496 -300 0
1730 1664 -1248 0
-1241 -561 -1390 0
816 1515 -179 0
-298 -382 -861 0
-968 889 1801 0
-935 1339 1164 0
-643 -1061 -1561 0
-1305 -1024 -233 0
-898 1314 -1915 0
-292 606 -1320 0
-1454 1058 -23 0
-326 -1654 1458 0
-1626 1966 1079 0
-664 -1817 -1445 0
-1795 760 1558 0
51 1663 -1208 0
1785 -762 -1650 0
1173 1845 1264 0
-1889 1320 -1992 0
-757 1248 281 0
-583 -96 1105 0
-1553 1841 1804 0
1628 624 -1809 0
1945 -278 117 0
-1188 1222 -307 0
778 -1381 -1886 0
825 -1509 -106 0
-778 -1145 -292 0
1974 -744 -1787 0
-1046 440 -215 0
-316 -986 28 0
-245 1596 526 0
-1954 -1538 1504 0
1812 -920 789 0
470 284 -69 0
120 -209 -484 0
-929 1823 80 0
951 -1312 1602 0
-1113 1159 114 0
1629 6 -1077 0
29 673 191 0
1400 1305 1122 0
-555 -1864 -938 0
-489 -1537 -135 0
-693 1567 -715 0
-421 -804 -1258 0
1476 -1260 684 0
-1319 1541 1578 0
-679 -1358 -297 0
763 1505 -1161 0
1891 84 -1969 0
-1268 -85 -1558 0
-440 -520 587 0
-930 -296 -494 0
1952 -439 -1 0
1971 249 918 0
-1200 1903 -866 0
-1489 1277 -514 0
1590 -796 677 0
223 323 33 0
-1693 -1061 514 0
-72 -1192 955 0
947 -1367 1374 0
737 -1289 821 0
1693 -337 -356 0
-1097 -347 -1260 0
1299 1984 1450 0
-1207 -1367 -1830 0
976 -462 78 0
1459 1539 1129 0
1756 -1086 1697 0
728 1663 1812 0
1978 -1573 -1767 0
1161 818 79 0
1552 -496 -1063 0
-269 1126 1551 0
208 314 930 0
-809 -1972 341 0
98 -352 -1993 0
-507 249 1404 0
-1542 890 1647 0
1551 1426 -1052 0
-25 1158 59 0
-1251 908 1041 0
-1912 -308 1586 0
-1660 -1636 1593 0
1563 -445 394 0
-1726 767 -1981 0
-626 -1966 362 0
-834 1986 348 0
847 -1958 30 0
-136 1443 1887 0
-1559 1528 -1883 0
299 1055 1994 0
683 -1704 -970 0
-1571 1960 -1090 0
-1258 -936 821 0
1263 1321 -1123 0
-736 679 1525 0
-807 9 -975 0
-34 -832 -158 0
-335 -1087 -824 0
1349 130 -1390 0
1359 1801 580 0
-1842 -1772 542 0
687 1230 -1775 0
1383 -1561 120 0
1419 -727 -921 0
854 1262 1122 0
-449 1663 1395 0
1155 1348 -1444 0
844 1801 1252 0
-1218 1112 1474 0
-1709 1392 562 0
-1452 626 -1895 0
135 -1840 1224 0
1723 -1593 1629 0
843 1640 -246 0
1071 440 1085 0
-1977 400 -872 0
-577 -636 1994 0
568 846 -538 0
-131 1519 1827 0
305 -679 -1193 0
-1011 -1572 792 0
345 295 -1015 0
584 974 -1141 0
311 -877 -1430 0
-910 -950 1279 0
1971 -957 -503 0
-286 -954 455 0
372 1284 1922 0
-1746 -749 658 0
-1757 -1911 -1567 0
847 -318 -734 0
-1800 -554 1239 0
-1690 -414 889 0
1395 -1498 1594 0
-799 -200 -669 0
-1004 734 1667 0
-248 -429 110 0
-1933 1512 -575 0
876 315 1436 0
-363 1797 -314 0
-1099 281 54 0
129 -1751 1680 0
1531 613 -211 0
-1527 -1167 -172 0
401 388 -1794 0
-1219 -1515 -709 0
-1941 1808 -134 0
-1081 -1231 -1259 0
-910 186 999 0
387 371 924 0
-1234 -64 -1595 0
-1958 133 -705 0
1334 1217 -1850 0
1931 -1162 -1955 0
-1322 -1891 -385 0
-1857 -428 -581 0
667 411 1769 0
251 -1007 -1347 0
760 1160 -714 0
-967 1848 124 0
111 1773 1919 0
422 1574 992 0
-1085 1207 1190 0
-451 -1991 1452 0
1614 3 1607 0
-679 -1282 -1745 0
394 -527 1111 0
443 1010 -108 0
-65 526 -1796 0
-1283 -596 -1666 0
-273 -1545 -672 0
1463 1564 -1670 0
1067 -1225 1116 0
805 1863 -986 0
-1422 -40 1269 0
-321 -1517 -14 0
-910 -350 -267 0
782 1995 1622 0
155 -485 560 0
-1035 -1364 -843 0
-1360 -681 -800 0
403 -705 -1566 0
-1437 1279 -1451 0
-1948 -463 -1675 0
-861 940 301 0
263 -556 -856 0
416 1691 468 0
668 765 1878 0
-1005 -1470 -1088 0
1730 176 -964 0
337 864 -1020 0
1603 1341 608 0
-646 1158 1903 0
-713 -634 648 0
1683 1710 -1684 0
563 -177 215 0
-900 1792 -1507 0
-378 1063 324 0
267 1517 -1667 0
752 831 -329 0
-10 1939 238 0
-1531 810 1347 0
-1930 801 -1 0
852 -1 1399 0
1314 -1736 1550 0
-4 -1420 -373 0
-1660 1036 -1017 0
-404 -1629 -1782 0
-788 -1542 1837 0
860 128 424 0
-1304 1766 -1274 0
-1294 -842 1363 0
944 215 -1687 0
-1257 562 -337 0
1125 -316 618 0
885 427 -1872 0
-1098 -611 856 0
-1526 1986 1462 0
-1170 312 1517 0
-386 -599 1445 0
1053 1328 -1202 0
1877 -827 1151 0
-549 850 -1918 0
-1348 -178 -24 0
-147 -1726 931 0
-842 -1901 -1509 0
1368 1145 -760 0
1435 755 1984 0
-631 -523 269 0
764 -1013 -282 0
-936 -1390 159 0
1168 -1378 1350 0
-1348 -1110 758 0
1925 1860 1086 0
-234 -1480 -1319 0
-294 -1496 -287 0
1416 -1672 1622 0
-1603 -758 143 0
958 -988 1919 0
-1734 -1841 184 0
53 368 528 0
204 -1186 -1858 0
1772 1981 8 0
479 -1153 -565 0
641 766 1231 0
219 138 759 0
-345 211 -129 0
1100 411 218 0
1095 1373 1359 0
474 -307 681 0
-787 76 -232 0
1363 1449 584 0
1432 -938 1686 0
-945 226 1775 0
-586 -1759 -737 0
-1122 1305 1107 0
-42 1278 -852 0
-343 -1138 1328 0
-1391 140 499 0
-753 -969 428 0
-645 -316 -908 0
-1936 442 -1703 0
-1534 821 939 0
1324 1146 -1644 0
45 1060 761 0
1533 -967 643 0
-550 -1985 -1142 0
-1539 -1992 -955 0
-1692 -1075 1590 0
-376 -1829 1131 0
1405 71 -154 0
-270 945 -1507 0
358 213 -1033 0
660 -880 642 0
17 1416 1980 0
-1729 -1470 1404 0
500 1310 -315 0
-736 -1800 1540 0
-1563 218 686 0
-405 1554 792 0
234 1132 -71 0
-430 -54 1229 0
1425 446 -1885 0
326 -462 -1995 0
-1751 1170 -1937 0
546 573 -1601 0
-11 -465 -1887 0
-93 358 493 0
-1274 1296 -1268 0
1136 -161 1715 0
374 1204 -1896 0
256 -1109 89 0
132 443 -1479 0
-233 -1194 -536 0
647 -1306 -1415 0
-1237 -175 172 0
-991 687 1274 0
1199 -134 1951 0
264 -725 -1236 0
500 1847 -110 0
1597 1929 1593 0
201 -1920 987 0
-213 1967 -1071 0
-1760 641 517 0
1619 -1523 670 0
-1828 -1590 1384 0
721 -715 -1569 0
965 706 646 0
-1677 957 1022 0
1083 -1428 -1659 0
765 284 -597 0
194 1407 1286 0
1695 -1285 1691 0
1966 1098 -98 0
1314 -167 -726 0
1400 -129 319 0
-968 -1976 -1876 0
-713 -556 -1907 0
-1832 -450 -1112 0
-1860 -1915 446 0
-172 -352 305 0
-122 -1742 1411 0
1772 -1287 -1667 0
1681 1613 -384 0
-645 1897 520 0
1447 1375 1120 0
815 1255 1347 0
-1030 -1240 -1647 0
-810 623 -1772 0
279 -1974 1695 0
692 1131 -1232 0
1943 -1285 -684 0
-786 741 380 0
1918 233 1734 0
645 -646 -1226 0
27 -1383 193 0
1548 -1068 1290 0
1201 -976 724 0
187 -1870 905 0
261 1448 276 0
558 -1899 179 0
323 -502 -1127 0
282 -1789 237 0
254 -93 -379 0
493 -1599 856 0
1090 -74 -1901 0
1251 -283 1732 0
1411 -1543 100 0
584 -1702 494 0
206 1774 -4 0
-1122 -1256 781 0
-927 -684 -42 0
-156 -589 1028 0
753 1326 853 0
-1545 29 -1286 0
-1563 653 310 0
1157 -441 -1374 0
-1298 1900 1325 0
-1406 1488 857 0
-1393 395 -1744 0
1418 -1168 594 0
241 1290 -1648 0
-434 808 -1594 0
-479 -1911 -1835 0
1976 307 1487 0
-592 1957 -1777 0
1583 -688 112 0
-1805 799 1008 0
-462 -9 782 0
29 867 -980 0
1176 1989 475 0
-1254 -1191 141 0
-1286 -398 1842 0
-1807 -787 548 0
832 -1321 939 0
-1281 -762 -684 0
1507 572 1592 0
939 -757 -1287 0
-128 -102 -1024 0
-220 -236 -1746 0
350 135 -231 0
1054 1901 -1309 0
-1105 1905 -1945 0
-1894 1474 1872 0
-1877 1490 -1240 0
1797 484 1081 0
-318 -1174 807 0
159 880 -890 0
14 1769 57 0
-1883 -1313 -1901 0
-99 1985 -1462 0
1265 153 1470 0
1805 18 -582 0
720 -1047 -1696 0
12 -1334 -144 0
1103 1706 1120 0
-963 -1001 1840 0
-981 -1576 -1592 0
-231 -1166 -825 0
-1830 1909 -137 0
-227 500 1937 0
353 -792 -1065 0
1191 -872 -1842 0
1073 -1610 -785 0
-306 -1383 118 0
821 -471 -931 0
-1809 -128 -967 0
1385 1457 -114 0
-1121 1350 -1906 0
1056 1548 1394 0
-1020 -1119 919 0
-625 -690 199 0
745 80 1805 0
-1697 573 1206 0
-52 1482 -1262 0
-658 -1552 -1766 0
-412 252 1731 0
-1383 1276 -1390 0
-51 161 -1006 0
1612 -1465 1559 0
-1808 445 864 0
964 583 -340 0
-529 476 -150 0
-762 -603 1684 0
-287 1407 -726 0
-343 1873 1446 0
1844 -1691 1943 0
211 -1009 -143 0
457 1 -1433 0
65 1123 -277 0
-1498 -1720 240 0
1934 404 -1941 0
1478 -240 -287 0
1760 1220 1221 0
793 908 1500 0
1436 1114 1906 0
-1747 571 -153 0
1178 1609 -710 0
-1401 -1613 659 0
-198 -1444 852 0
-1429 1723 1728 0
-1149 -110 1316 0
-985 -216 299 0
1257 -630 -1591 0
395 -231 -409 0
-587 898 -379 0
-1302 591 -139 0
-1980 1411 946 0
163 511 -44 0
-1627 252 -125 0
-587 555 -1514 0
282 -1343 771 0
1462 -647 -1345 0
1737 367 -1792 0
-324 1894 1555 0
-232 -1333 60 0
-1889 -1414 1674 0
1387 -279 1208 0
1204 -586 392 0
-1823 1610 466 0
1235 -103 746 0
1731 -1986 -932 0
1622 -171 1016 0
-1900 949 -1510 0
168 1593 788 0
-852 795 -220 0
570 934 939 0
-1889 412 -527 0
-1364 -592 1552 0
601 1920 1443 0
1061 1098 1622 0
-830 57 -969 0
27 -362 -1848 0
567 -1985 -594 0
229 30 -1444 0
48 351 207 0
-1103 36 -1091 0
-427 451 114 0
-1845 1156 -1580 0
-229 -808 -886 0
1062 -562 412 0
-61 -33 1457 0
-161 1064 -1570 0
-509 -1761 61 0
139 -1762 -699 0
1169 -243 597 0
-1725 123 -1928 0
-1215 630 1345 0
-93 -1005 923 0
-1586 -947 657 0
1104 157 -1432 0
1509 8 1784 0
-1864 -1496 -1358 0
-1870 240 1415 0
668 -1647 548 0
-578 654 -563 0
-1049 1359 -100 0
1205 -1865 439 0
-1997 -1148 -1378 0
539 1607 496 0
-450 1055 778 0
-739 1334 -246 0
1130 1612 -734 0
733 -1710 1332 0
1219 1986 -1958 0
584 -256 145 0
637 1617 -1268 0
497 -1430 -1757 0
-1315 56 627 0
-520 1920 -1913 0
1140 -1504 348 0
-358 -1317 1037 0
86 -466 -706 0
-589 -1842 1319 0
-1344 -51 -505 0
-1659 -43 -1954 0
-338 -708 -1892 0
1806 -1076 -1750 0
-591 225 144 0
-1912 1948 -446 0
1653 475 758 0
-1223 -564 -1468 0
66 -1807 -1993 0
-1274 1487 1791 0
208 -354 -240 0
-59 491 1103 0
790 -1036 -199 0
218 785 313 0
-1490 -1055 -1815 0
1342 -471 808 0
1159 -1124 973 0
-1003 -312 -432 0
-944 -414 996 0
-1307 -750 1802 0
1684 1241 -335 0
357 -378 -668 0
400 1522 -1156 0
-1056 126 728 0
-1795 -265 1130 0
-919 -1024 -926 0
10 -267 -1784 0
-901 34 1041 0
1850 -236 1783 0
-1194 1324 825 0
1930 1213 -62 0
1233 -1343 -349 0
1570 -651 -1242 0
-1515 719 880 0
992 -986 1111 0
464 -1811 -1367 0
-642 606 -855 0
152 -340 478 0
-1682 -1282 -1620 0
-663 -196 962 0
1537 1425 -865 0
1736 -76 946 0
-1080 1940 -1969 0
1313 -1458 749 0
1605 -1078 1322 0
-1305 -1859 1562 0
1071 -921 1727 0
1712 -496 431 0
488 -423 449 0
663 -743 -311 0
1804 1722 -1112 0
-715 -1979 -481 0
1883 1412 1851 0
155 982 1427 0
-974 504 -1383 0
-1832 -262 295 0
896 247 -501 0
1257 -1965 616 0
-451 -1646 965 0
-88 575 -880 0
-1179 1358 488 0
1026 695 -1935 0
-901 -1537 519 0
1614 -731 1162 0
-776 -1657 -1955 0
62 362 1080 0
1243 1287 1892 0
596 -664 -1686 0
-1369 -1552 -849 0
767 -1304 672 0
1584 938 -1067 0
953 -1975 1718 0
-678 877 1326 0
1031 -724 1839 0
1815 -951 446 0
905 -709 739 0
-1079 1041 245 0
549 -1131 -458 0
1132 486 -320 0
-1934 1764 1248 0
-1301 158 393 0
1842 1839 -312 0
-479 -556 -501 0
-771 -669 471 0
-1856 -376 -327 0
1650 1653 1920 0
946 -1442 -1326 0
550 -1569 441 0
-598 -44 373 0
-832 1788 -1481 0
-1501 1659 -988 0
-347 -324 -1439 0
-1327 1823 -1012 0
-1234 -1420 -826 0
-834 786 1001 0
1651 389 -1773 0
171 1777 -487 0
1385 -1550 529 0
-1037 -161 701 0
475 -1725 1819 0
1325 1530 -1305 0
1154 -1853 -920 0
1324 1106 766 0
1800 -8 -1558 0
-1202 -231 502 0
390 -48 -199 0
107 -1218 -790 0
260 -272 -236 0
-728 70 -522 0
1168 891 378 0
-1726 -366 1978 0
1372 -358 -714 0
1024 -1466 -1193 0
1332 -129 777 0
-341 -329 -946 0
49 -381 1751 0
-1438 -1696 1143 0
-590 -666 -1943 0
-239 -1871 4 0
-892 -467 -1277 0
1017 27 -318 0
-1536 1585 905 0
-325 -341 -740 0
798 1473 406 0
1657 1672 -1755 0
159 -603 -148 0
1688 152 -1212 0
-1843 -1373 1893 0
-1102 -687 -642 0
-273 -1979 -1020 0
-1054 1222 -1839 0
-280 -1710 -971 0
1065 -1565 -1751 0
-1305 -1346 1071 0
-1899 -1089 356 0
557 1775 -130 0
-1068 -1398 -1130 0
1872 888 381 0
1529 1812 -1750 0
668 -1154 268 0
1510 1187 -1442 0
-124 1656 1352 0
-1963 -1881 -1413 0
1598 462 1952 0
-1229 -644 1795 0
77 -239 293 0
-849 1576 1351 0
991 10 -32 0
134 1414 1459 0
-771 935 273 0
-633 622 -486 0
-1969 -646 -1132 0
-1649 437 -125 0
-1400 -1797 830 0
-1418 -391 418 0
1677 -1131 -1821 0
1551 -1580 -23 0
-423 -1929 1602 0
-1591 1015 1352 0
1943 -694 -260 0
680 1649 -989 0
1922 52 1544 0
-272 1482 1136 0
1015 -1809 760 0
1812 1463 -499 0
-477 -212 797 0
1311 -1248 -1423 0
-542 -1343 779 0
-1655 1294 -1561 0
1058 137 11 0
1276 1608 -1950 0
-1114 -799 778 0
1954 -1785 442 0
1200 1331 -1491 0
-218 -1329 1512 0
-961 1608 -269 0
107 828 -88 0
-592 -486 1876 0
-867 -1990 1013 0
-182 1015 -1792 0
-997 1070 -1436 0
-885 -312 902 0
1241 1078 388 0
1899 961 973 0
-1766 1878 1310 0
-753 -1311 260 0
1944 -952 -872 0
-1035 1925 -1540 0
1621 804 -953 0
612 -1869 769 0
1871 157 -903 0
-657 164 699 0
1843 -182 1179 0
-1163 296 -1089 0
-295 766 -963 0
1571 -1967 -1949 0
-1208 47 -1037 0
652 -1757 1019 0
1722 -446 1130 0
510 359 1425 0
-1787 570 -787 0
513 90 33 0
1017 -282 785 0
179 -1473 -1659 0
1258 420 778 0
1433 -1813 -130 0
451 -620 -529 0
1775 318 -735 0
-1872 924 -279 0
-1509 254 -1349 0
1945 1053 -1333 0
455 948 -1343 0
-1160 1203 -692 0
-1657 1101 -329 0
519 -1019 -763 0
180 -1494 1390 0
-983 -142 -356 0
1439 -1816 -1258 0
1803 -1404 -281 0
1266 187 561 0
736 -684 -468 0
-633 -1355 803 0
849 -1426 280 0
1472 -859 -518 0
1272 -1640 -702 0
-681 -168 1825 0
-1108 1969 -202 0
632 -1575 -17 0
-238 158 -152 0
1655 1947 1900 0
514 -310 1575 0
1945 -934 1128 0
1237 1758 1142 0
-1841 1292 -686 0
-487 -776 1767 0
-262 743 1119 0
-1517 -831 -380 0
1331 -900 1399 0
1775 -485 -608 0
1154 502 -741 0
-1558 1974 -1038 0
261 1087 791 0
1567 901 -1035 0
1937 496 1060 0
465 -1259 -1104 0
265 335 -832 0
83 207 1277 0
878 -35 -1045 0
1764 -960 -1107 0
-1311 697 -1291 0
-503 -130 719 0
-1854 1416 -942 0
-863 -1612 -1995 0
19 -924 1606 0
1816 1101 -738 0
-223 -115 1468 0
1863 1877 -1021 0
263 -1420 1028 0
1195 89 994 0
-1867 -987 53 0
-1904 1169 480 0
144 853 -966 0
-316 516 -294 0
703 1671 -580 0
-1099 -537 -1736 0
1350 -656 1941 0
1977 1905 -658 0
-1041 -1136 1388 0
-611 -56 943 0
-943 1189 1015 0
109 702 -1432 0
-710 437 -1295 0
1755 1178 -1612 0
751 -1778 -389 0
211 1291 -355 0
-1159 722 822 0
891 -415 1228 0
645 482 -1072 0
870 -979 -1198 0
-1941 262 -1285 0
1478 1915 -12 0
-882 1485 652 0
-1535 -1861 1449 0
1592 111 1236 0
799 -1463 213 0
-1148 1035 -1269 0
-43 1212 1290 0
445 1907 -1063 0
-1069 -1912 -1807 0
-1314 1836 1616 0
1825 1174 -1848 0
198 -1095 80 0
-1206 1394 -355 0
1516 906 -1734 0
407 363 -1575 0
-1116 503 -1185 0
-997 -445 -987 0
1746 1695 -802 0
-337 -1555 506 0
-772 -596 122 0
1083 950 654 0
1761 -960 -146 0
-581 -169 -1866 0
1557 -552 -387 0
1509 1299 -1519 0
-76 -220 -1006 0
-618 1078 574 0
115 -1711 -1687 0
-1989 1288 631 0
159 -438 -708 0
-1883 899 -976 0
-501 -1968 1503 0
812 1238 1630 0
1284 673 -299 0
506 -1963 624 0
604 1682 163 0
1911 890 -1049 0
773 -1814 769 0
115 -734 184 0
1959 185 238 0
-1209 1466 1157 0
-958 -1292 1106 0
1711 35 272 0
1879 458 -60 0
1657 1422 1420 0
-582 1951 1335 0
-1176 1811 -1094 0
547 716 -893 0
-1181 1923 -128 0
737 1249 -1121 0
-866 884 -1274 0
-1913 -198 847 0
-584 1897 67 0
810 -1608 934 0
-139 -8 1200 0
-1484 -289 -1058 0
124 -1533 -524 0
1923 450 -1939 0
770 -96 -660 0
-917 -1841 1763 0
-184 1323 88 0
349 -1283 1913 0
-1282 -1692 333 0
-1934 640 1059 0
268 -1141 1305 0
-1603 -1810 -49 0
-1919 -1271 -782 0
-590 -536 127 0
718 -1083 1785 0
-1135 -307 -1633 0
-1459 190 703 0
1850 29 -1768 0
-86 1023 1715 0
-1817 291 279 0
1104 151 839 0
837 1703 -1901 0
-1582 -1349 1893 0
1440 221 1128 0
-1720 1965 -1042 0
-1085 2000 587 0
737 1051 248 0
1701 298 243 0
-838 -1942 1943 0
-498 1679 -1339 0
402 149 -811 0
1505 356 -1290 0
1528 -66 1813 0
-497 -1251 72 0
56 1813 1773 0
-450 499 1131 0
-385 -586 1229 0
-625 693 71 0
-640 -651 -967 0
901 -1870 1765 0
-327 1223 -341 0
-811 1548 616 0
562 -1476 1101 0
-525 -842 -956 0
-1174 1995 1898 0
664 -1682 1940 0
546 -1738 1374 0
-1428 2000 -319 0
1765 1939 -10 0
-1858 355 -912 0
-1604 1607 1742 0
299 1430 259 0
-967 -75 -1583 0
-1408 -486 333 0
402 442 1042 0
1807 -640 1601 0
-1750 -1205 -1870 0
-828 585 1991 0
-238 781 -1819 0
552 -1843 -620 0
141 -584 -743 0
-654 -1275 -1139 0
-1501 1189 -253 0
448 -1153 -932 0
739 -32 -1592 0
-1885 -1791 -1256 0
-1300 233 310 0
78 -881 110 0
939 -1789 -926 0
-1711 1859 1211 0
-316 1971 809 0
1590 1323 402 0
-1492 -102 1383 0
-1425 147 1214 0
1062 1473 -226 0
1734 -1686 869 0
-1624 1913 -645 0
497 -1141 1340 0
179 -800 1996 0
1503 1039 1962 0
660 637 -290 0
-357 794 69 0
-474 -1927 1828 0
-1702 1151 1104 0
-1559 -1282 -142 0
1952 -973 -767 0
-1233 1694 -1001 0
-725 -283 -66 0
1922 -847 -1762 0
1711 1915 1888 0
1986 -101 579 0
-490 -617 -143 0
-137 1637 -297 0
-179 1205 -1822 0
289 977 -786 0
1827 -1504 85 0
1342 1971 1719 0
121 134 1841 0
1657 -1595 761 0
-821 1395 1994 0
1850 -1254 842 0
-1382 251 -796 0
-1620 859 -1218 0
-483 1135 1301 0
-44 -309 864 0
-1137 -1266 -1677 0
450 -683 1384 0
1829 1332 281 0
-484 -947 1851 0
-1848 -47 1587 0
-1867 -1642 812 0
-231 930 -540 0
-1082 689 -171 0
1539 -580 -700 0
1323 -1317 -908 0
-1353 -380 -1249 0
1500 460 -332 0
-1260 1968 -519 0
74 626 253 0
835 -458 92 0
104 -268 -474 0
-718 1601 -919 0
1028 1122 -1653 0
-1655 -230 -446 0
-967 591 1087 0
962 1628 -283 0
-808 -1761 270 0
-1111 422 -90 0
272 -992 1920 0
-1791 -107 -589 0
-523 1570 831 0
1419 1149 -1532 0
-942 -308 -1861 0
-1267 1262 1416 0
-714 -1764 982 0
296 1063 -329 0
1100 -760 -612 0
-1048 -926 1233 0
-470 859 814 0
-1876 284 -1460 0
-1344 473 88 0
-1233 -1813 686 0
643 257 -527 0
1059 -882 -1806 0
-1158 -1007 1648 0
-1370 1373 -305 0
884 -337 -834 0
406 235 -109 0
392 297 1163 0
1608 -1250 -1467 0
114 -1235 -1057 0
-546 324 -655 0
-1816 1976 -1483 0
-634 1273 1340 0
-1247 -1143 337 0
-1046 385 -1633 0
1564 -479 -652 0
1780 -1646 735 0
45 159 488 0
735 1833 1453 0
-682 1129 324 0
-585 -1838 -805 0
-1892 -1061 336 0
999 1895 1312 0
594 1092 -1276 0
-1398 -587 498 0
-51 447 -413 0
1932 1092 -720 0
1960 1897 -1295 0
953 -1693 165 0
-1811 -1963 -1043 0
4 79 -657 0
1072 946 -288 0
47 -311 1304 0
-1271 1403 286 0
-1806 -1122 1496 0
-1125 -681 -1913 0
1512 -189 -1930 0
-1222 -1400 602 0
-393 729 119 0
-1833 106 -1919 0
1061 1635 -956 0
-1771 637 -380 0
1333 -1390 -786 0
937 -939 -1442 0
-1501 1103 1389 0
1878 798 -1666 0
-1975 839 -1402 0
1316 1509 -488 0
-1914 1232 -1793 0
1780 -695 -1731 0
1739 98 -598 0
-1247 -702 -788 0
-1638 -1784 -1150 0
-1469 -1537 -602 0
-1992 -1158 189 0
-206 -1097 1607 0
107 -502 398 0
1069 -1883 715 0
-1308 1897 552 0
1261 1650 1602 0
475 1111 434 0
-817 -685 583 0
-1313 907 1808 0
-369 -769 411 0
-1738 -797 247 0
1969 9 1372 0
-990 420 1524 0
-275 -1534 -1125 0
1231 -54 1038 0
904 -897 411 0
1697 1719 736 0
-217 -616 58 0
-90 -632 -369 0
907 -876 683 0
824 1206 -1973 0
-1442 -117 413 0
1815 409 755 0
1464 -1028 -1695 0
825 70 -467 0
-809 313 1712 0
-444 986 -410 0
1062 712 -660 0
-477 -214 1961 0
-427 -1136 -1724 0
1220 263 -1283 0
-1402 521 -377 0
1280 626 1273 0
-416 1278 -797 0
-84 1070 1867 0
210 922 1565 0
1599 1924 1889 0
376 1534 -518 0
986 1890 -1540 0
318 911 -317 0
-240 -1961 216 0
-146 -316 -1348 0
802 -1679 -1531 0
-1332 715 1687 0
1970 -606 1064 0
780 -1627 1459 0
-706 1506 1606 0
-345 -966 -1992 0
-1547 -108 1309 0
-29 26 -877 0
1450 -216 161 0
1087 1596 1450 0
807 -1499 1776 0
-1379 -626 1237 0
49 1402 -924 0
1795 1203 1818 0
1136 -958 1497 0
-1108 -115 918 0
756 -983 1301 0
-353 -1122 -1480 0
-388 -649 -74 0
623 -1461 -1522 0
1338 -429 -853 0
-1263 67 1896 0
1283 1155 1086 0
-1598 -1552 -1891 0
579 -1781 1249 0
1778 1029 142 0
180 -1394 1562 0
-761 -1198 -1699 0
-776 -499 304 0
-1292 -1884 -1277 0
-1389 623 -620 0
828 1523 -1224 0
-1389 -102 460 0
1948 933 1446 0
-1579 310 -1826 0
-1859 -1603 303 0
-834 -1288 -945 0
-829 -627 823 0
1518 -1216 -1632 0
1193 -459 32 0
110 442 693 0
-977 620 1036 0
-668 -1176 414 0
455 -1726 -1633 0
-33 -946 1021 0
1305 -1444 921 0
-1966 174 1482 0
217 633 -1148 0
73 557 816 0
-1764 514 -984 0
760 -1732 1064 0
1121 -613 1490 0
-699 -375 350 0
774 1802 1300 0
531 -758 -295 0
-432 -388 -941 0
-81 1451 1236 0
-1646 -592 471 0
122 87 1927 0
922 -1552 -291 0
1794 -1015 1375 0
-188 -1303 -968 0
877 -1132 1930 0
752 -1118 684 0
606 88 -1654 0
1224 1662 -142 0
-446 -732 -1654 0
28 1622 -284 0
-150 -1668 1957 0
-488 -504 1588 0
1855 1692 -1163 0
-2000 -530 1807 0
-1561 -79 1726 0
1355 138 -993 0
-159 -1196 -1316 0
1128 1903 680 0
-1765 1192 135 0
-1097 1656 -1306 0
-1222 902 -236 0
295 1478 -198 0
951 -919 1785 0
-857 -1084 1885 0
-217 1887 -200 0
1732 -1364 -1804 0
-311 331 1317 0
-87 1597 60 0
549 -445 1496 0
-815 -1540 514 0
-543 -1299 745 0
298 -237 -1881 0
1582 737 -1845 0
-1490 1963 597 0
-1823 240 -151 0
1357 -937 962 0
-757 -1511 1281 0
799 225 -1663 0
746 896 -1933 0
747 1184 -1256 0
419 1203 -1883 0
1165 127 1253 0
929 923 -262 0
1823 310 753 0
-722 -227 911 0
-1882 1941 1577 0
956 1147 1913 0
-207 342 1648 0
-824 -1527 817 0
-706 -118 -1329 0
-1974 -98 1938 0
-341 1283 -1042 0
215 -953 602 0
-1616 663 1017 0
-1109 1335 133 0
-1927 1377 -975 0
549 81 -483 0
61 38 1400 0
823 751 137 0
1136 -930 -175 0
430 876 -778 0
433 -47 507 0
1916 1294 763 0
-927 -6 -1160 0
413 -290 -674 0
-1891 -348 -1663 0
-282 -558 -1193 0
359 55 710 0
1449 393 41 0
202 -1689 -563 0
-1843 383 1078 0
378 -235 -371 0
-28 1753 115 0
-400 -1081 -985 0
1232 -234 623 0
-529 99 -1773 0
1797 -933 602 0
-1539 -781 605 0
1909 1953 -633 0
160 -1614 1807 0
1825 1717 849 0
-1591 -1402 -1748 0
104 1501 -1048 0
903 -1242 1333 0
16 -1632 622 0
-904 507 98 0
-151 -253 -831 0
-740 1411 793 0
-1890 730 1123 0
1764 422 1895 0
-520 125 806 0
472 -1286 772 0
-1122 1253 675 0
-1521 -63 1803 0
-565 -1862 1995 0
-760 -765 1203 0
30 -690 582 0
1591 -689 -122 0
327 36 726 0
530 464 290 0
1121 679 1618 0
605 -1859 519 0
1240 737 -1359 0
1482 -1337 978 0
-366 391 -337 0
-1918 498 1946 0
-356 35 1352 0
-240 -1732 -1612 0
1228 1151 -726 0
1692 1137 -1427 0
-373 1512 1038 0
-216 507 1022 0
-1099 -1516 578 0
-30 -538 -789 0
-625 -383 -363 0
-123 -1562 1685 0
107 30 1909 0
1618 1125 86 0
-809 482 967 0
1250 -87 -1988 0
1234 -1368 -199 0
1256 1574 -1746 0
-1010 1112 1192 0
-288 319 1439 0
-671 1642 -1127 0
491 -1148 -625 0
-845 1198 -1826 0
-1833 -827 -61 0
-1135 933 -1804 0
-497 -1930 -1743 0
-1177 1938 1036 0
-1168 -1902 -689 0
1097 -1302 808 0
372 -1567 -171 0
-95 -1890 -489 0
-393 -113 -961 0
1513 -1763 -181 0
-1860 -758 901 0
-73 1102 -361 0
-879 -573 334 0
-1228 612 -205 0
-745 -343 636 0
-315 -837 1492 0
-779 1012 -277 0
-1001 -1962 53 0
1162 1912 1005 0
-183 1102 -757 0
1054 1986 -573 0
1533 1966 1905 0
893 -1756 -645 0
1456 -1933 -1614 0
-1491 1187 -1839 0
-248 1123 1884 0
-651 1683 -1813 0
170 -420 -1144 0
-1875 -1075 558 0
1388 1613 1059 0
70 621 1643 0
1587 29 -790 0
1340 1453 -1004 0
-1451 1110 1157 0
-1014 -277 678 0
834 922 -913 0
-1297 -152 -759 0
1783 -1878 929 0
-279 812 1066 0
-516 950 -1929 0
-1122 -958 570 0
568 -80 975 0
719 -1562 -1074 0
-543 1266 1367 0
-973 -84 -1236 0
82 1003 -1866 0
1471 -1858 288 0
-1208 -333 -1334 0
1934 -1345 -1355 0
-432 452 997 0
595 1373 -1606 0
1653 -1537 -1230 0
1787 -1148 -1996 0
780 359 -1032 0
1320 702 1032 0
269 1429 -959 0
-1627 258 -981 0
-1285 167 -380 0
1616 -949 -448 0
1673 702 1549 0
-1250 -1910 -977 0
749 1082 909 0
-933 -1466 -707 0
82 1320 1620 0
-866 322 -823 0
-1256 -1963 1604 0
-34 141 186 0
-346 821 -407 0
388 823 1890 0
-428 -1063 -1986 0
37 357 -100 0
-784 509 -610 0
1712 444 264 0
1933 194 1012 0
-1103 -500 523 0
598 -1667 1491 0
-246 1863 1934 0
237 1394 291 0
1418 1920 1066 0
364 1330 -316 0
1639 -450 -1956 0
-918 712 -754 0
1861 1466 -1851 0
292 505 -140 0
1515 987 919 0
512 -1853 64 0
1601 382 -510 0
495 -659 630 0
-880 1714 -1084 0
1708 1825 1863 0
322 1598 1050 0
966 1770 1601 0
-1153 -1430 -873 0
-259 852 1987 0
842 -139 -919 0
-385 1243 -1757 0
569 1929 -852 0
-1554 -1389 -518 0
-1063 -1234 521 0
162 1193 540 0
-847 1826 -1266 0
1353 55 -1520 0
966 1959 -1610 0
-679 -1361 748 0
-1072 1821 -116 0
-278 -1025 1299 0
128 -421 1808 0
-1936 1886 -845 0
10 267 141 0
-500 -938 -1339 0
-601 669 -1120 0
-280 535 -1907 0
-1629 225 766 0
1051 -1604 127 0
-1428 200 -1896 0
1279 712 -1620 0
1424 1965 -940 0
1234 -1723 -1109 0
141 -1112 -129 0
-592 -23 1819 0
1290 -931 598 0
880 -1402 -1381 0
-423 948 333 0
762 -642 -64 0
1320 -948 1528 0
-698 -274 -1426 0
341 1813 -1863 0
-694 -1186 -1421 0
1817 -605 -986 0
-609 978 -525 0
-590 -1098 -1880 0
1969 -1892 1435 0
-552 -1637 -1140 0
1652 1458 857 0
1107 -385 1612 0
1931 395 -1972 0
1200 1448 -768 0
-880 582 -1922 0
-1255 -1080 -1551 0
770 279 -582 0
291 -1222 39 0
-709 -1308 260 0
962 1838 -436 0
1246 778 1002 0
-1695 -1024 -1686 0
-761 -17 -876 0
-1257 1231 -324 0
-95 802 -1455 0
-483 -1734 1334 0
905 -1073 150 0
631 -1057 586 0
34 1816 1738 0
1631 1286 34 0
-929 -792 -246 0
-1030 -895 -1633 0
1368 1419 534 0
1414 -1827 -1694 0
-810 1284 997 0
-953 -885 675 0
-1730 -1013 158 0
-1562 -1054 -738 0
-1738 -1640 228 0
-1520 -1558 -1601 0
1384 662 29 0
-348 1726 -212 0
776 -1596 644 0
1011 -1002 -1268 0
-680 -262 453 0
72 -217 1574 0
-227 890 -189 0
822 -810 -694 0
-1069 -621 -1659 0
1749 160 -1834 0
-1061 342 1755 0
-8 -1255 407 0
1070 -479 1977 0
-796 -1173 -1127 0
35 1719 -999 0
-1283 -28 -1980 0
25 -1595 1704 0
-1259 124 1915 0
1677 1100 344 0
-712 1723 1925 0
24 226 -77 0
187 1419 1988 0
1725 -1178 -128 0
-388 -1338 -1857 0
893 1631 -1968 0
-695 -465 1075 0
1105 1717 -1846 0
-1504 1628 -1982 0
1370 1397 1625 0
1337 128 -186 0
-826 1428 1340 0
1481 1879 -1730 0
-1077 -288 -1433 0
790 1373 -1250 0
-103 1423 -1911 0
574 -480 -1237 0
678 -768 1447 0
-972 -555 90 0
924 -1046 -456 0
1477 1009 -643 0
-804 -727 1735 0
-300 -1767 -1347 0
-16 -1346 649 0
-265 961 -1887 0
-1782 1215 1635 0
1537 71 -626 0
643 -1624 1171 0
1227 -1134 639 0
1835 1671 1987 0
572 -1225 -587 0
1269 -288 -852 0
1711 -1380 -1743 0
1105 535 634 0
-1409 89 1030 0
-592 1524 -225 0
200 790 1934 0
641 -447 -1646 0
1541 -121 -890 0
-1115 -229 -206 0
-308 -1088 1026 0
-1236 1553 285 0
249 -622 389 0
-1785 1665 -401 0
750 493 -18 0
1571 548 183 0
1354 458 1055 0
112 379 -1030 0
-1290 -1614 -68 0
-269 785 -1242 0
733 -668 -1878 0
1469 994 -935 0
91 787 150 0
1648 -57 1821 0
-1710 -1753 667 0
-500 1772 410 0
-1276 712 -1399 0
-892 -833 -337 0
1715 458 1847 0
216 1756 -1173 0
830 -173 -3 0
1087 303 -738 0
92 1090 -96 0
990 -1 -488 0
-1149 -954 1918 0
-1561 -1855 -1328 0
1992 -815 -95 0
-1680 -1345 297 0
-215 -253 1908 0
1835 1976 -1363 0
-1399 362 -1755 0
-1244 995 -643 0
782 883 -903 0
-368 1296 -587 0
-1620 -1920 -258 0
1908 -1658 1092 0
-59 740 -1187 0
-1398 -1907 382 0
1112 -1102 348 0
-23 515 1036 0
-1949 -1528 1794 0
1723 -6 -236 0
-1405 -479 -1812 0
1447 -326 178 0
35 1148 1036 0
108 -1421 1870 0
1091 -723 -91 0
712 -569 -999 0
1949 -31 -213 0
-1758 -800 1083 0
-465 1751 318 0
-1171 -1865 -1434 0
-1602 -201 619 0
1710 723 767 0
-452 -1498 -685 0
-1693 -843 1926 0
-1074 -1421 -46 0
-50 -1170 1457 0
-409 913 -509 0
-1726 -1244 1768 0
-758 515 1906 0
-1450 304 -1358 0
302 -1508 1395 0
-1887 -1669 931 0
-1110 813 321 0
-129 447 -890 0
1403 299 985 0
721 -335 1208 0
1775 380 -641 0
-1490 -985 146 0
1170 -334 -1946 0
-399 1139 1483 0
-1869 303 -1320 0
-1159 1576 -1444 0
-1151 1733 -513 0
1026 -1142 1788 0
-1590 1681 -1068 0
522 -1841 -1139 0
785 -158 -544 0
1819 141 -1292 0
891 1197 1439 0
245 1619 611 0
1538 -1110 117 0
-947 1795 356 0
982 842 -1053 0
-1116 -860 -587 0
-841 1352 -1264 0
1406 -1350 168 0
-1177 453 1781 0
1341 969 -1925 0
-167 -607 240 0
1931 16 1718 0
560 -196 1750 0
1486 -30 -89 0
1034 -1313 1669 0
308 -236 1084 0
-1168 1739 -1317 0
872 1696 1354 0
-930 -3 574 0
1824 103 1306 0
-510 -1441 1973 0
1558 -1753 1499 0
925 468 -262 0
-228 1217 -464 0
-1297 908 1869 0
-1210 1081 -1548 0
1839 -496 -249 0
-1316 411 -1185 0
1512 -1722 1520 0
-1933 596 -1621 0
1713 -383 -397 0
-483 -1758 963 0
1013 -34 1733 0
-367 118 -935 0
-1826 340 1405 0
-482 150 -1398 0
1921 -743 -1340 0
1170 -1505 530 0
-128 -965 106 0
-1611 -833 944 0
1564 -480 263 0
-669 1292 -1835 0
-1192 -156 -1056 0
-1787 -1599 1222 0
-1511 1867 -341 0
170 1218 -153 0
1331 -1404 -257 0
542 -968 9 0
-1377 -1810 1258 0
1549 993 1459 0
-1234 238 1849 0
1837 -272 1043 0
233 -631 -29 0
1953 -900 -353 0
-59 1293 -1543 0
-1159 -1044 -1728 0
887 115 816 0
1870 -1353 -755 0
-198 -1604 1629 0
-809 -963 -1458 0
-1952 -1237 239 0
-92 1319 1791 0
317 1643 933 0
-147 1972 -1381 0
-1499 -358 915 0
1903 134 -1198 0
732 1414 -1676 0
109 405 429 0
1137 -1810 1531 0
1941 1315 -1032 0
-1165 100 1160 0
-373 736 527 0
972 1739 -861 0
-461 -1106 -1319 0
-1856 446 -386 0
-1931 -1733 1452 0
360 1648 154 0
217 1786 -893 0
-922 -287 -193 0
945 77 -54 0
1620 713 652 0
1031 1901 57 0
1469 1045 643 0
-1568 588 1869 0
377 -221 1578 0
-996 1371 433 0
-37 549 -362 0
407 -290 -1765 0
-1388 963 116 0
1775 -1405 -1714 0
93 223 792 0
-922 807 -880 0
-1767 1166 -1215 0
-1202 -1549 708 0
-383 1760 -9 0
1118 1066 1789 0
-1092 -1245 -833 0
-1690 -1537 -277 0
-625 -1780 1302 0
-889 -1898 -1340 0
-1837 1145 -343 0
1148 221 -1400 0
-1284 -1804 1688 0
-1963 196 -1080 0
-975 -1250 665 0
561 -1121 -364 0
1136 1546 -1814 0
-236 -731 -1435 0
1205 872 -988 0
491 657 -1431 0
-1984 664 -1518 0
-918 -736 566 0
-561 1309 -1667 0
-1046 -1040 899 0
-1641 874 764 0
130 566 53 0
-1745 -1992 233 0
-169 -12 -1957 0
360 334 -1876 0
-1 570 -1926 0
-1254 1447 635 0
-745 245 -1749 0
-1581 212 -581 0
-751 -996 -1384 0
704 -974 1745 0
340 1169 -1228 0
1525 -1760 1922 0
1958 839 -301 0
1217 -453 805 0
-700 1942 -445 0
-413 -847 21 0
1270 762 82 0
1871 514 -581 0
-1225 -1737 1896 0
4 -1394 -633 0
-857 -991 -214 0
-1788 -540 165 0
-1471 803 869 0
1616 1322 -1339 0
-1950 -1959 -1334 0
791 -1053 1897 0
1685 -625 -396 0
1451 -190 189 0
-434 -1816 1440 0
-744 -1025 970 0
616 1438 -1964 0
1136 698 -53 0
-347 -450 474 0
1298 -37 -1394 0
179 -1290 1709 0
14 -436 -1742 0
-1169 1358 -1187 0
946 -781 1983 0
-436 -378 1877 0
-1612 -1260 357 0
1716 1583 -320 0
1765 -279 1314 0
376 -791 586 0
-559 1716 -1477 0
-1710 1826 -495 0
1017 -188 -1998 0
38 -1712 -754 0
-1290 161 1597 0
601 1482 776 0
-49 -1564 261 0
-1976 -1536 497 0
-493 -1366 976 0
1191 130 -224 0
-1628 1374 -1535 0
1105 1896 -832 0
-601 -17 381 0
1265 -1981 278 0
-1672 -1506 1930 0
723 1281 1970 0
1545 821 889 0
-1891 -666 1264 0
-227 -109 345 0
-1575 575 237 0
1676 -1565 118 0
-267 -66 -398 0
625 1141 -557 0
1469 -340 -1452 0
491 822 1958 0
-1810 102 -1085 0
726 -1305 789 0
377 -345 774 0
1360 -1452 -1618 0
-440 -800 793 0
1901 -206 1533 0
-1872 -1708 162 0
-1739 -1392 520 0
-447 289 688 0
1559 676 688 0
1429 -1313 502 0
-1289 -1644 840 0
-1832 -645 1874 0
-1098 875 318 0
-209 1379 796 0
592 -1008 -141 0
1317 970 515 0
-1236 -989 1427 0
889 -351 993 0
-1398 1253 530 0
1952 -1173 442 0
688 945 1018 0
1379 330 -369 0
-1249 -814 -1609 0
-172 -1697 1939 0
546 1754 84 0
243 1687 461 0
1863 -1320 -182 0
1475 -382 723 0
103 545 1394 0
-1434 1778 -466 0
-572 1487 -708 0
-1387 934 1111 0
1907 479 276 0
-1778 766 1897 0
1974 -931 -924 0
-1351 603 1094 0
718 -517 647 0
464 743 306 0
999 -1748 594 0
-1985 1724 -550 0
-1905 -1986 744 0
-763 985 412 0
-193 -33 -700 0
-1525 -1068 1327 0
-1819 -757 1848 0
341 -1357 -1136 0
-1781 1612 -1016 0
-931 1862 -39 0
-740 -788 1586 0
-804 796 -181 0
916 242 116 0
1587 -1288 -726 0
-551 -633 -645 0
-566 1127 904 0
-1876 763 611 0
-437 -1830 690 0
-1754 -77 1680 0
-640 1477 253 0
1717 27 1326 0
713 1778 586 0
995 1867 -1447 0
-485 -1327 1212 0
903 932 -1768 0
506 -635 -82 0
461 1840 -1391 0
-214 -1734 479 0
537 1654 1811 0
1141 -773 -1408 0
313 454 -1372 0
1817 -1102 1650 0
-767 -174 1728 0
352 1844 -1973 0
540 -665 1878 0
1967 180 33 0
-541 -1875 -550 0
-145 1617 -1080 0
-915 1761 1592 0
-1837 894 1566 0
1497 982 1411 0
1910 -142 1430 0
1573 1670 -1651 0
-329 -1265 84 0
-750 -1677 -1939 0
1406 -1036 843 0
1694 -983 817 0
1966 -573 -1366 0
1852 -1927 -555 0
1296 1602 727 0
1729 111 683 0
-989 -1263 -1059 0
1051 -1729 -1409 0
1402 10 -1489 0
785 -155 -1935 0
-126 538 1354 0
582 -248 1388 0
1500 -322 583 0
365 296 307 0
385 1626 -427 0
573 -625 1111 0
-1746 -1796 885 0
1562 -282 -1252 0
1949 -924 -18 0
-477 -1675 6 0
983 1354 79 0
62 -954 459 0
-518 11 1086 0
-850 1578 -430 0
72 463 -369 0
-1928 -185 -1954 0
1551 -1667 658 0
-1752 -864 -1776 0
229 1729 1590 0
-1161 -1200 -219 0
829 1826 -1144 0
-1551 -1497 203 0
1223 -749 428 0
-727 -172 -151 0
-204 -673 -617 0
-1092 -769 -686 0
-1192 1547 716 0
-124 177 -1663 0
-384 -1890 -92 0
-72 -1059 -1535 0
1265 -978 618 0
1809 771 -561 0
777 -1242 -1044 0
103 -1419 -1508 0
-1797 -1447 1636 0
1543 106 1041 0
-856 1500 -1294 0
-1163 -1852 -532 0
-1214 -1982 -97 0
-1936 -1559 -450 0
-1201 1944 132 0
674 -1986 -858 0
-1190 379 -1820 0
1177 1879 -1747 0
338 -1414 46 0
-1022 1230 710 0
-212 -1194 103 0
568 657 1589 0
-218 1592 1125 0
1328 -1195 -321 0
-1513 -845 1393 0
-802 307 -1217 0
-1048 -1 -1669 0
-1944 783 -1940 0
-1201 1057 1691 0
-142 207 1667 0
-1852 1094 1394 0
826 1903 1461 0
-922 1386 270 0
-1456 -1324 -1802 0
-1341 1135 32 0
-741 108 -1298 0
1817 945 -1170 0
-668 -923 1246 0
-133 -390 1135 0
1619 456 1578 0
-1145 -1795 1898 0
-1707 767 1994 0
-1104 478 1181 0
-1135 -169 -1950 0
106 1372 357 0
-1647 -921 -785 0
-1218 -531 1378 0
-194 -890 -1607 0
1181 1338 -1831 0
710 -1102 -614 0
1175 205 -170 0
-679 -902 798 0
211 -897 1466 0
-906 44 -1844 0
-1449 1579 504 0
-818 1182 -871 0
788 1821 1131 0
1772 1036 157 0
-583 1662 -160 0
-923 -1421 703 0
-935 -374 1810 0
-661 -448 1566 0
-571 251 -1768 0
916 1134 1114 0
1309 957 356 0
1949 -453 -1270 0
-1150 1631 15 0
679 -181 -1979 0
225 -1064 1101 0
827 -437 -131 0
1327 -38 1830 0
-683 1291 -145 0
1343 947 1356 0
1031 463 457 0
456 54 -1272 0
-824 1461 1596 0
-60 -13 -319 0
13 585 1414 0
-831 -1918 1519 0
-131 1303 1356 0
-215 -1532 1719 0
1503 -812 -1245 0
244 936 471 0
390 1148 -395 0
-1243 400 590 0
-1486 1349 224 0
-1828 1906 1649 0
-1318 -1049 -712 0
-1805 231 -1647 0
-1095 1304 1362 0
-508 805 -261 0
-143 -978 139 0
964 -77 769 0
-1828 -59 259 0
929 -566 1637 0
-1135 1911 224 0
-144 -981 12 0
739 -1110 751 0
-353 -1261 -1813 0
979 -1847 1052 0
-329 281 369 0
-303 -1583 112 0
1051 -1980 375 0
-1941 35 571 0
-301 -896 15 0
-522 375 -1318 0
-361 139 -645 0
-1825 1065 -575 0
-1642 -1696 1989 0
-1732 754 -66 0
457 315 383 0
-1949 -197 523 0
-679 -258 -1497 0
-806 1166 1790 0
-1450 1605 1384 0
998 266 -1817 0
-1958 -500 934 0
-1066 1839 1209 0
424 -609 -1363 0
-773 -1550 -758 0
-430 -1541 -709 0
-1925 1726 1710 0
1095 1246 -869 0
-1864 1749 -469 0
640 -1261 -391 0
856 1443 112 0
-525 385 -1753 0
-943 1868 -1222 0
1029 -470 1451 0
1649 1580 1990 0
693 1781 -307 0
-838 836 -269 0
1294 875 1026 0
1897 -1164 258 0
-1730 1705 -1289 0
498 -1230 484 0
-1401 -481 -238 0
57 -249 -109 0
1162 -1728 -1913 0
998 1857 675 0
470 90 -495 0
7 61 232 0
1795 1056 -942 0
436 1276 583 0
-112 -306 1437 0
374 829 -1158 0
996 1630 582 0
-1830 -443 503 0
-118 475 -1079 0
-1036 -1710 917 0
217 1894 -636 0
135 -1014 -1222 0
-1348 -483 -1553 0
1506 124 -696 0
884 480 408 0
1035 -82 79 0
1233 -566 158 0
722 290 -392 0
-754 -1664 -1023 0
-1400 -619 442 0
649 -1525 -388 0
1450 -1002 -739 0
1419 1425 605 0
-113 962 -624 0
269 -507 -780 0
-93 -1947 -168 0
361 1793 921 0
-813 -656 -1783 0
23 -1349 -1036 0
-1340 -1033 -844 0
758 -1374 -848 0
360 1934 -788 0
87 -869 1902 0
-261 1770 -630 0
1606 1659 -329 0
-1692 1463 1406 0
-1218 1695 -1030 0
-1100 -262 -1049 0
1090 414 230 0
-1957 1408 149 0
-1061 -1306 4 0
-80 -521 -297 0
1860 -1420 1292 0
-1675 753 657 0
-765 -611 -1666 0
-289 -1775 1686 0
-407 516 -452 0
-1474 510 -280 0
704 1713 1427 0
1107 204 -1023 0
313 -1340 -122 0
1601 703 1047 0
-550 247 -867 0
588 1831 -390 0
143 864 1997 0
1530 -672 151 0
-136 -1125 1605 0
871 1941 305 0
-220 974 1947 0
-343 901 1745 0
1942 -1459 145 0
-180 -1896 -1595 0
211 1104 -230 0
691 866 -179 0
1038 770 -1938 0
-180 -868 -1237 0
-12 -593 -1222 0
1141 -1836 -1685 0
409 1967 252 0
-307 847 1087 0
1338 782 -1030 0
1626 177 -118 0
-506 -1640 -1959 0
1824 165 -676 0
844 -282 -1807 0
677 1323 757 0
-1879 -164 -1111 0
1443 -527 -790 0
-975 108 -1162 0
1699 -927 -1581 0
-915 -1651 1625 0
679 1598 -1417 0
-916 -968 966 0
-1522 -788 -1212 0
-1184 -320 -1902 0
-1052 1404 58 0
-656 -104 1452 0
-208 -1403 416 0
-205 -1647 -453 0
-1026 -661 -224 0
-125 -248 1885 0
-202 -678 1122 0
913 1014 1594 0
1151 -1599 -1673 0
1421 -1742 1046 0
535 -1088 726 0
-1570 528 1124 0
-331 -623 -1740 0
1749 1487 1848 0
1365 -513 536 0
-1628 251 1745 0
33 595 -507 0
6 1767 -1801 0
-1923 -1493 -1441 0
178 3 606 0
1192 999 -390 0
-1986 -1171 -76 0
-476 -1848 139 0
1511 892 -1693 0
-667 1670 -1469 0
-1258 1456 -1566 0
939 1958 -1752 0
-1643 1305 1370 0
-1730 -1375 -1258 0
-551 -876 -1635 0
970 -608 -1416 0
-563 -806 438 0
-749 275 -1453 0
1304 -1882 934 0
1270 -559 1780 0
1944 -1816 -1384 0
1365 -921 1045 0
468 -1130 -649 0
-1647 1158 1265 0
-368 1330 -1866 0
-1856 1082 1562 0
-424 -1793 1419 0
1506 1520 268 0
-420 735 -29 0
-616 844 -2000 0
1024 -391 -1500 0
613 1838 -340 0
1339 1592 1103 0
-272 1150 492 0
317 1550 1555 0
589 386 -1363 0
1981 -1749 -865 0
-622 -456 153 0
-116 67 1855 0
-675 865 427 0
-1882 -995 -723 0
-847 251 -1537 0
-420 49 1497 0
-897 -528 394 0
1895 1473 -1503 0
-1649 -677 1487 0
-1578 -1757 -425 0
-862 -1795 -467 0
-1442 9 119 0
-198 1477 -1527 0
-339 1397 1854 0
1126 628 911 0
1280 -588 -1732 0
1 -1940 1126 0
303 700 -1263 0
-801 1162 -1206 0
201 -259 998 0
456 1319 -172 0
1735 171 -804 0
894 -1960 -1105 0
-1543 -573 -682 0
-388 -95 -700 0
1501 516 -216 0
1941 1420 -67 0
98 -789 -359 0
355 -1538 1043 0
1646 -633 -1780 0
-520 841 1911 0
986 443 -755 0
367 -1261 -843 0
-402 476 -1899 0
968 -132 -902 0
1957 -1028 -1046 0
984 1500 -350 0
815 -320 758 0
-1695 -440 -1612 0
-1235 -1887 -746 0
827 415 -144 0
-720 -1173 -1950 0
-1298 1533 -834 0
1505 296 1765 0
-658 718 1265 0
-1218 316 -1984 0
869 -1803 -1156 0
956 -623 1606 0
-768 1405 -1781 0
-1525 -1590 1109 0
-1316 1676 -1476 0
1681 874 -952 0
-1546 -332 175 0
104 -18 803 0
-1007 346 1454 0
790 -68 -897 0
-1895 1190 -900 0
1180 200 452 0
-594 1961 -788 0
-1952 -1306 -656 0
-138 -431 1784 0
-16 -996 -643 0
-1768 1885 -1050 0
-331 162 -669 0
-1607 -218 65 0
1780 -275 -904 0
766 -748 422 0
849 103 -1353 0
-1770 325 1144 0
1983 1720 -1665 0
522 33 -1807 0
-1946 1596 -877 0
-1800 704 1748 0
1698 -1147 443 0
-1067 499 -1049 0
-1282 -1250 -270 0
-88 1579 -1585 0
1895 -1286 -587 0
825 524 -3 0
-1608 -1511 -570 0
-1993 -310 88 0
1301 -19 -319 0
-1306 -1880 -1365 0
-1121 196 1128 0
-1492 -913 -1754 0
-835 -1761 -1935 0
-1871 1323 444 0
757 -1203 -842 0
-1227 -656 50 0
1180 -1281 -850 0
-1930 359 -1512 0
-851 -122 -1982 0
-1063 -1414 -1305 0
-1414 -895 -1738 0
-499 1759 684 0
280 -479 473 0
1756 1169 -878 0
1279 620 1522 0
-1339 969 316 0
805 1875 1542 0
889 1349 -573 0
1570 -1966 -1871 0
1575 719 1369 0
1300 658 -1462 0
-87 744 -33 0
-860 251 1895 0
-1053 1863 923 0
-277 85 88 0
276 -857 -1344 0
-480 -1984 -1364 0
901 800 -689 0
-545 169 1708 0
1959 683 -93 0
-1035 -399 -1204 0
1766 1237 -876 0
-1 872 -239 0
-1586 748 -1780 0
1046 1839 -100 0
805 1391 1081 0
-592 1411 1176 0
-1379 -1504 1246 0
-1398 -349 659 0
846 -1185 1298 0
-1301 -740 -1328 0
1855 349 1648 0
-1080 980 977 0
-53 -1519 1745 0
1461 -1008 1347 0
434 255 1823 0
1236 -6 1033 0
-99 1628 -725 0
-719 -533 630 0
-461 1542 724 0
1418 -1425 578 0
73 276 -489 0
71 1632 1355 0
481 1042 849 0
-764 -1100 -582 0
1462 -1429 -81 0
1152 -988 737 0
-752 -1337 -75 0
905 -1429 771 0
-285 81 71 0
1651 1506 1773 0
590 131 288 0
-681 -1820 1644 0
1118 80 -1045 0
-1559 74 -424 0
-750 -1144 717 0
1778 -1235 1266 0
-53 -1358 -386 0
48 -102 710 0
-1381 -105 980 0
205 240 -534 0
1126 -1905 371 0
1053 -974 -1822 0
88 435 1739 0
1108 1360 973 0
-426 1004 -1062 0
1301 829 -1509 0
-509 -375 195 0
-1802 627 1582 0
-1883 -1508 -1052 0
775 -689 -20 0
1731 -1180 -282 0
-1503 518 377 0
1540 1680 -926 0
-1689 -554 878 0
1960 -847 -269 0
155 -1902 -1458 0
83 -190 -709 0
994 1183 567 0
-1070 -1140 1165 0
932 -732 1114 0
-69 -1320 1536 0
124 -519 -880 0
1262 212 1307 0
-1491 -1566 -502 0
-1366 -1309 1255 0
-1788 -1716 -192 0
-1143 -1168 -365 0
-219 -863 1874 0
-148 1475 1975 0
382 -1758 974 0
-1258 781 -1959 0
1566 -1996 -672 0
149 1723 1968 0
-949 -1364 -456 0
-286 49 -489 0
1671 650 -1608 0
1118 -215 -1327 0
1787 1939 -665 0
674 1641 1545 0
-1285 310 -1261 0
-1751 1847 -888 0
1624 467 -931 0
989 -1709 -613 0
-486 -425 -1526 0
1488 412 1552 0
-1172 -754 289 0
1404 -1345 923 0
-1047 636 -404 0
91 1402 1438 0
-1723 -1624 -555 0
946 1405 -365 0
-1580 -205 -548 0
-1523 -558 -775 0
-1474 -689 1967 0
42 349 801 0
200 -924 -1167 0
-1567 522 -299 0
1193 -1947 1013 0
-1929 -1052 1355 0
1437 1729 53 0
-976 1641 -283 0
-1785 1373 648 0
-1336 -1297 -1637 0
1134 -1697 1728 0
1527 143 348 0
658 744 -1820 0
479 801 -1367 0
1714 -1578 -1631 0
-604 -1405 249 0
1709 -466 142 0
656 897 639 0
1774 -734 -446 0
-1927 46 363 0
-419 914 454 0
-1756 -1058 257 0
1901 722 802 0
-224 -1095 -1944 0
-461 864 -369 0
-1264 -1140 1049 0
442 -1488 -1861 0
428 1027 1249 0
-579 -1860 1881 0
-1547 -1538 239 0
-354 -1291 -1741 0
1223 1568 -1436 0
612 -283 -1165 0
1451 -1966 1730 0
848 -973 416 0
1954 1313 1486 0
1596 -1092 -1115 0
1291 128 -1266 0
-1437 285 797 0
-1840 -1039 -1465 0
896 830 786 0
1627 93 355 0
-1157 -261 -1833 0
440 144 -1743 0
317 1319 -39 0
-711 -1485 -411 0
-545 -1060 208 0
-1774 -1147 234 0
837 -508 900 0
-1893 -642 874 0
-1982 -460 -1831 0
817 1686 -1540 0
-398 249 1487 0
1195 610 -332 0
1535 -1634 1613 0
-778 -112 -199 0
1427 -464 -1215 0
1120 -1685 -1210 0
1418 488 -754 0
160 655 -1916 0
1153 1697 -1014 0
522 463 -1878 0
747 700 -829 0
-288 -1371 1336 0
1185 -402 953 0
1272 841 -922 0
-32 -327 1557 0
-62 121 -1257 0
1161 1185 103 0
-1488 50 1086 0
1992 783 1276 0
-202 1105 -815 0
-12 -824 446 0
683 1499 -1247 0
1711 255 -1472 0
-607 577 -1021 0
1029 -1941 1852 0
-1074 -1642 346 0
-1750 388 -1641 0
1303 -839 -1802 0
-1084 -110 1223 0
537 -1804 424 0
1138 -336 -475 0
-303 1121 861 0
1977 -523 1615 0
-519 -141 -1678 0
977 -382 -1615 0
243 1597 1155 0
1990 -1397 6 0
705 -1219 -1817 0
1602 378 660 0
-223 711 997 0
-1753 1639 1736 0
-391 501 -1062 0
491 405 -878 0
-344 656 -997 0
-1835 1735 -455 0
1788 -1779 1595 0
1158 -1970 -1253 0
1120 1899 306 0
795 -1161 404 0
-1332 -302 -936 0
-604 216 1537 0
179 -1150 49 0
32 1217 492 0
-829 1448 965 0
336 -1994 115 0
1423 748 1985 0
-378 1934 -185 0
170 -489 1175 0
843 -702 -1945 0
247 -197 -550 0
-1136 -292 -688 0
1704 782 1952 0
246 -1525 164 0
-1138 -396 -728 0
-1251 786 1103 0
252 -1827 -1684 0
1636 -364 -1978 0
-619 1454 1508 0
789 -562 454 0
1900 -880 -1577 0
1886 1230 1605 0
-145 -1416 -1692 0
-1724 1461 -1333 0
-1928 1066 -881 0
817 -57 -893 0
-1744 -450 590 0
1079 -328 -1175 0
-1586 1580 -589 0
1530 -238 1734 0
-336 -1329 -979 0
1785 1673 1396 0
1501 1367 558 0
1097 415 -632 0
808 -494 -36 0
-1444 1550 663 0
1697 1691 1506 0
-1451 -667 889 0
-1289 -1326 412 0
-179 -756 563 0
-610 721 -258 0
1732 1838 -500 0
1746 1896 1723 0
1599 -1068 1509 0
-28 -830 663 0
98 -890 1908 0
-1890 -788 -1069 0
-1548 1424 -256 0
631 -657 163 0
-642 -1088 -316 0
-1004 -887 1715 0
874 789 -1449 0
523 435 1875 0
1137 612 849 0
-343 -1429 -1935 0
-1461 -840 -304 0
53 -1366 1030 0
1035 193 -436 0
1881 -1786 -1670 0
-1535 1799 -712 0
-872 466 -1318 0
504 -1413 -496 0
817 868 1094 0
-1404 1851 -917 0
303 -1861 -856 0
-1077 1971 1437 0
-931 1169 1375 0
-308 -1781 1217 0
-1519 415 1265 0
-88 1915 596 0
-1464 1581 1028 0
1835 630 72 0
-1904 -92 1284 0
1797 502 169 0
-749 896 1326 0
366 -418 404 0
1132 61 613 0
1117 793 841 0
-34 -1895 -1187 0
-514 -652 1867 0
-1467 -169 817 0
1430 -728 1571 0
-1236 898 653 0
60 260 875 0
297 -628 497 0
1712 -703 -1547 0
1673 -658 441 0
-1852 -1158 -66 0
-129 -1033 -867 0
-1110 748 -302 0
1310 1103 1546 0
1461 63 -914 0
-198 1970 64 0
1547 -803 458 0
-1996 -1969 -516 0
541 1392 1886 0
174 -687 1248 0
-1251 -1402 1305 0
1361 1460 -457 0
-110 1473 -464 0
631 -1259 -1355 0
549 -420 -445 0
468 1818 852 0
1552 1449 268 0
-940 -765 -1091 0
-1696 -1791 -1996 0
598 363 -1384 0
-543 -1004 348 0
1221 -1386 739 0
-381 223 82 0
21 -1342 866 0
-1512 287 -1269 0
-1 1762 -1862 0
-230 -1046 848 0
1024 -53 -826 0
40 1092 -584 0
-383 514 517 0
427 -260 703 0
-1297 -1546 812 0
-1368 1837 151 0
-859 -1657 -1610 0
-626 -830 -333 0
1771 888 -464 0
-373 1290 -767 0
1918 -1576 -261 0
-19 476 1770 0
984 -1284 151 0
-1909 904 -141 0
1381 -977 -168 0
-1792 -955 1886 0
1102 -1869 1682 0
-1627 662 -1173 0
-1301 -869 1793 0
-1032 1636 -1695 0
-1013 -1473 -1101 0
955 504 -1994 0
-882 837 -152 0
62 200 1046 0
934 -581 461 0
-952 1532 -370 0
290 -1015 1655 0
1203 1520 1294 0
-510 -1334 -1004 0
-1837 -265 -923 0
-356 393 559 0
100 1637 65 0
-808 -906 -1384 0
1271 919 -834 0
1986 -1459 -1907 0
706 1861 -866 0
-1842 -1674 -100 0
-651 -1303 1076 0
882 -1480 -1280 0
791 1372 1102 0
-260 -1758 -431 0
732 462 -1876 0
1061 1506 -1734 0
-970 932 -1940 0
-1227 -487 1318 0
-763 840 1060 0
531 -1672 -185 0
-948 1587 939 0
1173 1236 -1582 0
-547 -1474 494 0
-201 -1800 -1681 0
294 1528 1604 0
-614 1253 1412 0
-1550 879 1361 0
280 951 -1336 0
463 265 -1078 0
632 -1527 -1776 0
1397 -1939 -354 0
787 1424 66 0
-282 774 297 0
-1868 147 1700 0
418 -1529 -1413 0
-968 -1776 -1038 0
825 1001 -688 0
1040 -679 853 0
-784 463 589 0
1421 -1785 894 0
985 1036 -336 0
-1987 -1899 1181 0
1752 62 -643 0
74 1540 -948 0
-647 -1327 1844 0
1002 426 1130 0
-879 51 302 0
-1958 -1985 1559 0
1106 1426 1932 0
-902 -943 -1116 0
172 503 -529 0
-1278 932 835 0
1142 -1135 -1309 0
1552 -1523 152 0
1413 -1481 -187 0
-327 1895 -1469 0
993 710 -1001 0
234 -1904 354 0
-1083 1539 1843 0
-1276 -1431 -1296 0
802 479 -1511 0
-1612 756 -219 0
1503 -639 931 0
-1350 -1846 -100 0
275 -1836 -1902 0
1013 -838 -944 0
-1644 -565 -999 0
1211 -797 -808 0
-66 1453 1750 0
-609 -1343 -809 0
-1955 -541 -1852 0
-1539 297 1944 0
-715 183 159 0
-1026 -776 739 0
-1215 1940 -1479 0
533 -1656 -397 0
850 1229 -1484 0
906 1682 -1034 0
-1399 -542 -1206 0
-591 -589 -1005 0
1701 209 -239 0
-1966 -1134 -1093 0
-392 -1247 611 0
902 57 -985 0
-1284 1149 1194 0
-1652 2 1639 0
960 172 -1943 0
-161 767 -1635 0
328 966 -1893 0
-508 -460 1795 0
-414 -453 518 0
-1117 811 679 0
243 1178 108 0
-803 679 1354 0
-1191 664 -307 0
-374 182 503 0
-105 971 -1205 0
1393 1254 1734 0
525 -212 -964 0
360 1869 440 0
-1712 -580 1538 0
-1498 -1959 1208 0
108 -244 -1159 0
1659 1023 -1055 0
1433 -1603 -1471 0
1099 23 -702 0
1699 -748 38 0
-1292 727 701 0
1551 -437 -23 0
315 -890 1483 0
-344 -996 1947 0
-827 1838 -983 0
1485 -1803 -1684 0
1204 1716 -1727 0
-1667 -1869 -1451 0
-1794 -795 -66 0
827 117 -1651 0
-1596 1011 -1444 0
222 77 1419 0
686 1806 781 0
1777 1490 940 0
-310 -813 1557 0
-6 640 178 0
-854 -1875 -775 0
-58 1149 -584 0
-993 1266 422 0
1103 -1945 -1583 0
1942 -373 1259 0
1171 234 181 0
-1163 717 -1430 0
-75 1101 655 0
287 -40 -1288 0
31 1889 -191 0
1693 -585 -298 0
-938 42 -251 0
179 1679 864 0
-387 -878 1749 0
-200 -1414 -259 0
-917 1897 -1961 0
-1823 -550 -1282 0
191 822 1474 0
-582 -659 -1437 0
56 -1691 -1628 0
-988 -1520 -1880 0
96 647 -593 0
461 -1354 -1780 0
1195 -1102 -1794 0
283 1239 1832 0
868 1743 1887 0
167 1979 -607 0
-152 -596 793 0
-262 1340 208 0
-606 -8 -1554 0
-1069 1886 790 0
311 1275 -890 0
122 400 1319 0
1882 1685 976 0
1751 -89 -592 0
-1949 1431 -534 0
1554 -853 411 0
634 1589 789 0
1900 -1139 1839 0
157 134 292 0
284 -217 1238 0
999 -243 1840 0
454 448 1274 0
-57 521 236 0
-782 -182 -85 0
1837 -1626 1769 0
-175 -1821 1144 0
-451 335 -1146 0
1732 -688 -172 0
1951 509 -516 0
-1248 1264 -1739 0
1454 -732 1490 0
1946 -1317 80 0
55 -1172 -422 0
-1312 247 -1145 0
1120 1658 1078 0
702 -1672 39 0
-1768 1369 804 0
1750 360 -1882 0
-1790 1586 399 0
227 -359 -323 0
4 -806 -776 0
-374 -886 1878 0
-1846 1615 -99 0
1269 1265 26 0
-1731 1217 -1674 0
-814 1780 469 0
-367 -1006 -80 0
592 56 -1404 0
437 -237 -756 0
-1669 687 -472 0
-1133 47 -185 0
-427 -994 225 0
-1462 -126 979 0
1284 1259 -1362 0
-352 747 3 0
948 330 1590 0
-706 -19 1009 0
1644 -1571 1267 0
1035 1975 -1061 0
-72 467 -375 0
-1295 -311 -1469 0
1032 1982 120 0
1773 -1708 -1782 0
-388 -129 1651 0
-1875 -1892 -521 0
1972 314 -1156 0
1390 1297 -1242 0
-1844 -1836 -815 0
-1452 -1124 917 0
1146 -1359 653 0
-224 123 560 0
1226 -700 -955 0
-1065 -386 568 0
796 1378 1702 0
633 -1060 -1745 0
1766 -687 -1333 0
-527 -741 -1661 0
508 -1222 -1287 0
708 730 737 0
-1719 482 1623 0
-65 1370 -1404 0
549 -621 1710 0
-762 1967 -561 0
-902 -1095 -433 0
189 -456 -242 0
1626 588 534 0
766 1993 -1559 0
-448 -334 1851 0
676 334 -717 0
-882 79 -1451 0
-1844 -1567 321 0
108 -1204 -1889 0
-1557 238 -1684 0
13 94 1020 0
806 1498 -851 0
-786 -1256 -1526 0
960 -786 -457 0
457 240 -1816 0
-1834 1474 100 0
1993 1872 1356 0
-896 -245 -572 0
1633 1276 -716 0
166 -572 -1397 0
749 145 180 0
-1911 1109 -1254 0
-585 -784 -1612 0
-113 -1615 1377 0
1317 1082 -709 0
1278 352 1131 0
319 -902 1009 0
-1343 944 -1763 0
496 1647 1908 0
668 1921 1811 0
-387 369 446 0
-1170 784 643 0
435 -684 -493 0
-737 1510 -1743 0
1511 1242 1750 0
30 -1917 -1659 0
1539 -1938 -520 0
-447 1577 336 0
133 -12 1317 0
601 -1835 143 0
880 670 1292 0
18 -1641 423 0
1662 1944 1000 0
1897 -102 28 0
-43 -210 -946 0
718 148 895 0
777 -1678 -1862 0
-956 1878 473 0
673 1300 -164 0
-1647 -944 1302 0
-1189 -1244 434 0
1646 -928 1123 0
1217 -1482 -73 0
-1257 394 -348 0
138 999 -870 0
627 -1936 -1833 0
-319 -1631 -948 0
-877 705 1089 0
-1419 -1456 1157 0
1024 1228 910 0
1076 -1969 -166 0
-704 -1313 257 0
-1551 -1610 -445 0
1713 1920 -232 0
-1109 -1382 -368 0
1140 -984 -893 0
-131 293 529 0
-1114 161 368 0
940 194 -278 0
810 1854 -1416 0
-578 -380 -1708 0
-432 372 728 0
1775 133 1682 0
919 13 297 0
-365 272 1030 0
139 793 1668 0
-93 -1534 -1292 0
-356 -632 -1988 0
-320 1232 -1944 0
1700 -409 -199 0
455 389 -241 0
-1967 -1150 -704 0
-1094 -194 -1526 0
-1628 -1169 -1803 0
1571 1576 -1875 0
-1320 473 -718 0
-1410 1906 -1827 0
-693 -972 1167 0
-1138 363 -1771 0
1299 -795 -1875 0
-1845 -1654 -645 0
29 -1037 548 0
1403 -1260 652 0
-174 260 -1026 0
779 -1612 -231 0
-741 193 99 0
178 1299 -467 0
502 -1633 1610 0
1058 -1832 775 0
1527 -1699 986 0
-349 -169 -589 0
914 -969 -749 0
-1168 982 914 0
779 -1502 772 0
465 721 1077 0
-398 1247 -1846 0
-1293 111 -659 0
34 1305 -785 0
-1280 167 1398 0
1868 -78 -1682 0
828 322 -200 0
789 -532 -1775 0
1649 1253 -328 0
419 1509 -315 0
344 1141 468 0
1252 1661 1569 0
19 -701 -1227 0
-892 -1520 -146 0
-1670 -455 1320 0
1072 -1722 -209 0
1154 1183 -1157 0
-1453 470 -779 0
-1191 246 -153 0
-1188 -741 1072 0
234 -1941 5 0
1532 -751 577 0
1917 -1560 711 0
647 -1644 447 0
414 1341 654 0
-130 1119 1433 0
1514 1084 1063 0
-1123 881 1697 0
-69 -97 1152 0
-18 195 880 0
316 -1680 -1302 0
-650 1544 551 0
-950 1261 1128 0
-1267 -465 -1373 0
-1287 276 -410 0
-281 -1028 1081 0
-994 1012 -173 0
-969 -737 -116 0
-869 -409 1900 0
-725 -139 -385 0
1637 806 366 0
1529 1982 -1120 0
-911 1276 1576 0
-15 366 -834 0
-1729 305 40 0
1954 -1726 -1295 0
-191 -904 -1343 0
1448 -845 -1565 0
-1992 -1476 -814 0
-847 -1599 252 0
1274 -228 806 0
1527 1121 27 0
1477 1455 -1366 0
340 1929 -330 0
1791 -1236 -1087 0
-1765 1830 33 0
1826 1278 1067 0
1075 506 -1461 0
-1021 -352 -986 0
-60 839 1028 0
-1623 1742 1536 0
74 851 1506 0
-904 1860 -879 0
1333 -755 1837 0
227 -1778 926 0
-146 624 -90 0
-231 -802 1449 0
1499 243 -1844 0
999 855 1340 0
1338 -1099 -1219 0
-716 -566 -1554 0
632 -1018 1353 0
1765 -214 28 0
1280 571 906 0
201 -1566 1779 0
-1919 -473 423 0
-1505 1390 -868 0
329 -123 268 0
1674 -1886 -1438 0
-745 -1114 -1322 0
-1867 -1565 1831 0
652 -1247 320 0
1620 -555 473 0
-1927 -795 1866 0
1192 153 -1701 0
1893 -872 -482 0
1691 889 -1133 0
-1765 1942 1767 0
-271 -1972 454 0
556 -361 1493 0
546 -1231 937 0
-1895 -557 1268 0
-1978 -637 -14 0
-508 -1749 -1153 0
-1560 -1713 -397 0
339 1759 -1361 0
141 -1863 -1789 0
1631 -1834 1513 0
542 -618 338 0
1177 1958 -56 0
-384 -1148 -126 0
-792 1304 -987 0
-1022 -147 1178 0
749 183 -353 0
1688 799 -1747 0
420 -552 -1526 0
-601 -25 707 0
-1623 -1733 1791 0
1349 -91 133 0
634 1047 1830 0
904 -1001 1963 0
1403 -579 -434 0
-1964 -158 1899 0
-994 470 811 0
1135 -1003 -1641 0
-327 -737 -1440 0
409 -490 -1769 0
-115 -68 -351 0
-1820 -1785 -908 0
705 611 626 0
470 -681 -1033 0
-1405 -1530 882 0
20 397 -919 0
860 84 237 0
-1930 -1262 -1111 0
804 -89 1292 0
1382 -1266 -749 0
-1143 -673 -723 0
1337 371 -577 0
1429 1895 884 0
902 304 1065 0
-935 1587 1253 0
-298 1353 -656 0
1586 -1876 -807 0
261 1252 -1278 0
791 -1474 622 0
-530 -1777 1258 0
-169 -463 1479 0
1382 275 -1354 0
1217 1465 -1065 0
-402 117 838 0
2 684 625 0
-1718 1831 -996 0
785 -85 -365 0
752 -577 -1908 0
670 560 -1776 0
-651 941 913 0
-1833 -1696 639 0
-42 -1828 1556 0
1933 -165 -67 0
517 1461 996 0
-516 1918 240 0
1600 -748 -1096 0
878 1181 -304 0
1468 -1646 -1722 0
708 1958 807 0
-210 -1140 1520 0
1134 -1585 -1186 0
1485 1046 957 0
-1646 268 -1054 0
1703 -1708 1019 0
1379 488 1991 0
-416 -954 -1493 0
1507 -656 1731 0
191 -1267 -1748 0
928 -146 1509 0
200 1 1908 0
1463 630 1882 0
1378 -1207 -1442 0
-505 250 1213 0
1718 -1368 1934 0
476 545 1978 0
511 -271 1812 0
-1018 1128 -1814 0
1809 -300 1667 0
-486 -1699 195 0
1643 -1284 1832 0
-1615 -1275 1788 0
-1161 349 -599 0
1910 -1716 652 0
-1648 1652 -898 0
804 217 -523 0
1003 788 766 0
-335 -227 889 0
1684 1751 1096 0
-940 667 1238 0
298 -234 247 0
-650 986 -939 0
1522 987 -1691 0
1555 1990 564 0
-1840 1804 -322 0
-598 -872 -185 0
-135 823 1439 0
1252 -1918 1506 0
1350 1940 553 0
-586 -681 -1355 0
-1600 1827 323 0
1342 -1858 1754 0
-1560 -1032 -214 0
328 681 -1464 0
407 -1663 -1367 0
962 -782 -1262 0
-1230 941 -1915 0
-522 -1202 806 0
792 -1839 558 0
-1750 -207 60 0
-577 -1633 -380 0
892 465 63 0
1433 -1368 1954 0
-1531 651 854 0
-1785 1913 -26 0
913 -140 1061 0
135 1440 -1713 0
-191 -1662 1259 0
-145 1270 -1832 0
1520 1719 1206 0
1876 -699 157 0
-729 1969 -389 0
-1221 -1598 -1150 0
-1679 132 -265 0
-999 -1077 -1316 0
-684 -1965 -503 0
1761 1294 1531 0
840 564 532 0
436 -1501 -1864 0
655 191 -1796 0
172 124 1371 0
-307 269 -691 0
1420 -1388 -1790 0
280 664 1270 0
102 -523 1663 0
-1850 -1309 1441 0
823 -482 1443 0
1835 -942 -1085 0
-225 -1415 -585 0
169 -613 -85 0
1818 1672 1102 0
-1997 -1151 -1222 0
478 -928 1189 0
262 450 -143 0
1174 -451 1693 0
1577 -1238 1512 0
1773 686 -1545 0
-1724 834 -348 0
-824 -1343 -482 0
1072 1108 -1755 0
-606 -355 -1229 0
636 287 -1517 0
-564 -240 93 0
1661 -375 -1748 0
143 -296 1895 0
-742 -279 52 0
1969 -900 1534 0
167 -1156 1327 0
-731 1499 700 0
345 63 -1415 0
1174 -1480 -1518 0
-1994 -1504 -1733 0
-1385 150 1685 0
-185 -1571 1908 0
1302 150 1876 0
-1551 -602 -1327 0
-154 1293 693 0
1704 -1711 1922 0
-1659 -1173 309 0
-729 1165 1768 0
-1751 91 1259 0
1049 -570 -1948 0
-1342 879 -172 0
129 -483 -469 0
-342 -1897 -1896 0
1785 -1586 176 0
534 1451 1849 0
-683 1043 -1255 0
329 1238 657 0
-1286 -1300 1369 0
-906 -1899 824 0
-504 -875 1979 0
-1840 688 481 0
1104 623 -1557 0
1264 -1665 1847 0
-1422 -1475 627 0
1216 -433 677 0
1895 -221 1701 0
-1776 -282 -1007 0
950 -338 -65 0
888 1911 144 0
990 1496 -1434 0
1997 299 959 0
1477 921 -1923 0
706 -1165 1360 0
-1084 -536 -745 0
-714 17 -382 0
177 1152 -440 0
-1704 1442 -1392 0
-393 -1993 -1624 0
-472 1398 1370 0
1841 697 1851 0
1134 -1057 337 0
-150 1578 1800 0
1491 270 -1220 0
747 -1137 -1433 0
1057 436 718 0
-1648 1075 -27 0
1398 -1117 422 0
1096 1898 927 0
-1674 -1670 1882 0
-1863 -956 -1429 0
463 -629 -1338 0
-1485 1237 -1350 0
-692 149 -1560 0
-157 1235 -1655 0
874 1209 -1280 0
1776 -801 -964 0
1814 506 1084 0
228 94 236 0
-1632 73 837 0
-418 -6 1960 0
-1517 -948 1119 0
909 1018 -265 0
1068 437 1824 0
36 -892 1304 0
1181 -1696 176 0
-1470 -1220 -1351 0
1329 -757 -469 0
543 90 -1885 0
-1189 941 -1181 0
478 550 322 0
-583 1329 -999 0
-1925 -1860 -922 0
-1532 912 1009 0
1295 27 -1039 0
-1231 182 -176 0
743 1340 -1157 0
-165 1629 1493 0
-1261 1144 -1201 0
865 1932 -1756 0
467 -832 1368 0
-1347 1844 1407 0
-68 -497 -1076 0
-931 219 303 0
-1235 -1803 1224 0
-1705 1670 -1116 0
1846 -538 -886 0
-501 -1021 1010 0
-854 -1924 768 0
1624 -277 1960 0
657 -727 1420 0
1271 1429 1972 0
-1681 838 -1525 0
-1221 -526 408 0
-433 1003 -1403 0
1340 -443 -1783 0
-544 1215 -291 0
732 1811 -598 0
-1106 1899 -1747 0
-1241 27 1602 0
-403 328 -1236 0
1779 -1840 -543 0
1233 716 1951 0
-174 1762 -1010 0
-477 -1068 -1235 0
-593 -1545 -378 0
-899 497 509 0
1937 -609 1715 0
1826 724 -474 0
1807 -1549 -501 0
-1573 -1933 -1048 0
372 -927 1668 0
-1097 1936 230 0
-994 321 420 0
1960 100 -1617 0
1983 1757 -593 0
1266 1459 -973 0
602 -1205 -876 0
356 -127 -456 0
-529 -349 1800 0
1922 717 -1131 0
-399 1794 923 0
-1619 -1116 5 0
-708 375 -23 0
841 -1350 -40 0
-1463 -418 1606 0
657 -839 -1199 0
-969 -1363 1861 0
603 -871 333 0
650 1967 839 0
873 1315 992 0
1194 1581 -617 0
1935 -580 -1250 0
826 378 -1162 0
-1078 1647 1780 0
468 519 707 0
-758 -1724 -49 0
154 -1068 -1954 0
677 1441 -1028 0
-261 1954 -1847 0
-1954 -1379 1699 0
1464 -810 808 0
-377 -1374 467 0
1405 1530 149 0
-1783 1100 -1036 0
-1510 282 -227 0
-1801 355 1580 0
-174 883 -133 0
205 -1975 975 0
-1432 -1327 -1747 0
-1988 -1291 -1733 0
1937 1874 -1588 0
410 -1581 398 0
532 1339 382 0
1769 75 -175 0
1338 -1241 615 0
185 1295 876 0
-1929 -404 -1605 0
-117 1924 -1344 0
-587 392 400 0
-80 -1249 1654 0
1420 -1376 -1542 0
-1606 -1172 1707 0
-330 -219 1427 0
1065 -1543 -1313 0
593 -1595 -1037 0
-523 1034 1856 0
-1099 -1452 -435 0
-1959 221 1166 0
1807 -601 1599 0
-28 379 -80 0
-1277 -221 1342 0
1188 -1712 116 0
-1700 -328 599 0
-900 -841 1817 0
-1676 -1040 -879 0
-1389 489 -655 0
-150 -1835 -334 0
1309 1972 -404 0
782 1715 -118 0
1239 1972 676 0
-576 -1471 -216 0
-164 -760 -944 0
-1554 1911 31 0
-172 -1813 1543 0
-450 -238 -774 0
-1937 159 1064 0
-1222 -1072 -1767 0
-1063 -140 1257 0
-370 -951 147 0
721 525 1693 0
514 -685 1531 0
1987 -1295 1082 0
-1648 1155 49 0
-730 367 -122 0
-1624 -1205 -1336 0
-1566 1309 -1456 0
159 -1904 -1903 0
1745 1572 314 0
1479 196 -191 0
-1337 -969 581 0
-1550 -462 -1350 0
-1112 141 207 0
-986 1283 993 0
1198 -1265 -214 0
352 1246 -1284 0
1094 -1678 987 0
-1435 -943 493 0
-1032 961 -1229 0
1872 1738 -778 0
963 -166 298 0
-1274 -1006 244 0
599 1930 -1272 0
993 -1752 1052 0
130 1080 -1406 0
-707 837 -1775 0
284 -697 -1602 0
1746 -1072 -146 0
-988 -1770 637 0
768 -55 -1314 0
-209 726 630 0
1634 753 1695 0
446 516 1524 0
-1864 715 970 0
608 1432 1783 0
1745 -654 -1021 0
-258 1067 874 0
799 1513 -1995 0
1265 -1538 -418 0
-809 481 1943 0
652 1300 480 0
349 206 1978 0
-1420 -636 -1194 0
-600 -1985 635 0
-1526 1158 31 0
70 394 -1924 0
714 1357 -887 0
-1734 1606 1946 0
1842 -1479 600 0
-85 1833 -1169 0
-101 1246 561 0
-1456 728 -1226 0
-636 1216 -1156 0
314 122 1737 0
-693 1386 -135 0
456 -1760 1491 0
-1048 49 613 0
-1123 1945 -735 0
-809 -997 880 0
1027 -441 159 0
1883 1577 607 0
281 -1199 -105 0
1100 1239 -1999 0
556 879 -1681 0
-546 1312 336 0
-218 -157 -1754 0
1042 -983 553 0
-638 273 -320 0
-29 1622 -755 0
1883 -1786 989 0
126 -1255 -1227 0
-1167 83 -588 0
-1875 1761 -428 0
109 -311 -221 0
-270 -1016 -1471 0
-1060 977 -1878 0
1598 108 673 0
-1961 -1717 -1695 0
1421 1280 -539 0
-1077 595 -1974 0
-1758 1584 -670 0
-1332 -1712 -542 0
759 1568 -383 0
1251 1798 -1321 0
-1103 -1987 747 0
1443 241 760 0
-356 1971 1921 0
1342 -1321 -1953 0
-789 -840 -235 0
961 1595 -1578 0
1962 802 -1342 0
-1617 -111 594 0
1111 -1347 -1585 0
170 1945 -932 0
103 976 -1476 0
-532 1300 416 0
667 -807 -910 0
-1087 -1862 392 0
1898 -923 -477 0
-349 -1122 1026 0
-1799 1365 -630 0
1464 -1148 67 0
-91 -226 841 0
-763 669 -1978 0
-1809 -10 -1321 0
-1525 -1271 -403 0
-334 -149 -1004 0
1393 -287 1588 0
889 1247 1867 0
-658 1386 -1140 0
-1349 569 -988 0
860 1752 1706 0
-463 -893 925 0
1201 -1406 -1248 0
-1138 1147 -26 0
-1369 747 -1181 0
1557 830 1895 0
-793 -218 -504 0
360 1918 804 0
-330 -1714 1310 0
-529 -1692 -690 0
1259 1675 1268 0
-1413 -839 784 0
1202 1025 1797 0
464 -1780 -1378 0
-886 -1586 -1924 0
1326 1904 939 0
1785 -763 -1936 0
-185 -479 1125 0
-1160 846 1454 0
445 -1787 464 0
-1086 767 -1924 0
497 -1727 -1740 0
658 902 1438 0
-1721 60 -989 0
-1586 -1748 -975 0
-1509 1030 392 0
1267 1809 -1475 0
-565 270 1905 0
-703 1686 159 0
-1278 101 1307 0
-613 -1844 1481 0
-1815 625 631 0
697 796 1145 0
1617 98 1921 0
-795 1841 152 0
-229 -1800 1295 0
-703 836 -894 0
-24 -1628 1823 0
1904 -1239 -584 0
-1596 122 1696 0
-1091 -594 1223 0
475 1608 136 0
536 1298 -808 0
1528 390 513 0
890 -449 1333 0
79 -315 1718 0
157 1036 -171 0
105 1619 -974 0
-91 -1330 872 0
-1736 -1155 -1640 0
-139 -1246 -1735 0
1825 -814 1993 0
1041 591 1280 0
-354 1934 1624 0
-1956 -232 -668 0
-1053 -1429 -1084 0
1127 274 439 0
1262 940 1369 0
63 -605 -1956 0
1909 1640 43 0
-1059 997 -1044 0
-1372 252 -1927 0
956 1982 -487 0
1830 1466 1098 0
-612 300 -1654 0
-34 211 669 0
933 -1064 -1134 0
-996 465 -1737 0
1938 1345 755 0
-1875 -845 412 0
1793 -730 -75 0
-1667 -1424 40 0
-1826 -719 -2 0
1321 -215 -1963 0
1179 -1812 -887 0
889 -1005 332 0
802 1398 1223 0
-38 -721 72 0
-555 1720 1321 0
-412 619 1267 0
875 -477 -424 0
-1754 -76 948 0
-1995 360 1968 0
1996 1678 -744 0
378 1345 -1000 0
1434 470 101 0
1939 806 -1195 0
1668 -1371 1481 0
343 -769 -889 0
1719 -1468 243 0
872 -363 -379 0
-1936 -1205 -754 0
-926 -714 168 0
728 -1984 310 0
-1300 -1840 1988 0
71 -1638 1312 0
998 -891 -634 0
-126 709 1706 0
-968 1791 152 0
1832 -1385 -319 0
683 1916 107 0
-1953 -1008 756 0
1307 -1979 751 0
-928 -1697 1394 0
669 -755 -1215 0
-1798 1160 -1792 0
-229 -1627 587 0
-1467 1204 456 0
1386 -1055 422 0
-429 1543 -1454 0
395 1599 525 0
-787 -41 -408 0
-1948 -624 1056 0
-714 -303 386 0
995 -1842 1900 0
1803 1729 1132 0
1324 -1582 -1252 0
-1230 1124 678 0
662 -1087 286 0
837 1363 85 0
304 883 -857 0
-1308 -1291 1431 0
-864 -1524 228 0
-138 -278 268 0
1455 -553 935 0
-740 -479 -1014 0
422 1981 -433 0
1945 575 -1112 0
-723 -1023 -1165 0
-1220 -1814 800 0
-685 171 1150 0
-339 684 -1065 0
86 -769 -1220 0
1947 473 -1315 0
72 1849 1304 0
1118 1504 1907 0
1215 484 -105 0
-1002 62 -1973 0
-1264 1122 324 0
-1385 1233 1476 0
-1356 975 -630 0
-203 896 -1268 0
-230 1934 -421 0
152 -72 -1049 0
1170 -1485 116 0
-1575 -987 1201 0
12 -1720 -942 0
-858 685 -876 0
-1366 -1714 392 0
539 168 1044 0
-390 533 -990 0
-980 635 -1372 0
-1292 686 1579 0
-81 1088 1872 0
1734 -1085 795 0
-1805 1269 1888 0
-1561 -1602 -1651 0
1862 -179 -643 0
-1540 1981 -1665 0
-1029 980 1262 0
-312 -1029 1895 0
208 1790 1895 0
480 1033 -502 0
348 1860 1701 0
-273 -935 -1904 0
1317 697 -1135 0
606 490 1288 0
1481 410 624 0
-568 1012 1024 0
-1339 -1899 -83 0
1458 942 -1747 0
661 -223 -491 0
-867 -1156 -1474 0
1866 616 1163 0
1090 -1556 -1466 0
-1236 -1268 -1047 0
1043 -1842 -1099 0
-1287 -94 -286 0
8 -1126 -1702 0
1771 -374 -1564 0
70 1599 -261 0
-632 1767 -1580 0
-1733 -706 1446 0
-1317 -1100 -1303 0
-1724 -1475 -196 0
1544 -1058 -186 0
-1620 44 1916 0
1891 -304 1096 0
-576 -1068 -419 0
650 -1506 -1708 0
-84 -960 63 0
1046 1498 836 0
-979 1147 -1744 0
1385 -1750 1703 0
242 523 -1762 0
-693 630 -1662 0
1557 -1267 -1547 0
1020 460 1269 0
906 -1040 739 0
-1831 415 -897 0
990 1454 1195 0
73 400 1252 0
-63 -669 -1895 0
145 -105 -1125 0
-1398 -206 -1667 0
134 1052 1017 0
1276 -1645 413 0
-1424 -1166 -1701 0
-542 68 102 0
-414 -666 1351 0
-823 583 -1095 0
-1338 -205 332 0
756 -1249 -528 0
1721 -1420 -187 0
-568 908 747 0
-377 1745 1875 0
-1046 56 -1569 0
-1166 1537 1780 0
1252 1076 -626 0
1342 -525 -1541 0
-201 582 -491 0
1135 542 -881 0
-833 1989 -785 0
-1752 -1128 1018 0
-829 -1853 1266 0
-1540 -1615 -633 0
1948 1067 1489 0
161 50 -1377 0
1333 -1737 1059 0
-1527 1471 -1720 0
-1020 1267 -537 0
875 -1926 -1989 0
-1203 1553 1934 0
1367 -1329 853 0
-13 -929 -1821 0
-1217 -1329 -143 0
1682 205 1091 0
-1840 -99 -1790 0
-1446 -367 -304 0
-385 -1305 -1639 0
1557 844 347 0
1799 736 414 0
1857 537 -626 0
-1378 -689 -763 0
-732 1945 -1454 0
-50 543 -423 0
-214 -1888 -1595 0
421 1427 -1918 0
-271 1067 -1653 0
1900 1582 1510 0
713 -1869 -576 0
-764 -111 1958 0
-1825 272 -24 0
-1777 1198 -54 0
1265 -256 -957 0
-1535 -106 -1656 0
1143 -1921 -1474 0
-214 -1874 -192 0
1105 -1714 -43 0
739 -1718 974 0
1700 822 -1875 0
-1780 1 1498 0
918 659 1519 0
-1407 -985 1740 0
-1492 1959 -1631 0
-691 1607 -336 0
-1421 961 -764 0
-509 1655 -1095 0
438 346 1855 0
1461 -611 890 0
1043 1985 946 0
1244 -94 -1737 0
-624 915 -267 0
1036 1492 -1829 0
456 -1860 -1524 0
-400 -1003 -1007 0
-925 287 -1674 0
1623 -539 1161 0
-1980 418 734 0
248 994 405 0
20 666 834 0
1430 -617 -1773 0
1728 1982 -59 0
390 -687 484 0
-605 790 -1110 0
-674 -1550 -1774 0
-172 -1915 -118 0
1977 195 -1288 0
-1493 -1802 -1276 0
173 483 -511 0
736 1753 -1994 0
958 1773 -1425 0
1548 -985 -1876 0
-1912 1791 -1419 0
-523 17 1259 0
1793 432 -763 0
-1555 1406 110 0
-176 -1338 32 0
1343 -530 -384 0
275 -1322 -867 0
1251 -1309 -971 0
-869 1952 846 0
-55 -1934 -1222 0
-1283 -1660 558 0
-1065 1761 162 0
-1347 1541 382 0
764 -1811 1941 0
1682 215 -1242 0
712 -904 -1157 0
1346 548 -998 0
-1385 -1945 -63 0
83 -1945 445 0
-1696 1972 -1161 0
1731 -448 658 0
-608 -305 -87 0
-948 -331 685 0
-348 -1032 -1904 0
-50 998 -1545 0
840 -1785 1032 0
-1070 -999 -1912 0
-1314 -1006 -1485 0
-1675 493 -1300 0
430 -1740 1001 0
1737 -59 570 0
-1495 619 1313 0
-1467 -1955 -1407 0
-1876 -36 989 0
-1282 1135 1501 0
198 1671 1344 0
778 1683 337 0
-518 -854 -1155 0
-948 541 185 0
1474 -144 1738 0
1099 -1356 1287 0
903 -46 734 0
-1371 1840 886 0
1253 -1004 -621 0
847 -56 -619 0
-1777 329 1046 0
115 -849 -340 0
1984 877 120 0
-1768 940 1487 0
156 720 225 0
1179 -1469 535 0
-1019 -899 -139 0
-1541 1590 -793 0
-1998 -667 -1060 0
-1241 -366 1605 0
1564 1800 698 0
125 1344 1507 0
-1695 270 -286 0
-1439 -417 -518 0
-1279 -1983 -1511 0
-1798 -1073 -1856 0
611 -618 193 0
1603 409 317 0
-936 -1247 597 0
1902 -1513 -685 0
1081 -568 1891 0
-184 517 -1034 0
774 1420 -1840 0
691 -1621 -911 0
-1700 979 -1957 0
-1472 -1835 485 0
1333 -1340 -396 0
-73 -1129 1843 0
-793 325 116 0
-1775 1900 80 0
-1092 -1221 -1470 0
1552 1674 1204 0
1776 984 -190 0
-1026 1650 -205 0
832 -316 -112 0
-1103 956 978 0
-1734 459 -145 0
-706 1676 -1358 0
-1255 348 -1883 0
-753 -545 702 0
-1194 -1229 859 0
1320 -1124 1757 0
136 1356 -1071 0
950 -513 1120 0
1295 650 1957 0
-944 -15 -249 0
1422 -609 1668 0
421 1906 1362 0
-1864 454 1719 0
1053 -876 -1009 0
-277 -1112 1180 0
-1788 -156 1568 0
-94 -1264 1235 0
1123 1459 966 0
1247 495 -588 0
-1526 -925 16 0
-1531 1815 1443 0
-632 -972 445 0
-1746 906 -1283 0
535 -1492 1012 0
-57 -649 1562 0
-357 508 718 0
-1925 834 1366 0
954 309 -443 0
1624 -440 1531 0
992 194 -1164 0
-381 587 -1493 0
-1473 1199 -570 0
1886 -466 1078 0
1893 581 -676 0
-452 -165 -1523 0
1895 786 -1868 0
-1357 -1523 228 0
-498 1953 1708 0
-1471 38 250 0
1341 -662 -709 0
1122 753 -14 0
761 -316 238 0
214 -26 1936 0
117 -1955 909 0
1854 1006 -121 0
-1428 -1255 -866 0
1647 1080 -1719 0
-351 -233 -809 0
1970 -81 -766 0
419 -129 -1733 0
1233 -1114 1255 0
-1315 1282 -1807 0
492 577 584 0
-832 -1623 -811 0
-608 1595 843 0
1469 -330 173 0
-1983 -1473 -698 0
789 274 -282 0
-78 -296 -779 0
771 -1699 -1250 0
1197 1373 -646 0
-1970 1364 -1693 0
-1216 1097 -1053 0
-1 1511 784 0
-1243 -203 -1043 0
-630 599 -1327 0
1196 1766 -1712 0
-1230 359 1219 0
-1464 -805 -2000 0
-265 1130 13 0
-1182 -1641 -1531 0
-394 -1779 -1195 0
526 -1922 -235 0
416 -364 1966 0
349 -1625 -364 0
-1418 1096 1706 0
-1624 1371 1219 0
-284 783 96 0
-1762 -1245 480 0
695 1573 -419 0
-1725 -151 1628 0
-1854 -393 1679 0
-1015 1294 1602 0
-149 -1025 711 0
-1702 -530 350 0
1186 805 802 0
237 -1436 -461 0
-568 -1098 931 0
-345 1704 73 0
-1471 -1336 -700 0
-914 175 291 0
1000 -1497 -164 0
-21 475 -998 0
-1776 90 -594 0
-1844 143 1927 0
-645 551 470 0
-1707 -817 1598 0
1014 1369 1149 0
1811 -1761 1173 0
1039 -1775 -540 0
1127 179 1904 0
149 1036 1409 0
1599 -819 350 0
-279 -635 83 0
1747 1823 1562 0
13 -1232 -1658 0
-1472 1913 -1238 0
-477 1873 1450 0
1914 1118 -547 0
1927 -675 314 0
-1759 -361 1338 0
473 -59 -1753 0
-44 -250 550 0
-664 -824 -1425 0
-903 834 -415 0
82 -1468 1379 0
-1620 -20 -325 0
30 -552 1604 0
-465 1930 -331 0
1215 1244 229 0
-1266 -914 -449 0
-1694 1107 922 0
982 1844 -1064 0
1 1129 1059 0
92 1256 -1647 0
-873 -1647 -1087 0
703 -1622 -90 0
-237 -1883 -894 0
1830 -232 373 0
1332 -474 -207 0
761 -1834 60 0
-460 397 386 0
-1660 720 1653 0
16 1859 -344 0
483 64 -381 0
-104 1896 1472 0
-1801 -130 1576 0
-250 -1449 197 0
-761 -611 1199 0
951 -1541 -50 0
977 -439 -1359 0
-1586 -1211 1444 0
663 1536 -724 0
-1341 99 -702 0
-502 851 -1132 0
-217 -1169 95 0
-895 340 -1545 0
974 1127 -1922 0
877 -1996 -458 0
-389 1175 331 0
1748 70 1115 0
1213 -91 -678 0
1304 247 -1649 0
-1162 776 -1895 0
-771 1098 -297 0
1096 1989 -949 0
1838 1273 -1198 0
-1477 -314 851 0
1731 794 -1548 0
-83 -217 188 0
1160 250 1583 0
1200 461 1037 0
-96 375 895 0
-418 -1369 -793 0
-1524 417 1601 0
-713 904 1261 0
-687 -504 -365 0
-276 1292 -995 0
5 -1805 -799 0
-92 -1738 1168 0
1927 1192 311 0
-848 -690 384 0
-1344 1633 1412 0
-1753 -352 -730 0
1838 1098 185 0
1512 1189 254 0
-1773 450 567 0
1593 1138 -1249 0
1218 -1475 -209 0
1246 -1581 -1292 0
158 1227 -1811 0
-1219 -1732 -729 0
-1251 -1928 1281 0
-780 1282 -1689 0
-1096 -1057 -1079 0
800 1421 220 0
1954 672 1013 0
82 540 -1702 0
1165 1618 -1209 0
161 -553 783 0
9 1887 -852 0
1791 1669 832 0
-1843 1676 1646 0
-1181 -154 -1607 0
-1066 -1917 1335 0
-1164 -1866 1148 0
-1376 -418 -1877 0
195 913 401 0
-1098 1734 1980 0
-699 1513 -1409 0
-1972 -1302 -1091 0
-1343 -1482 -1240 0
907 -1713 1978 0
1943 1435 -1444 0
-1851 -856 -1083 0
-757 213 -102 0
-1013 682 -411 0
-325 -1861 791 0
658 781 -1285 0
905 -1425 -496 0
294 1804 -617 0
958 931 1372 0
1741 -549 -1973 0
1493 1657 428 0
501 -90 740 0
1594 1517 -1954 0
-1759 -192 -574 0
398 -1689 -1700 0
-1438 1456 -1172 0
-125 630 -1577 0
1059 -1930 -794 0
-1165 -998 -1659 0
614 213 901 0
1828 -1292 -1199 0
-1667 -993 -1012 0
283 566 -1636 0
-1074 -1556 1867 0
-1893 757 1386 0
497 1303 -1008 0
379 990 386 0
-1885 -1477 -1207 0
923 -372 -18 0
615 52 1960 0
-626 -94 1488 0
-483 -23 -33 0
610 -878 -1005 0
1462 149 -290 0
1218 1380 -1190 0
-1096 1813 1308 0
579 1028 403 0
984 97 -641 0
-24 -1930 798 0
-316 -293 -912 0
-1310 1981 -1866 0
1773 1090 -1694 0
-1681 737 1037 0
533 926 1835 0
-1537 -240 -1375 0
-1076 1540 865 0
184 -1018 -912 0
-84 -796 316 0
360 -1876 482 0
799 -1616 1161 0
776 313 1226 0
1126 -1757 -1132 0
-1099 -1950 433 0
827 -269 -639 0
100 -174 -1153 0
688 -1231 195 0
1333 159 -947 0
1610 491 49 0
991 -1242 -672 0
888 149 -1561 0
403 977 796 0
-505 -1389 -1252 0
786 -927 -1900 0
-1158 -1292 -130 0
581 1420 -1792 0
1711 1896 1171 0
-970 1709 222 0
-514 -1452 1167 0
-1664 -6 -1189 0
-1947 1727 749 0
1296 -583 298 0
1933 -1736 935 0
-220 -877 713 0
-134 378 1129 0
1704 -1440 1843 0
1801 -1798 -345 0
-287 792 -894 0
1056 992 954 0
-617 169 1004 0
-1644 -64 -1848 0
-155 -1739 -336 0
-1024 254 1637 0
495 683 957 0
-1300 272 -1360 0
1857 -453 363 0
897 -1515 943 0
919 -1618 -240 0
1665 -1543 73 0
118 -1290 1486 0
1409 644 -133 0
245 -1501 -733 0
305 1801 1265 0
-149 245 791 0
-468 313 -1652 0
1611 333 666 0
1206 1071 1863 0
-1888 645 -1681 0
-1155 1213 207 0
1097 -406 -1061 0
1355 -1622 -861 0
942 284 1717 0
-1331 929 -1321 0
843 518 -135 0
54 -483 -1078 0
690 -1014 -269 0
1721 -715 -1478 0
-465 1224 -928 0
-1049 751 784 0
1605 1847 1017 0
-1742 1207 -1499 0
1126 -423 -1621 0
-95 -950 -773 0
-1207 -459 -473 0
1417 1538 509 0
-732 -357 1245 0
-724 -681 1462 0
-1550 -32 -392 0
1369 1675 -140 0
1815 1775 456 0
1193 1629 -938 0
-1071 -1856 1015 0
1298 1584 -1798 0
-1459 1237 -1347 0
-1727 -334 1402 0
-1451 -1273 65 0
-1012 -1450 -73 0
1282 636 -1340 0
1967 581 -1689 0
645 -379 906 0
1416 318 -1458 0
-875 -1016 83 0
1387 492 787 0
-1358 -1251 941 0
-518 -1994 787 0
886 -380 -479 0
-1928 1884 -1625 0
1158 237 348 0
1598 737 -721 0
-1218 489 -206 0
-248 -1869 -146 0
-367 -1222 -434 0
803 -868 -1244 0
-89 -118 223 0
1003 -207 -1732 0
488 1950 1754 0
1400 -1924 -422 0
-465 -1717 658 0
1149 744 1902 0
-188 -429 435 0
-785 -1819 -122 0
1445 -1260 1962 0
1040 1166 283 0
-709 -916 1391 0
-1535 153 -1965 0
-1678 1900 1310 0
1497 -515 -1496 0
-5 -763 -1646 0
-1812 -420 455 0
212 -1610 -1860 0
1085 -1793 -862 0
-1086 -1240 -966 0
-808 1651 -260 0
147 510 991 0
1086 -1249 -1515 0
737 1687 1793 0
-1572 -787 1146 0
-1735 -1269 -1386 0
-826 995 -1179 0
-2000 229 1562 0
-691 -106 1347 0
589 -1799 -1683 0
-1895 1824 -257 0
1558 -1597 1700 0
920 -149 1944 0
-1741 -460 136 0
-1083 1864 843 0
-1402 -1634 -55 0
-735 1676 -1220 0
-218 -1377 -1185 0
755 -513 -543 0
-54 -167 864 0
149 1493 1687 0
-1134 1045 -1116 0
1354 655 -475 0
11 124 418 0
-604 165 415 0
-582 -964 1367 0
457 620 -1479 0
293 -1823 -32 0
823 1305 -1309 0
1394 -123 400 0
-1395 -1880 -287 0
1573 -1270 1339 0
463 1898 1135 0
755 -1613 -756 0
1713 963 -1549 0
1676 -330 -1916 0
-1912 502 1463 0
78 1226 1116 0
-194 1827 -1399 0
1557 -758 -1201 0
89 445 340 0
363 -1715 1337 0
1165 -286 224 0
1665 1815 397 0
58 710 -1151 0
607 1815 1386 0
1441 980 1465 0
-206 133 266 0
826 -1997 1271 0
1872 430 1218 0
248 -1094 1598 0
-1818 1775 1752 0
-995 -1005 568 0
1932 -986 -1535 0
-994 -1926 959 0
-1053 85 -401 0
-664 -1049 -217 0
-1704 889 775 0
