c Large 3-SAT formula for GPU testing
c 500 variables, 3000 clauses (ratio: 6.0)
p cnf 500 3000
-72 469 -391 0
-81 226 -45 0
228 84 -434 0
-91 7 97 0
-177 -402 366 0
-402 178 19 0
48 -176 -446 0
33 -162 -288 0
412 -414 40 0
-362 420 -207 0
-319 -115 -164 0
-445 277 -331 0
-133 -195 38 0
-288 425 269 0
-389 -229 360 0
395 -150 480 0
84 -37 -396 0
90 -121 277 0
-199 -38 -222 0
468 100 443 0
367 405 200 0
-87 371 -209 0
-53 33 -469 0
-144 -321 78 0
-494 -392 -325 0
-369 -222 -28 0
-339 217 -239 0
-464 476 140 0
-321 -368 -188 0
-207 -336 -57 0
381 -388 -114 0
-484 -361 185 0
-273 -319 178 0
-6 409 56 0
212 99 226 0
-60 488 -224 0
-353 -63 488 0
402 392 252 0
321 -87 416 0
321 -424 389 0
-148 425 -393 0
-361 203 -494 0
165 193 10 0
-268 123 208 0
-91 421 -356 0
280 291 270 0
-110 -111 -143 0
397 -172 200 0
-269 243 -162 0
-484 -462 -124 0
-218 75 -331 0
-470 -3 238 0
463 -28 -236 0
438 239 394 0
54 -188 316 0
-338 258 -492 0
125 270 -384 0
400 188 187 0
-448 374 313 0
389 414 130 0
-68 -97 405 0
-160 30 -50 0
406 339 -418 0
-335 -244 212 0
368 45 -100 0
356 392 -201 0
17 45 -365 0
150 -170 441 0
302 -434 -386 0
224 219 376 0
-490 -52 -314 0
184 61 -427 0
423 439 -239 0
-264 413 477 0
350 73 58 0
-309 336 344 0
250 356 -391 0
-136 -430 72 0
176 -227 117 0
317 408 -156 0
45 265 -90 0
-100 -286 -413 0
-134 59 462 0
304 -313 334 0
-491 -302 215 0
250 213 -111 0
419 215 232 0
457 247 402 0
-418 436 -411 0
16 -319 -36 0
237 -290 199 0
-296 -139 -123 0
-97 169 -98 0
-54 -145 -63 0
349 -242 -404 0
-30 -288 -447 0
25 -108 265 0
376 247 17 0
-230 451 -323 0
374 485 -391 0
344 -146 478 0
-43 -120 -346 0
-318 431 59 0
223 -448 -297 0
335 121 -210 0
-197 405 11 0
-25 -111 98 0
115 -174 470 0
286 -254 151 0
-191 465 128 0
34 419 -391 0
-327 -120 172 0
-70 222 -46 0
-451 313 -363 0
424 377 220 0
44 16 -248 0
103 -152 -224 0
-489 -411 -170 0
208 31 187 0
455 -49 -419 0
86 -439 -328 0
248 -425 -250 0
34 295 -95 0
199 470 -375 0
-1 -23 104 0
-366 146 495 0
305 99 113 0
-14 -148 -374 0
108 80 209 0
182 -287 -446 0
104 217 338 0
115 114 80 0
367 -86 -67 0
48 393 108 0
485 -49 -381 0
-349 -327 -427 0
-108 6 -311 0
435 -29 -301 0
-22 -458 368 0
311 -34 -7 0
-326 462 152 0
-131 468 212 0
104 336 27 0
-246 174 -83 0
87 -6 405 0
-152 50 337 0
495 -130 437 0
56 41 -3 0
174 271 -307 0
-163 235 -205 0
448 406 -63 0
-117 -245 -155 0
-485 208 462 0
466 -22 153 0
-138 475 -486 0
124 -135 -79 0
-1 -103 -500 0
-327 -122 -169 0
-381 215 -34 0
-191 344 23 0
-46 -408 -232 0
-105 -370 251 0
303 -297 -426 0
284 90 33 0
-62 355 79 0
-42 -132 -148 0
-183 388 -252 0
-66 229 49 0
1 47 411 0
279 402 436 0
-298 -99 252 0
244 -6 -498 0
143 -239 -53 0
433 -320 276 0
451 -349 60 0
251 -349 91 0
422 -237 -158 0
149 270 -274 0
438 277 232 0
201 -281 84 0
400 -204 -445 0
-189 61 -449 0
-120 -392 326 0
-210 499 -227 0
383 -256 -278 0
467 -327 223 0
87 -442 -133 0
-343 173 494 0
-322 -11 -454 0
-260 -341 -464 0
-329 -362 -98 0
289 22 -11 0
6 -139 -188 0
-56 165 -196 0
190 -19 401 0
10 80 387 0
-491 -143 -437 0
251 216 -276 0
274 -323 486 0
488 133 194 0
20 -453 285 0
305 -482 -346 0
247 395 -116 0
486 -463 -116 0
-15 -331 -310 0
254 232 -206 0
-102 -93 -81 0
-67 260 154 0
55 181 -297 0
303 395 241 0
83 -461 66 0
-168 271 -387 0
178 118 243 0
-3 484 425 0
226 -106 -147 0
-407 -22 424 0
-231 -445 -342 0
-117 77 -266 0
-463 -233 -450 0
475 -326 -252 0
-29 71 9 0
-400 -318 -250 0
-373 392 397 0
393 -345 255 0
134 232 146 0
-378 281 -61 0
-277 -127 136 0
407 239 417 0
-362 204 249 0
240 -37 137 0
98 120 173 0
246 217 -135 0
389 111 343 0
394 146 -216 0
33 -138 -385 0
261 -210 304 0
426 -478 -201 0
310 296 166 0
-20 -268 119 0
410 -498 247 0
42 -424 -387 0
235 -209 -240 0
499 -258 366 0
-364 277 327 0
-162 276 -249 0
-284 -479 -230 0
-405 -5 173 0
2 -207 467 0
230 100 272 0
123 171 -70 0
152 195 -231 0
96 -328 208 0
154 283 -206 0
-459 -451 -273 0
278 434 461 0
455 -256 74 0
22 132 -154 0
479 58 343 0
500 133 -145 0
-305 419 -297 0
-40 86 397 0
-337 208 83 0
321 204 -394 0
-150 -144 145 0
-462 455 392 0
-250 -428 361 0
330 18 376 0
-225 353 -460 0
-404 453 -421 0
-40 -311 -59 0
-458 172 -451 0
299 466 140 0
122 -305 -341 0
238 439 -335 0
-429 316 -416 0
20 60 400 0
-439 359 -225 0
-437 89 450 0
-426 170 103 0
294 375 192 0
391 281 -453 0
-166 308 -323 0
-91 105 253 0
290 297 173 0
-361 11 -202 0
-106 469 -278 0
71 -429 371 0
-458 -111 348 0
446 185 223 0
-446 450 -349 0
-92 218 -440 0
342 -264 489 0
-177 96 -494 0
59 175 295 0
283 -57 316 0
-196 3 18 0
328 391 63 0
-469 92 -110 0
147 487 -114 0
-407 177 467 0
183 425 -206 0
358 239 210 0
-432 -390 438 0
-10 218 -186 0
436 423 357 0
460 52 -467 0
445 387 -448 0
-288 413 396 0
-37 -465 483 0
67 229 -225 0
437 29 89 0
-57 -331 -447 0
-213 418 -376 0
325 226 -410 0
-198 -416 72 0
458 -14 -331 0
123 -9 242 0
-242 -87 389 0
-498 427 -148 0
374 82 -364 0
452 29 265 0
459 47 136 0
-342 -190 87 0
133 -263 -348 0
408 150 14 0
479 -463 240 0
-40 393 57 0
-250 125 188 0
-286 -358 -394 0
268 -90 -86 0
-81 -481 111 0
454 -66 -126 0
352 -108 -253 0
-496 -169 -265 0
497 410 -472 0
-471 -466 39 0
380 -45 329 0
197 335 256 0
-280 378 -126 0
119 -197 -500 0
180 -336 -499 0
-105 359 -200 0
-61 -432 -406 0
24 -96 440 0
449 275 -199 0
-69 268 4 0
424 -265 -390 0
-129 490 144 0
66 433 -424 0
352 29 -33 0
-352 74 360 0
374 -71 193 0
-290 137 435 0
417 -41 -199 0
398 156 138 0
4 -150 -205 0
181 -252 290 0
-460 241 -247 0
417 255 123 0
87 82 500 0
-160 -400 -18 0
46 333 464 0
-479 276 -457 0
-405 -22 278 0
-67 -49 -469 0
-250 -480 -97 0
166 -196 195 0
392 276 -57 0
117 -122 352 0
-124 -374 -193 0
260 -235 -317 0
263 248 354 0
-237 -53 301 0
81 -456 480 0
260 130 -403 0
229 -404 -432 0
-378 -163 -227 0
202 -293 442 0
198 417 224 0
253 39 -485 0
271 -411 85 0
165 325 -263 0
403 348 94 0
63 221 302 0
-497 -199 -75 0
-58 17 186 0
465 -21 -105 0
131 110 -409 0
-147 -134 -276 0
49 -250 -2 0
157 -199 393 0
499 -446 337 0
-488 -397 428 0
-339 -353 123 0
-233 -320 -403 0
-340 481 -301 0
276 -204 321 0
-73 -499 43 0
168 -143 -480 0
357 -152 -445 0
439 -137 286 0
-407 -149 -187 0
324 364 -174 0
-226 241 350 0
35 -329 -32 0
347 -164 256 0
195 -199 107 0
-328 124 45 0
499 54 -361 0
281 -442 58 0
340 -220 163 0
-411 458 -239 0
177 -199 -440 0
-214 -370 481 0
-143 -8 253 0
347 258 -343 0
-399 408 385 0
293 -112 323 0
-159 -176 393 0
-119 370 52 0
-202 371 -470 0
-156 430 375 0
320 12 -299 0
-345 487 -183 0
-230 161 -484 0
-324 14 61 0
171 -389 187 0
399 -433 274 0
168 252 -306 0
-237 -187 206 0
-66 85 -160 0
275 -143 -445 0
-29 -274 -142 0
-447 -226 -297 0
-4 210 418 0
-439 -104 47 0
-267 459 32 0
85 171 -444 0
-336 -477 202 0
-417 -482 -474 0
157 270 412 0
74 401 355 0
160 -226 109 0
175 -283 295 0
-73 -34 259 0
17 -303 -412 0
150 346 -60 0
493 -284 -162 0
77 -432 -58 0
41 -307 -127 0
231 283 39 0
241 292 -233 0
-381 -84 212 0
150 370 124 0
-71 -46 -231 0
-472 312 108 0
-276 -406 251 0
-200 -227 -154 0
-58 190 -132 0
-374 417 354 0
-414 -203 -98 0
-13 492 -200 0
193 147 -166 0
294 -309 170 0
-473 221 -390 0
29 -23 402 0
456 -327 130 0
212 263 336 0
-246 -405 247 0
198 415 18 0
-212 -466 -190 0
206 244 432 0
-97 227 -75 0
-289 -130 -148 0
70 -17 -167 0
-46 459 -11 0
274 288 -129 0
-447 -81 -78 0
95 224 371 0
-92 -57 -359 0
-483 68 252 0
363 -398 -15 0
214 74 -23 0
454 -352 470 0
171 244 296 0
-408 13 -43 0
-233 -113 8 0
-440 -74 -497 0
193 360 168 0
250 500 212 0
-468 49 92 0
44 -207 182 0
-58 -476 299 0
73 -236 239 0
237 -358 39 0
-449 165 13 0
-222 372 176 0
-360 453 -396 0
370 490 83 0
229 -366 28 0
-480 -477 162 0
408 129 391 0
249 -419 355 0
324 351 -196 0
-58 111 359 0
-48 405 216 0
169 159 -492 0
-271 284 -407 0
-118 -192 177 0
257 -356 -38 0
203 482 -10 0
-349 -497 491 0
-109 -101 311 0
421 496 345 0
412 406 -176 0
-318 -336 307 0
-262 -488 98 0
235 -199 397 0
146 -95 260 0
168 269 -404 0
306 -415 314 0
-4 -254 248 0
370 275 -450 0
-42 27 -326 0
-499 -35 -98 0
-345 -368 -493 0
214 -453 72 0
457 -205 42 0
319 -434 98 0
209 -387 398 0
228 -11 113 0
139 190 -278 0
-452 203 77 0
158 -272 -369 0
-4 167 165 0
353 456 -260 0
-288 122 271 0
218 -170 -500 0
-393 421 -400 0
-347 -129 -130 0
-126 336 475 0
32 125 467 0
36 231 -344 0
208 332 -295 0
159 -176 -462 0
420 190 -452 0
-206 -51 -355 0
371 200 -488 0
453 76 -195 0
-229 -295 -323 0
254 463 357 0
453 414 398 0
-302 56 -248 0
-391 168 -202 0
-173 48 -476 0
-435 -167 461 0
-11 265 -272 0
-177 -477 238 0
-222 -291 392 0
-353 96 405 0
145 -25 196 0
-452 446 -33 0
-65 -67 -452 0
247 141 -74 0
-249 -494 -466 0
274 -295 -306 0
-216 -145 -375 0
417 -421 -156 0
110 405 -394 0
381 72 -28 0
-359 -248 -252 0
-117 -311 230 0
69 476 97 0
-368 -396 -401 0
368 124 -290 0
215 -389 72 0
-472 477 428 0
-302 -294 251 0
33 -9 262 0
473 457 -466 0
358 271 49 0
389 -465 464 0
-396 215 104 0
-78 5 400 0
-432 -76 -306 0
-442 -209 -282 0
341 265 378 0
-99 -334 -34 0
483 493 -46 0
262 -397 206 0
-318 421 496 0
21 481 183 0
450 -178 -341 0
-177 207 -405 0
30 478 91 0
-330 -141 -268 0
-249 -143 -488 0
338 402 106 0
109 -77 -294 0
-338 142 264 0
-15 -243 -221 0
184 -337 -477 0
442 -131 185 0
-481 -268 -274 0
425 163 -302 0
-170 -19 110 0
66 22 -142 0
-145 457 357 0
156 295 345 0
234 -52 202 0
-140 41 205 0
208 453 302 0
131 435 -385 0
-178 -149 369 0
-320 66 -398 0
224 -497 -453 0
192 455 211 0
106 -192 -220 0
457 -73 228 0
154 -119 262 0
227 -239 -257 0
-181 393 -208 0
298 473 292 0
167 -384 462 0
-15 470 229 0
-482 -444 -290 0
-141 135 43 0
-25 274 -381 0
377 -261 142 0
-111 79 182 0
429 239 -350 0
484 -138 -417 0
-336 275 242 0
428 435 -431 0
493 -301 -371 0
98 120 -132 0
-432 -464 -71 0
334 -328 61 0
64 -482 -232 0
155 -108 -196 0
93 -14 -112 0
-205 269 404 0
-167 201 362 0
-450 -51 -203 0
358 74 -43 0
-432 356 348 0
-304 7 221 0
70 -165 2 0
-223 -439 -71 0
246 -249 -59 0
-97 -36 -266 0
276 -307 -64 0
-39 310 -286 0
-29 -276 -139 0
-156 -205 412 0
-91 317 -89 0
-337 259 -227 0
-212 -318 -24 0
372 71 307 0
-104 -13 213 0
-376 -471 -490 0
152 301 -441 0
-272 -147 18 0
252 30 -498 0
-455 -425 336 0
162 -133 166 0
-271 205 499 0
467 407 249 0
-421 162 -428 0
-5 -251 418 0
-75 -89 431 0
105 -388 -20 0
-403 433 275 0
-157 458 360 0
443 -41 236 0
-438 -214 -67 0
474 -422 116 0
159 -269 -82 0
390 60 -281 0
-404 457 233 0
-340 -186 -152 0
278 -39 -23 0
-249 432 -323 0
-259 -338 336 0
-458 -77 267 0
-278 276 173 0
-360 12 336 0
470 -207 417 0
-270 103 121 0
-79 -173 -398 0
-153 -149 -336 0
-73 -222 -428 0
173 1 434 0
118 95 116 0
131 -455 -107 0
-421 -219 478 0
-207 -172 -485 0
-235 479 -28 0
-39 357 -79 0
-374 14 -257 0
59 54 -42 0
-382 31 -45 0
-24 -499 -266 0
-189 187 -434 0
-84 138 481 0
-425 -309 -176 0
-357 -489 -419 0
381 -473 490 0
-95 -254 -404 0
380 -51 366 0
-43 246 24 0
-236 243 -462 0
-116 -375 -242 0
489 132 -263 0
409 226 268 0
-486 281 -43 0
262 140 -122 0
-227 -384 29 0
474 193 -294 0
245 295 97 0
-43 -309 283 0
-74 -342 233 0
-318 -464 298 0
-114 -205 -159 0
-141 336 284 0
456 22 496 0
-99 364 368 0
97 -151 -230 0
333 483 39 0
-411 -343 478 0
-438 144 210 0
433 496 317 0
-23 420 255 0
420 -145 42 0
72 432 57 0
318 -220 188 0
-350 -401 436 0
-266 -305 -481 0
66 318 -362 0
477 449 44 0
38 -96 -190 0
70 78 -364 0
88 -443 -103 0
44 -142 404 0
41 -385 353 0
318 -125 231 0
-492 496 360 0
191 402 -369 0
16 139 -211 0
-71 379 -134 0
272 442 261 0
444 -69 -400 0
-262 -420 -224 0
378 -315 -87 0
479 -387 137 0
-209 300 -334 0
-41 25 -211 0
110 -47 450 0
-495 -125 -463 0
11 -168 -268 0
433 62 486 0
-214 -128 -467 0
-395 -210 129 0
178 103 180 0
-338 -160 -144 0
-207 -272 90 0
-477 -245 80 0
-206 296 16 0
-5 -323 -226 0
80 295 55 0
211 286 199 0
353 391 -500 0
-435 50 -397 0
499 -308 165 0
149 -176 -49 0
-313 -482 474 0
-230 80 27 0
-89 -379 -431 0
-364 270 -196 0
42 162 279 0
127 -494 308 0
216 -280 -423 0
6 384 142 0
-493 -401 134 0
301 -468 -384 0
-328 -397 -212 0
-475 -328 280 0
55 -296 450 0
38 -143 249 0
-277 -61 67 0
-127 -295 -277 0
-133 -395 -73 0
-26 7 159 0
-242 396 -350 0
-464 273 -415 0
46 -72 -71 0
83 -180 -159 0
-440 -169 238 0
-103 21 -408 0
441 45 -112 0
425 -42 276 0
396 362 -459 0
448 -224 50 0
195 395 236 0
-266 -125 95 0
443 355 228 0
492 224 -472 0
-374 444 75 0
-16 -230 302 0
-201 79 -30 0
260 -385 215 0
-16 -449 -339 0
-10 -21 215 0
-253 -137 150 0
410 -33 -309 0
400 -453 418 0
-90 -461 433 0
85 39 346 0
298 -496 20 0
-337 -340 -382 0
-211 -418 277 0
-94 -171 -352 0
-425 50 448 0
-259 154 -430 0
-340 -107 444 0
432 499 -9 0
-223 171 296 0
-388 123 290 0
50 458 400 0
37 -44 -380 0
-16 113 73 0
361 192 -264 0
-404 463 -7 0
-369 -409 -126 0
-121 -158 -241 0
-460 317 386 0
135 -354 210 0
465 456 -438 0
134 145 -406 0
-231 -72 -115 0
348 463 -413 0
-71 -336 35 0
-477 -399 -196 0
302 -94 -131 0
-260 104 -373 0
-238 -463 -268 0
-112 -363 -287 0
258 -403 -352 0
412 184 253 0
-107 230 47 0
-10 -360 -72 0
324 -393 435 0
3 2 -114 0
161 -231 -473 0
-244 -434 407 0
162 -421 -420 0
113 161 -240 0
259 331 -173 0
-319 -449 355 0
-402 381 88 0
194 -463 -85 0
238 484 -382 0
55 -397 261 0
-216 340 158 0
-450 -120 412 0
-343 -312 370 0
52 -236 310 0
101 183 -383 0
9 470 -412 0
-376 455 158 0
206 -294 458 0
-341 -415 -499 0
330 -180 -3 0
-474 -309 -101 0
-311 378 -94 0
-211 93 298 0
64 411 144 0
446 -249 -114 0
-188 -434 317 0
-51 -357 -350 0
381 242 345 0
227 468 -391 0
487 -452 -146 0
-90 392 132 0
397 458 -451 0
-78 -493 269 0
-383 -497 -303 0
-94 11 51 0
-319 -223 358 0
86 -278 349 0
-297 -361 295 0
343 311 -237 0
-92 233 413 0
-388 199 -351 0
-324 -85 418 0
429 -177 371 0
-208 -393 434 0
-160 497 -126 0
-102 22 128 0
210 12 239 0
-223 319 -24 0
332 369 439 0
438 193 -366 0
482 -270 492 0
456 -133 464 0
-266 -9 284 0
68 -491 -317 0
-116 210 7 0
249 228 -220 0
399 268 -192 0
-453 434 -174 0
238 309 -152 0
242 -22 404 0
-307 409 46 0
-137 -140 -369 0
353 238 -97 0
18 222 -121 0
-80 222 112 0
38 -500 -248 0
63 345 368 0
-42 415 -43 0
-137 -286 -235 0
411 381 -127 0
288 299 -90 0
135 354 -260 0
-460 88 -381 0
-95 49 -355 0
244 436 -288 0
303 250 481 0
-475 31 -466 0
-304 -356 352 0
-214 -166 -83 0
74 245 -483 0
-403 -204 -385 0
437 378 -58 0
314 -230 -295 0
-265 424 266 0
-205 -478 -107 0
211 -29 183 0
-20 -143 182 0
-141 70 -275 0
-181 -10 14 0
-40 -119 -423 0
149 16 -243 0
458 -2 359 0
-76 -414 -119 0
186 316 -431 0
-203 -37 -305 0
232 -402 -138 0
123 -255 299 0
-100 492 443 0
12 -430 360 0
-431 -106 -395 0
281 -77 -85 0
321 480 -456 0
-91 -474 438 0
25 10 67 0
54 -143 -477 0
372 -471 435 0
-464 -211 -434 0
43 -143 -473 0
246 488 226 0
285 -416 -351 0
457 -362 434 0
307 -221 -55 0
-140 200 22 0
446 306 -239 0
-444 324 9 0
287 -411 99 0
-195 -294 -412 0
26 256 218 0
-426 -65 -335 0
365 291 -96 0
474 -236 24 0
409 103 -24 0
-24 299 98 0
58 -270 143 0
88 -135 -476 0
102 -347 127 0
-120 330 91 0
348 7 270 0
433 -18 428 0
-128 277 28 0
281 -182 -315 0
440 81 57 0
-300 -231 156 0
-382 -4 340 0
339 134 -386 0
478 -299 289 0
-223 -472 -380 0
437 344 -94 0
476 -346 -192 0
-277 -158 486 0
-113 105 -39 0
55 -233 -198 0
-313 108 -293 0
322 430 -203 0
77 173 -103 0
-402 -352 -162 0
-28 204 452 0
246 -296 -118 0
232 458 -40 0
-98 237 396 0
-419 454 60 0
-329 279 -479 0
-94 307 79 0
272 -198 -448 0
-194 -224 -451 0
-434 354 -484 0
413 37 191 0
134 438 -149 0
-184 -39 300 0
110 -104 -167 0
-479 -398 459 0
63 -123 17 0
451 310 -460 0
-480 147 -209 0
-491 272 -243 0
-116 -233 -244 0
-217 -315 323 0
32 -319 484 0
-69 -262 394 0
265 -142 -500 0
137 420 -333 0
64 -460 315 0
-233 -165 86 0
-225 -100 -478 0
-461 -19 342 0
-227 111 267 0
336 -312 -61 0
20 370 -148 0
-213 -458 244 0
215 -96 442 0
-342 421 166 0
280 140 -145 0
-392 -332 -256 0
-152 -434 59 0
-165 221 -299 0
287 157 111 0
66 -378 206 0
-318 -292 -160 0
-446 -133 -107 0
-349 296 -133 0
-205 -140 207 0
312 -252 286 0
385 -71 -369 0
-115 358 -198 0
-189 -95 396 0
55 428 -296 0
57 -324 -344 0
139 309 -406 0
-171 361 -428 0
-303 -455 -251 0
-409 -427 234 0
-336 423 100 0
346 -486 -281 0
-381 314 -342 0
-389 354 331 0
147 -499 -24 0
-194 195 -313 0
223 247 379 0
155 -107 270 0
47 34 208 0
-219 201 -79 0
-388 -201 429 0
461 90 269 0
156 -37 -61 0
415 -211 -346 0
280 -112 -194 0
289 -367 10 0
-52 -69 -85 0
363 259 95 0
-241 405 417 0
43 -148 -384 0
361 441 -153 0
58 -422 249 0
-34 -206 250 0
206 -499 282 0
203 -470 475 0
53 -375 -158 0
-287 -166 222 0
-184 186 -89 0
61 -381 290 0
-87 466 483 0
-316 -412 -475 0
-434 388 289 0
101 16 -317 0
-14 -178 244 0
-427 -172 396 0
421 -298 439 0
73 -260 342 0
-481 -47 429 0
181 -326 -356 0
116 202 -268 0
-167 210 87 0
183 -266 -47 0
127 41 -267 0
176 370 218 0
-370 121 119 0
-432 -193 349 0
-180 376 -357 0
-35 -322 231 0
112 119 -294 0
-450 -342 238 0
121 491 449 0
-130 132 -464 0
-50 -81 -396 0
207 361 -229 0
-458 -472 -65 0
-351 -93 -164 0
-263 420 176 0
-389 -22 -46 0
-215 439 304 0
-248 484 59 0
297 447 271 0
-86 308 285 0
-474 -150 -220 0
395 -433 481 0
-170 198 336 0
147 -431 404 0
203 -287 55 0
-105 109 -241 0
-127 -424 371 0
182 -373 278 0
102 -122 369 0
-72 -385 -358 0
-55 452 75 0
-283 -444 434 0
-473 109 2 0
11 -84 48 0
-436 278 -329 0
303 -3 481 0
-8 -246 23 0
382 310 279 0
-469 285 -162 0
-378 -134 -465 0
377 483 116 0
-220 274 -269 0
-59 -66 39 0
279 -160 -282 0
-315 -27 -24 0
334 289 114 0
228 -100 25 0
432 139 -129 0
141 70 -385 0
377 478 -470 0
412 356 -120 0
-120 -79 -116 0
-54 228 -362 0
341 -378 -491 0
-278 436 350 0
333 -264 83 0
-399 415 -413 0
286 -282 419 0
-424 -483 484 0
-137 -371 134 0
-127 401 -337 0
-498 224 143 0
499 -190 -97 0
-491 -290 488 0
-216 413 226 0
-233 -415 369 0
371 -47 -311 0
-218 -160 -210 0
-31 -447 -423 0
121 242 86 0
-341 -266 -48 0
304 -438 -194 0
-321 90 119 0
340 -489 73 0
-165 -251 127 0
103 418 -225 0
-130 133 390 0
-123 -51 -305 0
-108 -168 -95 0
-471 135 -281 0
50 -362 21 0
232 -158 307 0
-178 -267 -174 0
182 151 52 0
-217 -127 81 0
-203 -158 485 0
-284 216 390 0
-129 46 -214 0
303 114 -64 0
253 165 -307 0
369 250 478 0
-227 -274 173 0
67 435 392 0
-309 396 137 0
-401 390 399 0
-199 179 403 0
-388 -101 -484 0
-342 452 -153 0
-423 -245 173 0
308 -366 210 0
-213 54 -94 0
-218 121 412 0
-461 -253 489 0
-202 -326 352 0
-435 151 350 0
307 98 -123 0
-178 88 -154 0
-275 -182 -154 0
35 -255 274 0
-28 64 -302 0
-17 -76 399 0
431 -346 459 0
173 -282 107 0
-285 82 473 0
-232 -467 -468 0
-271 -383 -368 0
322 -284 357 0
-345 -408 -310 0
153 -140 496 0
-167 221 -197 0
-5 -467 -41 0
129 -432 -146 0
415 -363 466 0
-284 458 -23 0
76 -28 321 0
134 -309 -318 0
401 -399 320 0
-195 -466 198 0
114 263 499 0
103 16 -88 0
132 225 -475 0
-264 95 305 0
320 239 61 0
403 444 -318 0
-157 8 -475 0
8 292 313 0
391 371 -247 0
-232 -381 243 0
37 168 167 0
61 -46 121 0
-396 -359 -255 0
-394 -141 -112 0
200 -410 136 0
282 345 -321 0
-181 -468 380 0
-299 -417 -301 0
-187 136 -80 0
65 392 407 0
-381 -10 260 0
-90 -432 203 0
-285 47 -208 0
355 173 168 0
412 121 -197 0
229 -246 -163 0
305 -449 -21 0
-47 -453 -480 0
-96 125 256 0
117 206 -268 0
57 232 129 0
-5 52 436 0
-416 315 -388 0
22 90 -77 0
-278 282 310 0
298 -394 -274 0
348 363 9 0
-450 -409 -217 0
156 -372 129 0
-268 -57 335 0
36 -278 69 0
-351 211 59 0
9 367 94 0
176 -90 408 0
-191 478 229 0
442 325 -49 0
-104 -180 -182 0
239 348 230 0
-416 -337 272 0
24 -277 274 0
415 -314 177 0
461 -156 284 0
-443 50 12 0
-153 -13 29 0
187 -431 -42 0
425 450 -422 0
398 355 -310 0
442 449 469 0
447 -54 -226 0
7 446 -176 0
89 -100 387 0
-20 -172 418 0
103 -176 -394 0
-66 85 -100 0
-252 -458 365 0
120 212 86 0
-222 343 324 0
-104 -165 -217 0
360 -415 363 0
447 20 263 0
188 -231 275 0
-259 -57 316 0
-112 162 -17 0
478 -466 -278 0
398 -231 -220 0
236 481 271 0
-36 213 -215 0
-407 -192 -57 0
328 235 48 0
-396 -289 -78 0
-151 410 411 0
-458 -23 -219 0
-49 493 411 0
199 42 -401 0
301 261 -208 0
360 -473 197 0
236 -473 -138 0
11 -208 85 0
-500 -2 384 0
-37 -461 360 0
-172 298 275 0
-5 229 -267 0
267 189 -274 0
-30 -341 -42 0
316 -361 -162 0
-491 -272 -54 0
-483 172 24 0
-430 -224 -303 0
31 357 128 0
-370 -160 271 0
275 -257 408 0
-80 -419 24 0
-423 -370 -459 0
-256 46 424 0
-465 -214 330 0
233 150 -173 0
49 82 450 0
-266 -439 -326 0
-169 -60 497 0
-481 -415 205 0
-182 -94 -446 0
298 221 65 0
-375 197 -205 0
-242 -325 -35 0
-495 96 380 0
142 -441 361 0
449 172 -437 0
-160 92 -191 0
-196 379 -9 0
-437 -110 -113 0
251 231 329 0
-80 156 25 0
223 498 -300 0
-83 66 -211 0
-486 331 -120 0
224 -193 11 0
-411 372 -310 0
-14 -138 -139 0
-29 -450 -150 0
434 -270 -31 0
-164 -308 -145 0
88 -430 -250 0
112 427 -30 0
-349 429 -384 0
-231 443 388 0
-473 284 -296 0
-181 170 -180 0
-149 340 -498 0
401 -211 -413 0
395 -431 -216 0
-163 459 343 0
-490 -30 3 0
17 481 -120 0
54 174 443 0
378 -209 -34 0
-476 -17 -470 0
269 -479 440 0
291 185 396 0
-60 361 -382 0
-52 181 439 0
154 105 263 0
14 78 226 0
-50 -13 456 0
-369 -105 -346 0
157 242 -95 0
467 -297 -324 0
-94 -131 98 0
-286 -161 287 0
-76 -203 -438 0
-193 -454 -13 0
4 -199 -266 0
301 -295 -50 0
-349 -423 158 0
494 223 -188 0
347 382 -489 0
204 406 340 0
459 -5 6 0
446 316 -333 0
-399 -109 67 0
-477 75 172 0
-230 83 -469 0
448 369 404 0
157 384 278 0
136 424 -414 0
-189 -280 -90 0
-80 389 -490 0
147 -151 248 0
-45 -236 42 0
-42 81 -169 0
-459 -152 -191 0
214 -97 -407 0
421 -275 194 0
485 355 25 0
-337 -249 322 0
-241 -270 -37 0
-298 423 -183 0
391 363 -66 0
-472 317 274 0
309 -85 -146 0
-358 -392 -342 0
329 68 -99 0
230 446 264 0
-90 -102 -2 0
-160 374 -41 0
-239 127 120 0
30 159 -194 0
-232 -192 214 0
291 -364 -4 0
-424 -72 341 0
-475 262 -2 0
-5 26 -48 0
-114 256 261 0
273 -136 103 0
-241 120 470 0
1 247 -490 0
243 499 362 0
214 115 165 0
-208 -481 -467 0
283 146 -286 0
273 231 32 0
423 -474 245 0
289 -92 -106 0
468 55 206 0
-19 -167 175 0
-153 263 88 0
122 288 -337 0
-79 -243 -367 0
285 -462 499 0
-405 -381 15 0
64 -278 414 0
185 -227 39 0
-287 -402 262 0
222 -7 91 0
327 297 67 0
413 -153 -95 0
389 6 -340 0
221 -138 -46 0
448 -298 -409 0
-353 -376 278 0
80 -332 -239 0
181 155 -370 0
-353 -493 244 0
-199 -198 -81 0
-100 15 113 0
213 445 -21 0
-431 -120 221 0
-451 -3 -285 0
-209 489 -365 0
38 2 436 0
-147 32 -282 0
-336 320 177 0
-361 -330 -103 0
-448 47 -316 0
-399 -427 239 0
-193 268 285 0
-64 -265 -492 0
472 344 -249 0
134 -267 209 0
-341 208 -247 0
-101 -330 -436 0
-442 -396 380 0
476 -430 208 0
301 462 -451 0
243 -72 -445 0
333 -233 53 0
387 -77 -426 0
182 -157 312 0
-391 305 463 0
-165 -492 259 0
301 169 437 0
424 -313 -366 0
-206 -239 229 0
-476 -11 191 0
50 180 -357 0
387 -279 41 0
155 87 47 0
-384 196 -236 0
366 243 356 0
-50 72 305 0
433 56 254 0
193 -39 481 0
-177 -136 -337 0
488 -335 -2 0
-313 -468 -94 0
-76 -319 -182 0
-426 -217 288 0
-361 -226 -255 0
-155 -195 -441 0
-460 -132 110 0
140 -316 27 0
444 123 326 0
39 86 -288 0
-146 201 -229 0
-399 -445 447 0
236 17 -414 0
477 -414 -188 0
-1 484 80 0
4 99 -245 0
-3 -149 -363 0
-204 -390 356 0
378 203 -497 0
-315 -101 -217 0
161 366 -389 0
80 -396 -17 0
247 75 -154 0
-398 -436 -257 0
442 -293 -466 0
138 -417 -428 0
-237 -70 38 0
-441 -260 -499 0
-431 326 -14 0
348 -335 -418 0
-174 -418 -287 0
63 488 -27 0
-52 -383 311 0
-154 -435 -263 0
103 161 265 0
-156 278 16 0
153 -425 -15 0
-442 -443 401 0
-359 -58 -74 0
149 -49 243 0
-97 91 -298 0
-6 81 435 0
276 -369 -498 0
188 -379 459 0
398 -402 -121 0
-39 416 319 0
-235 180 -398 0
-259 77 -442 0
54 -31 383 0
296 -127 -248 0
327 40 -120 0
-415 -476 71 0
-245 -231 -226 0
370 -75 474 0
-497 115 181 0
-452 -155 212 0
120 14 -178 0
-387 -116 -24 0
-414 367 478 0
-284 -12 -242 0
-500 259 272 0
138 -361 -486 0
371 -204 -352 0
421 -460 488 0
-73 -109 174 0
-251 282 -305 0
-103 -320 -33 0
272 -227 -67 0
410 -305 -286 0
-305 225 -34 0
-22 -436 134 0
-396 9 -135 0
-383 -296 213 0
-220 -419 125 0
212 238 -121 0
175 -423 375 0
-354 86 -143 0
471 257 134 0
-89 -434 -338 0
235 112 466 0
-425 -477 199 0
433 104 -157 0
-497 -135 20 0
-272 142 41 0
-122 -475 -353 0
-449 334 85 0
-387 -459 197 0
-489 132 -286 0
-339 -27 405 0
-277 -335 50 0
266 305 420 0
415 366 -19 0
407 -232 -60 0
174 311 -440 0
247 89 -151 0
319 -394 186 0
-135 89 -358 0
-389 184 -441 0
290 -424 171 0
45 -431 107 0
258 -66 378 0
-349 217 -25 0
18 -288 235 0
19 156 107 0
-169 434 -197 0
364 4 -231 0
-463 -201 225 0
312 -25 -26 0
471 8 359 0
-462 493 -29 0
-152 -300 -258 0
-488 -310 -48 0
467 -12 -50 0
-491 -264 333 0
173 391 -423 0
492 483 -123 0
327 337 277 0
471 -87 48 0
-444 277 433 0
13 -185 -415 0
385 199 -161 0
-443 -422 -208 0
422 44 -215 0
-179 11 243 0
-240 225 257 0
-308 322 -97 0
66 140 -179 0
-277 -133 -404 0
349 -208 -493 0
193 -378 396 0
43 -386 311 0
-186 -214 -291 0
288 322 46 0
170 341 447 0
42 435 143 0
-259 -36 492 0
-228 -28 -347 0
-377 235 -141 0
-427 388 120 0
411 11 -58 0
378 -273 28 0
390 468 60 0
449 -139 -342 0
277 23 110 0
109 319 -181 0
21 -121 117 0
-235 -219 -27 0
-212 438 274 0
44 28 -207 0
-343 -143 281 0
-266 220 -26 0
74 211 -290 0
111 341 -324 0
-260 269 351 0
-169 -146 -9 0
67 -232 51 0
341 -110 343 0
-15 -95 131 0
-259 163 -474 0
175 193 -243 0
-497 -213 -65 0
-424 -151 265 0
-111 -290 257 0
390 475 -97 0
142 -252 -191 0
15 -301 368 0
69 -332 75 0
29 428 299 0
185 -318 14 0
487 -423 467 0
-42 -110 -491 0
166 472 -206 0
-361 -305 -312 0
429 379 -453 0
188 -345 68 0
-412 -372 391 0
24 -121 -282 0
425 -210 341 0
-211 -323 336 0
-470 -73 249 0
301 485 -225 0
387 -484 111 0
-446 -143 84 0
-163 -407 64 0
-374 -185 224 0
233 222 171 0
328 351 -62 0
116 -479 86 0
91 -8 76 0
281 410 -148 0
269 116 85 0
-171 166 -283 0
-38 -406 323 0
382 -62 424 0
-327 480 9 0
-19 420 324 0
219 163 164 0
59 259 143 0
-304 -440 -122 0
-271 -483 -202 0
-171 112 216 0
-428 9 444 0
33 -436 183 0
148 243 -102 0
-68 475 248 0
-497 85 -475 0
322 -258 477 0
-474 37 393 0
-77 -271 499 0
363 -84 -103 0
-305 403 -255 0
15 -487 129 0
-421 200 -260 0
126 -237 -243 0
274 -206 181 0
-257 292 476 0
496 306 158 0
-61 -7 -393 0
247 -495 215 0
217 36 27 0
180 -386 128 0
-380 -2 -228 0
473 -146 -121 0
57 -352 -478 0
-215 -449 432 0
-397 -283 138 0
59 -172 -63 0
91 193 -284 0
365 228 406 0
55 62 213 0
320 -183 -282 0
-280 -391 -261 0
498 270 -209 0
-273 383 237 0
-451 487 170 0
-296 -6 -320 0
-463 445 85 0
304 -21 -79 0
32 138 465 0
-323 100 -57 0
274 -240 -489 0
-272 -136 -159 0
-349 235 279 0
-260 204 -248 0
-354 -111 254 0
-40 1 -61 0
201 280 192 0
467 -208 339 0
191 -132 -162 0
-31 332 85 0
431 -317 -113 0
-209 -308 -372 0
-374 430 261 0
-207 491 361 0
-430 -339 112 0
381 -95 104 0
-400 211 407 0
131 480 -313 0
-339 129 -25 0
-308 -290 -153 0
436 35 61 0
356 -283 432 0
-18 -491 -277 0
-357 -306 362 0
-203 -338 -394 0
-390 -403 64 0
21 500 420 0
448 474 280 0
170 -106 -386 0
-279 -431 -161 0
-179 491 454 0
40 131 321 0
-113 -102 39 0
-434 -42 483 0
282 368 237 0
-427 199 3 0
-410 77 -145 0
194 34 -425 0
-215 389 80 0
-422 183 402 0
-489 -404 -247 0
-219 466 -263 0
283 -238 -435 0
28 -409 443 0
-414 -406 -292 0
47 31 280 0
334 466 -62 0
-214 -81 -451 0
5 -156 -354 0
298 -221 495 0
227 48 409 0
355 309 449 0
-457 -456 -103 0
-180 164 331 0
-121 -243 115 0
-29 259 479 0
-426 -462 441 0
264 98 -383 0
447 -315 166 0
-303 -197 97 0
-278 -48 87 0
124 253 131 0
263 50 -325 0
455 -70 -434 0
364 -480 -318 0
123 -138 -348 0
168 140 -113 0
162 -482 -232 0
463 -88 -309 0
458 21 -210 0
-374 -93 -251 0
-227 399 -297 0
378 -93 221 0
79 -372 308 0
112 291 188 0
-322 -463 -416 0
82 437 -31 0
-380 -29 -166 0
-245 -497 -185 0
35 -26 81 0
448 -309 278 0
-432 -109 -95 0
-154 112 -59 0
-86 98 49 0
-211 -467 -303 0
-20 -98 74 0
-399 476 -357 0
-43 -56 -29 0
6 -367 451 0
-142 449 -128 0
-5 305 20 0
-485 397 500 0
-261 -60 -479 0
359 -266 -343 0
49 -468 -476 0
434 -413 468 0
-374 400 37 0
-342 481 -434 0
-241 -146 -137 0
-374 -235 -340 0
-308 -495 259 0
495 446 -49 0
-100 94 -447 0
-287 -28 -235 0
187 308 25 0
298 -458 252 0
166 49 285 0
-65 348 -335 0
-405 -116 -272 0
428 213 444 0
-291 128 -111 0
248 358 404 0
-151 -304 127 0
-278 245 329 0
309 -107 -238 0
384 398 91 0
114 271 491 0
-485 72 194 0
323 148 -130 0
323 69 -259 0
-421 -416 -139 0
-245 334 -26 0
-73 35 411 0
283 -339 -239 0
-284 -115 -204 0
489 117 279 0
390 332 56 0
144 -391 26 0
55 335 220 0
-63 -42 77 0
67 -258 492 0
-253 468 -377 0
457 -217 -241 0
-97 346 -147 0
-63 -203 -303 0
163 338 -310 0
428 5 171 0
320 -401 288 0
-396 -374 51 0
180 263 -74 0
234 167 256 0
-96 -453 366 0
111 152 -402 0
341 121 -41 0
-467 95 392 0
-272 73 90 0
-233 -248 -165 0
-464 -191 389 0
198 221 -360 0
-439 237 -374 0
45 -478 -90 0
384 -313 253 0
-176 102 -214 0
387 -229 7 0
-50 499 -240 0
-164 109 104 0
-358 -70 -482 0
-447 244 372 0
280 -6 -488 0
197 201 450 0
268 -383 133 0
73 147 487 0
-315 289 -144 0
-383 -181 49 0
-210 -377 -322 0
-496 -186 169 0
131 -279 329 0
89 -232 -122 0
166 -273 -168 0
82 -329 -88 0
-321 -306 -73 0
339 -305 -334 0
216 412 -398 0
-130 189 432 0
449 26 31 0
-80 287 441 0
-463 -284 -36 0
-308 244 394 0
232 381 428 0
-395 416 -147 0
43 -427 -24 0
-302 -166 18 0
-150 492 -372 0
-372 439 155 0
-255 371 38 0
124 348 -239 0
-377 -9 -361 0
-242 118 368 0
-54 -315 -469 0
-321 320 -244 0
-415 384 246 0
65 395 -492 0
388 316 465 0
-333 113 448 0
372 207 -179 0
-251 -369 1 0
-398 -126 209 0
-50 -198 33 0
-92 187 404 0
-175 -249 319 0
-167 -470 -74 0
-135 42 227 0
107 60 -5 0
-469 313 252 0
62 463 -361 0
-196 -232 402 0
240 237 435 0
-101 -480 -209 0
198 419 -164 0
-354 103 -491 0
106 -234 -211 0
-63 53 -424 0
314 327 429 0
461 136 -482 0
48 -375 -380 0
-129 345 -255 0
500 -386 243 0
-414 301 138 0
-149 421 -417 0
391 -446 217 0
165 -469 249 0
102 63 -325 0
-133 178 -109 0
-418 -37 460 0
52 -329 -245 0
-27 64 -134 0
-77 -419 -295 0
422 -170 317 0
64 -319 153 0
-261 -384 368 0
-280 -232 70 0
419 -500 -123 0
-187 123 -52 0
-178 87 224 0
435 90 -141 0
19 448 -468 0
-135 -398 164 0
260 135 -380 0
-355 -387 -206 0
127 437 -193 0
487 199 -255 0
415 -132 329 0
-10 -25 -277 0
-118 320 -387 0
-485 141 205 0
478 -377 442 0
66 -24 43 0
-500 -21 493 0
-193 -194 285 0
-201 278 -266 0
479 -168 382 0
-256 -388 -25 0
-440 -148 -261 0
-258 182 -148 0
-379 454 -394 0
15 448 324 0
352 -162 -240 0
-68 237 435 0
474 -354 -468 0
310 186 294 0
80 -371 -400 0
-102 52 -437 0
-472 60 -195 0
-148 135 166 0
-252 -453 -186 0
-114 -328 -220 0
153 238 -119 0
-309 -384 -259 0
108 -457 -118 0
-64 -362 -394 0
-166 -71 122 0
440 98 -460 0
-224 -146 -38 0
-122 -254 237 0
279 200 339 0
-180 114 79 0
301 -462 -294 0
205 -326 -183 0
-372 200 141 0
-431 -301 -213 0
-490 222 -241 0
261 -433 -88 0
428 186 262 0
-321 89 206 0
-377 209 -247 0
-167 486 245 0
-438 -413 284 0
-152 -448 493 0
-271 -443 -284 0
-288 -500 267 0
-281 -430 -237 0
-50 208 -190 0
312 -269 -248 0
-499 135 -111 0
457 -327 33 0
-346 83 445 0
-498 -155 209 0
131 -21 179 0
-142 -320 -300 0
-312 -116 -36 0
22 -190 100 0
218 175 190 0
67 -1 427 0
487 96 481 0
-204 462 -433 0
301 -229 -442 0
64 200 -403 0
-48 -203 -267 0
311 -396 25 0
-410 98 -74 0
-117 -12 379 0
-295 278 492 0
31 -214 -228 0
111 -92 -348 0
-201 1 -42 0
-421 354 -290 0
298 -399 145 0
-10 280 471 0
-216 -146 285 0
-172 -134 67 0
-113 -159 207 0
-218 -358 -153 0
-55 184 335 0
179 65 -274 0
-3 102 284 0
-490 387 124 0
99 -411 391 0
312 -331 271 0
98 -458 192 0
-334 171 -331 0
153 348 -112 0
-37 -431 317 0
-374 439 -466 0
-336 236 34 0
-157 -436 -183 0
284 467 -158 0
-355 247 -384 0
-175 448 102 0
282 242 -393 0
-391 -138 -457 0
-233 11 -363 0
-99 -128 216 0
146 -448 -327 0
461 130 -260 0
160 -2 -195 0
461 -485 294 0
-229 -244 241 0
201 60 -248 0
-348 -153 -396 0
374 291 -215 0
-160 -133 407 0
483 -71 351 0
404 332 141 0
-236 269 -129 0
-415 178 12 0
186 345 -390 0
-111 212 -115 0
-405 -455 -191 0
362 -346 -283 0
-426 244 461 0
-12 85 -440 0
469 328 359 0
95 -328 -351 0
-309 256 398 0
341 418 -4 0
-134 4 -5 0
221 178 -109 0
-467 270 -20 0
473 51 368 0
249 -9 -181 0
-338 -214 165 0
94 396 -492 0
159 -473 345 0
-428 -332 -157 0
-303 -61 -380 0
-294 209 199 0
-167 260 406 0
-148 -430 -458 0
-272 458 80 0
340 345 368 0
-330 441 404 0
-33 -124 118 0
-209 -384 -215 0
-490 -7 -237 0
176 293 313 0
-370 495 115 0
410 474 153 0
56 -135 -127 0
172 -326 207 0
3 -413 -417 0
277 -430 -199 0
-482 -343 -418 0
-150 -305 -302 0
-82 -325 -290 0
-475 493 425 0
306 -466 464 0
-435 390 437 0
-437 293 -360 0
367 -359 24 0
492 -197 -88 0
442 -364 97 0
459 -17 -500 0
178 -255 449 0
-483 -333 -248 0
27 -316 -317 0
56 187 -221 0
-317 30 103 0
-193 490 185 0
-98 -245 425 0
-289 -77 81 0
-471 -295 74 0
-307 8 177 0
108 -2 -178 0
-195 304 89 0
63 -32 328 0
342 460 461 0
250 418 36 0
-315 -489 291 0
493 -476 363 0
321 -215 338 0
303 -93 404 0
88 481 -56 0
-45 -394 304 0
208 267 -439 0
-392 327 36 0
-232 375 242 0
-220 -82 392 0
390 -265 161 0
-353 -116 183 0
-210 -421 375 0
244 115 18 0
-6 -182 382 0
280 260 -436 0
-454 -140 317 0
1 -361 -111 0
468 357 -213 0
-334 -51 258 0
246 137 458 0
128 -100 284 0
-13 -199 -68 0
150 449 -493 0
308 -310 32 0
380 -151 21 0
230 -228 286 0
296 188 383 0
-462 159 -128 0
304 255 -157 0
-260 78 -210 0
-150 -244 -232 0
-326 -136 328 0
241 95 -272 0
353 -241 -285 0
-32 414 -125 0
-105 -432 31 0
202 437 -221 0
248 151 346 0
-165 -476 257 0
-158 361 202 0
192 230 437 0
175 -335 -45 0
122 -109 -219 0
-492 457 -162 0
-40 -367 43 0
-392 234 -110 0
283 -388 487 0
-491 54 -129 0
142 -374 -167 0
-199 -448 -302 0
-295 423 394 0
313 171 -182 0
-83 122 389 0
-189 -281 -224 0
-81 -46 82 0
-73 315 -223 0
128 -193 -471 0
249 -454 -30 0
5 370 139 0
453 341 -174 0
-449 -195 -251 0
-338 -478 358 0
-389 -36 -229 0
201 384 81 0
-499 195 -153 0
-422 -293 -181 0
471 -15 -350 0
-486 108 463 0
-489 -448 262 0
33 382 -305 0
-374 330 -151 0
-499 167 -53 0
-361 -357 -330 0
249 260 -479 0
67 290 -480 0
-108 -198 -399 0
358 -293 -223 0
140 273 -232 0
406 463 -383 0
-131 4 13 0
393 124 -409 0
167 91 211 0
-192 -81 -429 0
449 -416 430 0
-456 178 363 0
-92 236 -280 0
-104 -262 1 0
-34 334 -317 0
441 -184 -123 0
120 241 228 0
233 -138 -307 0
172 -202 5 0
-310 456 -364 0
347 103 225 0
476 62 459 0
-292 -311 -235 0
-399 432 -295 0
-159 -13 332 0
465 -191 -493 0
265 -337 2 0
-420 -43 -444 0
-190 14 396 0
-405 -400 421 0
405 -287 -374 0
300 -278 -217 0
-267 41 -136 0
113 -11 118 0
-182 33 162 0
353 -210 361 0
-209 -211 124 0
-101 497 247 0
118 -475 -415 0
499 383 -238 0
-299 307 329 0
497 85 -216 0
-134 363 -339 0
-274 -493 -171 0
413 420 271 0
-341 -292 -148 0
344 92 291 0
465 405 -26 0
370 -59 -350 0
-154 -481 342 0
-285 -198 167 0
328 -240 -356 0
-197 331 191 0
385 383 -222 0
-245 -34 10 0
-456 354 -454 0
-231 -157 -202 0
225 -418 269 0
23 268 224 0
-4 409 -381 0
-323 -31 -194 0
285 -76 -107 0
5 -134 -60 0
-245 71 305 0
78 -322 -138 0
-256 -95 -241 0
150 241 444 0
287 331 -114 0
-267 -475 -291 0
113 -210 218 0
-95 -316 -330 0
-77 -298 431 0
90 -247 -383 0
-182 359 112 0
36 380 -332 0
230 73 -307 0
121 -377 -42 0
-80 -62 405 0
-194 -498 -155 0
377 -253 54 0
-381 35 476 0
-185 -271 151 0
411 -295 240 0
302 421 326 0
184 -81 463 0
461 166 -279 0
343 -495 -128 0
323 -251 247 0
6 250 -36 0
58 -228 188 0
472 -374 -91 0
244 141 -477 0
8 82 -439 0
-419 38 6 0
-32 -242 -64 0
103 197 53 0
-219 498 89 0
-209 310 435 0
352 -148 253 0
318 -339 -265 0
-347 -287 -37 0
181 139 230 0
286 -49 -472 0
416 -424 347 0
441 -274 -303 0
437 -385 45 0
277 -137 144 0
78 459 171 0
29 -254 350 0
99 -479 76 0
-291 -186 -479 0
176 -143 218 0
404 -371 -12 0
-229 -250 363 0
-395 -17 250 0
393 -364 -310 0
411 -276 -349 0
-377 441 363 0
-107 475 250 0
42 191 -252 0
-188 289 -69 0
110 25 450 0
-384 -257 297 0
116 -201 456 0
485 -370 -199 0
65 -442 -391 0
-397 -494 56 0
-58 305 284 0
-399 121 -8 0
58 307 -47 0
282 -420 283 0
-355 200 -488 0
136 142 151 0
226 -204 37 0
-251 -275 -420 0
261 -497 -168 0
282 -53 -368 0
-129 141 -385 0
-210 -360 -385 0
227 295 -302 0
-43 -102 386 0
-295 -150 -248 0
-200 -305 321 0
-76 262 208 0
328 -310 46 0
-184 379 142 0
-230 140 148 0
254 -196 267 0
-498 275 311 0
-186 -432 -397 0
-287 255 -298 0
-160 -48 204 0
-472 196 -62 0
407 -178 -459 0
166 -102 -90 0
-341 -102 -365 0
-153 128 -19 0
30 -107 112 0
-331 377 -370 0
-162 -462 240 0
-8 -102 -315 0
-62 -400 314 0
205 197 398 0
-128 -281 207 0
-128 461 377 0
297 104 424 0
46 42 346 0
249 226 340 0
-377 -110 -386 0
39 -59 176 0
201 179 214 0
-230 -4 33 0
-37 79 99 0
-35 -7 -2 0
380 -437 304 0
323 452 -101 0
-207 -451 -221 0
209 182 -70 0
401 -283 -231 0
-213 -301 -201 0
-388 -465 41 0
335 -141 -57 0
350 6 411 0
-229 230 362 0
401 -220 -155 0
276 25 -345 0
-2 65 -135 0
-299 -125 219 0
427 322 -428 0
-7 285 -222 0
301 111 -227 0
-462 390 113 0
381 395 -303 0
204 193 232 0
-371 -455 -276 0
-231 -449 232 0
-104 241 177 0
16 163 -499 0
-414 -52 -220 0
-410 -476 214 0
-434 168 19 0
391 -237 -99 0
452 414 -208 0
367 -200 449 0
281 332 191 0
94 373 -431 0
190 173 310 0
-413 -141 -30 0
323 395 420 0
-395 -9 135 0
275 -23 -206 0
-278 -165 396 0
-172 225 317 0
176 -280 -481 0
-170 312 382 0
355 223 -7 0
-489 -338 -240 0
396 -393 104 0
-236 -224 -157 0
-432 1 -387 0
328 455 230 0
-149 -267 -119 0
235 343 -153 0
202 -406 -12 0
-103 -87 -333 0
-60 68 -151 0
116 -362 266 0
240 281 97 0
-310 33 353 0
-205 371 -122 0
341 -222 -333 0
-64 218 416 0
-274 114 334 0
57 -110 132 0
-8 -326 396 0
337 130 8 0
42 -490 -55 0
-171 -174 -318 0
154 -92 351 0
-84 468 13 0
360 413 393 0
471 286 398 0
464 285 334 0
-53 446 -17 0
187 -454 177 0
6 -288 -103 0
-72 -158 39 0
255 -39 -181 0
343 -272 -42 0
-84 496 -444 0
219 -467 338 0
302 -460 432 0
328 -383 -144 0
487 -165 -285 0
-387 -446 -471 0
-24 -148 147 0
-284 2 462 0
-295 388 78 0
309 -4 -399 0
-432 459 329 0
457 243 -160 0
-226 -439 471 0
-190 -339 -491 0
13 271 342 0
223 -280 26 0
57 22 -159 0
449 280 -358 0
-90 -42 426 0
-226 -296 -417 0
399 314 -262 0
-226 -221 70 0
-144 172 -218 0
-203 -68 461 0
429 97 472 0
165 247 -250 0
455 -279 11 0
129 261 -364 0
461 453 307 0
212 355 233 0
-115 208 -403 0
-497 -218 -70 0
-245 -186 199 0
376 -35 -185 0
163 -9 -263 0
159 -229 271 0
52 351 -97 0
476 -112 -129 0
-250 -260 -140 0
200 78 193 0
-500 -444 204 0
463 38 453 0
-133 430 -13 0
266 -133 -59 0
-407 379 -416 0
-104 152 -37 0
-396 363 -345 0
-53 304 -491 0
-435 -364 -20 0
18 -259 190 0
475 -392 -238 0
-89 15 -361 0
-172 -304 364 0
472 -359 -207 0
-156 -181 -318 0
-172 -444 -226 0
375 -324 -53 0
-92 293 -416 0
-397 -308 -139 0
345 -500 43 0
-500 -235 396 0
105 -399 -455 0
103 -180 -329 0
-260 9 44 0
450 -243 -400 0
-204 -338 420 0
345 -475 -161 0
-246 -273 128 0
-27 260 -169 0
118 86 203 0
-110 -316 -296 0
143 101 130 0
151 -400 450 0
359 -148 -258 0
-385 -203 -398 0
472 344 -459 0
-485 -277 188 0
-414 371 -364 0
146 347 490 0
-490 419 194 0
316 -202 248 0
36 84 -381 0
-169 -54 150 0
-416 -42 169 0
-84 440 209 0
399 -213 14 0
-143 479 -74 0
-255 176 490 0
-20 207 -339 0
-301 -276 -282 0
106 -38 71 0
350 145 147 0
-33 -314 -182 0
-465 483 -2 0
-262 -169 39 0
-147 -305 -64 0
-234 -196 -216 0
495 31 -151 0
-446 161 377 0
-326 -243 186 0
-431 -374 -462 0
-352 -7 62 0
-282 202 382 0
438 174 260 0
412 -319 182 0
37 212 -114 0
235 43 90 0
-161 483 -437 0
-289 167 -496 0
121 348 390 0
-4 -236 207 0
-484 149 174 0
242 163 -34 0
-207 -2 -321 0
457 215 155 0
73 236 -138 0
-64 -199 331 0
-82 174 405 0
-81 -279 246 0
-283 -424 -416 0
-271 93 137 0
-390 -241 -305 0
214 72 307 0
15 -421 -174 0
47 136 -333 0
331 95 -483 0
-364 384 -412 0
149 -208 -116 0
-60 261 -333 0
135 240 -32 0
127 -339 78 0
-312 -18 -491 0
360 241 374 0
244 -332 36 0
-202 -470 361 0
185 -227 -226 0
-265 -51 123 0
-456 451 249 0
-489 338 389 0
1 -340 143 0
423 368 -44 0
-406 -266 -345 0
-255 -324 409 0
36 -485 306 0
-51 -78 1 0
-242 64 184 0
-437 420 -359 0
405 110 -94 0
58 -350 262 0
-254 172 -276 0
-82 -233 282 0
-277 -397 268 0
-294 -206 318 0
316 -68 223 0
342 312 381 0
445 196 -373 0
275 -199 301 0
194 89 -415 0
-408 237 473 0
-496 -395 -372 0
-3 225 395 0
477 4 62 0
-16 241 -359 0
190 -364 112 0
166 64 405 0
367 -458 -403 0
-203 380 399 0
-310 -186 199 0
435 474 21 0
-314 -162 103 0
435 486 -79 0
51 -234 -137 0
-248 -17 -213 0
-469 -222 417 0
-342 239 346 0
160 -211 322 0
-207 -218 32 0
-84 -139 429 0
396 438 495 0
-404 239 213 0
-74 -185 230 0
-417 -57 25 0
-119 255 -385 0
107 94 -490 0
-264 -101 -164 0
-451 29 40 0
-219 -321 48 0
-350 61 -270 0
-50 48 81 0
114 -256 -437 0
214 -460 -247 0
140 304 116 0
89 98 -380 0
-400 64 -366 0
-408 -302 -430 0
-218 88 -152 0
-9 66 -453 0
-81 -215 -180 0
153 -99 12 0
168 -38 127 0
-423 315 151 0
233 -483 -262 0
-471 -345 294 0
-117 244 -279 0
199 193 -238 0
170 -256 397 0
-101 490 -107 0
-285 5 -87 0
-454 78 115 0
463 422 215 0
335 474 -189 0
8 -286 -492 0
-115 -14 31 0
104 283 161 0
411 129 -359 0
341 346 -218 0
196 482 472 0
-396 -62 -477 0
188 -113 476 0
-432 305 306 0
2 360 -198 0
114 104 -456 0
349 99 116 0
1 -321 294 0
467 209 -83 0
218 -164 -342 0
400 -430 -221 0
449 -256 247 0
62 -9 115 0
435 96 -315 0
-290 -388 424 0
-148 364 -191 0
301 342 226 0
-78 -353 122 0
343 -315 -307 0
185 -166 -247 0
290 275 30 0
-123 244 486 0
-378 -54 415 0
292 -286 91 0
-140 -442 -241 0
272 -143 12 0
-53 -253 -119 0
-202 -227 206 0
-113 -234 168 0
363 270 209 0
189 104 -361 0
-133 12 417 0
336 -299 -181 0
-120 -299 400 0
226 -480 119 0
5 -492 225 0
-135 -30 -12 0
-210 407 -130 0
81 186 -455 0
164 -358 -302 0
22 -162 -422 0
-469 453 -114 0
-460 -116 -95 0
112 -42 193 0
170 -456 -221 0
371 -196 -385 0
-285 -415 232 0
-396 -170 439 0
169 255 -479 0
-332 -313 -302 0
361 -290 -68 0
-359 -75 310 0
50 145 376 0
-310 -427 -224 0
177 303 304 0
-430 122 -63 0
-2 -359 88 0
227 -313 -55 0
86 370 159 0
-212 -283 246 0
140 -371 262 0
-329 -246 -363 0
-128 -392 391 0
18 -394 -432 0
105 -459 364 0
242 -335 259 0
-405 -491 -460 0
-371 209 -246 0
-208 369 -161 0
-350 336 183 0
-443 -107 424 0
-178 449 -55 0
-154 -285 492 0
-231 -21 147 0
-215 -255 380 0
46 33 -465 0
105 -192 -309 0
397 190 141 0
339 -357 -103 0
-487 466 -327 0
-19 275 -336 0
-64 490 -355 0
358 352 222 0
-180 -91 287 0
289 -67 76 0
387 448 292 0
38 -29 370 0
-291 -94 -407 0
216 211 -500 0
-64 305 97 0
163 -458 -484 0
285 -483 52 0
-301 -217 -349 0
-16 -232 -34 0
-159 -372 332 0
-319 -430 65 0
-367 97 460 0
245 214 -158 0
111 489 384 0
-363 -241 -197 0
-461 84 -407 0
-45 -63 -365 0
-203 -70 405 0
-26 -130 -448 0
61 -400 219 0
-441 -46 -108 0
470 -303 -133 0
369 -485 -46 0
108 -148 -117 0
325 375 442 0
-349 318 109 0
-426 -405 -254 0
-449 -75 38 0
481 439 426 0
-68 275 447 0
281 -230 38 0
-107 483 392 0
361 92 474 0
438 427 14 0
-35 -308 -280 0
-212 111 -176 0
260 -224 446 0
-498 220 352 0
-199 120 15 0
-446 -422 -278 0
467 -204 -20 0
225 -486 -392 0
-152 384 61 0
407 231 -439 0
263 409 438 0
-175 291 -407 0
89 -295 -441 0
195 17 484 0
-330 274 -455 0
42 -87 -430 0
15 -179 267 0
-362 -257 -56 0
290 401 -260 0
481 407 -420 0
-203 -375 -213 0
-481 156 476 0
-202 126 -499 0
-229 -414 -428 0
-33 -269 -16 0
88 -164 -393 0
384 -420 105 0
-439 435 -63 0
9 -112 101 0
-30 -19 -50 0
267 -489 419 0
-309 369 -142 0
107 -211 16 0
169 -64 -127 0
37 357 -56 0
-291 31 267 0
-414 -25 -156 0
-485 -364 -277 0
370 -480 -335 0
129 -30 154 0
484 -383 163 0
20 -325 -187 0
-6 -405 420 0
137 -385 -106 0
-258 -29 142 0
-250 17 -5 0
41 213 -360 0
481 324 -428 0
109 260 494 0
-20 -325 -381 0
237 -206 421 0
302 -149 -373 0
275 -201 -444 0
324 -352 119 0
483 467 96 0
-281 -206 -494 0
-479 -293 388 0
271 44 304 0
175 -177 417 0
5 283 462 0
-296 -18 469 0
340 489 457 0
263 14 -395 0
-110 119 -30 0
376 -203 -365 0
-437 -482 -454 0
-406 -252 378 0
100 6 -106 0
-62 -478 -237 0
38 44 429 0
456 -136 -323 0
72 314 127 0
264 343 -3 0
424 367 -496 0
-59 -403 -438 0
-112 -487 438 0
-276 96 -50 0
-480 -307 284 0
103 -471 495 0
69 -159 -26 0
363 -479 42 0
195 -52 -446 0
-206 21 -76 0
-201 -101 272 0
157 -341 -8 0
351 8 -363 0
-118 -246 -62 0
274 386 304 0
-16 -429 356 0
-418 219 165 0
267 25 366 0
234 -399 -367 0
55 -152 -308 0
-248 403 -4 0
483 159 129 0
-35 309 364 0
119 -208 -252 0
-378 153 309 0
-329 -91 7 0
-122 -70 -442 0
66 -328 438 0
-239 268 342 0
-114 179 -354 0
-99 78 -214 0
-309 -138 -236 0
371 -405 411 0
-9 99 326 0
-402 -272 -279 0
-228 120 -463 0
-35 130 -437 0
175 136 60 0
-468 90 -57 0
7 485 125 0
218 67 -276 0
46 278 -171 0
-129 -246 -233 0
359 373 175 0
-251 -244 36 0
72 344 -90 0
-309 346 -233 0
-346 495 49 0
109 113 163 0
-441 -131 466 0
-407 -421 -445 0
83 262 464 0
34 -318 -491 0
-316 -175 -94 0
-392 198 -331 0
277 300 -24 0
-470 169 204 0
304 -113 -308 0
291 496 108 0
-124 -249 -83 0
383 -311 66 0
-12 483 -238 0
-235 -43 229 0
-182 -454 -425 0
-44 -360 42 0
446 -472 91 0
247 -365 -243 0
351 -175 217 0
-418 -115 -305 0
-411 -82 78 0
-12 209 -61 0
78 -444 -72 0
-353 155 -195 0
388 391 -277 0
25 271 -300 0
-350 382 -128 0
-13 -343 -201 0
3 -65 -475 0
83 -62 212 0
-489 306 86 0
-380 -193 352 0
-172 -201 -300 0
341 417 -165 0
457 225 330 0
-96 -341 -111 0
-288 -386 362 0
-471 202 -485 0
376 188 -12 0
242 245 -411 0
-230 161 -326 0
301 -172 467 0
140 -3 -125 0
-55 -280 235 0
62 177 -365 0
235 -488 -193 0
-160 81 370 0
-48 -280 -66 0
72 146 -328 0
-414 238 -248 0
-37 283 -303 0
-431 347 -327 0
-127 83 -395 0
428 439 476 0
-394 -151 10 0
-425 460 -47 0
-11 378 -299 0
408 350 -455 0
-458 466 452 0
207 -221 -355 0
-497 422 -445 0
414 -21 286 0
268 -320 180 0
388 213 442 0
-151 -452 455 0
-27 -121 -478 0
-52 -468 -356 0
