c Large 3-SAT formula for GPU testing
c 1000 variables, 6000 clauses (ratio: 6.0)
p cnf 1000 6000
-709 -576 643 0
-979 456 -146 0
393 767 -471 0
-321 930 -311 0
-423 -971 -838 0
-49 -169 245 0
345 505 -343 0
-780 378 -480 0
770 -90 -377 0
-476 394 -507 0
284 454 -648 0
-828 73 81 0
32 241 958 0
470 -508 149 0
-50 688 648 0
-760 411 -313 0
-888 708 880 0
-442 900 504 0
-663 -892 -520 0
-790 -332 -613 0
-827 647 -763 0
-394 -567 -989 0
-310 763 -848 0
626 331 -793 0
-857 -230 363 0
-541 -373 612 0
550 -333 876 0
166 285 -940 0
732 242 -507 0
852 -257 179 0
-372 456 949 0
-81 394 -330 0
-739 542 -445 0
-571 -540 794 0
697 -102 -814 0
-49 -74 -969 0
-69 744 575 0
-550 728 224 0
-883 -618 739 0
326 901 -463 0
-446 939 144 0
-315 -934 177 0
-841 -821 -963 0
480 589 -196 0
-635 835 423 0
-824 -663 -547 0
-716 788 731 0
-353 -76 -694 0
-372 -920 279 0
-243 -117 570 0
34 476 -848 0
-761 823 -584 0
-696 -842 622 0
-865 -291 837 0
669 -3 601 0
-924 -891 -73 0
-540 559 -52 0
688 -685 317 0
816 -28 -729 0
256 155 780 0
592 -615 -635 0
259 624 -151 0
-168 -348 -973 0
605 -666 283 0
-838 -552 958 0
-612 987 327 0
290 -166 737 0
415 976 -333 0
-945 -758 -641 0
350 -352 758 0
-414 -655 496 0
-856 -607 797 0
-818 -778 -457 0
963 -114 909 0
-512 -637 373 0
642 596 -665 0
-902 355 322 0
-204 931 -912 0
-934 494 994 0
673 -287 250 0
469 -859 556 0
851 334 -36 0
620 90 94 0
177 428 681 0
109 473 -588 0
-53 988 940 0
-254 330 290 0
428 414 -326 0
413 284 -614 0
-275 -549 45 0
-259 243 -404 0
-284 301 -115 0
-41 875 737 0
51 519 -904 0
577 338 777 0
184 -794 522 0
659 -970 -282 0
-262 -141 -242 0
-891 -838 178 0
145 -355 -994 0
534 967 84 0
324 -463 878 0
-271 817 -531 0
222 557 862 0
-905 507 149 0
-189 675 -517 0
-388 757 376 0
-258 786 33 0
-526 282 -929 0
840 63 -471 0
925 -333 285 0
153 -426 41 0
341 507 916 0
122 943 -916 0
-866 -78 -784 0
-514 -763 -310 0
-101 -806 -301 0
-228 646 -357 0
831 -182 -18 0
285 624 -724 0
-673 844 -87 0
450 -461 958 0
-824 850 -958 0
563 -313 102 0
-412 379 -935 0
500 -209 -622 0
-286 -786 179 0
646 500 -882 0
404 50 -349 0
102 694 -831 0
845 917 69 0
-144 -338 -218 0
171 499 -702 0
603 -941 385 0
-953 360 -150 0
505 665 -319 0
-262 619 -71 0
152 181 -497 0
-452 633 -600 0
339 861 43 0
356 -153 734 0
91 -988 -992 0
-75 -800 622 0
-532 -308 -582 0
359 -824 -192 0
-685 -427 -497 0
-354 961 627 0
-896 981 -663 0
-326 -584 410 0
-385 -597 -764 0
770 786 595 0
972 819 -228 0
-754 -752 -111 0
-769 -168 701 0
-293 674 308 0
286 105 448 0
-863 -975 -921 0
-187 -756 147 0
791 -53 179 0
63 347 857 0
-271 416 -433 0
-87 914 337 0
-876 862 71 0
-587 124 -424 0
907 447 539 0
620 887 582 0
669 -73 -438 0
-308 -648 -861 0
-736 454 -251 0
506 598 756 0
-725 -908 -816 0
-543 369 -860 0
989 -241 499 0
-601 699 -196 0
861 -425 -91 0
-954 -654 398 0
-515 -244 42 0
-675 53 469 0
-796 402 -966 0
304 232 747 0
-948 -407 -856 0
76 275 -414 0
481 430 341 0
641 655 -326 0
-425 -375 -730 0
2 -175 487 0
-719 -448 -712 0
623 -469 -457 0
-450 529 -201 0
548 -40 733 0
130 890 388 0
-178 432 -719 0
677 274 -618 0
-87 705 -940 0
-296 -182 -597 0
-821 304 -656 0
101 6 -410 0
-790 -252 810 0
603 209 -501 0
-74 -160 -979 0
399 -753 -931 0
370 170 -6 0
630 -936 -123 0
-912 381 614 0
-782 174 780 0
-902 -815 236 0
992 -68 -936 0
-507 -743 -252 0
-90 -196 -898 0
604 117 -927 0
82 605 -469 0
62 -228 -50 0
-337 -903 -530 0
900 -910 372 0
438 844 -367 0
416 -953 -830 0
451 581 759 0
-225 -153 651 0
248 398 -668 0
-444 -808 223 0
626 -524 -467 0
-637 -878 -610 0
-622 -521 -757 0
-326 129 273 0
959 -808 -764 0
124 -724 40 0
160 -76 459 0
-983 660 -378 0
-538 -752 54 0
854 -615 926 0
741 719 297 0
228 137 -810 0
674 760 530 0
-556 624 242 0
-874 551 -808 0
-710 -967 -811 0
-428 256 -451 0
-255 436 738 0
468 -466 -722 0
-703 -409 -702 0
-34 960 543 0
643 -91 234 0
913 563 880 0
858 -669 282 0
-899 -423 403 0
322 -267 -169 0
-667 61 824 0
122 693 -651 0
-755 718 -278 0
-361 681 -133 0
-467 -520 -288 0
-490 427 672 0
-525 -291 682 0
546 -865 -202 0
413 -25 82 0
781 637 51 0
-354 -432 -986 0
700 742 -917 0
-213 438 736 0
-481 -104 173 0
170 -638 -715 0
-539 460 -245 0
-324 706 32 0
705 530 847 0
-876 77 462 0
87 -115 -348 0
-387 -148 532 0
734 -268 -620 0
-827 -279 -519 0
851 641 49 0
-218 -755 -412 0
364 -890 -441 0
83 416 820 0
-908 58 496 0
362 834 584 0
266 26 -54 0
-613 -940 375 0
-912 305 535 0
917 115 -74 0
934 845 374 0
-680 -469 -561 0
683 -205 -478 0
279 -827 340 0
337 976 807 0
619 228 675 0
-185 97 123 0
401 418 -603 0
477 319 695 0
489 -18 280 0
265 -694 -28 0
-781 996 -672 0
-799 -358 892 0
-627 -483 231 0
-235 -115 399 0
329 -462 84 0
-322 -597 483 0
-525 246 -579 0
-257 -814 511 0
-785 -93 -52 0
-983 -328 235 0
-612 886 149 0
929 -911 -18 0
707 662 578 0
-733 283 -715 0
-553 -74 -275 0
904 -646 -784 0
-211 -343 -582 0
659 -465 76 0
685 -945 162 0
71 540 -788 0
-60 -881 954 0
-782 885 718 0
-834 -765 -124 0
222 -948 743 0
482 954 654 0
-350 553 720 0
641 -507 -395 0
-240 -346 148 0
50 48 -659 0
-548 215 -146 0
950 -465 -378 0
-984 903 -478 0
958 625 -124 0
795 -8 -594 0
746 -64 -37 0
446 -500 441 0
82 857 -924 0
595 -659 -906 0
551 160 969 0
686 -644 -317 0
-462 -1 202 0
531 -664 -909 0
-165 -757 984 0
-990 967 -913 0
427 247 -278 0
-991 128 -711 0
-763 -73 218 0
-871 -481 -258 0
-551 -265 -611 0
759 -206 640 0
-332 758 502 0
443 -518 466 0
-835 705 575 0
-43 211 863 0
-733 -434 444 0
859 219 -899 0
-735 30 -593 0
403 -860 -905 0
-904 -995 819 0
483 -439 -920 0
972 -173 439 0
-125 -82 -6 0
880 -447 99 0
473 -719 196 0
411 474 -597 0
608 891 -895 0
447 -196 927 0
-751 -795 170 0
-252 -658 906 0
-233 542 206 0
473 400 869 0
733 -790 -663 0
-854 805 -876 0
-680 -635 405 0
315 69 965 0
240 102 -560 0
161 862 626 0
174 -105 589 0
-283 675 -430 0
357 -934 550 0
-963 -376 -421 0
126 -224 -831 0
-503 -127 360 0
909 -814 -373 0
-801 -622 -131 0
783 599 -743 0
-712 -365 678 0
467 326 630 0
-373 504 652 0
-315 236 772 0
-758 477 -795 0
-857 -997 -321 0
386 -372 -564 0
947 -16 494 0
-836 248 157 0
693 229 701 0
736 241 667 0
-345 -825 -143 0
-31 -693 710 0
-60 -329 -490 0
954 956 586 0
-885 465 -488 0
205 -396 -898 0
-551 403 -616 0
889 -306 -397 0
-637 -423 422 0
-831 538 -607 0
-754 -76 175 0
657 -792 289 0
805 650 -320 0
-701 39 -87 0
963 512 -2 0
-204 216 -139 0
362 -880 703 0
879 -761 -388 0
-10 951 -291 0
115 -855 232 0
-878 329 -719 0
-212 -671 -994 0
-306 -747 280 0
186 -44 317 0
927 152 -483 0
941 705 361 0
65 41 -63 0
-428 352 -796 0
-644 -988 93 0
202 277 -645 0
-391 -115 651 0
873 438 953 0
98 133 -525 0
-711 827 -154 0
-510 -724 -111 0
-850 -811 -42 0
832 623 736 0
951 946 -470 0
-69 378 569 0
599 354 -75 0
-474 505 14 0
-776 -141 978 0
-118 599 359 0
-511 680 -291 0
-274 -868 -14 0
973 -24 444 0
-185 374 985 0
-189 405 525 0
902 -482 739 0
878 -866 670 0
246 615 -958 0
760 -293 472 0
-874 781 -95 0
-786 54 -969 0
929 725 951 0
510 -75 -469 0
-962 -259 769 0
154 768 539 0
693 -221 889 0
-382 -729 -162 0
-380 -654 859 0
-248 979 -940 0
267 -357 336 0
-770 -723 -265 0
867 -915 853 0
359 989 -997 0
8 -126 469 0
944 207 -372 0
-630 -494 138 0
372 940 -840 0
-399 40 -730 0
-88 382 -367 0
-812 -142 -658 0
29 -104 161 0
521 -613 -870 0
594 289 83 0
18 165 -819 0
-456 -723 -961 0
-727 -200 11 0
-163 -428 909 0
-864 -168 385 0
711 615 -285 0
674 -788 -376 0
244 103 45 0
356 494 -316 0
474 -865 32 0
909 -26 212 0
645 -278 456 0
304 7 -722 0
-620 276 776 0
-712 -84 -109 0
-251 964 447 0
-931 -84 601 0
419 -221 411 0
658 38 -224 0
419 347 -129 0
645 143 752 0
960 -547 -313 0
346 580 -291 0
-822 680 796 0
830 -12 67 0
-938 -298 -14 0
923 -384 426 0
763 33 -146 0
60 -328 -598 0
-697 563 -202 0
221 -70 -288 0
-868 -297 -978 0
660 -353 -81 0
917 676 952 0
199 -241 806 0
435 -450 -930 0
-430 907 -223 0
681 -100 -433 0
671 -108 518 0
932 -886 -213 0
120 -47 -33 0
232 19 -915 0
76 981 -667 0
-730 -674 647 0
263 711 -156 0
367 717 -142 0
-363 409 437 0
-321 338 806 0
-226 879 998 0
-790 975 -609 0
77 506 705 0
-339 83 53 0
161 -239 -311 0
-904 74 -274 0
363 335 258 0
-957 -547 -511 0
801 136 -854 0
959 -102 318 0
-501 -666 -702 0
-392 179 -22 0
-341 -496 443 0
-961 -640 -790 0
849 81 -130 0
259 -463 400 0
253 119 -310 0
649 -734 -314 0
897 581 -76 0
-325 -512 -681 0
-364 113 556 0
794 -852 -960 0
-360 634 291 0
-24 800 -623 0
852 560 -393 0
-846 464 -99 0
-69 -750 89 0
-153 759 227 0
187 867 381 0
430 -540 5 0
474 -653 746 0
591 799 -450 0
382 446 -47 0
985 -476 755 0
931 -45 606 0
-746 -126 -827 0
610 872 852 0
528 -567 -995 0
-370 -818 -448 0
785 -45 -795 0
420 480 62 0
-741 376 -652 0
-52 -196 -103 0
225 -670 4 0
534 987 295 0
18 558 813 0
430 233 -136 0
77 657 -130 0
-369 791 569 0
728 -966 -972 0
-674 -534 318 0
246 -683 54 0
514 922 -276 0
549 -816 515 0
-938 -842 -471 0
289 -735 529 0
811 418 -60 0
576 151 756 0
346 -960 -854 0
244 388 -971 0
972 518 -84 0
31 -561 367 0
-833 474 950 0
56 198 575 0
-557 825 -74 0
509 743 833 0
-906 -87 673 0
-759 780 264 0
-515 351 -22 0
469 -283 69 0
-461 -379 -266 0
266 68 -998 0
-45 819 338 0
595 655 -12 0
-587 498 -431 0
41 -94 216 0
368 176 -826 0
-902 -997 -332 0
747 -565 -897 0
390 744 611 0
815 133 18 0
714 -285 -894 0
-173 80 -745 0
-985 564 -83 0
-695 644 -43 0
116 -942 -476 0
292 -623 -853 0
-528 -796 696 0
-40 -679 857 0
-507 598 -642 0
-34 57 -439 0
-355 -840 511 0
755 -601 -51 0
51 848 -164 0
118 353 801 0
2 939 -162 0
186 -25 344 0
-55 -966 -776 0
523 -442 -178 0
926 723 217 0
-927 788 -661 0
-286 -29 570 0
-27 777 -620 0
-844 -419 -166 0
-732 -828 -925 0
-206 -381 51 0
-851 -675 136 0
491 -795 45 0
187 -924 -339 0
138 -239 856 0
452 572 -357 0
67 -161 -715 0
-658 -137 323 0
-529 -501 738 0
871 -594 771 0
458 -1000 -963 0
-908 -214 -8 0
468 442 536 0
-10 -551 -169 0
536 -212 -301 0
693 219 272 0
-287 -833 -448 0
-10 848 -148 0
652 -570 283 0
-647 -684 -620 0
-681 846 -752 0
676 85 -95 0
-134 932 -964 0
-948 977 -756 0
-275 64 918 0
-858 -413 -731 0
798 -495 -873 0
-492 -309 279 0
315 -592 295 0
177 201 360 0
-305 -369 -777 0
-597 -19 499 0
-952 787 -799 0
774 -230 629 0
429 -800 -252 0
634 -706 -207 0
-767 -432 167 0
-499 -870 -936 0
258 -306 57 0
-428 259 42 0
-385 -457 -144 0
479 -40 -866 0
-483 -506 242 0
285 671 -771 0
-482 865 -535 0
83 340 973 0
-258 -12 -111 0
965 -285 -387 0
653 -466 -247 0
131 -621 868 0
179 547 621 0
-137 -661 -224 0
-228 822 597 0
-601 -979 413 0
217 -654 -716 0
356 329 946 0
88 -46 13 0
-33 160 631 0
952 323 800 0
-149 284 -189 0
-509 107 784 0
-441 -45 294 0
-860 -822 -154 0
397 552 -635 0
810 -581 -133 0
931 -202 -588 0
435 -374 -447 0
898 -608 324 0
-638 -461 -312 0
725 402 630 0
-129 43 -530 0
770 -696 298 0
718 -57 -577 0
233 172 -667 0
345 370 -736 0
562 503 529 0
-79 -231 -650 0
30 176 851 0
-426 -641 -553 0
457 -139 145 0
937 505 882 0
731 -792 -488 0
703 666 -405 0
-762 375 976 0
618 30 767 0
-407 -9 -984 0
196 -271 -775 0
-208 538 929 0
697 -361 -332 0
-856 -161 -194 0
160 661 -999 0
-373 838 189 0
171 -787 -467 0
-736 -217 721 0
-629 406 -379 0
-242 -668 171 0
766 -336 205 0
741 932 -426 0
278 524 -455 0
-1000 832 367 0
939 -163 296 0
436 120 -840 0
304 -705 -455 0
631 -440 510 0
-158 575 469 0
234 542 726 0
-799 290 -511 0
877 -402 974 0
619 358 -182 0
63 976 587 0
833 753 -892 0
-778 703 998 0
770 804 -737 0
215 -855 -275 0
-518 -476 -806 0
958 898 865 0
557 -531 270 0
-948 -892 797 0
238 511 825 0
-355 -528 -792 0
877 -377 762 0
-731 68 -282 0
644 439 530 0
691 -773 666 0
-87 -872 361 0
814 119 -740 0
223 104 724 0
82 -457 -809 0
881 309 121 0
316 920 729 0
689 -120 342 0
-980 -912 450 0
260 34 -740 0
-945 -24 -979 0
487 -494 310 0
767 813 669 0
22 649 148 0
772 -570 -268 0
209 501 61 0
-746 -884 302 0
999 391 607 0
483 895 4 0
-769 187 291 0
-642 -911 930 0
-221 209 312 0
341 -519 -240 0
-580 -891 -915 0
-684 -713 -438 0
-140 854 -782 0
-486 -661 -180 0
374 -165 -602 0
578 947 -760 0
-742 -528 891 0
-363 583 -902 0
600 518 -113 0
941 580 -926 0
10 628 26 0
505 861 -283 0
107 -672 -77 0
-35 -411 639 0
960 646 457 0
-111 -415 178 0
982 -595 -373 0
655 -281 456 0
238 -568 278 0
278 225 -795 0
700 -630 -920 0
-69 -419 -651 0
480 -511 968 0
-985 1 -631 0
-838 28 827 0
-47 -269 -376 0
925 399 -618 0
180 -499 -114 0
397 510 -937 0
116 178 -81 0
222 766 784 0
275 -13 180 0
468 35 104 0
114 -2 708 0
562 -806 -134 0
849 -386 139 0
-250 -405 156 0
-686 -146 -767 0
-405 -751 543 0
-358 943 539 0
-90 392 -478 0
-484 -839 -187 0
485 -122 -104 0
-725 -32 244 0
-929 -373 702 0
-446 -438 749 0
-579 -298 -393 0
-405 428 381 0
-427 -300 -197 0
445 231 41 0
315 884 -425 0
318 869 769 0
-114 964 342 0
940 846 442 0
794 -437 677 0
-902 -349 197 0
252 952 21 0
671 554 -830 0
-633 135 602 0
839 993 -87 0
-573 -433 -908 0
516 672 669 0
612 -428 -878 0
-122 698 -884 0
-614 111 -977 0
443 217 772 0
-467 -712 -817 0
-160 -709 -367 0
943 -89 -370 0
863 -708 154 0
372 791 -247 0
966 238 -318 0
-81 10 -407 0
-882 -847 -365 0
58 -696 -465 0
-514 227 844 0
-122 405 877 0
-942 -994 934 0
-817 -706 -237 0
753 703 782 0
-300 161 -572 0
-488 -350 -605 0
-299 -818 325 0
-163 165 -627 0
729 -753 322 0
-211 -312 649 0
-918 401 -717 0
885 -82 -226 0
-699 952 -491 0
510 -482 -671 0
435 318 -483 0
-900 640 -459 0
989 801 445 0
-879 -989 712 0
237 -265 463 0
899 -765 272 0
648 290 603 0
-623 -174 778 0
917 -417 271 0
-154 598 542 0
960 682 714 0
-543 471 902 0
318 275 -783 0
402 -94 779 0
170 201 -685 0
-298 963 -20 0
354 -286 819 0
-800 -551 -407 0
-678 -1000 -154 0
639 -676 297 0
692 761 -71 0
562 -25 -810 0
-635 -843 -701 0
929 67 959 0
-889 -387 655 0
399 -161 451 0
-151 -246 664 0
-62 375 -72 0
46 231 -112 0
460 -475 -1 0
-29 473 -347 0
19 -146 -947 0
-242 732 902 0
-801 -247 -444 0
-658 -977 390 0
223 861 365 0
818 193 91 0
-549 273 -201 0
572 -217 -989 0
-932 -635 423 0
587 694 940 0
700 -153 49 0
-812 -599 641 0
134 -4 -211 0
4 760 -622 0
430 960 -987 0
839 -92 -219 0
444 -726 -956 0
770 841 -162 0
-570 -586 -119 0
-303 456 -528 0
-526 83 808 0
-56 -454 -701 0
-507 -958 546 0
263 -709 -158 0
-652 476 -958 0
308 771 -431 0
6 -831 -845 0
539 172 630 0
-608 -407 452 0
863 -989 -580 0
-715 724 -361 0
-473 821 327 0
-627 262 -479 0
-598 218 -115 0
-215 -755 -830 0
426 -283 958 0
-536 -315 197 0
931 760 845 0
184 210 822 0
-366 329 610 0
785 335 955 0
67 -69 514 0
-280 -786 -269 0
986 214 -161 0
665 -832 153 0
-880 -294 -869 0
649 528 244 0
-747 525 273 0
585 964 -923 0
-835 937 -737 0
743 -253 417 0
-80 49 286 0
195 237 -666 0
-159 -254 290 0
708 601 104 0
-509 665 -344 0
-173 -232 -714 0
-664 -538 -66 0
-887 -377 -234 0
-380 159 429 0
578 -968 595 0
-339 -190 894 0
-152 -481 101 0
656 990 314 0
222 774 837 0
142 190 80 0
407 448 398 0
-138 -773 -713 0
-940 778 -590 0
-521 616 460 0
549 931 324 0
866 324 -863 0
-825 716 -545 0
-802 524 -52 0
-379 -905 -226 0
-424 -867 749 0
821 941 504 0
238 13 -222 0
43 842 637 0
-171 522 940 0
-679 -759 -80 0
-750 -288 687 0
274 -631 -312 0
880 689 440 0
472 -65 323 0
922 1000 421 0
816 481 -314 0
844 511 671 0
-660 -919 432 0
32 -3 -104 0
149 -646 709 0
139 -630 131 0
553 -302 -737 0
340 264 765 0
659 -207 -485 0
-890 302 195 0
512 224 -353 0
606 47 463 0
-288 582 660 0
-494 596 251 0
-198 805 -440 0
665 460 -872 0
-114 828 -383 0
455 36 172 0
-287 -367 810 0
-514 924 943 0
595 -125 335 0
785 -315 -924 0
-183 917 -501 0
630 -952 487 0
201 454 -893 0
19 868 53 0
-116 -171 -499 0
-636 374 12 0
-361 384 712 0
180 -466 187 0
-961 536 601 0
-777 -45 904 0
-19 -44 -198 0
-6 -393 -360 0
27 662 -738 0
225 -890 -392 0
799 -182 -208 0
362 -744 -910 0
757 -864 158 0
514 874 531 0
-613 466 667 0
-736 -108 551 0
-72 -592 819 0
963 -144 -236 0
-91 584 681 0
856 212 582 0
-710 921 -91 0
-588 933 -106 0
-422 522 156 0
917 -253 -364 0
290 330 669 0
-177 -38 985 0
958 859 758 0
756 292 682 0
105 212 -390 0
598 -108 557 0
478 -176 968 0
879 -154 -92 0
-440 -705 464 0
805 756 -460 0
-57 -369 468 0
-132 -279 854 0
388 749 331 0
289 -52 -65 0
875 360 -417 0
383 -717 -570 0
965 299 376 0
-278 398 910 0
-458 -296 834 0
-603 -871 -168 0
-48 294 509 0
-181 956 -257 0
626 210 532 0
-657 415 512 0
224 -231 -661 0
551 -338 799 0
-987 -226 -796 0
124 -385 564 0
-985 506 405 0
37 -49 -288 0
547 -60 -965 0
-33 121 984 0
628 -912 -318 0
878 -157 -959 0
162 -835 -637 0
189 800 -485 0
700 -885 797 0
-832 -172 754 0
514 94 732 0
-427 -611 548 0
-254 638 -695 0
753 -903 -582 0
105 746 492 0
369 312 963 0
324 -705 -663 0
-83 -60 480 0
738 -507 -378 0
-908 984 -167 0
56 -269 445 0
427 -139 759 0
77 -561 474 0
-703 531 922 0
-465 734 796 0
479 -567 843 0
-442 -651 36 0
-672 -503 224 0
131 328 56 0
-967 -33 539 0
670 -986 327 0
131 554 -364 0
-254 796 -20 0
-347 982 -214 0
-894 862 222 0
167 -999 -979 0
447 -575 212 0
316 558 510 0
-571 -576 -763 0
-795 -74 -678 0
847 -478 594 0
235 -764 -249 0
173 -417 -551 0
-487 271 883 0
507 -411 -192 0
-683 -652 912 0
-491 -504 -989 0
-282 -121 658 0
-196 75 -99 0
-942 -665 547 0
-803 938 275 0
-499 -501 -679 0
814 -561 870 0
75 -22 479 0
308 -304 -999 0
807 844 772 0
702 -443 592 0
-441 167 -232 0
-800 708 376 0
592 181 -175 0
793 -891 484 0
-239 -816 -202 0
-406 -599 -485 0
-985 -816 722 0
-378 -223 387 0
615 -559 413 0
251 -323 -265 0
-620 74 626 0
-469 955 -817 0
200 -244 -389 0
542 -579 -89 0
-248 781 -29 0
-582 559 378 0
-874 -284 -722 0
-315 627 -533 0
-81 335 -73 0
130 -380 -97 0
-103 -994 -163 0
-543 -69 -177 0
-825 -562 -433 0
628 681 -261 0
900 565 941 0
197 -416 939 0
683 -800 924 0
-173 -837 -448 0
573 985 -685 0
-868 -674 -615 0
877 -146 -175 0
-6 369 -746 0
-540 -479 -566 0
-92 -360 -812 0
285 -104 804 0
941 -9 -701 0
-934 -234 222 0
-670 26 -367 0
970 281 890 0
-13 -621 -489 0
684 -816 85 0
431 756 663 0
236 -10 215 0
-35 -121 657 0
-311 953 -409 0
369 -856 -138 0
510 -93 155 0
-996 975 76 0
-480 -953 -582 0
509 -623 -85 0
96 -758 578 0
71 789 350 0
654 -363 818 0
-247 -121 -514 0
-729 -439 -443 0
666 -567 -713 0
518 955 -371 0
519 -688 -835 0
969 330 -920 0
500 733 -339 0
939 88 155 0
-969 -142 -131 0
-940 -553 -172 0
340 -811 312 0
-191 -593 -5 0
-785 935 -924 0
577 -122 443 0
-798 -977 363 0
-646 -965 -647 0
-547 -81 -666 0
68 -295 25 0
395 -28 835 0
998 169 641 0
-715 -541 -652 0
-345 -766 -64 0
131 -2 956 0
387 228 294 0
930 531 251 0
-255 -646 162 0
-340 69 -204 0
-462 780 -662 0
797 -470 266 0
-366 992 -558 0
191 249 154 0
-62 -349 225 0
855 738 -548 0
587 -983 25 0
-916 636 554 0
448 -714 645 0
-24 419 -155 0
56 -892 -475 0
619 24 659 0
-517 -188 376 0
483 -100 185 0
584 926 -502 0
-640 817 435 0
586 768 925 0
313 -344 -849 0
-272 1000 -962 0
-559 -66 129 0
-5 649 636 0
56 -607 -761 0
615 306 -736 0
-176 605 222 0
459 628 -77 0
703 966 632 0
180 -814 -611 0
629 951 350 0
714 564 -415 0
441 706 294 0
972 144 -723 0
788 -736 322 0
-601 -360 981 0
329 233 -701 0
652 60 -757 0
-686 -379 -874 0
-740 -897 -638 0
743 696 -118 0
-516 -331 569 0
132 -775 423 0
61 -214 -542 0
984 132 277 0
877 556 186 0
862 932 -766 0
-82 -646 -662 0
-346 324 -126 0
513 -828 -576 0
936 -523 -969 0
-960 699 -98 0
750 -146 369 0
-901 -652 387 0
-437 521 66 0
-334 -209 -909 0
43 137 -820 0
-5 -106 640 0
866 -319 -73 0
-979 -453 370 0
-543 -719 -227 0
151 570 -790 0
586 277 924 0
-126 -667 703 0
-95 -403 -120 0
101 -329 -228 0
-161 -616 427 0
-965 -443 -883 0
160 -314 929 0
327 -474 897 0
59 225 395 0
143 -580 -115 0
-828 -508 -3 0
913 -360 -116 0
166 934 475 0
541 -149 691 0
-415 530 -935 0
-888 -21 -29 0
825 -685 -571 0
-529 106 -121 0
144 1000 -531 0
261 850 -345 0
-972 941 994 0
-292 825 -964 0
-938 222 -25 0
862 592 494 0
-421 153 718 0
-644 -214 806 0
673 353 -784 0
249 -919 583 0
710 567 853 0
-828 -75 243 0
-633 -701 -875 0
984 415 539 0
924 -9 97 0
-102 290 -117 0
190 525 -626 0
-940 -85 -890 0
-577 25 -757 0
-507 -672 -894 0
168 931 303 0
-258 317 -6 0
-688 -108 -586 0
794 228 781 0
-879 -370 -427 0
-379 -91 -151 0
834 -676 -606 0
692 625 207 0
339 -98 -675 0
407 211 225 0
-700 -90 -739 0
771 659 -605 0
-176 919 -288 0
942 -969 -868 0
636 116 -420 0
29 -69 463 0
-945 -914 -351 0
-822 -740 220 0
-932 945 4 0
-517 408 366 0
-877 501 580 0
-455 967 106 0
916 -588 -247 0
863 -41 805 0
783 862 -352 0
-326 700 552 0
798 -110 701 0
-18 -972 337 0
-575 -761 21 0
807 -291 -33 0
-253 282 -573 0
-594 -786 188 0
-153 163 831 0
382 -386 960 0
909 15 873 0
139 274 -433 0
617 85 -507 0
-397 -490 -431 0
-868 823 554 0
233 -598 -432 0
628 181 -148 0
295 819 -264 0
-14 -309 443 0
-679 -212 -136 0
460 -872 -888 0
-873 -300 -831 0
-45 -102 -767 0
-151 -243 -668 0
-760 -294 673 0
-366 607 -263 0
27 -112 -795 0
949 805 624 0
-835 -157 128 0
-797 -993 551 0
550 720 -157 0
-638 -854 294 0
-878 638 928 0
-556 353 -403 0
-228 784 -421 0
-241 42 -182 0
-880 -119 -263 0
-440 545 958 0
-209 449 608 0
-23 -210 -516 0
-180 -405 783 0
-429 -398 714 0
778 -418 -990 0
698 357 52 0
-423 -631 -539 0
-423 -123 -621 0
23 759 401 0
511 522 477 0
368 188 799 0
182 870 931 0
707 -231 -60 0
-367 220 -549 0
-463 708 263 0
-750 -177 -396 0
-13 -959 504 0
-274 747 -480 0
-618 -756 290 0
-53 -65 579 0
-34 -29 -910 0
342 -786 -402 0
-463 -250 910 0
351 459 431 0
-154 -251 247 0
404 -690 -593 0
831 -417 741 0
-476 -397 888 0
736 460 -621 0
-58 -914 178 0
458 766 -903 0
392 763 -728 0
379 -704 11 0
800 -778 230 0
874 -382 -903 0
563 -657 93 0
-621 129 -998 0
-64 -687 -743 0
467 504 -217 0
182 843 -996 0
-434 409 -62 0
-86 -801 261 0
-105 270 431 0
-476 414 415 0
-204 252 -973 0
234 566 436 0
824 -535 61 0
123 -207 292 0
-316 823 517 0
-588 115 -42 0
784 -394 -129 0
-851 816 402 0
-448 -41 871 0
-114 891 -184 0
-610 555 -274 0
-843 549 -556 0
-346 171 -150 0
-117 454 607 0
-239 150 700 0
-866 341 697 0
894 -839 -768 0
688 211 -523 0
751 -486 -160 0
15 -878 359 0
-130 938 842 0
-507 527 -902 0
-780 -308 -186 0
635 847 991 0
-275 494 -901 0
994 630 937 0
583 -81 962 0
463 627 821 0
-662 903 354 0
-843 -540 474 0
-795 316 -631 0
161 -900 37 0
532 -18 -359 0
-337 -984 60 0
641 180 -1 0
751 -233 -974 0
505 -588 954 0
11 -416 342 0
892 -740 47 0
-87 150 -8 0
76 -959 -788 0
718 244 -13 0
986 -747 226 0
-329 544 -363 0
-386 -465 840 0
216 -625 159 0
792 -431 76 0
633 959 -767 0
127 305 774 0
930 -418 -823 0
-322 -22 -17 0
164 -190 545 0
-775 -234 976 0
-962 424 442 0
-814 -102 508 0
476 948 -504 0
-995 -7 -143 0
-11 690 -486 0
574 334 -425 0
-265 -318 955 0
611 -400 -666 0
52 288 -938 0
-518 -392 102 0
-755 -339 -318 0
-364 -927 483 0
-855 -348 -409 0
-609 -215 180 0
-977 958 -900 0
-60 -412 -731 0
850 -983 -98 0
-882 805 -957 0
96 -196 -225 0
-562 -382 166 0
-490 -352 -814 0
-284 -124 -206 0
-714 -239 957 0
-6 -479 -541 0
-353 661 -752 0
-212 82 68 0
957 503 719 0
-672 -316 -848 0
276 892 196 0
-13 -395 -817 0
-699 631 475 0
-626 66 74 0
-972 204 -449 0
362 -341 -959 0
-269 -923 506 0
-334 -379 551 0
-331 449 -192 0
159 -795 -94 0
656 -740 662 0
38 123 346 0
322 376 209 0
487 -850 535 0
-364 -928 -531 0
685 564 971 0
-591 642 -209 0
194 600 -963 0
693 -685 -23 0
784 879 157 0
503 389 568 0
-611 -308 -686 0
-38 -333 -490 0
-172 355 588 0
2 -336 -42 0
930 -559 -289 0
-608 598 -286 0
-181 -992 -697 0
-272 789 83 0
-410 709 -693 0
-35 417 -856 0
139 -390 -85 0
113 -858 719 0
-885 -837 -376 0
-123 487 449 0
118 235 171 0
-110 581 307 0
614 -616 134 0
54 67 636 0
246 968 442 0
-260 128 762 0
371 -116 -296 0
-257 570 -364 0
62 433 294 0
-997 -697 279 0
-7 -803 736 0
-479 -415 -293 0
398 159 537 0
-89 -25 955 0
-211 131 -902 0
-708 -747 -449 0
-772 828 -612 0
296 -867 -674 0
47 -881 -321 0
-49 -632 129 0
774 226 -153 0
-441 -511 -109 0
-639 76 862 0
-337 -818 18 0
-679 213 -167 0
-681 36 -705 0
-72 944 -295 0
-12 614 25 0
-79 412 -914 0
157 -133 -995 0
-709 930 986 0
-881 431 -169 0
404 -502 -374 0
-950 -973 -533 0
947 -109 404 0
-284 935 976 0
685 242 417 0
483 849 -973 0
-34 -329 -625 0
-4 622 333 0
303 -340 -448 0
216 -64 -276 0
-925 814 -280 0
430 -639 335 0
-785 -781 336 0
-807 -995 -934 0
-206 535 973 0
551 -756 753 0
282 -966 59 0
338 -712 904 0
305 143 -66 0
-326 918 725 0
596 459 44 0
766 -872 -787 0
264 -828 288 0
145 -56 637 0
-997 -792 903 0
-574 464 729 0
-733 -304 -539 0
-702 897 -781 0
-228 566 900 0
83 -46 -543 0
-907 389 -613 0
-153 -474 889 0
211 53 192 0
-821 -903 -810 0
-197 -954 -583 0
261 425 277 0
829 -814 770 0
675 -497 245 0
430 -775 959 0
591 -493 -357 0
5 264 -208 0
691 -310 -139 0
760 21 -399 0
51 594 -485 0
-973 -702 299 0
625 805 17 0
-151 -161 -315 0
-204 268 296 0
456 727 862 0
-214 787 -317 0
228 155 491 0
527 412 849 0
-47 616 -560 0
971 -117 -805 0
-982 500 603 0
77 -791 -915 0
106 453 -404 0
-80 143 253 0
-689 973 -807 0
980 293 -172 0
-22 -149 698 0
109 -597 735 0
-818 -867 680 0
689 -872 -567 0
-117 387 512 0
-915 -731 74 0
-293 -877 -634 0
-183 178 -820 0
693 302 -373 0
279 -367 -908 0
-112 283 365 0
506 239 103 0
-314 73 14 0
-779 570 -667 0
-91 604 -56 0
-711 -186 -820 0
822 782 86 0
-761 -811 482 0
-937 -95 -642 0
531 496 169 0
-472 -130 17 0
-730 -67 726 0
91 15 -631 0
753 358 -281 0
-828 -185 -157 0
790 804 626 0
829 136 313 0
630 -139 996 0
-578 379 389 0
204 794 -274 0
-378 -526 -250 0
-267 664 920 0
231 299 298 0
816 379 416 0
-408 182 -933 0
-665 250 268 0
-573 209 -676 0
-43 -499 -749 0
-170 -243 -998 0
30 314 808 0
-649 -130 479 0
-402 -259 -136 0
-461 745 558 0
-150 469 812 0
174 -38 -132 0
-195 -629 -164 0
-459 745 -648 0
936 771 -847 0
-377 576 375 0
456 -113 -312 0
374 731 177 0
-357 592 -657 0
-675 694 203 0
-71 205 -344 0
947 113 547 0
-337 -244 -311 0
-556 -327 -942 0
-689 -194 119 0
783 -327 127 0
-52 752 -215 0
-684 742 -49 0
189 -754 -61 0
-86 -854 -96 0
143 -384 487 0
-602 121 993 0
449 -352 450 0
-29 -424 271 0
-540 -426 -906 0
-830 934 242 0
434 -162 -282 0
70 347 -841 0
-228 449 -75 0
-239 605 417 0
483 234 -726 0
876 -971 -401 0
191 -457 -8 0
35 102 -374 0
-591 640 -67 0
707 -9 796 0
-396 40 236 0
-50 -564 868 0
-857 692 119 0
-828 -692 -159 0
104 -313 622 0
378 779 667 0
-362 -957 -305 0
205 -879 518 0
116 836 470 0
854 938 -748 0
128 19 445 0
-117 -26 -490 0
-259 -454 207 0
-997 209 -418 0
-702 570 419 0
433 117 -168 0
717 273 930 0
-984 308 340 0
839 490 640 0
-18 -614 733 0
-565 -739 -306 0
-20 -41 -859 0
-230 806 -838 0
344 -329 84 0
487 -544 -681 0
633 -431 146 0
809 728 679 0
438 414 175 0
147 270 -45 0
-645 -548 -670 0
273 -839 122 0
86 -860 820 0
-72 -658 128 0
66 -85 -585 0
76 -322 -679 0
851 26 857 0
-85 743 589 0
105 821 656 0
439 -617 -575 0
554 -175 -280 0
-109 -315 3 0
-658 -335 929 0
-728 843 -734 0
-882 -982 787 0
970 -284 -737 0
-24 983 39 0
306 -52 669 0
-726 991 -687 0
316 879 -408 0
-504 -998 -165 0
767 375 923 0
468 -249 660 0
-795 974 437 0
556 -675 -817 0
-700 935 -635 0
62 -879 -311 0
32 -106 508 0
-818 609 303 0
840 -747 131 0
968 -659 919 0
824 -898 781 0
53 -670 -494 0
643 270 -816 0
-859 -832 -667 0
-649 -151 372 0
-332 751 912 0
646 653 -847 0
-141 168 450 0
-285 -123 462 0
113 -158 647 0
-22 101 -329 0
-836 490 -843 0
-764 633 -402 0
-33 895 319 0
42 953 -164 0
-610 -233 -960 0
-325 -970 -640 0
-925 326 -924 0
551 269 951 0
966 643 -70 0
-76 780 -331 0
-497 -24 -961 0
160 107 -608 0
281 -143 434 0
-324 -921 768 0
807 431 813 0
868 913 636 0
231 -28 -871 0
-125 -411 -144 0
-376 -531 966 0
-561 -892 -790 0
5 422 -923 0
521 -212 688 0
-790 -529 881 0
944 -163 262 0
926 -166 -573 0
-928 -214 -416 0
-595 891 -935 0
-374 261 -193 0
-16 -597 926 0
381 -604 -321 0
-686 -823 239 0
-830 877 199 0
-340 -446 379 0
-434 886 194 0
-591 -888 280 0
-779 -667 -55 0
180 -263 47 0
83 -975 374 0
-780 246 814 0
-159 56 -751 0
-845 904 913 0
689 832 -96 0
-309 -874 -154 0
992 -960 -71 0
-689 -806 517 0
876 -356 -992 0
-357 297 641 0
-766 -36 -598 0
362 545 -953 0
-855 883 -971 0
-222 27 -65 0
-607 448 858 0
-804 -883 82 0
-411 754 -143 0
99 -405 616 0
30 -747 475 0
-600 -759 -144 0
-666 -592 111 0
419 169 -823 0
240 244 -266 0
-121 361 -624 0
-408 897 638 0
-429 -634 54 0
-463 -342 11 0
-495 642 391 0
-542 411 536 0
998 674 -174 0
-610 882 580 0
514 794 -205 0
112 -896 -870 0
-370 -399 -931 0
-276 -881 -947 0
877 -77 -287 0
608 -671 -185 0
-693 421 -250 0
909 709 730 0
-872 -654 953 0
-221 -947 37 0
-765 747 112 0
137 108 -769 0
533 -676 376 0
111 461 -994 0
-806 365 -229 0
416 823 287 0
-614 -73 76 0
-351 -907 -658 0
606 -277 678 0
491 -416 366 0
-113 981 -367 0
-309 569 381 0
72 -96 -671 0
435 88 -369 0
379 480 13 0
-736 974 -195 0
486 172 -251 0
-200 162 572 0
295 872 349 0
-55 -478 -65 0
8 967 459 0
-462 -700 -594 0
-769 795 644 0
619 354 669 0
861 539 808 0
982 -908 -382 0
654 392 -745 0
-535 794 -497 0
770 -242 964 0
683 -112 -139 0
-540 -417 506 0
-169 -636 -548 0
474 108 -398 0
-827 -116 -602 0
-595 117 -86 0
97 766 10 0
262 697 -543 0
966 90 481 0
93 813 827 0
-765 196 612 0
-384 192 -567 0
-799 -553 -833 0
140 -812 -101 0
-626 803 510 0
-962 57 -500 0
696 -37 -927 0
-524 -126 884 0
-244 -206 -374 0
-72 -79 816 0
-699 -819 -633 0
831 670 -248 0
901 -568 798 0
-300 -363 313 0
-420 289 -408 0
74 589 -887 0
-174 -577 467 0
-805 -983 80 0
956 -375 -10 0
316 -74 685 0
381 539 514 0
-400 538 9 0
875 -437 -986 0
-394 543 -609 0
-976 -694 599 0
189 610 581 0
-720 78 -837 0
-636 -427 -506 0
-827 108 268 0
667 434 -284 0
-756 373 232 0
752 930 720 0
757 537 -827 0
499 61 477 0
-509 944 -983 0
647 75 892 0
796 457 -819 0
-988 -180 -821 0
-324 -58 896 0
366 -62 -841 0
-225 -265 471 0
-223 -940 -113 0
-647 -518 683 0
-668 417 -647 0
-389 -963 -144 0
-209 960 76 0
-44 -771 207 0
-959 649 -414 0
331 -581 -201 0
71 -64 -476 0
536 -637 -71 0
-11 -367 269 0
-190 -470 759 0
-602 -139 -626 0
-681 333 68 0
-682 -746 201 0
309 23 409 0
-731 -241 -551 0
100 268 693 0
999 457 355 0
-699 236 146 0
293 301 387 0
434 438 288 0
-520 604 -870 0
-430 374 391 0
963 -420 506 0
967 -428 311 0
-990 8 414 0
39 -879 -711 0
384 372 18 0
465 834 -502 0
358 -913 -766 0
-416 142 -215 0
574 -945 -813 0
-708 742 -343 0
-211 -620 53 0
-120 304 613 0
-708 -34 -183 0
-744 -305 -615 0
156 -674 130 0
344 -855 832 0
57 673 -939 0
-778 536 -462 0
-332 669 -681 0
523 -907 -823 0
399 132 934 0
-140 -500 -389 0
841 -39 -863 0
200 -852 933 0
-117 736 262 0
704 876 -954 0
160 115 -914 0
-551 -695 -487 0
57 -898 733 0
-934 -223 -524 0
448 -442 -482 0
-600 710 -280 0
-310 -393 576 0
-673 -668 982 0
-802 176 -102 0
699 714 -235 0
135 668 -602 0
654 117 197 0
617 -651 -476 0
-561 805 -788 0
-222 407 765 0
-676 520 -125 0
-958 -273 -50 0
841 924 446 0
-671 -927 -720 0
-74 531 900 0
-98 -446 505 0
-883 -10 -809 0
193 -130 -376 0
895 270 -407 0
185 744 586 0
426 -192 -158 0
628 788 -528 0
-741 -477 627 0
-463 -488 -493 0
-233 893 898 0
9 -41 961 0
116 483 18 0
-304 -630 -114 0
22 -765 -942 0
147 -532 -854 0
-808 -475 -48 0
-348 860 690 0
-113 -419 400 0
-23 573 -836 0
-394 -958 -762 0
-157 109 -695 0
532 92 636 0
-880 998 835 0
276 915 58 0
263 -772 -147 0
856 989 929 0
-908 688 174 0
23 -601 -242 0
395 -660 56 0
-417 -573 -843 0
-313 75 272 0
-545 -300 -541 0
729 691 877 0
309 85 442 0
501 -782 33 0
-638 -104 -566 0
-971 730 -395 0
14 -518 -197 0
-762 770 26 0
35 189 65 0
266 550 -42 0
441 610 800 0
952 -966 -401 0
321 -224 -503 0
157 191 528 0
-203 -865 -658 0
-79 724 408 0
284 -306 -364 0
125 -389 105 0
821 -426 525 0
273 -259 295 0
945 -389 -326 0
521 97 -551 0
526 -886 -564 0
490 310 -831 0
-446 794 749 0
-854 -407 -787 0
-94 -66 343 0
225 691 -933 0
-557 -324 165 0
-283 -177 -689 0
722 -436 871 0
-817 36 246 0
-52 827 -873 0
980 713 839 0
949 447 9 0
-512 161 928 0
-641 994 -289 0
-721 929 389 0
-960 725 517 0
-517 -275 720 0
-458 -599 -241 0
604 143 639 0
-520 250 742 0
-883 360 -497 0
449 523 -674 0
-231 -714 727 0
-169 -538 -982 0
910 -701 17 0
-848 461 382 0
779 -929 -26 0
-696 783 134 0
-368 -57 941 0
-551 -983 -954 0
65 841 322 0
-9 568 -689 0
684 750 809 0
883 -464 601 0
249 -967 -163 0
783 -402 -885 0
-969 -484 751 0
-548 302 -408 0
141 199 662 0
705 327 -870 0
-4 845 -483 0
425 -229 458 0
613 -24 -650 0
318 -659 462 0
54 -200 -465 0
-619 -682 880 0
641 -970 -282 0
943 936 -876 0
-491 -900 285 0
696 151 197 0
-602 -376 273 0
-638 768 69 0
-589 975 575 0
-182 -724 241 0
-260 313 461 0
-353 135 343 0
345 -824 -21 0
210 920 -2 0
325 -643 -693 0
-103 479 43 0
698 103 873 0
848 477 -404 0
-995 -289 575 0
-295 341 225 0
707 295 -188 0
325 144 -556 0
449 610 757 0
-751 -23 -648 0
-411 -182 -203 0
-60 -525 -360 0
-270 -223 731 0
-79 -247 -917 0
304 -356 -725 0
-848 -732 -194 0
-251 -786 -330 0
-180 -120 -557 0
-263 -282 -204 0
925 980 788 0
-301 856 606 0
28 -374 -419 0
-763 191 -136 0
664 548 467 0
-111 991 910 0
226 741 -635 0
421 80 516 0
-338 -384 737 0
-458 -370 -554 0
150 626 349 0
538 -170 -441 0
-747 -972 -431 0
68 229 -131 0
-864 128 308 0
-825 843 -933 0
573 -392 -563 0
490 437 363 0
615 822 559 0
107 926 738 0
997 -588 656 0
19 -568 49 0
-479 430 -693 0
-262 -989 916 0
933 853 591 0
-176 -218 -844 0
155 682 331 0
745 -538 404 0
820 -791 119 0
-811 85 -584 0
-677 104 -699 0
-978 38 -392 0
620 843 116 0
-970 42 962 0
-720 -131 -267 0
115 -520 759 0
-280 -656 -100 0
-561 868 -925 0
-829 708 372 0
880 -577 420 0
-68 -566 -282 0
195 -938 -647 0
306 368 -931 0
-575 483 -103 0
-909 -783 51 0
-345 -322 974 0
-307 -457 507 0
-939 98 926 0
495 449 761 0
-262 -110 -508 0
388 -613 535 0
483 810 -43 0
439 438 712 0
-99 -735 -778 0
206 282 -626 0
629 810 -449 0
886 433 -241 0
908 -884 -335 0
171 65 -933 0
400 88 869 0
-438 -773 511 0
-799 -626 224 0
463 821 -718 0
-897 306 -475 0
503 921 -507 0
334 153 986 0
2 -653 93 0
977 -227 -129 0
-370 642 -625 0
856 271 -23 0
-119 -25 -838 0
485 248 822 0
-282 -831 109 0
-532 -848 -314 0
411 981 139 0
-771 757 -350 0
-902 -390 992 0
90 308 -20 0
709 662 -861 0
-748 830 -220 0
252 16 -105 0
485 179 -325 0
-673 -765 709 0
-273 466 675 0
-130 -748 -906 0
-535 -20 977 0
270 585 727 0
508 -497 235 0
476 773 352 0
627 965 -229 0
749 791 -249 0
-850 -5 164 0
742 162 -212 0
-111 -901 -707 0
-487 -872 490 0
884 -524 -414 0
-986 -137 -138 0
-846 -184 806 0
870 744 -805 0
-559 417 -281 0
674 -366 -242 0
-514 265 111 0
-210 405 793 0
-476 -316 690 0
-527 -820 -400 0
-715 -192 -861 0
466 -689 -22 0
9 -361 -573 0
334 -798 -577 0
-703 -18 -383 0
-960 -832 680 0
-360 199 40 0
-884 990 -849 0
-60 167 -600 0
-225 -362 -152 0
-853 -426 -369 0
915 674 684 0
943 436 869 0
332 -178 -511 0
-904 443 491 0
416 -132 327 0
-430 807 307 0
150 84 897 0
924 -99 973 0
195 164 371 0
-427 676 55 0
-692 91 -270 0
903 -553 -267 0
585 -93 -356 0
745 -610 584 0
-952 353 18 0
-261 -522 -933 0
36 560 -449 0
891 37 218 0
-876 946 -180 0
-800 -477 644 0
-483 479 -890 0
160 677 24 0
507 -37 -957 0
665 -281 196 0
-829 -809 -572 0
508 -866 -706 0
-645 531 230 0
-754 -506 -917 0
-54 297 487 0
83 -595 -224 0
857 268 263 0
946 -170 -22 0
-818 49 -781 0
553 -559 -471 0
-636 811 -593 0
256 -241 -265 0
-528 783 838 0
-432 -543 314 0
-792 375 -702 0
-96 -424 -437 0
-123 819 1 0
-588 -639 -380 0
-200 -565 202 0
326 114 -838 0
-906 754 762 0
335 -424 543 0
809 326 746 0
237 270 647 0
-478 -136 -168 0
-560 -125 623 0
68 -122 639 0
32 -550 541 0
-723 -106 -618 0
-458 517 80 0
-28 -795 -897 0
-971 -999 -477 0
648 614 421 0
695 43 -630 0
-444 390 -336 0
-380 -715 327 0
-114 -959 -705 0
-154 -453 637 0
-753 615 -489 0
-79 -965 655 0
-880 146 -866 0
-885 962 -548 0
855 140 -77 0
782 701 548 0
198 810 944 0
-103 -815 79 0
-521 -546 -80 0
-769 -580 -64 0
542 820 -812 0
647 -213 323 0
55 151 -656 0
-770 623 580 0
-539 -308 390 0
570 100 -69 0
168 391 903 0
218 255 627 0
338 599 964 0
-858 795 -65 0
-607 -376 239 0
-800 496 890 0
-915 505 -942 0
-923 854 572 0
43 -954 -920 0
604 415 885 0
-205 -276 -918 0
255 -121 817 0
-226 -233 -339 0
-552 -381 873 0
516 -876 -398 0
-582 915 -603 0
-762 -209 -583 0
-544 -968 631 0
-255 -766 125 0
-524 -151 868 0
171 -777 77 0
-320 632 312 0
111 -289 40 0
204 739 328 0
686 -213 -156 0
621 -426 -136 0
-351 150 -321 0
-428 192 -170 0
272 990 143 0
669 207 591 0
853 -673 634 0
-153 810 772 0
846 -499 11 0
-923 -920 918 0
198 395 -356 0
-386 -301 170 0
-29 -54 -475 0
-578 993 603 0
-138 -587 129 0
978 -402 190 0
-445 -271 114 0
38 -149 95 0
688 484 -878 0
-438 640 233 0
639 -616 538 0
155 161 -666 0
862 -650 -250 0
412 454 212 0
632 527 738 0
205 -769 708 0
-17 -398 724 0
14 934 406 0
-541 172 306 0
-282 -223 76 0
-799 -816 -414 0
253 -841 -881 0
-671 -562 57 0
-103 -27 -835 0
572 477 30 0
-433 770 -344 0
482 -558 15 0
24 658 789 0
313 -687 -530 0
870 819 467 0
-277 -748 -33 0
103 -239 -583 0
262 212 -931 0
730 -324 973 0
404 -39 628 0
-296 885 767 0
-790 917 770 0
432 199 122 0
-57 -582 -442 0
-568 -646 -719 0
-810 229 -945 0
-87 -711 -603 0
-432 754 -628 0
-583 -238 -286 0
-392 192 -237 0
850 -384 662 0
-49 -43 -322 0
728 377 871 0
-790 -945 -914 0
-406 -149 -946 0
521 -699 -532 0
573 -667 739 0
-36 -386 -936 0
677 -924 186 0
-679 871 382 0
409 -387 -70 0
316 54 -83 0
180 -782 224 0
-55 914 -7 0
243 -571 -345 0
850 478 282 0
-818 -83 -855 0
-163 254 -94 0
-531 500 -872 0
-337 24 -227 0
-701 -223 -157 0
-591 -526 676 0
233 -942 866 0
-567 261 -291 0
-895 -165 -83 0
-941 -457 331 0
-695 529 775 0
803 -965 -972 0
-274 123 -334 0
162 -802 415 0
355 -331 204 0
620 256 -651 0
-549 -460 419 0
-421 734 63 0
-695 -982 18 0
245 559 157 0
750 520 45 0
237 -588 -333 0
595 500 756 0
503 -326 851 0
-53 654 661 0
741 -965 253 0
269 -469 249 0
312 185 443 0
741 76 -785 0
-354 -351 556 0
-514 -484 361 0
804 -951 -11 0
698 -904 400 0
-72 781 777 0
-926 -637 999 0
963 -14 623 0
334 -370 -127 0
492 -477 944 0
952 118 642 0
-7 116 -994 0
334 -990 797 0
-859 -212 482 0
-541 -952 555 0
-63 89 -821 0
161 335 850 0
-181 654 -494 0
-864 386 788 0
-914 -339 5 0
903 969 536 0
-952 -748 865 0
547 -31 657 0
-65 -476 -781 0
-708 377 388 0
-760 757 -878 0
-487 -408 173 0
471 212 844 0
608 260 -271 0
372 -91 545 0
-596 -179 -971 0
-753 -734 -67 0
540 554 850 0
960 -383 -899 0
-492 -488 -961 0
-107 -445 -769 0
25 788 482 0
-566 560 949 0
30 875 -197 0
-679 -241 1 0
863 960 349 0
687 -208 231 0
480 -608 834 0
777 807 -773 0
83 -90 -525 0
221 39 -850 0
-723 261 497 0
518 840 -424 0
-207 -634 -121 0
-374 500 -211 0
-856 -674 -71 0
98 596 -74 0
-574 654 856 0
191 910 551 0
530 -774 -844 0
9 777 -429 0
638 986 642 0
-686 -783 812 0
-930 -160 395 0
-874 981 -774 0
115 -789 119 0
849 -386 -206 0
627 -114 937 0
103 -97 -352 0
326 307 697 0
958 267 845 0
871 -646 -9 0
-904 -3 816 0
18 908 451 0
-866 -604 -264 0
317 47 968 0
58 -191 95 0
376 -180 297 0
-905 -740 914 0
-971 581 -597 0
-463 -854 52 0
-357 -593 280 0
-70 -344 -901 0
-138 557 -36 0
-661 -801 -318 0
-124 -533 178 0
-557 -955 -754 0
-523 -807 950 0
-68 724 811 0
490 104 613 0
-344 -967 247 0
944 581 698 0
-609 -540 -727 0
-347 -707 -952 0
595 -958 723 0
-685 -157 836 0
233 -549 -433 0
-82 234 589 0
-953 -750 933 0
-43 -780 841 0
166 -814 773 0
-559 891 -766 0
-266 520 773 0
-909 29 852 0
-929 885 470 0
98 -880 -946 0
-919 -546 -808 0
855 986 798 0
-432 593 525 0
502 -727 907 0
-385 937 100 0
-746 -327 -317 0
-515 -870 -835 0
287 -422 -373 0
-381 504 -590 0
-924 -948 -692 0
61 736 -533 0
116 -673 -458 0
125 -247 450 0
421 693 -641 0
333 -182 -643 0
991 -812 850 0
436 69 -827 0
781 92 -182 0
587 -660 -48 0
-268 277 -142 0
-353 427 697 0
-80 -583 239 0
365 -316 -802 0
-914 907 -165 0
-750 508 794 0
50 -126 444 0
-507 -519 470 0
597 627 -690 0
-564 -117 -907 0
272 683 368 0
760 339 -305 0
-244 691 -713 0
-509 -852 848 0
258 -630 -873 0
366 -905 171 0
-241 824 -369 0
-921 -617 70 0
740 181 -667 0
321 -437 143 0
179 -543 -452 0
127 -950 -158 0
554 -339 -277 0
-594 64 -333 0
-533 -189 -19 0
784 643 -772 0
763 -190 -860 0
-311 -489 -760 0
-386 -967 -522 0
266 770 955 0
-334 -325 -747 0
51 -652 -587 0
-289 -464 40 0
328 -800 675 0
-316 267 112 0
439 116 -159 0
731 -356 448 0
752 -534 -941 0
418 756 372 0
-315 -239 -583 0
-355 374 398 0
-257 726 675 0
-544 918 233 0
-545 -730 -109 0
464 639 -1 0
199 -802 -456 0
-900 979 401 0
618 -213 -380 0
440 40 423 0
-198 -601 482 0
-84 385 -305 0
97 -895 141 0
-889 -483 -731 0
427 693 89 0
357 -860 -5 0
-881 384 699 0
216 -791 837 0
170 -468 -994 0
292 -548 -595 0
-736 -120 -516 0
-751 -551 -68 0
398 84 -353 0
757 -902 96 0
150 -475 521 0
543 -691 -34 0
103 -770 512 0
-203 371 157 0
573 135 -818 0
-54 -706 176 0
631 -243 975 0
-292 -749 -421 0
421 435 -92 0
8 -657 -533 0
-639 -871 -117 0
412 -769 -920 0
-2 557 -796 0
879 -117 -988 0
817 -478 913 0
-520 -979 406 0
-352 615 390 0
528 -719 650 0
737 58 -324 0
-180 735 -237 0
119 849 56 0
707 -522 89 0
779 -625 338 0
-314 -111 14 0
-880 610 -12 0
-912 848 111 0
-965 90 -735 0
-567 99 145 0
634 -691 829 0
797 -718 -740 0
42 543 -117 0
-740 -316 548 0
-504 -846 507 0
-901 975 882 0
-673 547 -970 0
-494 589 -220 0
-879 884 381 0
-296 165 -83 0
-399 -643 -279 0
340 460 741 0
-759 31 313 0
-922 -863 -119 0
681 32 606 0
-666 -649 108 0
843 -904 -417 0
-832 -447 -403 0
295 -265 -388 0
-772 -453 624 0
-711 219 15 0
-117 -650 -174 0
-617 -782 -635 0
-810 -199 700 0
-627 -670 -518 0
469 954 -4 0
282 670 -569 0
531 406 -912 0
257 -690 637 0
-560 869 852 0
-609 563 -439 0
737 87 -536 0
500 434 240 0
381 -188 842 0
-407 -62 319 0
698 -266 820 0
156 -822 -592 0
-421 -479 977 0
977 -677 -198 0
-382 391 518 0
211 -380 81 0
-467 -121 801 0
667 16 876 0
-299 -360 -113 0
89 -293 -743 0
-767 888 -348 0
587 -570 783 0
104 -691 -775 0
316 -677 484 0
491 421 530 0
767 -38 -44 0
383 -750 548 0
-684 -483 703 0
-811 -712 -801 0
-994 819 -335 0
-636 459 -583 0
-482 161 323 0
-219 798 -785 0
-253 -566 604 0
335 -969 -538 0
700 543 -629 0
523 -227 -504 0
-391 55 342 0
-398 997 875 0
-882 217 -958 0
552 -522 -991 0
-947 -618 -988 0
90 -943 -752 0
290 -185 -202 0
-754 -584 -752 0
868 435 -10 0
-665 507 -387 0
556 858 -219 0
741 601 116 0
-75 -275 -564 0
851 2 -457 0
653 831 -477 0
832 566 991 0
810 740 376 0
-640 -919 787 0
320 39 -323 0
70 734 449 0
-775 -851 -865 0
541 174 451 0
588 -897 692 0
306 -848 485 0
-91 975 -279 0
812 890 -460 0
-232 760 379 0
-33 340 168 0
-735 89 731 0
-360 213 776 0
-85 -23 -792 0
551 -564 142 0
850 -199 532 0
-372 33 70 0
-888 -833 172 0
-278 5 921 0
-801 -762 425 0
258 -868 476 0
-414 978 -209 0
-320 -964 -459 0
720 93 430 0
639 -381 94 0
364 543 992 0
-77 842 951 0
-505 -433 559 0
-164 -160 -490 0
-686 -47 702 0
-276 -347 -127 0
252 680 682 0
-23 469 -814 0
-946 776 -301 0
437 -134 622 0
-78 -508 -7 0
407 314 -519 0
424 -668 36 0
718 -897 224 0
11 359 814 0
-889 467 -726 0
755 -637 -507 0
-627 -818 -47 0
345 591 -748 0
-735 -379 -12 0
-324 -18 389 0
764 95 304 0
-198 -665 -953 0
986 988 -608 0
425 257 18 0
216 419 -190 0
-280 534 -39 0
562 526 336 0
322 -802 604 0
476 465 126 0
-127 -421 -877 0
294 -175 366 0
888 -171 -508 0
69 -119 657 0
117 -497 305 0
459 -693 482 0
818 761 -797 0
-868 686 715 0
-265 -587 -476 0
-400 500 670 0
312 396 -705 0
893 -342 -260 0
494 252 864 0
-535 303 142 0
201 910 815 0
864 -175 624 0
-808 -68 -967 0
-192 240 -521 0
-211 147 321 0
-745 524 22 0
110 440 109 0
320 -240 889 0
970 -809 -680 0
-703 497 297 0
348 -156 -356 0
324 990 456 0
678 435 -511 0
-765 353 -581 0
-745 152 487 0
-250 408 -723 0
-436 939 -443 0
759 267 396 0
-579 457 226 0
-300 68 680 0
-13 96 707 0
-847 -428 735 0
461 -406 526 0
489 -395 -522 0
-893 -725 -301 0
-369 253 978 0
-148 -392 216 0
-422 993 812 0
-350 -984 103 0
502 -852 300 0
-63 428 -278 0
-368 -827 -928 0
970 -96 -831 0
322 784 -466 0
-908 107 638 0
-554 -589 -848 0
-823 -464 -222 0
467 992 299 0
-383 268 -52 0
-50 -472 -579 0
380 -544 634 0
-480 422 255 0
-556 -369 331 0
-360 906 108 0
85 -719 -486 0
-913 469 -667 0
-607 -899 56 0
266 -315 421 0
125 -186 -528 0
365 244 -706 0
-430 306 -259 0
-475 -52 812 0
166 -320 -463 0
600 -425 -929 0
367 59 -358 0
330 -827 25 0
-300 295 -517 0
27 -415 -333 0
196 -765 -755 0
-207 601 -603 0
-879 460 -692 0
-922 -117 -187 0
362 -788 -366 0
-897 538 -593 0
31 -471 370 0
-135 -519 551 0
589 324 423 0
-405 -831 -43 0
-712 -468 -709 0
510 928 612 0
-230 -307 -161 0
461 -336 838 0
130 -263 -47 0
-629 -130 -530 0
-794 -811 -314 0
596 718 778 0
-985 -219 911 0
60 27 -622 0
-597 766 932 0
907 811 262 0
-535 786 -608 0
-346 668 -864 0
-675 229 900 0
17 227 403 0
826 772 639 0
-732 -314 -415 0
456 -203 227 0
797 -84 -130 0
628 -51 16 0
-497 110 884 0
33 -290 -755 0
512 728 660 0
-824 720 702 0
682 567 18 0
871 -620 424 0
87 278 909 0
823 -348 -408 0
-46 770 867 0
-713 -686 -625 0
-850 -760 -700 0
9 -578 38 0
600 291 923 0
-511 -900 919 0
508 -53 69 0
-198 -263 524 0
919 161 -805 0
-667 75 338 0
37 -631 -514 0
455 -751 527 0
-848 303 -368 0
143 -881 -903 0
-663 209 83 0
226 -413 -251 0
890 -334 777 0
-6 -223 -63 0
-99 152 -703 0
476 423 885 0
556 362 -449 0
238 993 818 0
-303 -8 174 0
887 286 972 0
206 849 194 0
116 -581 -529 0
917 307 -819 0
425 617 -942 0
360 -951 437 0
-627 268 -615 0
-772 -584 762 0
-387 74 996 0
-491 -917 -122 0
-457 260 -879 0
459 440 -162 0
491 -689 -276 0
80 -450 -232 0
11 928 74 0
555 -641 420 0
438 -777 184 0
-190 223 -627 0
-956 885 -507 0
321 -437 -835 0
-956 655 126 0
793 -31 172 0
155 -147 -109 0
-282 918 -49 0
599 479 305 0
829 212 400 0
386 795 204 0
278 -240 -258 0
153 613 379 0
-213 -551 -669 0
3 236 -671 0
84 -950 -719 0
-855 -413 193 0
728 -473 -358 0
836 -394 334 0
598 -340 25 0
475 119 -879 0
-107 -962 523 0
709 -592 609 0
-569 -736 74 0
799 37 -776 0
-831 -739 -897 0
-805 903 -455 0
893 235 379 0
-723 -951 -558 0
445 94 173 0
-36 425 -166 0
463 -536 -307 0
763 -438 -931 0
154 -77 -655 0
147 198 -351 0
542 -679 396 0
390 -449 -815 0
421 -340 155 0
66 158 -408 0
-443 95 -653 0
697 -481 988 0
-78 -956 -324 0
397 756 620 0
644 -450 857 0
-976 129 632 0
935 309 -97 0
910 293 911 0
-355 -198 -952 0
101 -41 -406 0
175 -803 147 0
-391 -449 -534 0
226 -398 -464 0
-687 567 392 0
521 614 775 0
-122 -605 -579 0
589 -962 162 0
-904 -485 -654 0
-447 -239 -943 0
171 217 426 0
782 -305 476 0
-997 -736 -235 0
-42 -921 -127 0
-977 772 -364 0
57 -400 -384 0
-352 -672 -910 0
737 834 -203 0
-269 -658 693 0
992 -435 -278 0
487 397 491 0
760 156 800 0
189 -518 858 0
-283 930 589 0
-674 -493 -785 0
-144 318 -711 0
-450 931 697 0
-189 809 -751 0
-868 -938 195 0
481 -942 -587 0
-981 -774 -598 0
384 943 -791 0
-944 -459 -723 0
-551 873 -1 0
-886 25 -798 0
978 128 633 0
569 -669 -978 0
927 -579 316 0
-367 603 -823 0
128 -463 486 0
535 -755 -52 0
-245 952 -663 0
554 81 383 0
-146 -253 981 0
-624 535 -501 0
742 -924 -38 0
40 -231 897 0
244 67 -199 0
-145 485 -76 0
-615 897 840 0
-824 287 614 0
-184 -80 718 0
-568 -648 -706 0
-362 661 84 0
577 -198 -653 0
216 900 432 0
-461 -679 -413 0
-703 182 874 0
709 864 -348 0
884 -318 341 0
712 -855 -47 0
-18 -971 946 0
-920 -215 204 0
131 -211 -175 0
-392 -92 824 0
-950 133 -774 0
-146 799 -559 0
115 89 921 0
-506 422 340 0
-370 -405 556 0
763 -482 465 0
268 -949 344 0
784 921 310 0
-83 208 -739 0
-660 -279 958 0
56 -982 98 0
-709 -366 -474 0
267 979 925 0
447 -487 -975 0
-909 -801 -104 0
500 746 324 0
-251 -242 -673 0
-641 -986 437 0
930 508 -567 0
-846 -239 -964 0
-456 -155 783 0
708 -537 549 0
-679 102 138 0
-728 934 947 0
39 741 -158 0
398 -963 -510 0
178 -924 -430 0
962 -493 414 0
461 -893 640 0
-820 -337 -698 0
-65 -565 353 0
-520 464 320 0
-893 -56 -78 0
601 -530 -27 0
-193 -397 273 0
68 -402 662 0
-435 -834 876 0
832 -595 -224 0
-686 -800 -342 0
-67 405 920 0
886 -869 661 0
337 -752 -821 0
-9 149 -452 0
924 -964 -22 0
-418 725 -123 0
73 725 -662 0
-646 -826 979 0
144 -76 457 0
261 -764 997 0
236 -483 -667 0
-201 118 -147 0
-617 -255 -758 0
-611 790 352 0
-752 982 738 0
-194 564 -907 0
261 344 -720 0
739 -80 147 0
835 -396 -378 0
-264 -561 724 0
-444 582 -772 0
-206 662 -520 0
-879 978 -939 0
-850 -364 273 0
986 630 -275 0
122 452 542 0
-79 -385 -654 0
972 586 166 0
-918 710 209 0
957 147 -309 0
-584 911 -211 0
624 -229 -801 0
945 -334 -741 0
-947 -368 685 0
223 -414 -862 0
-481 138 -235 0
-269 -414 -980 0
875 97 722 0
-490 191 -679 0
54 434 -419 0
-674 -613 -793 0
-19 -971 -492 0
-702 524 -10 0
-148 98 352 0
734 757 320 0
-866 -607 83 0
951 978 -153 0
-814 -236 -459 0
60 -565 -688 0
30 879 189 0
462 -717 322 0
920 858 904 0
913 -944 -75 0
303 195 -475 0
-28 -188 857 0
181 629 -187 0
-867 -290 628 0
-898 881 485 0
-913 -548 670 0
433 -488 -347 0
-31 -742 -993 0
-622 139 209 0
-696 374 -799 0
-320 -533 -205 0
932 -464 297 0
423 221 -19 0
-915 64 260 0
-205 -332 153 0
-965 -710 -518 0
-545 -868 -125 0
-376 -70 -928 0
-191 251 42 0
79 16 -639 0
643 823 276 0
542 498 -832 0
-466 607 89 0
-313 413 507 0
-874 -804 -596 0
582 -426 -865 0
475 -388 285 0
773 919 -251 0
227 917 -405 0
-237 -384 671 0
-656 270 -450 0
149 8 653 0
-843 -748 -797 0
-879 699 -423 0
322 -910 -972 0
161 164 -244 0
463 -899 661 0
-313 840 -517 0
920 -489 190 0
957 987 -448 0
-544 -257 821 0
-188 -256 -693 0
-22 -448 -202 0
-235 685 -29 0
-154 -246 -971 0
984 -520 -179 0
-595 -221 -288 0
-253 -443 169 0
583 208 840 0
687 672 -882 0
-277 766 -774 0
-896 201 -157 0
959 -829 -985 0
912 118 875 0
683 -706 67 0
-332 47 -497 0
-178 -849 177 0
-35 -652 103 0
-161 -793 988 0
-497 -693 623 0
200 135 -266 0
-140 -545 789 0
340 118 276 0
746 220 -350 0
669 995 -944 0
869 -187 -491 0
478 330 -874 0
-864 -469 710 0
-832 -889 -1 0
948 576 943 0
402 413 911 0
-65 -246 372 0
162 -157 838 0
-481 40 243 0
-115 -253 -464 0
-905 -514 -253 0
179 165 -824 0
117 -717 486 0
715 247 -679 0
-476 373 473 0
629 -336 -853 0
-396 -708 532 0
-995 407 800 0
-214 -428 119 0
-558 163 -452 0
-159 -257 -581 0
425 283 -370 0
481 -929 220 0
-852 -844 -714 0
-315 -396 -193 0
718 4 291 0
385 339 642 0
930 -719 -375 0
-697 678 -129 0
174 554 65 0
403 -855 448 0
773 4 -871 0
-461 -139 123 0
-591 355 -539 0
-963 409 -875 0
291 -130 -728 0
-31 444 -900 0
126 -723 -157 0
335 -778 936 0
-437 -357 822 0
-534 452 -287 0
487 618 818 0
796 451 457 0
302 -865 704 0
-282 -20 55 0
-723 -584 -341 0
477 -175 736 0
254 1000 687 0
-883 316 -578 0
679 801 642 0
-697 -825 -131 0
-264 814 -324 0
399 -961 -237 0
-536 -324 -457 0
145 -557 614 0
894 376 243 0
614 -307 -110 0
-96 -281 324 0
-917 613 531 0
-228 -719 -397 0
-30 -642 596 0
616 499 972 0
658 625 -436 0
-173 -290 109 0
494 2 69 0
-369 605 -997 0
-59 555 230 0
-123 911 106 0
131 296 -59 0
-454 -354 -193 0
772 916 346 0
-588 -738 519 0
720 -266 787 0
-441 -74 -980 0
898 689 -390 0
-860 50 -113 0
-712 414 705 0
-500 1 825 0
-916 489 -865 0
144 173 622 0
75 -371 15 0
657 -203 317 0
-807 -522 -840 0
-352 -411 -247 0
-497 376 -709 0
187 -260 -943 0
-165 -492 -646 0
-158 -728 109 0
204 -244 -302 0
-463 -574 965 0
-880 433 867 0
318 944 -334 0
-274 79 -466 0
180 107 969 0
-4 212 945 0
-929 -975 -582 0
476 -109 671 0
-952 441 -996 0
-86 419 439 0
177 603 -142 0
154 626 -64 0
-150 -250 -943 0
-13 663 -948 0
-605 -200 119 0
729 998 208 0
836 324 -916 0
787 -756 -664 0
-722 532 281 0
659 178 412 0
511 -240 514 0
-207 89 30 0
20 -582 585 0
-771 165 -588 0
-144 262 886 0
459 -675 -968 0
133 976 190 0
155 -763 -703 0
468 71 883 0
-483 939 -635 0
749 848 136 0
129 851 316 0
9 856 -328 0
-43 123 -772 0
-574 517 609 0
-101 212 -878 0
-296 710 391 0
-540 -794 -855 0
134 -345 816 0
372 739 256 0
785 804 -974 0
1000 611 646 0
214 -59 477 0
177 120 954 0
-187 -854 318 0
-41 27 -419 0
219 806 212 0
101 486 -642 0
-229 487 -580 0
92 200 -225 0
-868 250 772 0
-271 678 664 0
633 241 -76 0
985 902 354 0
-433 915 388 0
-664 362 -194 0
693 -599 495 0
400 -127 -860 0
91 722 -987 0
-8 -23 190 0
-665 -633 806 0
-797 686 618 0
-677 -782 -699 0
-791 -449 34 0
-220 284 199 0
700 -185 564 0
146 559 383 0
-723 965 -225 0
-556 -768 -174 0
690 120 -389 0
-710 -805 96 0
798 -538 388 0
-389 -468 443 0
522 43 -267 0
-843 763 921 0
-556 -923 798 0
452 68 448 0
795 -694 78 0
372 243 -15 0
-379 -300 81 0
-997 -529 684 0
-671 -174 -381 0
-315 794 469 0
-880 -194 -392 0
56 759 -267 0
597 659 103 0
393 777 -581 0
-34 -379 860 0
-127 -352 -238 0
105 429 -12 0
-87 677 465 0
-280 -200 -544 0
515 679 -894 0
-926 312 -753 0
-459 -235 -261 0
-772 -755 723 0
-124 549 -300 0
350 -17 -404 0
780 -662 -700 0
-746 17 59 0
376 -687 237 0
551 -381 -417 0
974 69 941 0
856 398 -515 0
-709 755 -652 0
665 -565 -891 0
562 942 699 0
-636 -11 -248 0
796 -990 -146 0
129 -95 -480 0
532 409 311 0
-596 84 48 0
-955 -385 -919 0
-820 -630 933 0
989 -953 618 0
815 -657 951 0
314 714 -895 0
153 99 103 0
318 -449 744 0
608 -805 -161 0
-918 903 855 0
-404 286 -662 0
-56 -649 355 0
-992 -356 976 0
821 -128 -834 0
-834 -603 -546 0
-135 507 -740 0
-335 -816 -636 0
-279 -62 -668 0
-774 190 816 0
-27 -172 560 0
-823 663 967 0
-836 -21 194 0
-27 431 151 0
538 -771 -586 0
-549 -104 452 0
-475 283 460 0
-145 -830 -131 0
-856 -788 765 0
-812 380 -928 0
-269 -295 810 0
-128 -673 450 0
327 145 -368 0
-402 -89 715 0
412 772 -137 0
-178 309 -477 0
227 170 531 0
601 546 214 0
861 -752 -463 0
-564 -657 -262 0
453 -102 -184 0
-22 418 -617 0
-997 -918 -634 0
588 -566 817 0
-338 -924 322 0
-403 -249 411 0
760 87 645 0
-229 -975 -831 0
902 -88 893 0
629 169 -328 0
-947 831 -211 0
-293 -227 715 0
-920 -15 -789 0
209 -549 -516 0
578 -490 -92 0
293 -666 -230 0
24 1000 230 0
215 31 -587 0
-896 62 -745 0
470 733 -396 0
309 -689 -520 0
468 941 382 0
-852 776 279 0
-22 -274 635 0
-40 317 824 0
-222 -973 -342 0
689 -586 -150 0
-181 782 614 0
-798 185 -154 0
-792 152 -778 0
-32 684 68 0
-209 653 151 0
-857 -188 797 0
-829 414 535 0
-319 -550 -660 0
225 -888 -990 0
415 779 -315 0
-313 586 -417 0
298 138 228 0
-328 198 -35 0
623 -972 -142 0
-779 76 -411 0
35 872 719 0
-958 438 22 0
-114 375 -966 0
875 277 685 0
-267 -134 736 0
432 -235 -1 0
102 -922 -367 0
-491 -343 -495 0
-739 541 -114 0
-966 -857 662 0
611 150 981 0
624 149 873 0
874 980 938 0
-287 -529 -213 0
170 711 275 0
539 -781 597 0
610 13 344 0
-537 -789 -5 0
911 290 -352 0
228 673 824 0
-424 -544 -566 0
-161 454 55 0
-483 719 -544 0
230 883 71 0
976 -426 412 0
-602 816 359 0
828 -758 729 0
-613 -393 213 0
693 -200 949 0
625 969 -701 0
-501 -205 -197 0
-694 -963 -579 0
-627 246 195 0
-78 298 -480 0
-227 -494 -678 0
513 -642 34 0
941 -606 630 0
889 323 589 0
51 -966 711 0
443 210 -619 0
-569 -962 958 0
-110 -489 864 0
887 338 6 0
-823 393 -702 0
-54 200 770 0
168 -155 262 0
-46 -786 -723 0
206 -256 -651 0
897 789 -708 0
-471 242 185 0
45 -981 -513 0
-916 19 -809 0
-756 -249 -48 0
-580 -203 484 0
-49 -752 846 0
-986 784 951 0
-203 875 -518 0
428 -168 477 0
423 729 400 0
-893 868 845 0
-708 -666 809 0
417 249 -742 0
344 746 383 0
485 -76 -347 0
-991 -148 681 0
415 -298 666 0
65 -797 404 0
-234 -425 -606 0
104 -312 611 0
34 944 -807 0
895 218 652 0
-940 -345 220 0
800 917 -658 0
305 -333 -6 0
128 -607 660 0
180 412 -122 0
145 606 -595 0
-35 -196 -110 0
770 -371 404 0
709 -484 862 0
929 748 -897 0
536 -998 -708 0
-552 622 312 0
995 -747 -678 0
-175 389 -285 0
389 796 -626 0
-305 614 -721 0
497 266 -510 0
-834 -195 -852 0
290 -842 -36 0
89 -781 -412 0
-103 -218 -836 0
379 -422 -959 0
-111 529 -102 0
132 944 -507 0
406 832 958 0
344 47 908 0
-66 648 -239 0
360 -262 -106 0
-453 -481 682 0
-699 839 78 0
535 602 -235 0
172 583 479 0
-988 414 -216 0
-245 139 419 0
287 477 -577 0
-843 -597 848 0
20 -480 -893 0
-520 -257 -888 0
-577 495 845 0
46 -814 -297 0
-836 828 -873 0
-788 -453 -261 0
587 -786 263 0
-44 -125 297 0
666 863 347 0
149 -649 -668 0
282 -746 919 0
-407 -825 -147 0
524 651 754 0
580 -605 300 0
128 -719 689 0
-426 -338 621 0
-803 624 -622 0
892 670 -571 0
428 722 226 0
-236 208 784 0
857 -804 -424 0
-466 976 -528 0
817 635 -521 0
851 -633 -806 0
-234 -257 289 0
655 -371 -612 0
-347 -640 -99 0
-710 -884 -378 0
-495 -610 922 0
-731 13 623 0
873 639 -16 0
-485 -556 -243 0
-105 848 704 0
-311 72 -118 0
-373 489 -565 0
285 139 386 0
567 -364 91 0
-818 37 863 0
-579 133 953 0
-89 533 -354 0
-542 -214 -65 0
-612 -47 -131 0
946 -649 -254 0
905 -81 -143 0
245 -300 994 0
-195 -942 96 0
176 -87 612 0
634 366 -872 0
2 -167 -261 0
296 -694 -256 0
-188 -970 465 0
-170 -641 -963 0
-933 -110 -562 0
-570 -640 291 0
32 -750 -811 0
-382 311 -447 0
-295 424 -938 0
444 389 677 0
913 140 -865 0
-128 701 -136 0
-417 -150 -962 0
-151 -265 370 0
235 88 118 0
-378 -478 311 0
703 -364 963 0
-627 425 443 0
86 -318 366 0
-954 204 -114 0
-342 942 -347 0
24 -741 -722 0
-424 578 752 0
-297 518 939 0
-491 672 216 0
-187 -55 789 0
-671 615 -791 0
-758 857 -367 0
-813 -687 -869 0
-167 -891 849 0
-254 827 917 0
794 715 625 0
922 -273 612 0
-552 970 714 0
205 921 -775 0
-452 -614 -189 0
-655 375 390 0
-32 -765 242 0
-781 354 449 0
402 756 -362 0
-215 -756 -563 0
-356 634 345 0
378 -715 -24 0
-561 -474 987 0
205 862 -101 0
660 -459 -316 0
821 452 -125 0
335 312 -191 0
-2 638 799 0
-531 655 -964 0
967 737 622 0
44 821 183 0
-692 137 713 0
162 564 230 0
657 -327 306 0
566 -538 -330 0
192 748 -367 0
908 -795 -707 0
-658 27 -383 0
294 997 165 0
587 43 -285 0
-579 105 -620 0
650 -143 511 0
-560 848 191 0
-651 415 477 0
717 -954 -284 0
-699 -632 280 0
-98 -496 302 0
667 -362 -149 0
-356 913 -91 0
313 233 -188 0
-868 167 -166 0
-78 -583 157 0
-776 -182 795 0
-778 431 -149 0
503 -559 991 0
292 -332 833 0
240 -689 471 0
333 534 968 0
487 -726 -853 0
-367 -195 -446 0
757 665 -487 0
-209 989 -825 0
-867 3 -112 0
843 572 859 0
-116 -906 -83 0
-896 583 -477 0
434 924 567 0
985 936 271 0
760 -940 863 0
-932 168 209 0
-163 677 -165 0
-945 -966 294 0
-405 -418 866 0
948 -224 513 0
844 -436 121 0
870 -630 -653 0
-514 -412 -150 0
-967 227 222 0
-128 33 -519 0
-523 802 868 0
649 8 994 0
-822 -222 513 0
-54 -556 -634 0
987 369 438 0
-495 574 941 0
789 -163 761 0
-971 712 347 0
-296 -390 563 0
-626 17 -407 0
383 745 -507 0
732 -944 -836 0
839 -836 751 0
-845 -40 -401 0
727 -969 -758 0
-590 -263 285 0
-115 -386 944 0
471 279 444 0
544 -439 274 0
-968 191 426 0
-588 785 -654 0
-615 -771 -118 0
-638 -589 -122 0
769 726 -698 0
-991 -7 -936 0
-224 783 -848 0
-33 -466 708 0
963 256 663 0
308 800 -161 0
513 -429 847 0
77 -151 -529 0
-943 -684 967 0
-184 36 14 0
650 -431 -73 0
453 -63 107 0
-918 350 -261 0
745 -557 252 0
678 67 -847 0
352 737 -276 0
814 970 824 0
-76 105 -713 0
-116 -236 -370 0
625 -861 217 0
797 410 -253 0
587 237 311 0
867 676 -433 0
655 -110 -507 0
-757 473 -296 0
851 668 678 0
718 -158 665 0
-324 685 99 0
16 836 -294 0
549 -667 -467 0
-17 -804 -114 0
-228 -343 -63 0
477 -309 -508 0
-808 921 964 0
-888 133 -275 0
-195 -68 146 0
697 -149 -464 0
-221 -101 -943 0
591 625 531 0
131 958 314 0
103 -3 683 0
468 935 -118 0
496 -940 -197 0
-3 674 -881 0
-285 652 429 0
565 31 -163 0
-765 -183 877 0
-872 9 192 0
-393 353 85 0
-521 861 -300 0
-140 -448 902 0
133 833 -456 0
279 892 -335 0
704 532 699 0
736 -420 -543 0
277 -803 -677 0
605 517 -165 0
251 -798 151 0
542 618 636 0
-761 330 622 0
59 -918 139 0
-356 23 170 0
391 -143 -404 0
118 581 -627 0
-842 -6 -279 0
454 729 374 0
30 394 -895 0
887 849 366 0
-989 419 961 0
867 -314 -560 0
-185 174 247 0
428 120 762 0
-231 -430 -762 0
-897 467 853 0
-996 -477 -732 0
-340 -543 -282 0
-818 929 -883 0
-624 -407 145 0
807 724 -8 0
705 -570 -457 0
-566 -994 -490 0
131 -527 631 0
877 614 -637 0
-406 -880 -469 0
469 -993 383 0
435 305 498 0
-228 650 -552 0
-540 913 829 0
200 94 307 0
148 229 -56 0
-934 -226 -178 0
988 630 176 0
959 -879 785 0
-454 556 -47 0
936 605 926 0
-725 -405 -386 0
-229 742 -999 0
-933 -78 927 0
-662 348 -914 0
509 -200 -616 0
797 -149 79 0
322 611 -308 0
443 501 -28 0
272 -545 -752 0
-683 -901 316 0
-35 -754 177 0
-787 673 -324 0
-732 -898 205 0
-938 -358 110 0
-836 958 -311 0
371 891 -288 0
-350 205 420 0
779 -705 338 0
992 -401 -134 0
370 232 872 0
436 851 -192 0
-799 737 763 0
123 493 1 0
-69 -615 -406 0
882 708 -690 0
441 306 -416 0
484 -63 112 0
-301 -848 85 0
536 41 -575 0
666 338 619 0
-730 -37 14 0
19 -749 -463 0
-697 -430 481 0
352 -62 50 0
350 103 902 0
-364 967 -625 0
419 -515 800 0
631 272 898 0
567 608 -185 0
207 -491 904 0
853 -287 -16 0
742 245 542 0
962 -563 622 0
171 -762 -446 0
-22 536 -514 0
-148 -455 523 0
-101 -223 -863 0
279 -218 -230 0
-965 -920 -787 0
504 353 -488 0
-373 854 -955 0
-285 -338 961 0
-81 -545 -16 0
-200 973 -790 0
886 -518 -371 0
659 -768 -652 0
901 -35 -455 0
642 93 -732 0
-573 269 751 0
-547 123 302 0
635 369 207 0
188 -878 -362 0
167 -66 -670 0
21 598 349 0
-903 358 502 0
304 -509 532 0
58 436 -680 0
965 113 -228 0
-529 -489 -783 0
-902 -697 -954 0
231 179 124 0
247 -516 -744 0
944 -379 -655 0
-368 13 402 0
289 -951 -154 0
-47 590 -507 0
436 942 -581 0
-620 -983 -501 0
889 -373 478 0
632 141 963 0
-128 132 -22 0
-191 796 -987 0
962 832 362 0
933 -866 827 0
-494 -909 -85 0
536 -791 257 0
-40 240 769 0
944 350 -775 0
860 -86 -229 0
318 433 141 0
-255 -168 -636 0
-594 285 783 0
-358 -193 13 0
-989 865 -781 0
42 -987 -52 0
-354 -994 478 0
-963 -654 -30 0
808 -799 66 0
-948 -894 -466 0
-19 -533 530 0
221 73 -111 0
478 -675 -734 0
-766 417 477 0
520 -124 760 0
-969 584 665 0
-592 -60 593 0
-816 -773 -302 0
296 -759 -29 0
-121 788 330 0
696 -707 240 0
-233 -96 558 0
806 152 -518 0
-77 67 -800 0
271 856 386 0
811 -245 391 0
693 673 -584 0
-940 -36 -966 0
-904 57 991 0
-972 40 481 0
197 -807 -129 0
-608 194 -1000 0
577 213 438 0
-973 -573 718 0
-951 336 -747 0
669 286 -916 0
-271 -242 -45 0
603 -632 -245 0
-239 -745 -169 0
-545 744 -97 0
-382 372 -588 0
-903 805 843 0
-270 -471 -714 0
501 326 -354 0
-625 607 -799 0
974 -648 -759 0
-18 83 449 0
-482 248 143 0
-202 -453 366 0
-470 -556 -246 0
-838 70 380 0
-223 -967 484 0
469 -746 604 0
-571 -84 -229 0
788 948 350 0
916 -706 204 0
978 400 758 0
-972 -474 924 0
590 -21 369 0
-259 -93 -580 0
-249 880 -844 0
174 731 756 0
-408 428 214 0
-312 -595 -649 0
-301 -123 -209 0
103 -89 369 0
-4 -977 -337 0
544 254 -433 0
641 -927 482 0
-269 -926 923 0
827 848 835 0
-786 166 223 0
-359 941 -363 0
-186 819 -920 0
889 -626 877 0
-400 -351 -578 0
-297 -828 141 0
7 -882 134 0
675 51 800 0
845 -462 -305 0
344 -444 -303 0
-457 -941 84 0
-115 478 -529 0
275 -408 520 0
716 -346 -801 0
26 -486 -38 0
-591 507 534 0
-205 -350 235 0
-381 -750 83 0
164 -170 -2 0
-496 -385 -354 0
-215 -188 -170 0
-241 -875 -919 0
475 -978 773 0
777 903 -9 0
466 422 38 0
851 768 384 0
-111 870 -713 0
-91 -932 821 0
880 -155 -906 0
686 775 349 0
740 -692 -803 0
157 555 -713 0
-739 367 -958 0
2 551 -390 0
968 236 -828 0
-549 -830 -6 0
612 -507 817 0
552 849 -717 0
-662 687 -429 0
-172 973 -926 0
601 -231 -491 0
36 984 896 0
402 837 899 0
730 504 53 0
774 -391 -416 0
-96 -360 -852 0
-806 178 283 0
-655 -600 197 0
-818 -26 316 0
106 178 511 0
-571 795 -485 0
902 838 806 0
405 717 -768 0
862 -590 216 0
-653 -24 -678 0
-935 -529 -158 0
-724 -417 133 0
-885 45 -188 0
-489 -59 -756 0
-747 -358 193 0
243 815 367 0
-876 -853 270 0
-11 115 -19 0
384 824 239 0
666 83 -618 0
369 -300 558 0
-288 -67 -15 0
718 753 350 0
-386 600 372 0
-632 -902 408 0
396 717 -232 0
269 -109 16 0
171 125 912 0
537 -781 -769 0
456 -260 -397 0
-893 -383 984 0
267 670 518 0
572 872 -838 0
670 147 -933 0
488 -475 -57 0
-304 -447 792 0
9 238 -43 0
803 -310 755 0
-512 -141 -656 0
-519 -824 570 0
-946 -58 650 0
775 -701 163 0
-826 -145 -154 0
74 -700 929 0
-867 997 948 0
951 -536 -825 0
552 -973 -889 0
-738 -475 99 0
154 -522 400 0
120 176 -729 0
-179 -770 -414 0
-246 -165 -45 0
-32 -273 776 0
392 -295 174 0
444 356 -797 0
-275 -487 488 0
911 -849 364 0
793 -265 -544 0
-257 -599 -123 0
-652 -810 638 0
738 645 -644 0
-823 687 785 0
-40 -508 -258 0
705 -101 -24 0
49 989 277 0
218 -5 -588 0
670 108 978 0
952 -929 -620 0
-253 234 229 0
-862 -839 823 0
535 -671 -233 0
326 319 540 0
619 671 -404 0
-764 110 266 0
769 -346 542 0
-85 -310 -506 0
839 612 95 0
-628 -829 -423 0
-925 323 234 0
389 472 -920 0
-916 599 -332 0
-832 -663 405 0
449 280 877 0
907 469 -103 0
955 429 -266 0
80 768 144 0
219 450 262 0
719 -851 -578 0
-415 835 681 0
-216 -620 -783 0
-934 -617 797 0
-46 -462 803 0
340 -546 -652 0
842 -708 -313 0
672 -853 492 0
-711 -557 344 0
403 382 -959 0
814 -72 345 0
-669 -705 954 0
412 -273 -108 0
851 627 -911 0
-386 616 -58 0
-833 -710 -474 0
299 28 -371 0
615 -775 237 0
233 738 -342 0
-818 -162 474 0
-941 -262 -561 0
-487 -115 -990 0
687 -253 248 0
-526 455 -235 0
262 10 116 0
-944 269 190 0
408 101 -439 0
-650 515 -376 0
771 172 388 0
-539 204 -294 0
-398 63 830 0
879 -226 24 0
989 396 404 0
-778 -990 478 0
-685 208 -491 0
-157 -675 128 0
500 -75 223 0
-377 -699 423 0
245 371 801 0
-103 220 -495 0
177 801 -86 0
210 237 -952 0
-118 -78 664 0
-6 -391 -746 0
-775 -485 -88 0
-718 328 -815 0
-75 -893 203 0
-923 -149 384 0
-390 429 -605 0
826 318 -332 0
347 491 666 0
-891 -316 -447 0
-990 -501 820 0
-216 294 -20 0
355 -640 -739 0
-17 -900 70 0
332 784 409 0
-364 -604 -483 0
-507 -144 -563 0
-680 851 376 0
501 557 -34 0
-24 852 -135 0
120 100 -800 0
-444 651 -924 0
977 265 368 0
355 -58 -886 0
-544 -316 51 0
-192 222 9 0
487 564 -329 0
933 60 320 0
-215 -778 82 0
-478 338 -936 0
288 -774 -734 0
779 278 312 0
-624 -747 -16 0
-734 679 235 0
629 786 -383 0
123 -95 150 0
-567 691 -277 0
-505 -986 106 0
-528 -506 684 0
691 -481 899 0
-851 821 -578 0
-818 870 -300 0
-718 -480 23 0
-395 556 -14 0
816 712 893 0
-760 614 -226 0
-368 251 -173 0
-722 473 242 0
-862 -340 -571 0
-393 958 51 0
959 764 -60 0
252 265 642 0
97 -826 -625 0
-817 -342 -783 0
745 -280 -694 0
908 997 134 0
10 827 98 0
433 223 553 0
-732 131 -305 0
-814 -904 -246 0
-979 869 104 0
-288 339 750 0
-794 877 255 0
685 -354 79 0
643 146 -320 0
-306 1 678 0
-155 -609 -496 0
-858 -133 -660 0
814 326 -681 0
674 -105 576 0
-916 962 -239 0
-211 -439 -987 0
826 -673 697 0
-847 -198 109 0
-639 -423 -133 0
483 -555 -40 0
453 -897 -66 0
-312 291 439 0
-346 826 -337 0
267 -765 869 0
-675 -507 414 0
-556 793 683 0
-590 126 667 0
451 -109 990 0
-476 -560 -50 0
-619 -396 -661 0
397 -479 612 0
134 -297 -961 0
605 -521 134 0
301 113 -250 0
-853 115 197 0
-700 238 -213 0
236 309 763 0
807 76 238 0
920 815 751 0
-748 723 183 0
-529 -519 705 0
-893 611 -592 0
487 -706 -701 0
108 967 684 0
-439 353 -219 0
-450 206 607 0
648 -250 579 0
892 -155 -588 0
-88 -540 -40 0
987 786 -652 0
831 -329 -264 0
109 23 -721 0
-633 -987 -777 0
890 -154 984 0
-437 408 99 0
474 -900 522 0
-423 320 -612 0
406 -139 -545 0
18 291 -788 0
-712 -413 156 0
-50 858 767 0
-931 782 505 0
-238 -613 -126 0
414 546 -628 0
-738 -16 -448 0
-982 354 -526 0
251 -477 472 0
-956 -759 554 0
-732 325 -861 0
116 301 820 0
-184 -38 -1 0
-381 -479 -303 0
498 -924 750 0
880 566 501 0
137 -69 396 0
-24 -90 -338 0
884 690 607 0
-83 -87 191 0
258 406 351 0
-794 61 656 0
939 888 271 0
-108 923 -39 0
-671 502 -174 0
597 601 413 0
-886 -902 894 0
685 420 611 0
344 -506 -185 0
187 52 134 0
-84 353 737 0
-57 -468 -841 0
-348 -982 -988 0
-816 -312 -213 0
-8 175 -123 0
954 843 -850 0
-843 343 455 0
723 842 -572 0
85 812 803 0
485 -744 -299 0
-313 878 81 0
902 994 -179 0
140 945 -452 0
295 -502 -698 0
817 -51 -5 0
-343 113 832 0
975 758 -454 0
-94 -722 -660 0
936 -846 -261 0
-537 -331 187 0
-320 -344 -599 0
38 -852 269 0
531 631 757 0
-976 -831 -107 0
-307 484 -661 0
-593 -617 626 0
-249 -149 610 0
279 -89 -9 0
-10 -928 -933 0
-596 832 -433 0
-874 -930 973 0
694 994 -332 0
-489 -921 791 0
268 134 -832 0
-31 507 -401 0
-670 -196 -823 0
-741 352 -793 0
-708 832 930 0
797 508 -505 0
261 -54 -451 0
317 -220 -232 0
919 -480 929 0
-57 -884 -968 0
-729 -320 626 0
303 -911 114 0
-431 106 -587 0
180 109 -703 0
260 -507 883 0
852 -193 858 0
-685 519 -220 0
885 258 626 0
-354 793 288 0
281 -635 90 0
-991 -22 -89 0
393 -600 -608 0
-554 -644 994 0
259 776 -117 0
701 -962 -934 0
437 -676 598 0
-866 -304 349 0
-625 15 44 0
657 499 230 0
99 -341 -672 0
432 931 -526 0
802 388 430 0
864 -528 363 0
-808 873 99 0
97 593 945 0
297 -680 -82 0
531 -160 -689 0
-419 -836 204 0
-322 77 -832 0
223 779 388 0
376 -717 -324 0
-691 81 -832 0
-396 -907 -942 0
893 -935 -819 0
-204 -300 -432 0
17 -397 860 0
-129 -960 -892 0
427 -784 -355 0
231 -75 -563 0
583 -253 651 0
930 -335 -641 0
941 -793 -848 0
420 -27 321 0
770 -328 125 0
783 -924 645 0
-868 669 -344 0
160 562 -400 0
-12 -137 197 0
921 497 743 0
210 258 -404 0
930 -155 879 0
232 -257 -205 0
300 -441 240 0
-575 -62 -423 0
-60 208 -680 0
-764 -986 -835 0
-670 -314 493 0
857 -573 -350 0
574 -296 -952 0
225 908 48 0
102 -452 163 0
-245 -592 -252 0
217 -665 338 0
74 -984 -62 0
130 -287 816 0
-896 -452 -456 0
88 997 595 0
213 893 -208 0
940 -739 -427 0
182 203 601 0
-680 496 515 0
-373 -896 -159 0
283 241 161 0
-351 -503 -798 0
-636 -685 -838 0
300 -657 -878 0
355 -498 -231 0
868 -148 -126 0
85 483 635 0
-848 501 645 0
-267 986 -902 0
20 664 121 0
31 843 729 0
911 531 119 0
690 -617 878 0
656 28 -122 0
-825 77 134 0
-351 -726 787 0
682 780 147 0
-431 471 146 0
14 11 -33 0
863 -851 450 0
-482 550 -324 0
941 -899 -563 0
-96 -219 -578 0
-31 -81 741 0
482 442 -558 0
-345 550 -18 0
649 718 165 0
-718 854 -560 0
66 571 279 0
967 -230 269 0
500 -799 -858 0
302 770 -677 0
747 366 688 0
-43 -550 -549 0
-652 169 133 0
-263 654 101 0
881 -236 424 0
-237 552 -440 0
-671 347 -937 0
-783 -891 -108 0
-528 963 103 0
137 -458 784 0
-435 43 -637 0
-685 -969 132 0
-173 -204 500 0
550 -56 -672 0
517 -574 524 0
318 94 -864 0
-815 164 793 0
793 477 275 0
-561 966 -279 0
840 -402 -958 0
28 91 749 0
-124 710 389 0
-630 -724 670 0
-373 -111 469 0
-58 578 772 0
-571 391 -403 0
-881 584 477 0
-392 -572 954 0
254 230 -646 0
-173 -385 -9 0
140 295 344 0
941 -336 911 0
631 -687 -362 0
-607 796 641 0
191 -553 -370 0
821 772 -676 0
144 -169 79 0
-780 -643 -586 0
-471 230 830 0
343 -998 927 0
374 -196 934 0
345 -999 967 0
-234 -350 -788 0
771 617 148 0
370 -186 -5 0
731 -10 -188 0
-502 127 923 0
-236 -423 920 0
846 693 -353 0
308 -416 -917 0
-196 -837 -272 0
-51 -778 948 0
-342 399 723 0
-724 -106 -803 0
564 -654 -958 0
-278 224 5 0
343 20 346 0
319 164 -497 0
-750 -665 990 0
315 397 747 0
216 -632 -492 0
-912 -843 -896 0
102 533 -971 0
688 -341 777 0
370 -350 163 0
435 99 981 0
-104 -78 -30 0
376 -898 374 0
-471 925 -890 0
585 -278 610 0
171 -320 -102 0
45 -981 -246 0
-195 371 -282 0
-805 -799 -463 0
-860 -500 -241 0
-693 44 -932 0
-974 -884 -773 0
750 219 -202 0
582 103 -484 0
705 -990 -984 0
702 548 463 0
393 -471 -158 0
266 224 -839 0
-362 -602 -929 0
517 -365 -85 0
-717 -848 280 0
546 -595 80 0
-28 -351 694 0
-865 486 -99 0
963 579 452 0
172 325 -235 0
391 13 -262 0
740 74 563 0
-810 888 324 0
675 -785 -633 0
-514 611 237 0
-650 501 -147 0
-347 -581 433 0
-341 -981 728 0
-556 649 903 0
-239 466 -452 0
463 -458 963 0
951 -346 449 0
-822 571 -929 0
438 810 -532 0
480 -956 606 0
-911 601 -325 0
394 -407 386 0
-231 -222 -35 0
-404 -581 563 0
39 387 941 0
248 -829 126 0
370 250 331 0
410 -460 -18 0
-607 -91 -808 0
678 -562 -210 0
-605 400 -646 0
976 -969 -804 0
-979 935 155 0
-118 -350 -367 0
-803 995 -587 0
-546 928 18 0
59 412 -543 0
-992 553 548 0
184 754 527 0
648 363 -299 0
532 783 235 0
-48 -835 329 0
-469 315 10 0
-61 -205 288 0
535 -142 -569 0
198 437 790 0
-370 118 -222 0
422 -235 818 0
299 157 906 0
-127 273 983 0
-610 4 607 0
-780 -330 79 0
-503 -116 667 0
-851 -424 90 0
-761 784 -108 0
585 -139 -540 0
-399 700 761 0
-402 -546 336 0
431 512 -770 0
-732 -365 -537 0
-536 797 -484 0
-174 -753 731 0
-170 -383 999 0
-638 -723 -660 0
-155 219 242 0
-804 340 -83 0
454 187 321 0
-227 -114 549 0
307 13 -434 0
376 344 122 0
986 -299 850 0
358 82 501 0
632 -531 941 0
-696 724 -457 0
-68 113 -114 0
167 111 572 0
-108 -142 773 0
-144 -849 549 0
671 980 -618 0
704 582 -774 0
587 -794 -159 0
604 -395 -258 0
-677 765 -351 0
389 54 915 0
-319 -165 248 0
39 -763 -965 0
93 685 234 0
-191 401 570 0
-62 -820 29 0
808 -616 -570 0
-427 -204 -978 0
402 -624 -553 0
87 -714 -369 0
-157 -315 -931 0
468 -447 -79 0
-530 444 977 0
304 935 916 0
410 -249 184 0
-606 -733 -134 0
792 551 184 0
-433 -481 -505 0
65 -274 272 0
-855 562 822 0
-133 324 693 0
851 -918 859 0
-641 648 273 0
945 316 807 0
877 -328 851 0
-817 -718 -426 0
769 72 -859 0
680 420 -247 0
-455 -278 987 0
-904 296 741 0
-47 862 525 0
202 -830 314 0
32 -492 -687 0
800 967 296 0
-705 418 -186 0
-313 -198 763 0
-927 586 372 0
482 -307 36 0
-573 641 -886 0
94 -134 247 0
-477 890 404 0
825 168 14 0
-989 88 -70 0
881 322 -356 0
-346 -290 761 0
391 -942 109 0
757 -617 -870 0
-643 -621 448 0
5 798 33 0
-453 -328 -675 0
-208 -60 540 0
-239 146 -669 0
-627 98 328 0
714 951 -170 0
162 246 -899 0
577 899 -829 0
-166 -807 553 0
-160 -810 -693 0
-763 831 -203 0
-271 653 75 0
561 -661 -314 0
-386 -772 525 0
-618 849 473 0
887 -425 -192 0
-555 674 970 0
310 421 686 0
407 63 -437 0
-832 641 433 0
279 710 -771 0
159 -5 -987 0
-1 -126 -931 0
-319 308 598 0
-75 -976 583 0
548 -937 360 0
-817 133 -329 0
-89 345 -845 0
464 388 -184 0
819 681 220 0
643 -45 -87 0
-987 -514 926 0
785 -792 -876 0
62 838 408 0
-996 -459 614 0
898 -163 65 0
200 800 526 0
190 -239 309 0
-920 -837 592 0
-431 -192 -520 0
371 -865 868 0
576 671 309 0
-758 -710 806 0
8 124 381 0
-480 -102 249 0
388 -424 -415 0
518 -151 263 0
93 -733 840 0
837 -294 761 0
-556 140 188 0
-558 221 126 0
498 845 -489 0
-834 866 -599 0
25 -869 231 0
-33 -782 788 0
62 -757 935 0
744 740 -57 0
576 849 -687 0
867 197 816 0
-406 -478 830 0
586 -996 -260 0
707 179 -735 0
636 -747 794 0
28 883 -218 0
456 -368 -110 0
-583 154 -716 0
-68 -194 836 0
-42 -809 -962 0
-847 420 685 0
-157 -592 -211 0
582 573 -975 0
447 415 -525 0
540 288 -734 0
-712 73 -579 0
-770 51 446 0
154 -29 245 0
266 830 222 0
-974 -41 308 0
-43 -259 -296 0
534 -291 -968 0
637 390 393 0
762 -657 -736 0
-502 -758 -199 0
237 724 794 0
-306 -404 -96 0
836 -40 603 0
-85 -121 105 0
-110 -169 -549 0
378 -226 375 0
511 -452 946 0
22 904 -450 0
79 221 -943 0
518 -348 989 0
961 -259 630 0
-385 -607 -718 0
-84 -223 477 0
989 28 964 0
-998 -968 -377 0
-680 -446 940 0
-400 710 -184 0
565 -178 -387 0
-332 299 -405 0
334 -6 597 0
-193 56 995 0
573 -379 -792 0
782 -960 -304 0
-104 -22 -552 0
-261 -234 -862 0
124 -55 -18 0
263 789 492 0
-65 340 314 0
587 -496 -219 0
-412 -841 -269 0
-948 -124 522 0
120 418 967 0
581 724 -224 0
862 586 657 0
151 -631 -220 0
706 927 909 0
847 -855 -237 0
16 284 557 0
-946 -26 -406 0
-524 -565 743 0
528 538 671 0
-986 452 258 0
388 212 987 0
-768 -742 -6 0
-528 -446 -314 0
-526 278 -240 0
-97 -925 -31 0
-464 642 897 0
-643 436 370 0
175 -949 975 0
849 183 -874 0
944 -90 -704 0
-89 959 -684 0
-988 528 127 0
704 529 227 0
-317 993 -824 0
-55 -548 -490 0
397 781 831 0
-572 354 -648 0
704 -12 -742 0
184 -518 801 0
-313 935 -883 0
-654 205 171 0
498 -958 844 0
630 62 -61 0
-769 473 -702 0
-210 837 194 0
376 -737 -2 0
863 -421 -700 0
235 978 -637 0
-363 -488 -730 0
547 -876 437 0
-944 -867 -832 0
-480 -190 438 0
-857 -877 -749 0
465 -38 757 0
139 -263 643 0
442 551 252 0
-327 -188 -668 0
-120 342 -104 0
-405 -984 342 0
-789 -829 -939 0
345 830 -974 0
853 -811 -440 0
559 859 429 0
531 133 -796 0
969 963 255 0
-1 265 -884 0
5 -263 194 0
620 737 254 0
815 -662 914 0
262 -128 575 0
-137 974 168 0
519 -381 767 0
-551 25 -439 0
145 998 648 0
28 831 -682 0
-382 590 -757 0
-577 566 183 0
-779 -445 599 0
-61 207 -295 0
979 641 188 0
-898 770 241 0
-19 -170 709 0
439 338 -776 0
77 -161 6 0
-174 756 589 0
-60 -233 765 0
-583 -601 451 0
-100 -467 187 0
-534 -224 528 0
-200 -405 -509 0
66 85 637 0
909 563 -529 0
-486 -80 -381 0
-253 16 -909 0
-154 735 179 0
-23 -454 -217 0
-261 -163 -322 0
-441 -224 -941 0
-2 -300 79 0
-216 972 206 0
-341 -474 -53 0
-486 696 -432 0
-163 294 -19 0
721 848 101 0
-665 489 -217 0
805 2 205 0
-602 349 -469 0
892 -611 709 0
-550 -611 163 0
-897 -112 -744 0
160 947 684 0
973 -86 -204 0
-374 -508 515 0
412 691 543 0
418 -364 -621 0
-800 519 815 0
-928 -504 115 0
-881 765 231 0
-506 120 708 0
913 -39 516 0
478 518 679 0
773 -924 -8 0
-299 257 -512 0
292 761 93 0
-613 -110 -870 0
631 427 858 0
394 822 631 0
-429 95 -832 0
-146 932 721 0
396 643 -899 0
-219 332 374 0
930 876 75 0
79 -503 517 0
942 -189 533 0
-585 -711 -956 0
-125 -584 477 0
102 38 -164 0
-988 418 572 0
241 580 -457 0
-488 428 199 0
520 -783 -452 0
-293 574 -112 0
-372 -146 -157 0
191 528 -173 0
136 531 -336 0
-568 -874 -666 0
-52 231 -596 0
-998 -30 850 0
-464 -657 -88 0
777 780 810 0
856 -140 75 0
156 287 726 0
-229 35 -239 0
-895 -748 -265 0
14 -613 -469 0
226 142 -111 0
-206 -531 939 0
317 -552 535 0
372 792 282 0
-988 564 -256 0
-896 -19 -709 0
-235 -403 -49 0
-645 -465 311 0
570 593 -537 0
-747 -802 340 0
383 598 815 0
-856 -390 -70 0
717 -982 326 0
672 593 817 0
854 217 563 0
370 510 -807 0
425 335 -40 0
-261 50 293 0
-131 -144 557 0
-759 -794 -651 0
-470 662 -260 0
454 -619 -911 0
-992 -994 957 0
842 -770 -293 0
-222 -927 -1000 0
-904 -79 699 0
-875 854 182 0
-221 261 530 0
-671 -470 -214 0
25 285 806 0
970 884 -176 0
-528 110 32 0
804 979 818 0
-137 174 421 0
-343 -664 411 0
513 -139 653 0
-656 333 -205 0
-476 -254 313 0
-578 -96 -924 0
-2 946 399 0
-566 202 -366 0
-306 -897 -270 0
-497 -793 -854 0
-902 -114 -464 0
-448 508 156 0
251 794 -283 0
-506 771 -267 0
-373 -288 995 0
-173 296 -935 0
616 -637 87 0
733 253 -61 0
-342 229 608 0
32 -55 -488 0
-209 198 437 0
-952 601 -858 0
983 -828 934 0
612 -44 -568 0
-189 648 -248 0
-556 378 -177 0
894 -57 226 0
414 -377 927 0
-762 -959 306 0
457 -542 -295 0
-318 548 946 0
176 737 -764 0
-399 -725 408 0
190 866 593 0
134 646 159 0
-538 -337 551 0
-239 269 297 0
-891 -97 -847 0
851 -608 -42 0
-848 -584 -679 0
-611 939 -642 0
198 335 382 0
87 -496 -251 0
368 515 699 0
-513 299 891 0
-308 873 -640 0
-161 44 -472 0
664 -985 232 0
-8 -57 968 0
-438 283 600 0
782 -828 -579 0
267 6 -402 0
-955 -916 497 0
661 -703 -722 0
-264 50 911 0
785 -776 797 0
3 692 -65 0
690 538 -466 0
-656 -467 930 0
324 -672 809 0
963 567 87 0
-547 -854 -617 0
71 -947 521 0
-310 -278 287 0
-317 -890 928 0
272 -892 -293 0
-605 384 891 0
-676 629 445 0
618 448 -233 0
-532 -623 776 0
-378 -862 -416 0
-379 691 -399 0
-913 -969 -180 0
-804 -192 -721 0
359 132 354 0
-385 -469 -796 0
-956 153 661 0
-962 364 799 0
144 70 898 0
-147 -113 595 0
489 541 -372 0
912 887 -675 0
-623 -400 423 0
-662 -287 825 0
125 -219 -668 0
177 -825 950 0
-502 687 -623 0
-44 -481 -34 0
-105 -82 123 0
891 -618 -851 0
255 185 -871 0
163 539 701 0
-610 -423 -845 0
-786 655 -799 0
240 376 -666 0
899 -377 -323 0
-780 455 -253 0
862 -160 761 0
592 -756 204 0
759 -159 188 0
428 69 -369 0
-384 407 -73 0
-502 -678 -360 0
645 559 -527 0
-546 -293 498 0
595 -326 -343 0
511 16 971 0
433 -193 269 0
112 -166 955 0
-445 15 -671 0
207 516 -106 0
-792 -694 307 0
947 -815 -281 0
386 -235 181 0
533 447 -32 0
-720 -2 -306 0
-696 -684 -541 0
-311 -619 77 0
458 884 987 0
37 462 -643 0
-805 -21 -757 0
-554 751 -505 0
797 632 -734 0
609 -603 485 0
-240 920 -735 0
801 325 905 0
105 404 449 0
132 -341 187 0
-820 -246 -795 0
153 703 2 0
49 -296 -414 0
-704 415 581 0
-695 -285 -777 0
-106 17 -122 0
-318 -290 228 0
165 -349 921 0
369 -558 300 0
-89 -434 755 0
412 -80 882 0
-996 -868 741 0
-782 -361 529 0
285 565 88 0
-661 53 -716 0
760 798 143 0
972 -278 88 0
-979 314 943 0
188 -291 -866 0
-407 47 526 0
-782 -419 687 0
23 -682 961 0
-118 336 -157 0
966 811 221 0
499 793 302 0
-467 -149 885 0
-84 199 634 0
-685 13 497 0
-55 988 329 0
-55 -858 330 0
542 992 -655 0
-399 -541 -404 0
621 -940 -363 0
711 -349 146 0
-718 -257 110 0
-593 1 426 0
-533 -581 971 0
645 -933 658 0
495 215 -318 0
495 742 -36 0
337 -611 -977 0
-401 236 -547 0
-449 478 -755 0
851 411 -141 0
731 186 672 0
4 671 -452 0
911 509 713 0
150 24 512 0
-68 -439 -672 0
768 553 892 0
832 -957 605 0
129 612 607 0
-814 -537 732 0
-328 -842 -619 0
898 612 245 0
97 -616 -74 0
380 787 759 0
-387 617 -525 0
-734 -533 -324 0
227 -643 631 0
-879 -96 -63 0
-41 978 856 0
-23 240 -239 0
-390 247 -90 0
448 824 45 0
-923 -235 -606 0
195 592 890 0
772 180 310 0
153 479 -114 0
-543 -191 -634 0
-350 927 947 0
-301 445 -523 0
-188 674 141 0
130 496 -931 0
-353 -868 475 0
146 -293 65 0
-802 -874 583 0
696 -155 522 0
-431 404 -452 0
-257 -320 -882 0
433 394 -325 0
-882 211 -930 0
-671 -104 -216 0
490 -134 -211 0
-508 337 -695 0
620 -148 821 0
412 -838 77 0
988 639 -980 0
-82 147 -838 0
429 619 -262 0
846 -572 -102 0
298 386 931 0
120 347 -522 0
706 991 244 0
476 174 108 0
-515 -438 406 0
-190 -893 266 0
888 -733 983 0
52 712 416 0
-814 -794 920 0
-256 905 -620 0
760 734 663 0
-830 1 -1000 0
609 751 -287 0
773 -818 -103 0
764 47 463 0
523 -623 91 0
707 898 -587 0
-145 747 -465 0
173 -307 793 0
825 723 792 0
66 -467 734 0
991 -995 -745 0
751 -616 -138 0
854 -840 59 0
647 158 -88 0
-196 881 -518 0
126 92 -809 0
-985 896 444 0
-516 650 749 0
596 622 -813 0
418 624 -692 0
318 931 -126 0
-91 869 -433 0
775 136 634 0
11 599 679 0
523 -950 684 0
240 160 923 0
362 286 -509 0
-75 675 -273 0
-418 97 -313 0
635 -629 -275 0
504 -643 866 0
-571 943 513 0
559 593 643 0
274 408 770 0
-348 56 -934 0
-35 -662 -384 0
656 -951 -431 0
458 858 -12 0
739 285 -898 0
-709 -147 -234 0
437 847 771 0
-630 916 -600 0
524 352 894 0
-902 -982 -500 0
861 -168 -869 0
-438 -497 696 0
774 -192 -257 0
-114 157 -530 0
458 13 -96 0
-345 488 873 0
-958 -121 596 0
-588 -933 41 0
853 -993 203 0
-983 963 385 0
-716 159 45 0
-707 529 -394 0
-176 -829 -284 0
-68 -553 119 0
781 822 -987 0
819 -423 123 0
-545 815 -523 0
-988 455 -152 0
150 -358 -967 0
-589 -658 994 0
-54 725 -822 0
374 922 812 0
776 610 599 0
-655 -700 702 0
-500 -941 464 0
193 -623 668 0
-521 348 581 0
-651 715 -419 0
834 -521 464 0
178 -232 306 0
30 -734 -205 0
621 -138 751 0
-4 333 -255 0
959 -879 386 0
-63 103 923 0
324 -977 -429 0
195 657 959 0
446 -506 932 0
-91 -995 -731 0
851 -408 -67 0
467 421 -949 0
349 -46 684 0
534 -711 -507 0
780 417 -813 0
-477 -101 116 0
362 303 40 0
793 726 687 0
661 -252 -987 0
228 847 -137 0
732 705 449 0
-250 -793 -844 0
-703 18 -294 0
263 48 -116 0
717 -621 -830 0
375 -667 -110 0
914 711 888 0
546 -492 718 0
212 515 159 0
-481 404 471 0
139 162 -100 0
-486 839 -575 0
20 -364 433 0
41 967 635 0
-66 23 301 0
-62 450 68 0
-922 -268 -850 0
-735 18 -202 0
41 -368 -225 0
-960 -927 486 0
-370 584 -347 0
-846 -528 781 0
455 89 -336 0
872 -966 -855 0
-647 -549 297 0
896 949 -913 0
-497 -352 -741 0
389 -895 -978 0
642 -326 397 0
-823 33 -299 0
-34 -939 -981 0
-891 -219 -696 0
-716 -975 -73 0
530 -845 810 0
-258 -694 -937 0
600 -189 881 0
-940 -261 -774 0
-333 147 -286 0
-409 -690 202 0
991 -858 778 0
788 710 -153 0
-160 -630 -611 0
680 228 760 0
346 439 -510 0
348 747 -265 0
984 321 -503 0
870 -647 -427 0
195 568 -392 0
808 -720 628 0
-902 -671 -182 0
-314 175 -751 0
648 653 383 0
678 -455 -223 0
-312 182 651 0
-766 -279 719 0
732 -75 -73 0
-717 -979 -931 0
57 -640 536 0
907 -740 -481 0
435 -902 664 0
-513 267 997 0
319 176 274 0
879 841 -81 0
421 784 -516 0
-477 -144 965 0
-571 727 -238 0
-646 160 72 0
962 -841 -430 0
532 13 333 0
-705 764 -331 0
632 -342 -147 0
140 735 256 0
-512 -987 -825 0
-705 -193 -733 0
-385 858 215 0
-294 -435 -183 0
672 -553 -360 0
-13 -203 -462 0
225 -20 -156 0
848 -6 -333 0
-737 481 -12 0
-158 864 462 0
-695 -929 705 0
-978 387 -323 0
-178 -951 403 0
115 -618 726 0
-687 1 956 0
283 -831 380 0
669 -532 -881 0
228 307 -365 0
437 123 781 0
850 -511 -533 0
-36 -192 224 0
389 736 10 0
37 -953 289 0
48 547 -861 0
280 704 -817 0
-713 -731 722 0
47 629 -226 0
224 154 -900 0
433 -446 867 0
169 285 469 0
-851 412 835 0
-737 -788 -857 0
-408 564 -229 0
-550 815 592 0
-130 352 117 0
-791 880 -551 0
-250 982 -173 0
944 712 -106 0
564 233 -982 0
-261 -743 164 0
981 -757 779 0
255 869 -193 0
960 -433 588 0
-28 127 532 0
-653 -920 -409 0
-476 621 108 0
511 -4 -406 0
736 836 -710 0
891 -839 -396 0
206 660 725 0
-667 -593 143 0
-157 -251 -261 0
342 -388 861 0
-824 -97 239 0
640 497 835 0
-668 180 -58 0
-614 -547 -357 0
341 251 890 0
-256 -396 735 0
-200 -7 -365 0
-195 229 -833 0
665 465 383 0
-471 13 -936 0
133 406 358 0
-784 891 -5 0
-552 169 -636 0
-748 -557 311 0
-280 -162 -873 0
-864 856 648 0
603 -731 -67 0
312 -763 -647 0
-833 -747 -36 0
-116 -380 318 0
-777 -430 302 0
-652 34 657 0
573 965 144 0
760 411 333 0
206 -371 -680 0
822 733 -816 0
813 -771 -318 0
576 -193 854 0
-544 -67 526 0
589 391 -967 0
787 681 -811 0
-196 116 -221 0
-533 -383 378 0
272 -796 229 0
-656 -338 600 0
944 -299 657 0
-986 -881 -313 0
-573 -787 652 0
-546 569 -740 0
-364 323 -351 0
411 -404 -704 0
-348 -645 -927 0
629 -721 60 0
830 867 894 0
903 -788 685 0
-749 238 -527 0
-133 -113 103 0
56 851 823 0
840 -624 -504 0
-587 -852 898 0
440 -724 124 0
-742 564 -978 0
392 -798 203 0
-101 219 -791 0
200 -328 -506 0
613 317 -855 0
-345 892 177 0
-924 -468 -833 0
778 -925 -734 0
-902 534 60 0
-908 -96 591 0
-751 -250 -708 0
73 985 -685 0
280 416 184 0
56 -457 585 0
120 620 898 0
-631 214 778 0
910 -937 -325 0
978 225 464 0
-522 -588 840 0
-594 574 -356 0
-116 882 -227 0
-798 727 -610 0
-320 -372 615 0
573 601 -627 0
282 618 -673 0
104 863 211 0
163 550 -358 0
-374 -572 715 0
-800 43 159 0
324 -513 104 0
-874 -977 679 0
575 231 -504 0
-888 -927 994 0
-999 998 -916 0
-982 338 56 0
741 575 -420 0
-453 440 -510 0
347 -781 -417 0
-432 -334 996 0
-662 301 665 0
-315 244 -83 0
-153 620 -105 0
300 235 -440 0
96 122 755 0
-616 -684 628 0
-244 -643 550 0
-596 -159 -860 0
-584 -271 -43 0
-813 -915 532 0
469 -372 -956 0
100 200 841 0
-617 728 1000 0
134 -302 -286 0
-801 -234 529 0
691 210 579 0
203 -163 727 0
-600 40 -375 0
-903 -919 833 0
-286 502 668 0
343 -954 -660 0
371 -521 160 0
282 267 83 0
435 143 494 0
-341 999 -733 0
-73 -523 -375 0
-601 560 -286 0
303 -872 -546 0
-385 -490 482 0
-123 -994 927 0
-205 -238 80 0
603 812 -670 0
559 -321 -494 0
649 832 486 0
-426 428 -539 0
-696 -607 -82 0
947 -10 -894 0
261 979 292 0
-648 -94 615 0
-472 -815 526 0
-966 246 -627 0
-811 -583 -713 0
287 -738 -824 0
846 6 -463 0
62 166 719 0
316 974 -385 0
372 307 -366 0
-52 770 -592 0
-24 238 -597 0
-696 -211 33 0
-603 309 -622 0
335 -158 -362 0
-497 921 -550 0
-327 -281 -245 0
678 435 912 0
-629 709 -501 0
776 287 -687 0
843 -517 -306 0
-111 914 946 0
-28 880 -422 0
121 -560 -717 0
567 -331 367 0
96 -343 511 0
39 470 -936 0
-826 65 -894 0
344 -314 22 0
-972 -945 -433 0
-581 101 -303 0
42 -385 -838 0
577 -165 -628 0
22 -839 257 0
990 -598 419 0
212 597 60 0
794 -567 -31 0
842 -778 974 0
402 -309 -967 0
910 69 -457 0
936 -204 422 0
101 -937 223 0
-97 308 -586 0
327 -762 -332 0
-656 -289 -135 0
709 -150 668 0
-172 545 546 0
-208 -608 -529 0
511 807 -898 0
1000 205 273 0
-899 218 -26 0
202 648 983 0
-937 205 -346 0
725 653 -562 0
497 281 248 0
411 -994 852 0
173 -910 -289 0
457 -401 -535 0
-429 -594 652 0
6 539 24 0
-206 -301 724 0
-443 -624 -354 0
-300 -363 -394 0
581 174 -923 0
-262 -256 -579 0
451 332 -401 0
65 567 -193 0
501 -965 -90 0
924 366 -772 0
-821 -455 490 0
666 404 687 0
-11 -868 -572 0
99 -448 133 0
444 76 -882 0
-236 903 -950 0
302 -348 -63 0
-147 315 -545 0
492 -136 673 0
-528 184 -448 0
-650 -413 869 0
123 846 -304 0
-235 308 -702 0
884 -958 929 0
-672 172 -421 0
530 -827 166 0
-659 306 -298 0
965 -525 -528 0
330 474 420 0
-353 253 65 0
264 525 -9 0
526 48 805 0
-679 694 -704 0
94 -691 -921 0
170 -115 221 0
275 -877 292 0
-946 658 -920 0
-767 88 -940 0
450 -8 -502 0
337 -147 24 0
869 573 -60 0
-560 317 -345 0
402 925 -371 0
351 263 -384 0
269 977 -516 0
-234 775 345 0
916 700 73 0
625 964 -584 0
-245 981 259 0
-827 30 562 0
193 396 180 0
-105 -213 898 0
-755 418 -568 0
99 -221 677 0
681 -991 359 0
838 -46 366 0
85 339 -882 0
-228 132 -168 0
244 -154 675 0
-705 -551 981 0
166 -850 -796 0
668 -864 438 0
-703 -116 -628 0
-421 163 -65 0
-794 147 372 0
-102 -483 -925 0
-412 -928 491 0
287 -257 -620 0
-775 610 -497 0
-836 -148 900 0
783 92 -40 0
213 -644 292 0
-188 -115 -373 0
890 -255 48 0
959 -935 882 0
138 196 821 0
-598 150 469 0
897 -912 -329 0
-945 635 -438 0
34 -539 864 0
-604 972 -779 0
735 -707 64 0
-810 761 906 0
-725 -735 434 0
802 -525 622 0
909 -749 -219 0
272 -318 339 0
-530 -897 -93 0
91 -561 -90 0
-844 708 -261 0
945 285 -417 0
-432 -562 -64 0
296 -10 400 0
971 735 550 0
404 598 -353 0
619 136 -231 0
-738 -521 -497 0
-355 627 612 0
193 396 389 0
860 -525 -922 0
598 -653 643 0
933 203 334 0
-260 62 -677 0
108 959 -311 0
754 -85 598 0
389 107 972 0
140 -226 503 0
-629 800 217 0
841 597 943 0
-339 -206 -42 0
-919 -285 18 0
-293 -772 -310 0
884 267 -670 0
-966 -463 438 0
-260 -72 -640 0
90 440 -21 0
-177 -615 992 0
396 363 -994 0
903 123 32 0
-288 113 -872 0
-488 -955 -868 0
-255 -350 -738 0
-80 608 994 0
727 768 737 0
-682 690 766 0
92 -620 308 0
-916 354 -531 0
386 20 -323 0
-918 586 5 0
-170 -5 -494 0
-630 123 849 0
-63 44 -236 0
-585 256 433 0
-301 -752 -296 0
-236 -575 831 0
329 580 -712 0
-75 -931 776 0
-789 -47 798 0
130 405 844 0
-917 -496 568 0
395 -685 362 0
113 -877 -540 0
939 -56 473 0
-734 163 -555 0
-312 -683 869 0
-967 -12 549 0
-233 157 -240 0
488 -862 -944 0
556 -900 604 0
219 155 979 0
-367 -100 -408 0
908 251 600 0
-567 326 813 0
-531 -821 -512 0
-220 374 -958 0
81 790 778 0
980 184 286 0
-763 442 838 0
-470 -618 517 0
-622 468 -560 0
-739 963 108 0
-696 122 402 0
40 -926 -154 0
-570 711 -484 0
-990 641 244 0
921 -680 398 0
-349 677 -713 0
388 -644 -814 0
-903 757 -794 0
940 228 -916 0
900 -156 -716 0
-393 -603 360 0
-145 205 553 0
-391 -162 987 0
-352 -838 -562 0
711 -304 601 0
-917 -839 292 0
713 319 -420 0
-785 -824 296 0
-601 -24 174 0
391 590 179 0
-547 -152 260 0
746 -619 -378 0
-605 -194 109 0
701 350 284 0
-868 -560 184 0
259 210 603 0
993 -940 775 0
16 719 -473 0
897 487 171 0
882 -159 -419 0
935 574 909 0
-881 496 -882 0
-216 760 512 0
-927 780 -456 0
533 980 869 0
480 -333 -300 0
-440 -465 -116 0
389 951 -855 0
391 117 644 0
-827 395 -344 0
-969 -564 -710 0
160 718 -419 0
-151 992 772 0
-413 -943 833 0
-482 -623 222 0
648 380 478 0
-2 -785 270 0
235 905 348 0
411 -782 432 0
535 633 -496 0
-824 177 31 0
-735 217 593 0
-74 -683 815 0
-953 -1 -723 0
460 188 925 0
-746 -574 -411 0
-130 876 59 0
-390 -892 -694 0
-127 -902 251 0
422 -498 890 0
870 683 -105 0
378 286 -142 0
-187 -25 -238 0
528 -952 -801 0
-268 737 -627 0
-197 -952 134 0
-436 -203 382 0
427 603 784 0
251 -297 334 0
979 39 467 0
317 -23 -888 0
-364 -614 -538 0
-91 243 992 0
-302 -560 691 0
1000 968 -93 0
-513 -581 -489 0
-655 -805 -671 0
333 -644 564 0
-342 515 -534 0
267 184 -909 0
-495 948 876 0
-68 540 -962 0
366 238 129 0
-565 973 -688 0
97 234 -364 0
98 672 562 0
-960 456 -193 0
-674 654 115 0
-598 -978 936 0
-196 735 970 0
222 927 -516 0
-984 475 -1000 0
276 735 -891 0
370 193 -320 0
-997 690 -837 0
493 565 -974 0
-305 -243 -220 0
971 251 598 0
466 -187 530 0
785 961 -557 0
-504 -668 -945 0
-185 516 747 0
495 -204 559 0
-567 -568 -120 0
335 923 -305 0
267 491 399 0
-4 -93 -296 0
-401 485 -153 0
-89 483 669 0
-792 -574 -51 0
-821 -250 -596 0
506 979 894 0
-189 -692 -696 0
-177 214 86 0
439 -866 700 0
832 -729 666 0
122 27 -450 0
476 -785 181 0
628 602 144 0
-526 -112 -814 0
566 719 791 0
-200 508 284 0
-495 87 -144 0
724 220 159 0
-747 -134 583 0
-711 564 828 0
784 597 965 0
-625 681 96 0
15 963 207 0
-393 3 -19 0
-320 -455 -33 0
-517 -891 66 0
503 -20 211 0
-265 -995 973 0
23 -950 30 0
738 -572 -94 0
483 438 591 0
677 -193 -258 0
-539 862 -459 0
94 6 -458 0
-828 624 -320 0
-180 273 682 0
266 -277 65 0
-716 -490 -861 0
-279 -152 -219 0
51 111 -867 0
-376 139 -504 0
-972 -837 -887 0
-850 -219 672 0
-739 710 -35 0
713 314 52 0
-596 -636 912 0
428 68 561 0
828 566 965 0
-134 23 883 0
-807 -900 -594 0
737 940 -265 0
439 -54 -46 0
615 763 13 0
149 -802 -790 0
912 -224 604 0
-31 305 737 0
252 -173 -744 0
-937 74 984 0
-112 616 83 0
-999 -488 297 0
860 -55 -300 0
-564 -526 -612 0
31 -941 -548 0
436 -193 31 0
110 -143 281 0
-963 -4 85 0
-358 600 -983 0
-1000 -260 -127 0
-615 -739 -872 0
-265 -32 -537 0
987 -29 661 0
-334 -52 77 0
911 206 968 0
-793 946 836 0
-797 -216 540 0
-251 -942 -227 0
-526 -262 -345 0
852 -677 547 0
-113 -940 -786 0
-482 -269 -888 0
-834 -652 -123 0
877 297 548 0
363 -664 -783 0
-555 -387 430 0
133 885 -229 0
856 25 658 0
628 427 931 0
780 -166 -294 0
-163 -387 -876 0
384 358 31 0
226 -562 396 0
-863 922 824 0
843 938 934 0
48 832 -33 0
450 486 799 0
-723 48 68 0
-597 386 62 0
469 -365 552 0
-311 -34 -491 0
725 572 -500 0
-895 -740 -121 0
617 -400 -558 0
-619 -235 -477 0
241 -194 -144 0
643 636 -140 0
970 -241 -104 0
530 -339 197 0
407 -620 987 0
-202 897 -620 0
-121 854 622 0
321 429 -943 0
-145 73 -907 0
-106 -374 186 0
-501 428 -661 0
-186 -474 -802 0
676 541 974 0
-525 91 609 0
60 -247 252 0
-181 102 151 0
-834 -828 -714 0
21 187 249 0
483 -48 293 0
-416 468 -32 0
914 -951 749 0
