c Easy-SAT formula for GPU Gaussian elimination testing
c 1000 variables, 2000 clauses
c Designed to be easy to satisfy (fast SAT) but large (slow GE)
p cnf 1000 2000
1 0
2 0
3 0
4 0
5 0
6 0
7 0
8 0
9 0
10 0
-854 -985 -389 -804 647 0
-923 -414 -33 620 0
144 353 106 964 -44 0
678 169 322 901 479 681 0
201 -574 972 -980 107 -75 0
-394 -861 38 -782 -425 -773 0
378 891 -724 -553 0
620 -53 -781 -77 -926 -969 0
-424 -647 -987 342 107 459 0
374 -71 -628 -250 527 -810 0
938 904 431 -670 0
142 -209 103 -578 658 0
-121 -527 -399 -326 0
-219 180 554 -943 964 -75 0
991 754 52 91 961 -164 0
974 251 253 848 -237 720 0
940 361 667 -338 0
-867 -283 -866 117 0
-369 721 -754 795 0
-555 -981 581 933 0
66 -495 -369 -201 -781 9 0
361 -90 589 122 290 215 0
57 -488 407 -793 0
350 -470 -680 251 0
679 117 922 909 -597 0
611 894 400 989 -668 -507 0
-441 124 913 -165 347 -144 0
950 458 -711 820 381 -392 0
229 -199 107 -934 -7 -671 0
536 -537 -276 154 -313 0
652 292 -145 -144 437 0
758 -634 423 886 133 -475 0
520 -855 -904 -107 157 0
202 794 -951 689 934 0
-603 122 532 950 225 0
255 -29 -916 -550 -72 819 0
-817 526 -310 507 -91 393 0
899 -463 -345 -807 618 0
-116 786 979 155 0
-602 -410 -722 -60 0
72 975 -136 -768 0
109 -423 -882 -401 140 0
752 -402 919 -375 702 -351 0
-477 360 -699 -112 0
115 -894 167 -953 0
736 400 -895 -864 70 -71 0
-983 755 765 -639 -15 0
548 577 -661 381 -560 0
-97 -988 931 -521 -715 0
-911 127 -244 760 0
627 -56 -811 942 779 0
775 -723 -577 -601 204 0
-4 -919 -101 590 0
-531 278 85 676 0
-619 -755 -730 523 -829 -549 0
-130 631 -677 63 0
948 -762 -345 -647 549 6 0
-670 -793 -558 -767 -596 0
228 -590 -350 -421 -375 -334 0
899 -872 665 -901 505 0
497 -219 540 -43 -870 0
-470 -469 -918 342 0
-303 -498 -592 -578 0
-785 110 254 -179 -150 -700 0
-611 -681 -963 -987 0
-562 -713 -110 56 0
185 767 897 912 -371 0
-633 -197 -358 -180 0
398 -468 -159 -810 507 397 0
812 476 -995 -205 31 0
483 101 -92 156 0
269 837 -897 226 0
753 -332 256 110 161 605 0
-519 -900 -639 935 -179 0
-265 -460 -288 11 -550 0
460 -483 -594 -572 -720 0
240 554 -316 -633 342 0
765 185 -16 535 947 0
-981 -413 -349 923 809 -185 0
673 -462 761 133 -510 -784 0
-568 863 -688 497 -328 540 0
211 110 -301 318 -355 0
996 576 69 908 -760 -341 0
66 -316 -849 -584 -290 0
-18 -782 -971 260 -445 0
-304 -153 729 639 -871 0
-261 -326 -762 129 -965 0
523 -713 -608 -23 -681 0
-466 -560 -977 211 -779 307 0
-422 -110 -453 -589 869 0
561 -783 327 594 0
-32 703 455 158 -433 0
698 930 268 -715 617 0
549 707 435 -241 -100 857 0
713 -552 -855 873 0
133 777 -107 -502 878 0
258 -295 -255 964 -708 0
651 627 901 -915 0
-185 552 445 64 692 0
547 -27 99 -298 398 0
-689 875 582 666 -563 -524 0
820 -786 751 -340 0
-314 483 274 920 0
149 214 -307 601 0
648 -159 375 851 0
-439 545 359 964 -500 0
-38 -869 -924 -990 0
249 -726 -928 -940 19 -207 0
-703 -566 739 -633 0
-566 39 266 -156 429 393 0
-11 646 331 570 0
970 887 459 396 -387 48 0
379 -582 539 33 -21 -342 0
945 620 -689 -502 -38 0
-973 -778 -71 917 -612 -441 0
-436 638 -959 172 0
418 -523 788 265 -646 0
-715 -319 -436 -704 906 0
-166 920 168 584 -387 -31 0
751 990 -530 -535 118 0
-53 683 748 -772 -56 -923 0
266 538 -760 170 338 0
-751 713 418 -586 685 756 0
-560 365 771 667 0
376 -286 -341 -512 -296 -280 0
436 589 -396 -958 -319 329 0
353 -625 972 -882 23 902 0
-419 596 440 -835 14 0
-1000 156 -628 -303 92 -457 0
-502 349 -809 -677 0
-34 -843 -309 855 0
-938 816 -974 676 670 -715 0
670 811 469 359 -26 543 0
839 413 379 214 -138 0
-670 98 -418 225 516 458 0
-677 -916 713 -177 -624 720 0
-218 778 -904 354 803 978 0
700 -1 -636 189 -916 0
100 -181 -445 122 0
-491 -369 184 -971 0
387 -847 190 561 -81 776 0
-633 805 -666 671 -568 832 0
-659 -826 891 -533 626 0
88 -803 861 -64 0
280 -193 295 737 -468 460 0
134 -735 396 168 -261 0
740 549 547 202 -566 61 0
-817 548 463 527 0
874 -727 232 442 140 -649 0
-95 -237 -805 793 18 -182 0
796 -612 879 -234 260 0
525 722 336 -660 -815 0
-533 760 848 -404 340 0
-45 -852 -127 881 -273 0
885 -926 598 410 -647 -922 0
929 -637 -697 -817 417 0
-485 -169 621 -780 343 965 0
668 -901 -472 786 -810 -614 0
994 44 360 -835 -756 0
-549 716 -377 -284 0
924 174 -17 -447 0
-175 39 -776 -922 -405 0
-284 -766 502 -788 0
-250 -515 94 906 -150 922 0
-439 -378 150 -133 -738 -161 0
485 -201 749 -392 -803 -788 0
-305 408 -507 -832 -165 386 0
-212 668 -343 -657 902 0
-709 -476 770 210 -343 -612 0
162 185 -856 -60 0
-759 -215 14 -360 163 0
234 760 207 713 0
809 -679 -343 -106 -52 773 0
-69 980 -269 230 0
585 -115 558 -751 277 0
92 -875 -471 162 808 0
-265 642 -839 -113 0
-685 -463 -243 10 876 -759 0
367 321 -669 50 0
663 302 122 355 0
-210 669 2 378 0
-297 614 -374 -73 -69 927 0
939 809 -478 -883 3 464 0
355 -688 -574 -777 0
656 219 -154 -540 789 0
383 762 323 -227 0
-178 -115 885 965 357 0
914 -25 -296 61 0
183 -78 184 -405 0
-298 859 -53 -8 282 741 0
-815 403 479 333 350 386 0
-450 -692 -475 -139 0
-708 742 -440 931 -966 0
-433 -161 897 -275 662 0
761 -552 -705 406 -733 0
-452 -512 908 969 -462 362 0
13 -936 -165 249 413 0
-769 633 -378 433 528 -415 0
-195 -707 -175 -138 0
-131 638 608 -248 0
-161 348 -219 -24 -885 0
-683 -453 -537 -154 263 -568 0
206 -351 -173 427 651 0
-577 965 36 594 0
882 691 -272 441 596 395 0
428 297 988 843 0
677 187 -239 -3 940 759 0
12 -99 -350 -210 -58 -370 0
-249 -312 435 -965 -74 240 0
-800 -245 979 -64 -648 -962 0
261 -78 229 -574 -272 -276 0
-305 172 984 91 -397 0
-917 25 -116 268 0
772 -979 613 152 0
846 -677 158 429 892 -738 0
-90 -842 769 -213 0
614 998 567 616 405 -526 0
465 -542 -573 303 -507 0
400 -95 -981 718 92 -724 0
-689 336 677 743 40 0
326 273 817 -971 26 0
-790 -926 265 72 367 -613 0
293 469 276 -810 0
-228 -543 -84 851 -19 0
-740 -407 -351 -570 -488 0
-135 -874 -473 -198 0
176 -719 924 241 -616 910 0
-663 -854 145 -892 0
862 121 -300 -768 0
-54 -338 720 -92 249 0
472 -9 114 -187 0
-574 -188 501 -923 0
303 379 654 660 0
-522 -770 755 -299 0
-480 416 268 -733 -809 0
-346 297 -615 -866 -272 0
595 -466 -938 41 664 -283 0
-203 885 747 -362 -627 -776 0
562 189 -637 -907 0
-216 -27 -145 991 988 0
-846 -572 -603 -730 238 145 0
833 -988 -745 865 167 -2 0
981 -673 917 384 385 412 0
367 -345 362 -442 0
-186 353 23 928 0
-640 217 -145 262 -762 354 0
634 -349 76 -897 -119 -618 0
314 75 -826 -740 0
426 -310 876 889 230 -941 0
-620 476 246 -406 0
-599 -812 333 285 -985 0
-601 -60 -198 -766 0
-918 -448 781 -962 -67 0
660 543 -261 -265 77 659 0
-297 139 -676 436 0
-283 130 -420 -850 0
-105 386 -772 269 0
79 788 -926 -60 0
920 240 -156 293 0
251 -405 -410 444 -318 0
472 -88 840 -761 225 -578 0
-457 -329 129 -231 824 -516 0
-797 -898 -302 226 0
777 -368 -270 261 0
791 -196 -519 319 0
906 -468 536 -104 -342 -121 0
803 161 -913 -129 -674 0
902 -940 -547 779 -161 -510 0
-238 -32 -408 -646 0
27 -741 733 -62 -544 700 0
-600 -204 -322 -175 0
-373 -418 857 -378 -108 0
-487 -971 265 647 0
-911 636 -969 -46 -165 -357 0
336 182 -717 -975 -316 0
-719 -913 -616 -258 0
-907 561 -456 15 -863 590 0
-65 -984 -329 -84 0
789 960 209 452 -198 0
165 -633 -540 726 0
223 5 253 92 -85 -52 0
-33 -898 -367 67 965 0
816 223 -777 335 523 648 0
-272 129 -541 -871 -599 0
477 -433 476 -590 932 872 0
85 -754 -502 183 0
219 459 853 108 -388 0
-634 990 250 -838 278 0
-945 381 289 -503 0
-977 -224 839 952 237 0
491 290 284 747 -30 -768 0
-27 -370 -18 -398 -557 531 0
-49 -929 430 931 -436 -174 0
-456 -986 -17 763 829 0
118 927 779 -941 -15 0
320 27 495 781 -159 711 0
653 -231 -980 -628 -727 0
801 -827 779 298 0
-106 344 145 370 0
688 -716 202 564 636 393 0
-598 -431 -385 -508 -68 402 0
-288 94 505 947 -276 -352 0
253 -280 379 -133 -860 0
38 -825 636 -468 -255 -604 0
740 440 617 -169 0
-474 813 -353 -901 19 0
-24 -379 332 767 339 0
-243 -706 -69 352 -390 22 0
989 109 821 172 598 -675 0
329 -494 937 186 -980 0
-814 45 -741 937 348 24 0
378 447 702 219 -317 0
276 -332 -674 -251 -352 816 0
-560 923 -643 918 476 0
-409 -463 -857 -592 0
-328 -793 -529 658 -118 0
-253 800 710 -894 0
820 980 100 973 -5 -543 0
-464 154 161 -468 430 -107 0
695 -796 -237 48 473 977 0
146 -552 987 944 -721 0
-91 -863 -601 -780 -621 144 0
741 763 102 439 -240 504 0
-758 -112 -265 -149 -452 926 0
-688 -529 256 390 -750 0
835 -576 -909 355 145 -266 0
-897 -491 -531 509 939 84 0
901 28 369 777 0
876 -451 -996 -318 -628 0
224 -881 266 -837 948 -490 0
-418 693 -353 280 -338 -126 0
-491 764 -79 970 -909 0
101 -62 -619 -462 0
-991 -915 49 -755 0
-734 -253 -505 643 0
-438 666 -845 -555 0
-755 769 -846 859 -358 118 0
413 -473 668 -856 325 0
-525 -743 -935 147 0
-544 -386 -597 -94 32 0
639 -794 399 351 -411 0
899 170 -611 792 -607 0
423 122 75 -87 -188 0
900 -377 558 -309 0
-607 -218 403 -33 0
-434 -536 491 -21 -583 0
-416 682 -268 -321 0
-781 333 -444 -886 -419 0
851 472 732 227 -154 -561 0
718 281 -194 -708 941 876 0
625 356 -466 -122 728 0
-829 140 -316 -730 858 -12 0
313 602 -41 716 485 0
828 247 -527 68 -969 108 0
796 -418 68 -175 171 -326 0
-296 -565 -913 -715 -642 0
-171 558 -386 552 -799 0
-321 607 -539 948 0
-714 57 303 638 190 531 0
661 -874 -771 -497 0
809 27 -953 900 0
-422 -165 -750 452 867 0
-515 -85 212 -171 262 306 0
937 507 -268 -450 0
854 -924 59 -265 -135 0
720 734 452 -477 717 -366 0
-711 -955 710 -353 -820 -543 0
683 -810 711 360 0
-476 -845 -13 339 0
5 -722 389 482 713 235 0
-439 -445 -367 -133 257 -16 0
158 934 -39 -186 0
-696 -562 566 763 0
396 -451 -844 -457 -814 0
156 709 425 316 -265 591 0
-115 923 -962 646 -979 0
51 -539 -486 -574 0
-369 -230 -664 -828 617 -158 0
180 360 692 885 0
-977 -919 116 -144 981 -60 0
748 -945 611 -371 0
929 -70 409 842 -173 0
324 -997 -402 519 -40 0
-123 76 -254 -178 347 -261 0
840 -947 494 -505 -957 212 0
878 -259 989 -113 0
-441 -799 701 -613 -824 0
-960 54 21 427 -698 0
-371 598 -640 1000 527 0
-123 -735 -326 500 -844 0
991 -521 230 7 190 -780 0
-963 -23 -42 7 828 -807 0
859 85 -936 -346 -345 804 0
995 -61 -914 818 0
-424 305 153 -913 -553 356 0
597 -117 863 412 0
58 -65 315 -452 -864 566 0
-545 401 698 -436 -894 0
984 175 -582 124 -68 -617 0
-795 375 -17 612 297 528 0
795 462 538 -632 0
306 986 470 -189 -336 529 0
338 825 822 68 -352 957 0
55 -740 711 247 0
255 902 726 655 -581 545 0
920 -323 -749 -789 0
-267 735 -957 -3 0
788 -181 -149 284 535 -358 0
-904 -732 -802 55 -840 145 0
635 -401 -870 273 559 -450 0
178 462 256 -708 0
71 -188 580 -510 -687 0
360 -638 -476 -748 0
756 -489 -917 -741 299 -166 0
968 425 -208 -353 0
741 731 -931 362 0
348 991 -766 -746 -568 -610 0
370 803 -30 -496 506 0
468 545 627 954 -759 682 0
-834 -370 -669 -658 293 -227 0
-561 -473 -339 -246 -423 0
440 -818 -563 -169 -198 -351 0
419 -122 895 896 0
-256 757 -551 960 748 948 0
605 -359 -271 -1 467 0
-238 993 -676 -113 795 0
-778 632 -199 211 -630 -803 0
-519 -13 -971 723 0
-213 129 -402 169 0
287 148 -761 801 0
535 -138 -695 -192 0
216 -221 -900 -869 0
217 623 -707 424 447 650 0
57 748 742 -493 0
334 47 -953 -596 679 806 0
-79 995 -74 709 0
92 127 -548 477 322 969 0
184 -754 580 333 -505 -308 0
103 643 -607 635 -453 0
-446 439 401 867 0
256 -632 700 688 685 0
-347 -66 -94 -254 0
-691 -46 16 -82 -690 0
50 -525 510 533 937 -927 0
678 248 712 -347 441 622 0
-79 -94 -625 -387 0
-334 -640 770 -226 0
-479 -360 396 752 0
246 106 613 676 -242 -765 0
-181 761 138 688 453 -604 0
-215 -569 458 -781 979 170 0
-128 -625 946 245 -527 0
-454 -522 668 847 -80 0
-517 330 -70 874 728 0
-775 -807 293 176 660 0
830 239 -1000 -391 -348 919 0
404 661 -504 -224 417 0
-867 602 748 547 657 -118 0
555 -893 -313 -610 0
-133 198 681 -330 -789 0
-540 946 15 10 -139 -723 0
452 720 -765 579 672 351 0
-961 -591 -719 -990 0
360 -617 -896 -951 -393 0
-661 -396 -69 997 -712 232 0
-797 129 28 466 30 0
-389 653 693 429 735 0
837 26 -577 758 0
-303 -210 -213 59 -865 -526 0
472 -15 -913 871 -789 773 0
-82 761 -383 -310 0
888 741 631 336 894 447 0
-876 268 -290 790 362 -686 0
-887 -635 737 -271 -340 -717 0
-814 828 -802 324 0
671 927 290 45 -311 0
-213 806 -827 228 -820 0
602 75 890 503 517 -638 0
-573 287 145 894 -951 -838 0
-184 481 727 547 7 0
367 -452 887 -440 701 119 0
711 182 -704 -381 0
-448 943 215 -932 0
-688 156 33 -420 0
723 -684 863 394 0
-97 -113 -83 -857 801 -955 0
-559 371 832 480 0
630 -200 826 -706 746 0
29 -383 43 151 649 278 0
826 -590 -210 -156 0
121 86 144 224 0
-834 -710 -165 925 -598 -947 0
213 428 -160 189 0
32 327 744 -811 102 0
-241 761 -144 491 -260 0
256 -514 693 -907 -405 -315 0
196 -630 102 86 -384 545 0
169 -720 -601 315 -396 0
-378 -82 -141 -60 908 0
779 936 701 -421 32 0
-597 744 -322 189 0
-893 441 347 788 0
-34 -38 40 -858 -995 961 0
378 836 63 741 0
667 -2 169 133 0
-163 11 386 -53 0
144 -612 -600 235 0
323 -344 -651 -570 926 0
20 110 -292 -147 0
-418 -982 453 975 -315 639 0
66 -619 -891 -510 0
-742 -386 -217 -513 71 726 0
608 -178 230 -975 -115 603 0
-152 -422 -421 -712 -132 0
-487 215 -954 -611 -898 -851 0
789 862 564 -317 -339 0
629 -418 -669 -174 0
-900 -732 99 -591 -822 0
-615 -304 471 446 -713 0
-548 -505 400 377 -732 0
2 -378 845 932 0
258 -456 -130 404 -527 0
-169 -305 128 823 -62 756 0
-997 -244 584 -168 0
-850 921 992 -528 0
-519 -131 -813 -309 0
-218 766 -144 -447 458 0
-72 739 -168 801 -864 -715 0
176 303 365 697 625 0
971 640 -801 226 0
587 -526 -415 -314 0
-228 525 546 -156 -520 -680 0
279 404 -445 696 -97 632 0
-317 549 994 48 -704 -99 0
-609 310 801 314 -414 0
929 713 -363 -709 0
625 -606 969 -847 0
-879 598 -182 278 0
-982 -94 23 -402 -871 0
-497 -659 -191 124 0
-430 -758 -4 44 0
940 518 68 79 0
-230 785 911 37 0
-817 680 794 -6 -431 0
368 -793 537 -169 -905 777 0
339 966 -542 366 838 0
477 636 -31 301 -979 0
774 745 81 236 -4 -589 0
303 -85 269 -778 438 444 0
-287 527 -112 901 -641 -982 0
803 121 657 -543 693 0
-731 -371 -105 189 583 906 0
594 -929 -215 209 0
-782 -729 215 95 0
408 -177 856 824 592 -293 0
-446 201 -240 822 135 0
770 228 -534 -316 0
-107 -241 -534 -828 0
-652 -939 867 -666 0
147 806 -955 -800 -778 -608 0
497 -841 -311 -947 0
-946 -381 -64 309 87 0
-250 -896 -799 395 -614 514 0
-348 -776 -381 -409 -577 -556 0
388 -51 -597 -794 0
105 978 987 294 476 0
-970 221 885 273 0
273 750 887 -144 -527 529 0
-349 157 -426 -574 0
-219 972 322 170 -724 0
457 192 -510 691 -749 -354 0
884 85 89 203 -75 0
920 673 614 -32 -184 0
-176 -837 350 -551 -980 0
339 823 546 -97 0
285 -758 -218 781 83 -417 0
208 953 -93 -602 -846 0
-891 300 977 338 0
713 -766 -980 536 0
251 -154 -752 -834 276 -826 0
622 -256 302 -460 963 0
996 186 -878 -111 0
-302 419 -749 -579 134 0
-77 837 514 -356 -568 0
-851 -346 -28 -555 -457 0
819 -450 444 364 7 0
390 -236 587 -182 0
-590 -313 205 -340 -661 -423 0
-26 989 670 -969 -90 0
111 773 94 -417 -819 -208 0
-482 -311 -471 -104 0
-206 -421 551 921 -805 281 0
616 -916 -258 905 -693 0
-824 348 814 -846 -338 390 0
-548 456 387 -28 -883 -363 0
-311 -674 -963 -999 275 0
-540 -44 -281 -864 766 948 0
838 -176 932 513 0
-467 -343 877 -43 -397 0
332 24 679 320 827 -817 0
-561 -637 -761 -51 0
296 357 600 -493 -81 -400 0
-132 585 -761 -494 -929 0
-362 673 -207 392 -70 -938 0
-867 558 -361 258 0
-547 811 -834 128 438 -744 0
46 -627 -696 239 0
-541 651 -971 18 333 80 0
876 -244 -141 33 0
639 996 738 490 0
-512 778 915 -919 0
-411 243 125 900 0
-638 -158 527 -473 0
426 -637 -854 527 -401 0
86 350 928 -781 0
-502 -285 -499 -115 -451 0
952 -241 655 993 -545 -608 0
612 -970 -582 -242 0
381 235 19 691 -841 -14 0
-221 187 573 506 748 0
859 231 823 406 0
706 928 -545 -776 -654 0
-852 584 -384 58 0
-87 946 -190 139 -210 -975 0
-974 456 170 812 485 811 0
-974 -673 -74 -321 80 0
599 -259 -496 382 945 -3 0
-352 -195 -21 -675 -900 0
663 -374 -639 476 -283 -136 0
38 923 -850 755 -822 0
24 480 -532 807 0
-338 686 -803 214 422 0
100 913 487 606 -509 946 0
-697 341 956 -959 -958 0
-20 -266 967 957 0
217 -206 -721 457 0
236 -825 -773 -879 -529 0
525 867 459 350 -377 -397 0
-212 -859 536 279 77 415 0
-781 330 -386 342 0
-146 406 -633 -550 -259 0
-873 -876 482 195 -697 0
711 25 -983 931 0
898 492 -2 -960 0
901 -837 260 -72 0
-421 775 -529 673 940 -381 0
632 944 -356 494 0
-898 -689 968 639 -100 68 0
-130 -756 395 -480 379 0
-357 125 844 -155 0
-648 172 588 -250 987 0
-80 549 -204 -309 -405 0
-989 364 798 298 184 0
-537 308 458 564 0
-376 -603 -763 -431 319 0
-292 782 931 -581 354 945 0
-289 785 -276 -720 -884 0
375 240 443 824 0
748 -597 -315 583 630 0
133 -366 -92 -702 0
-395 -549 701 883 725 906 0
717 -129 -573 381 194 -925 0
-93 -320 693 -633 353 -812 0
-762 445 -796 273 -647 0
676 693 -791 928 -343 0
665 1000 762 583 0
896 25 -480 7 -539 -744 0
780 653 117 92 933 0
769 95 162 451 -879 0
-21 -503 416 -391 0
-175 -466 -495 -462 762 0
-906 -14 429 302 502 424 0
-578 -772 -96 746 0
-299 -876 -567 429 743 0
234 916 -661 792 0
-178 -795 977 319 74 0
540 700 363 -268 -670 16 0
-225 -903 93 -433 -765 655 0
177 -244 1000 -701 880 552 0
348 501 -916 -659 0
-636 742 74 -834 389 0
187 -490 308 650 -965 0
312 709 489 990 568 109 0
-546 538 -404 -302 572 -776 0
-324 603 229 960 927 0
19 786 112 578 286 0
-286 517 -89 515 -211 275 0
747 112 685 -123 -530 0
-536 892 -853 -34 0
-189 28 -281 235 0
-828 -876 -466 93 503 0
596 124 247 -477 119 239 0
-172 557 970 834 -197 0
550 427 -97 990 0
676 316 -345 411 0
226 -974 -913 -630 0
365 -646 -445 32 781 860 0
-951 -510 710 632 -708 -286 0
627 239 340 838 0
-408 619 418 -934 0
906 -613 -654 913 0
703 -677 119 73 0
-784 712 -424 785 -563 273 0
-850 338 772 526 0
891 428 -177 -942 0
471 -320 -958 -696 3 0
-393 54 899 -645 124 -779 0
-162 166 152 238 0
924 119 -111 -134 0
444 942 -191 -145 -894 -634 0
705 803 85 523 0
-390 -164 173 91 -506 658 0
-28 -232 2 -188 893 0
364 229 535 231 -852 -383 0
-26 -392 -103 578 0
-915 229 -76 957 0
-566 43 318 -63 -274 357 0
154 74 -980 -859 -449 709 0
774 160 -611 -939 -196 0
-505 135 350 408 0
-733 499 -641 283 844 0
447 -487 -718 288 0
-678 -788 925 833 365 -15 0
412 82 104 533 -139 0
896 -619 -475 901 151 0
-971 534 995 -797 0
-539 -32 273 243 404 0
-173 -524 -27 -177 679 -681 0
-339 -760 -84 963 701 0
254 -375 -674 166 10 0
102 -158 892 -743 -730 55 0
144 187 -495 566 0
582 -591 -333 -182 0
-772 -707 307 -384 -463 -158 0
-661 -763 881 -411 -358 -941 0
174 -264 -462 308 0
-306 87 -498 -546 2 423 0
329 81 442 -569 -75 0
205 -214 736 -281 -489 0
281 -207 -214 776 -189 0
-206 60 -193 -430 0
981 452 -552 -411 -184 -425 0
112 -820 884 -629 0
445 771 -608 -841 -733 705 0
524 957 898 -694 0
-4 623 307 -228 -313 0
404 988 369 870 -979 0
-205 -112 417 314 299 -701 0
389 -424 -251 404 160 680 0
-457 855 -101 364 583 0
-222 888 -949 331 0
-434 -925 758 525 0
-875 218 268 202 407 476 0
-740 -67 492 576 0
952 -443 333 -173 950 -290 0
-759 883 -450 -51 0
-260 -64 689 23 0
-299 533 611 -812 39 0
-577 316 -286 -247 -697 0
45 726 -502 184 -420 0
334 61 398 42 0
-755 709 -84 241 308 0
-863 340 -308 927 556 0
-135 -629 951 35 0
-513 157 -276 37 519 -378 0
162 -529 -974 -486 0
-349 -848 -881 279 0
-51 -548 -909 -196 -535 0
-590 -149 225 287 887 0
299 -213 -138 22 0
-473 258 -991 -975 237 939 0
-986 280 -910 371 252 0
-223 -287 999 -212 0
230 930 658 171 -946 0
505 781 136 -9 53 0
-97 -533 656 -3 549 0
567 967 52 -102 994 0
583 -778 875 -441 -195 549 0
-951 645 143 -312 0
621 609 -315 -514 0
-190 -592 185 78 0
18 -254 262 192 -319 0
9 -389 -238 827 0
-113 -949 -533 -331 0
760 649 -644 662 -787 0
750 483 -224 995 -433 0
-558 -51 184 -614 -461 0
-428 840 504 -22 -812 0
-669 -101 -230 -855 0
-434 54 -581 -152 0
-459 913 -233 764 639 699 0
808 -70 492 -734 177 0
-960 -680 -705 -838 -92 -297 0
-622 375 74 931 154 0
-330 410 -423 704 -269 0
-617 -140 -594 31 322 0
-588 -271 -818 155 0
-911 821 -737 113 482 423 0
-850 -372 -131 459 -774 -568 0
284 180 -503 319 0
-959 799 -184 -141 0
158 332 -25 790 907 0
-447 -896 -925 187 0
-89 224 956 2 -356 854 0
-710 -239 -43 353 0
-772 -448 -500 -921 352 -706 0
-722 -561 -142 -205 412 -100 0
-226 -2 347 799 0
-29 333 772 709 0
-332 -563 903 487 -232 -723 0
399 -790 -128 -156 -100 750 0
-482 -14 52 464 0
826 854 -216 -474 561 -973 0
-253 -842 720 483 830 419 0
-255 996 -577 -374 195 114 0
-760 -693 -805 672 626 -301 0
89 744 431 -134 -354 0
331 227 -83 -581 0
607 121 262 712 266 0
563 -585 -546 228 -684 0
956 -349 47 233 35 0
-763 659 -820 144 0
-289 -879 306 -351 545 -569 0
482 -635 -9 -682 -973 0
-116 -520 655 -833 -669 34 0
-199 342 229 -441 0
-111 874 -629 -73 -973 0
486 571 -198 -526 282 -976 0
-656 648 -601 -479 840 403 0
682 -138 -170 930 0
374 535 -439 -499 -333 -440 0
221 -474 -878 -316 -56 0
-807 231 225 129 -654 0
-592 -188 -899 -321 601 0
-622 163 517 -375 426 599 0
-185 186 -479 25 0
465 -227 -985 902 0
341 28 -336 -930 -8 0
19 969 456 621 -102 -788 0
404 36 48 700 -494 0
-936 -574 303 -121 0
-757 276 901 -861 -939 0
-566 -550 -413 812 148 543 0
-483 128 875 -515 0
-769 -631 -98 -535 -323 835 0
-679 -241 714 -441 842 0
28 -614 715 852 765 -370 0
784 62 950 -92 -273 310 0
857 92 983 957 309 0
-138 890 -512 592 0
824 -347 -764 -201 0
691 555 -104 -189 194 582 0
-487 747 222 660 -904 631 0
-740 -865 -783 590 818 0
492 589 761 396 929 0
676 357 -587 24 -912 385 0
-15 -674 581 -350 -546 0
73 -873 -911 -711 0
721 900 826 255 -718 0
-449 869 266 -809 0
-657 526 548 -897 0
349 699 477 -954 777 570 0
59 -422 -930 -668 0
73 648 -429 -168 0
-680 -453 -506 791 0
-588 -378 365 471 916 818 0
678 992 -689 290 449 0
-927 777 744 268 972 0
190 682 721 -111 -342 0
-798 270 694 -371 0
-176 -643 -666 -588 -143 0
-141 315 -170 -860 -253 133 0
592 -204 -892 125 -824 0
-56 228 401 -184 -260 -652 0
389 359 304 -651 53 789 0
-901 169 -118 997 0
38 353 -648 712 -694 0
-801 159 -705 -395 0
-420 364 -118 294 -220 0
-305 707 419 -524 0
443 -592 -867 -792 -907 0
-311 -733 243 -595 0
625 807 669 -733 586 814 0
-908 -33 878 -936 0
53 -807 -926 191 0
-584 446 -619 -678 378 0
-992 -802 861 827 0
-409 337 99 -502 -597 0
-187 809 -73 -859 -445 0
-139 696 -451 494 498 0
844 884 -388 -323 220 0
-503 -405 -878 -205 962 0
646 664 181 -74 0
-891 -762 -506 192 672 848 0
379 755 -740 -735 0
-941 -26 544 398 0
736 -229 -795 980 0
719 513 -734 870 939 0
415 -238 379 -127 0
-487 517 232 -828 -838 0
898 -71 266 112 -291 278 0
947 -826 556 -992 -91 0
362 425 242 -5 0
640 -609 620 521 0
427 -50 903 -487 0
-151 -641 747 -218 -313 724 0
-910 -214 -997 219 73 0
151 -358 630 -316 0
56 750 682 -469 0
553 731 -560 -265 136 127 0
-210 505 -342 927 0
531 437 880 -701 422 405 0
452 701 -529 -629 -952 766 0
-92 -113 738 313 -262 139 0
-74 -110 557 408 -679 766 0
949 -820 -297 -824 939 0
159 -349 -182 637 511 0
839 -644 306 258 0
-149 -479 646 221 245 675 0
-407 -56 -97 327 0
-362 880 923 -101 -271 0
-439 -552 -88 977 0
607 -201 -755 400 -229 0
93 -120 966 -618 699 -931 0
-119 772 886 673 728 -627 0
-687 -174 147 -758 826 -328 0
-473 72 787 135 469 0
551 922 898 -392 466 -15 0
237 -320 532 -963 832 0
-310 734 635 10 0
-451 66 -965 601 -13 0
-980 81 681 -315 0
158 -984 -953 -310 0
624 -214 532 -496 587 0
34 104 -486 -345 0
-5 -451 738 935 60 0
-610 -124 -991 -368 704 100 0
390 -229 -884 -379 0
487 -369 -175 -15 -67 -205 0
-585 -506 -206 -383 839 -366 0
-614 72 51 -56 0
198 -738 171 781 -969 -441 0
106 375 999 424 699 0
-649 146 -772 450 -739 -73 0
478 421 -847 -583 -704 0
13 479 602 -460 264 -515 0
-683 -334 416 710 787 708 0
806 -922 -191 968 -785 -961 0
-254 -467 180 451 0
-540 -487 593 -260 0
-137 -276 763 37 0
-488 337 -604 89 0
-114 149 -967 202 0
911 687 82 440 152 -765 0
565 -482 -95 571 -284 394 0
679 -310 268 -542 953 -447 0
364 -309 -323 510 409 0
-966 685 -633 -808 0
-324 -411 738 180 523 758 0
953 265 -40 724 790 -808 0
888 -221 593 991 0
-857 714 277 -444 -204 0
-127 -21 -931 -784 442 767 0
666 -119 -770 -263 -193 0
675 -800 358 -71 -700 0
-286 -56 -217 -517 417 -143 0
-268 25 880 -887 -559 120 0
91 -299 -616 -279 0
-204 -128 -670 -616 0
998 -773 665 -898 -971 0
-274 -534 990 376 -600 -716 0
-290 827 1000 -608 -672 0
517 123 486 -702 0
-440 -917 -323 -343 0
-897 338 -28 -790 893 229 0
-369 -896 -204 -879 707 0
451 -289 381 220 -640 621 0
-368 818 670 298 0
682 -256 38 -666 794 779 0
467 934 -304 240 -468 -888 0
135 -749 662 -934 -606 595 0
231 867 -68 -275 894 617 0
36 -530 -941 744 870 0
-428 257 31 -791 0
257 343 73 968 0
-199 -668 465 -760 549 68 0
-747 254 -14 -928 0
271 -568 968 -242 -337 0
332 -364 665 325 0
160 852 641 537 147 0
633 810 559 128 216 0
749 259 -609 -296 0
-53 222 586 -264 560 737 0
142 575 35 -708 0
289 -622 110 -349 53 258 0
420 835 -737 -667 0
721 -581 381 -778 798 -776 0
-847 578 37 318 0
-264 809 421 345 179 0
86 -825 721 133 0
-418 310 -453 565 -721 546 0
996 421 -757 -798 159 -33 0
-407 -948 447 540 0
-278 543 816 531 -751 276 0
947 452 -158 -145 694 0
-875 753 419 996 -783 -87 0
-477 755 -78 565 -613 0
-973 778 108 -498 418 0
-662 551 183 -672 -13 -50 0
-518 805 692 -20 285 0
-830 100 368 -278 675 -191 0
-474 -198 109 -928 484 0
843 -517 -203 909 160 0
374 107 -300 -504 108 0
474 -563 -21 -828 0
-621 -588 992 654 497 -884 0
610 976 -3 298 0
-750 -54 -962 -875 858 0
990 -139 18 880 -899 0
-401 232 110 -124 29 0
790 -124 -84 877 -247 0
-963 -777 283 517 0
-732 947 633 526 644 458 0
-700 62 -627 -259 900 0
431 -584 719 745 0
769 566 -59 -372 270 233 0
-731 109 -970 668 0
954 710 -734 720 189 0
258 -597 -772 -483 9 916 0
22 -279 427 37 0
-531 -560 -112 -409 0
-574 289 -361 -454 0
815 -264 779 209 0
-258 -245 -89 459 83 0
-674 61 518 -578 935 0
584 -332 -260 97 914 0
-602 -644 -256 651 99 0
-174 768 -820 -745 0
-838 -991 563 -930 -504 -350 0
805 51 -653 -514 334 965 0
-755 -903 949 167 926 -623 0
-987 171 227 -513 -26 0
541 -649 744 -118 520 0
188 -512 38 -963 0
826 -146 -108 845 -424 0
-939 27 138 378 -796 0
473 -158 210 621 0
460 14 781 -38 -847 0
687 -156 347 -24 -241 0
-867 407 -775 -963 29 0
382 264 -771 818 564 0
-507 -551 436 283 -837 -130 0
858 816 621 382 -386 0
-620 95 -825 591 0
383 -811 -317 -762 633 178 0
-413 -779 -142 715 -702 622 0
942 -680 -580 -138 -603 340 0
-391 742 -70 -971 791 0
-85 494 50 959 801 0
-413 509 -156 -645 0
-754 586 723 -189 0
-345 -327 793 806 0
649 -898 667 641 94 333 0
916 -723 936 25 0
-125 -949 953 -750 -448 0
-211 -119 579 591 0
-215 921 -932 519 367 967 0
381 -385 -887 -562 0
-211 936 409 676 0
943 -474 -808 -344 0
660 451 -122 180 -4 0
-138 836 616 -446 -728 -229 0
-123 -489 -697 202 905 0
139 -60 759 -868 550 0
-519 824 638 -194 0
-271 518 -250 189 380 0
585 -772 536 464 -862 0
-676 -215 746 988 0
110 644 418 -780 497 0
413 361 315 -136 -961 -215 0
319 -10 538 203 695 0
-60 -693 -406 923 -31 0
-621 441 251 613 252 993 0
31 -830 -980 -395 0
210 988 -701 950 -819 -720 0
325 369 -875 957 508 274 0
339 -333 715 -684 748 722 0
-443 874 108 -775 0
-126 858 437 -814 0
792 314 -992 865 23 793 0
265 759 902 -844 0
-617 301 -183 -282 927 -353 0
-507 67 -333 468 0
-387 761 -145 257 -104 -129 0
-203 135 -108 65 0
443 339 -495 343 -64 136 0
119 -483 240 -37 443 0
-542 -651 -511 32 -195 0
-572 152 -911 -26 0
-992 -875 -474 -703 907 613 0
-955 -483 38 -580 538 -747 0
212 -714 -317 -846 603 -256 0
430 701 -790 487 0
-276 -678 -346 -914 -239 -251 0
-873 -65 -517 -123 524 0
87 353 636 -646 20 0
-508 423 810 -823 0
441 436 -396 847 -79 0
686 -843 -306 -123 31 0
294 -172 783 468 0
-783 -49 663 -765 0
208 953 -577 627 -271 0
-274 459 611 -229 7 0
350 -18 -702 755 0
-575 -132 170 810 719 0
-329 -243 795 -878 0
349 90 863 998 0
310 -576 922 655 0
-501 -221 717 -983 -445 0
-544 -107 -875 787 -396 0
884 162 210 -826 -333 0
-239 845 482 898 -322 -279 0
-275 424 514 -497 0
470 -263 -121 -468 0
-96 43 -150 674 0
-835 271 -140 -117 901 560 0
254 384 -699 -733 0
470 639 -260 -314 382 0
-553 972 -636 -503 784 787 0
415 -221 -884 -265 -865 0
-893 268 -3 -824 0
-521 104 160 138 -102 0
772 654 -213 323 0
-507 -158 603 -955 0
-81 -365 883 562 -551 0
-71 -487 -374 642 0
-517 170 136 -208 0
-655 177 -563 206 43 0
698 -327 944 -821 0
507 179 -836 233 -467 0
-302 328 400 -956 0
-624 587 825 74 898 0
-409 -799 -358 -649 0
292 -901 -304 594 -907 0
11 617 -497 -243 0
-827 -203 106 -313 552 615 0
470 671 -582 -183 -537 0
-135 -734 -143 -124 0
782 -48 -890 74 507 0
-810 363 219 952 510 0
-742 331 -528 722 -155 0
-572 -969 948 -754 0
104 -538 -559 429 0
-437 558 -492 909 -560 0
287 19 -37 215 0
-201 562 -156 -377 0
-805 -600 409 -629 416 467 0
-200 -327 872 -503 666 715 0
-199 295 -4 284 -254 0
-145 -262 -835 249 -42 903 0
-805 627 -935 -942 0
-477 896 362 263 -578 0
-292 -684 -335 -933 445 0
893 -232 -535 921 -679 272 0
-68 552 732 -599 0
-822 -418 269 -724 74 0
302 -860 -782 -1000 937 0
-181 308 -504 -630 594 -719 0
-369 -943 -450 346 415 900 0
864 611 189 -497 0
-904 643 -264 932 0
-557 -410 -723 -417 -294 0
-305 -281 13 -601 0
-936 942 160 -886 0
-648 410 -92 -254 0
-706 221 -668 993 -349 -872 0
-183 1 -917 768 0
92 547 380 -827 -613 234 0
804 694 -488 236 4 -738 0
-300 -703 388 286 -112 784 0
213 -361 284 336 -166 0
4 397 -709 -928 152 -591 0
837 404 897 293 846 -1 0
483 958 -346 -714 0
-376 -398 190 -574 0
-84 -72 10 399 955 0
85 441 909 -496 -187 0
-885 869 -887 -618 -287 754 0
-573 450 -739 -467 849 -811 0
-375 -512 651 -343 713 -421 0
-731 693 -523 534 0
-558 -514 -351 951 -301 0
623 295 589 -275 117 745 0
120 435 -330 725 -227 0
55 -826 815 309 382 0
106 -998 -286 -642 667 898 0
427 693 385 378 691 -242 0
-854 905 -934 792 0
-486 151 -551 395 -52 -347 0
-771 717 82 -84 -360 751 0
836 842 -478 -422 -40 0
218 -700 -235 419 -133 0
577 -467 460 529 0
-261 -903 391 574 -733 -980 0
648 -6 -990 350 0
-581 864 -655 -943 67 -74 0
209 472 978 -22 -99 0
-627 -138 749 583 142 0
-981 -244 473 184 -560 0
77 180 425 797 0
-230 -715 -776 302 763 994 0
98 -272 23 -621 405 -127 0
100 -605 -665 981 -653 0
-891 -95 786 233 0
565 780 459 542 -469 0
-502 542 -812 83 -142 359 0
636 -782 -807 677 -68 404 0
132 992 -403 -553 0
774 -347 789 998 709 0
808 777 488 444 -153 0
-345 410 537 -146 634 237 0
916 111 -386 -446 0
772 -643 -425 -143 492 0
610 959 361 -632 340 0
-899 -508 669 -428 172 -100 0
-915 -150 685 681 0
11 917 578 -554 -887 0
571 406 759 161 847 578 0
979 164 216 -542 0
975 -636 458 -519 0
-442 -261 845 -763 723 556 0
963 508 -888 780 0
664 -573 437 -684 -391 -85 0
101 224 150 -884 0
-990 -6 648 -796 0
641 -689 -692 353 -178 849 0
-566 -500 -600 -880 421 -530 0
948 -779 -947 580 726 -937 0
705 -40 -472 -997 -541 918 0
919 -375 974 474 -593 0
895 402 -859 100 435 720 0
669 -258 775 -209 0
-227 -55 -577 893 437 -66 0
-214 524 853 842 0
-639 280 671 -920 0
946 816 -514 103 -182 0
-447 244 -560 -406 202 -861 0
948 120 -780 799 0
-420 -847 -24 -673 -996 0
426 -796 648 644 -561 0
-123 552 -127 311 627 -677 0
-220 -980 823 -93 430 977 0
-999 286 865 -870 -817 -764 0
286 913 13 151 -422 0
839 975 -621 840 0
-666 -959 -154 -242 -202 0
-761 514 -655 -263 0
401 -577 974 -967 0
399 -594 222 765 -792 -191 0
-899 -549 426 -746 0
607 66 424 -329 0
81 -94 -532 338 385 -369 0
-502 -372 -111 753 757 0
-939 -350 607 55 0
-396 306 -534 -956 93 -18 0
-344 -192 -871 -406 446 898 0
-471 -590 -882 -52 0
576 895 -579 634 -266 888 0
336 -94 -27 951 -972 -814 0
-119 -460 498 -55 428 0
940 -446 -542 -521 -8 -96 0
591 -980 663 241 -371 -422 0
513 -349 -202 -819 -141 0
-518 366 475 -151 488 -428 0
-714 -748 -699 -451 -299 0
542 -332 -396 -802 0
985 -599 813 -224 874 0
-989 -921 -813 590 0
642 -170 143 -400 0
-517 -505 -142 -935 -656 0
960 -687 250 540 -859 -783 0
-246 -730 298 147 604 0
-720 493 836 -928 -68 0
-54 640 262 -477 -526 963 0
-316 -541 615 -376 735 -966 0
790 947 -257 -934 -803 588 0
159 309 -250 987 -600 168 0
-794 991 -623 498 0
-252 725 -999 163 -512 0
918 -638 595 587 0
250 220 -190 188 0
150 47 -113 -836 0
64 688 -356 -243 0
244 -286 -508 479 0
425 -360 749 -90 -480 -345 0
-863 -388 -706 -397 0
-531 150 -618 322 -277 0
-805 605 -925 -946 -43 0
-920 269 -113 -277 -519 -291 0
-119 867 980 -128 -345 -63 0
-843 -619 -819 48 0
430 -730 -915 -805 327 0
317 869 669 -110 -115 -355 0
-362 922 -556 583 804 0
599 114 449 -621 364 0
-640 644 -76 -270 -581 837 0
-798 -357 37 816 0
49 -633 583 874 -760 274 0
874 -198 -837 -807 0
-398 938 -386 -140 -654 0
140 -82 -27 -237 485 0
804 567 -519 -558 0
513 529 108 -444 0
-957 774 889 752 -551 168 0
538 307 176 -697 -33 -794 0
-581 -732 839 15 99 -266 0
528 -781 -577 -736 0
500 -151 -507 635 0
-756 -549 -598 273 -365 -611 0
-228 976 608 -369 350 0
-120 -304 -163 686 155 -829 0
-760 -562 298 -289 -970 0
273 469 -133 670 294 455 0
75 846 -392 -47 777 0
251 129 -470 885 155 0
-525 77 824 -516 0
-821 -569 -473 -817 0
415 225 -737 -617 0
-579 776 -369 -122 886 -364 0
49 -274 -712 -689 0
997 -437 -591 379 -107 31 0
467 303 -202 744 -194 69 0
-344 -138 -575 676 929 0
-274 409 -288 -972 739 -510 0
622 -511 408 -975 0
-235 -454 309 744 -334 248 0
-647 -669 -983 -274 971 -131 0
464 472 222 429 0
882 -876 -92 -502 -88 -718 0
321 906 -325 4 -316 818 0
-312 -834 977 967 0
38 302 964 677 783 0
-279 566 638 -473 0
807 199 -196 456 0
972 -249 -903 349 916 127 0
324 489 -399 -242 -312 327 0
994 319 -301 -380 0
917 497 155 570 -238 0
433 -723 105 73 0
-518 -803 382 -679 0
-385 -833 -905 829 0
-739 -6 -677 138 0
544 -313 -112 -947 503 0
-403 319 -386 -506 605 639 0
910 882 233 21 0
-758 -163 381 -318 262 648 0
897 357 110 -915 536 0
-633 543 -246 924 0
430 -745 -252 -130 0
-239 742 482 -933 0
225 -873 694 373 943 -475 0
-640 -356 -655 -373 954 50 0
-121 -26 109 -365 190 -175 0
-218 591 -837 932 0
-784 -389 825 -831 -64 0
715 -265 312 389 0
629 580 -802 107 0
489 -472 525 -275 0
633 538 730 244 0
-790 -858 702 548 -924 0
-729 193 459 329 -656 0
-875 -246 75 827 539 0
412 -156 -456 855 905 0
-836 -352 -188 -752 7 778 0
72 -418 -822 810 -935 0
527 180 137 -172 0
669 382 -280 -148 -744 0
-996 565 175 808 195 0
100 875 219 -784 487 -433 0
-359 -686 124 375 0
46 789 415 -614 568 0
61 -582 193 -557 -382 0
-869 -721 -999 -891 81 0
132 878 127 -873 -813 592 0
440 465 974 -48 -854 0
926 -944 -493 550 -179 -904 0
-330 -401 -320 282 0
530 208 965 367 113 0
365 496 -598 352 -636 -846 0
-423 268 790 -743 654 0
376 -244 360 296 0
204 166 816 -333 0
920 -670 -421 -33 0
111 -67 -22 700 -615 236 0
-989 4 -942 -322 833 63 0
843 319 877 -229 984 0
-313 841 426 39 -45 -763 0
683 688 181 -763 -955 0
251 627 -937 764 663 -647 0
683 -375 717 702 -799 0
343 -226 723 -492 -181 316 0
-729 402 627 790 908 -126 0
-94 407 864 45 439 0
632 403 558 -925 -517 0
-950 203 -678 -143 128 428 0
672 -739 430 12 -871 0
-64 -811 -535 -16 -322 0
-550 723 -449 35 -91 -221 0
157 133 317 -519 -605 -947 0
-166 -64 574 -688 673 0
404 966 996 646 0
775 -229 280 101 -222 -114 0
-754 -476 511 -146 387 0
-794 -248 54 -197 -579 66 0
298 445 938 486 -911 -921 0
488 970 -428 953 606 0
-948 -621 877 320 -813 0
-741 38 799 -949 0
397 -60 317 567 0
-132 -524 -622 804 875 0
-296 -803 -634 382 787 0
86 687 321 686 0
-492 763 716 78 -109 832 0
921 74 475 -248 0
-228 775 461 576 -987 528 0
-624 706 692 342 0
385 122 -256 -20 603 0
-96 417 30 -714 0
403 982 -841 856 -336 0
375 800 283 456 -476 -723 0
882 -560 -798 663 -736 0
889 496 -106 932 666 -571 0
341 633 -234 669 -722 0
923 -668 882 -628 986 -326 0
348 -692 -568 384 0
669 -406 937 -113 -753 -290 0
-43 -492 -453 -850 0
-801 822 -622 -944 -340 -994 0
-973 181 458 -733 0
-689 335 -102 -313 0
811 -167 706 953 -730 -422 0
964 -737 267 -34 -938 -755 0
-949 456 -93 687 0
-143 -115 -865 197 -499 -255 0
-626 -648 468 470 0
159 -474 665 989 0
580 -747 828 -624 0
388 999 -98 108 0
-406 -799 15 -950 0
396 210 545 329 0
-324 -157 102 -950 -642 -38 0
-183 966 506 631 403 956 0
-787 -767 121 268 344 340 0
-284 615 -750 418 -167 -774 0
629 3 525 -801 -871 -251 0
-327 -217 -66 532 95 0
892 -335 478 339 721 239 0
414 383 -748 -447 559 266 0
426 275 -735 453 310 0
961 -772 -67 916 0
384 -250 -995 215 397 -209 0
986 315 -441 -859 0
-758 -95 553 -705 393 0
616 715 -478 -971 880 0
832 -641 115 785 898 0
-299 -460 347 -883 -814 0
440 400 -351 391 423 454 0
326 67 627 583 -470 0
560 -811 717 -728 -865 0
671 -825 193 -83 -946 651 0
-349 -659 23 982 397 -932 0
-803 -145 -125 832 -98 0
-324 -334 -24 330 -606 0
653 860 -970 -966 0
405 -358 -464 -951 -945 0
-694 239 -564 -316 -184 -108 0
310 -614 76 -1000 -900 0
114 -370 428 219 283 640 0
-541 248 -933 366 0
-343 885 298 8 -698 0
-719 -844 -212 418 0
-972 -702 -885 -833 -88 -256 0
-539 756 -40 -647 -8 834 0
-894 104 528 789 -705 0
-433 41 -298 -603 -942 0
-286 593 -642 973 0
57 238 -972 141 151 -112 0
-184 594 958 862 366 -367 0
162 708 -218 -752 0
535 27 -287 597 110 0
490 749 -593 -630 740 851 0
-225 970 -216 -765 0
-327 -867 20 553 -978 0
113 560 -927 -48 -287 0
80 -685 -207 957 -926 0
-348 -700 -185 244 0
-925 -561 850 254 849 -916 0
-793 940 -734 -126 0
-730 -565 955 -18 462 0
-822 753 -309 -416 0
-963 131 -771 58 946 0
-483 931 665 167 -730 323 0
-486 -370 -910 204 0
-567 -406 899 707 207 -931 0
-774 -872 507 -642 733 0
595 375 260 -174 245 -949 0
-841 -466 -822 -431 -824 749 0
-435 132 -857 791 0
-30 85 -864 45 -296 989 0
-592 -771 -61 -906 -597 -955 0
-736 -514 -641 517 -136 -156 0
256 37 -336 -207 892 0
-177 235 -378 112 -997 599 0
-521 -486 882 -977 -811 -354 0
928 783 -139 -448 -376 -760 0
901 845 623 -986 -210 0
269 -544 678 -715 0
573 -444 -918 516 -700 0
-906 -687 138 -513 -650 54 0
529 -627 905 218 -366 389 0
-420 -569 107 492 0
78 519 -33 -221 701 936 0
-851 -13 780 -853 -517 -348 0
177 -655 304 -558 205 0
-968 -155 -45 -745 -472 0
853 900 416 -446 0
-33 839 -746 598 -742 -373 0
-528 -946 954 623 -451 0
-270 -301 267 15 0
-696 -255 -811 142 0
495 943 128 -533 0
-835 -435 936 416 468 554 0
987 -924 137 831 -823 0
422 -657 -525 514 -157 724 0
155 -62 716 634 0
-402 997 -229 883 669 0
898 -242 512 -524 154 393 0
251 896 465 417 -452 0
928 49 -76 -566 -328 0
-804 -697 832 -877 440 0
-366 278 417 862 399 -29 0
-907 486 886 -599 0
397 -246 -477 302 -110 0
-349 -274 -356 891 -256 0
-150 931 -821 171 820 -574 0
-688 -782 -233 -287 319 -66 0
895 851 115 564 -396 0
-383 372 94 -855 -484 665 0
-11 395 -834 349 326 0
-574 46 -992 -305 218 0
-20 -119 -771 427 0
913 169 -301 -970 0
373 208 -873 692 -380 -482 0
-353 41 -752 -368 0
-658 1 -251 5 58 0
-934 875 -204 648 0
426 563 -506 198 -481 810 0
924 68 764 -694 0
-896 250 318 194 447 795 0
-804 -311 -135 -421 676 0
-543 -117 -700 995 698 195 0
959 -636 508 253 0
666 -476 -771 -230 -550 -770 0
842 983 730 21 -524 665 0
-215 533 825 977 -528 -853 0
310 -256 -441 189 -759 -97 0
536 330 -8 619 0
581 -136 463 -825 -964 684 0
-792 -54 211 830 233 -839 0
385 -194 592 -988 0
776 408 414 -954 981 0
759 -964 676 927 -634 722 0
494 499 989 125 -969 164 0
-632 -286 614 -643 604 842 0
6 -498 -362 -616 -388 0
-128 399 -877 623 -130 0
-192 -108 567 122 362 929 0
383 -285 -442 -891 252 662 0
58 -278 740 -783 -144 830 0
4 346 230 90 0
772 509 544 760 0
412 -339 -759 969 0
-37 540 -34 -983 -176 490 0
232 -304 242 516 -568 0
470 -886 -242 465 0
656 54 331 758 357 455 0
319 -277 21 -928 -637 -377 0
-171 -574 616 -826 798 47 0
389 -22 -119 701 -661 0
-62 -719 663 210 -991 -166 0
316 784 894 697 0
-361 339 -51 -725 0
-162 402 102 901 -484 -342 0
-495 -492 204 74 0
378 569 -432 317 -893 -734 0
-537 273 -440 410 225 0
356 -334 693 -246 977 0
149 273 -803 77 -336 0
-954 -89 -55 -506 0
-588 -286 -865 108 0
843 -192 -662 255 -660 0
-682 -472 -48 -15 0
-723 -613 411 742 6 0
932 -413 -258 433 0
-431 -393 516 -578 -557 179 0
-815 -522 -449 318 -65 244 0
835 786 -293 958 -706 -24 0
585 539 764 565 600 104 0
32 625 585 -417 0
588 822 -932 -88 -332 228 0
677 -360 841 -617 862 42 0
922 -236 589 -637 -499 -861 0
-747 320 729 456 903 0
-635 873 -792 383 243 92 0
24 -303 -86 980 776 0
702 87 265 -337 0
710 -719 -445 -621 -934 309 0
919 554 -234 316 16 0
-26 145 397 -505 0
362 -927 284 753 827 0
-538 188 375 -751 -350 0
167 951 852 -993 37 0
-462 -677 -941 -886 368 0
-204 161 695 -965 24 -665 0
-546 -868 879 944 0
-985 969 695 889 0
763 537 -405 866 404 56 0
-520 281 -152 790 -962 0
878 -899 -723 622 0
-62 320 -625 782 -545 448 0
775 555 623 -810 0
-304 11 -816 69 0
780 672 -476 -560 -957 -982 0
575 310 314 -468 -582 0
-426 237 -827 -447 -708 0
592 552 -638 199 -530 0
658 -714 -919 877 129 -591 0
-412 -659 413 -716 370 0
324 339 -831 422 357 0
-129 -332 639 310 -650 992 0
296 -438 638 -977 0
-238 872 857 -430 -254 -952 0
899 881 -101 -733 -289 0
931 715 -558 -823 0
74 -549 803 366 63 0
-254 198 -391 -869 0
-966 773 668 -876 0
921 711 580 -289 -536 -569 0
552 -391 -270 848 -938 0
576 954 256 -1000 -30 0
-913 -682 -978 -894 0
590 23 -385 -974 972 0
58 519 -786 -515 0
151 559 -430 -900 789 -463 0
648 -787 129 -846 831 0
-546 628 -512 877 -945 456 0
-910 71 915 573 -919 0
371 714 119 161 677 783 0
527 774 919 -691 0
-23 -22 -116 -787 -83 0
491 297 277 771 0
-332 484 -560 -785 -820 396 0
-786 -256 -3 -391 0
815 381 -560 527 -729 183 0
868 -834 16 539 52 759 0
-445 102 -373 145 0
276 -130 126 453 0
754 792 -921 -252 -628 0
312 -332 -456 193 -373 0
-400 -963 150 -419 -957 0
-616 816 -104 -664 0
420 -376 -699 -810 51 65 0
-283 -255 329 270 -472 739 0
111 -1000 -578 -959 0
30 210 590 -253 776 -571 0
372 459 -999 527 -445 -470 0
-860 955 276 909 0
92 -926 -707 -150 37 0
794 -390 858 28 816 0
-157 -678 -912 697 -297 835 0
-724 -387 785 444 -617 0
-298 846 335 -161 0
-380 678 -693 462 -558 -441 0
417 489 -512 742 -16 -121 0
-84 -425 -403 -747 0
-58 147 -24 -392 0
822 -838 -961 984 -899 0
-457 -23 -995 -143 0
378 479 502 -335 -926 0
-739 -609 -201 -54 -501 -68 0
-546 84 -400 678 -240 -564 0
105 -598 667 -949 0
-898 -230 -869 223 846 -479 0
620 760 886 753 0
825 -507 -881 -255 -36 0
-418 510 648 -769 -569 0
-756 -80 -675 999 0
-462 -478 -708 482 -712 942 0
-511 -222 -939 -865 750 919 0
-820 -712 10 -438 0
15 -243 189 -424 428 0
-704 478 -716 879 0
-719 262 174 -215 -121 853 0
800 -388 -316 474 827 0
124 441 -589 -654 -232 707 0
-471 -603 -127 392 0
-824 -1000 681 734 410 0
571 22 779 995 1 605 0
704 715 -44 413 -170 0
-126 -117 358 -83 -920 0
-332 854 -736 267 -297 0
204 882 715 298 0
107 -670 -184 579 -246 0
-100 -443 843 -510 15 -184 0
-924 104 529 76 0
79 546 -911 11 898 679 0
635 -200 -490 652 0
477 -347 -959 913 102 -2 0
-909 158 442 -220 0
278 973 259 -441 0
-699 -731 -191 125 -603 535 0
454 -523 -469 -554 0
-407 903 711 12 0
-455 733 -675 -829 -131 0
-230 -296 -765 -265 0
199 398 182 49 46 103 0
-781 -899 834 476 418 -900 0
411 538 -610 327 981 0
-684 947 533 598 0
-270 -396 -846 6 -286 0
72 574 878 985 0
-80 -911 -351 357 0
322 -677 190 841 0
-985 996 933 -722 -434 0
-787 -463 947 -646 113 142 0
405 795 246 621 417 0
-114 -343 -700 837 800 536 0
268 170 390 -744 0
569 -78 841 -100 -667 995 0
228 533 -32 -630 516 -527 0
333 301 -351 -931 0
427 310 -438 67 951 0
-632 545 973 919 0
-570 888 -987 86 -320 856 0
870 558 -65 -139 -159 31 0
-778 -958 -473 548 62 -889 0
-272 -694 -959 -877 235 0
-492 -619 470 527 0
-142 -495 -781 204 -576 -127 0
483 184 533 593 0
-832 -674 -998 595 0
-688 412 216 396 0
838 -522 555 -478 477 -161 0
45 -649 -925 -320 -940 -318 0
658 182 367 -727 668 0
453 171 448 921 0
-156 -89 976 -744 -429 -141 0
-329 -999 196 993 -346 -395 0
440 -781 570 -565 -495 602 0
-118 -166 -994 24 -158 -240 0
343 -535 -332 488 -165 -783 0
374 711 17 166 0
412 497 7 -81 -123 0
188 -746 697 1000 853 44 0
895 -598 636 -696 -407 -881 0
262 716 -792 -789 -9 0
752 -834 575 205 -655 0
153 -669 939 613 70 0
442 264 987 504 -595 752 0
416 -993 85 -732 -730 0
873 806 -739 -523 0
159 -192 587 713 -575 0
812 -296 512 -516 0
-84 -783 -701 -860 167 0
-597 -502 685 -490 -238 0
526 419 729 -51 804 0
88 -1 -642 -243 0
125 -578 992 559 898 -638 0
671 755 -842 880 618 0
680 364 14 -387 -737 0
-916 -511 915 -417 -614 76 0
715 -40 -297 869 0
-604 -160 -849 -833 -945 0
228 -999 445 -652 0
876 -741 702 690 0
548 -978 -373 924 0
-902 -116 -747 615 -501 344 0
461 -735 266 197 0
-912 -939 -291 561 0
-9 -817 445 747 731 0
-566 489 350 -209 -909 581 0
458 881 184 -967 -968 836 0
-933 -621 -896 587 0
-333 -543 746 -728 977 0
473 -856 810 -225 -56 0
981 232 -648 126 -914 -197 0
85 675 -771 -627 550 0
76 -397 827 4 -992 0
216 -622 -131 271 461 0
892 -653 743 923 -539 940 0
-592 -830 307 866 -559 0
564 612 567 382 -346 0
810 -797 400 -998 -501 -57 0
209 961 910 810 0
758 163 -334 712 -857 0
541 -451 642 797 0
-520 -781 -6 975 619 0
633 -393 419 -559 -192 128 0
-708 369 -612 -855 -151 0
241 -448 421 730 174 -316 0
-1000 845 818 -872 -801 0
-204 478 -880 -821 -622 0
361 469 713 -125 0
-228 78 -745 697 -663 0
337 241 180 497 -895 -147 0
-268 -139 -945 -650 0
-184 -619 -826 -579 969 -728 0
512 -907 -981 607 0
960 -141 -303 779 0
-191 148 -264 -940 557 0
-53 119 727 -319 -125 281 0
842 -388 -670 368 -166 -256 0
876 -885 -548 810 -530 0
162 64 153 502 631 0
302 -771 372 997 0
-124 606 -305 481 244 0
834 244 -227 642 -717 0
465 935 324 511 0
286 409 -923 -164 0
-680 -943 -127 758 0
115 -111 -628 -473 -761 -857 0
149 199 -164 930 -216 670 0
-105 -952 68 -514 0
-308 185 -153 -311 -432 -67 0
-842 931 132 360 0
-29 622 -52 -117 565 929 0
-793 -302 73 914 772 -269 0
501 496 -189 317 -227 0
-372 -171 -967 517 -302 0
122 -828 493 -823 -327 0
-643 860 758 728 0
-499 -579 -8 -428 167 0
-247 932 327 -479 0
-563 751 -543 -260 -478 872 0
96 230 793 -804 -867 0
435 36 874 597 -443 -924 0
670 -242 -889 -533 -949 -344 0
105 -77 -984 857 -775 0
148 723 594 -328 -570 -865 0
62 324 -280 -282 0
877 -237 991 -281 685 0
21 -781 -409 236 987 0
-830 -83 -677 -737 866 282 0
-860 500 -153 -777 -232 930 0
-369 850 -117 -276 0
-333 153 -757 -161 -626 0
-3 -922 -637 -862 0
-336 -47 74 -888 0
164 -215 -30 -715 0
275 -206 131 526 0
95 -3 -505 816 -762 0
-401 -982 -828 -54 0
-596 -924 -725 -609 540 0
-764 979 -997 313 -84 -891 0
-862 441 -591 893 -461 0
673 -217 660 -231 0
461 521 211 661 -907 -217 0
-585 -620 142 -284 -334 -926 0
510 -516 71 -693 0
-241 908 237 939 0
372 857 -731 986 522 905 0
-8 -557 -770 208 0
786 -100 -606 238 -65 -236 0
-967 487 -91 -461 776 -610 0
-991 402 -278 -702 -907 -341 0
947 -793 -632 -174 0
350 -137 -903 -45 0
-707 558 -165 -149 -853 921 0
795 356 619 -403 0
-400 849 -485 495 531 481 0
-678 -724 -530 -622 -612 928 0
559 -853 922 -331 -310 0
218 -858 386 409 0
960 599 -267 837 -947 -855 0
-370 629 904 -544 0
-726 416 258 82 -609 0
-622 -296 -170 52 0
373 789 -953 -432 -610 483 0
308 -674 1 942 524 -728 0
-81 212 897 518 0
622 948 -873 -288 0
488 -844 140 -601 -84 0
-443 -791 747 192 -982 -259 0
400 -394 161 371 320 18 0
554 221 328 -737 0
-905 361 -641 181 0
534 894 628 -278 435 0
-417 501 328 213 -958 0
-698 72 806 537 796 -606 0
228 241 -25 -534 -969 -740 0
390 929 818 647 -305 -291 0
-483 299 708 -406 -144 -973 0
214 839 -559 -578 207 -305 0
992 -157 -116 -692 729 0
-384 41 -91 -230 -530 155 0
53 -5 386 426 0
-741 341 937 -520 -385 -11 0
422 -133 692 725 0
570 695 395 481 0
692 -23 -669 705 0
-390 -136 -413 750 373 26 0
889 323 349 -872 0
-170 -53 443 498 0
-942 993 -838 -106 0
-705 431 310 913 982 0
-105 791 -48 -273 322 0
-766 112 932 -171 0
875 -353 -117 -847 0
-833 1 891 180 0
-150 -238 -437 77 323 0
101 707 -895 -206 0
46 830 -489 -867 182 -643 0
135 -742 -457 -187 -390 0
176 -336 237 647 0
-402 -17 545 289 -45 -947 0
815 -451 -121 808 0
229 -861 488 362 785 682 0
-564 615 12 559 0
171 -554 -72 502 737 0
800 108 629 -180 0
407 513 -528 165 -538 -673 0
492 -733 -115 -424 138 924 0
1000 -18 -911 409 0
-912 -360 -810 726 0
9 767 783 -811 755 -15 0
624 -267 343 662 -152 955 0
532 -589 -954 -714 0
-407 301 -555 972 0
483 278 -918 -713 0
-565 -905 -311 -836 500 0
914 -123 -149 -861 201 405 0
552 -92 -387 -40 35 0
-843 -634 -187 262 119 0
-7 -880 311 -965 196 0
-631 576 572 419 98 0
-413 567 -58 -700 -616 0
-886 -722 -232 583 0
-771 -495 -519 604 -558 0
-526 -360 -631 -156 0
277 788 -807 933 881 101 0
561 343 491 401 942 260 0
878 -241 801 613 -111 1 0
-34 -265 378 791 730 0
363 840 -765 683 -949 87 0
802 -656 -957 327 54 0
727 734 331 435 -892 0
-570 -441 -921 954 433 0
-821 -826 -455 -719 0
-60 -182 -214 -23 0
684 -104 -99 52 -182 0
659 -943 749 648 -264 -154 0
-541 971 -716 -278 0
-452 601 -41 -302 -892 191 0
615 -485 442 -511 -278 899 0
-50 879 -358 -125 964 10 0
520 45 -155 -295 0
864 -997 -68 200 0
-958 415 -400 -78 -383 170 0
424 -996 -485 -135 159 0
211 163 -151 994 937 603 0
422 565 -467 314 -610 0
307 758 -161 -875 -337 720 0
116 686 598 204 532 -294 0
-603 -109 395 -329 806 378 0
-349 979 -217 537 63 944 0
-123 872 -314 -384 0
-364 331 731 -553 646 0
-683 370 -387 240 203 0
237 -128 -673 -379 349 842 0
385 260 442 365 363 0
943 166 -315 69 -425 -995 0
-116 -409 383 -302 -863 0
50 849 118 275 0
-374 314 226 -851 0
339 101 413 195 725 0
-434 -166 -14 25 -899 493 0
204 -978 -433 -620 0
-379 -124 482 -407 -329 0
-322 -281 579 12 595 0
88 -304 -258 -152 851 0
