c Easy-SAT formula for GPU Gaussian elimination testing
c 1000 variables, 2000 clauses
c Designed to be easy to satisfy (fast SAT) but large (slow GE)
p cnf 1000 2000
1 0
2 0
3 0
4 0
5 0
6 0
7 0
8 0
9 0
10 0
-646 -808 -563 -301 0
-187 133 -136 -902 -121 0
42 -637 200 181 0
337 -123 704 196 -233 354 0
-717 -177 -82 87 0
-724 -158 -141 87 0
-984 -253 449 -368 0
-927 849 -762 459 -948 0
-650 662 611 -874 -181 0
1000 -641 275 -602 0
645 373 763 281 -287 0
468 -835 -84 285 0
62 222 -947 518 351 411 0
145 598 732 -852 -344 0
-999 882 781 -693 -72 -5 0
-653 -402 -577 -195 705 0
-271 765 -918 595 692 147 0
-271 705 -410 -367 80 554 0
858 -808 -407 930 0
-99 -919 687 -261 0
647 -807 584 696 0
739 188 -430 -990 0
214 -169 -376 -678 652 97 0
517 737 820 526 139 285 0
970 899 715 31 579 -610 0
393 778 936 770 -888 0
297 445 509 464 -256 861 0
914 498 675 -618 -110 0
-975 901 701 381 0
-332 -889 583 -777 474 0
995 -354 -828 497 419 -29 0
459 801 -822 -200 0
763 -360 -831 -297 100 0
-704 -116 900 -416 582 0
-567 776 56 840 0
269 366 234 -993 -938 0
-394 76 -693 -211 0
891 -184 -707 281 229 -946 0
-339 385 -36 898 -996 86 0
-819 -842 -683 794 667 -878 0
38 -802 -654 126 0
-678 -676 307 47 0
-655 677 412 64 691 0
211 -692 -702 -262 942 -846 0
807 -972 462 -323 749 0
-169 -179 122 691 0
326 -424 776 567 346 -941 0
-595 433 762 444 0
291 -594 -334 -337 425 0
-967 889 779 217 0
-961 -360 -304 -656 0
-729 490 -74 -130 845 0
-818 -835 20 879 0
286 356 -512 -690 0
-170 -796 -678 441 0
828 -387 -252 116 989 0
-69 550 -956 -692 0
788 113 -626 282 0
-67 106 -978 -513 0
-8 -889 -917 667 238 544 0
330 653 134 603 0
437 -140 568 928 0
-633 505 -161 -78 825 0
605 793 -531 384 642 -585 0
989 -602 848 -618 72 283 0
-42 -865 79 -280 576 0
100 -180 395 711 -529 -606 0
-51 -317 -861 -672 -21 0
744 -591 779 -297 535 0
-759 -300 126 141 -261 0
-597 793 248 488 -67 0
-560 -931 -433 -590 -727 177 0
49 -538 500 683 -720 -296 0
-756 -952 847 -138 557 0
-652 -16 574 -515 -706 0
-747 -199 307 -586 0
579 -24 -621 166 0
-796 8 319 936 -209 583 0
-629 -96 866 134 602 0
-169 -555 430 941 -424 0
-980 -396 -390 -17 835 0
-477 -856 -834 116 -951 0
65 -146 -806 -798 -954 0
-440 252 141 2 -789 0
-558 -231 891 -650 265 -934 0
696 162 -389 314 234 10 0
-355 595 -655 -885 861 -830 0
-354 -617 -331 -478 827 0
719 -844 415 -903 682 -449 0
395 378 294 -94 530 -273 0
806 -771 -374 -653 0
-511 400 47 421 -700 443 0
-936 416 -577 51 -649 0
627 -967 -428 -696 0
740 256 -359 -744 440 0
-585 819 885 809 -313 0
89 805 -21 602 432 256 0
900 861 583 220 445 -872 0
-573 284 -624 -963 -501 0
-516 220 -867 -350 300 0
435 615 518 757 0
744 29 -541 -229 -579 0
-784 530 710 -779 -768 908 0
-38 -55 -483 -566 0
732 473 819 -513 0
382 392 -617 -724 471 -40 0
656 248 615 -912 0
827 -938 -351 431 766 602 0
414 929 494 -360 0
-70 714 -92 -878 0
28 172 -523 -325 0
-359 265 -234 352 -451 -749 0
27 279 772 753 0
221 -611 246 997 0
-123 -424 -174 -533 0
319 660 341 421 -952 903 0
896 -361 -917 634 -364 937 0
-246 -940 -355 -232 -857 0
-809 -611 -336 183 351 0
-653 682 -911 -662 964 -319 0
-760 8 -571 488 0
-144 -892 562 -293 833 438 0
173 642 -941 688 491 0
899 -854 240 -654 209 442 0
506 453 776 749 0
533 -696 -439 878 761 0
339 978 -491 936 768 182 0
-639 -342 498 530 407 562 0
370 -537 -976 561 640 -89 0
950 331 -500 -131 -393 0
750 -220 -458 -795 -24 0
797 -320 -274 -74 -575 -819 0
700 397 415 -226 650 479 0
-786 833 -690 -239 0
702 -450 497 508 0
-916 953 104 117 -642 165 0
650 606 777 134 -969 -313 0
-611 301 880 -422 0
-629 -938 -587 -987 718 -908 0
-441 980 749 918 -959 -63 0
494 -749 -948 -359 0
445 -882 592 -43 0
668 418 572 -290 0
53 -600 589 -441 -106 0
712 172 -163 -168 20 -192 0
100 -341 420 -690 -295 0
-174 -613 -708 610 -317 -670 0
878 302 116 -821 705 0
336 -139 743 45 0
-760 -104 861 633 0
222 -720 820 666 0
-199 151 -188 -167 0
-993 808 977 -805 0
-169 -464 -322 -373 856 174 0
-859 -227 198 -925 -171 0
-84 96 633 -762 0
-473 -6 290 752 0
-531 386 -387 -767 -546 0
1 -423 659 -57 -461 221 0
-214 -418 -356 -209 -244 0
160 -292 631 140 0
-285 27 -441 -929 0
614 209 -756 -999 0
-666 769 528 191 -56 0
-193 -377 -52 -562 -221 0
-432 -332 -605 361 0
-624 803 153 -318 616 -521 0
-151 680 -421 -461 0
-105 -271 -837 -309 422 500 0
309 -814 -594 934 857 0
-71 305 -252 -497 181 510 0
688 -770 -212 7 323 0
116 -771 -53 -952 -859 0
-880 153 -77 -328 0
174 911 -897 -986 -804 -996 0
-869 -538 391 167 620 587 0
566 151 -558 49 840 -302 0
690 -84 721 576 0
416 318 -910 -635 278 0
-723 186 208 -949 204 0
943 -47 -851 -163 654 0
-950 -667 -867 -640 937 -844 0
-574 615 976 -658 -555 -194 0
365 964 580 282 429 996 0
-673 100 -417 481 775 0
394 -594 205 608 -831 -56 0
-481 799 -353 -195 -92 -68 0
-420 813 211 -660 0
-653 52 -581 178 911 116 0
506 -359 -96 -742 844 0
553 927 -761 -790 0
-213 970 -21 -496 -441 0
201 81 859 433 -214 -353 0
-894 -768 161 -534 0
375 59 448 888 0
55 -691 -211 -924 406 -237 0
-155 -901 181 -137 91 0
-230 -62 -847 -698 -895 -902 0
205 811 -612 -182 55 0
690 502 -240 619 81 0
-582 -689 -588 -707 -185 0
-454 48 -738 401 671 0
-743 -379 648 180 325 -544 0
-215 782 -984 815 -70 -195 0
743 -976 960 226 0
87 -646 -210 952 0
624 178 -282 -324 0
-543 187 -610 486 521 0
2 96 680 -390 -471 0
-931 -19 -512 -625 110 57 0
-628 421 -514 615 0
-787 -516 325 35 -145 113 0
112 -29 927 -728 -279 0
-734 982 729 -318 37 101 0
347 383 -709 436 -542 45 0
250 208 -539 846 0
948 914 941 -412 396 276 0
-277 628 473 53 -23 -366 0
-74 -695 -107 -244 0
206 -452 983 560 0
-247 297 213 270 -408 0
-461 -49 -787 -281 613 927 0
-272 -847 280 -595 -44 909 0
-761 -99 -936 -624 -47 0
-229 555 289 239 0
-549 693 633 509 322 -522 0
888 498 -662 676 -343 119 0
-451 9 -589 696 -45 -934 0
-377 631 325 -148 0
-857 -39 306 -844 316 0
-113 -35 367 54 0
-118 -503 391 291 443 0
257 -242 -186 -636 0
198 176 -385 -3 0
-929 159 -882 -914 0
956 -798 -835 -42 870 322 0
-586 828 692 722 0
-798 -281 584 43 460 -57 0
-350 -661 -414 -127 115 0
-399 746 -679 -205 0
492 -687 466 596 317 -494 0
224 703 -671 945 -956 0
-185 -382 -591 -313 -495 0
258 538 821 -162 0
896 -735 -96 -569 0
280 -900 594 163 -167 135 0
-883 737 542 -500 0
-40 -557 926 -627 -177 -125 0
739 152 335 -416 0
-896 -227 -821 -666 -815 0
-793 -232 330 73 -293 -179 0
536 46 -972 420 390 0
-369 -813 -794 -363 0
495 -248 40 792 0
-802 596 937 115 -910 0
400 279 679 -998 697 427 0
-560 -107 -461 -14 418 0
-518 614 -759 -832 442 -162 0
-503 -162 723 -290 0
-919 673 952 173 -147 0
459 380 839 887 911 464 0
417 651 421 561 106 0
936 404 -64 677 0
576 -874 736 -803 -369 0
-591 -907 -536 -488 527 0
473 -215 -598 -96 -768 0
436 -890 -590 -134 -50 886 0
849 -858 996 169 0
-384 -218 -401 -295 -387 744 0
498 272 129 -287 0
-210 -583 -907 717 0
-720 -683 -686 -272 -485 -308 0
-792 798 -768 -555 -738 0
24 -136 295 -199 0
-851 772 -554 -108 -825 208 0
515 968 -846 -475 -97 668 0
-753 579 414 -746 0
-155 -894 723 -667 -459 0
96 -561 -537 -399 -224 -816 0
-828 -448 -730 602 -496 373 0
-624 -348 -883 -23 -867 223 0
667 531 698 -254 209 917 0
802 -671 881 316 660 119 0
183 -817 -712 -408 0
500 66 -812 -621 562 376 0
843 -279 457 831 -846 -783 0
-20 -288 -502 395 -149 0
396 -608 559 876 0
-934 -495 -889 -787 0
-774 581 -910 -242 911 0
194 499 -382 435 147 0
-51 502 867 413 -122 -832 0
-726 -427 -504 -97 -467 0
-513 -674 -836 62 83 0
138 806 924 668 964 -534 0
468 -2 778 -100 839 376 0
986 57 -189 840 -954 -754 0
579 972 463 -60 -861 -239 0
-819 -742 403 866 0
-561 12 -912 -460 -28 -384 0
880 -611 126 -663 0
-142 290 257 730 189 0
795 -480 834 -324 57 99 0
-472 228 477 -695 -110 0
-261 -645 -117 450 275 0
-53 726 -538 -884 174 0
-433 -43 -897 -720 159 0
-355 166 -300 -217 0
-833 -324 -640 199 986 -428 0
-198 -908 -440 945 0
589 670 953 773 318 0
259 442 352 204 0
-931 37 -870 -872 0
2 -885 126 102 0
677 657 447 285 0
663 982 127 -154 0
985 -623 466 115 762 -685 0
-271 238 -400 719 155 0
855 -231 630 699 -157 -597 0
459 -382 137 618 -241 0
-55 131 910 -123 496 -951 0
567 -520 -914 751 0
930 -371 -601 -329 0
662 783 333 21 536 -654 0
-234 492 -734 -831 0
-488 -750 540 -196 -745 -888 0
-357 15 218 142 756 687 0
-464 579 -153 -888 -626 -280 0
867 -544 -773 782 334 0
814 882 -99 601 0
-639 -179 -669 671 0
-800 589 57 -926 772 -104 0
132 512 879 32 96 -855 0
-439 839 142 84 -260 218 0
-944 47 880 -108 0
712 -843 835 -770 0
-529 273 497 674 724 0
-200 -497 -19 23 -249 450 0
10 -169 145 -325 -427 -609 0
-871 406 452 940 0
-772 -234 561 -381 0
764 549 972 243 -777 -645 0
340 333 196 515 588 0
953 748 -205 -411 0
-678 -450 353 570 330 0
575 -277 -207 -940 967 0
-128 -345 599 575 -148 153 0
16 335 -275 -831 358 0
220 -822 -543 550 -863 -380 0
730 522 -947 909 0
538 -643 808 482 -897 -992 0
-160 270 630 -637 152 27 0
66 250 637 922 431 -469 0
799 -832 -948 -516 0
-519 -27 574 608 723 -495 0
79 245 71 903 0
-165 658 368 403 934 0
-897 -776 -992 714 0
-964 713 693 398 -492 0
264 270 846 646 -333 0
389 141 -143 -275 884 0
58 826 -386 483 0
264 309 -968 -271 198 -228 0
499 -931 -541 300 -855 628 0
-99 984 860 289 0
-435 -898 -253 -400 916 0
-987 -810 -200 -265 270 0
856 624 238 542 638 -621 0
-793 -965 -675 -790 0
995 -522 -865 618 -775 -998 0
-101 185 -720 460 -654 0
-682 -389 -721 278 -686 -562 0
984 186 -931 860 0
391 570 484 512 0
249 -296 -721 432 0
817 -703 -263 -861 0
170 960 -642 343 -323 32 0
584 -290 -26 -657 283 -915 0
130 -905 -513 -46 -728 0
232 -476 568 -638 -6 636 0
849 179 928 102 325 -832 0
388 569 -22 770 0
-625 -885 263 427 -261 162 0
217 482 188 596 -40 -783 0
-493 -763 910 924 0
-603 467 -564 -757 300 0
-958 -258 147 711 -905 224 0
606 530 882 797 -870 833 0
-15 -674 860 802 86 557 0
-956 -920 81 957 -352 0
-859 536 839 -734 -140 0
-953 -816 -55 825 -210 0
358 269 -631 418 -563 0
693 41 270 -298 -917 0
459 713 206 -305 901 30 0
-292 -924 311 -494 0
187 22 -353 -699 404 964 0
-222 52 -193 594 -410 0
-142 853 -105 768 445 0
626 521 154 573 0
-90 -308 -716 -754 0
243 -873 682 -908 275 -735 0
-941 -614 624 426 63 0
725 952 345 604 -556 0
-920 -496 -107 512 -484 0
-778 -984 61 267 0
724 725 741 818 -633 -106 0
30 64 -228 623 -788 -742 0
563 -594 566 149 865 878 0
184 277 -376 -838 248 -187 0
714 -762 957 191 991 0
692 102 -755 382 -772 0
26 902 306 584 708 0
796 428 -784 48 0
-874 478 -352 168 0
65 949 -239 -79 -86 -549 0
-410 131 -537 972 578 0
-637 466 -139 -254 725 0
-162 360 819 387 394 0
-936 444 -160 -77 25 -433 0
403 -791 -975 851 0
-959 446 527 -449 0
-421 595 544 -178 0
-615 940 -990 191 33 -707 0
-291 261 -5 -673 780 -915 0
-483 -690 -752 -111 -749 0
-187 909 -189 -669 0
318 -601 -892 466 0
591 232 665 575 0
46 -169 -483 -808 372 0
14 508 497 394 119 0
-717 -722 -378 741 0
704 726 -932 940 -464 0
-304 767 65 363 964 175 0
114 -353 -978 575 0
222 605 262 587 -535 442 0
-890 -768 918 807 -281 0
-474 533 381 -449 938 364 0
766 -789 510 -176 -949 0
406 -355 16 256 0
437 -48 -574 -288 596 85 0
-97 607 270 -137 0
-476 333 -285 515 484 0
892 -625 776 619 0
299 731 -780 -57 0
-400 -735 -797 63 0
-723 20 -738 -920 0
777 -46 -500 -900 -630 0
98 -842 -485 92 714 0
-897 338 443 -142 -632 -514 0
-658 -394 -409 297 437 -398 0
890 532 -702 -218 -35 428 0
-108 -197 440 -558 -553 0
244 577 948 -414 0
-408 545 -94 312 0
785 -663 -639 -112 0
-303 699 -286 -12 702 0
-331 -271 490 326 0
608 -928 -170 -655 -821 -36 0
626 628 723 -464 217 77 0
-956 924 354 -868 -294 0
891 302 -141 -828 -749 0
619 926 -95 -939 0
155 819 -781 -627 -221 211 0
775 429 -384 443 463 0
-404 711 -151 637 -292 0
-288 529 868 -954 393 -615 0
660 -139 -217 302 -739 298 0
-502 -85 368 -755 -452 632 0
710 126 -701 -786 -15 0
719 -423 -419 -466 984 -717 0
-37 -857 509 121 31 0
-946 -222 724 -107 116 0
-46 761 -769 -843 0
-605 -1000 47 99 501 946 0
-389 -548 851 -510 -107 0
-86 397 789 -283 -866 0
122 -372 -652 -285 0
46 761 923 375 -964 0
-253 -132 683 564 -313 858 0
750 762 -235 -545 0
-213 -725 67 -45 0
520 341 615 483 -294 0
828 -801 620 -77 -65 191 0
-481 644 -752 -261 245 -730 0
-703 745 -972 -512 61 869 0
906 782 232 190 805 -735 0
-633 -297 926 -40 11 -551 0
32 -803 217 -900 -590 0
573 -76 -613 -606 527 0
-654 -636 -54 531 -813 0
-201 -988 -672 -354 459 0
-154 28 374 954 0
583 935 -442 976 -908 0
-998 701 984 -357 -563 263 0
-909 315 51 -678 14 0
320 365 -915 -770 -453 930 0
584 -325 -877 351 0
832 78 903 -203 -833 778 0
717 -247 -186 350 197 380 0
-723 -372 975 288 -206 0
383 -913 388 -310 0
-943 278 30 921 0
418 -102 873 -169 549 0
289 -708 75 311 920 -405 0
-110 -694 -18 861 0
-933 -887 9 762 -433 0
457 854 -125 802 452 0
596 224 275 -298 567 581 0
-652 -868 178 210 -762 0
34 -422 62 486 -728 -178 0
-828 -963 468 804 -907 0
-382 947 445 907 0
-56 174 162 864 -410 -383 0
-208 -520 -825 -700 0
189 262 -313 -333 987 0
-243 -704 -345 909 0
708 577 -525 822 0
-845 195 -171 190 0
647 92 580 -662 968 438 0
816 588 -122 885 -217 0
703 -660 -602 492 -1000 0
-956 -247 -440 -220 937 -448 0
30 -654 -795 -833 -620 0
-429 150 -422 675 133 -130 0
-922 -936 -99 911 -362 66 0
-503 -86 -656 134 -89 0
-292 557 -183 -579 -114 0
229 -290 -923 361 0
-550 -750 827 949 804 0
548 -409 233 -614 -170 0
-412 770 787 604 -974 112 0
-318 -536 576 964 766 0
661 137 -226 -252 -625 0
382 758 -465 -612 0
-497 -532 597 73 959 -225 0
-218 -621 121 633 -290 -420 0
292 -461 -735 -483 -476 0
157 613 307 539 -566 862 0
-790 683 -171 -419 400 -211 0
710 -161 -681 268 107 282 0
-73 -962 265 849 0
709 213 -207 -348 0
72 -30 239 -572 -431 -580 0
865 167 359 505 -896 0
-925 157 565 -853 0
-696 678 915 -443 0
-982 335 -276 -948 0
-567 320 -420 -201 682 0
500 -579 -26 -141 392 0
-186 -85 -236 -619 -421 0
-876 -979 -894 100 0
-813 -839 742 407 0
895 -635 -871 371 0
-366 59 101 -923 695 0
-271 -714 -988 -149 0
-983 240 -938 -721 279 0
93 -918 25 -867 510 0
215 246 -519 -962 0
-360 838 602 -73 176 678 0
380 58 708 692 -274 0
-949 868 -968 -716 0
-388 -397 86 -681 -221 0
-248 193 339 -457 361 0
-555 845 132 -897 143 526 0
461 -781 -508 -154 890 -507 0
235 -269 567 -949 647 0
-111 757 316 943 -993 -455 0
-247 479 733 62 0
-897 -990 469 -775 0
71 -635 -577 -43 -851 724 0
-41 520 428 -142 0
-899 564 -513 869 -121 0
258 542 263 -870 0
857 -788 813 -305 125 0
-261 161 -389 27 -746 0
-905 -54 244 787 426 0
10 476 -115 -956 -641 0
440 782 -268 407 -403 0
421 482 472 -871 -950 0
174 455 -253 -925 0
784 243 -737 -546 0
-330 614 -929 681 -216 -529 0
-114 638 86 660 0
31 -462 692 309 0
-181 654 -351 -193 -171 -968 0
265 35 -884 -572 806 935 0
679 -810 4 563 674 0
-986 259 433 138 376 0
-789 940 -499 -483 0
237 -47 358 -887 0
-168 198 512 -410 41 837 0
-830 -366 -842 -714 183 -470 0
-83 -518 517 861 -836 627 0
-173 -948 137 -384 -884 162 0
686 189 -10 761 0
-263 876 508 -178 -805 544 0
49 275 322 -975 607 715 0
396 -765 271 -869 0
981 516 -610 -484 0
-986 113 -364 715 779 0
-480 -3 446 440 15 815 0
111 -263 -445 529 195 0
-254 -892 -986 -778 -35 0
124 61 -254 -856 0
-417 -546 -22 -667 0
-843 -6 -507 939 222 -389 0
333 528 21 -223 -828 387 0
-907 -741 811 -105 -964 -421 0
-607 962 902 -981 0
-817 -323 281 -280 287 -261 0
-396 -682 486 59 -475 -73 0
200 -38 150 -834 0
-794 -567 -607 940 -255 0
228 -727 71 -782 880 654 0
-555 584 741 662 711 0
-342 427 418 985 0
191 -440 -810 315 -86 0
-347 -400 176 -334 904 -512 0
776 -87 387 -661 898 -102 0
-810 344 812 134 -628 0
261 -386 -698 -532 186 0
960 -206 824 514 993 0
-678 589 292 -729 740 0
-374 357 682 915 0
108 -269 181 815 -829 -736 0
-574 -998 796 -398 -13 -610 0
885 -261 -724 -255 -823 -763 0
908 578 -65 891 204 0
463 416 -552 -157 -276 -958 0
-273 460 724 755 430 -129 0
-323 84 461 -688 -380 0
548 235 52 27 0
540 394 323 -759 0
19 205 237 547 0
-102 -927 -867 6 0
-313 -241 -74 558 983 -738 0
561 886 939 -917 488 0
986 606 692 488 0
456 81 399 -870 932 -420 0
-477 801 -689 123 -213 0
-885 273 798 -343 0
943 -581 456 20 203 -549 0
-44 894 -920 820 369 -194 0
-625 445 -462 -408 885 0
-113 -90 337 -875 0
-484 -239 -340 -548 -628 0
-69 615 116 113 -826 -990 0
-133 908 -75 395 -698 0
989 -186 675 744 -625 0
666 443 246 675 -290 -388 0
790 735 -528 -377 0
-300 -488 -446 436 -861 0
-927 888 -65 -392 216 -234 0
153 214 552 -175 949 0
463 816 -272 -348 -453 0
733 886 214 -437 -256 0
889 623 268 811 148 -621 0
-402 -960 -328 142 -253 395 0
152 909 -771 -361 -562 -164 0
903 445 273 139 0
-517 -311 600 876 0
-433 341 379 439 -727 0
741 128 -849 990 788 0
711 -261 -721 -397 596 34 0
319 856 95 725 -581 0
386 -127 -706 587 930 769 0
167 -591 -141 95 0
-51 -385 -721 304 0
-993 -377 314 707 -718 0
-257 820 915 -246 0
881 -231 441 -806 0
762 227 739 -517 -288 0
-719 582 64 55 984 722 0
-20 -247 -852 681 -745 0
-402 -751 722 265 100 -298 0
-950 -802 -382 -991 -895 0
-992 822 -41 -23 831 -784 0
37 -613 942 -254 0
383 -696 -539 -654 -491 0
-540 806 447 886 0
142 -358 -40 -203 0
-595 884 -735 249 0
-635 -470 619 550 907 0
-508 -426 651 -438 682 822 0
863 907 289 191 0
-386 751 257 863 750 0
391 -996 -541 512 -966 0
-63 782 -819 3 0
-303 -410 -260 762 0
-443 703 12 -451 -898 0
733 -587 -376 504 778 0
910 706 617 -754 439 0
-581 559 -351 -680 158 -536 0
-886 -16 418 135 0
491 621 13 -331 834 478 0
-786 -406 325 -686 0
497 -97 -213 -265 0
-423 533 871 -274 0
-789 -518 -989 675 -21 0
-310 -745 -75 -5 0
230 173 -935 451 0
668 -886 362 -283 31 44 0
978 976 168 -865 657 -141 0
-496 -114 734 -507 0
249 69 454 76 20 -948 0
-323 796 665 375 77 -572 0
-962 -823 -654 547 -400 0
965 -433 217 968 803 0
-307 -700 695 693 78 -357 0
-503 736 -549 -203 -771 238 0
-757 330 -751 613 293 0
609 625 -43 -381 0
-109 417 -142 -620 191 967 0
-541 -816 682 288 660 -199 0
-307 179 -432 -620 0
-520 281 536 -321 446 0
570 -977 824 -256 -333 0
-617 -675 898 126 407 -499 0
371 638 159 385 -593 952 0
-430 -660 -991 -670 -956 -690 0
521 -358 496 704 437 0
801 -790 683 858 0
288 194 -172 432 -274 -520 0
-359 533 790 -621 0
293 -943 -253 -194 0
563 110 520 -955 580 -83 0
873 -790 -663 -94 728 0
961 264 318 156 0
-135 694 -520 -622 0
441 803 -932 560 0
913 142 976 474 0
353 -342 -559 -861 881 -942 0
691 778 -407 -796 446 682 0
-713 20 647 356 792 0
-775 60 -829 660 0
-251 184 -645 655 -795 0
34 -844 760 -958 301 0
-31 -842 427 349 117 -326 0
-895 316 642 543 615 0
-840 -392 -781 -468 380 474 0
387 717 62 -171 150 641 0
-131 -736 -590 -895 -866 0
678 -869 -147 833 0
-197 173 -451 -560 937 0
800 -497 382 -634 170 0
-88 -667 -715 725 0
7 -765 -930 297 75 0
242 481 -836 -548 -858 0
-380 -880 113 -454 234 463 0
76 710 -410 -308 -622 -902 0
-575 429 -743 -486 0
-76 -566 562 106 0
313 -281 238 -866 0
317 344 943 -708 -616 -985 0
-270 94 -663 -954 0
-244 -320 5 210 174 -977 0
-933 -786 474 886 -299 -19 0
279 -695 -166 668 0
-329 -965 -13 -861 63 0
-415 -191 -572 620 -391 0
-35 -372 950 476 -416 -159 0
260 -933 -409 508 936 0
944 670 424 -978 -960 0
-766 -594 299 -503 124 832 0
-263 -613 418 988 -555 204 0
-92 452 510 -974 0
-847 898 -249 -66 -191 0
-395 100 835 56 -816 0
-502 -579 -11 763 0
-505 -645 251 -317 0
656 -179 -961 -7 -16 765 0
-878 344 -286 678 0
824 -802 304 -193 -538 699 0
10 -423 -677 660 969 0
108 319 -971 707 -928 -973 0
438 743 243 -297 780 -7 0
-704 863 135 -672 534 0
975 -105 547 292 -689 0
-634 867 201 -121 -441 635 0
655 211 972 -254 0
485 -832 -225 782 97 -985 0
516 849 668 658 454 0
300 848 123 217 -803 0
185 596 365 -225 -581 965 0
582 -977 -219 -490 0
-957 -428 -497 -647 616 -690 0
783 918 -486 -1 -521 0
-916 -176 -15 550 -588 170 0
-285 -31 828 -507 -938 547 0
-110 348 658 -545 416 0
-53 384 762 -400 0
-999 -379 509 -628 0
442 -856 341 -310 0
396 -607 193 -508 0
-377 68 -971 502 -165 0
146 -765 120 -214 0
-311 -98 -405 -523 0
324 -763 174 -259 -823 -490 0
-200 229 -557 -908 -70 0
721 -994 150 -430 0
-730 -532 405 183 198 795 0
-93 824 -834 176 108 0
783 -853 -681 455 332 0
397 -276 -132 -233 -119 0
-885 624 -260 528 751 0
29 291 783 663 -624 -345 0
928 863 137 161 110 0
-839 745 805 -506 -702 -59 0
-508 740 490 652 244 0
357 -7 738 849 0
-483 981 -617 -390 58 0
787 -409 -118 225 0
552 -805 91 -813 294 0
378 370 277 -667 -749 -861 0
594 -84 -467 689 0
802 243 117 770 0
-801 823 480 570 0
-894 823 -264 -733 843 0
542 -344 365 206 -110 0
731 -908 622 -465 -241 0
-949 724 273 -652 -707 0
428 243 -882 -652 -771 0
179 -940 33 761 0
-428 -2 -881 92 0
436 -173 594 555 0
834 -52 519 -979 -709 645 0
990 -249 -956 9 0
199 -985 968 252 -514 631 0
-482 -709 507 -238 0
-600 -499 -71 -99 697 0
-702 -750 891 -487 -693 0
231 -917 -471 -536 468 -601 0
-899 294 -147 -438 0
-830 136 540 991 -553 0
-477 633 -935 968 0
-338 978 593 -281 0
-360 -329 703 -901 -58 278 0
682 -520 -68 -188 707 -587 0
201 -642 926 -162 -537 0
-978 -786 -799 -574 -899 -776 0
-802 -830 458 827 -514 0
703 334 46 366 0
335 -282 680 -905 498 0
-464 982 -112 528 -491 0
-768 135 545 -252 -238 0
-144 921 993 -859 0
-175 -996 986 -968 -502 66 0
-823 749 318 -668 407 108 0
-782 -468 -277 -459 -48 763 0
991 -486 -5 744 350 0
676 490 279 696 297 0
-793 -204 165 93 0
439 530 651 -606 0
-275 392 695 276 0
460 -316 656 -687 0
732 585 532 -290 -698 897 0
534 -355 818 -524 -277 159 0
595 833 -610 548 0
-269 885 -171 754 0
-177 -509 -261 971 -195 156 0
-601 -826 -968 477 0
891 -616 -373 -576 741 0
-465 -66 -820 970 -157 767 0
-568 -980 -410 -954 -755 0
-209 256 257 208 0
739 -8 -905 -820 0
-935 -370 931 -324 915 0
25 865 -713 956 0
-965 -552 830 350 761 0
735 -233 279 -114 -96 0
-401 -564 907 -22 207 53 0
-833 575 -431 -589 495 514 0
237 -302 -846 5 370 -24 0
-372 251 450 336 -112 0
-472 -338 115 899 229 0
-256 213 -423 208 444 220 0
-786 -846 510 466 -186 0
523 -600 248 763 0
557 -962 169 -872 854 0
-946 896 457 -938 840 0
70 -821 -635 -704 0
625 -697 -640 374 73 0
988 -841 -896 -922 928 -217 0
-283 333 447 -783 0
903 -854 390 -260 0
-27 713 612 728 265 0
-923 488 -418 131 0
680 -739 -323 -158 538 -377 0
-267 146 293 452 915 415 0
927 139 444 330 -230 0
-441 -39 728 573 0
355 -25 -257 -137 -177 0
363 -261 -995 -117 327 65 0
-608 6 257 -269 -983 -996 0
-689 273 -136 680 951 371 0
892 33 -539 79 -591 -911 0
-788 729 575 217 0
886 466 662 694 0
773 -578 -241 -322 -991 -955 0
-228 250 334 -13 552 -41 0
-160 -861 -957 35 0
-372 989 -392 12 384 -855 0
623 715 707 929 0
-222 -244 913 -333 0
374 -989 -608 -960 -573 215 0
246 -214 883 -918 0
550 323 873 303 0
747 230 -423 -527 0
145 -48 201 -641 0
-388 772 950 -292 806 -177 0
330 -128 985 -165 -34 0
-832 -862 550 959 0
-573 -534 -500 518 0
-68 -644 114 -761 0
-452 562 375 5 0
990 -876 -57 -716 926 0
-163 -717 -814 776 56 0
-949 -894 -270 -409 -911 0
-319 -580 -772 961 21 0
-209 -577 -832 -722 -772 -964 0
-175 940 -141 -454 508 0
905 -730 644 227 -862 0
-509 -546 -135 246 196 -197 0
-664 44 561 -945 349 0
-700 -664 379 454 0
-340 -862 -709 137 0
-389 672 906 66 -735 -985 0
589 428 -512 170 770 0
359 -945 396 -662 0
965 -235 245 202 53 0
-412 -207 -927 -50 953 0
7 309 595 -68 0
45 389 745 -368 867 157 0
408 -550 -404 -605 -818 -513 0
151 168 696 -733 0
96 -954 118 -255 -429 0
-855 612 609 -689 -919 0
-467 -861 340 -272 -318 0
-840 -469 281 -873 -821 -769 0
899 413 -748 622 0
351 421 596 -498 626 -755 0
-411 -756 612 864 139 487 0
-196 -922 -645 -103 -636 0
-588 247 -130 -557 -312 884 0
-816 522 -880 -323 451 -730 0
818 91 -896 -322 -298 -963 0
-558 -846 -11 278 -281 0
236 -662 -873 294 -297 0
-580 -27 367 -800 -653 0
-29 822 115 794 -516 0
881 -163 -583 -13 0
-135 -727 484 -155 816 229 0
969 731 363 774 -516 0
-598 928 569 -647 0
535 -130 195 -762 -725 -922 0
-657 -409 -582 -303 446 662 0
-935 -911 511 545 305 0
389 -391 761 -474 662 -771 0
985 -126 -697 103 0
-742 -210 17 -227 521 0
-507 401 778 -158 -210 685 0
380 668 531 -161 -779 0
626 561 -804 100 311 0
896 140 -484 -258 256 571 0
-649 164 -83 413 -128 0
-192 381 -804 -705 -549 0
-157 -566 385 -327 0
-58 606 743 -1 0
-22 -297 929 418 -502 -328 0
859 58 -363 -770 -845 0
-839 156 -607 -378 -1 0
-514 -750 995 965 100 936 0
764 652 -107 60 240 0
-481 -535 -589 65 0
348 -446 417 -875 -229 -290 0
-378 678 688 -728 0
465 552 -281 816 886 0
425 -306 73 780 868 0
-134 -766 470 -537 -869 0
418 952 -302 215 314 0
853 416 507 -420 0
459 276 510 433 0
-892 -632 631 605 0
-10 -388 -268 226 952 0
989 -277 -921 -524 998 0
-993 -545 580 873 0
550 -533 736 -227 635 9 0
-248 -382 -684 147 -839 602 0
181 -77 434 573 -564 0
-196 226 -700 -725 643 -419 0
370 -488 937 -44 738 0
-273 331 716 874 885 697 0
-108 73 462 601 -974 0
560 762 700 201 -262 -581 0
-752 -130 382 -473 -191 0
-731 -611 -345 -696 0
512 -414 353 589 0
-198 -16 93 -386 973 0
885 -697 -650 521 0
-473 451 -776 896 0
704 638 465 590 -530 0
-140 141 -700 968 -362 0
252 -726 37 -437 82 0
872 -242 -42 190 0
993 267 995 262 0
507 584 -414 57 0
-358 -241 240 -217 0
-157 170 16 205 708 0
-599 217 573 716 -697 -377 0
-312 -224 60 979 0
479 -681 663 -524 734 0
317 246 553 -973 163 -954 0
414 292 187 898 943 0
-466 -569 199 -813 -493 -710 0
874 -585 -213 -531 -729 243 0
-188 -317 253 -596 571 0
-689 -130 554 -170 -566 -632 0
902 391 -471 418 -236 0
559 -506 -47 729 0
783 -17 -901 928 -44 0
636 479 162 490 0
-396 -324 -943 539 514 0
-234 2 526 -320 -558 0
951 120 -674 -102 0
-391 756 -647 -912 546 0
-968 427 869 -772 757 0
-374 -997 972 -703 234 0
490 -388 -946 -527 -619 0
-938 -343 -8 275 624 0
410 -707 -275 -485 -998 463 0
303 25 -769 849 198 0
748 374 -651 134 -486 626 0
352 662 -170 844 -127 904 0
29 830 470 521 -605 0
-358 -464 511 -378 0
347 909 330 -383 29 0
-848 -901 18 383 -422 0
-304 -212 950 -172 -792 0
603 -95 839 368 0
-84 -926 630 -670 465 -226 0
-375 191 990 -185 0
238 -264 -840 -456 0
396 -516 205 60 64 0
749 253 954 -409 475 0
821 549 7 -863 -391 0
888 47 -363 -710 -463 0
-765 -322 864 171 0
307 312 540 739 0
-882 -221 -456 852 0
-911 766 178 39 0
-648 726 455 -787 -8 0
442 -69 898 94 331 -439 0
-163 -287 -306 -724 0
957 606 -398 27 -966 0
-820 622 -979 527 -618 85 0
-655 247 148 -1 0
-1000 984 -54 -169 0
420 -149 899 -697 0
-175 -737 -970 442 -787 -199 0
-610 639 429 883 0
-327 647 322 -198 -462 0
-646 32 918 920 377 262 0
680 -949 567 -111 878 -210 0
674 -509 197 -93 592 0
-835 -48 265 548 0
-515 -298 982 -160 493 -280 0
56 -10 -866 242 -813 3 0
782 176 978 -746 460 199 0
394 881 165 904 0
-47 562 163 427 -65 642 0
949 -473 42 924 708 0
-293 -505 -911 242 -145 0
-924 43 -331 -397 502 -419 0
249 -86 -394 -438 830 0
661 117 -532 218 -468 129 0
250 -117 -327 -657 0
-592 -664 234 979 -550 0
-116 -303 -123 -846 662 0
-848 -42 18 -529 0
-491 -720 -537 502 0
615 -894 -204 -526 -205 0
766 -425 -747 507 -798 -402 0
-268 -963 143 -734 -329 -661 0
952 172 -99 883 -2 0
714 -428 541 -199 129 0
911 -906 431 -852 34 -929 0
967 535 -216 -409 0
-292 -897 525 -367 289 0
-301 890 99 -77 -293 -502 0
237 406 433 308 -522 0
284 812 310 826 413 196 0
299 818 -16 766 0
-812 -954 -359 -45 -923 -664 0
-676 488 422 38 634 922 0
936 739 -536 668 271 825 0
-721 152 -16 -556 -894 0
-382 171 303 -7 -639 0
-65 678 563 -607 438 0
620 773 705 798 0
126 546 -990 -123 -429 0
-513 -673 -60 550 147 283 0
874 139 391 -430 -120 0
540 -893 -450 770 183 -601 0
-143 94 562 -183 589 -97 0
-358 985 -483 -902 -47 0
-443 26 378 316 0
726 247 -190 87 533 0
-608 78 -298 770 510 0
-768 78 735 147 0
-337 146 138 -463 -133 -288 0
-520 -123 -154 -608 125 0
-325 8 156 20 -835 -376 0
999 -920 334 -658 -634 0
604 499 -489 -381 291 -880 0
406 -569 669 -672 -798 0
-160 247 963 -475 629 0
167 -439 417 -31 480 0
-443 -806 783 -568 0
565 748 889 538 0
-478 40 455 958 0
377 -898 727 -926 0
-965 966 -342 759 68 -801 0
-938 230 -332 -159 999 -337 0
-921 -785 535 183 0
-511 108 -557 786 583 -927 0
700 -392 -127 -413 0
-801 -95 -114 -811 -495 0
-298 609 -822 -761 -545 0
488 964 -221 -316 17 -602 0
-220 -739 -144 -141 319 -19 0
960 -914 -690 -140 0
-844 431 944 883 0
853 -290 -851 -664 -981 0
99 595 -541 -234 -613 0
464 -626 287 -953 0
868 10 -170 449 5 -856 0
-411 -10 898 -866 0
655 750 -534 242 -325 0
216 802 -835 967 0
-531 -74 -713 858 -689 -947 0
654 -699 -86 873 982 -523 0
817 -485 108 628 -157 0
299 -272 592 53 -839 0
-292 -899 24 695 0
263 -96 -586 390 686 -526 0
-81 -603 876 -223 0
61 176 87 -809 961 0
87 607 214 -642 0
-581 457 -76 248 -417 665 0
-50 -887 -406 -944 0
908 855 134 200 166 0
254 569 506 -930 -422 0
-560 -845 -153 -247 678 0
-421 -248 -406 -85 0
190 -332 598 -344 0
426 -390 74 -489 660 0
286 -670 -140 -818 0
-41 616 -262 160 -226 -204 0
-745 586 431 -541 539 17 0
-928 466 226 633 -792 0
580 832 305 -79 0
-984 -780 -644 931 0
-693 -192 445 -521 447 0
62 -151 -294 812 0
977 880 780 -220 0
-996 -809 847 770 0
98 823 -330 252 759 0
100 13 806 -289 621 0
-672 -892 485 -350 228 0
-814 957 527 169 759 0
102 -362 891 -142 -786 0
130 -680 12 -165 -15 0
-880 790 664 -219 0
634 28 824 935 -809 60 0
380 -161 -568 103 -759 -17 0
-214 363 794 -554 0
-460 -97 123 -1 -703 -678 0
-205 -938 189 -369 877 0
-384 552 -828 119 835 -274 0
-509 221 -757 217 -565 177 0
-464 105 469 -471 0
-317 895 682 670 -141 19 0
-79 -686 -883 582 0
92 -574 -70 -451 0
311 1000 -8 932 -983 797 0
911 465 260 -485 -975 0
288 664 -218 514 -944 0
-636 -183 -91 907 0
-429 -666 783 507 642 0
-87 569 -447 170 477 0
637 -401 720 -584 -741 832 0
573 -758 -864 528 648 47 0
-354 -366 497 -80 -292 173 0
767 -118 434 556 65 0
-425 128 -97 410 -668 -785 0
-674 -712 -147 -605 110 0
-714 795 -354 346 719 722 0
720 334 937 -862 -319 0
826 -936 630 -277 -921 0
275 651 951 -288 44 -832 0
652 896 -747 94 327 316 0
887 236 787 371 0
932 865 437 -41 -238 0
-405 16 311 -936 0
920 -431 -652 670 0
249 -434 -86 26 -882 0
-125 -767 -126 -573 0
885 -782 882 -619 883 0
389 504 802 583 750 668 0
367 450 -767 -168 0
-759 -99 -767 230 0
-346 324 -565 -607 -326 532 0
-282 -171 -649 -761 0
-439 101 702 -664 54 367 0
776 -734 221 -436 -496 988 0
69 432 330 -877 -906 636 0
-142 -371 -536 -217 -824 0
260 827 635 -784 634 -738 0
-435 938 981 -191 -746 -966 0
369 841 379 652 733 0
-148 -327 -882 200 0
-362 -637 94 523 -335 0
-315 -607 609 446 -116 11 0
994 487 661 224 -926 47 0
225 866 -329 606 629 0
-105 475 -664 -825 201 0
270 948 134 -420 -132 -464 0
-636 -365 249 -744 -926 0
889 -59 614 -474 -685 -123 0
134 -675 -865 -690 326 -269 0
712 394 530 -317 -597 0
-533 -499 413 -203 -726 976 0
-738 391 -992 428 0
-99 407 758 -975 -883 -353 0
411 41 505 696 292 400 0
264 348 149 279 -798 0
-807 951 624 -525 0
394 -377 849 787 -19 -425 0
959 -729 732 5 -886 0
-364 463 763 -98 29 536 0
934 -21 818 -560 -38 0
365 -180 543 286 626 0
143 -970 126 -803 0
403 -792 93 302 -98 0
801 300 871 -550 -963 -714 0
-259 421 -476 -958 -776 587 0
-319 -157 628 324 42 176 0
-923 -950 -171 551 716 939 0
512 -358 -439 494 0
-488 -8 429 -911 497 0
-741 325 113 811 -339 -14 0
-563 445 477 -441 0
8 666 -966 -895 -102 608 0
-490 345 890 678 990 0
734 -21 -162 167 -865 0
-672 -303 -548 188 -934 496 0
203 593 -197 891 861 0
138 -194 -78 -561 0
-168 51 -922 -763 -270 -161 0
142 -292 613 975 -768 -425 0
944 -570 -593 -651 0
-483 985 984 486 -624 0
-47 245 720 -666 0
-489 -52 871 667 0
-703 -869 -425 -692 0
732 -143 410 168 -231 0
-132 891 -727 -491 0
833 -348 -726 573 533 -317 0
439 -318 -377 708 0
743 300 362 231 0
-377 966 409 284 0
-174 3 524 -339 0
292 -857 48 -418 -29 592 0
705 809 120 637 0
404 920 -710 -734 0
-496 502 181 -942 936 0
852 472 126 -564 345 0
-660 887 818 -819 0
-277 770 194 -812 -939 0
672 -904 -521 -94 250 0
665 -219 -66 689 0
-447 -307 176 -988 -207 -131 0
-659 -172 -641 -42 -997 0
-805 482 -449 153 47 0
-379 -489 243 -203 531 0
766 -641 635 -997 -773 -106 0
-579 40 281 967 4 0
-454 656 931 -531 0
-537 -556 -791 810 -522 0
-715 901 -964 651 -525 -829 0
-428 -580 787 297 0
-102 -528 -284 -35 769 -803 0
-578 -617 -994 921 0
787 -648 655 -588 0
-447 535 922 581 -597 0
-845 -851 -444 -565 0
-171 -187 716 6 849 183 0
-412 -359 797 -475 -985 0
794 437 -593 -654 0
-647 809 -687 880 -163 -451 0
655 703 -508 253 735 0
-97 639 -653 -408 -850 495 0
-355 948 -634 -733 305 0
434 -396 -916 220 758 0
-619 409 -857 -396 -610 -100 0
315 -433 617 -779 0
-305 -206 -187 623 0
715 276 415 770 708 -434 0
479 921 -955 -400 -430 0
516 928 986 333 0
242 -655 957 -55 -448 537 0
438 -872 148 6 -983 0
728 291 461 707 751 685 0
-326 -233 787 712 -898 0
-68 967 763 534 0
-879 842 -480 -392 969 -266 0
889 -665 -39 -43 772 -184 0
-85 444 459 818 0
274 -491 -758 -930 302 0
-98 -122 406 557 0
286 177 898 -610 0
-818 -674 801 -767 0
-90 -110 23 -176 0
-89 -575 533 91 0
249 61 373 940 0
-310 -52 -790 434 -97 -746 0
999 355 -502 -139 0
-790 712 100 -987 0
675 -521 -509 -632 0
284 -408 -2 -680 920 -409 0
-743 230 186 487 0
558 -518 -313 -312 -552 838 0
811 -572 -270 314 40 -318 0
882 939 548 981 0
-851 703 618 538 -415 -870 0
-885 -960 -347 -99 -100 0
-160 -596 524 511 532 -6 0
541 -873 211 150 0
601 -707 469 -219 0
598 493 796 947 -595 433 0
421 757 -56 826 0
580 246 -905 547 -932 -191 0
145 947 -8 -312 0
-67 -104 83 -530 0
854 -820 -796 -509 0
-582 -52 12 -751 0
-495 -466 -851 -363 154 0
-641 -480 164 193 -383 0
-820 -234 64 280 0
404 -538 -99 -315 483 0
294 367 -994 372 -216 0
-435 902 405 540 403 0
802 469 -417 74 0
-369 -335 -81 -949 23 451 0
-96 774 866 -7 172 0
-85 -11 -814 -589 -553 956 0
507 -437 429 545 261 0
-585 -465 -126 -540 947 0
956 278 616 -524 -438 -776 0
-562 102 446 -73 -946 0
281 -613 560 -792 0
-202 194 460 -94 989 0
-593 -11 -218 -615 -380 511 0
125 -859 -441 -139 185 -163 0
-406 933 672 -472 271 0
399 171 -117 -839 0
979 -780 -606 -288 -410 0
874 -294 685 99 0
-691 -643 937 321 263 0
-952 -771 -918 -710 0
-750 534 -45 792 138 -261 0
-708 224 -512 -24 0
-276 761 -209 923 493 0
34 -299 801 -562 0
-939 15 -597 90 -105 0
643 -216 135 123 0
-860 -283 -235 580 477 0
-727 -975 223 -454 363 0
-216 344 149 369 512 0
-29 -995 -409 332 0
-795 103 112 316 0
653 -410 245 -344 0
145 -694 -830 553 0
-576 -170 -136 250 145 0
931 -95 729 290 -17 -700 0
548 -782 702 918 0
-785 477 -863 -284 0
711 -703 -331 -45 -393 0
986 -494 -302 -911 -326 89 0
-61 -908 680 -182 0
-848 -273 212 -247 0
333 -606 777 -666 0
667 -373 -253 -333 0
327 168 688 -412 0
375 -629 -350 71 0
841 123 -649 361 675 -453 0
-151 -345 -674 -390 -124 0
817 -866 406 544 0
-54 734 -103 -481 332 0
-648 60 -455 751 0
-826 703 482 -468 0
16 -992 -974 -359 -914 -234 0
968 -166 481 41 0
717 -276 -189 945 842 844 0
-785 159 273 -303 711 0
569 -208 -483 838 -443 120 0
949 -522 -372 -442 0
865 32 990 138 0
-927 -604 -553 228 0
986 151 189 763 945 0
-355 -578 303 -422 -888 -246 0
-334 -727 373 566 -916 85 0
111 555 435 129 -618 967 0
-993 -943 -608 207 0
382 985 -61 -420 0
-628 501 -335 157 -143 469 0
-10 406 147 -313 -603 0
725 -737 153 645 0
-647 -756 -208 846 0
-661 332 947 -922 489 0
691 -697 -881 -596 0
478 736 -867 -457 0
-238 924 80 -896 0
-990 -11 303 -44 556 0
-945 -435 -918 -547 -851 0
686 -446 297 749 159 0
-175 475 -49 -792 -622 731 0
-789 653 158 27 -145 0
639 -541 457 194 723 -701 0
-499 -294 -277 760 0
-302 372 -230 -233 748 207 0
372 -198 57 649 0
672 742 83 203 -685 0
199 74 897 -569 709 0
-54 -947 -245 367 0
871 488 -572 -41 208 274 0
-239 822 743 98 284 0
374 143 795 487 643 0
487 942 158 -870 0
829 385 -196 420 -281 0
123 868 644 -547 -732 -87 0
974 719 692 -717 0
-788 -800 -790 148 -41 0
36 -531 333 31 0
-192 -596 -75 -458 974 0
-579 303 -129 999 -469 0
694 -929 705 -453 0
704 149 154 -364 41 -172 0
-170 483 -71 321 -356 -355 0
41 138 231 389 0
-561 -678 -583 -894 -662 -277 0
-876 -363 -623 119 0
303 631 -833 507 0
-408 -139 -682 -617 -68 0
-367 359 -661 -252 808 0
289 819 6 -36 243 0
-77 -767 397 -578 -256 63 0
907 11 503 166 0
563 -986 878 -447 169 144 0
845 -181 -928 -747 575 0
427 329 -358 -162 -356 524 0
879 417 -484 539 0
931 892 257 -758 0
130 958 -918 -535 0
901 374 -515 -298 0
-127 21 -965 919 -555 436 0
881 561 231 -612 390 -156 0
377 128 700 -581 -332 471 0
-703 -346 -69 934 0
126 378 151 -822 -585 896 0
358 -303 300 243 200 742 0
858 875 -840 440 -20 475 0
-551 -252 417 687 -708 999 0
-595 -774 949 807 0
-611 -620 -230 -138 285 102 0
-601 738 -861 -867 -72 -554 0
-786 -949 521 98 229 0
-436 286 -521 410 0
271 654 -138 -593 0
802 -697 -113 -816 944 0
-823 -892 420 -349 808 0
831 357 474 359 -983 -708 0
-114 -340 -798 481 533 0
248 939 -950 503 -509 0
68 -177 38 -966 0
-764 165 -239 -370 47 0
-822 -395 -369 657 813 213 0
739 -281 700 427 518 0
-354 917 -37 -836 906 0
300 112 468 -725 406 0
621 233 104 -416 -152 0
712 678 -278 620 884 0
85 -511 572 -343 -653 0
-279 289 191 -382 949 -223 0
-362 -907 -27 -813 -645 142 0
38 -247 510 -621 -545 0
290 -979 809 424 721 902 0
-166 830 804 -762 0
90 -617 653 358 -118 434 0
650 -556 -589 -981 66 -230 0
-102 531 379 557 -736 0
-209 945 98 740 0
572 832 368 -820 305 0
-307 -258 270 -756 -710 0
-720 213 -985 -488 -881 -462 0
650 140 -14 -960 0
853 979 -876 -168 295 -460 0
-566 165 76 -71 978 -535 0
-191 -801 648 -186 -673 0
893 437 125 156 -105 -700 0
71 129 931 332 -647 0
-165 -68 -702 -72 0
840 458 -70 693 266 0
801 -132 -675 -727 -474 -143 0
-765 -920 146 -808 0
171 366 -332 885 -759 0
266 -271 439 -234 0
622 471 9 707 566 0
-540 39 413 68 0
-270 416 222 631 -743 536 0
-752 -730 -62 -78 -139 520 0
-637 591 742 385 -505 175 0
496 -396 461 -61 -730 -623 0
-302 -361 -83 11 0
-164 531 457 471 -612 0
-938 -816 -222 -150 0
518 443 -157 977 0
806 -472 -143 -618 -318 0
-671 74 982 287 0
-425 532 -590 -807 0
961 -106 969 376 754 0
-662 939 533 772 0
-830 -662 264 363 -76 0
726 -831 -326 498 0
547 -506 -991 -810 694 362 0
-998 -648 -350 -266 831 534 0
143 -441 -353 36 358 0
67 169 833 -264 65 -333 0
-505 667 -245 -323 -949 0
-690 545 141 931 330 0
97 893 112 849 -423 -592 0
-599 861 -384 -218 0
-351 -56 371 293 -376 0
902 -143 -323 -498 310 -141 0
-135 -37 -39 -495 -513 0
582 -636 -189 -688 0
512 929 899 827 0
933 856 -916 -854 -20 -777 0
-911 802 -935 -285 61 472 0
-453 -99 98 474 0
115 -315 -860 -789 508 -178 0
-578 535 131 -31 700 0
-546 -490 -108 633 -63 0
686 -729 -511 8 372 -417 0
-802 780 -530 -738 0
-779 996 511 -86 6 829 0
52 -890 -870 -134 75 -452 0
324 -359 -874 -986 538 -456 0
356 945 -492 158 -656 256 0
-259 -577 -38 -65 -983 0
-229 -60 394 -783 0
264 769 709 4 0
8 -349 -842 647 0
335 -49 -226 894 0
855 -645 -492 -940 0
-660 -647 -619 -984 0
-691 259 -946 279 -383 99 0
-842 446 -93 502 991 531 0
699 -449 -530 229 823 0
962 -571 536 -219 0
341 -802 -109 -194 0
-155 450 -813 -516 -341 -251 0
884 67 931 -941 0
878 -983 -79 363 -543 -407 0
-184 30 997 -3 0
-39 120 -69 799 -440 0
354 -853 -762 396 -824 0
-642 -619 249 233 425 -30 0
680 26 -612 -928 483 -857 0
355 -699 94 840 -275 0
-8 179 -534 -116 832 0
-288 211 890 -693 79 154 0
677 -503 -533 891 0
-227 -948 520 -867 652 0
-751 178 848 946 823 -828 0
-792 17 810 500 0
-17 -461 -363 -999 956 0
-278 392 138 -596 155 647 0
274 807 334 126 -19 124 0
908 -812 793 324 0
753 -224 332 -547 0
608 -130 -88 -737 483 -872 0
33 -871 177 385 203 -993 0
607 -584 359 -872 -104 252 0
-612 345 -997 8 0
80 589 -572 -17 -439 0
-290 820 -728 -148 0
-199 -983 819 -453 -246 0
175 556 102 -722 0
-87 783 -303 -358 -211 0
-408 936 -413 824 764 0
-434 424 364 -508 -15 0
-87 526 -763 875 906 0
-675 -98 867 -641 0
-684 -371 -750 -713 7 0
192 678 80 -66 -229 143 0
97 209 -102 644 0
-243 -542 -669 -551 -977 0
669 -167 -270 603 0
-969 -621 -800 912 172 -396 0
165 -736 879 -813 -19 -892 0
-840 -476 681 406 0
561 528 344 629 0
983 683 124 -866 928 0
-148 -92 -669 811 -692 0
270 791 -328 902 477 -358 0
-854 -772 -813 668 0
944 -36 -23 282 0
-815 -330 -617 764 -643 0
-663 -906 -781 -320 -157 0
-5 893 -875 -682 0
-276 640 -933 -626 0
703 -427 -843 -12 -768 0
241 -93 -398 775 -174 0
521 -909 209 724 648 0
-816 -593 993 512 -650 0
-517 -92 466 206 575 -928 0
329 911 460 -23 -225 0
-865 704 -611 565 0
-676 502 195 -956 136 -570 0
-792 -398 252 804 487 0
-137 -647 -649 535 103 -299 0
224 685 -369 -197 347 0
543 358 348 540 -465 -847 0
591 -945 -122 603 928 -349 0
266 -945 -383 280 0
414 -716 -655 -74 0
-80 299 381 678 -538 0
247 -554 779 -206 965 0
-118 -202 270 -860 0
417 779 165 159 -964 0
-634 -381 22 -41 548 0
560 58 -133 257 0
874 -62 879 971 0
-272 -847 289 356 0
139 -997 4 -254 -490 435 0
499 183 -573 -187 0
638 496 -957 234 0
-19 -548 -570 -216 756 0
-558 21 -287 202 -527 -39 0
-703 711 71 -268 0
281 -933 853 -961 -644 0
-425 128 -869 826 0
167 894 -32 396 0
859 -810 754 -531 0
-399 609 422 -245 446 472 0
-973 -842 71 -491 -816 953 0
285 528 882 -31 120 -371 0
-83 -723 -230 -185 -786 681 0
403 810 5 100 0
-331 652 -106 549 -945 0
-72 -636 142 275 0
473 262 -431 -236 -430 0
66 -717 -822 -540 -239 -417 0
-125 156 -279 -979 908 -287 0
745 -447 604 -663 -992 0
-477 770 45 561 705 -564 0
-185 -482 951 461 0
-129 -405 -195 -818 0
609 378 826 580 -500 0
-876 -534 707 930 187 985 0
426 -215 -213 -834 840 -752 0
709 -448 581 -839 0
106 -858 -489 -91 0
-68 -401 758 795 0
881 896 -466 -776 -861 0
-967 852 -338 -866 -698 -675 0
-173 910 -236 977 478 -183 0
879 475 449 22 -440 0
-530 -663 -19 7 0
-928 -377 -160 487 -688 0
662 -744 -214 186 0
764 -430 -456 -287 0
-660 174 -752 53 0
993 408 991 597 935 0
742 894 980 -835 -228 0
852 457 -700 -475 0
-882 352 354 -286 720 0
-732 -977 845 614 -349 769 0
-884 -818 488 285 0
-740 756 499 570 -506 -777 0
-942 393 -443 514 0
694 696 860 -441 -712 -553 0
817 992 138 334 -729 749 0
799 167 -41 783 51 -77 0
-643 721 398 -609 0
-889 387 932 566 903 0
980 616 -123 144 0
-419 -143 179 -350 0
270 -278 -339 80 186 0
-79 -357 315 -348 715 0
582 358 -432 -182 477 0
-710 856 840 -986 -161 0
-644 -446 286 466 684 467 0
-569 -469 -796 807 0
394 -243 96 468 0
-87 343 369 789 0
294 -509 61 -60 -941 852 0
765 766 835 -5 -692 459 0
-517 -558 -843 -861 0
-630 -594 602 -961 0
111 -692 -730 296 -231 -261 0
-225 -643 69 849 652 0
297 186 -589 233 59 932 0
-206 152 -835 -260 0
-614 508 -561 663 0
-898 753 -911 -674 0
-22 606 289 191 0
36 -205 859 -390 -876 0
422 -229 -803 821 0
682 -283 -436 815 0
702 -150 633 241 1000 197 0
-379 35 936 441 0
343 800 835 667 138 0
410 721 -546 -660 387 221 0
997 -326 257 88 -202 -919 0
-55 878 -151 472 -86 -836 0
-455 -855 -713 -909 118 0
213 -699 -777 -993 693 0
249 504 924 -83 -548 0
534 337 96 -634 0
81 83 112 -955 0
-832 600 -96 -91 0
-120 -61 -532 -161 -695 112 0
774 100 94 740 -319 0
-792 -860 -435 772 809 -890 0
115 -782 878 -298 0
911 429 -163 -577 0
320 -324 316 371 -465 -787 0
-381 -803 946 955 0
847 -338 155 523 307 568 0
959 912 429 -966 -96 -151 0
775 -993 63 -189 -207 705 0
531 93 508 -653 0
-70 175 -619 -248 582 -793 0
816 -66 259 -357 -414 0
575 -362 979 898 0
69 -769 -791 758 -128 -749 0
877 -917 -269 -499 -91 -959 0
-703 -67 685 682 89 0
480 -871 424 559 -695 110 0
-139 975 112 550 -300 127 0
-283 -866 303 -943 0
977 -484 845 281 -578 0
-55 -115 247 926 73 0
650 -723 -750 770 831 0
-444 488 296 539 -947 -196 0
175 766 -765 237 0
-526 -272 723 542 -183 0
-976 577 709 528 0
182 48 -76 -119 0
996 -383 362 319 707 0
-107 -114 -827 742 -896 -536 0
909 -934 -709 800 -305 0
-139 -30 -580 180 500 226 0
921 232 -546 -71 0
-974 85 -806 634 0
-174 27 908 742 0
-16 -352 -788 422 -101 0
-337 485 759 682 859 0
433 932 314 -152 266 340 0
-371 125 -880 694 -973 0
-701 840 -390 354 -827 728 0
412 742 -942 164 0
881 503 -236 613 0
311 931 -724 -143 0
250 -909 -797 913 -801 0
-641 709 347 985 561 -441 0
-278 568 650 888 730 -949 0
-299 -981 999 -564 -496 -890 0
-316 -902 -436 -554 0
-599 486 -715 150 -531 0
33 -763 905 -627 0
768 -179 507 482 0
611 -112 -475 851 719 844 0
-316 -324 -559 604 0
223 -556 -880 7 0
-394 218 -822 -327 0
556 -33 972 789 464 0
-664 -441 967 -711 0
-438 -75 326 -298 0
-840 -937 698 707 -713 0
-569 595 -578 450 878 0
-153 795 -294 446 -700 0
-579 976 426 -158 -463 -358 0
192 -767 190 209 0
314 -824 886 -229 0
327 -529 -548 660 34 910 0
110 -208 -547 441 0
-203 416 -785 -765 0
-634 490 131 -152 904 56 0
792 -589 -288 463 41 0
-222 567 -675 -910 -742 380 0
711 271 -77 815 0
-811 396 174 -845 0
756 -503 -371 81 595 0
-81 -18 -998 -126 0
212 -218 -219 251 -280 -584 0
-890 -437 -408 135 733 0
-229 548 541 142 0
-534 -357 861 -967 585 0
-763 -513 387 -726 616 -170 0
51 -851 523 854 -548 -916 0
-829 297 -37 -453 839 0
-4 18 -987 142 58 -194 0
-851 -211 264 761 -410 0
-202 214 917 -135 0
466 447 478 -217 0
-774 272 -874 -234 0
-122 371 -164 105 689 0
-95 -574 -890 822 776 0
-61 -356 -902 992 941 0
-106 -99 104 -364 118 0
-594 -158 -60 985 -485 0
-184 -697 674 471 -157 16 0
-424 343 927 987 106 -89 0
813 -842 923 -553 -955 -927 0
181 128 225 461 0
-394 809 -953 -516 0
-965 508 429 852 0
-813 259 275 -778 112 0
72 482 38 -798 -610 0
-287 928 985 -708 529 557 0
767 -201 -896 185 0
175 889 988 -316 0
-818 -833 426 -704 477 0
-813 884 -264 -649 883 -141 0
677 817 -550 -870 -427 -152 0
-580 -395 -462 -842 7 0
156 -95 -665 -3 -682 0
135 -797 815 884 -875 0
359 465 -730 469 60 0
-65 -514 -669 148 687 403 0
-119 -575 240 -874 648 0
-929 611 -535 -769 0
240 -448 -697 779 0
927 -312 786 -923 -274 -37 0
311 375 740 1000 314 0
-231 588 208 -620 952 0
-184 -62 464 681 0
-911 -196 646 -623 297 0
-486 -689 -588 380 -325 -649 0
857 -232 998 -88 -586 -949 0
-982 -410 725 31 -798 786 0
766 660 -690 -16 -79 0
72 -308 -648 -598 -883 984 0
756 -295 -10 907 619 -683 0
289 -312 426 384 -810 0
151 -452 -769 -583 642 0
262 198 314 -441 516 0
674 -349 383 -159 517 0
-941 -697 166 673 -758 -614 0
255 -732 -66 -406 0
-224 -8 930 301 116 0
721 -63 -115 738 497 0
17 587 506 526 0
-465 250 29 20 -142 735 0
-585 625 -883 532 936 0
212 -555 -990 362 205 468 0
64 903 78 813 -133 0
-428 -522 -595 -537 291 0
730 -951 -592 850 0
693 -675 883 -182 0
15 -846 118 183 0
-918 705 825 963 0
641 -834 701 -191 228 -930 0
-597 333 655 521 0
-341 224 250 159 -268 0
-767 382 -604 -87 -726 0
-536 -338 778 -358 -225 0
35 811 -387 -410 830 591 0
631 -798 -123 768 -250 663 0
-497 -811 329 629 -75 0
91 -565 514 -823 0
-805 -882 -266 810 0
121 810 -173 428 -132 0
53 892 390 298 0
-402 -612 -451 834 524 -199 0
-906 -313 306 718 0
13 -9 409 106 788 -567 0
-19 498 -497 -209 -129 0
-252 768 -289 962 153 0
-844 -428 358 -795 45 0
165 -975 609 -745 0
-258 -947 -76 504 974 0
144 -624 -285 508 0
-31 979 675 -304 0
665 142 -620 749 0
63 -622 -200 -797 -328 0
-972 -340 -103 -433 0
-459 70 214 257 256 0
787 21 -217 -533 596 0
-348 -595 -677 -746 0
-304 442 -780 411 0
444 777 -931 917 850 0
-583 937 742 -631 107 0
307 927 23 -60 0
-243 -581 -515 359 0
365 994 -991 -819 0
297 -379 -375 363 -14 -877 0
268 -55 735 796 0
-726 -926 78 -443 819 0
495 -645 -134 872 -779 0
345 -156 -407 -159 -450 -219 0
453 -884 386 -574 0
116 707 -197 -92 -359 -867 0
781 -788 322 -67 0
537 -168 183 -215 0
269 515 109 588 680 -71 0
-892 -653 950 -154 -771 0
339 -447 -701 295 0
476 -709 -317 980 0
14 -867 -746 -515 -344 0
623 -168 521 323 0
591 281 -999 -429 -582 0
-347 50 -556 184 610 0
703 -25 560 270 -233 778 0
58 -492 647 591 0
-690 60 -741 617 0
11 1000 500 -755 727 0
175 154 903 -643 528 0
362 -853 546 -491 0
-263 827 -123 -892 0
755 -336 614 865 0
-684 688 -810 -574 -990 -622 0
854 766 250 -77 -800 0
-403 382 -198 -520 208 -76 0
-252 909 -65 774 0
-915 -218 354 -61 0
-24 298 930 -732 0
622 -721 -449 414 -9 317 0
-333 258 -207 -32 0
-740 528 356 324 -810 0
-494 -740 -854 -997 39 0
-641 -312 521 296 0
153 -183 874 -683 -791 620 0
-152 487 585 -742 502 27 0
806 778 222 -747 0
418 -2 287 499 209 -609 0
270 -447 -862 806 -821 0
559 947 904 -77 -281 0
689 -668 445 -460 0
981 434 37 613 -328 0
-52 831 377 379 -269 -148 0
-118 761 -416 728 0
384 532 691 111 -924 -1 0
778 -214 278 668 669 0
279 -2 346 684 0
-737 -593 -858 336 0
-332 295 -770 -721 0
445 -624 50 -164 68 -311 0
-481 944 400 -550 0
146 331 -838 759 641 983 0
64 520 -366 245 0
334 -722 -146 472 -754 0
796 -401 909 -937 0
300 284 -668 62 0
946 -459 215 -496 -560 0
-280 830 -162 430 704 0
63 -566 254 585 98 0
-562 628 -685 -4 0
-39 732 669 574 -586 -906 0
-385 -906 23 943 -276 0
-803 794 199 269 -648 236 0
37 978 -328 675 0
-668 -659 -290 -716 922 0
784 -969 -886 921 -86 0
-871 -721 -936 -181 245 0
386 -195 -325 959 0
178 445 413 379 -740 582 0
-565 -43 283 -678 472 0
-662 -692 846 -231 -880 -528 0
37 -622 252 968 0
714 864 -810 487 0
728 -994 -620 -820 0
463 909 -490 -913 -25 0
901 963 -338 -473 941 0
684 -240 -587 743 275 139 0
-652 -384 38 516 -179 0
