c Easy-SAT formula for GPU Gaussian elimination testing
c 500 variables, 1000 clauses
c Designed to be easy to satisfy (fast SAT) but large (slow GE)
p cnf 500 1000
1 0
2 0
3 0
4 0
5 0
6 0
7 0
8 0
9 0
10 0
109 374 60 37 168 -28 0
428 182 -291 117 -123 463 0
317 -75 28 318 208 137 0
427 14 -121 -222 -426 18 0
262 116 270 -436 -28 -284 0
-34 -340 -409 106 -2 0
-105 -336 -358 -200 0
428 -399 432 41 379 133 0
178 -371 -20 -164 367 445 0
-118 129 462 141 -311 0
-228 11 -344 -45 -237 0
-495 220 55 21 0
-275 267 342 -347 31 97 0
-42 -222 -214 359 393 183 0
33 74 434 -397 -342 0
475 198 -43 -127 366 0
-7 -95 -485 165 0
33 268 70 78 -480 0
-89 -120 375 -116 0
-333 268 -82 -76 -406 0
-275 -482 -491 -386 357 0
384 -472 -188 -433 -339 0
-304 353 236 -240 271 0
-256 -417 -155 430 77 0
-326 13 317 361 -300 0
-28 -297 326 212 0
-306 -251 -278 -85 -367 -77 0
-275 55 -102 -450 -60 136 0
-220 -183 194 74 0
-83 188 411 -424 74 451 0
-493 -234 402 35 0
-82 -494 174 435 -26 28 0
82 -66 -101 40 392 0
-406 416 -290 355 377 0
451 85 -181 -48 -489 -33 0
153 -60 -103 -491 -419 325 0
318 379 -200 180 0
246 48 -243 7 -115 60 0
75 366 -5 -347 0
350 345 316 -238 0
-121 480 490 -254 -76 0
-131 445 106 63 214 0
453 269 351 -384 368 -173 0
-267 312 158 -216 0
-333 89 174 452 0
196 326 141 -497 0
-231 -236 -500 -19 -398 0
-100 -293 489 -138 0
-310 497 -205 -178 74 0
-399 -167 -174 -37 -307 0
-195 -95 124 -402 316 0
-380 442 -85 71 0
-18 -261 -105 151 -351 -423 0
-48 -140 -168 -356 0
419 -13 474 -147 0
386 -476 162 450 -474 0
233 -462 60 -325 273 -216 0
-497 478 -383 125 161 176 0
164 -379 -16 112 -104 0
128 -294 41 145 330 0
-443 -342 -207 -187 -346 141 0
353 374 146 -447 -189 414 0
-251 484 18 -419 0
378 425 85 91 0
-175 -229 242 71 161 0
31 168 47 -205 0
-207 -184 -452 218 436 0
-11 59 -386 419 278 489 0
125 67 -189 -347 498 0
379 -388 286 -157 416 238 0
-153 182 303 -252 313 0
-179 311 -3 70 -351 0
14 -158 396 -352 0
-384 23 404 -287 -453 0
-479 331 345 -85 325 0
-128 -176 -40 103 0
-181 -315 -88 -379 -299 375 0
-442 -462 77 493 -234 0
461 62 483 -422 0
-451 -499 -341 -129 -145 90 0
-104 442 72 121 155 0
-378 170 87 -65 393 0
-292 192 -298 230 -241 0
-46 4 -339 13 -175 -370 0
94 48 -418 -81 0
305 -14 449 -85 427 366 0
-369 290 398 240 -231 0
370 -302 -285 30 68 -270 0
-429 -286 -497 489 0
-330 -219 249 428 275 -405 0
-342 -148 376 465 0
462 67 192 -233 0
-73 292 253 139 230 0
399 -125 174 -379 445 0
-383 142 -367 -220 0
57 330 -331 -305 -338 398 0
390 52 -132 409 -54 270 0
362 167 492 -387 -56 -178 0
-233 63 -21 -143 0
234 243 362 500 -303 0
414 -1 491 354 0
447 -228 459 -294 -249 0
-115 367 398 -393 -332 -196 0
31 448 206 307 0
82 239 408 359 0
344 243 12 448 144 -363 0
236 -84 -137 247 0
168 441 -385 -481 0
21 -484 170 -210 70 0
-53 483 1 229 -379 0
322 -102 423 214 -83 0
-297 -266 132 168 485 0
-478 -489 153 54 -280 -17 0
-359 -500 72 -261 -136 0
380 -73 -249 175 -203 0
237 310 -439 -13 433 0
289 -154 -191 -280 109 304 0
40 -192 92 -381 475 0
204 -479 115 -424 0
26 -19 63 127 219 486 0
-388 18 153 -466 -197 0
427 -24 198 -14 0
93 -432 -418 -491 -196 0
-279 409 -436 50 140 0
-213 206 183 -308 -485 0
315 -391 347 304 99 0
296 78 -408 -401 -252 -215 0
-493 216 -323 3 255 0
-176 134 415 -143 -442 -212 0
-389 -332 -127 236 494 -146 0
8 115 -72 -50 385 467 0
-365 -153 70 -443 201 0
-473 -71 142 312 -158 0
491 426 -318 240 0
-25 -113 -314 -397 54 0
236 158 -13 165 0
291 -103 94 204 0
-76 -247 -333 -21 0
-10 -149 27 -231 397 -23 0
-233 275 462 287 -342 0
398 -453 -113 -32 -181 0
-188 365 197 -247 483 0
30 170 -289 407 -323 462 0
94 -70 -286 -441 0
61 -435 243 414 -395 420 0
-441 -219 116 455 110 0
392 -296 -115 -485 -446 -353 0
-272 -297 -27 -320 -299 0
11 395 -356 181 485 0
51 -239 491 -374 496 -88 0
-434 459 474 -379 0
481 279 479 322 326 -447 0
85 -57 -322 -183 44 0
-342 -226 363 -1 0
-464 -49 102 -252 -87 116 0
-62 -338 -225 140 0
289 154 456 -163 283 -333 0
-206 -407 119 -200 0
-265 168 -457 -474 235 0
261 -54 275 -118 -49 48 0
243 477 -223 -207 0
12 214 -194 -11 166 -310 0
315 -381 267 300 -492 299 0
-364 33 190 241 0
427 -213 396 -209 -81 -122 0
372 -141 -278 183 0
24 171 -74 -154 -89 -242 0
-145 -1 257 204 -343 74 0
324 -268 84 -108 -238 -415 0
-481 339 -224 -390 0
386 499 -421 489 0
-195 93 393 -353 130 -368 0
-307 344 -28 -137 271 -24 0
-373 98 -210 -496 0
75 -130 331 -60 199 0
-489 -206 -21 44 214 0
-241 80 -146 51 363 0
346 471 481 199 292 0
-274 -159 -483 85 295 0
2 -90 128 185 0
-185 -245 97 369 0
139 424 -11 -435 255 154 0
278 202 106 -25 -18 0
95 -107 358 -327 0
199 304 146 -244 0
320 314 373 -362 364 279 0
476 213 -244 -263 0
-281 -358 459 361 -111 -330 0
-442 -97 161 76 0
468 120 197 -163 0
124 -78 22 421 -429 0
96 -125 -124 460 30 -374 0
-206 -142 222 -66 54 -2 0
-391 -472 -74 -103 -320 -189 0
384 18 -70 -296 415 -95 0
335 -286 -214 -48 213 89 0
355 -332 -421 457 0
-224 303 96 173 0
-76 -103 -63 90 -162 0
223 -197 -163 -40 -12 -59 0
-395 338 -348 -475 -485 141 0
-18 261 408 186 -364 -14 0
147 -379 -476 -211 383 0
475 41 -187 343 -117 492 0
-387 478 -70 145 273 272 0
410 -396 265 434 0
-484 133 -269 -458 -361 0
202 15 -289 -263 0
368 -392 214 329 -162 152 0
478 -366 104 -158 0
48 375 457 189 -208 405 0
-64 -130 109 86 -135 316 0
-73 -51 402 118 0
283 111 -73 -154 427 0
-328 97 -53 -113 0
226 392 -405 143 -450 0
-380 -365 -304 -103 -481 -342 0
257 222 -72 133 0
494 -71 -23 -144 -293 -57 0
92 -268 -109 401 -248 355 0
-124 -2 -225 -237 -342 0
-388 -254 -301 -1 381 0
147 320 -46 405 0
236 262 -31 214 0
-270 4 222 126 428 0
96 -345 169 447 98 0
458 -310 -369 -83 0
-141 -25 277 497 33 0
360 -274 172 463 -208 0
-243 -117 197 -357 342 0
-411 481 349 248 228 0
121 250 13 113 0
-457 80 -293 -466 0
-461 -48 -312 437 281 -394 0
10 166 434 145 0
-355 233 402 -106 247 95 0
-299 370 98 -149 100 63 0
-141 -30 33 112 -137 0
291 -491 -299 -94 0
-385 -500 -338 293 -472 317 0
-392 -281 250 -320 -397 0
-273 -409 -221 500 343 396 0
-71 411 247 253 0
-98 -42 403 -109 117 0
-381 -426 79 171 421 -95 0
480 101 -226 -192 0
-257 -80 307 96 0
343 -291 -431 -240 -396 -202 0
108 499 241 -432 370 0
-351 243 467 372 0
489 486 -143 -316 0
-116 -238 315 -485 0
191 -366 314 -272 0
389 -30 -149 -10 115 -248 0
226 -493 -410 -177 0
-348 -245 85 -339 430 -381 0
474 498 -124 -318 0
-276 -152 170 -30 0
356 -488 -286 -139 -99 0
-187 -367 -76 -216 0
-453 -312 -126 -187 -338 365 0
-416 -325 -222 -381 0
87 165 438 -459 0
486 217 -451 -30 0
-459 -455 -294 378 -443 0
123 432 444 59 -332 86 0
46 402 52 82 137 174 0
-63 481 -293 -348 252 0
-70 188 201 -466 364 -419 0
-67 131 -235 410 -230 -108 0
372 -214 154 57 0
-336 112 124 493 0
-82 238 430 -259 0
-171 -338 174 -53 0
439 24 32 -198 -192 0
269 198 -179 458 -301 0
206 -250 146 -282 -245 -346 0
-468 102 106 -239 0
-500 -243 -379 -290 -12 0
50 -103 -442 315 -222 -456 0
-74 148 137 347 -318 0
363 412 230 389 91 0
316 -154 404 386 358 373 0
-236 198 499 111 121 73 0
281 440 419 378 444 -93 0
316 -119 6 -177 -263 0
1 148 -23 59 -133 -412 0
-359 -80 31 -361 0
-345 177 -452 282 404 -335 0
-116 -159 -269 -29 -345 0
-194 -426 -379 -448 -353 0
57 285 -296 135 -4 0
-463 319 -347 -196 0
-497 -239 -6 199 -449 -152 0
38 122 37 138 0
309 -166 -498 -65 0
-469 -464 -278 141 -354 103 0
-78 289 -351 -209 252 0
455 381 34 -485 0
208 417 282 346 -400 0
-347 -63 136 -113 0
163 -486 252 -328 309 0
-336 -19 -345 409 14 0
244 8 361 -29 364 443 0
285 441 -344 -158 282 0
-278 -32 -455 -398 -77 250 0
-144 -489 463 -147 415 106 0
-362 -407 -72 -384 395 0
436 -30 82 -154 0
403 218 -140 122 308 -149 0
298 392 339 67 377 0
173 422 -128 -416 -254 -493 0
-307 240 386 398 33 0
232 -145 395 -37 -157 0
-461 -182 -209 -109 -167 -340 0
-360 463 411 158 317 0
-491 140 78 -294 201 -468 0
71 -337 417 322 444 0
-428 -415 156 -32 -449 -488 0
381 -218 -294 451 0
-24 -95 -44 143 -486 0
413 -491 -496 -10 -423 407 0
-489 -189 -121 -41 0
-132 447 -51 456 70 25 0
158 -217 131 -160 0
-73 -498 -99 -75 0
174 -419 -78 328 -162 370 0
97 270 205 -488 53 -492 0
164 392 -44 486 -102 0
-247 317 328 145 -442 241 0
-140 -344 482 368 173 0
-270 -496 -339 -424 4 -237 0
-327 -19 -260 -364 -107 0
-448 343 393 426 0
204 36 -104 -44 403 0
-294 -452 -95 103 130 0
-166 4 -120 -153 0
285 85 143 -207 -377 -352 0
-94 -391 54 137 0
-292 -423 -455 462 -319 -385 0
-247 -68 -312 358 299 66 0
-174 96 83 272 0
-216 -167 -490 284 0
-37 -158 182 -117 416 0
417 83 7 -151 0
-497 -156 294 -242 -174 0
-375 160 -138 139 -281 127 0
83 -96 298 80 0
-358 386 205 472 0
331 -92 -450 -212 0
-287 -42 162 302 323 0
-399 -90 -435 87 175 -368 0
225 -245 216 -263 -243 -1 0
124 158 93 224 -153 0
-92 261 350 -302 -149 0
448 -432 -62 -139 359 -42 0
221 -8 -44 300 -4 0
-278 -159 382 -463 0
489 112 -123 -408 -198 0
-296 -347 -6 -53 -182 0
-437 -22 75 37 0
-498 -37 358 -284 0
214 327 -275 182 136 0
300 -226 -315 -265 0
291 37 334 364 16 0
-27 -37 -442 -17 239 0
-124 392 -130 65 0
-21 -92 307 -361 -157 0
262 -32 419 340 101 0
190 -55 253 -435 176 0
104 415 481 -493 418 309 0
-498 -339 394 -351 0
-495 -246 229 -157 -47 0
129 -319 56 -295 -494 0
468 207 249 -82 -383 0
-341 406 -193 -500 252 0
338 86 445 -24 -75 -185 0
-132 -107 261 -3 0
163 -372 -430 387 0
-492 -267 87 -449 253 -306 0
-258 -122 -350 -457 0
-2 226 -376 -54 -470 0
-45 -226 -62 -121 177 0
-426 266 473 178 -193 0
-252 -154 336 14 449 0
-382 242 -495 -277 0
-486 457 -475 179 -342 -381 0
-451 409 470 212 434 0
-170 394 34 116 0
486 -413 -219 95 0
459 52 46 -133 -500 -469 0
459 124 -349 120 355 72 0
-302 194 -3 427 0
441 -304 -58 -185 -167 -57 0
-377 254 24 127 -430 0
73 473 394 236 78 0
-74 36 -29 282 0
-125 -448 -181 137 -176 -262 0
17 196 246 377 417 0
373 238 38 96 0
-349 -425 187 71 379 0
19 -52 -73 -239 -314 0
112 500 153 -426 336 0
345 360 -1 235 -24 304 0
-449 -493 -385 193 426 0
-162 -122 -232 492 0
220 32 155 -333 444 0
50 -261 414 60 0
293 116 407 390 149 445 0
484 302 399 -181 -118 0
-332 -374 -158 -89 0
-35 249 200 488 0
336 323 -33 -37 0
-100 -75 -402 -193 332 172 0
443 237 -14 98 -158 0
-249 -425 455 165 -212 292 0
-329 -254 314 326 0
-254 192 -256 -210 0
268 51 364 -285 334 0
-234 194 226 327 -276 0
-469 113 -261 471 210 0
-199 -16 -34 -388 0
484 249 37 -22 0
-388 -225 244 -341 0
-456 -434 496 -493 -175 0
193 -166 194 -405 395 -305 0
-231 -137 -67 -46 471 0
1 481 -25 233 60 405 0
54 129 -96 -450 334 224 0
358 -419 356 49 194 0
-7 109 -89 -238 0
-488 311 -42 -345 91 0
213 103 -390 -35 0
65 -326 -21 154 -196 494 0
219 -152 -182 302 180 36 0
368 209 125 413 0
-219 -185 321 -353 0
137 -135 -279 348 -108 -249 0
191 499 292 -70 0
-423 -254 -140 18 -333 350 0
252 -400 158 137 56 188 0
-56 -479 -461 -126 -30 0
277 102 5 -436 32 0
342 -322 481 -376 -119 43 0
476 395 50 -239 260 -413 0
352 318 -407 421 130 -186 0
479 141 291 281 -413 27 0
-26 191 461 -106 0
-456 366 -379 448 5 0
361 -235 -265 37 0
119 -333 -330 204 159 -142 0
-108 -75 -434 331 0
209 384 -493 246 0
331 -124 -305 -222 0
-45 312 -86 303 215 -295 0
-67 349 263 392 0
-415 -63 486 149 0
168 -490 -91 122 -395 0
277 -82 -417 -304 0
-447 -500 134 165 -3 0
-115 -164 -33 -184 85 -361 0
-500 89 202 25 -122 285 0
-195 430 -434 -168 0
211 30 363 -154 -490 -462 0
5 -215 328 146 0
167 -151 -304 -63 -484 230 0
134 -133 -228 56 -73 -105 0
-70 396 -272 178 -372 39 0
135 271 429 -500 314 0
-483 144 251 146 0
322 73 468 108 0
-186 303 81 239 0
-9 72 -318 499 0
207 31 -338 347 -98 0
-109 -330 236 -33 -222 68 0
374 -81 -55 187 -497 0
-352 -215 -275 -431 0
-254 337 48 277 -430 280 0
-92 453 73 -352 -197 462 0
291 -440 -106 71 433 0
-350 -92 374 364 408 -482 0
-402 -30 398 -271 -42 0
169 122 -168 -349 0
369 -285 -331 218 -127 0
-48 -338 -224 180 -272 0
-432 314 -431 -417 -470 453 0
133 434 -404 24 413 367 0
-242 -157 -92 -298 101 380 0
-416 -62 -117 -346 1 0
-280 483 -82 -117 -175 -112 0
36 -365 -91 -375 -222 0
-446 -154 -165 162 472 0
358 454 -273 256 -18 0
395 -57 -242 107 0
498 -131 447 455 -216 -288 0
-256 -428 60 24 0
434 348 443 -305 -408 0
485 -238 495 -70 17 0
333 310 258 -223 69 -233 0
-78 -141 474 -327 0
-348 -429 -248 94 -21 0
306 378 -213 86 0
89 223 -423 -445 -319 0
369 -149 -394 386 0
326 322 -215 -399 442 -49 0
149 353 275 221 0
148 406 -73 450 -339 399 0
33 324 95 403 333 -70 0
268 275 218 -356 -133 0
-337 56 -175 48 283 -288 0
374 -388 66 -475 -211 0
7 -253 446 -385 0
-40 -66 441 -364 96 0
-277 188 -89 341 -30 0
322 252 -123 256 0
-166 465 -123 182 -273 386 0
27 447 -312 391 0
-73 -54 -246 237 0
2 -308 -490 145 121 497 0
322 358 -251 150 0
-132 -101 -215 16 -14 0
473 188 426 -305 0
-416 -26 -479 11 178 -470 0
-425 -68 -379 -448 -351 0
152 -121 384 138 0
165 36 345 372 -344 -153 0
-300 303 -147 214 0
-153 -395 238 -202 -170 2 0
-459 -194 -411 -363 189 0
-232 366 -19 -255 -115 -174 0
452 -320 44 -497 0
163 -220 419 -299 103 169 0
301 345 386 391 73 438 0
-261 -213 73 -304 -252 0
-234 -305 -172 -387 340 0
-7 -193 -121 -110 0
296 408 -165 128 146 -23 0
444 290 45 -367 78 0
-343 237 90 -59 0
85 -118 -479 -97 -396 149 0
-154 -394 80 -250 50 0
-238 -197 419 -134 -46 -186 0
-62 -213 279 206 400 0
178 -28 -244 -311 -113 0
-276 398 328 -326 0
238 -28 -205 -403 0
-428 -186 -378 168 -242 208 0
-378 231 191 -228 0
30 24 217 -85 0
-57 487 471 491 0
127 332 -392 -276 0
463 -50 211 383 -20 0
466 -15 119 383 151 0
86 341 21 285 0
-246 464 -259 -30 52 0
-21 411 -77 23 0
-169 -401 -419 194 384 254 0
-248 -52 -193 346 -467 262 0
315 230 -333 -387 418 0
-282 353 -189 398 0
-95 199 -241 -364 -458 0
-438 -267 -336 -65 151 0
15 -464 -322 -310 -120 -397 0
-88 302 303 -285 -458 -173 0
310 340 350 497 -285 0
-295 -451 43 205 0
376 -282 53 141 158 0
222 428 -396 -91 283 221 0
-39 -31 356 439 -445 -387 0
351 -156 178 -8 0
-114 45 380 -147 0
-296 173 21 -114 398 0
-109 -437 50 322 -261 172 0
-219 237 -445 -31 0
375 -428 -300 -225 47 13 0
426 -327 -217 -489 71 20 0
228 17 -58 -264 309 300 0
154 -333 -334 -479 0
-216 226 387 500 0
403 284 281 492 -140 -40 0
-304 246 4 -316 -160 -17 0
-141 457 -489 -82 -418 0
408 30 -111 261 0
-432 -30 -497 -247 0
-2 -365 204 69 426 0
419 -212 -287 -453 494 289 0
-50 -36 330 -239 397 0
-74 208 125 -388 0
-153 39 -46 206 0
-442 -358 -21 322 0
186 416 237 392 140 289 0
-28 473 66 97 0
127 188 -259 -102 0
37 -291 276 159 -87 464 0
-40 -282 -409 491 -488 -163 0
-111 485 -475 -96 0
395 -255 -350 305 0
219 -413 -458 -289 0
-248 153 403 181 2 -183 0
-71 -170 -42 -229 0
-101 344 -41 -191 -198 0
183 82 -362 -446 0
-402 188 -24 20 -16 149 0
-56 -77 391 101 -237 0
-319 -14 184 84 -300 0
273 -63 153 -225 183 0
264 -153 435 169 -102 -96 0
484 295 182 225 -201 0
341 102 227 492 245 235 0
-403 466 -42 -182 145 0
-193 -58 -148 -405 -484 0
317 -141 -362 -282 0
111 89 -256 -286 208 276 0
-282 259 81 254 -21 269 0
-96 421 60 401 0
-308 -476 -462 -253 -227 0
244 -320 463 -305 -489 0
348 448 -115 160 0
289 264 300 294 -339 446 0
-491 97 2 113 -419 0
60 499 -346 161 0
482 -186 -336 167 -454 -429 0
-464 -227 187 45 232 0
30 -344 153 430 0
201 354 469 463 0
-389 -214 -196 375 297 0
-231 -329 283 -340 0
-135 312 33 -377 8 0
375 305 -243 264 0
498 351 -352 281 0
208 375 -167 108 -84 0
-455 -459 250 -303 235 -119 0
252 408 192 449 0
129 -92 88 -398 0
-422 245 235 -71 -305 143 0
268 254 90 -196 -161 0
46 153 -150 -401 0
-55 323 -142 -481 -185 -276 0
133 327 -471 -427 -350 -450 0
-97 -467 462 384 0
64 -463 282 118 319 0
-392 -236 -390 -76 0
109 200 -262 -93 165 -302 0
-57 378 -201 -372 324 0
-117 -342 -240 44 466 351 0
-393 262 252 -106 0
481 -214 290 -494 -177 463 0
102 -452 -307 65 0
436 6 -193 367 287 -3 0
-420 245 -212 -258 0
483 383 338 491 -117 0
340 374 -327 330 -121 0
421 429 172 -284 56 -137 0
-84 8 213 23 -225 0
79 367 20 43 155 0
-215 -35 -68 338 218 -346 0
247 -246 451 11 0
90 -257 -190 341 0
428 -267 -231 -390 0
-112 -225 287 61 421 466 0
-251 288 240 -448 -161 -91 0
-296 -15 -55 -461 0
10 -429 372 -211 0
-284 316 -275 -414 484 0
-368 -320 161 -363 -116 0
260 238 166 143 241 0
-227 -114 -188 136 -496 115 0
-266 -416 426 343 -251 0
-110 132 -125 475 -498 0
-200 -401 -113 -139 1 154 0
32 61 394 437 0
-227 -259 -383 421 336 -18 0
377 381 -288 205 -222 0
325 177 483 -32 102 0
418 -206 59 265 0
-363 496 116 -146 300 -348 0
422 -314 80 -391 52 140 0
-419 421 247 442 240 0
-294 61 -365 476 396 204 0
-162 -351 491 -164 -28 0
-385 40 225 -218 -149 -362 0
-407 144 -277 -349 454 351 0
419 -44 -171 31 0
308 -487 168 314 328 -424 0
65 368 76 -325 0
-303 228 432 -395 0
116 120 402 -345 450 0
-356 -358 136 -474 0
47 204 104 -96 13 0
69 -288 386 60 -120 0
280 -369 -180 -215 -287 0
55 -4 120 288 0
335 29 30 364 92 0
257 -216 387 -227 -84 0
213 -437 -155 -247 0
-491 -484 -47 -239 -133 390 0
-410 15 350 4 0
494 430 -404 177 324 0
240 -124 8 -166 0
386 -279 -324 482 -327 26 0
-104 6 27 405 -380 -288 0
-331 -400 -410 185 467 0
259 -355 330 229 57 0
27 292 411 220 0
104 -237 454 -3 118 -8 0
349 77 146 -78 0
153 -106 -4 316 107 -7 0
409 -36 125 -433 0
427 -290 -211 -387 -356 0
287 -235 420 402 0
-266 -141 -343 -476 0
-292 260 171 79 0
95 -485 -21 33 169 -17 0
97 386 -194 -30 0
313 130 299 259 232 -125 0
119 -443 -351 139 0
333 -106 -191 29 -146 93 0
-327 7 354 -11 345 0
-70 258 279 -344 129 400 0
-344 458 328 -331 319 0
-369 -302 -113 -491 124 0
-182 331 491 -23 0
183 -321 419 108 447 0
-280 -239 -257 241 -255 0
-291 344 455 -161 0
-166 271 -160 -31 -372 0
-67 -422 -24 -242 372 -212 0
-429 414 237 128 0
76 462 -430 79 -463 269 0
-437 229 330 92 -442 341 0
248 105 62 165 0
401 -195 -241 -342 0
-379 381 337 -67 -128 0
381 -374 331 232 397 0
-175 391 -437 256 -323 156 0
283 -460 212 -394 -427 0
-106 -434 -274 5 -240 0
171 -474 164 -375 0
265 -272 -144 -173 0
455 125 83 -169 -254 195 0
-500 -102 292 35 -262 0
-133 496 -456 324 453 -438 0
308 86 -296 -234 -135 0
-12 85 -493 356 330 87 0
233 -53 168 93 0
-254 -104 50 88 357 259 0
404 129 -45 -33 58 0
241 -52 -472 244 0
440 444 304 -208 0
-499 156 7 450 -138 -17 0
468 -60 429 -35 -324 0
-443 13 -433 259 148 0
-307 39 31 489 0
-4 -292 -394 -458 -96 0
352 -290 53 -246 -74 0
256 402 150 422 0
309 388 -408 190 0
81 -188 169 417 53 0
302 -206 108 -244 -171 -371 0
-34 161 158 -237 -242 0
-492 -50 136 -256 -60 -307 0
-419 181 -21 -131 0
-312 -118 -370 -485 -108 0
73 -213 199 497 -397 0
-462 -338 449 135 -211 0
226 491 -482 59 157 0
-384 487 312 105 0
-295 -213 417 451 343 0
214 284 461 202 -94 -222 0
-239 -107 -498 -146 135 0
264 -353 317 -178 0
326 -419 -435 245 8 0
318 -39 230 -446 325 43 0
-288 450 -167 370 0
-35 320 51 -39 375 0
136 -25 464 -222 -245 -52 0
156 -120 430 30 -357 65 0
294 -272 245 -150 -133 -46 0
429 -450 -443 354 270 0
299 378 10 -151 0
-379 -313 197 -207 -279 0
-170 -154 -109 -319 490 0
190 -340 -212 455 0
293 127 478 -483 -379 -346 0
-333 361 -430 322 0
-186 -379 58 -454 -163 209 0
-98 198 -102 430 0
-256 433 339 285 -112 -232 0
254 444 283 -421 0
66 -403 416 482 426 0
-179 -316 161 -77 0
407 105 165 -134 -174 -346 0
486 -140 -372 252 108 41 0
401 262 37 -235 66 -161 0
-497 235 190 334 44 -243 0
254 278 -19 239 -366 0
-164 7 -303 4 -398 -384 0
-475 -212 -306 204 -65 134 0
-226 65 30 -492 0
-26 445 207 -388 433 50 0
112 235 -165 409 0
34 353 304 37 -441 0
433 128 179 -270 156 -445 0
-438 418 -354 22 -204 27 0
10 378 -162 -381 -391 0
-484 -298 125 11 -158 360 0
-452 192 89 -224 -380 -279 0
175 -363 -454 386 0
-261 -306 -31 -33 12 -468 0
85 -1 13 222 -445 0
154 388 158 426 198 -330 0
-173 -152 -144 -341 -172 0
154 215 -137 -132 0
185 -438 294 -325 0
-51 -235 462 304 0
363 268 -28 379 0
-193 -461 115 369 -56 0
-291 116 -23 147 0
140 -424 426 330 -164 94 0
234 -336 207 22 -462 109 0
-452 -15 -68 -140 50 -186 0
336 306 476 -320 490 0
-471 -287 -402 118 -265 0
-138 178 385 28 -48 -248 0
69 421 -424 363 -344 0
468 127 -458 256 -442 0
240 281 -148 -249 0
-447 -53 90 -279 309 -421 0
-163 -250 -131 11 -190 0
497 -191 -25 -454 198 -280 0
-331 -206 -332 399 0
-278 6 -32 130 -448 0
5 -136 284 170 0
239 235 35 76 -177 0
-499 126 316 -4 420 -395 0
-432 265 21 304 -390 -174 0
-199 -177 494 -346 0
487 500 -324 -283 12 148 0
43 -449 114 494 0
-123 -10 370 298 -394 0
320 150 -88 168 0
44 441 107 500 -290 0
-483 91 -55 -213 50 0
308 200 -258 449 262 0
129 -209 212 364 0
370 -297 74 13 442 0
-421 -323 38 -474 -267 319 0
-394 -32 484 -367 169 0
35 154 116 -378 0
347 -310 -107 352 152 -290 0
-118 100 391 -211 273 0
402 207 -22 19 0
453 51 -473 -106 -356 123 0
-97 -457 470 -319 368 162 0
194 -360 303 228 0
-270 -296 -48 -482 -129 0
-264 279 479 367 -265 -130 0
190 9 408 -76 -67 0
-251 270 -26 405 0
310 -264 -272 259 63 -479 0
-494 422 372 -243 359 99 0
219 4 -260 -371 0
-53 121 -272 -475 -423 0
-56 494 -216 213 -5 0
490 489 271 -299 0
94 -81 -468 475 171 0
321 -407 -452 -326 -354 0
124 -88 64 294 -451 -436 0
-194 140 -279 -393 1 0
-253 -136 -390 -334 -48 0
153 315 -324 -77 -199 -216 0
-475 -364 -3 217 -206 0
274 -265 128 382 404 130 0
-459 495 -233 52 74 4 0
100 276 -22 -72 0
-469 -169 -229 261 0
-66 -69 192 31 -390 38 0
148 -224 196 -61 171 0
-390 -347 -186 112 184 0
-354 -29 317 -314 -48 0
-120 -90 -146 -176 488 -132 0
55 300 -474 -194 0
-453 -444 430 73 0
381 -470 56 -494 -82 351 0
-134 -344 362 -125 0
36 84 221 112 427 0
312 129 480 239 497 0
364 -41 -287 125 164 0
393 -463 298 -372 0
-413 301 476 164 -89 -49 0
131 -452 419 -473 0
-185 -390 500 134 0
246 -207 -385 -96 -272 -226 0
-144 476 179 367 42 -275 0
283 498 224 -220 0
-159 215 169 492 0
-382 432 371 24 0
-71 44 102 -52 -464 306 0
81 381 89 -278 0
-190 436 368 386 0
-82 -293 497 -225 0
117 136 206 -151 -462 -380 0
-17 -58 -182 161 -90 0
176 -139 264 126 -105 -331 0
471 -201 381 -146 -271 0
442 -407 -69 -10 190 0
209 -281 -278 243 83 178 0
-103 147 248 -139 490 -216 0
314 -402 366 -18 436 355 0
-344 76 445 55 -275 -306 0
-385 495 -489 -376 -284 0
-423 -27 40 -327 0
303 -383 -276 -500 -229 -126 0
-478 384 -390 -75 239 -464 0
201 78 271 -69 0
84 -402 320 -424 -149 0
-436 -345 225 -332 -398 0
264 42 263 319 125 -48 0
52 -156 168 376 336 344 0
295 29 275 170 0
88 -99 -152 62 -243 0
-305 384 -204 343 490 0
-434 80 -354 231 0
257 -479 -300 -182 0
154 -335 268 -191 476 0
-28 122 -402 299 0
403 -273 473 414 0
-49 -249 374 -168 333 191 0
59 488 155 -350 -492 125 0
-467 174 148 -98 -4 0
332 115 491 -246 437 0
11 73 -482 183 -297 0
-73 -342 -148 -182 -362 -82 0
145 -389 403 269 245 102 0
-378 306 272 117 -46 -255 0
390 61 -175 446 0
346 84 287 40 258 -492 0
-376 188 419 -141 -394 0
51 194 -229 312 0
253 186 -387 -327 299 0
329 393 -335 168 0
45 484 386 278 -334 0
-2 -91 -170 181 461 292 0
-174 -347 -447 -391 0
297 -183 410 -267 433 0
-153 362 92 -475 -68 0
-184 -111 19 422 0
35 113 -11 -217 0
272 218 65 365 0
76 -485 -383 63 50 0
-18 -33 31 404 -214 0
-95 214 -332 150 0
320 -36 185 -481 -493 200 0
330 109 -266 271 0
491 45 -81 -308 0
322 92 86 424 0
-132 -140 -377 43 -74 0
68 23 -408 -331 0
227 160 120 458 -46 342 0
-126 -464 255 -109 -80 -112 0
69 341 320 -105 0
176 198 456 47 0
328 -37 -327 -22 292 0
-160 153 205 164 -93 -321 0
375 -310 -59 257 0
175 207 460 170 -122 0
-86 34 -306 -201 -434 0
202 295 302 -489 0
-164 -368 66 7 -266 0
406 -400 138 126 0
140 -14 -110 318 0
4 42 229 87 386 189 0
315 155 186 -345 -88 0
-413 3 299 327 0
425 -303 -244 92 0
-79 -368 -266 -443 217 274 0
443 -258 387 201 0
-70 291 -455 -75 -166 -490 0
489 -445 155 196 0
-369 -8 -23 462 -301 -410 0
-237 -33 449 475 375 -373 0
104 -359 -452 -378 -298 480 0
-306 88 -86 273 -389 0
129 -212 234 -188 311 -423 0
199 347 350 -82 0
-48 -362 387 419 0
-27 -67 238 -78 -144 0
-270 362 -22 -335 0
-225 1 69 -231 -252 0
-136 -249 -199 158 -35 -222 0
