c Easy-SAT formula for GPU Gaussian elimination testing
c 1000 variables, 2000 clauses
c Designed to be easy to satisfy (fast SAT) but large (slow GE)
p cnf 1000 2000
1 0
2 0
3 0
4 0
5 0
6 0
7 0
8 0
9 0
10 0
304 149 217 539 878 0
269 -566 -460 55 0
-249 155 808 799 816 983 0
745 -249 -773 -633 -185 354 0
-528 -53 -166 -612 -525 0
-117 944 687 716 -254 -970 0
814 10 687 943 0
429 -640 -784 -836 868 -148 0
-659 245 581 62 -131 0
447 -706 -406 945 -767 -261 0
464 -337 -357 -603 640 0
710 -903 184 988 583 0
-616 674 -546 299 -65 0
-544 -389 -271 -781 -233 0
941 83 722 267 0
153 -423 306 780 0
-625 214 -378 173 0
841 922 71 -468 655 0
928 -933 700 -532 -922 0
658 -279 -342 -960 -26 0
-977 -891 233 647 -408 756 0
944 -370 -226 -262 0
927 -817 94 482 -230 -955 0
-382 -296 938 -38 -13 0
-836 -994 -496 674 -280 0
980 -634 49 -768 -609 -662 0
-861 210 -884 147 0
-443 170 -690 -897 -151 41 0
-118 398 533 205 338 -348 0
257 -489 -397 -948 0
532 -29 822 269 -712 167 0
919 -443 514 840 580 0
571 -69 -3 -772 616 -101 0
517 919 480 755 269 756 0
-287 68 357 444 223 0
-187 -944 -380 24 -704 -920 0
923 -901 937 485 -627 -505 0
-514 -639 -607 -358 0
-38 -912 -657 907 206 982 0
989 -631 21 -521 -794 0
445 96 -859 609 -681 -503 0
-890 341 228 392 0
781 -679 -482 -935 -34 -231 0
-896 812 -364 558 -893 -693 0
929 627 -866 231 949 0
657 123 -756 -821 -330 0
385 -213 -84 -265 225 0
53 170 660 91 474 639 0
-709 661 629 -41 0
987 102 -973 -566 -330 0
665 129 100 -264 585 373 0
630 -773 76 -45 0
-453 -885 -894 866 365 -223 0
-307 -234 -798 190 -811 -104 0
-734 270 -519 667 0
-880 -634 -976 -31 0
782 71 559 -888 740 350 0
-179 -266 679 984 -680 -53 0
673 975 129 297 980 355 0
-797 816 -192 -394 897 -427 0
744 493 385 212 0
7 540 -755 -326 316 0
733 -118 -788 700 536 -207 0
948 170 86 385 902 -926 0
14 -574 194 -489 0
-789 267 -903 -523 733 0
573 723 -431 -239 42 0
-790 59 517 80 0
611 301 -958 -723 -355 0
824 -769 407 -708 -623 443 0
-496 -439 710 -645 0
-980 350 640 806 0
790 -572 -112 277 0
-375 -183 -651 -983 0
943 970 -789 949 0
-749 275 -823 549 0
722 -965 653 -412 0
211 95 469 431 0
28 -937 970 287 940 0
743 353 809 -314 669 0
-832 -736 -810 -97 -854 0
85 203 142 481 0
-390 -804 -778 843 122 0
819 148 -443 -303 313 0
-956 920 329 361 105 0
39 429 379 276 -180 0
718 -939 86 -778 956 936 0
412 990 212 -732 342 0
193 -864 896 -135 -63 594 0
871 355 -762 603 -37 0
-565 961 -724 652 735 0
590 -740 372 -347 -888 584 0
-732 259 -5 -676 -634 110 0
406 384 -214 -831 -397 -436 0
80 -737 -361 474 804 -584 0
736 207 434 -327 0
43 195 544 -872 -215 -596 0
740 -363 683 -61 0
829 455 170 -182 940 516 0
254 -686 45 -831 46 0
-189 882 -981 45 0
-649 -623 617 -304 -629 -440 0
731 421 -626 -42 -760 943 0
252 602 649 543 -586 0
-150 -98 90 202 0
136 -79 170 318 -101 688 0
-842 -923 -927 -52 0
-541 -403 -397 -528 -878 315 0
-857 -551 -902 504 -338 -318 0
833 79 -386 -896 283 -472 0
113 -640 -743 325 244 0
365 324 184 639 835 930 0
-542 -779 -675 44 677 0
-575 138 571 -609 800 -967 0
-616 243 203 -555 395 -749 0
266 -193 -141 289 -295 836 0
-519 -198 -365 -867 415 656 0
-398 405 -700 773 665 -839 0
112 506 -647 -815 -728 0
882 -184 -949 -294 919 464 0
753 838 -807 -522 -358 238 0
-510 -540 628 -370 -667 0
181 383 -230 315 287 775 0
465 323 -523 -69 -844 0
-704 -339 859 -751 -344 398 0
-536 -530 -863 -821 0
962 187 -312 -123 304 0
6 938 804 -318 -538 -600 0
-708 2 -327 694 660 -877 0
-503 675 -35 998 0
-508 -262 -354 -715 -991 0
-180 301 353 -438 -248 -24 0
-126 180 776 -108 264 -301 0
586 -925 -958 -356 -923 0
-22 59 128 -690 -450 -679 0
-915 82 -765 -276 -65 0
95 -439 647 -725 136 0
418 546 -598 745 0
-423 -74 39 791 -593 952 0
932 -684 -886 111 0
-380 -906 22 -849 930 0
659 -99 -509 -190 0
-134 862 682 703 0
-430 123 981 -703 0
-489 645 418 -26 0
-872 -145 -519 175 0
338 -698 92 -117 804 -647 0
978 -814 531 607 0
354 -366 -489 -332 0
61 -564 254 844 -719 37 0
949 821 -947 622 -751 0
-557 -950 -526 917 -864 0
496 -36 313 321 0
252 -56 97 -201 0
-898 270 582 -581 930 897 0
412 470 -765 -498 189 363 0
-571 -895 -301 718 856 140 0
-135 -859 -212 -385 0
-641 677 -322 -95 341 215 0
453 251 115 826 704 819 0
62 -49 -766 526 629 537 0
525 -974 889 159 0
-126 -705 -436 113 154 0
304 -253 310 547 -263 0
421 -175 745 -658 0
967 -76 531 93 0
-786 -717 244 -455 0
-986 -919 -997 -729 928 878 0
157 467 702 -849 318 -271 0
924 643 80 618 0
944 301 415 -716 922 739 0
661 -32 490 -317 667 0
434 396 -433 -550 671 0
558 811 496 616 557 0
-502 -163 7 -459 0
-807 81 335 -600 223 -801 0
990 352 779 -857 0
147 562 714 402 -944 862 0
243 11 -347 -489 -123 -432 0
126 -915 49 -540 57 338 0
935 -40 291 308 898 0
-302 878 -859 -433 -964 370 0
-181 432 696 587 -839 0
986 363 -652 385 -968 0
338 854 -413 -725 390 393 0
401 353 -324 -878 -542 425 0
-32 -472 -29 -190 -228 0
-801 -299 143 -654 -29 0
-716 -32 -703 -146 650 -174 0
-582 816 745 -294 0
-177 -914 -423 -421 -637 -258 0
139 -235 356 -168 10 -753 0
-393 -576 181 83 -18 0
-626 485 530 951 850 0
-740 391 -215 488 -280 0
86 749 701 826 0
255 -555 742 -318 -753 0
-437 -605 101 -606 874 -690 0
639 -811 -310 441 -304 0
-849 -399 -102 -536 -170 -299 0
293 58 472 818 -6 0
-344 382 -71 -956 -174 0
-401 -493 -804 634 0
-473 -743 985 -894 -366 0
838 115 -102 -706 0
397 -781 -265 -534 947 -133 0
426 -471 -536 -686 740 -331 0
784 219 -191 446 -399 0
-497 765 579 396 260 -933 0
-666 -905 -203 -803 0
260 -490 600 -191 -222 -151 0
-778 935 369 792 660 0
879 769 405 -721 644 -646 0
647 611 -254 692 -607 -885 0
640 116 -775 -467 0
-304 189 -379 602 398 0
102 482 242 -135 982 0
-122 -511 728 -490 -75 0
396 -115 -727 103 0
-937 732 738 127 40 0
954 -656 303 -86 -522 -508 0
-145 492 612 -590 548 -50 0
666 756 413 -558 -765 0
-967 773 -732 -376 643 493 0
53 -807 970 567 -422 0
412 352 16 -480 797 974 0
458 599 410 -227 997 0
129 -116 794 -661 583 0
-719 359 586 514 542 560 0
-874 -635 -881 378 0
639 -882 104 -648 0
-919 -303 -832 -524 104 710 0
355 -470 327 431 -31 0
-499 246 634 -599 -543 -846 0
-704 -554 362 -281 894 -259 0
251 -995 537 -487 -264 -549 0
706 -555 879 556 953 164 0
-137 787 967 -295 0
382 690 -371 927 263 0
734 -425 317 420 -642 -518 0
838 -151 713 -167 0
581 39 808 -373 0
-9 -141 -638 -306 -280 899 0
-587 -493 -372 -951 516 -916 0
548 702 -372 -195 0
-616 892 380 301 -767 -485 0
930 -571 -580 426 0
-550 -872 -975 -284 834 505 0
-422 798 -996 296 -662 -718 0
-497 436 771 -665 0
-619 700 -794 -142 887 425 0
-644 -153 -686 -722 0
804 -826 -725 -201 -562 -831 0
-188 -617 846 842 985 104 0
-404 -481 -819 -280 505 44 0
397 -743 711 190 -840 199 0
-779 506 -847 -988 422 0
48 -813 773 -41 -37 -736 0
683 -786 167 -64 -530 -361 0
890 443 468 -385 731 274 0
786 504 -21 -183 491 0
780 315 262 -410 632 0
-620 860 47 136 -465 313 0
-655 -548 767 188 374 0
-955 -856 -122 377 -330 0
-449 549 -523 598 -990 537 0
72 955 599 -301 0
622 -121 -412 770 -183 0
334 49 -917 -515 0
330 839 -848 -463 -527 341 0
-941 -374 -180 693 -283 0
-372 -169 -518 989 55 0
-588 -868 589 711 500 0
807 -493 228 417 387 0
899 854 949 -675 480 -783 0
-328 238 -550 -665 0
145 297 -388 377 -183 0
583 -494 277 854 948 0
895 666 985 -25 0
-513 -983 -436 614 0
485 862 -165 417 518 65 0
16 108 -467 981 0
-876 661 -851 647 0
62 -463 858 325 -219 0
786 87 -880 917 0
790 -823 -45 -407 650 578 0
-958 -550 -720 481 698 -48 0
40 762 -941 -571 -193 0
262 -566 -38 -465 974 635 0
810 -507 143 -54 112 460 0
-377 -406 -440 59 0
-880 807 304 -22 0
-505 817 42 -853 0
630 -265 825 -190 0
-626 659 -298 -38 0
-464 -138 524 -306 0
503 -378 442 248 0
581 -685 738 -749 0
-602 -486 820 -800 0
661 298 -34 -940 934 0
809 -779 344 -527 791 -888 0
-515 899 -462 -983 -724 0
396 982 -219 833 0
-606 -14 667 529 262 0
-582 -581 -442 -627 723 -671 0
-316 -954 8 56 -384 399 0
-592 319 -293 149 933 216 0
753 32 661 690 153 -744 0
258 -70 409 856 -752 431 0
-96 -551 -1 -870 268 0
471 386 792 -735 0
406 -549 695 411 -212 790 0
263 -967 898 332 958 796 0
761 -223 983 -726 -124 -558 0
206 -4 699 -347 878 0
85 -877 337 -534 -979 -115 0
-722 522 462 -564 0
-292 -937 -951 -958 -807 0
642 776 -250 77 -65 453 0
147 -108 -998 118 247 0
-678 -696 -541 952 0
980 842 976 -963 -872 439 0
458 -174 999 871 -896 -574 0
-295 226 -275 510 0
27 -724 -189 518 -136 146 0
207 -557 -906 788 0
-236 -675 -765 -298 -314 -454 0
-155 193 762 455 388 -539 0
472 479 -221 763 -24 0
73 203 -920 -279 927 445 0
865 403 402 970 -677 -477 0
44 263 -285 -256 -375 0
-439 991 -872 -288 720 588 0
-919 -345 201 676 205 80 0
-845 -477 778 841 -138 0
690 76 359 -704 197 0
-737 -634 -910 172 -955 0
-602 479 -936 -616 -115 227 0
-10 116 -565 -812 -582 643 0
743 38 -897 -636 746 0
179 -213 283 534 -879 0
18 881 -802 557 608 0
-475 -176 412 -671 -45 0
-25 780 -633 288 -314 -794 0
938 507 137 70 0
-390 200 -865 353 494 0
-76 753 -760 -195 980 140 0
58 -25 12 940 469 0
87 -598 738 -230 0
857 516 -898 625 0
319 -289 479 -547 0
469 -626 592 352 -110 -591 0
867 864 -156 -856 92 0
972 -326 -399 -406 -428 179 0
279 941 739 363 -789 -389 0
148 387 -64 -3 0
489 460 -985 -153 404 -255 0
862 506 159 -863 732 0
-577 -140 -70 923 0
-281 -169 166 98 -758 0
-139 -85 -40 -553 355 0
-27 -905 -804 -558 0
-624 735 -974 -319 -262 0
977 -111 389 -392 -787 0
934 -644 -815 35 643 0
-310 556 -669 919 0
-976 933 169 -53 0
-765 794 -109 -542 0
957 715 338 888 -364 -75 0
196 942 745 48 463 959 0
510 -630 -399 950 247 -446 0
218 -878 -450 686 -293 242 0
-702 -135 815 198 0
-989 726 -856 -991 140 0
-694 569 -927 -544 -274 0
96 -659 -111 860 0
-657 727 418 215 588 -295 0
197 -94 643 282 -39 -349 0
70 -190 732 -745 -340 -674 0
834 -287 -713 -526 -242 549 0
-738 -797 -988 979 -455 0
-376 705 43 971 987 227 0
-840 998 -776 -283 0
535 -590 -696 516 756 273 0
712 -891 500 -846 -458 -964 0
-923 918 367 169 -434 -624 0
711 800 -861 850 -124 886 0
535 558 -416 -534 877 0
73 -646 -360 -573 -64 102 0
602 -737 -115 -61 -615 -479 0
505 -514 407 -630 0
-981 150 874 -856 -914 0
-153 -160 -353 626 -21 -519 0
599 -443 950 -550 195 -669 0
-653 320 412 144 -339 0
928 932 -663 118 946 -233 0
-496 28 240 -207 426 0
215 519 935 735 410 -605 0
377 275 -204 525 6 0
69 886 -143 911 0
-511 -241 336 217 -97 -875 0
109 110 -499 55 0
-833 -820 -302 491 0
-803 -41 487 -445 708 0
141 -611 -93 366 0
-168 826 290 -418 189 538 0
761 -13 -530 634 0
-443 434 695 -450 -326 0
-391 -520 -455 -344 -203 326 0
-78 112 -842 -906 0
680 685 414 -540 0
454 -87 411 340 0
-349 284 -46 -747 602 861 0
-812 949 533 -748 278 0
-63 -91 -402 220 0
386 537 376 177 -195 447 0
888 915 -363 -343 -783 356 0
599 -813 629 -637 0
7 -526 324 644 -371 0
918 906 -473 171 -506 -41 0
-20 689 -676 -961 -354 0
873 875 -697 -726 0
912 -303 139 -130 -921 357 0
-507 792 815 67 -713 0
-950 -315 -736 -244 -293 0
341 386 -595 -253 923 0
173 -392 -824 352 0
39 -128 -666 734 -279 -233 0
273 555 -374 775 812 -805 0
772 187 -646 59 915 136 0
-801 -899 -93 623 205 219 0
561 -990 -590 -180 -352 -615 0
113 -299 787 392 741 176 0
402 299 341 869 0
-410 699 -910 920 449 382 0
366 -737 760 -579 -734 -439 0
-734 891 -461 -220 0
-102 56 -957 325 -749 0
-706 -58 550 -825 -724 0
-471 -635 -387 -453 0
-389 972 -652 -696 157 20 0
-992 556 929 -912 851 -540 0
-872 717 -48 664 -748 0
-657 411 -215 -787 287 335 0
-44 983 177 -144 -49 172 0
-581 934 65 -548 343 0
997 618 119 -734 157 523 0
727 380 -205 -990 275 0
-983 -664 704 -999 0
-287 -564 -449 -490 109 699 0
458 -410 553 -469 0
942 698 24 55 -637 955 0
819 762 671 400 964 0
765 330 -344 681 956 0
554 182 289 727 0
795 779 -805 41 58 0
-661 -858 -554 310 524 587 0
-7 970 -122 -238 -868 0
124 -362 -461 -180 934 0
-305 -19 415 -594 -979 0
-355 246 546 -323 894 0
590 -468 -247 630 0
925 600 -943 -648 778 0
-634 -626 -586 -238 667 0
390 -778 733 556 0
-218 -389 -97 82 -925 431 0
-859 701 -519 -260 0
-423 -447 259 -563 -467 -807 0
642 -396 -857 312 469 0
877 -925 626 668 753 0
-557 -962 931 -744 951 0
455 -128 534 -896 0
-278 -317 -336 677 0
-123 -147 -383 879 0
-397 -990 14 343 0
-663 155 326 -745 -123 -447 0
-103 877 -581 184 351 0
-103 937 -338 130 -621 435 0
-858 -615 571 914 -381 737 0
-44 -966 -178 -110 811 118 0
-166 354 -904 951 0
-9 -56 592 -818 -360 -629 0
-684 -96 -959 97 291 -873 0
678 -369 -722 -796 0
-206 620 -985 -272 0
-954 145 -276 -272 -443 -679 0
-406 -202 237 -88 0
885 240 -297 -161 -75 0
661 -424 -863 -896 0
-68 -307 -166 -888 -755 -32 0
354 -213 165 -378 0
-68 -168 337 -479 208 -3 0
-820 365 455 145 -547 -638 0
-383 -568 378 909 -189 -826 0
974 728 270 -375 0
687 -16 161 -298 -101 0
110 -119 -162 804 -795 -179 0
960 270 -811 465 596 908 0
-960 -68 824 585 62 0
627 655 -696 261 0
-539 355 16 165 0
-288 224 -713 -541 -380 -807 0
-768 -442 618 960 -805 -135 0
-388 -530 646 290 475 0
-166 65 1000 -328 -203 325 0
-692 -571 -341 -292 615 447 0
-335 80 -292 581 0
598 -622 -638 -448 -921 809 0
378 142 -550 645 255 0
240 -365 -399 -861 0
933 -727 999 589 0
271 595 -235 907 699 0
-654 -848 72 470 499 0
220 -723 542 958 -766 0
-392 -223 775 -460 81 0
-515 403 979 -121 565 667 0
-876 -579 -595 -626 0
-309 -632 -828 259 0
-517 979 -1 950 0
-31 71 -763 924 521 0
-605 716 128 -143 0
-78 -814 476 -658 -556 209 0
585 -403 514 215 65 0
-596 -128 -636 -997 -715 0
-760 163 -346 -235 947 -945 0
-320 418 -436 -522 435 0
-282 -676 -617 388 649 172 0
-463 -616 -278 710 677 0
822 321 794 -770 939 36 0
-644 491 391 603 0
213 83 -888 188 0
-649 -93 784 137 0
-859 320 802 -137 0
485 -290 -67 -891 744 0
25 -826 564 618 -835 0
-292 -199 191 82 0
-25 176 -284 884 -165 -852 0
-965 268 -447 -322 63 -547 0
-868 -826 321 821 78 0
591 -434 130 348 -586 -913 0
-973 -715 -239 -231 321 0
12 -266 780 70 0
435 -148 -707 -265 -141 0
695 -572 -393 99 0
265 705 -946 223 -802 34 0
-726 -464 -878 -421 -343 0
-645 -438 -512 -989 392 0
-412 553 605 -735 664 -480 0
-209 619 -819 -331 0
833 819 -117 606 0
843 -257 715 -986 0
615 247 362 -10 0
824 -193 -790 891 0
52 953 -283 947 0
892 -453 -704 -368 849 0
105 -407 731 219 -987 181 0
-152 -624 177 201 459 187 0
2 413 680 -516 457 0
-475 763 853 218 897 -617 0
151 -537 867 526 0
352 577 -289 585 -37 0
933 -222 754 421 -601 780 0
202 255 950 -851 725 -514 0
343 -946 808 250 -142 0
-616 -788 679 -796 -673 0
12 -482 576 -988 0
-632 -836 -893 -188 0
881 -232 307 775 212 -626 0
-379 363 -342 -473 508 0
-907 147 136 71 505 0
-572 129 620 -978 831 0
679 962 959 232 -40 0
-653 -325 -924 534 -154 -927 0
-947 -216 -368 -876 763 -257 0
145 -333 -344 -341 0
-804 650 861 -672 -559 0
-551 4 -926 -568 -856 0
-476 -593 12 -802 0
899 -905 740 440 837 0
711 -662 205 -50 -268 273 0
-669 -656 -462 -572 178 0
-883 475 500 -843 930 -232 0
-252 839 996 -1 0
11 730 -624 -569 0
-922 556 -222 -67 589 0
436 -887 -580 -673 0
922 -815 32 904 0
250 786 53 -553 0
272 150 -596 -597 133 0
765 574 625 868 0
-714 -781 637 403 -613 -500 0
351 -24 437 720 0
-167 -359 60 811 -548 0
606 524 239 -18 0
216 -369 304 -973 0
-723 -722 -545 317 877 356 0
-773 323 342 -96 -793 457 0
-8 -828 994 938 0
345 -114 -398 -77 -6 596 0
-147 157 657 -940 -193 -888 0
-557 -199 928 301 -659 965 0
-908 868 -51 938 0
-870 -181 203 -521 0
-849 -943 9 747 102 0
-720 426 601 943 -901 796 0
971 -689 475 405 680 0
-994 -419 634 -326 0
-241 288 184 785 -244 0
-351 -15 410 982 747 0
779 -475 919 -798 664 556 0
984 -853 -225 549 -237 -453 0
-345 416 756 432 -178 -477 0
-498 -542 368 -272 0
-823 831 175 -103 0
-936 -307 -865 761 -549 277 0
430 -44 -638 -581 0
57 61 -402 150 17 73 0
-933 -674 92 843 623 -570 0
479 -887 -167 593 0
-956 865 -559 -367 -343 629 0
115 -716 352 517 282 0
-507 255 -689 658 874 936 0
342 451 521 -625 0
721 639 75 508 0
144 69 -8 -903 0
160 659 -674 -193 0
-900 440 -425 -48 0
467 207 391 -385 -684 0
239 181 980 707 -576 -6 0
618 -677 612 582 901 0
57 -236 -263 785 -509 -736 0
-228 -523 284 66 -404 0
-662 -685 576 -49 0
724 380 -153 -631 -570 -182 0
-729 723 -717 -585 -202 0
56 -429 800 -11 300 710 0
-416 -960 15 -488 0
885 252 -413 -613 206 0
-741 -25 529 922 579 0
834 -180 -775 562 0
698 199 -884 67 0
187 -571 -494 476 306 0
-780 -46 981 -163 784 0
-681 -325 -781 -749 -895 0
-307 240 -648 -658 784 525 0
528 -831 -486 -299 680 0
-689 369 20 -296 -259 524 0
326 41 200 -414 715 0
-620 -936 917 160 231 0
-238 15 686 536 750 0
-662 -576 -987 -908 -854 0
-755 -728 339 262 -375 632 0
-85 -97 602 -959 -890 -790 0
248 614 875 -195 0
305 344 810 -222 364 -162 0
318 -364 -34 392 664 0
556 -747 292 -794 540 357 0
-997 377 625 869 0
352 -500 836 -96 66 0
-905 460 -545 -850 -48 0
954 -727 646 895 0
565 410 -314 -71 -659 107 0
-563 917 958 -361 -612 0
-963 -303 431 12 955 723 0
546 372 631 -839 -517 -459 0
5 -702 -670 -89 -909 0
-845 37 370 -93 0
-131 -393 881 -73 -193 0
463 119 838 -826 0
41 -489 942 589 -769 753 0
-737 -530 71 -654 624 0
202 266 728 -844 0
-35 -389 -274 24 457 0
216 -396 386 -1 357 -164 0
811 689 -618 667 332 -37 0
-285 924 -949 375 -79 0
862 722 649 447 -482 626 0
815 331 996 720 0
-894 413 952 -683 0
-52 259 351 130 282 0
575 -18 -846 223 -130 0
-950 -646 -187 -874 0
-795 -424 264 293 -950 724 0
-744 -578 610 710 -496 355 0
-696 -966 99 300 0
90 -831 -890 110 613 0
134 481 -139 -930 -627 0
485 -124 -461 777 -337 0
-757 137 509 -768 0
684 235 -354 640 0
-468 205 475 -113 -297 0
-422 452 634 -284 0
517 359 -559 393 0
666 -200 -506 470 0
424 -913 730 397 -377 0
-861 195 841 549 0
-56 -463 670 -513 -893 0
722 -641 864 601 -651 -84 0
107 852 -193 -752 0
831 818 -185 -19 0
-14 -523 -211 937 987 0
450 626 811 -204 221 -276 0
956 -330 -273 -295 0
-632 460 -538 978 -981 -365 0
-623 -102 -891 -389 296 0
189 -84 977 -356 -668 0
442 865 -360 331 0
-519 764 618 739 0
968 -60 346 958 772 0
495 747 814 768 -698 0
725 -743 606 81 0
-901 -814 267 552 0
217 -57 -510 -247 -688 -453 0
289 626 127 -584 0
575 930 -607 633 56 -708 0
-856 948 -935 -118 0
384 -98 199 881 -373 0
111 -839 -405 -227 75 -690 0
-706 -16 -799 365 0
128 -466 -939 574 72 -938 0
-514 495 -698 110 284 726 0
779 215 -261 -203 0
38 -832 -14 214 0
-541 -256 -659 -799 0
990 591 -91 -24 -829 0
235 35 660 -931 -887 0
-925 294 -997 196 0
756 512 882 912 801 -568 0
-802 89 799 583 -131 0
-751 796 -405 239 0
441 -613 308 -220 -46 -160 0
-853 -686 -208 -474 0
725 752 -227 -919 -23 0
-383 -644 847 -732 893 -530 0
-907 229 484 602 -792 245 0
-846 725 -584 -209 -754 0
-787 -241 573 -99 334 0
-639 -323 -704 164 0
868 -458 -160 399 144 -332 0
-825 -268 -906 614 930 0
960 648 627 -200 610 0
-669 -874 -390 -549 204 -719 0
-38 -15 909 -655 850 0
-622 607 50 -547 -865 0
76 -43 92 -124 974 0
994 517 590 -92 411 0
396 176 937 -839 -995 0
-70 -973 -251 -816 0
671 521 781 786 0
-603 -382 -882 559 425 -580 0
-291 -626 -846 -958 726 0
-382 470 624 933 538 0
-700 -997 -990 -123 0
100 658 -176 -978 0
-702 -374 -594 359 659 -711 0
328 -406 -656 -192 -373 0
-151 -313 -857 209 0
-313 -564 -216 148 0
-320 -283 615 873 -491 0
-370 503 -729 -425 0
-558 130 -96 647 -111 0
222 146 -688 -453 -458 634 0
-742 833 -313 930 0
-689 947 125 -778 -412 469 0
895 -435 -869 896 750 0
748 -69 -552 510 0
666 354 763 275 -928 0
401 -4 -180 -198 0
-817 -340 939 -169 -492 91 0
113 828 -865 -606 -506 0
111 738 -941 -856 690 -881 0
188 406 -105 -303 400 -813 0
-978 358 513 345 -348 -839 0
320 -37 -742 472 0
-214 -211 232 696 0
801 -545 234 780 -182 0
212 -238 905 865 -678 625 0
-42 811 664 -933 0
599 -386 -413 680 0
62 -173 -689 -468 309 0
-716 300 736 825 -329 0
-617 676 696 -487 0
-71 -333 354 -143 0
-185 822 872 907 -42 0
815 -793 -990 598 0
-1 825 -484 60 -817 68 0
-422 85 73 909 -355 -751 0
468 4 -720 450 0
-897 592 810 238 279 0
209 -239 834 597 -447 187 0
-170 -526 -555 -817 0
479 -841 723 -261 0
-1 621 772 -495 -919 0
-245 -290 731 -162 453 0
-321 -661 -50 -424 771 -220 0
-342 -653 26 -701 0
607 803 726 -963 972 0
641 735 706 -155 513 0
-836 468 336 640 513 -43 0
-21 47 397 506 874 0
813 166 -397 101 0
-816 477 -223 -146 0
-553 -648 935 114 -56 0
-572 607 -98 -46 -10 0
120 213 353 -85 651 0
-662 -203 -853 -732 -878 0
-844 92 114 -729 -345 0
-514 -6 186 -260 0
-443 929 -380 -316 313 -398 0
200 339 196 167 0
-957 514 738 -987 -921 393 0
610 344 29 -566 515 0
170 322 969 -583 -70 19 0
776 -922 -106 -977 -279 535 0
856 806 315 688 0
727 992 -737 -286 0
691 -728 -885 956 992 -858 0
73 918 -850 758 313 36 0
-438 400 84 -331 851 79 0
-253 -10 224 788 -235 0
509 137 -260 -964 -903 -205 0
-80 791 396 -522 557 0
371 40 -9 637 -822 0
-976 65 -327 -629 0
-954 978 -352 -149 927 0
-840 -333 -813 -231 -807 -948 0
762 343 836 84 892 378 0
99 331 866 149 0
-482 -454 504 592 -463 964 0
-840 324 -993 -552 -654 926 0
-704 730 301 -982 0
804 -868 911 -282 -370 249 0
384 683 188 795 -474 444 0
233 877 495 135 -631 728 0
79 217 -133 -337 285 -474 0
-688 -54 -395 -874 0
-296 -383 811 -236 950 0
873 282 778 642 0
263 148 219 -9 -324 0
-346 618 -465 559 0
-590 -733 -94 -803 0
-253 979 485 -626 -387 225 0
-538 -612 -659 906 -620 0
913 -549 144 -390 0
-565 706 -864 875 883 172 0
523 -756 -469 163 -96 382 0
-796 596 633 -617 794 512 0
385 -710 -680 -33 243 853 0
49 209 -460 895 0
-40 -760 -724 -63 677 0
-246 838 -972 328 0
-457 380 935 -143 0
875 -484 -943 588 0
48 676 636 151 -355 0
-392 -472 390 -414 656 0
706 849 -17 -234 -432 0
65 248 -211 399 -177 -869 0
-828 126 -907 183 275 922 0
-731 -609 251 750 397 0
-422 708 933 53 0
844 202 -128 -558 859 443 0
-394 -474 -519 169 -587 -27 0
-768 363 845 -731 753 -2 0
-189 -349 94 -481 0
-825 -65 297 456 792 -747 0
658 -815 -761 445 0
-953 449 -506 -197 0
-65 -457 803 30 -460 0
534 -408 883 -936 0
-206 -144 -90 -869 -66 0
-693 237 -735 -989 0
464 -636 305 890 0
143 -19 362 907 0
-739 -473 -210 731 0
524 355 80 22 532 0
560 -525 954 732 195 306 0
591 699 -132 966 0
-649 -151 880 -308 111 257 0
734 374 -953 -610 0
-930 243 900 -771 680 0
-979 -830 -638 -392 0
-656 -32 191 -531 0
5 559 935 -635 0
996 501 655 520 -464 -9 0
379 -183 -629 -134 -943 0
-924 970 414 43 -195 0
-181 749 -176 917 0
105 317 106 601 0
-396 916 751 -809 0
-630 578 500 737 -673 407 0
687 -330 810 269 366 0
647 313 -515 525 374 0
-288 675 -267 -725 0
886 628 -350 -598 19 -608 0
-404 956 53 830 -132 -105 0
349 -931 -173 726 936 0
-187 782 17 215 657 0
-716 510 -82 -818 -995 0
518 -828 -3 -524 -419 0
-733 -474 -726 -736 758 0
870 756 -444 -519 -964 396 0
866 -42 305 296 -145 0
977 -690 -853 -803 19 0
-167 -954 870 -596 -149 274 0
-755 -380 949 792 0
947 -513 -258 -825 0
696 425 -864 33 0
870 -338 935 -712 0
-925 120 -688 250 0
-740 -820 774 66 0
920 60 -963 -426 -114 -485 0
788 288 614 -915 -32 0
956 253 -190 -227 0
-429 809 512 262 0
241 14 9 -341 0
-863 -139 -382 572 -707 544 0
-18 -274 895 -343 977 472 0
755 -204 -484 -841 0
-724 202 384 693 0
-17 396 267 127 614 0
675 -758 -540 626 0
-718 621 358 665 -618 0
283 -234 -288 334 0
664 820 393 -316 480 640 0
-869 -551 71 459 564 0
-668 827 -96 517 818 10 0
-105 978 -880 73 -394 0
323 -576 -375 -965 0
669 -385 682 -447 507 377 0
444 434 -305 -271 -415 0
937 934 61 -82 -697 -358 0
16 -269 997 -710 313 0
332 323 -941 932 395 909 0
468 347 -876 -523 -504 -453 0
876 43 384 -617 572 0
-957 -901 -804 -134 251 0
415 -941 581 181 -578 0
-303 -739 20 269 224 0
-421 452 632 -728 -913 0
2 88 -541 680 0
171 -306 -760 -292 -143 0
310 -705 -960 -301 0
208 841 -487 -812 332 -803 0
739 -267 395 73 241 591 0
878 10 -382 -940 18 -558 0
-644 573 72 -544 936 0
485 226 858 269 2 0
-782 770 300 767 -609 -481 0
-803 -451 -102 -989 0
954 -425 -235 -345 0
-400 315 351 -41 -414 65 0
-151 880 -241 399 0
-869 509 890 -349 451 615 0
931 -776 -253 -295 -58 0
357 439 -567 -616 -77 -548 0
695 739 -952 304 0
156 210 -462 -840 390 -305 0
685 -747 -783 121 939 0
-749 -564 -208 -962 178 0
219 389 251 -144 0
199 -664 -935 135 968 -545 0
844 817 436 950 -937 0
379 -219 908 395 831 468 0
-809 933 399 428 344 24 0
863 -382 631 -624 -508 0
249 547 -194 986 771 -853 0
-602 -470 67 -910 520 0
-630 -698 -51 745 0
470 -161 -460 65 -955 -887 0
-727 -79 -327 -201 -274 0
19 -662 838 -360 -103 0
-458 405 71 516 -603 -399 0
903 -87 219 820 169 -71 0
-810 766 795 309 0
-433 -865 363 765 0
-359 -816 91 491 281 0
369 -987 188 -58 506 0
-646 -595 535 776 -989 0
-787 -180 -501 -995 310 -727 0
-577 -186 -205 164 -151 0
606 109 189 182 0
-839 635 797 -738 636 0
164 -869 -734 -328 337 -899 0
408 -726 -560 -750 0
357 -167 604 958 0
-790 -32 988 -552 407 -935 0
-706 -128 -539 691 0
875 -507 711 -456 0
806 -562 707 -817 0
-554 276 907 -452 -43 794 0
276 -472 451 -120 0
562 578 639 845 0
605 -155 419 935 0
7 -654 -693 -281 0
-876 156 205 -665 0
-975 25 -23 885 449 -688 0
359 -52 -361 134 0
-839 -831 234 -864 439 803 0
188 -463 501 -141 194 0
-205 -83 -188 -752 795 0
-167 -878 -128 328 -884 0
55 74 -272 -448 15 39 0
346 453 -960 659 523 0
-47 712 92 528 901 0
729 -439 -859 786 648 0
-43 116 703 -469 0
503 -206 933 -821 403 0
91 -981 -593 -893 -719 513 0
-819 45 841 -184 89 986 0
-8 846 -761 -163 -793 0
-492 -796 -637 -879 0
45 -701 664 -956 0
997 -862 -649 -947 811 0
-928 996 800 -4 -694 0
756 127 -220 -747 32 373 0
481 992 339 384 0
222 -774 972 539 0
-350 759 -111 -319 990 0
674 937 104 -429 31 0
-151 -132 943 -387 -593 0
279 56 46 -701 0
-45 404 -163 -890 599 330 0
729 796 -609 498 595 0
851 201 642 -993 0
-623 242 804 591 -566 0
-609 -874 -234 903 0
-82 434 206 -361 0
273 -614 -362 109 291 -856 0
709 601 -864 -164 0
-177 -531 408 -994 -142 565 0
632 176 876 78 0
-963 656 -171 574 0
-713 987 -475 -716 0
-322 -106 -818 725 713 0
-859 882 11 -842 0
-279 836 286 -533 0
27 746 502 -407 -272 0
831 -369 -532 422 0
631 -73 -844 -199 336 -444 0
-883 -862 -56 -350 354 0
6 355 -37 21 -593 0
361 228 -794 313 0
-631 -54 -914 -228 430 0
841 764 333 932 578 212 0
-421 -176 204 254 0
-401 -177 -875 -705 146 0
341 -683 -677 -39 -388 0
-800 111 634 412 507 -522 0
-304 425 -371 141 -31 0
360 -321 740 -229 732 0
-888 91 622 802 0
-815 -407 -229 -352 -726 0
-91 -875 -560 -905 -76 192 0
-357 -532 -900 386 0
697 733 -671 -484 0
31 984 835 435 0
127 -254 133 409 0
-660 809 601 473 776 0
846 89 498 754 -479 -953 0
161 -28 393 832 -280 0
192 -142 410 59 0
379 -926 864 321 295 0
-357 -482 552 521 473 177 0
402 906 884 511 0
128 844 -267 803 0
-113 503 788 -983 -517 5 0
913 84 756 135 0
-287 943 42 967 -830 400 0
-747 -960 -246 -79 -281 -871 0
-673 504 -384 -261 0
618 499 -415 -993 181 0
-324 215 -338 212 -620 94 0
-501 251 -409 626 -761 -562 0
857 712 -912 -18 110 693 0
-495 -364 -684 830 -318 0
908 -319 664 -718 0
635 -875 772 829 525 0
585 -853 -865 -959 882 -421 0
-461 -305 -258 -660 0
924 -480 -65 732 410 76 0
-580 390 629 -601 0
-127 985 -698 -765 0
-72 -758 323 -553 127 0
-215 -308 -124 495 0
-880 -61 -710 738 37 -925 0
-299 663 50 790 0
-148 -379 -766 992 -231 -322 0
-719 910 -163 205 876 994 0
-363 35 846 625 875 509 0
-363 723 -362 -720 0
482 694 538 293 0
419 758 601 716 -544 -975 0
-547 -423 -34 -6 0
876 323 860 -292 0
399 -171 112 52 0
607 115 521 733 -503 0
162 -750 -972 700 344 0
-475 -763 77 966 0
-120 877 -603 288 0
-433 84 -607 -198 -899 0
707 -798 -463 -619 -864 -2 0
678 842 -492 -562 -877 0
38 -107 16 -397 0
329 -840 400 -762 0
-795 217 134 789 -51 729 0
-500 617 -221 438 -93 0
380 -4 439 -289 -78 0
47 886 872 913 -808 -889 0
-391 -133 424 590 -685 0
510 -906 -227 -257 0
-705 -665 794 243 38 0
485 -862 308 -666 -221 0
-546 -434 719 310 -41 0
-450 -799 862 -192 203 0
-757 414 704 -341 0
-626 435 -333 714 144 -79 0
-314 -583 -904 -731 0
-932 227 -388 19 0
-135 331 333 -612 0
-845 -669 978 -631 562 0
-198 4 94 259 926 0
275 432 -545 -485 -997 0
-78 -869 -594 104 120 0
-794 136 -26 521 0
-901 -621 -655 -9 0
16 -939 395 -583 308 0
-370 -88 -42 -775 0
288 -504 -585 630 -448 0
-723 779 774 180 -771 603 0
-506 -153 779 731 0
262 677 -115 -40 0
-59 -317 -526 -735 376 -747 0
-65 670 -463 -184 0
-125 672 401 -77 866 -457 0
175 130 225 -172 -359 -372 0
-755 130 326 -302 169 0
495 -916 -737 -470 0
52 -726 351 163 -101 0
-338 -640 502 780 0
224 541 -517 282 0
-722 352 -711 246 -770 0
225 -708 690 -704 -645 0
211 795 915 764 358 921 0
-697 -739 167 -259 177 0
-548 -432 438 612 558 0
842 -757 -631 99 -269 0
154 769 -150 -797 -902 298 0
852 792 -776 215 -205 0
-253 -114 112 -742 -131 0
-925 869 394 501 839 0
-40 -381 -683 108 0
-838 636 -293 142 0
-699 485 755 -110 0
-650 509 -4 209 322 0
492 -439 -859 499 286 797 0
-209 608 842 -395 -911 -713 0
-498 767 -737 -983 0
-433 804 -791 345 -916 0
843 -379 -93 768 0
-175 365 425 -85 0
621 808 -482 74 0
185 511 10 506 286 623 0
-77 170 -775 204 -738 798 0
-292 -376 160 23 0
-187 228 139 721 538 0
-928 35 -267 -530 979 335 0
-31 266 -843 -695 -252 -950 0
490 -537 278 -203 0
618 149 32 -715 0
-333 897 -450 654 -518 -294 0
-675 -953 -171 642 97 0
210 468 -265 -168 0
780 -252 -396 -911 363 0
-326 -400 41 376 0
-66 900 257 -741 0
706 -948 696 397 -620 0
-968 -339 233 828 -203 248 0
-917 863 -976 746 830 0
-586 -914 -394 184 353 628 0
-783 159 37 -741 -174 -920 0
-332 562 -550 -915 0
-171 692 -11 445 271 0
-360 -57 533 -887 525 0
-445 907 932 249 0
270 90 571 867 0
-610 254 232 662 284 0
661 702 -690 445 0
434 -392 48 -3 915 150 0
413 -900 -631 888 -579 0
399 233 -127 -823 0
-178 -866 65 -403 0
194 5 605 -712 0
545 498 -946 -399 -470 0
-678 791 -20 -62 0
748 863 -695 659 -267 -214 0
-573 973 -50 -525 30 -195 0
-744 779 916 -597 0
-133 267 973 -965 -283 -590 0
-422 -979 501 -745 630 -932 0
559 -211 -407 950 366 -906 0
559 332 -41 -884 0
-569 -798 547 897 -467 310 0
-542 -293 747 122 -644 0
-321 647 -785 902 0
82 -548 -973 -437 -617 0
-657 -924 970 716 0
379 524 595 441 829 0
-855 -18 412 924 475 -273 0
354 -150 -947 -889 0
746 626 -823 378 0
228 138 14 -834 789 725 0
-863 317 -131 -621 -341 -414 0
-509 237 -213 845 -749 -66 0
-729 713 521 -259 338 -920 0
422 -202 -345 980 -984 -335 0
222 -218 726 702 0
-842 -653 -890 95 771 0
346 -320 -30 228 -978 951 0
586 145 684 -620 -973 0
-270 -970 -427 9 -952 0
-255 -764 494 -228 605 0
610 957 -262 -571 131 -851 0
-578 -293 -417 -540 812 0
-238 592 467 -627 0
-115 -122 884 235 -742 0
139 -399 -829 -281 -184 565 0
-746 283 -713 -530 0
335 937 442 967 -455 -276 0
-963 697 -259 23 -831 877 0
-850 143 -159 310 -832 -67 0
975 121 771 -237 911 680 0
332 -283 767 732 -811 2 0
238 -153 713 48 276 0
178 323 131 -953 993 -147 0
-53 126 664 590 -138 -210 0
-935 -422 -853 -218 0
-243 -677 76 -862 -310 68 0
-238 -870 611 -695 0
197 175 -736 -922 -704 490 0
481 -98 948 630 -78 -877 0
255 -151 140 -460 277 0
109 -115 787 536 0
759 142 974 -544 0
-22 -305 -316 -824 197 0
488 221 -99 -241 0
725 481 901 252 -91 -715 0
961 -50 844 662 0
-162 16 467 971 0
770 422 -266 -547 0
654 -586 794 -571 0
4 867 995 654 57 -602 0
-204 -474 -117 974 -748 -813 0
508 -156 -344 -203 -274 822 0
92 402 961 -732 933 0
-793 -12 -795 -811 -652 0
360 37 711 -894 396 0
723 998 -225 -1000 0
460 -708 347 -721 0
-32 320 -335 -21 -928 -449 0
-494 -33 -363 336 0
-602 616 953 595 -462 0
-734 230 -905 187 0
-748 959 974 -949 0
-586 -397 -974 306 -544 0
751 424 -457 310 29 0
379 -651 394 -103 0
966 846 -920 944 0
343 118 -558 95 763 -899 0
838 555 -736 688 0
-580 22 -50 205 890 -425 0
276 911 777 -398 -682 0
-535 29 -224 -893 0
351 -701 139 571 0
98 -101 782 983 0
570 419 707 -673 -634 0
304 -354 -497 518 821 442 0
-139 -363 -571 -127 -595 0
-635 -787 -745 -502 -171 541 0
98 308 484 550 433 0
-593 937 109 375 77 867 0
-747 -377 -603 -594 279 745 0
44 -54 374 773 9 0
686 -503 983 615 0
374 -450 -357 171 863 -476 0
-340 314 -961 -577 232 356 0
-264 138 -341 -599 0
-635 452 -703 63 0
565 -360 -109 116 759 960 0
-177 231 188 835 -717 605 0
-902 691 -241 -387 0
-81 -89 -567 396 -888 0
113 903 607 733 -615 -666 0
954 -35 416 396 -793 0
-607 406 855 -970 -863 -297 0
61 7 -199 671 -480 228 0
552 -5 -565 577 205 -714 0
63 840 940 -743 410 813 0
23 733 390 211 0
275 217 379 310 -174 -710 0
-354 286 997 -454 -702 159 0
-65 -857 -380 -388 0
-235 -213 -615 -558 453 13 0
744 807 313 -369 738 129 0
602 756 708 157 520 392 0
-346 -430 805 -213 -245 121 0
964 -700 982 -711 629 0
-732 -337 -332 -154 153 0
-276 120 343 -127 -84 457 0
-662 777 -240 -998 416 0
-257 -7 860 351 0
-946 -411 -501 624 997 0
-870 265 -803 163 0
-28 2 450 226 144 0
-468 -669 520 -125 0
16 -182 379 719 -694 0
725 -22 143 -724 0
-144 -109 250 -15 0
67 87 914 -940 0
131 786 -52 359 -291 0
-673 -565 119 811 442 0
891 174 469 463 789 852 0
385 -118 -894 786 464 -353 0
359 -761 503 -985 6 476 0
182 -529 399 -837 0
-428 -906 180 858 269 0
-344 81 45 293 600 0
-499 107 271 450 0
-222 977 -664 81 0
-385 54 -351 728 0
959 -972 864 523 -481 0
873 214 977 396 0
-979 788 -135 250 -900 0
912 946 142 924 0
534 346 -625 615 -667 -806 0
-508 -870 830 477 0
382 326 684 -572 -784 -868 0
751 -640 -551 -189 439 137 0
659 -775 943 -325 634 809 0
-198 114 713 -139 973 0
-903 -854 -364 -39 -892 -458 0
-132 -102 -128 -713 0
-901 -144 -710 199 0
-180 -281 -810 -589 0
-198 -165 810 -679 -764 0
967 -48 970 219 452 0
760 -938 -48 676 320 -666 0
-238 -998 -765 -833 338 0
-546 930 -2 644 0
-972 215 339 -843 -635 0
460 666 -219 720 0
32 342 859 -315 -756 0
-48 127 675 -509 0
-762 350 -483 -908 -991 0
-878 507 -272 -73 831 597 0
609 -473 -326 792 -580 576 0
633 288 -1 -955 -700 0
673 -553 707 352 0
936 469 971 495 -168 0
-786 -969 -855 781 0
580 21 -66 -627 0
76 103 497 -378 -517 -630 0
57 -399 345 855 -420 647 0
423 852 -875 -775 0
74 94 234 -275 375 982 0
-988 -994 -225 -948 0
419 -481 -90 -534 0
-190 -487 -22 132 0
445 -583 787 -2 0
391 895 731 -489 0
-936 683 -22 676 697 0
259 -23 -76 514 710 0
-987 492 270 -120 789 0
313 -416 -877 -731 -643 669 0
553 -916 969 96 38 975 0
88 -205 628 -182 611 -916 0
-667 -210 143 466 115 460 0
826 -366 993 126 0
185 -33 -397 -609 339 0
-987 97 -311 -535 -125 0
-722 919 -974 726 324 128 0
332 -897 -481 -958 900 0
-552 -784 -510 -357 -584 589 0
-198 482 178 -192 -347 -283 0
384 541 972 282 0
49 173 153 116 -812 905 0
-69 455 789 -977 -513 0
-840 856 -706 435 -193 0
-937 878 -541 -957 -362 78 0
736 -668 -25 114 0
-193 -836 -659 518 -373 966 0
692 -442 -337 164 625 0
224 -915 567 905 0
850 485 721 988 -543 159 0
-504 854 408 454 0
-309 468 -246 -419 413 635 0
768 -604 451 -747 -233 0
750 -358 -16 -559 0
849 -713 -568 360 889 0
-646 -870 66 285 477 336 0
-82 406 -229 412 478 834 0
-649 -425 -107 -27 217 -374 0
-749 -773 891 -246 -760 0
-600 -638 444 -171 -243 329 0
222 35 -312 245 604 771 0
393 480 -407 -350 125 0
-17 -973 -661 177 893 0
235 213 902 -369 0
-46 -7 -750 -888 -102 529 0
-491 -644 -520 138 225 -838 0
705 731 -570 -235 308 0
970 -233 -469 -987 82 0
-726 482 952 935 745 176 0
124 -285 842 394 -802 961 0
530 -284 -42 -989 978 710 0
399 313 957 -297 0
985 -543 694 612 -302 -562 0
10 -929 242 -793 0
193 -188 632 -172 881 0
-258 239 -67 -596 -160 230 0
799 -14 -844 -606 -641 739 0
-112 841 405 -254 452 0
-285 -116 -504 945 0
-616 -832 -954 222 902 0
561 -216 -911 -457 -978 0
618 -745 -484 -317 -499 0
99 -165 601 386 0
375 249 800 70 -996 0
556 145 -53 796 0
-439 -566 -697 532 0
304 873 -27 -564 -485 0
440 -243 -854 1000 0
781 323 -601 -274 200 -265 0
-428 -881 888 -85 0
312 -399 -199 -289 0
178 -500 320 -134 735 269 0
346 126 603 -16 220 -430 0
-330 551 -355 -702 0
-755 -782 -600 -511 0
112 586 -694 -148 0
-606 774 -267 -509 -327 87 0
90 -951 239 972 -881 0
640 -847 171 -482 -732 0
113 59 5 667 0
195 472 -410 723 0
678 -12 -189 -656 504 -157 0
798 573 -426 862 -476 0
-388 -563 782 88 724 -438 0
-110 588 93 414 -473 389 0
-720 -645 906 -637 418 -52 0
-339 -36 -876 105 -63 792 0
-630 99 967 -519 487 0
-499 -368 -203 126 21 0
447 774 324 531 0
-813 683 552 680 370 -933 0
268 843 491 144 922 -892 0
-724 353 892 233 0
776 341 -897 183 681 976 0
624 823 661 -159 213 0
-308 517 292 -145 0
-8 -260 866 -313 0
437 -508 -290 -757 -481 0
177 664 -605 -34 0
699 127 -142 -789 0
339 74 514 -991 129 103 0
239 -213 -870 -556 0
-228 -318 253 421 -723 -856 0
312 216 905 47 -716 0
925 691 880 510 0
378 511 442 689 838 0
-124 -778 237 -472 -668 752 0
317 799 -912 -634 938 990 0
161 521 815 599 -382 -840 0
-154 754 949 699 566 0
-398 -101 802 -198 945 0
682 47 -261 -255 564 -23 0
513 484 -815 974 -447 0
-637 600 -189 -895 -412 0
-95 366 -231 -728 0
-645 -819 510 -131 -696 0
129 637 -478 390 0
860 459 -423 900 -438 0
-661 -460 -701 -113 0
67 -10 -408 53 0
-753 812 905 307 523 0
-68 -814 330 -916 0
-770 430 -498 603 -803 -583 0
-682 807 73 -766 322 0
783 -748 -542 -555 -554 0
-409 558 -714 -156 -439 578 0
651 210 -470 448 -508 0
-190 229 238 -106 772 0
-982 297 951 -339 18 517 0
-409 -879 851 -817 592 0
-218 580 -920 -526 -764 409 0
110 917 280 -141 857 -980 0
-894 -321 255 -547 0
-546 -306 -467 910 -58 0
711 -982 -957 39 -28 0
-362 -46 273 -214 126 269 0
-166 -78 -548 728 0
-658 881 518 352 556 0
-830 242 -618 63 0
-472 -713 -56 -769 0
-276 -914 -742 1000 898 0
322 243 78 -437 -476 0
707 -872 176 -978 0
200 -220 46 518 0
481 126 514 -666 -488 -250 0
542 -785 413 -51 36 427 0
-278 674 710 442 -216 196 0
-765 -249 486 740 54 0
697 760 -179 -933 0
-479 -262 -840 -487 0
304 -704 631 -475 471 0
-578 -905 -456 -87 0
-442 -240 -142 -233 721 -428 0
-93 153 112 338 908 0
-229 758 -516 -180 539 0
-98 -806 460 807 0
-377 -140 -4 -874 0
278 -255 -457 -729 962 0
428 966 403 -796 783 -70 0
437 -420 475 448 0
-902 -390 219 -692 -290 0
322 -819 492 -869 -659 0
889 -756 107 961 753 0
-296 -863 -608 524 0
879 -363 -810 954 0
282 676 -691 390 0
-341 901 640 -269 -223 0
-310 589 855 -902 0
-443 -985 637 118 106 72 0
-296 -937 -174 609 -228 740 0
-26 -766 -588 450 774 609 0
338 52 70 -888 -340 -245 0
-98 131 -514 998 0
-182 550 -692 413 0
214 754 -541 -986 0
690 -567 -672 -934 530 245 0
209 911 760 -604 0
322 438 400 617 0
22 -407 -640 -958 681 -917 0
22 -356 422 -219 834 0
429 -302 -295 907 296 0
-550 223 865 -774 637 918 0
-298 -842 946 277 -907 55 0
669 831 900 -634 -136 -69 0
628 392 -400 -649 0
968 639 -955 233 158 0
729 548 347 -627 410 0
893 248 -567 -499 12 -177 0
624 -975 952 -990 780 0
383 64 -636 743 832 -29 0
416 -856 532 860 -713 0
-214 -392 -220 -235 -529 -538 0
551 967 -406 794 0
-147 -919 575 -569 0
352 -754 114 469 -883 0
220 711 197 -71 -677 0
-457 479 -810 595 488 0
620 -588 665 670 0
-709 -900 196 -935 -313 0
-321 -135 -361 412 0
369 -392 678 179 0
-703 -533 25 313 0
801 18 -159 -602 932 0
900 -928 432 411 651 0
16 416 -834 -178 0
630 984 283 -371 47 934 0
-602 705 -321 160 0
878 -465 -90 879 0
-800 -764 -165 -410 0
452 -874 -174 191 0
246 114 200 881 908 -535 0
-608 772 -779 324 0
77 316 -943 -786 0
274 626 663 -177 0
172 80 -896 895 0
50 -57 74 -829 0
610 -407 654 44 -182 -282 0
-823 480 -267 -821 0
215 -537 173 651 0
384 842 743 -654 -841 0
655 270 -727 -779 100 0
-543 765 285 -301 626 -345 0
-342 31 270 930 0
673 267 876 661 -253 -315 0
-235 -657 -369 -252 0
118 -5 -598 -508 -125 1000 0
-928 780 781 -314 0
643 -32 -317 -772 423 0
343 32 851 723 -898 0
205 74 151 -505 769 0
360 529 -693 -181 -777 0
880 -397 475 919 302 -974 0
-247 784 295 872 -825 0
-499 -151 -557 238 756 -533 0
908 947 -505 -479 0
149 542 -226 389 0
-143 721 -527 -252 0
856 -432 186 -965 0
-851 -997 -762 155 -741 0
-984 -462 -741 350 224 -368 0
-579 -36 35 -647 545 0
334 -105 422 -627 0
722 919 60 797 408 0
831 -241 317 273 -126 -873 0
-823 147 -275 254 0
-374 968 518 -274 460 0
573 680 72 725 893 -430 0
867 -562 -85 33 824 -457 0
324 147 786 85 0
114 71 -282 964 -499 354 0
6 -84 101 364 0
966 -725 240 -319 -276 0
-543 -873 862 -489 0
566 43 211 385 158 -95 0
-217 -3 -747 -373 829 0
123 -300 161 -419 -847 0
992 -935 255 -205 110 -454 0
254 673 -736 -192 0
-99 858 -522 -917 -811 70 0
-364 -160 467 -878 0
-319 -423 -716 904 0
862 -819 74 -695 505 92 0
870 -555 -770 -439 623 -446 0
-90 948 -9 -853 518 0
-557 -839 -498 -421 -427 0
601 187 -93 644 0
370 -227 541 -568 350 0
18 87 -524 -999 0
-240 -73 134 889 0
-327 950 -4 -942 -848 0
-399 -753 558 128 -277 -178 0
-807 -888 -1000 435 -367 403 0
-128 -983 -666 521 0
-180 -637 -792 -575 0
-928 650 -37 -36 976 0
985 -440 986 -988 0
-371 344 226 467 87 38 0
110 -395 -254 404 873 -983 0
-782 -316 518 -860 -347 0
162 692 -186 -306 0
148 161 -356 -757 348 53 0
-298 494 -538 -252 0
333 449 -659 -419 -26 -366 0
-919 -654 -664 136 46 146 0
-713 883 -222 632 954 332 0
-60 467 -965 598 -415 0
842 326 901 101 -873 576 0
-674 201 639 682 -452 0
-278 -859 -13 -417 158 661 0
-506 -98 -238 -585 0
103 -323 -279 -153 -179 321 0
-281 -474 459 -787 629 218 0
-649 -520 -555 896 0
108 504 -472 -594 671 43 0
426 -294 167 979 0
-558 630 -268 325 -883 -173 0
-27 -744 -302 666 -922 0
-904 -438 604 -503 -492 -49 0
-721 743 -571 696 0
333 -926 12 689 0
844 -966 -340 -815 0
921 -98 115 413 -902 0
-375 -562 841 -611 -978 70 0
307 -292 790 447 0
143 240 -398 550 338 -592 0
-430 -99 -131 887 0
917 21 -522 255 -211 0
412 818 -909 587 0
-632 -355 929 450 -387 -266 0
722 -245 -957 -460 -612 0
-357 895 349 -88 486 -846 0
816 -197 -631 491 0
-501 -990 544 288 0
508 -28 340 537 0
-652 -653 -304 -577 -908 503 0
276 131 915 85 0
341 970 -811 -910 -304 -646 0
-904 -568 579 157 431 0
-693 35 -124 -291 -843 0
-740 -132 -153 -877 0
476 290 403 -16 0
-294 164 608 -868 0
-373 40 655 843 0
-925 29 -284 -854 232 -112 0
-717 -495 654 -382 609 -746 0
991 -499 397 -728 327 0
-726 640 615 -963 0
440 283 710 800 332 -745 0
610 586 -666 775 -578 -478 0
-280 595 125 357 0
295 -436 76 14 -841 626 0
-434 24 284 -693 0
-312 826 352 174 0
314 -803 336 909 59 0
58 -333 830 -734 492 0
-799 112 -562 -249 91 0
189 846 695 467 761 427 0
638 -549 686 -158 0
117 -611 -568 742 48 656 0
-25 -836 114 -848 0
-541 876 -594 -284 88 -919 0
-658 -608 -718 -651 436 0
529 -126 -602 -822 0
-916 453 -960 363 0
963 -592 595 946 0
469 -566 -526 319 90 576 0
817 -906 703 -497 -863 0
-544 46 -37 -162 194 0
912 -902 829 13 -773 283 0
-541 731 586 314 -702 0
-91 949 392 -542 338 0
504 428 71 -178 -272 -188 0
-617 -776 -797 -741 0
-25 624 334 -887 0
563 -825 750 -504 227 0
208 271 185 132 -104 0
-897 619 803 -826 -6 0
-327 -795 -135 -577 886 0
695 120 796 246 831 0
-285 -562 916 579 0
762 -107 643 -887 821 -461 0
678 699 -562 82 0
-994 430 -464 30 0
46 -589 -459 791 0
-52 -234 938 -56 0
-779 -884 -570 -300 0
-85 281 635 -218 0
823 -978 942 676 583 0
-103 715 -149 -164 -982 0
-325 -86 -586 180 -561 0
-717 -969 -436 -615 0
621 459 954 -408 252 427 0
-845 -372 298 -451 0
848 390 465 -243 502 0
-710 -690 -175 -499 -898 128 0
779 -136 215 511 0
-736 110 -478 490 409 0
-187 870 -899 849 987 0
-529 86 509 -564 -533 -985 0
363 726 -128 -368 0
-749 278 -657 -53 -465 0
-510 413 606 823 143 810 0
-460 198 -239 -936 694 0
-986 842 897 -37 -364 -312 0
675 -702 -239 715 -53 455 0
198 418 -389 -506 -638 537 0
493 91 -759 -467 -666 -395 0
353 -617 -282 920 -44 0
349 440 -806 -802 574 0
230 -567 -103 -751 410 92 0
-803 -717 -214 336 -247 86 0
-886 493 182 -378 998 285 0
-156 467 -947 -983 -649 114 0
275 -810 872 -589 0
-226 -69 -280 -436 0
-14 -577 340 969 0
-212 -961 -768 97 584 228 0
-683 457 704 65 881 0
-511 -765 -419 450 0
-967 -13 298 -910 -745 366 0
475 -748 -501 -685 0
-432 623 539 -823 -758 0
129 -771 27 282 -151 581 0
653 -289 172 879 -634 0
701 -825 -579 -28 -414 0
-809 -214 -343 329 -512 -26 0
595 934 91 -154 0
-198 597 53 -976 0
-379 91 223 804 374 -759 0
585 -539 114 603 -292 614 0
-680 78 -930 633 19 928 0
765 -482 -809 124 -612 0
867 -527 884 -617 0
45 -588 -332 -441 800 -66 0
527 -421 903 159 -913 0
-615 282 -764 -897 771 231 0
-962 -469 101 611 177 464 0
258 -628 331 738 0
896 445 832 -815 0
618 12 723 368 0
804 -965 -644 -272 -197 222 0
377 229 -274 -525 633 0
-789 -120 -22 749 521 0
-25 31 413 -80 0
-672 188 -553 -359 760 268 0
25 534 490 -11 0
-514 -771 17 907 619 74 0
758 -176 -970 -253 -538 0
-415 94 -600 667 0
-28 -133 -257 -935 0
562 -353 177 -998 -525 0
-872 207 863 -611 537 117 0
-360 685 963 -354 -712 0
290 -321 -181 -602 -798 0
784 807 81 -661 712 0
-99 -63 536 -572 -488 0
213 -529 -106 156 0
493 718 542 289 0
-986 767 -172 -132 896 0
-2 -67 796 224 0
122 -822 178 842 0
-719 106 -379 836 0
-50 -209 309 -798 653 0
158 -720 -962 499 -345 0
-395 -515 890 -694 0
-421 -667 -800 -777 871 -973 0
721 -908 -66 -734 0
-977 -912 -611 -478 790 0
937 -990 -930 702 0
-210 108 711 814 911 0
-507 584 -951 608 0
692 698 957 -608 -800 -665 0
237 798 688 144 943 0
631 -210 -437 837 -440 700 0
334 522 222 -519 -193 -111 0
827 -312 577 -828 -673 0
-423 -648 736 92 0
728 85 119 -470 -957 -448 0
44 -765 644 89 -913 -449 0
873 568 -97 -514 -572 -406 0
339 -730 80 944 0
-679 -977 -897 -955 496 0
360 293 563 -646 0
-631 43 535 -91 -668 0
-252 273 -385 836 0
-581 -424 -357 970 0
344 593 774 -842 0
-965 481 -278 -730 0
284 -165 -147 -261 0
120 -904 138 -68 0
-390 -584 -879 430 0
-501 954 740 -767 894 0
814 -845 115 46 436 0
990 774 -101 -751 0
-950 -228 247 -685 -468 0
-125 305 -134 -353 248 -925 0
-173 840 -858 610 710 -282 0
283 631 179 877 -257 23 0
147 -872 183 -276 837 0
432 -956 608 -339 0
780 -716 -113 681 0
755 -186 -883 264 0
-182 190 863 921 570 571 0
605 -563 -380 721 -692 0
499 959 -141 -236 -774 0
831 -791 -914 102 -26 0
-768 341 770 209 0
809 494 -648 178 -188 0
909 832 14 294 0
-408 989 832 -744 0
773 151 771 -159 879 287 0
-298 819 -762 983 -813 706 0
918 185 653 -225 686 978 0
421 -438 -873 333 0
-140 -927 525 -706 0
779 -480 -514 572 -970 0
817 968 549 552 871 0
-259 -539 869 -308 334 0
-264 407 23 -102 -307 -476 0
-769 -253 142 271 -73 0
-453 92 309 -127 641 -875 0
104 400 49 906 263 333 0
-358 -633 463 -215 -906 -531 0
381 520 761 -246 973 -777 0
248 -611 283 159 0
235 -1000 918 -452 978 482 0
-271 171 326 874 940 0
-427 -905 165 694 0
-654 -176 -432 -315 -614 0
321 -846 -110 -928 -271 293 0
-592 -850 -793 132 -467 -265 0
-780 241 -62 -754 227 -752 0
348 488 -56 -454 329 -782 0
-920 -596 -703 794 0
898 586 -973 592 -275 -566 0
-684 -50 975 -952 836 0
-348 -774 733 468 0
27 496 474 -593 -648 0
455 -779 998 85 0
311 -988 -123 -859 0
-505 -840 747 -952 -649 47 0
-740 -321 374 -37 0
933 -218 634 -148 -397 -415 0
-446 909 -790 -53 0
-62 823 266 222 642 0
-967 -936 156 -867 382 -914 0
-139 254 -633 -913 0
-879 593 363 -962 0
-502 321 523 150 0
-23 -646 -179 219 0
-139 -675 935 763 0
380 906 920 -263 0
898 8 354 531 27 0
536 -820 215 -572 -366 0
86 -258 -333 -146 40 0
-614 963 -850 466 -457 0
861 884 -637 676 -348 0
-145 -189 -266 -90 684 0
901 659 908 -700 730 -94 0
-414 -819 878 -987 -721 0
708 115 -658 292 771 -7 0
211 -609 484 175 -505 0
873 412 547 839 -193 0
-747 751 -489 -279 0
804 281 -712 818 -257 -123 0
310 835 833 -874 106 0
-520 459 767 -592 -398 -792 0
398 762 -222 254 459 0
31 -714 109 -371 0
872 793 -389 330 -254 -767 0
391 678 102 357 0
-487 -46 61 -827 128 0
20 -900 -404 -614 -119 0
-772 -748 -536 176 -374 515 0
-665 6 -629 879 220 -964 0
994 74 -118 -413 359 369 0
-944 -355 -84 958 0
-469 133 -782 -667 -647 0
-379 278 -936 -91 0
501 -885 464 29 -276 671 0
-487 -332 -40 -792 -45 0
206 -248 888 -266 -293 0
97 562 -174 266 -223 627 0
532 131 643 198 -2 269 0
-623 -367 -907 715 344 26 0
-282 442 -180 519 -141 0
-342 -585 -241 -985 -162 -656 0
477 -21 -455 -905 0
788 548 -337 593 0
-327 -868 -155 -911 369 0
-610 -921 -399 -27 124 412 0
-952 -916 666 -565 767 0
-436 -443 42 -462 509 -7 0
753 -267 730 746 -757 0
-454 653 348 809 415 0
355 -981 746 506 502 152 0
-217 -148 -864 923 0
-188 454 523 -756 -917 0
-885 -923 -117 86 0
-603 -903 638 -900 106 -332 0
-38 -69 910 677 3 -946 0
-80 -917 842 539 0
-444 -514 921 394 751 0
-674 933 110 -72 0
-851 37 -78 -920 -273 -117 0
200 182 150 586 305 661 0
-543 910 -81 -72 -904 0
492 -621 870 -323 -985 -938 0
1000 707 -381 -477 8 950 0
-147 -353 -952 62 0
-488 737 984 651 -138 0
-877 -784 -8 348 -848 0
-539 -547 -863 707 257 0
-764 649 27 46 0
-98 -363 -67 213 -881 0
155 176 -708 896 -859 0
107 221 -748 -201 0
-376 229 -881 158 -207 -87 0
451 477 87 -342 0
872 -934 435 -61 0
125 379 -592 -939 0
773 792 -517 -628 771 0
817 500 -661 -544 -325 -444 0
383 -833 -61 930 712 -252 0
859 -85 491 573 -515 0
-125 -633 881 787 781 0
-846 -976 573 -198 -975 0
823 946 -994 23 0
566 -522 -185 869 0
666 -467 -673 -944 384 656 0
-763 -111 467 -179 0
-940 649 204 -569 610 0
-475 253 -570 439 0
-113 -89 -991 -565 0
420 275 39 -856 875 -553 0
322 615 602 250 -903 -115 0
660 521 536 -74 -454 48 0
-916 -27 -480 709 -232 0
-602 -249 -955 410 47 -616 0
-382 -161 -595 -26 982 -696 0
-860 -406 -297 65 -195 0
-771 -539 -293 651 -476 0
-734 -493 429 -242 -981 0
528 -215 167 964 68 0
-503 324 -926 775 73 -244 0
555 631 -301 -166 0
-228 339 -79 -695 -792 511 0
