c Easy-SAT formula for GPU Gaussian elimination testing
c 1000 variables, 2000 clauses
c Designed to be easy to satisfy (fast SAT) but large (slow GE)
p cnf 1000 2000
1 0
2 0
3 0
4 0
5 0
6 0
7 0
8 0
9 0
10 0
-229 543 -435 -481 0
-932 958 204 -572 0
-625 -43 -930 -846 -788 0
-492 -662 206 249 384 706 0
106 47 -114 -936 -400 0
-280 -531 -941 747 366 222 0
133 496 576 -121 0
788 849 514 95 369 -541 0
813 -73 -268 713 -347 -230 0
-981 52 -953 -660 595 0
184 -720 85 503 -634 682 0
469 305 130 -609 0
-50 65 -991 -207 0
571 -231 -805 466 0
-937 852 328 296 -866 -769 0
-582 -300 941 378 -12 0
318 46 142 249 0
286 146 294 19 0
-77 940 -760 699 393 858 0
-580 518 817 780 0
-452 361 -791 203 0
-346 -555 -37 669 -914 0
-106 592 -786 275 0
-571 330 -189 714 -385 -448 0
-321 -556 -43 -328 0
977 -254 319 -517 -23 -318 0
-4 -337 241 -866 490 0
141 -86 -232 -149 0
-777 -739 776 920 284 0
-44 -200 -490 850 418 -809 0
-213 -378 221 724 651 -491 0
467 -979 343 -18 0
-846 -609 312 746 0
815 798 163 -230 -184 -549 0
-932 -667 778 88 -920 -990 0
-266 -623 864 319 597 0
503 305 809 -192 0
-740 359 874 414 -329 0
-910 -261 -64 -92 828 0
-537 -874 -377 708 287 0
-482 -992 940 -112 100 -165 0
-403 -789 -994 -87 -475 -82 0
-899 169 303 420 0
-692 -271 826 339 -46 0
-476 328 -242 667 0
232 -455 594 511 0
744 -245 275 982 188 0
746 639 59 -219 0
-784 846 953 440 0
-79 -971 691 702 -937 0
-740 821 -422 193 722 0
-544 -738 -689 -891 -974 -249 0
121 498 -615 938 0
-647 631 242 -495 666 37 0
167 -61 -594 267 20 208 0
-85 730 250 -917 -958 0
414 301 -687 -1 -773 0
261 781 -377 -859 -567 -689 0
-420 955 58 -706 0
-971 -854 -51 35 -721 -879 0
-195 974 55 -730 0
275 407 -811 -988 0
-982 59 618 437 -190 -526 0
660 -330 -893 561 -682 -278 0
864 -307 904 514 979 -181 0
-656 554 925 -908 0
560 -648 258 605 436 108 0
646 -630 -803 -628 0
-306 -504 -616 -600 280 0
65 -481 172 -244 261 -840 0
290 -113 801 -297 856 790 0
-721 917 -61 -587 -380 -3 0
142 222 134 -202 -860 -379 0
-341 -526 -368 65 0
-993 -554 135 803 -642 616 0
-111 180 -38 620 -837 -350 0
-4 74 841 77 65 863 0
-980 760 47 -264 -815 0
-463 -238 717 973 0
284 743 -447 -732 229 -731 0
-951 255 -913 -9 535 940 0
-137 -737 -800 386 0
-812 691 -437 198 13 0
621 -870 891 -680 901 0
-88 -940 741 769 0
953 -545 -792 -898 -649 122 0
-144 -330 -703 733 0
111 -164 -325 -530 -887 0
601 629 232 467 -400 0
-270 -611 -181 344 504 874 0
-246 -68 -365 -807 -182 0
435 239 347 -907 252 203 0
12 220 546 250 0
159 681 552 506 0
-65 -936 431 -78 0
808 -631 -798 -2 1000 0
271 8 964 614 0
566 -450 604 -818 0
85 112 729 -244 -718 -887 0
-594 683 -897 680 -196 0
-815 -345 807 169 924 -418 0
-479 -580 -38 431 0
-60 -481 397 -735 0
850 139 -69 919 0
184 569 -621 -604 0
-857 232 914 -969 0
871 384 580 806 323 981 0
-132 -892 876 101 0
-323 -856 -935 -673 720 0
-141 -406 -948 -598 0
124 993 366 -169 -406 0
-742 -365 -32 -652 -821 0
-315 -362 -167 215 -105 0
-250 -404 688 833 406 742 0
-936 -890 -855 797 214 0
-651 -739 384 246 0
72 -648 437 478 -496 700 0
-385 -911 -557 229 942 0
-533 -610 133 -131 -283 -88 0
166 398 754 518 -796 -786 0
899 149 -684 -967 -625 -966 0
616 -367 -201 -379 -113 342 0
-633 134 442 -721 0
-215 -367 -830 635 -846 -438 0
-786 926 137 759 -606 0
-482 -372 -447 724 0
-847 846 -414 228 0
-955 -393 702 -259 -82 0
-213 -555 675 -300 750 0
-308 -953 134 969 448 0
-604 557 -379 176 0
677 -18 31 -862 -977 443 0
438 -898 987 -371 682 0
161 968 203 -16 726 673 0
-72 280 -93 -741 0
-457 -569 -747 -55 0
-938 698 819 997 771 0
-901 -958 -400 539 0
-739 969 -848 -272 0
-722 508 -61 -96 -25 572 0
-146 -8 -663 -746 0
35 -665 -956 -69 377 -267 0
712 -554 647 614 -427 0
-703 -508 395 310 308 0
-504 -374 -602 -73 0
992 -120 63 83 0
-235 -52 -148 -807 941 0
350 638 -552 -168 -516 0
668 153 293 -354 0
266 -814 -457 886 -388 -919 0
-32 316 359 467 -327 0
629 184 -462 792 -411 486 0
155 395 46 -553 674 660 0
-914 -847 -890 124 0
-132 785 -817 517 -481 733 0
-881 466 -534 715 -611 0
-179 -848 -667 547 -270 674 0
208 -252 213 794 780 195 0
72 172 530 847 -728 0
-392 -807 989 57 0
-850 -190 -15 -200 -526 -968 0
11 66 686 340 -217 0
553 591 -120 -784 448 -865 0
-960 321 -345 -50 842 0
8 568 521 804 0
964 834 -182 -890 202 0
121 32 853 -866 501 0
915 257 -250 309 0
761 1 554 236 963 0
-204 -614 106 -71 0
-992 -602 -115 603 -521 0
-997 524 -912 634 0
-962 583 298 -321 783 -123 0
963 320 -303 -160 817 172 0
-490 -345 504 -614 556 0
-256 -701 -70 225 886 -126 0
-927 -430 -381 -832 -153 0
-148 775 985 -930 526 0
8 -182 423 185 437 0
-416 787 717 782 0
649 572 -170 967 441 349 0
262 585 309 -468 0
141 -961 -336 329 415 -919 0
-647 -473 290 594 0
-117 -653 339 14 260 -559 0
-291 -917 393 71 -95 0
-807 -992 634 472 -114 0
981 -658 -897 -514 984 0
455 409 -701 -807 0
-814 829 429 -239 -227 992 0
-166 -194 -309 10 0
-786 -940 -849 -105 565 0
-654 -459 447 -89 534 566 0
875 474 -865 -237 40 0
-843 -633 -805 -779 0
702 -505 -128 -162 0
14 -900 -215 -833 516 -966 0
-800 97 -313 -263 -746 -377 0
-778 -849 -36 318 -793 0
-737 -26 -699 -112 -669 0
-694 -305 -925 -395 -275 9 0
420 766 873 -266 -203 -509 0
132 345 72 142 0
-615 332 -911 352 503 0
172 -432 162 279 -440 -186 0
-879 -67 37 -988 0
-326 -799 665 -122 -657 0
570 -884 181 88 -15 603 0
-598 902 433 694 -513 -331 0
540 -310 476 300 647 0
-330 -718 121 -400 -503 0
-387 -291 59 542 -727 31 0
660 946 394 696 106 -609 0
-244 -201 385 -537 -544 0
469 117 545 -957 0
-168 -737 417 -69 660 0
403 -356 582 -662 607 -989 0
442 36 249 85 454 381 0
-91 739 -895 -512 364 0
886 -77 -76 814 0
766 -166 652 479 -932 -923 0
-338 -380 231 -50 399 -744 0
-467 -415 -83 102 -741 0
-410 888 -397 305 998 -416 0
-603 834 208 -874 193 0
-409 -977 515 -414 0
-940 899 14 -524 938 0
568 758 229 219 0
172 314 -208 -995 954 0
-255 758 86 -963 -521 0
-157 197 897 754 0
-433 746 66 677 0
-808 343 656 111 0
602 -746 17 -395 0
-462 -644 103 760 951 -885 0
-300 156 -673 763 309 278 0
-168 215 151 -222 -436 299 0
-308 -317 -349 -192 0
728 -814 233 661 429 0
-61 737 7 838 440 8 0
474 -971 -530 -10 401 0
-517 -994 -93 -966 -83 323 0
563 3 -175 -433 -33 910 0
316 -149 -302 772 0
-325 -341 -335 967 -353 -978 0
-610 808 -209 404 0
534 823 -415 193 0
-206 533 802 432 0
-525 293 -354 -228 -423 317 0
-300 389 131 714 0
-998 165 316 74 -491 0
-527 -809 108 122 -353 0
-809 -882 157 -190 0
-934 -618 -91 675 330 0
950 -250 243 -55 844 373 0
-562 826 338 -605 699 -937 0
310 539 326 -364 0
63 -436 -308 586 752 0
-817 599 308 590 -942 -459 0
938 999 -191 695 145 980 0
-495 95 -343 -364 0
90 -468 -196 811 -365 0
-941 -607 -714 -328 0
-191 555 854 411 0
394 376 907 -422 378 0
548 -197 558 -719 0
366 292 -745 -951 0
773 -28 -381 485 214 643 0
-676 517 146 -992 180 -714 0
-905 -165 174 32 -438 -983 0
-890 -787 69 -837 0
-357 886 667 132 0
370 -68 -195 260 -442 0
-602 -155 498 149 0
-506 -456 494 -156 0
-318 900 909 621 886 0
150 -166 -64 -69 0
-257 711 636 -760 0
-103 445 786 -123 0
-760 -836 -824 -882 654 -546 0
751 36 141 -191 -433 0
-720 310 -898 172 -389 -707 0
-785 519 -956 278 -225 0
-313 -5 -152 117 895 23 0
-537 -92 393 291 84 0
-861 -343 -456 13 -909 0
-304 -408 -722 6 876 -47 0
-173 515 685 -157 0
-139 -824 590 967 477 0
820 -171 483 579 -154 538 0
-989 -586 -351 -771 -317 633 0
-800 -740 436 642 303 -284 0
-771 -639 686 -721 0
775 -158 -129 133 492 -412 0
-631 -641 175 204 0
942 285 -659 471 0
105 -933 745 -651 0
716 694 -948 -252 0
-48 -2 477 692 0
-160 -799 626 518 -461 691 0
-282 -933 528 -956 0
-699 752 219 341 0
993 87 881 264 594 0
842 920 -752 -186 -795 0
825 892 -640 244 -953 0
-727 185 -571 137 0
-92 -722 -19 54 -705 -630 0
218 -140 411 -939 0
458 476 377 832 0
879 890 -474 825 -140 -610 0
-867 33 -500 -956 748 0
-556 869 -56 -632 151 0
398 -199 311 473 547 0
-829 417 -95 -988 -668 5 0
-913 -357 394 -610 835 284 0
-495 -507 -653 -555 -925 -179 0
759 -861 852 139 -254 756 0
-82 599 -59 -475 271 -322 0
-508 632 -640 400 745 0
835 -998 -427 951 -818 -165 0
73 -865 -699 970 0
242 -8 -497 -523 59 -753 0
7 825 115 587 -328 0
308 -622 356 -430 -747 0
-380 202 -461 874 0
-982 -180 367 -597 178 240 0
-429 -498 427 808 -996 0
-552 241 564 -859 -110 0
507 -864 226 781 -438 0
779 415 387 -130 0
644 -990 -104 658 0
-291 -880 846 165 474 -123 0
593 -826 -989 351 -649 0
-350 -504 -561 -508 198 -308 0
-846 528 -276 131 0
315 779 690 -607 40 0
-787 710 51 -137 -539 523 0
497 852 331 984 -158 983 0
-3 -847 234 -950 101 0
-456 475 -342 836 -909 0
966 -446 893 94 -724 -787 0
-199 70 769 -23 -635 351 0
988 -541 -450 -96 0
-391 -262 -906 -790 -145 527 0
-953 55 -132 890 0
-739 -982 -963 -6 374 0
716 -259 -761 -769 -534 0
328 600 894 127 612 -483 0
841 -873 -780 3 197 -39 0
-747 -419 45 994 0
275 -265 -239 -663 672 0
810 -74 -946 -995 0
-202 767 358 985 -497 0
-222 -718 770 -856 34 0
216 -991 554 -181 311 492 0
-625 867 348 -456 0
-746 -63 -691 40 417 0
-88 -787 -405 791 13 396 0
-859 -670 -734 664 -204 425 0
-626 920 216 -314 0
-368 994 -367 533 -433 620 0
957 -609 354 -86 0
896 832 563 986 924 -359 0
-986 682 934 848 -442 0
769 -68 -6 350 830 -479 0
855 940 161 -320 706 428 0
87 -175 56 -534 0
569 255 -118 458 -473 -405 0
-610 332 327 -973 -174 0
118 895 675 -85 0
-360 820 -607 -496 0
-241 141 763 459 978 0
-243 734 453 -507 234 576 0
-987 -214 -182 107 0
-377 203 181 -860 0
349 69 666 27 0
242 -410 -806 559 -856 0
-464 864 -300 43 0
958 558 975 -433 -657 0
-96 -228 -740 902 -328 -273 0
208 423 -346 637 810 0
-782 -745 625 -889 455 -175 0
-206 -339 793 -675 196 0
-240 924 172 545 0
538 -42 117 774 0
-459 487 -360 -686 0
-317 -500 619 -946 0
-660 956 172 -236 0
-479 87 -521 400 -902 0
990 341 -679 -775 -986 548 0
-167 959 504 -410 0
-94 343 583 889 0
857 -170 375 -414 916 958 0
253 664 844 -893 -232 -659 0
-239 -699 893 293 -471 -263 0
-878 -558 726 747 190 0
-115 -354 12 866 -751 -604 0
659 462 -191 18 244 337 0
-222 393 444 216 324 0
298 696 -930 -329 0
251 -276 134 604 -741 618 0
-921 768 -241 -709 0
631 -531 -894 -515 -144 -741 0
-838 686 500 921 0
160 377 -373 287 -226 0
846 -177 -536 555 0
-444 56 417 93 -989 0
-885 78 -950 -470 0
-901 -819 933 -260 988 -500 0
174 92 -281 -624 0
872 -659 330 547 7 0
-693 828 -80 -350 -749 -127 0
-737 4 809 268 -134 35 0
466 -792 -72 -335 653 0
-14 510 74 186 -52 0
-469 903 971 355 0
-62 -1000 382 -559 444 925 0
-165 -246 671 631 -518 0
620 884 -879 527 196 -626 0
-769 844 -503 1000 0
-713 -720 -825 -912 0
451 -782 853 -52 -835 -364 0
603 -442 -435 -215 416 0
715 -708 816 470 7 -28 0
-255 779 491 883 729 0
-182 -90 671 966 0
725 702 301 137 0
403 231 906 481 0
163 828 318 -545 -520 0
-621 983 278 638 287 0
-624 1000 -211 443 0
755 567 551 6 702 0
564 914 -128 452 820 -240 0
53 -969 46 776 -530 868 0
-817 731 -362 -692 874 154 0
-278 463 -289 76 -975 0
132 917 75 580 0
682 114 -542 -692 -141 0
-72 986 -359 367 0
398 159 252 -966 -620 886 0
663 -368 -711 441 211 76 0
574 -553 3 51 0
-282 418 294 -633 -160 50 0
391 379 -243 333 678 0
110 290 420 -656 0
-377 618 474 -54 -765 131 0
-252 335 -990 -251 780 -768 0
-176 828 97 -198 -562 -838 0
-835 -444 848 -408 -250 0
-105 -415 180 -163 -712 65 0
328 60 806 -297 0
369 392 -766 -952 0
-879 693 -485 -547 0
-327 136 66 -496 -771 0
-249 188 395 -997 0
-128 129 510 27 111 295 0
98 -738 985 -526 -49 0
933 -332 -733 -446 -624 488 0
-172 -147 888 105 -141 0
1 98 215 -788 -654 -241 0
-17 -952 312 -398 -380 0
-67 -772 189 599 58 0
-990 -969 412 -511 0
-356 -857 -557 872 700 828 0
731 568 475 114 -347 0
131 587 -501 452 0
822 -556 -894 -356 489 0
-335 -562 846 482 0
503 264 -765 -888 -601 0
-57 382 -346 252 0
-306 482 -246 -157 -828 -1 0
206 776 831 708 174 690 0
-566 -47 354 756 0
341 -826 469 299 351 0
-891 208 498 192 0
-344 -494 -826 464 -621 309 0
254 -630 316 105 -68 -486 0
-529 -132 1000 547 -777 153 0
258 112 50 -939 -332 0
870 -376 329 284 624 0
-239 -719 -902 -119 301 222 0
-250 -20 -792 416 288 695 0
-373 -792 -384 549 0
-528 -787 964 45 0
606 368 -966 -743 -425 0
277 -800 -20 848 0
766 -529 377 -528 463 0
-490 697 -535 -655 59 -417 0
855 241 291 -567 0
-345 -417 452 -291 -520 0
69 481 -622 665 -805 0
-431 -866 140 -558 -469 0
-341 602 -473 -901 516 633 0
-759 -587 89 -814 820 0
475 -96 -430 706 0
-495 -447 725 -625 -129 58 0
616 317 -701 450 0
681 360 -256 -876 47 0
422 -647 -801 -963 -116 942 0
16 110 -621 783 0
34 491 -714 879 -617 622 0
806 765 -165 57 0
652 742 335 -949 0
-841 676 854 -470 -524 0
117 -338 462 371 -954 -388 0
-379 -453 -999 717 0
-329 673 888 -395 -560 -415 0
456 4 25 -811 0
-169 240 -244 -525 -156 0
561 -737 -330 -812 -676 -23 0
-792 -340 733 554 -637 0
-103 850 366 -138 -383 0
-345 -625 794 526 0
-732 -465 -505 290 612 376 0
-245 369 568 -118 0
-57 552 570 -567 -213 0
-26 123 431 929 -479 -737 0
879 899 -34 654 0
340 884 -175 -563 -3 -86 0
28 464 525 -149 -681 -811 0
-359 -980 403 -855 -983 0
-898 -544 -380 159 331 -340 0
-216 702 22 136 -357 -374 0
-100 -447 -963 942 -245 536 0
18 -246 -902 -553 0
-155 -29 -471 -720 276 0
-876 -751 -426 782 562 0
16 498 -736 -264 -281 0
696 281 952 -930 0
-969 387 281 -331 769 0
255 629 -642 726 889 759 0
968 -794 -258 23 132 0
758 -604 70 644 85 0
-540 -340 796 560 -872 0
378 210 -70 722 0
-641 939 -338 445 0
545 100 606 591 -673 290 0
514 633 155 -39 -523 0
722 914 776 746 -80 59 0
417 -874 416 -747 85 -257 0
-192 591 62 -516 -754 942 0
-448 -77 -334 -447 207 -618 0
-681 -911 -980 272 -163 0
-23 564 -67 435 957 0
781 -765 -738 573 0
506 -878 860 -182 -22 -298 0
-675 -543 -502 117 459 0
812 805 -131 -992 0
-362 205 302 -159 -377 -757 0
374 -223 -10 -664 594 6 0
-756 -199 -607 -298 213 0
682 -723 162 409 658 -613 0
497 -610 -130 -365 84 0
-224 -562 -249 -991 -571 0
984 -550 666 -590 -228 -314 0
-454 -823 -296 592 -455 0
-132 -218 471 371 -345 0
-569 464 292 355 0
-822 -165 -263 -339 359 0
314 809 343 -486 8 620 0
-601 550 159 997 0
-757 7 8 -933 461 0
-140 360 -567 -766 0
818 496 369 365 -722 460 0
224 442 810 508 -47 23 0
982 577 -471 -918 221 0
17 904 223 -745 528 -277 0
-414 -77 996 668 0
-942 -338 460 -577 700 0
175 189 -857 -229 -627 0
542 479 955 -311 -226 -663 0
-742 -847 320 260 0
-588 -834 -328 785 -321 0
304 -604 152 14 911 -885 0
907 -608 -289 -607 0
244 -833 89 532 -669 -446 0
918 804 997 83 0
-888 -224 -167 -863 0
-216 -410 -219 933 -973 -833 0
952 -214 542 833 -704 0
-105 318 -300 -458 168 118 0
-682 186 997 727 0
-290 -715 -724 376 -581 0
-390 -365 -297 -370 0
-375 -986 394 -708 828 -908 0
-194 -367 -570 -13 0
722 -5 -185 -101 806 179 0
12 -811 -739 -681 770 0
-111 -810 -73 -603 0
823 -211 -324 510 770 525 0
701 939 -568 -453 -330 460 0
-484 589 717 580 -937 -705 0
-411 -926 -941 683 -408 0
-921 -861 -321 -565 -365 -822 0
490 64 192 569 -796 672 0
945 36 564 608 0
-697 -838 539 -71 0
-536 -842 -631 204 933 0
-754 -780 -559 -64 0
563 -470 -179 641 67 691 0
136 -851 -156 579 976 201 0
80 250 822 -591 0
713 743 -514 954 0
529 851 171 -784 0
-188 93 388 -237 -355 735 0
815 427 914 -411 67 -760 0
709 -295 -366 928 0
-174 165 -832 -843 442 0
-520 -804 -836 531 659 0
-291 342 374 -545 329 0
869 -85 -747 -308 0
-800 808 941 530 -174 504 0
167 -223 759 -539 0
437 644 659 -549 873 179 0
-114 -340 940 -613 81 99 0
-531 -11 505 -730 -578 0
-280 389 -571 77 642 0
584 -507 -52 473 -623 0
241 -560 611 -914 649 980 0
-645 763 -30 691 -586 899 0
603 753 -774 -665 0
-413 -231 -246 234 0
-956 -185 691 -968 824 0
563 162 943 -498 -221 436 0
816 -462 859 -720 -767 0
383 957 645 -772 -615 0
-303 498 -798 651 -894 -658 0
-513 -652 -561 351 -728 0
-866 -58 -81 80 263 0
-179 -835 37 662 0
-157 -733 13 129 0
-202 -858 -559 -959 -115 0
-648 488 119 -613 0
-638 -321 -637 534 0
-614 -241 385 245 0
-474 -137 -979 584 709 0
763 -122 -822 60 -40 -458 0
223 -179 565 -215 -540 0
-378 -93 -154 -900 0
-891 818 301 116 793 730 0
608 -605 -776 -423 711 0
605 -747 -339 891 -714 0
-64 133 -618 -16 0
96 -399 144 -886 31 0
387 -922 910 222 668 0
-880 278 557 -736 -376 0
-11 416 -53 -151 -27 -14 0
-596 200 -925 352 0
468 823 607 485 538 0
47 373 365 -436 0
709 -837 32 -505 -470 -92 0
-932 -469 688 920 -722 -95 0
452 -645 -782 38 0
913 275 -536 659 -141 0
-274 -44 -285 -175 0
130 600 -280 830 0
-681 -925 397 29 -863 0
-876 -320 576 -495 -525 0
-219 107 -949 -495 341 0
249 572 -107 -372 337 -958 0
-64 109 241 -547 384 -396 0
-109 737 -335 953 908 0
-93 -50 -17 -949 0
292 -321 484 78 0
-427 -881 508 -962 0
-77 622 -387 -847 0
-739 459 429 353 0
-886 -974 204 -211 277 241 0
-934 358 -547 -874 0
-512 370 1 155 -935 -83 0
-180 493 -483 -423 0
522 -566 150 -579 -555 0
669 -824 485 -981 -487 0
-763 -978 -596 454 -604 0
-380 -917 -79 -818 719 76 0
-76 -11 -274 633 92 -30 0
109 -945 -490 346 707 -62 0
781 -581 -363 -205 -652 -902 0
343 -845 800 -164 -637 -892 0
416 449 -422 466 0
590 280 284 662 -130 0
-330 419 780 569 185 0
-815 855 174 -488 50 0
479 126 -983 -489 -745 0
918 733 -36 467 0
896 -979 39 -543 -563 0
418 959 -862 606 779 895 0
-234 -251 -726 118 -218 -201 0
38 399 859 -945 -815 574 0
321 -937 763 -749 493 0
899 -728 -708 290 -792 -175 0
-993 529 142 -566 0
540 622 314 -442 0
-385 294 65 903 0
339 427 331 -27 154 0
-311 254 450 79 -791 -77 0
641 -203 -253 -159 -482 0
-785 -99 -273 -198 -214 0
-782 -94 -455 -143 481 0
218 202 -801 350 -481 0
639 48 567 -475 0
710 -251 957 -441 -169 0
-24 917 -380 -822 -196 625 0
-39 833 -346 -366 -954 0
262 270 -126 -773 344 844 0
-212 451 -875 51 -259 0
-840 -37 67 -89 0
-740 251 432 -93 925 39 0
711 394 -276 151 -963 -981 0
-138 -905 509 565 0
873 -345 809 897 0
-837 698 -784 753 0
-953 650 -183 -552 538 212 0
-516 -408 322 -899 912 0
-367 961 815 -163 -29 0
421 -345 -485 398 0
524 765 -822 811 -222 -705 0
381 121 -822 -969 888 112 0
-762 -793 -900 -263 -626 0
843 104 -368 543 429 -404 0
-279 943 628 117 0
799 -490 976 -978 909 0
-445 -965 459 318 0
378 -644 298 -486 -844 0
-919 167 -844 -499 -1000 923 0
-486 -205 370 873 0
374 877 -551 304 389 0
215 539 -430 288 0
-665 876 131 -886 0
182 -89 -308 23 0
-489 -303 406 -766 -862 -526 0
-309 552 848 88 568 0
52 821 466 660 -506 0
665 159 810 -272 -839 670 0
899 920 122 -269 199 -772 0
-125 616 -989 -295 0
-334 -788 971 -710 -40 0
169 686 -445 -260 883 0
-534 -591 130 993 -616 0
-864 408 -196 278 0
733 -934 475 892 0
420 923 -294 -680 0
-190 836 -682 -745 521 24 0
687 -869 116 -917 -546 100 0
564 855 -84 992 -801 -437 0
-893 502 255 367 0
-851 322 641 690 584 0
435 883 -582 -287 0
321 -223 549 836 56 407 0
-42 -273 421 131 0
102 146 302 -661 -763 0
-305 397 -476 727 -816 -706 0
-205 -20 654 -602 0
-858 341 -131 -831 323 828 0
406 -910 574 206 0
-72 -856 -765 -690 -978 481 0
-318 -402 -20 693 956 983 0
-726 286 -213 475 576 0
943 -482 -183 -231 -150 0
243 344 -257 -328 844 0
686 580 -812 713 997 929 0
648 -39 -846 440 -243 514 0
60 -418 -483 -533 42 -277 0
477 -388 -792 -16 0
737 -447 -48 -705 -414 -832 0
131 949 228 441 -467 0
845 -513 -173 -686 0
-400 -941 808 -911 0
-904 296 -51 -919 -437 656 0
-207 -90 -718 -946 29 0
-321 92 -963 -842 -261 -813 0
954 353 -701 -961 984 0
33 718 -125 754 -91 0
-337 -893 504 212 513 -436 0
209 755 758 407 -531 0
-897 -565 -894 591 673 205 0
-88 158 -509 -624 948 0
621 -783 319 -215 0
734 -517 -86 123 0
379 -119 608 -549 -899 0
-636 -813 -683 292 483 0
52 -967 -718 112 0
810 400 -461 53 21 0
-290 -731 958 -472 0
-961 649 923 679 -317 0
259 453 -81 -644 533 0
-567 766 610 -795 -317 -81 0
712 -400 -554 -260 0
-105 -205 712 -154 0
-108 536 932 28 0
923 345 -478 -31 -541 -957 0
545 -645 981 -626 0
-282 423 -196 -960 472 488 0
-345 -223 436 741 0
-426 -761 602 592 0
608 860 802 15 -176 663 0
-443 924 -267 -350 0
930 310 -801 -666 -850 313 0
708 -856 870 795 968 -147 0
-334 461 -227 943 -233 0
-120 -455 -178 52 -751 0
-548 -671 819 795 -204 0
285 -606 -914 928 653 357 0
241 -271 -799 -470 838 139 0
243 500 -745 954 117 0
336 954 -16 474 -108 0
-981 -305 828 -659 -113 919 0
257 -249 691 744 -878 0
760 159 -616 496 0
-918 284 479 -719 0
634 -897 47 916 0
97 -436 947 183 0
919 -212 -102 -206 -983 0
4 80 225 -190 0
-453 806 -267 81 71 646 0
470 811 813 -366 729 0
986 -872 15 -567 0
227 -844 -85 376 870 0
-343 -655 975 -463 0
-291 -482 -450 -573 -54 -999 0
-584 -813 -405 -818 -693 0
125 512 281 984 0
147 70 655 574 -331 432 0
311 955 185 975 0
165 790 -893 -331 0
-123 761 675 -892 891 0
-675 -168 -810 -620 0
-128 221 -654 207 -170 -307 0
-508 917 -565 999 866 0
-963 166 -891 155 0
-537 607 -569 -843 -175 878 0
-417 -551 -1 -528 0
-454 -108 903 811 -430 407 0
-780 -693 490 894 -228 0
242 876 344 -208 957 0
663 554 -755 -221 -165 -185 0
-863 -323 -553 -563 -291 0
-813 272 -506 282 0
-792 -467 -242 414 0
793 -239 -723 -95 -699 -779 0
953 105 770 -249 31 0
448 -558 473 723 0
-112 987 805 142 0
660 -637 497 -894 0
168 -31 727 752 681 0
-932 -211 941 692 0
955 -662 587 -270 679 0
-450 -493 596 840 0
384 -877 -542 849 347 851 0
-77 222 -113 128 -82 0
949 85 353 925 -391 0
-315 -694 568 471 0
147 336 -410 -210 0
168 -738 -442 -764 0
733 868 -688 389 0
-695 -352 -618 -253 107 323 0
-65 -467 -250 271 0
-424 -598 403 -581 -169 960 0
-757 -401 805 -504 -253 913 0
-926 -171 392 493 162 0
892 996 344 651 -776 125 0
76 504 -660 -644 968 553 0
-597 -256 -376 549 0
88 696 -105 -2 329 450 0
-270 -303 -937 -549 0
14 77 112 953 -727 0
-549 324 467 60 250 0
165 -538 856 754 -742 0
187 -605 -136 -663 0
48 151 345 598 -537 -11 0
327 -731 153 -832 0
940 -411 308 643 87 -878 0
121 -542 200 -610 0
489 -699 -640 -217 0
951 415 -693 -974 0
174 32 403 -934 239 0
-528 351 160 951 0
115 -998 510 -735 -945 855 0
67 -810 -607 -156 0
-428 -158 -452 -227 849 0
799 -672 -284 533 0
132 572 264 673 0
865 -719 -451 -408 -651 541 0
-729 864 795 258 -937 -493 0
-626 -824 18 -272 -779 0
-482 -363 -193 68 589 956 0
-20 -251 -444 -607 -419 0
-229 -936 327 501 328 0
-780 316 206 -71 -186 -43 0
652 948 925 231 0
-443 -514 -140 -298 552 -908 0
-327 543 739 -987 -177 392 0
134 214 -875 191 627 0
802 -156 588 -505 0
-536 -108 753 -41 201 0
491 774 605 -601 607 -218 0
767 -371 42 -740 0
-175 -540 -12 -552 85 0
760 -960 258 951 -695 496 0
590 -585 -67 188 0
-713 838 -29 332 576 -494 0
-457 -367 150 417 0
-126 186 -328 240 -776 -17 0
144 338 -701 658 0
402 -738 540 -788 7 0
-236 -145 808 -378 105 72 0
733 508 -873 -253 0
601 -367 26 -391 -162 748 0
-458 -264 353 474 0
-862 -168 164 -825 -466 0
171 -434 -557 521 0
167 759 364 489 812 -244 0
-774 821 -820 -445 581 571 0
-33 -306 -854 599 0
721 207 -850 895 211 0
-695 -786 -381 -229 300 38 0
453 619 481 -516 991 859 0
440 -913 972 866 602 -718 0
860 6 500 760 -370 -377 0
804 169 -972 -938 -227 -835 0
-767 361 789 431 0
384 263 -525 459 -685 129 0
-91 -78 436 375 0
-256 425 -474 -883 461 406 0
-664 -657 -107 -257 937 0
214 799 841 439 -944 0
-201 -359 477 369 111 0
-40 -184 -731 390 0
-313 74 -448 590 883 0
-511 747 624 336 0
327 -307 -96 845 808 -376 0
-569 172 -106 -472 -871 0
549 970 832 368 0
-600 202 -909 -696 849 -378 0
-187 538 -963 528 256 0
-807 -246 -117 -64 -764 0
-656 -147 -404 135 358 0
-190 258 136 -616 -811 0
-755 609 406 -751 0
-696 -500 -86 -318 0
128 -159 -282 921 881 701 0
610 603 -293 788 0
-316 228 437 451 -713 -586 0
176 -133 899 427 708 -460 0
-365 868 218 -456 45 0
-404 -512 -811 478 832 0
916 -661 792 898 364 0
481 518 -816 -633 -333 0
761 -102 259 141 824 0
663 -582 -669 579 802 -306 0
87 749 -395 160 0
680 -350 655 -678 -799 0
-627 47 -914 870 243 0
231 904 -352 -211 -843 -289 0
130 602 -378 769 -884 -917 0
926 -330 448 33 397 -396 0
698 -559 127 490 377 13 0
-108 927 -933 -609 0
778 473 367 391 0
274 278 698 883 0
337 591 -745 948 0
-221 -434 133 -194 -238 0
-444 186 299 -877 173 -808 0
-454 -438 -140 -40 -408 919 0
-346 23 -742 -721 -414 0
-486 592 273 460 -474 898 0
881 -919 788 255 0
-403 -34 627 988 0
50 597 608 -263 -29 0
483 -757 -639 275 -5 -367 0
-243 300 609 222 0
892 75 -915 -278 -138 -981 0
-72 611 -681 190 730 207 0
-707 773 316 72 -480 0
425 244 647 -451 -503 0
-206 456 826 -24 0
-469 996 652 577 0
-294 557 79 398 -455 732 0
-959 155 957 -558 53 0
-445 -442 -193 -709 0
-841 -446 849 178 -463 0
-599 638 402 165 -558 0
194 837 745 402 0
-441 628 657 356 0
-330 -793 647 -537 126 0
535 968 -876 675 0
357 249 325 377 -786 0
-451 -933 939 866 0
-733 61 -969 246 867 445 0
12 -197 -882 -235 0
-270 -808 -90 771 531 0
-337 126 -567 -679 393 253 0
41 20 -618 -635 0
-792 399 -165 242 0
992 -253 311 -968 -371 0
558 796 484 -332 -456 -749 0
652 -202 -494 74 -580 251 0
91 -986 -105 473 -372 -6 0
-904 356 -676 262 -423 0
284 987 53 634 191 -968 0
407 -311 483 -774 637 -91 0
-954 18 -17 498 -36 0
-157 -294 -789 -264 814 -638 0
403 -927 391 951 -564 0
-934 -755 597 -823 -956 164 0
-796 644 276 338 0
925 858 -736 -578 -349 0
-582 253 661 626 442 0
507 -640 -752 -195 830 0
-860 819 -882 459 726 0
-307 -802 -959 130 -613 0
-285 -459 -733 -317 0
-578 -580 -812 367 -671 -876 0
-443 555 45 80 196 0
248 -2 -446 581 -75 0
-976 424 20 -710 0
974 -589 -687 626 351 -139 0
-267 -133 -835 -989 0
-839 -434 -101 -902 174 0
639 655 461 155 851 -835 0
-553 -731 402 853 958 0
441 224 -346 -910 -420 0
-474 988 567 344 17 0
101 -985 642 9 -562 717 0
-50 72 -393 -458 -129 -45 0
752 944 -56 942 -234 0
344 320 -116 -998 -301 0
-161 693 -660 203 -813 699 0
-989 -796 355 21 0
286 -79 -259 98 -843 -194 0
-274 -313 -664 -187 -25 249 0
445 555 475 -298 -318 -944 0
459 -36 330 386 87 355 0
-474 -989 998 -978 936 0
-386 318 421 620 181 308 0
906 91 -82 -321 -43 48 0
-640 -479 93 369 616 0
808 192 -594 444 527 0
-768 -159 -955 -324 -978 458 0
940 -612 438 351 303 0
937 526 293 228 417 -453 0
724 -11 -541 -761 167 0
-492 572 103 -596 0
-459 -666 589 923 0
724 -809 333 -99 0
675 59 976 875 61 335 0
223 790 -810 -573 -699 0
-611 169 556 -125 494 0
-6 -173 -573 -248 -153 56 0
-953 599 -265 343 695 -708 0
-658 908 964 861 -462 -888 0
-861 -501 949 177 465 683 0
-199 -714 72 154 0
-805 -929 583 948 0
-343 67 822 -15 0
-688 611 735 -197 589 0
-651 -643 862 482 217 -672 0
-313 -957 116 -626 997 0
215 -493 333 -508 960 -486 0
959 -277 -44 119 573 0
880 -250 -373 -364 -845 0
-607 -271 67 -661 356 268 0
888 967 -59 -731 855 0
161 -267 -462 -340 -716 -875 0
196 -730 912 350 0
-66 824 521 867 -304 507 0
-424 -19 271 -221 -454 0
718 -952 -409 -871 946 0
630 165 688 338 82 0
308 -352 832 -267 737 0
919 422 659 -160 -443 559 0
705 450 -156 809 969 308 0
-525 25 -259 167 -248 736 0
-675 459 -58 -791 0
759 952 306 573 -827 0
955 7 -482 845 0
765 -859 -77 -287 0
-120 309 426 -995 0
225 -262 824 604 0
767 311 132 658 0
-426 -936 -387 -208 -110 -729 0
-180 859 -429 36 641 943 0
-420 688 249 -531 -394 -218 0
758 -238 -208 -910 -340 0
676 978 -512 674 222 -741 0
672 -905 260 705 -72 0
681 -632 -85 843 -204 -702 0
-900 -516 -633 121 0
846 889 130 47 0
-375 171 41 -187 -210 0
-545 -844 -825 26 -805 -187 0
-324 397 165 -110 0
808 -964 -415 -783 712 296 0
862 181 -418 206 -692 234 0
591 -388 -791 658 212 0
-203 -424 528 -420 -30 0
-694 113 447 149 -161 -600 0
-686 -582 -295 -886 813 0
341 -248 -435 109 695 240 0
-92 -833 -903 -36 -711 0
-140 -63 116 838 109 0
201 587 -812 -675 527 874 0
-26 -503 970 30 0
943 401 -767 -480 0
659 966 -62 -349 -220 395 0
-199 49 845 741 0
557 729 3 -410 560 0
-135 -498 -232 677 0
-968 418 -435 752 0
232 527 -337 735 -106 0
834 -826 -205 855 97 0
878 103 -18 372 120 -44 0
274 160 742 -596 542 0
890 972 364 353 0
883 -156 -617 162 -150 0
4 -641 976 -887 -774 647 0
686 -966 -985 -91 0
190 383 677 -1000 542 0
-493 663 -662 628 0
777 -587 -8 144 0
239 -82 391 -827 -845 0
-119 -428 979 918 0
-690 -334 -171 777 0
192 740 -366 667 0
887 676 654 -498 0
-949 -749 379 -989 0
-758 -707 -422 771 613 0
547 -845 -761 -583 -194 0
381 68 874 -122 0
-373 -588 -484 -307 675 0
-814 9 238 235 809 0
181 782 528 -821 645 0
-101 396 558 -69 790 0
959 601 -337 -559 -873 210 0
965 -424 -530 -931 0
-418 -760 455 908 815 0
-124 814 523 479 0
711 -78 391 -651 537 0
782 576 -669 -525 165 917 0
762 748 -459 -201 0
-413 -752 242 -441 -221 0
-432 786 -735 -174 474 0
-222 759 873 996 -480 0
-435 338 797 -509 -981 0
-188 -493 674 831 0
348 723 621 243 -972 0
-337 819 131 816 124 0
-800 -580 -477 60 778 677 0
-615 -576 779 989 858 119 0
-35 -60 147 508 373 -466 0
-963 -903 -591 -40 -178 0
-797 279 331 655 0
-304 -229 89 232 74 284 0
-141 668 -788 244 856 821 0
-804 798 -470 758 -384 0
322 821 200 363 0
-266 369 -947 253 765 755 0
-908 -264 -993 769 0
444 -250 183 762 464 0
-813 25 -271 -35 709 0
-249 -482 310 245 991 120 0
-749 232 -973 -445 -677 0
-89 859 -771 -881 -444 0
-497 -979 -675 -581 788 0
594 -17 633 11 -849 0
-699 688 219 759 -438 -100 0
-124 872 -429 -467 630 0
173 -145 534 -838 -121 -951 0
-821 -919 -380 414 -218 0
280 332 548 -925 -416 0
657 869 691 -235 394 -799 0
214 979 952 -436 0
-644 353 536 -814 503 0
-862 -175 -444 130 172 0
344 -120 -265 -505 -293 101 0
712 -95 -628 520 -662 0
590 -791 -81 927 0
679 65 -147 258 -577 -293 0
666 -405 782 -229 -216 0
860 -910 462 -950 0
889 99 -656 507 664 987 0
52 -278 -752 483 -255 0
-697 -311 -94 -953 0
-249 604 904 -550 97 0
71 425 -623 -902 -509 0
-256 -898 222 -600 -30 0
-115 341 -340 701 -591 0
-611 -198 841 767 -370 -965 0
898 -116 -832 144 0
-449 228 -950 439 -44 -812 0
373 602 -313 -164 0
-619 601 780 398 -559 0
868 121 34 828 584 -927 0
520 626 78 -661 867 0
-488 699 -885 121 -972 -213 0
-173 -476 -965 521 0
310 -909 237 446 0
-203 11 532 -81 393 0
-836 -271 -438 41 -874 0
-738 918 -307 -1000 0
-283 636 842 549 -832 0
591 133 46 -163 0
16 358 507 -719 -511 329 0
208 315 -160 577 0
338 -842 87 -927 912 0
263 -523 -832 622 0
930 -899 -978 -882 -431 675 0
305 -304 912 -674 0
4 598 419 230 -956 373 0
491 35 118 863 -968 0
85 -767 -992 -996 -306 106 0
-633 657 -261 -245 -368 -814 0
299 -321 -841 953 -484 0
-292 -578 -71 818 0
903 -280 -340 -531 -727 432 0
848 -852 52 -127 0
31 142 -238 -357 304 76 0
-425 648 416 -650 -880 0
-263 -730 -174 -562 -827 0
-58 -801 -307 -442 -644 0
176 -139 -124 -317 0
-120 963 -730 355 185 0
-279 148 426 -732 59 0
415 200 165 812 0
778 -166 702 629 40 620 0
-428 -484 563 11 0
-579 891 863 -382 -650 0
-268 605 201 913 588 0
605 559 -806 -54 -677 0
356 802 -540 179 723 0
-801 -927 -951 742 0
286 -392 917 -627 -609 161 0
409 547 236 -259 -921 0
-962 -681 -672 966 189 0
-282 -516 864 -908 -312 -464 0
-367 -934 621 -122 0
-258 577 221 -751 -816 0
55 -304 -283 -995 -491 0
-577 29 -685 372 905 599 0
-522 -17 905 -407 -287 0
-571 -691 -152 -883 -997 0
18 921 995 -233 -198 -825 0
852 172 -447 -18 958 0
-631 -684 -612 87 0
-805 250 41 -318 -116 751 0
325 -467 87 998 0
-840 -491 -628 270 0
-66 -311 -457 329 -101 -203 0
774 -762 360 -523 -830 -868 0
80 898 -328 -232 -219 0
566 -282 -944 109 -848 0
720 -961 -523 239 -235 0
-617 889 990 211 674 -545 0
-599 -870 -978 -89 0
-863 456 577 437 0
913 288 -64 -71 743 0
377 -363 -800 234 244 915 0
799 849 278 982 807 0
-727 -5 -313 -36 -845 0
231 579 -162 -245 767 23 0
704 597 927 -177 0
-546 856 830 -557 806 0
-418 -673 -567 247 666 0
139 -587 -212 604 0
676 327 19 768 -267 455 0
-545 238 -445 231 0
-921 -569 -277 -948 -378 848 0
-503 -258 33 -780 -106 -752 0
454 678 334 630 -195 79 0
-983 333 -874 513 988 0
-499 111 -707 743 160 -86 0
620 -658 403 -324 -735 0
695 802 439 787 -701 685 0
-858 -530 -688 311 899 0
-648 -273 -387 962 -222 0
357 431 880 215 749 638 0
471 591 -961 96 -789 323 0
-292 913 -486 -551 0
-411 479 43 -103 0
763 -739 576 -248 -699 0
412 -608 -759 -124 900 91 0
28 -648 -445 888 -286 796 0
-908 -360 -679 -247 0
-87 348 785 656 0
-860 -480 -454 -688 886 -792 0
-738 414 -449 -381 -185 0
818 -429 -155 483 636 -471 0
369 -804 -421 -574 -656 0
-147 219 6 -966 -624 0
913 433 -933 281 742 0
-735 734 608 -334 73 0
388 14 -706 189 -672 376 0
-308 -456 -658 331 0
840 -446 -216 747 326 0
918 -512 -927 460 -563 0
-311 -482 118 -12 -340 0
663 -756 92 -415 -385 476 0
-303 668 -148 767 993 0
581 498 -244 -172 0
888 494 -898 -410 -845 0
-684 -62 315 177 996 905 0
-402 -228 852 54 0
-397 386 252 -541 0
-300 601 515 7 0
34 -677 -451 637 429 -576 0
15 -635 -372 -606 0
516 -332 -825 301 423 0
537 67 -65 490 0
-206 488 -557 593 492 174 0
405 259 691 388 -490 -46 0
-911 181 996 -840 -25 0
129 -492 526 693 430 183 0
-270 824 -909 563 -547 661 0
714 138 -352 -579 464 859 0
-347 744 -209 319 0
37 495 -887 305 -158 0
-396 -630 320 -488 -987 816 0
178 -460 -899 900 897 0
568 -185 162 370 0
413 -92 895 986 -337 165 0
458 643 -179 530 104 -888 0
-537 44 584 363 660 0
959 601 610 -571 0
569 -595 164 665 -245 -189 0
693 744 564 33 480 0
-214 17 951 688 0
169 -783 776 -896 -835 757 0
-261 -228 -557 835 0
-697 315 -334 -539 -699 -761 0
45 850 948 -380 0
866 -648 487 -51 -585 920 0
-129 445 778 133 0
-343 191 -454 -823 0
-392 152 505 517 -977 0
625 543 52 -762 0
550 806 136 -864 0
-31 307 370 -319 0
607 -755 -410 6 0
-169 590 461 -233 189 0
-754 369 -966 -764 0
-843 721 -763 -292 623 0
-656 848 -804 -881 88 0
718 606 166 319 0
841 392 140 742 634 108 0
-559 383 -536 -851 0
-460 -477 650 -859 0
176 -565 -42 -491 280 0
84 -247 283 -77 -122 -72 0
845 106 921 892 0
259 615 37 -202 0
-82 -871 584 -210 415 575 0
316 -283 410 -541 -694 654 0
111 969 -994 -89 -513 -104 0
-666 255 319 25 0
-306 385 -723 -935 221 0
832 -699 -845 -766 456 0
393 -778 78 -453 580 0
642 33 -225 653 -745 -127 0
397 -271 -303 -744 0
-396 105 632 -195 0
923 83 809 -191 0
-568 -155 796 919 827 203 0
904 -169 -353 996 0
304 -614 560 364 -411 0
-223 -770 592 307 0
487 -758 412 907 227 -123 0
-790 -315 -496 532 999 728 0
-367 -407 724 858 0
774 719 985 874 -557 78 0
-552 372 -265 304 -81 -900 0
-583 -123 748 -38 0
-420 -131 929 97 686 0
752 339 433 486 655 0
-687 844 -327 -691 118 -953 0
714 997 -606 220 0
-317 948 349 -882 -204 653 0
545 -489 493 546 0
94 823 511 -552 454 0
-223 -174 -946 771 0
540 -697 982 -949 0
246 256 -599 -738 183 0
570 151 272 948 2 210 0
950 735 -97 -150 0
-619 -177 -868 806 -313 0
774 731 953 653 -942 -932 0
548 -37 -89 -895 -422 992 0
-775 704 -911 -998 447 0
562 898 -884 160 -331 -114 0
-880 -124 -300 -59 597 0
394 851 -736 -636 -597 0
125 -22 337 982 -827 307 0
671 175 159 828 0
450 443 667 115 951 403 0
427 -363 -237 -54 0
-20 852 360 -613 0
442 -96 216 391 653 -128 0
-51 -469 -176 503 137 -670 0
725 392 40 477 0
-988 -187 -219 -943 0
403 990 -985 83 0
-479 -550 648 -846 -661 0
-624 -739 -853 64 0
353 -84 -815 465 876 0
-770 -428 -471 -991 431 0
826 949 -249 273 -256 -45 0
-897 121 946 309 351 0
571 551 -586 -431 0
273 -611 -599 301 0
52 -209 -327 604 -379 0
410 733 -554 -491 950 0
-316 560 -992 715 -553 741 0
-612 703 158 -413 0
69 -922 -436 339 0
353 -538 676 571 -13 535 0
368 705 290 -16 725 323 0
414 598 -329 956 -504 0
2 -389 301 -992 222 0
-626 -375 609 -396 -753 757 0
415 36 941 -345 0
499 505 855 -609 -967 0
-213 284 -928 -863 0
-995 -677 556 -198 -101 0
-777 309 271 730 354 -650 0
-916 751 312 473 878 0
479 692 734 -525 -386 169 0
521 -186 -259 -634 -265 -826 0
422 -95 -384 608 0
-237 -916 -251 -511 0
581 -480 579 719 761 0
-122 -619 462 -192 0
758 -490 -688 516 0
243 652 163 -773 864 0
-208 -491 646 431 991 0
-997 958 46 -787 304 102 0
-85 -808 381 681 -989 -191 0
-863 -541 -111 445 392 548 0
-927 942 -68 -583 61 902 0
748 -320 -182 472 555 61 0
279 -235 -345 821 -506 807 0
38 -712 -183 -789 -480 -485 0
427 -38 -59 -70 -346 0
795 848 751 -53 -895 0
557 -497 321 -465 946 610 0
327 -125 -103 180 904 547 0
865 -835 -643 -323 0
-577 -157 -800 604 -643 0
-874 -724 -872 989 456 -16 0
752 -73 -221 473 902 0
-94 -532 943 239 0
93 -430 882 741 0
-786 -411 -628 645 545 0
268 -258 -809 -415 -229 0
856 -404 883 -351 0
-465 135 -523 511 174 -860 0
-235 971 -62 489 -350 457 0
-222 47 -248 -233 39 868 0
324 336 -638 -706 -186 0
-922 616 411 -682 0
-877 -933 -445 892 -126 -908 0
745 890 -9 -154 -233 -629 0
-167 -924 -918 -738 -503 0
-232 356 681 88 633 0
-281 -708 385 -4 -48 0
-491 -770 319 -532 0
958 168 330 -985 455 -468 0
384 550 615 -221 0
264 371 653 -877 0
-460 95 841 -234 869 892 0
-786 -868 411 422 -750 431 0
-445 576 -827 -311 -538 986 0
678 235 -460 714 -223 0
-710 726 -793 -248 584 987 0
264 -925 -35 -441 -160 -698 0
277 -572 548 796 0
-189 -899 746 -661 201 850 0
-488 -242 347 662 -850 168 0
87 941 -302 -571 0
-183 674 983 -480 0
-788 -653 270 358 -664 0
702 -54 -981 626 0
-777 225 829 580 845 0
-704 198 211 -793 0
-399 784 274 -683 0
48 507 809 -767 -134 0
-206 -825 -118 562 0
-511 -906 -918 -260 -563 0
-588 329 333 50 -713 0
754 -668 -39 -734 133 0
751 -349 555 -235 0
-210 -695 -904 856 -676 -705 0
301 661 -137 -489 725 355 0
-291 -233 552 935 -928 -39 0
-567 -102 159 788 391 -61 0
-205 -854 -578 607 -337 -171 0
7 862 -982 -413 -764 388 0
626 10 -842 35 272 0
302 377 614 518 844 0
-108 114 483 812 582 0
491 658 -140 448 979 0
-171 -265 -526 204 -207 0
-848 -517 -258 -286 -22 0
383 -690 -852 -30 0
257 298 366 -339 -531 -560 0
402 -167 -927 464 0
916 576 767 -391 -64 0
766 856 616 -463 -352 -559 0
766 120 137 608 -507 842 0
486 -999 235 -271 -242 -837 0
640 -945 -377 -123 -956 0
-887 116 367 -509 0
-987 -971 -511 -52 0
-116 970 496 415 839 0
-706 -709 -486 311 0
639 473 960 -271 -915 0
828 -309 966 -460 -770 -565 0
-337 -504 -139 -189 132 -86 0
-621 736 322 -553 -912 0
8 -357 -565 873 289 0
-697 526 545 -695 0
-45 -186 378 -444 -829 0
639 -626 968 288 0
115 842 -190 -6 -849 0
568 516 494 -715 482 -809 0
-705 337 -668 13 -540 -111 0
597 -843 890 -718 -80 0
-795 764 122 949 127 -250 0
281 -223 660 662 -682 0
358 277 -521 82 0
705 692 951 524 674 0
999 505 851 73 0
-772 -892 949 -701 0
633 -701 -629 1000 32 0
601 831 712 -867 -553 154 0
793 -903 -245 -195 -150 686 0
-711 -638 888 -490 -842 0
57 -554 -306 150 0
-158 405 1 -879 -348 982 0
-721 906 249 -23 0
-703 -481 -103 -177 814 -801 0
-605 -353 -230 -861 -651 -61 0
43 -723 -329 -85 377 0
-944 665 84 -499 0
-664 -1000 -179 -6 776 0
-70 -438 505 -73 0
-193 511 262 -793 -444 0
-485 -996 -515 -253 866 0
-147 -629 -470 -898 0
175 976 657 -667 348 186 0
297 885 633 -385 0
-28 152 -599 838 -224 0
-605 62 -111 -469 0
826 -382 -615 197 -345 0
-136 -367 -721 -452 0
959 -887 -276 -166 -710 -181 0
811 -819 5 903 0
-931 729 -639 838 -405 0
607 -914 -95 589 541 0
-31 496 -544 -542 0
-256 269 -396 -594 0
30 871 -922 761 -369 -938 0
-894 -763 -300 -556 0
-660 -826 631 225 0
-743 346 69 451 0
571 129 457 -98 396 181 0
64 708 -348 93 458 -891 0
325 -440 -33 935 -367 0
-162 -123 490 -929 -92 -734 0
774 581 -996 751 0
-613 10 583 -954 -862 0
542 -767 -241 -551 52 0
-965 767 957 -208 -832 55 0
-82 946 -928 -131 123 688 0
346 221 664 -150 -941 0
-269 751 -456 -932 839 1 0
690 844 -233 963 0
-543 -298 -747 -323 -940 0
-444 -960 -405 -585 -955 33 0
-625 -176 357 -613 770 0
932 849 376 194 0
205 988 -631 -200 0
34 913 -716 927 0
955 672 -464 -587 0
-547 29 -859 697 -78 -683 0
578 -249 717 -40 -309 0
-126 284 786 -225 0
199 -279 -260 -721 3 0
40 -571 901 282 0
-513 -556 146 -921 140 0
969 -440 -58 635 -613 988 0
846 -490 420 -183 303 -687 0
671 165 -280 -533 0
139 676 -119 115 35 366 0
588 375 76 -552 -901 0
-967 -244 -562 -744 -108 -177 0
-612 163 861 -160 322 -859 0
131 -165 -986 199 -898 -189 0
385 599 -574 608 171 -490 0
313 -455 486 -17 0
211 -459 -767 189 0
-797 -633 -269 -987 0
-153 -197 671 975 0
-219 6 956 269 0
763 -246 -653 -865 -716 730 0
-477 634 270 -633 0
-808 916 -654 370 0
-187 566 -479 783 927 0
-59 9 65 323 -590 627 0
-19 67 -681 997 662 503 0
-948 572 -980 -984 383 15 0
-288 970 539 748 -667 0
87 534 838 8 0
-561 886 -437 -511 690 -82 0
-410 -585 -571 -620 0
478 725 -134 -370 732 0
825 754 -185 851 457 596 0
620 856 475 116 0
644 522 -745 479 47 927 0
319 43 868 -652 685 0
173 -307 -495 -315 -118 0
384 -142 -424 249 878 543 0
337 -854 -312 -450 -101 0
104 578 -57 945 516 414 0
902 -987 472 -839 971 -652 0
187 574 -924 -935 486 0
429 679 -204 -330 0
783 -591 659 179 872 323 0
-15 -50 -593 -311 0
440 -307 -214 -261 -392 0
328 737 524 525 152 -879 0
151 737 -44 23 -276 0
620 -785 164 -994 0
-349 185 368 -483 0
-894 -789 -661 -859 487 0
-436 -115 -624 -736 0
-819 -780 -1 -199 -758 0
-618 916 33 161 617 -83 0
446 -117 -622 546 0
-882 -283 509 -282 -206 0
-531 198 -11 454 0
180 -255 -450 535 -532 0
-314 -104 864 -929 0
375 247 265 190 0
-920 760 354 403 91 989 0
368 -958 -504 -96 436 611 0
841 580 41 -508 643 -880 0
-860 -821 770 609 381 197 0
-631 3 -918 182 161 505 0
-215 208 -62 532 -937 -518 0
177 -712 -491 -415 0
-241 740 -595 -169 0
433 74 927 -449 0
703 -951 226 -841 830 509 0
601 -870 899 -505 -925 268 0
-922 437 -124 553 0
-186 216 -628 -795 0
567 86 873 -899 -481 0
-483 -5 -442 524 736 -152 0
-220 -101 786 590 0
228 -114 208 640 139 819 0
143 64 270 -620 0
69 382 -592 -4 0
-818 219 902 811 0
-994 -228 -708 288 0
620 -739 928 -657 0
-439 637 -472 -550 873 0
-416 114 957 -112 -496 0
-868 208 -346 587 -891 476 0
-249 -241 675 548 -974 0
-470 -518 -429 -599 408 705 0
-83 -696 -382 85 937 0
-187 -107 -27 -602 526 -28 0
-213 22 663 -584 0
578 705 725 33 -176 61 0
-874 -417 75 -159 425 0
418 -651 368 732 -391 -865 0
-780 833 566 -226 0
-201 275 305 246 0
196 669 550 232 0
866 -51 38 -167 0
476 -504 -873 -298 0
-343 873 999 -271 0
357 579 713 781 0
111 -645 -15 660 0
-890 -962 -287 -916 756 -640 0
135 -644 231 -810 0
-572 -130 -79 -994 -450 876 0
295 140 693 -343 620 213 0
832 66 445 -65 745 0
-410 123 -605 298 0
-137 -435 -897 478 387 0
508 -900 -817 -554 0
237 978 -853 -763 585 0
817 -233 -623 -943 726 655 0
-902 264 398 -85 648 78 0
-517 -179 -633 598 495 168 0
474 -994 261 -136 0
-502 -43 330 521 -486 0
-241 838 -472 -526 0
329 -324 218 857 0
79 571 -719 143 -596 -584 0
920 -289 -396 996 531 0
-783 -994 589 -878 -681 -499 0
-44 -589 219 436 0
-55 -541 345 597 0
324 771 -150 -274 -851 -538 0
229 -763 -715 -674 0
912 -235 -989 726 0
-465 177 -816 -974 -837 -59 0
-470 -254 -4 -810 989 0
678 255 -514 607 0
90 -88 -694 -63 784 0
797 991 -694 884 -889 0
-372 907 52 263 1000 496 0
849 755 567 -679 954 0
693 711 -912 -480 0
747 -748 497 436 304 -867 0
-302 142 734 645 -860 -714 0
951 704 224 284 -319 -854 0
-425 471 -72 -509 666 0
-826 -234 988 -93 711 0
-438 993 -659 845 0
-697 454 856 -535 593 0
-755 853 31 -576 0
-970 -444 941 359 0
500 -254 -734 -616 -472 0
-203 168 543 505 -318 262 0
-625 -653 -201 -100 0
-257 -356 -79 43 -559 0
-222 400 -785 -729 0
663 -43 89 -906 0
-62 -347 348 960 610 0
-936 101 -656 280 243 21 0
-971 327 -206 -560 -738 273 0
-220 590 -645 -525 572 918 0
882 -997 -868 280 784 -550 0
194 284 -70 -776 0
-911 -326 -565 -722 0
730 -824 -764 9 -568 0
-498 -70 -634 -573 -949 0
-352 -341 -277 605 688 0
-434 -324 -536 -844 212 0
449 894 861 400 58 0
-718 -542 -936 461 0
-972 -602 -333 317 0
-277 794 -516 288 0
-225 656 421 -951 759 -975 0
-617 -560 -22 812 705 0
606 973 -672 641 -286 0
-325 313 199 -165 786 781 0
781 -715 563 423 -169 0
413 -613 760 -200 -476 0
40 925 46 -229 -518 697 0
-647 697 -294 735 0
304 -767 -932 221 0
-356 -979 -774 985 0
-66 582 189 740 0
621 -320 834 691 -227 992 0
886 699 772 294 0
745 39 210 370 -665 0
-680 591 -713 -677 -886 0
-41 -275 28 429 247 411 0
372 273 70 326 -794 0
585 894 -293 -635 182 0
-600 -323 352 -724 746 -511 0
-570 258 491 195 -248 -613 0
-506 -957 -285 29 414 -494 0
801 599 -104 610 764 0
-475 -286 197 92 -793 -649 0
-965 -183 -403 -974 0
810 -615 -938 847 380 -309 0
935 896 -190 -555 -941 0
951 -421 -441 -803 -622 0
962 -481 -536 -416 594 -950 0
-639 -491 -490 -567 -502 -148 0
246 582 728 843 -173 914 0
-675 -618 -764 -269 0
-356 725 221 328 707 572 0
-621 -112 -880 -133 0
294 -166 -197 -78 -539 202 0
-704 533 -408 -506 95 -544 0
770 974 -351 -73 0
386 474 -530 -542 0
-261 -736 345 458 803 -189 0
953 -623 -147 287 -336 -243 0
391 698 353 363 -463 0
-960 250 -392 267 788 288 0
313 814 845 398 768 -421 0
-592 -497 16 156 -713 748 0
-958 -493 6 327 887 0
41 -286 526 689 -463 0
-852 -374 182 -747 0
539 -834 872 845 0
538 790 389 295 184 0
266 -162 79 -600 490 0
772 937 -58 -5 628 0
408 893 -82 -310 -293 0
-200 625 821 -649 436 -166 0
949 875 50 306 196 -630 0
20 679 -690 -883 260 525 0
542 -230 -923 -865 48 0
-327 947 311 -921 846 -260 0
-544 512 65 -461 -938 -205 0
516 -448 944 840 -753 0
120 402 438 942 -904 567 0
787 -757 177 -765 0
-188 -994 -631 -555 -912 -746 0
683 398 254 -345 649 -754 0
349 -563 94 743 0
243 18 839 -708 640 -452 0
-905 896 661 268 0
143 -316 85 -81 407 0
-731 -154 819 -677 0
-175 -781 -816 -43 0
-232 667 377 -341 -368 531 0
-630 375 314 142 -432 445 0
-396 -906 295 -362 -686 -284 0
701 577 308 -682 0
627 753 -201 539 457 0
-762 -370 61 901 0
509 256 351 -352 393 0
-859 516 -469 769 0
740 -385 512 262 403 0
807 -220 486 -378 -475 -778 0
919 -224 7 912 -198 0
823 249 -371 -929 10 0
12 626 146 -713 15 407 0
-472 -987 179 -428 -208 0
314 -174 233 98 940 0
318 -901 218 629 409 0
-714 822 198 -159 -358 146 0
507 -512 -799 -907 440 -806 0
-963 620 -351 447 -925 -354 0
-318 301 587 -194 0
-216 -707 -868 -143 -500 0
322 -837 -534 359 52 0
818 -640 222 -813 0
116 265 209 -673 239 0
-542 -227 -734 -562 929 0
176 -358 368 493 -561 0
580 447 413 -107 0
40 -247 -317 -201 0
-217 -719 -847 -172 578 0
677 -397 -415 932 -962 0
-727 713 -429 -915 -26 686 0
-604 -575 731 -234 3 568 0
145 -604 -876 -656 -787 0
-789 103 -92 -224 658 0
-747 -539 -781 453 0
-179 -654 758 640 0
-494 -755 -277 483 -586 0
205 543 275 356 -652 0
-468 -405 871 285 -122 0
982 -89 719 406 -297 312 0
-810 -502 171 492 242 456 0
733 -561 977 -135 153 0
643 474 793 879 130 0
-905 -21 -928 -993 832 0
750 -281 387 670 -529 -359 0
-393 -137 901 934 0
-802 841 832 530 0
706 430 770 485 0
867 19 -748 -223 -605 706 0
92 -840 -823 147 0
-259 942 369 829 -414 0
904 567 -866 -55 937 -599 0
115 -267 -981 824 0
252 -429 -33 -409 857 0
304 531 -791 251 -396 0
-983 -17 938 41 0
-433 -216 -201 -261 0
256 367 -357 -128 -447 0
679 -420 942 366 0
640 -777 -386 -341 -276 0
-16 575 108 -943 0
784 757 99 -987 -161 0
91 -136 900 293 -149 0
-735 99 -619 -313 439 0
964 926 -701 49 6 -739 0
108 802 -466 -968 0
583 -418 -74 -155 0
726 530 -237 -393 -426 0
-250 187 -529 967 0
940 -990 -756 -674 -986 0
668 725 411 -949 812 0
-836 599 -401 -805 433 0
-404 -815 235 -196 0
271 -634 650 -787 -122 0
-241 -589 965 -438 -886 0
-641 -617 78 -389 0
-960 -103 514 246 0
-507 83 608 -539 79 0
357 -96 -474 734 0
195 -728 566 -613 961 0
-258 832 6 186 125 -766 0
-332 864 347 501 969 0
394 -995 140 732 498 310 0
969 544 -375 351 190 0
226 -116 173 -982 -259 0
-158 -987 276 -120 -403 0
-552 -854 804 -354 -155 0
-501 -226 390 701 0
-81 -355 917 241 0
-859 -621 -34 -703 -935 0
560 -499 371 -105 512 0
-389 989 758 772 939 247 0
-29 583 -755 887 0
-322 -563 -173 -639 251 -417 0
-157 659 -301 -399 0
514 -421 267 -241 0
363 -274 -304 -645 306 -224 0
617 -966 -362 355 204 0
149 366 561 -802 -519 0
-67 58 -807 -926 605 0
840 871 314 -138 -722 0
747 -573 44 -346 0
982 -274 -537 883 855 0
-660 6 75 220 -414 0
803 170 -836 -860 445 -986 0
-225 288 598 -836 759 0
-26 567 824 981 -987 960 0
72 -510 -461 448 -263 0
904 673 -547 -238 281 -40 0
688 -843 -775 218 505 501 0
361 238 -209 430 406 146 0
427 997 150 772 314 0
959 217 941 -625 -900 0
156 -850 548 -114 723 231 0
3 -275 -909 -716 -340 -611 0
-14 -756 628 -866 -953 362 0
794 129 -555 -781 0
254 316 960 -841 0
-570 -396 -47 -179 0
-140 -412 -950 71 -481 0
-669 -228 399 -116 -537 0
990 723 479 -164 109 -793 0
-357 608 -336 -519 159 0
-619 -760 280 631 0
-21 31 997 -669 0
621 591 872 -397 0
265 -222 -783 -658 792 970 0
-548 -276 714 189 -721 -42 0
437 229 -694 812 -487 0
-304 -639 965 -98 0
954 -484 -889 436 0
-481 921 27 -625 -175 457 0
-361 623 216 804 0
-703 782 1000 -600 0
-843 -280 777 865 113 724 0
-51 -179 924 -515 -868 -473 0
300 -80 930 59 -514 0
781 -259 930 119 -703 -493 0
640 285 459 975 135 0
137 857 -280 146 434 0
334 307 -425 883 -19 0
203 -273 -981 -837 0
504 718 305 -814 0
-111 508 -656 582 -248 0
618 -952 925 929 -733 -459 0
-758 917 -532 -798 0
-44 -1 942 -883 0
417 873 113 149 507 0
733 -255 -2 791 0
110 341 -17 -582 -994 0
388 -435 262 175 0
-306 345 672 -374 48 0
620 766 827 777 -89 0
-764 936 -29 -427 -753 0
723 -274 129 -692 0
-834 891 -497 400 0
-246 791 771 -639 869 -647 0
-315 -715 -934 784 0
69 76 390 372 670 0
405 834 91 -847 -830 0
912 797 604 827 0
-458 -618 882 421 -42 763 0
71 -390 36 54 -27 402 0
-263 -395 -354 -238 -681 -971 0
981 920 449 -911 -572 -646 0
553 -38 -236 -252 0
828 -449 66 -957 -881 0
751 295 737 -729 -154 0
-882 155 960 -493 892 -444 0
992 -368 -514 475 0
530 846 559 666 289 0
-799 461 790 654 0
663 -795 -701 708 -995 0
-164 -854 954 10 116 302 0
-627 -762 -850 198 941 346 0
316 217 839 782 0
-876 863 635 364 -975 70 0
