c Easy-SAT formula for GPU Gaussian elimination testing
c 500 variables, 1000 clauses
c Designed to be easy to satisfy (fast SAT) but large (slow GE)
p cnf 500 1000
1 0
2 0
3 0
4 0
5 0
6 0
7 0
8 0
9 0
10 0
-67 -145 -227 -65 -81 0
-222 -113 -383 -433 0
-449 -192 30 -420 128 0
-272 -204 119 217 0
-166 -485 5 -355 248 0
-57 100 -417 230 500 0
136 -256 147 386 -305 0
5 209 -61 -222 -236 -233 0
372 440 4 -66 0
333 365 -16 -199 0
68 73 -287 170 183 -88 0
463 248 327 330 -188 -107 0
449 196 -375 124 -238 -417 0
-365 241 -116 -451 0
367 -266 88 14 -491 0
22 170 -39 -393 0
325 -437 -141 234 -282 -260 0
-57 -234 -220 137 -342 0
-493 329 89 409 0
-40 195 108 -29 204 193 0
113 410 -449 -2 0
386 -292 -54 219 0
-215 40 330 256 -21 113 0
-237 406 -143 218 -38 360 0
-454 383 -174 446 -364 316 0
-420 -401 294 -388 0
93 -92 137 333 0
-318 195 323 82 0
415 298 -460 -447 -426 -385 0
64 307 -331 -91 0
-317 -69 97 327 334 459 0
71 454 -177 -306 -107 -412 0
-95 158 -22 -483 0
260 -186 102 341 -439 480 0
33 -46 -87 265 132 444 0
-110 367 -492 -467 -20 0
480 456 277 260 -271 -56 0
489 447 -332 -330 -259 0
-225 453 -303 -99 189 -2 0
-69 53 9 80 -445 -369 0
-457 -493 -81 183 -22 -385 0
267 -112 163 402 0
-499 -52 -181 414 -168 0
179 116 -408 252 440 -218 0
-432 41 343 -164 -110 0
-213 299 196 -111 282 51 0
212 -369 334 41 -242 0
-5 321 259 -255 -46 444 0
-301 -199 -118 -314 -256 -402 0
83 -244 -330 -293 454 0
-409 303 108 391 0
-290 -149 258 441 -490 -319 0
248 -243 466 270 0
-4 -415 -365 9 229 214 0
394 72 -33 113 188 -39 0
-21 316 -311 -366 0
-23 -274 -386 -293 -166 497 0
-500 -158 -421 174 -168 369 0
-137 -8 52 -58 213 0
248 267 367 43 12 0
181 82 -145 152 -209 0
240 -20 157 175 0
120 179 181 -288 0
-73 153 -227 142 0
-2 27 -7 -153 -388 232 0
489 100 240 -468 -176 8 0
393 -154 -421 377 484 -145 0
158 417 -296 -159 0
194 373 248 346 0
-488 -324 -338 -131 0
-351 -468 -463 218 77 0
-496 -236 -246 -92 0
474 373 -456 -298 224 0
367 130 -324 424 0
73 -37 220 -228 -45 370 0
-317 -136 221 245 362 0
-470 52 -220 251 5 -75 0
280 402 159 -176 -37 0
-461 -256 -163 470 -76 447 0
-290 -126 -140 142 332 -443 0
-210 424 -42 381 21 0
422 306 -40 209 -358 -212 0
56 -349 -226 -95 498 0
-404 417 -497 -141 0
228 -476 234 -229 -300 329 0
303 379 -243 -139 0
257 -450 50 -138 -423 -448 0
-62 -485 -259 -183 0
357 -330 96 -126 -439 498 0
61 -212 74 -216 364 0
-294 -344 -399 -120 0
158 -309 -489 -379 -350 0
-186 263 -402 -101 329 0
-391 484 -40 327 65 99 0
87 298 -402 11 0
376 276 179 -392 0
125 434 -291 111 0
3 -172 204 341 0
112 -60 -438 -39 0
251 -482 -74 -110 -476 297 0
91 -195 450 40 -335 -75 0
-270 114 -293 92 -494 -169 0
-376 470 -450 -313 436 474 0
-397 -372 402 246 -197 0
-390 -28 -463 324 111 0
-110 -363 -188 486 0
-170 -220 1 -248 -17 -398 0
-376 -117 -455 52 -67 0
-71 397 142 -268 192 0
444 137 203 -204 140 -36 0
362 329 -327 -373 0
496 -389 -15 326 0
-175 242 -214 141 0
-386 -26 -368 -424 0
384 -11 -15 463 0
397 409 164 424 284 -482 0
-101 -349 -243 304 -146 266 0
305 240 255 -335 -253 0
-369 218 -70 243 0
421 -479 -125 315 -89 0
159 -460 -359 96 -177 -9 0
175 -104 3 -50 -454 -227 0
440 -195 454 458 12 0
-475 -10 -61 -255 0
-374 -443 -383 -120 0
-171 139 -229 -106 -29 0
-428 55 -375 -437 0
-98 -340 179 198 -109 0
278 -62 292 64 0
435 -266 26 148 400 -340 0
-359 32 -324 334 0
328 -116 297 132 381 0
29 -463 -282 -51 414 483 0
-314 -317 198 -333 0
391 -356 -416 8 -124 0
-124 421 -201 -14 480 -207 0
-82 -16 69 179 468 -7 0
-260 498 -293 -42 0
-199 -418 120 -246 38 451 0
16 -115 409 470 0
126 320 -80 -474 -177 0
-334 -362 181 -206 0
284 -137 -439 356 90 0
-430 -357 -363 465 8 0
-403 -436 478 -280 0
-488 -263 -93 265 245 0
251 487 -47 -282 412 0
28 -130 -399 -273 -157 0
-227 -162 -117 -399 339 0
-437 85 -399 -452 -267 0
-444 -111 286 270 0
-322 388 289 386 287 0
-63 -338 -310 -334 0
-285 385 -332 -171 0
-346 -315 -22 145 381 0
-466 -134 205 288 -215 -242 0
128 255 -476 365 -15 0
-448 150 -315 -51 -232 0
-24 -485 96 39 -40 0
490 -473 433 185 -470 -298 0
-355 -201 305 -197 0
-191 301 257 409 0
-101 234 -186 -79 0
88 379 -372 -242 -158 0
422 -35 262 305 146 -315 0
113 294 99 149 313 0
93 -309 333 -247 15 0
-256 -45 -186 209 396 0
-185 -424 -61 -83 0
145 -363 -420 434 0
-61 -262 394 -70 169 -401 0
160 185 182 -238 -472 0
-164 370 41 -122 359 192 0
125 -424 334 497 0
421 53 -433 280 0
414 359 -279 -478 0
356 185 154 253 -55 0
188 -60 497 116 195 0
238 -52 -235 -89 -483 432 0
337 154 180 482 0
-276 414 -364 -28 -110 0
-17 78 -496 -465 -107 265 0
179 -247 463 -270 -431 -499 0
463 -487 404 -437 28 -425 0
-495 -178 398 291 11 98 0
-353 31 424 477 -198 236 0
78 -114 122 -486 363 208 0
-300 265 167 -431 0
-219 -204 36 133 -354 404 0
-476 -415 307 -382 366 0
87 66 -337 -371 -377 -355 0
-249 125 -303 -227 -202 -127 0
-249 -155 241 183 -164 0
217 423 31 -47 0
-249 467 297 -71 279 0
120 381 -219 168 -83 0
-473 440 -173 118 0
229 -436 202 -206 0
-459 357 182 77 0
321 -191 363 -63 -184 -87 0
-254 180 -118 226 163 490 0
116 51 -19 400 0
-246 134 390 -232 154 223 0
-219 -305 485 306 0
349 -413 -48 -25 0
-482 -209 -127 461 0
-479 180 253 -208 0
286 -315 449 88 52 0
-295 19 -115 -84 0
258 363 -401 -8 -48 0
-54 471 -30 -329 -286 142 0
-77 -442 385 -444 0
234 -158 437 222 -267 0
-156 45 -289 255 163 0
218 387 -180 -95 352 -289 0
205 281 -276 -374 0
490 103 311 232 0
321 367 67 -289 -434 -219 0
-302 3 10 -474 -470 129 0
-121 290 -13 232 0
218 -235 477 420 -350 421 0
304 -421 -419 367 223 -111 0
-64 185 -20 -454 -468 -281 0
-90 272 210 -11 -153 0
-320 -406 283 -40 0
71 236 386 -289 248 55 0
-93 -491 425 -268 -171 407 0
471 -20 375 137 0
-163 -447 211 140 0
-451 -302 -443 288 0
223 -216 245 -130 0
94 375 118 468 -435 0
114 -48 250 -127 -340 0
371 -405 393 442 -274 -2 0
429 234 239 136 182 -470 0
-95 11 -57 -90 0
-487 -416 -119 -27 244 442 0
-311 -480 -256 148 24 189 0
245 -55 65 -183 0
258 -284 362 396 -263 176 0
172 -241 -411 325 266 -464 0
-78 395 439 66 -205 -384 0
356 108 -95 -306 0
-62 408 -416 -438 0
-349 -302 -216 -270 21 -180 0
-76 251 -450 -338 18 -308 0
433 -202 334 -126 -81 0
106 243 -182 411 0
-191 -358 -451 -200 -12 0
162 -334 -66 301 296 -1 0
-63 -299 -436 296 0
14 259 -218 71 0
-116 432 -331 1 -12 0
-312 -458 -106 -439 -500 0
-78 332 -23 183 388 458 0
269 258 51 343 0
454 -302 426 183 -429 -476 0
-190 344 469 -321 -209 32 0
-294 46 -85 455 0
208 -65 -389 -388 0
-108 212 291 -36 113 490 0
-360 -214 -227 -323 0
-57 -14 237 29 0
483 -269 -451 460 267 0
402 330 180 -115 3 0
320 -376 -460 -219 -176 0
-236 -276 -237 414 309 -430 0
-365 50 -168 372 -183 0
-189 -136 352 -198 -488 159 0
-426 443 -76 -242 -35 -288 0
-273 243 297 44 -417 0
64 491 39 291 -389 -87 0
288 262 -111 219 -431 169 0
-290 -292 -4 464 0
444 -158 -337 12 84 26 0
116 356 198 -67 0
-36 152 -67 -437 -194 174 0
137 329 99 -101 0
23 -13 -261 -142 159 0
426 -100 331 -262 -367 -231 0
19 382 -200 262 0
330 44 187 331 -200 232 0
-307 97 437 -232 0
3 343 322 329 -105 0
424 371 186 -128 347 65 0
-396 -203 -255 -119 0
130 -46 -146 134 -82 -469 0
-306 73 -4 497 74 0
222 -402 -234 -86 0
336 131 -16 255 299 0
299 -474 -196 -325 0
259 -21 -492 -37 170 0
85 -48 102 -439 334 -234 0
260 189 -22 -35 -363 0
177 129 -251 -165 0
198 2 258 -201 204 240 0
-169 444 -431 328 -225 396 0
164 122 220 268 0
283 289 -360 157 469 0
468 -257 105 -204 0
-470 -125 26 -143 -291 -419 0
-138 160 426 -215 33 0
-232 -439 254 -296 1 0
209 -395 -260 69 407 0
-104 214 193 -98 -60 0
460 -233 224 -131 -43 -330 0
-21 253 -66 80 0
181 -112 -206 -7 458 -414 0
395 -430 -492 219 0
189 444 397 -453 0
-251 -330 -51 -103 0
221 -54 -325 -9 -30 -44 0
-102 348 321 -276 -87 -396 0
122 78 211 382 -473 -308 0
72 -337 -158 252 -198 -88 0
-82 -226 36 -393 0
110 323 479 -2 -181 0
-343 -225 188 90 -79 242 0
-23 198 -307 -239 -171 0
360 16 -289 -200 169 145 0
83 -381 -292 -54 196 293 0
-4 -51 429 149 0
-253 456 -40 478 -137 278 0
29 84 144 167 0
-210 327 -72 479 -52 151 0
460 477 -77 83 0
71 -225 -246 118 494 -49 0
425 -465 -330 500 471 -466 0
324 -446 -129 -114 -99 150 0
431 -183 148 -105 208 -112 0
-246 116 73 -193 0
-140 265 414 -319 69 313 0
-422 479 100 -488 -229 0
-340 66 -339 -254 0
-212 -432 54 31 0
-46 -307 -256 -190 -20 0
427 484 -205 -82 53 -488 0
-113 -424 -174 132 -28 62 0
-2 -299 -437 -78 0
302 477 -338 -64 -454 0
499 -289 488 225 0
-264 149 -102 344 0
266 -290 478 496 -369 483 0
464 -20 -310 350 -178 -482 0
-184 65 15 -261 0
144 -179 294 -61 -271 0
-24 -122 366 179 0
279 -457 358 160 0
425 -386 -445 -155 0
-273 210 -99 121 -68 0
26 -167 -268 150 -302 -64 0
338 497 358 -227 -175 376 0
-140 -379 388 91 -480 -113 0
329 143 151 197 0
-248 271 -302 -163 1 -469 0
87 -250 -170 309 -133 -187 0
309 -113 150 300 187 0
-453 290 -244 -170 0
-364 240 -124 -138 0
-418 146 221 -377 -10 0
-231 496 402 -198 -268 -340 0
-323 -414 456 -426 0
-435 -86 -270 -301 0
104 328 390 370 -53 141 0
280 -94 -379 -301 0
-474 -110 465 212 0
365 37 21 6 0
103 136 194 404 0
-230 -294 463 -465 244 0
115 -5 137 -94 0
46 -311 159 -448 -292 0
-335 146 -235 97 0
-222 52 242 8 175 0
493 -296 436 -88 0
364 441 -106 269 -89 0
-222 280 311 -297 -131 308 0
244 235 410 -189 453 0
-77 315 226 399 0
355 266 -212 -408 0
-61 -391 126 479 0
355 -209 384 201 0
169 -258 331 -40 113 0
-169 185 -111 -317 0
-166 97 368 58 0
-290 -342 35 243 140 -392 0
499 -350 -361 -369 0
119 21 -406 390 266 0
-235 26 -389 299 404 0
-435 12 -401 467 243 0
-124 -111 -252 348 0
261 435 76 426 0
387 -35 206 30 -75 0
263 -251 -497 -179 0
-177 118 492 -208 0
494 -459 -77 179 98 0
-466 41 23 -288 -20 0
-372 421 -45 337 0
195 -254 387 -248 329 0
273 -255 -331 -293 16 0
101 -375 35 164 483 392 0
84 32 -235 -73 -169 0
88 -323 -478 158 0
-250 -263 272 -404 -285 165 0
201 234 -53 -359 185 -158 0
430 -199 -55 96 -81 234 0
252 -120 455 110 -148 -201 0
-329 118 -87 442 -449 0
-7 225 -275 48 0
148 8 358 380 217 0
-195 198 370 -93 -45 341 0
110 5 -248 441 -104 0
29 124 -107 -347 24 0
232 -254 81 290 444 -35 0
392 492 -493 -49 -180 0
468 68 -192 442 0
-140 -57 -281 106 167 0
-210 322 -222 -484 -131 -408 0
-235 495 197 -365 0
-441 451 -389 120 -392 0
324 -53 104 79 0
-418 288 192 -320 0
-249 -94 169 120 33 164 0
411 -375 -144 415 -107 0
-492 232 406 -421 0
369 -234 -388 -402 -115 0
468 -100 120 239 -373 0
147 -364 -99 240 0
460 -494 307 214 -364 0
-399 442 -377 332 -346 0
343 -219 -166 300 0
-298 138 -237 260 0
-366 302 -159 284 -27 -174 0
268 204 -259 225 132 0
55 98 268 382 0
150 -101 -325 -102 0
170 352 -456 -379 0
-136 83 67 484 397 240 0
309 -70 483 -94 -464 0
475 -173 -382 445 208 59 0
-110 138 -230 -238 0
-296 492 394 171 -426 0
178 407 -26 372 233 -338 0
19 -408 -451 -432 -421 367 0
227 -375 140 -238 -260 27 0
-465 435 287 166 -359 378 0
-169 -13 464 -116 -139 344 0
-412 377 176 321 0
440 259 131 436 -335 69 0
-279 -327 412 -347 -473 -499 0
-465 63 103 -42 20 0
99 -326 -186 376 -141 -74 0
-206 390 -457 -426 21 -375 0
432 494 35 -14 0
-18 -173 89 -482 17 0
-150 343 267 -60 -102 0
376 -287 -338 473 259 0
-496 123 -341 -19 316 0
414 -250 -438 20 -167 0
-8 318 390 394 19 256 0
222 -154 45 -69 311 -335 0
-280 369 475 321 -8 0
449 172 124 -51 0
330 -476 -122 -348 0
-485 329 97 185 288 -31 0
144 424 -3 484 -35 0
-394 491 282 -206 215 -37 0
56 -290 -157 496 -70 -404 0
480 -230 331 -280 -204 75 0
375 -27 403 -396 -498 0
-387 -166 -278 152 500 -202 0
256 -35 193 -78 -366 0
123 464 328 371 0
-13 -125 -347 171 0
-286 115 -454 -311 -233 0
477 5 -298 266 200 0
263 -257 -59 419 415 443 0
25 -293 294 241 0
-192 270 -113 -289 0
-97 -254 -476 468 0
127 279 56 49 -77 0
386 126 -292 -75 0
174 311 130 272 143 9 0
495 384 192 164 0
171 446 -476 98 261 387 0
-129 -98 127 496 189 -241 0
-448 -292 140 -249 0
-51 -493 150 198 349 0
-206 38 304 -46 474 156 0
486 176 -124 105 135 0
323 -10 345 -494 -398 0
344 105 -422 224 0
-488 75 -417 171 -119 0
305 -229 -177 -384 -328 -234 0
104 -95 -105 289 0
494 156 -138 279 181 455 0
-164 62 40 -134 238 -233 0
439 -143 -246 394 -457 0
88 448 -189 -152 -53 344 0
305 -409 -416 -368 33 -200 0
-390 -340 -493 279 0
40 488 249 -289 -137 0
323 188 236 449 0
412 98 93 13 -497 0
-16 -368 296 -29 -203 0
-106 -340 -477 -305 379 0
500 -302 180 -173 380 0
464 87 58 261 -233 0
-209 -308 283 5 198 62 0
29 271 -453 199 428 -258 0
125 -162 -225 54 416 -253 0
346 291 -430 -233 378 0
475 -261 -451 100 264 0
-73 -232 -193 -95 0
-211 153 -297 -455 0
-426 -385 -270 -463 0
498 301 -400 463 0
-488 -293 467 -365 0
-93 481 150 342 110 -233 0
-460 180 -309 -473 345 0
-450 315 304 -395 0
-488 -75 -52 -121 214 0
-456 244 -245 215 0
-278 -39 -68 -214 200 215 0
323 64 2 -338 -16 438 0
-85 213 471 386 0
53 298 256 -35 0
-362 93 450 -169 356 0
-147 -279 -310 -61 98 0
432 111 210 320 -312 -82 0
309 281 -247 -481 0
-16 347 -145 -48 0
-458 -369 -328 363 -345 0
-2 372 466 -24 0
87 378 -384 -98 0
-259 -207 20 -249 0
-459 -178 414 -321 0
-195 147 -381 140 0
485 134 -336 253 -487 456 0
-23 97 484 -204 0
424 77 -318 130 -466 -469 0
399 265 131 -492 0
131 493 413 442 -193 0
497 117 434 307 0
53 306 -266 344 482 269 0
20 -365 122 -48 0
298 -231 -205 -495 0
266 -16 235 146 482 59 0
331 415 477 215 -66 452 0
-386 -41 229 106 0
292 37 107 -185 0
-174 -151 -132 454 0
489 129 -359 116 0
-374 470 -10 -120 462 0
-401 -74 249 415 250 -243 0
225 -197 -135 -349 0
103 -117 -348 312 287 -150 0
-250 46 225 -200 74 -167 0
-207 -360 -314 28 -426 0
120 240 63 93 -463 486 0
268 -45 -462 -77 280 -121 0
249 358 24 157 0
-211 -278 196 -220 -493 324 0
46 -445 440 373 0
227 -15 396 -277 440 52 0
-94 331 191 -73 -210 259 0
151 461 -10 -310 179 0
429 370 -342 -144 375 200 0
79 275 -403 479 -123 115 0
-280 -390 254 229 135 0
-27 -324 32 -58 309 0
413 139 -236 -369 0
350 49 187 34 -239 430 0
387 -361 -20 -487 0
-283 79 263 170 221 -365 0
295 -93 404 -67 490 -70 0
-133 152 12 -326 -389 0
-9 161 216 354 304 0
-315 23 -403 -440 106 -178 0
-54 180 -185 -129 0
-152 1 349 261 0
-456 -110 -301 -329 0
347 294 380 300 88 -19 0
-30 348 276 84 -3 0
281 142 181 -101 -424 0
283 -18 -200 377 -10 0
-16 -192 304 143 0
129 -420 117 -373 0
247 -133 359 439 0
-207 399 -309 239 -477 0
-384 104 366 -283 -303 0
-59 -467 -200 -190 -413 284 0
114 10 159 -14 28 0
-336 433 468 19 379 0
-485 465 342 -425 -127 0
401 263 -465 316 0
-145 225 -304 38 0
-281 -353 -294 24 0
-379 -74 -487 131 225 64 0
286 143 439 336 -377 0
-402 -136 -323 -19 -35 0
-387 -121 344 315 232 0
465 420 336 131 -485 0
-366 -66 202 -398 -35 212 0
-203 -239 11 480 -104 0
425 199 134 193 0
6 -488 487 -443 -105 0
477 -30 -15 -7 0
50 -474 364 226 0
44 -313 -41 43 0
353 56 -129 449 0
-362 299 387 -395 -463 0
-231 144 -445 159 -486 -489 0
283 275 -489 -176 0
15 170 436 -455 -30 315 0
-429 426 -168 -372 -2 250 0
25 71 -370 412 0
409 -131 129 -117 0
105 -74 359 117 0
-4 -56 413 466 0
-255 -46 471 305 426 0
181 419 38 -331 -200 -134 0
-325 -300 -433 -372 -319 0
-218 352 -40 -150 -234 262 0
215 361 -460 -417 0
-6 370 316 -88 -431 -283 0
-426 286 352 318 -450 -122 0
-303 -477 102 -24 0
-311 -22 -439 -217 0
-246 -438 -448 372 0
-356 -27 -288 -381 12 0
-11 -481 -166 -365 -380 325 0
170 -277 463 -252 -232 0
427 -481 -269 -90 202 0
189 -8 -121 494 449 -191 0
472 70 498 -288 155 0
-244 -78 -415 145 383 0
-367 -155 -127 413 -118 0
-364 99 -19 -177 0
78 -325 496 140 0
466 -167 -322 405 0
-117 285 -405 286 0
-312 290 -229 385 273 251 0
-454 435 -241 -306 467 407 0
-342 240 -432 -384 0
-412 -111 349 439 115 0
-124 95 -51 -28 0
-396 365 -390 54 0
-91 -50 191 -352 0
126 6 411 87 413 0
444 97 -431 138 278 307 0
-101 203 -257 -445 411 0
226 -79 464 -261 0
458 85 208 137 0
-116 246 -164 223 -390 0
-330 369 -489 -89 -499 0
-189 346 -468 218 -412 -420 0
417 295 164 -457 -374 0
-290 427 8 193 -53 -97 0
200 244 -33 -226 325 -235 0
420 112 402 465 0
-464 -122 42 -71 240 0
69 201 317 -420 -258 0
-166 145 201 -30 -29 0
-149 -202 -38 -234 122 177 0
-407 15 321 -248 0
-79 -132 -387 135 428 406 0
85 359 214 386 0
199 -456 38 -26 0
232 -330 -252 -178 -173 474 0
463 -124 41 303 342 0
89 344 -120 -428 -97 -196 0
-130 -108 128 -451 -254 0
333 250 328 -362 -383 322 0
-178 23 -209 -346 261 -208 0
-494 -211 -452 285 0
108 168 -30 -70 -382 0
206 -6 426 -155 -139 0
222 148 249 273 -275 0
53 124 314 219 -107 0
-315 141 287 -139 0
98 96 202 150 67 0
248 -177 123 371 -48 181 0
-297 -242 269 460 -215 -424 0
343 -259 500 36 90 0
-331 435 358 116 -94 0
-142 191 -288 -73 -396 -181 0
30 329 -438 442 0
-280 -435 225 490 51 -178 0
229 -271 348 -98 0
117 38 483 -286 0
389 139 -69 -247 228 158 0
-191 -331 -129 -193 0
-460 -416 -262 103 134 -343 0
464 -499 308 -490 -384 -72 0
-305 -329 31 108 0
-437 -353 -303 298 -226 0
-171 62 -306 303 0
146 400 471 138 456 120 0
401 372 -189 -318 0
83 -301 -492 397 137 0
367 469 253 155 -417 121 0
345 9 156 -20 166 0
-19 -364 247 210 0
138 277 88 -123 0
-6 455 -364 322 -433 0
-380 453 -353 -296 -424 0
451 347 193 428 0
-144 466 -334 -447 401 -148 0
-330 -400 315 18 95 -412 0
58 -164 -114 269 -66 -34 0
12 459 -326 108 0
75 426 157 -83 -365 -354 0
-206 456 245 46 -218 -130 0
444 151 309 384 -264 451 0
499 -374 -15 296 -377 0
177 -230 -445 -35 102 -83 0
290 -352 -278 50 -111 15 0
-1 406 148 -90 -21 0
-166 123 69 385 0
42 -469 -253 -411 -20 0
367 -57 -189 -80 -434 0
186 -258 -362 219 196 0
297 -464 -389 483 -225 0
-249 482 406 -416 0
-311 -357 -75 -462 -308 0
-31 -170 -373 -203 0
231 -151 -358 379 447 -4 0
-360 397 17 72 380 0
390 351 144 48 0
282 340 -491 360 300 -123 0
106 157 -302 -100 -69 362 0
297 -224 -486 192 0
-2 -483 209 -206 382 0
-463 466 -250 402 221 420 0
132 66 -135 241 -300 0
-373 115 -408 -300 -198 -386 0
173 -429 -92 376 308 -374 0
204 334 -18 -200 0
-437 414 -300 -267 0
170 -62 -353 138 216 0
264 69 56 128 178 383 0
-216 201 8 307 168 0
-74 493 355 349 -336 -394 0
304 -31 -425 -465 74 -235 0
-52 396 -61 -359 -15 -27 0
75 -58 307 324 325 241 0
-334 -218 -342 299 13 0
-40 -5 267 306 443 0
428 205 169 35 -497 0
-378 -154 110 130 -52 -284 0
-132 116 -383 -148 450 -270 0
448 -270 51 65 0
189 -128 -184 228 0
300 -284 -348 407 -136 -215 0
247 263 -460 -385 270 0
76 -394 4 164 0
320 -264 329 414 -126 -484 0
-324 258 143 496 -227 0
-39 -167 249 -137 -40 0
437 186 84 -448 -246 32 0
-487 -204 491 -424 351 420 0
-345 349 118 7 -300 437 0
-173 302 -231 266 -446 -427 0
-194 354 235 -421 0
365 125 -455 -194 0
-395 285 109 -110 485 0
-256 -345 -143 355 236 0
244 -441 287 -179 -109 -202 0
-23 408 74 -485 462 -58 0
-343 352 363 -475 168 -41 0
-284 235 -320 -259 266 -92 0
425 -385 -313 110 0
-351 -2 132 337 0
-42 -101 -381 293 -60 0
361 433 -388 -477 463 0
-211 -463 81 390 227 0
474 -94 9 -178 464 0
-141 -332 235 -4 -484 256 0
478 213 237 356 -407 65 0
-197 -324 56 151 147 -5 0
343 262 -200 489 301 340 0
-157 -207 -101 -192 -45 0
-91 -371 -225 -224 -144 0
59 184 129 394 290 0
291 199 117 215 0
-324 254 -380 -495 0
374 -259 -111 -126 -207 -407 0
-295 -443 339 482 0
-229 -277 -129 292 385 0
-260 231 -116 -456 -495 143 0
-234 434 286 -294 -193 6 0
237 459 -488 -428 475 42 0
-318 76 -410 248 114 -361 0
-1 -92 -241 35 199 0
-424 24 288 -316 0
235 337 373 -151 -350 101 0
135 452 -488 -427 -435 0
142 249 -442 -107 -43 0
-265 350 -465 270 -461 -371 0
-491 266 330 271 0
-184 -114 -192 498 224 -399 0
335 -283 -500 272 0
333 482 240 71 -499 0
-391 -203 377 120 489 -218 0
275 482 130 232 136 -155 0
-233 98 -147 64 0
-434 -227 137 173 17 -234 0
438 381 304 122 -250 0
82 -263 -415 -292 123 -288 0
-186 -372 -469 380 -312 460 0
270 -144 205 366 243 0
-355 170 -417 471 0
207 -63 -436 -225 -10 0
-324 -235 -323 451 -340 233 0
-326 -127 -50 55 0
30 465 -4 -381 0
-350 -261 -168 394 -42 -442 0
371 -57 -65 -380 -158 315 0
-473 -36 82 -349 236 0
-254 -37 -366 439 51 387 0
217 385 325 113 -418 0
460 292 -206 383 11 -57 0
363 107 309 -85 0
-387 301 366 473 273 0
-145 293 318 107 0
-144 114 -287 312 339 0
295 325 -221 -289 184 296 0
-295 -44 -407 139 -71 328 0
-106 463 -367 -275 -151 0
-36 401 -280 -48 21 0
107 184 101 344 -67 0
-319 -99 -479 315 0
-265 341 21 -332 -196 0
281 4 -346 -449 0
186 106 -468 348 305 -244 0
-320 128 193 -19 262 0
-355 -112 334 418 102 290 0
386 421 -133 302 -310 453 0
289 -498 -437 -357 0
-241 -310 -195 32 -215 201 0
-485 88 364 432 317 -193 0
306 421 287 -192 107 0
-351 -271 94 -191 48 142 0
83 -160 433 435 -19 -493 0
-310 445 284 442 0
90 199 474 -319 385 0
-86 -110 -493 456 233 235 0
-235 464 323 -381 0
363 395 -284 -134 0
169 -417 131 171 0
-173 119 477 23 -474 0
-218 -230 -273 -137 164 0
-443 17 385 348 0
-82 -17 -44 235 0
401 -193 192 -340 0
-38 -294 -59 12 0
385 250 -32 18 0
-291 268 13 -147 -167 -495 0
328 -271 -336 -356 -288 0
329 -250 -109 311 177 0
-164 119 69 -28 0
-180 385 -273 -359 -322 0
-103 464 -394 32 -283 487 0
85 131 -229 -289 0
-148 -339 -62 420 0
349 -75 129 -236 197 186 0
-364 240 406 -182 96 366 0
496 -444 -206 147 0
65 -455 -382 197 -58 -164 0
-346 -481 -240 -281 111 -188 0
-72 -133 -15 -20 0
485 -188 6 455 0
-363 177 401 -326 0
15 255 -69 500 0
479 -140 466 -123 -190 0
275 8 -426 96 -440 321 0
-398 139 248 -492 163 9 0
-113 438 484 -186 302 -72 0
381 -98 174 458 65 -355 0
289 -456 498 -198 384 71 0
-288 -197 232 -227 0
-74 -58 110 232 0
375 453 458 -236 0
467 -129 237 -263 -72 0
-200 -451 225 181 0
-399 -25 -153 -184 0
317 -389 -49 -88 423 0
-70 181 -143 159 0
-413 326 -361 -387 -257 0
-194 18 484 -110 -143 0
178 -342 65 -36 157 0
-282 -162 -160 -112 361 -26 0
-325 -113 -25 359 179 426 0
75 -50 313 -48 -111 138 0
124 10 291 -89 0
-317 107 -150 -395 0
102 42 -163 -50 443 -47 0
95 290 36 109 100 0
-487 -473 -312 390 -251 403 0
136 195 -150 236 -3 -397 0
-429 -82 -448 -294 466 -258 0
431 176 427 126 423 -474 0
-388 -411 -237 107 0
249 -151 -463 115 39 399 0
-62 268 433 -328 0
337 -493 202 -369 0
393 296 -328 225 0
259 -324 119 -20 404 0
-419 207 -323 235 -387 0
-22 144 431 -470 257 -19 0
444 123 -89 171 -111 0
72 -341 97 -49 -491 -143 0
-7 364 213 -60 447 0
395 143 234 -149 -375 0
495 -125 -365 101 -465 -7 0
178 -309 -139 160 0
291 374 -52 136 0
-309 407 327 267 374 0
478 -233 451 -274 -115 0
263 239 381 -204 203 0
-338 77 -274 -250 -330 0
-403 -482 -293 -123 0
-179 323 337 125 37 -488 0
378 232 166 392 -294 -319 0
253 -385 -420 -466 454 -217 0
54 53 460 -113 0
367 65 195 342 0
-89 26 -149 265 0
168 -328 290 -154 37 0
319 369 -464 111 -3 -345 0
-290 246 -114 -425 -349 0
-469 412 19 251 274 0
56 -394 49 244 -252 112 0
-245 -196 -82 -397 258 0
171 420 -28 -391 395 0
-478 -435 -268 -283 0
100 112 308 -134 241 0
427 -9 -197 455 0
-188 399 450 240 448 -432 0
-154 -233 98 435 -338 0
64 -343 454 459 0
284 -467 -197 -455 216 472 0
8 -157 385 -115 102 0
377 -261 -397 269 -468 0
184 389 425 -76 -498 -272 0
486 157 -165 164 332 -75 0
-247 -400 -327 -332 246 36 0
470 -285 -214 -51 0
-426 -143 164 -72 -138 0
185 357 482 154 0
94 442 242 155 324 336 0
-282 234 -324 301 0
313 205 -470 -332 0
-325 -132 11 420 -30 0
474 112 -439 372 0
-345 435 243 318 368 0
-167 22 -294 395 365 0
-357 210 -155 441 -463 0
-403 397 283 439 224 -90 0
-272 451 -153 -405 0
54 138 -367 -151 0
-59 -27 -128 404 0
-80 442 92 -97 248 0
-52 1 31 471 -150 162 0
341 425 498 -456 -375 0
-108 -226 -486 35 268 0
-260 256 -462 -110 -1 466 0
-155 174 428 -41 0
409 -16 -293 -39 -390 0
77 237 30 149 0
-117 -145 -361 -191 -341 -230 0
-405 201 -276 340 106 0
107 164 225 144 0
-221 -175 -393 -341 38 126 0
-134 -175 360 302 0
-119 -86 157 243 0
297 177 -435 -408 73 -390 0
-413 -280 -110 -228 -419 0
-499 -266 -279 262 -178 494 0
-95 253 417 -48 0
357 -384 -121 -134 0
-86 -61 234 368 173 326 0
390 239 -163 435 138 146 0
165 478 433 -186 -64 0
-112 217 312 -465 0
332 49 37 -375 -285 -333 0
240 -107 -402 353 -473 0
409 57 -112 489 -240 0
315 111 -82 -419 -27 89 0
-70 10 249 -290 0
