c Easy-SAT formula for GPU Gaussian elimination testing
c 1000 variables, 2000 clauses
c Designed to be easy to satisfy (fast SAT) but large (slow GE)
p cnf 1000 2000
1 0
2 0
3 0
4 0
5 0
6 0
7 0
8 0
9 0
10 0
-886 824 194 -234 -18 0
356 -750 -245 -206 290 0
-143 -780 402 -437 56 0
606 469 -334 -350 258 413 0
723 263 896 902 0
595 -636 -105 -286 -828 0
560 183 -555 481 0
72 -725 -629 347 0
633 740 -270 -827 871 501 0
444 -371 155 -757 0
-342 -1000 -574 116 0
351 -112 687 375 -679 -497 0
-663 853 993 -827 754 142 0
-110 594 222 341 0
772 -964 -432 -81 -274 -995 0
-77 744 470 -229 939 0
203 -88 -339 -333 -763 0
-808 -225 277 655 0
569 -31 -570 92 25 0
-979 -906 -550 850 0
858 -133 936 -838 0
-850 360 384 -242 -999 0
-279 143 -880 -268 0
353 658 484 -315 0
184 -770 -291 698 494 -431 0
889 996 659 762 0
-290 -582 742 341 0
145 -997 842 236 139 -888 0
237 -956 450 -141 0
-771 51 -376 859 -374 -692 0
-834 992 -359 -819 0
-927 576 -324 79 -780 0
624 872 -136 -162 0
248 -162 -496 748 374 345 0
821 -873 341 713 0
710 953 36 641 103 0
409 -790 472 120 0
-137 702 372 55 457 -377 0
-576 552 699 653 -171 954 0
-770 465 -865 704 0
-613 639 355 -426 0
-282 -314 -972 -997 -600 0
346 -770 -760 -499 -188 0
492 -345 67 -213 956 0
214 -933 -528 923 0
477 -94 466 -691 -115 -805 0
-656 -765 -386 905 0
-317 -838 -547 -634 -331 886 0
-885 -825 -927 -273 -529 470 0
326 -585 -171 588 -290 0
281 -185 -224 -969 0
-383 -686 -747 -952 -10 -605 0
614 -283 -969 531 -159 -460 0
845 271 -437 -225 0
484 892 -80 767 -31 0
-424 -812 238 -484 -967 704 0
-902 -650 -494 -319 856 -439 0
967 -848 915 -8 986 546 0
-963 -819 249 -4 -68 0
-858 -972 -418 681 -716 0
939 -85 592 404 101 0
672 -349 -347 523 0
-179 331 -614 -492 -654 808 0
-694 723 387 447 0
-94 -448 -449 -876 -888 -466 0
-237 633 806 -838 0
-367 529 113 -990 700 0
760 123 -387 37 -30 -712 0
-522 604 -518 883 -156 0
477 214 31 -206 -773 0
250 -90 536 145 469 0
-97 10 275 488 0
672 -777 176 9 4 -375 0
-926 -529 -354 674 -207 53 0
41 485 -355 316 -664 0
763 841 405 563 82 0
526 -331 359 973 0
803 -377 -75 992 114 0
-435 720 439 571 64 0
184 508 918 -257 471 0
233 -890 -174 436 0
-833 372 523 369 -704 0
729 -193 -692 -801 416 417 0
-305 22 -543 -776 -550 0
57 434 626 -808 0
269 93 -993 316 -416 -461 0
328 133 -693 -130 -592 0
-388 565 947 829 -787 0
-467 563 -741 -119 -176 878 0
919 355 649 777 0
632 -112 -751 683 -531 -914 0
-115 7 430 -333 -788 0
-248 899 -948 -857 903 0
-326 529 114 269 0
-885 838 270 -627 628 311 0
565 -718 204 -334 157 -140 0
-944 -648 121 690 0
502 394 950 -246 -463 0
-218 100 815 -206 281 0
-576 268 72 -6 447 893 0
-596 -933 -275 178 -935 779 0
-108 555 34 -930 -60 -431 0
34 -962 442 -352 268 -414 0
966 -402 802 169 663 0
205 90 33 -40 166 949 0
-944 477 925 436 0
308 -966 -513 50 25 0
903 167 559 -565 -889 0
222 500 -194 -306 -680 0
-905 544 -707 40 -44 0
-418 483 246 -339 221 671 0
-969 218 -859 797 0
762 -199 161 -100 -231 0
895 -255 29 -453 0
-554 -842 -581 195 -217 0
585 -717 654 270 -292 0
322 -93 -925 -496 -297 0
-802 383 473 -60 462 0
964 535 886 -59 0
-979 -145 -130 141 0
-973 759 520 675 -524 -365 0
816 739 733 -259 0
-287 632 38 709 -837 754 0
450 -117 -472 -343 0
-942 325 543 -833 -747 1000 0
-722 877 -816 424 0
12 480 6 -217 0
-325 -666 -284 886 0
295 -362 16 756 -581 0
-65 56 -762 -452 560 0
-344 56 -20 815 441 0
281 -968 784 -229 0
317 -58 957 -175 -981 854 0
-68 937 227 610 -868 0
248 537 -867 -642 0
423 -695 317 7 0
-410 -674 -653 9 857 0
-519 -550 82 939 -107 982 0
442 -202 625 -273 7 -33 0
528 -856 -821 -988 0
368 194 29 -140 577 -789 0
-647 168 454 871 0
-37 -566 285 235 830 422 0
-690 895 801 -248 -214 -966 0
-93 123 69 -156 0
258 -925 430 247 0
-52 850 -894 -569 -234 0
795 -98 -994 475 -634 0
-279 662 -259 -388 670 0
-253 -177 999 -89 0
514 590 -981 819 435 0
-740 716 699 224 750 -81 0
-281 -652 696 -136 0
685 766 -122 -516 -947 -791 0
-333 -49 698 -956 0
400 -44 269 -439 0
894 227 -432 -741 99 951 0
-525 -367 -671 -426 578 0
736 586 -639 -219 -623 0
557 927 702 115 0
115 -569 477 -72 780 904 0
918 -589 12 882 793 -784 0
202 -103 399 911 -576 0
475 428 224 737 -948 -582 0
-967 236 -150 671 172 0
-394 305 -537 691 436 0
90 -972 179 -756 614 0
-253 -601 -429 119 0
633 106 -654 -278 0
69 -238 107 -925 0
-122 -568 -742 -291 62 0
-129 -569 575 -803 0
-128 -40 -287 -145 0
597 -10 21 -188 0
311 462 681 167 -694 0
389 -45 719 727 46 -300 0
621 -699 324 770 522 0
121 -990 843 -744 -657 0
607 -187 -269 -652 -883 0
-164 -288 39 -616 796 638 0
292 -171 -269 388 0
135 306 -762 -769 -845 -405 0
-281 -422 91 -762 0
-265 -724 319 356 0
-449 -952 634 798 0
-482 -397 -953 -651 0
-877 520 -370 652 0
-785 -814 856 296 -267 0
549 -638 -760 443 0
887 314 231 -69 0
-166 -314 406 -608 -205 -386 0
493 487 549 163 693 -622 0
-209 -79 -906 -677 -648 469 0
-808 62 821 916 -281 260 0
825 -284 642 -704 -360 0
409 -573 162 -439 10 -730 0
504 -364 -846 14 0
-150 711 144 943 -967 -457 0
473 597 -478 -549 -914 695 0
744 -1 398 -802 -543 0
559 3 -657 917 0
-862 -870 304 430 799 0
-183 -696 381 -201 -483 -350 0
-912 527 -261 -450 -742 631 0
907 -81 -383 -901 -521 -898 0
572 564 -476 -690 0
340 -666 32 974 825 -454 0
-559 971 -355 671 0
-209 -668 192 719 -903 568 0
376 870 839 -162 -622 -771 0
979 -98 461 786 909 0
-48 623 -170 340 -745 401 0
-385 -68 351 521 301 501 0
-864 754 241 -525 0
-49 851 -139 516 784 772 0
306 703 646 -560 -968 -738 0
393 108 -717 740 0
525 -748 -199 586 -274 -140 0
692 -390 785 251 0
-939 -512 -347 672 0
-99 256 782 -691 -2 -71 0
-804 -862 -990 583 0
-339 -643 526 458 0
615 903 -478 548 607 -402 0
-470 761 373 -860 988 -118 0
-938 -525 -743 -221 -785 0
175 806 318 -25 0
-721 -195 -871 534 0
184 943 629 -192 0
215 277 -496 -880 451 444 0
678 899 892 770 0
834 -492 -807 -443 0
-434 -915 163 261 472 -765 0
682 -56 -595 -513 0
-830 457 -712 -772 332 41 0
-324 -968 817 -876 -996 0
680 75 -726 77 384 0
-697 336 594 -132 708 0
811 118 9 421 0
-557 -320 925 -811 -860 676 0
972 -154 -388 -991 -371 190 0
-552 -938 -259 950 502 0
-680 998 231 449 -965 903 0
124 -152 -31 -169 641 -554 0
-407 -886 -532 14 598 878 0
385 238 306 733 463 0
800 591 -723 309 -946 0
728 666 -3 769 151 0
697 574 714 334 -946 530 0
839 -337 -697 34 0
507 -619 998 121 -881 -274 0
520 342 89 -521 -126 -3 0
-108 -508 -832 -4 0
677 371 656 195 -633 -485 0
836 -624 902 -614 298 861 0
212 669 -422 -418 -118 757 0
-788 -258 -372 782 410 -763 0
386 96 121 360 -266 127 0
-384 -672 968 -288 -928 0
-527 840 284 126 459 657 0
568 721 511 610 0
-235 161 762 -901 -813 0
-870 656 361 -183 0
880 -130 925 -240 0
874 813 -446 -941 566 0
-187 -191 -270 -77 0
278 -531 -47 403 0
721 479 -404 -708 984 339 0
439 758 -627 978 -252 966 0
850 980 385 974 17 830 0
-195 -698 -316 957 -887 464 0
-507 -469 89 510 995 -252 0
-206 814 303 -783 0
963 -504 68 959 -662 0
-644 -626 -968 407 -577 0
843 -432 944 -512 0
622 479 322 709 547 -978 0
740 -852 -257 -835 0
-245 -279 -308 231 -851 0
855 32 -335 -585 433 -154 0
-463 950 -449 74 493 27 0
781 344 -404 887 -116 0
-528 -21 -621 -333 634 0
-416 -643 -814 861 0
853 -80 589 968 -38 0
-254 271 -324 232 0
-314 -846 954 60 0
-599 -875 -440 -991 -947 0
-729 158 -401 363 -919 -622 0
721 108 -682 503 200 0
802 800 -936 -462 161 920 0
-629 280 -162 531 120 0
-236 417 63 -454 0
562 -214 92 -653 985 338 0
-842 -4 216 845 -18 493 0
705 -900 -690 -572 -688 0
-267 704 943 20 -509 921 0
-340 239 -933 428 604 909 0
-924 -6 719 230 0
2 721 605 -895 -732 0
-83 97 -154 275 -716 0
-272 532 -590 -669 632 0
-492 971 432 -569 -714 0
-782 -854 826 324 495 0
-138 384 -750 -23 -980 -954 0
-525 -337 313 -856 116 787 0
-551 942 -226 299 -724 0
168 -679 -995 -928 288 0
956 -12 379 -126 0
-168 -599 453 -411 35 0
520 -617 236 23 2 -808 0
-806 119 338 -413 -152 -825 0
-247 -497 -455 159 237 0
-117 362 500 254 -416 0
919 96 -925 465 0
994 -885 151 -704 0
921 -501 310 -158 -29 0
-771 -754 -93 389 841 0
337 -549 -572 948 30 678 0
88 12 592 720 0
373 -52 -54 -450 0
879 -225 191 344 21 0
-665 -329 11 922 547 0
240 454 -58 -924 -690 743 0
474 -845 -579 -910 0
21 -757 -743 729 0
628 -658 -848 -254 -639 0
939 66 89 742 1000 0
-1 80 -399 235 -571 817 0
586 -97 31 -636 619 -879 0
-719 -354 455 547 -870 0
-411 445 -824 -465 -360 0
-413 213 700 548 534 0
-586 -977 -943 955 84 835 0
353 434 -880 396 877 -757 0
390 946 -931 -196 -279 -687 0
992 518 -972 -293 0
796 435 423 -32 -269 0
16 -40 438 -383 -646 810 0
330 416 -921 826 -776 0
-697 -653 265 -299 0
-889 290 623 -218 704 831 0
-962 957 -502 769 0
470 12 667 -66 -65 -955 0
-10 -187 -259 -745 -902 -803 0
32 439 788 255 43 0
-458 -992 -955 -986 45 0
-973 756 466 -741 584 21 0
-283 -399 -214 -592 0
618 2 490 283 -509 0
614 -644 501 -341 -182 0
88 -53 564 -257 -228 -303 0
529 -185 10 -196 0
-215 -137 -929 -121 -681 0
-682 -648 170 441 516 0
155 -501 499 791 338 615 0
-694 -800 -255 192 -729 -950 0
-470 -254 95 362 136 634 0
14 626 979 10 -393 782 0
-256 -103 908 590 327 0
-469 66 867 857 0
-348 -477 -763 669 -198 -678 0
516 859 -938 559 -590 0
-835 -804 465 -447 0
867 469 341 967 0
165 -635 151 80 -72 -224 0
-684 30 -720 186 0
-259 -791 877 -376 -888 725 0
618 -446 199 -296 0
-582 -377 -107 90 692 0
-143 -448 -949 -77 667 0
-911 436 93 -399 -785 0
46 254 678 -893 -58 0
-118 -52 709 -519 0
907 199 673 219 -157 -981 0
-213 -362 429 -743 -326 0
-347 858 589 -140 869 0
77 639 634 498 599 665 0
642 -686 114 -643 0
248 918 772 -853 0
430 -48 294 2 434 0
-760 -453 519 -631 0
972 -92 809 913 300 0
412 -391 171 744 0
588 246 -926 351 -201 79 0
884 911 227 -228 494 -163 0
577 -59 -309 -694 0
-356 -272 841 285 0
-672 -735 289 -604 187 0
306 765 -423 857 0
-779 964 428 488 746 0
-513 -697 593 -619 758 -266 0
632 -699 172 340 613 0
-65 384 465 -641 752 -967 0
-598 -753 201 -864 0
-831 -228 -202 215 0
230 -953 343 -163 -808 -691 0
-55 -226 -69 -597 -935 0
-89 -9 -885 -864 -876 0
35 692 431 141 363 -851 0
-619 -863 -905 -624 -776 -77 0
-509 -622 246 -387 0
-205 -226 966 -447 0
-141 -214 567 -900 323 -108 0
838 727 -187 641 -207 0
-364 -433 763 299 900 0
127 -332 305 -190 -752 177 0
994 795 66 -761 0
199 581 -739 374 0
484 511 467 732 0
130 -545 977 210 -864 717 0
-995 461 449 -23 -523 0
-749 589 784 694 -634 0
-605 162 22 678 448 470 0
135 -959 387 940 0
123 320 -355 802 78 0
-349 -952 -344 -971 -235 -895 0
967 -216 328 198 0
415 999 129 441 -699 115 0
-31 844 601 235 -582 -941 0
-389 529 652 129 0
-350 -414 -688 475 0
-271 -487 -45 768 0
-154 307 -572 -508 0
-531 934 108 -725 -80 -695 0
-813 -58 -670 304 -496 388 0
-375 -719 980 779 0
915 -755 -959 -763 409 0
-810 717 266 -951 -743 0
169 -565 -578 -893 -577 0
-462 813 714 988 0
-531 -45 -104 -360 180 856 0
342 224 -655 -290 327 -302 0
731 133 618 843 94 0
713 -913 -509 -1000 381 503 0
401 -515 -411 -570 0
-361 689 830 -31 0
471 -194 572 509 0
-805 231 894 98 823 0
881 -897 -464 320 0
-355 -469 893 -251 -143 0
-768 180 -572 724 484 713 0
-75 -226 -744 -818 672 0
830 -75 -339 -287 733 -747 0
-201 -925 595 122 711 0
-542 845 622 964 0
-818 862 -974 65 0
87 -266 -28 788 -91 0
99 30 40 -880 171 0
187 431 -535 -640 0
-134 -513 259 -198 371 -446 0
-289 -857 -76 -414 343 -95 0
-807 350 611 -211 216 -304 0
-12 237 627 -43 -28 0
-811 -233 303 -542 79 0
-839 -67 -640 348 0
-545 110 80 -226 378 118 0
873 -251 558 363 0
407 -30 158 -988 6 0
-800 377 -146 -119 825 706 0
403 514 -513 602 -261 0
-881 165 -64 -716 829 0
-766 -645 -960 -385 -185 0
201 -621 -225 809 -947 325 0
-829 -592 -393 868 141 -198 0
-408 55 -685 -775 -852 385 0
-11 -226 -773 388 141 0
-725 473 435 -326 347 0
-67 -146 944 66 0
-453 622 -801 449 471 378 0
88 303 -318 -782 -555 0
146 -381 697 -787 0
851 709 132 67 -566 871 0
-446 984 -451 647 826 0
473 -58 132 -335 0
709 -798 830 828 0
-649 9 -411 824 103 0
602 904 576 767 753 -623 0
495 631 -266 -289 0
-842 -902 -195 227 64 -273 0
827 348 -48 806 411 909 0
127 714 638 589 396 0
-59 906 -940 184 379 0
166 -650 -253 -766 890 -665 0
572 65 -328 418 -286 323 0
256 667 -994 -489 -862 967 0
30 499 -431 -918 -996 -818 0
-444 -481 9 636 -905 -734 0
672 -377 -818 -94 254 544 0
-703 950 152 -695 -855 0
921 385 977 259 539 -236 0
371 991 -262 -921 482 0
778 204 857 894 -197 -84 0
721 290 719 644 306 -560 0
718 -71 104 485 -901 814 0
173 -326 -510 -933 729 753 0
-64 -927 -460 434 0
91 390 988 504 903 0
-147 -845 940 97 -378 -8 0
-119 878 897 440 0
-951 436 -214 -497 -869 0
-826 472 -583 -581 -54 0
285 -503 -383 136 -643 0
-386 -37 -127 301 877 0
-323 896 -31 -380 -459 0
-904 -257 -454 -848 866 0
-10 18 840 -708 369 0
-749 -628 85 667 0
-2 -531 143 28 0
718 632 778 -995 0
-238 520 555 -924 0
792 -388 545 508 404 -219 0
-421 975 -141 -331 0
541 -165 -157 -550 -998 -238 0
-933 593 920 699 316 937 0
-561 157 449 -330 437 0
655 -527 -957 492 0
574 286 655 353 586 0
-82 235 -305 459 0
582 -329 -102 692 -134 0
-214 -610 887 83 0
-640 -412 7 880 -304 499 0
-190 195 -483 17 -452 0
654 -383 -360 7 -140 0
874 -730 -987 122 530 0
-509 365 -875 373 148 359 0
-518 752 -237 256 -742 0
663 -130 325 388 -860 0
-792 706 482 441 0
421 -896 863 479 -925 0
-280 -56 -574 310 -459 -553 0
461 474 355 241 50 -288 0
-560 -146 -795 941 -931 -907 0
-4 -223 790 -726 0
944 238 -313 658 0
-148 352 -629 -55 0
737 -165 846 600 0
774 221 610 -535 0
-801 -967 827 791 0
264 -508 562 -214 933 674 0
-705 38 -404 567 817 0
-860 722 800 570 -277 -161 0
383 635 140 690 260 -808 0
775 -410 412 111 623 942 0
260 541 -910 -406 -463 -140 0
-643 128 879 80 7 0
531 526 249 619 0
180 571 -740 613 -52 861 0
-190 -274 -532 138 0
-879 -270 -644 934 85 0
63 668 -918 -531 606 0
-819 144 472 -560 177 0
568 550 -178 996 109 59 0
770 -39 707 -218 -829 0
-786 98 -603 -954 -845 313 0
-692 274 16 -526 264 0
406 526 124 877 -756 888 0
436 916 832 -306 -204 -495 0
579 -913 707 -377 0
-711 -26 -158 8 -837 0
-533 -655 -22 -160 0
174 -69 92 -466 676 483 0
-367 699 -902 776 -408 -645 0
-164 985 -806 864 0
585 -860 541 1 514 476 0
-553 -19 877 -483 931 0
-719 714 -372 231 125 -43 0
-715 -893 720 -59 17 0
-616 -874 958 -381 -699 -442 0
11 -434 -880 415 0
-913 321 938 -476 0
-188 -721 203 -63 0
-222 788 -928 -870 0
-278 790 661 635 -201 0
544 -929 296 -723 0
-501 -718 424 -792 -593 0
14 87 -960 -171 0
263 857 705 -529 -744 644 0
518 950 -510 300 0
147 -764 157 10 -22 -943 0
520 -348 254 202 0
-206 -470 572 771 -737 0
-311 896 -978 -618 0
-64 -893 -94 99 0
-355 385 37 -13 0
746 499 -631 644 0
-222 159 -967 374 -679 82 0
-95 231 91 -537 953 -923 0
678 568 147 465 0
-744 505 -138 -995 58 708 0
-162 371 312 -132 -292 0
982 -683 -733 -388 0
-292 349 212 -919 0
318 60 902 -218 89 -433 0
-213 -869 -475 884 -775 870 0
369 584 434 -685 -450 0
-73 966 -328 478 0
68 -686 -807 -803 906 622 0
602 439 755 -569 -375 -519 0
-898 -806 722 285 -502 -489 0
-461 482 628 -459 127 -807 0
533 -962 858 -958 -599 0
510 391 -774 -235 0
523 190 104 -706 -742 396 0
-982 511 577 -320 679 0
104 -191 795 50 0
-461 66 115 -17 0
-67 -85 -321 -240 0
770 483 944 635 0
-350 274 646 885 0
-867 698 -864 -458 -957 -85 0
744 801 204 182 0
-77 345 88 412 893 0
-519 -305 991 368 812 0
788 87 -512 835 -342 0
707 -366 700 -556 0
-385 706 636 497 -26 0
-205 876 399 -626 -632 -95 0
-453 232 974 236 -593 -186 0
223 -87 811 -677 978 -334 0
-645 226 -954 860 60 -694 0
-601 -584 -301 -385 731 0
353 330 -881 435 369 0
75 -675 -581 -245 515 0
-527 499 -281 -384 -407 198 0
26 898 210 240 250 0
-263 -451 160 50 0
655 163 885 91 -162 905 0
-391 -445 -371 -526 0
-956 544 431 -450 -625 -613 0
146 55 137 -708 -165 348 0
211 -577 -198 878 285 395 0
-67 -323 253 816 0
453 -43 94 -222 0
-650 826 -236 460 -676 835 0
362 -717 326 328 12 0
536 410 310 -211 494 0
-903 -245 -5 -570 964 792 0
93 496 -251 -866 -856 0
-29 843 -478 -886 0
-287 598 -877 -437 -498 -146 0
829 -788 -48 388 0
-487 275 294 -694 -847 0
-959 690 876 -454 -807 381 0
985 903 409 547 0
31 603 -711 79 915 0
400 214 416 -524 0
-464 -496 -418 28 633 0
688 292 -965 174 0
207 463 -426 -715 -6 0
-553 -328 243 255 -900 734 0
-566 -243 -152 -671 0
745 188 -339 471 446 0
-139 -315 351 877 742 0
-470 -761 -627 -939 651 0
-903 965 -152 136 138 0
60 -879 -277 -726 -345 957 0
395 65 -638 -120 -984 826 0
-589 22 224 662 -565 670 0
340 706 781 365 0
794 -60 -274 -179 -420 0
-576 438 -975 406 132 758 0
937 -633 -921 412 -367 -235 0
924 142 -52 641 -486 141 0
-424 893 -677 154 265 0
-469 -935 132 -713 0
-408 -469 356 378 872 935 0
374 -874 -434 -50 418 0
757 -871 718 -93 -973 -392 0
766 369 705 649 -579 -98 0
772 -540 -707 650 0
-312 -282 439 242 -763 -129 0
-74 -29 841 -334 -892 0
150 -512 -814 63 -810 103 0
-502 -973 12 -185 -772 971 0
-512 -673 -957 -908 351 0
-888 806 571 -132 289 0
-989 10 471 548 -543 -982 0
798 -200 356 585 0
-40 875 -932 -127 -410 0
212 654 -52 835 191 18 0
256 424 640 -295 -407 0
976 49 999 174 -863 141 0
167 151 -110 -984 0
972 -799 -186 749 -239 863 0
929 966 -799 -20 179 549 0
916 -211 -438 404 0
283 259 -907 769 915 -920 0
545 937 -831 917 -971 557 0
279 -840 -22 -759 0
42 377 418 -526 -774 -685 0
-180 201 -225 -575 0
-997 -176 -27 -871 255 -71 0
-850 633 700 517 0
-117 -190 -653 -962 0
-379 -804 165 471 0
3 712 -83 671 0
313 -598 -309 223 -979 0
494 -452 -558 -704 0
355 -833 -720 853 989 0
780 309 -163 918 -445 0
453 354 50 291 -426 945 0
-6 -803 -258 -639 303 0
-399 24 -958 -401 0
364 858 -573 704 311 -731 0
-676 717 357 187 941 0
-630 -743 705 238 -461 626 0
-897 -270 -777 -968 0
841 159 222 -262 -115 797 0
749 -227 -161 -696 594 0
-485 792 422 -769 -664 0
980 922 -860 295 0
290 152 157 837 797 -508 0
729 163 405 -87 -267 722 0
770 -881 -458 225 469 0
629 820 23 -378 61 0
-741 277 -340 651 -902 0
-875 780 518 -336 -348 0
924 606 649 55 0
370 507 -249 -291 116 0
-942 67 -900 -74 0
391 -398 151 -832 -164 -406 0
536 664 -490 236 85 0
207 275 -356 810 7 0
-585 -669 -664 -807 -869 -294 0
998 358 52 146 608 -162 0
-152 986 -103 846 -632 602 0
718 378 -293 -576 175 790 0
-492 138 -285 -700 0
994 -665 -283 775 -641 0
35 953 -654 -494 -510 -731 0
524 341 -888 -229 29 0
661 -970 359 883 597 0
136 -933 884 243 0
-168 671 -81 -251 0
278 -410 -627 467 860 0
115 -491 -304 762 -972 0
-957 864 800 -298 -48 0
590 225 979 98 -151 0
-286 472 263 938 -69 0
628 824 -420 234 -393 0
-803 236 -79 186 -249 207 0
551 -819 587 -735 0
-848 -693 858 788 -456 0
-716 280 592 150 619 0
-975 -352 406 -610 -351 0
-300 -239 -627 -207 0
-508 245 -534 -609 427 233 0
830 -110 137 1000 0
179 497 -885 -925 204 0
848 -560 -532 -484 -956 0
-429 923 -359 -254 432 0
-313 -13 -218 841 -517 0
-339 -541 769 -665 -876 0
699 275 954 171 922 -527 0
-419 171 -425 138 0
-828 842 667 397 -578 0
-953 509 246 789 930 -412 0
-953 163 -181 -561 -918 -78 0
-466 105 25 687 0
158 617 432 -659 0
-45 -344 349 -150 24 0
-667 -759 -365 -843 -605 0
-88 -268 -457 346 -499 -109 0
276 -340 837 -108 -208 0
-222 618 -270 -156 821 191 0
377 343 986 400 137 -906 0
-659 945 247 72 0
-270 513 172 519 0
355 513 797 -934 0
658 547 147 -865 737 0
645 442 -408 -985 0
61 -472 190 -60 632 -551 0
-979 574 -638 712 87 416 0
265 -565 206 133 946 -703 0
392 -929 -588 527 0
-148 456 -901 -803 0
253 981 -102 -798 0
-170 -804 319 631 -228 0
10 -520 388 605 756 -445 0
-184 380 859 45 0
-139 -507 343 -607 0
400 560 125 371 53 0
757 920 69 -418 0
-22 -191 -238 -139 0
844 -259 992 49 0
239 -937 687 182 -629 0
268 128 793 950 -20 0
838 -846 -408 -628 -512 0
-27 -763 -721 -744 -590 -119 0
-101 480 910 -29 0
-216 634 659 171 83 0
-294 741 343 -415 0
-915 -597 -134 71 0
248 -663 39 -24 0
-59 -324 -313 167 421 0
-472 584 94 -760 0
99 -476 472 702 705 -82 0
94 334 752 -381 0
657 -524 -146 -276 0
180 727 939 883 579 998 0
-47 665 263 -956 684 -24 0
-697 869 167 508 0
517 -644 -305 2 -698 0
-355 290 -476 -84 836 226 0
-213 -969 560 -641 799 0
158 978 -986 779 -931 0
223 43 -870 -605 764 0
568 219 -740 -484 0
643 -755 -375 -703 0
-210 400 759 -556 -598 -353 0
-981 533 -307 156 -994 0
-544 750 -338 -368 -938 -413 0
-657 408 -582 -115 -566 0
-540 722 -629 566 0
706 -874 -42 74 -308 -191 0
-417 -383 83 251 -586 0
370 -474 84 -712 791 0
281 446 266 -820 -303 0
-132 507 -604 663 0
912 -34 -937 -841 0
82 896 -782 -612 -123 -13 0
507 -531 900 -439 -782 962 0
-952 846 105 467 0
233 -300 -781 94 0
-365 -991 795 140 277 0
985 897 -611 2 -600 0
501 -129 -616 292 -121 -137 0
445 988 -699 464 255 -193 0
624 -358 844 831 -286 171 0
-130 459 -667 -808 991 -194 0
754 -87 677 -680 -717 0
-293 -326 537 456 902 -87 0
-526 -232 -292 -979 0
-569 786 151 -387 0
556 -974 -383 579 -820 0
-553 3 517 534 -60 -81 0
-55 835 -714 47 0
-705 172 -779 -487 0
-815 694 -772 -814 0
524 490 -434 -80 192 0
-425 -92 -274 540 -183 -3 0
937 843 -515 492 -455 -584 0
-383 -490 294 -778 -879 443 0
909 669 927 394 -457 952 0
-146 734 949 891 324 -461 0
-896 -750 34 807 0
-856 461 465 859 791 0
-363 201 -949 312 -206 -242 0
247 -840 328 483 233 -284 0
-229 -198 -762 547 710 359 0
375 -377 -947 -56 784 291 0
4 -897 -624 -22 139 0
-66 999 406 -640 -624 0
-714 -416 840 -994 -506 582 0
58 232 17 96 0
-133 -447 -861 957 0
-775 -650 -517 -827 -451 809 0
725 888 -837 718 164 -557 0
-651 -649 55 704 751 0
-348 682 401 -673 -666 0
-900 522 -846 696 0
-532 -812 -109 -778 0
299 -19 994 -91 -298 208 0
575 988 272 543 504 427 0
935 -867 -928 -253 308 0
265 -989 -211 -680 -814 0
439 843 -300 867 -82 0
732 968 -782 408 0
948 180 -505 443 -555 154 0
289 -966 -985 -623 -690 60 0
140 501 652 345 0
370 -991 300 59 0
-998 21 136 -446 -838 436 0
290 -356 748 311 -658 0
318 -709 402 -708 633 -350 0
593 -273 -654 -405 -503 -423 0
735 -175 784 360 -716 0
-383 586 11 -674 491 572 0
478 -77 -691 187 0
-327 -560 200 -779 0
-428 -609 776 663 0
709 675 -725 -957 0
-278 -422 7 -527 0
-969 -884 -186 699 0
-287 416 65 -448 0
-3 -606 805 607 0
-43 -914 363 345 -988 0
-100 407 -345 370 29 0
-626 987 -600 515 -319 733 0
60 -516 100 -493 -10 568 0
119 -898 -669 -166 -29 0
-799 -631 173 -68 -642 0
625 -692 -566 -283 94 0
-842 -646 418 562 0
536 -542 -999 429 0
-721 317 2 794 -733 -194 0
342 443 -635 992 0
73 763 -871 631 0
-455 -5 -877 391 -422 0
673 -433 -250 131 0
-945 298 -675 -277 0
272 -941 -768 -885 0
-785 699 -48 -469 514 0
263 278 -977 -686 -451 336 0
982 -332 -368 185 0
-792 -574 308 -641 0
684 451 -282 -255 928 0
349 -830 -223 -754 0
-725 -726 468 -28 422 270 0
713 -952 -202 -168 0
663 141 -169 -711 -370 968 0
-96 -48 -171 -42 -916 0
178 456 845 -398 323 -384 0
251 -87 -915 -458 -34 -68 0
521 -409 -211 -135 156 0
-311 -602 781 -352 936 0
919 522 416 -26 0
-919 -471 785 -255 166 -717 0
-305 -18 508 -106 -43 0
-229 631 365 -408 0
-287 -185 743 705 -304 305 0
-770 953 -26 -825 218 0
135 501 126 294 -817 0
-914 281 -419 933 -250 0
897 -237 727 162 291 0
775 -670 -468 855 0
551 -810 -372 -823 -942 0
-939 -116 -788 75 -245 0
-922 390 99 -787 -990 0
-514 -451 -666 -710 -986 0
899 -184 -485 876 -313 -296 0
-581 -12 960 -97 -736 0
-197 -819 890 190 0
86 -511 -161 -742 -923 518 0
713 803 543 473 678 894 0
269 -526 464 -842 50 0
-606 384 679 272 277 -154 0
97 -215 368 -998 650 0
39 575 -352 -819 -118 69 0
246 -488 -494 696 -266 0
-37 992 230 -187 0
928 26 -543 -688 -860 113 0
-755 -571 -522 61 -255 0
-580 131 52 255 519 0
-16 -592 205 -754 0
832 387 171 -245 522 0
-789 -849 -790 -175 -319 804 0
-505 -152 11 983 -990 793 0
-825 726 709 73 -179 -240 0
-253 597 861 291 0
-260 393 -102 -881 -809 -981 0
158 350 -800 -824 -272 441 0
219 -249 499 -902 0
151 936 -750 -257 -412 641 0
-424 341 -171 138 -851 -526 0
376 -644 721 846 -651 0
94 40 -983 -169 277 0
-28 137 36 -660 0
-323 -654 22 -518 652 31 0
-956 63 581 -651 0
-776 361 -682 164 0
946 837 479 262 0
892 71 -753 -717 384 417 0
-368 -961 -432 121 272 0
-410 -728 326 620 310 0
-473 615 932 -102 591 0
328 684 -722 544 -106 0
617 988 184 394 557 813 0
-824 388 573 738 -225 0
170 844 278 925 0
389 964 -767 -148 -285 549 0
-987 305 -280 804 -96 0
356 -695 -452 -966 303 0
-649 379 -769 155 0
272 703 -217 -835 -22 0
64 -322 85 314 -426 0
811 377 -716 345 289 -320 0
587 724 810 -666 -625 0
621 -123 220 -439 -994 -659 0
-728 -857 268 940 -421 542 0
-700 79 -795 -783 449 0
765 -442 836 -600 34 0
-626 142 -65 954 0
649 -666 46 812 354 0
232 -850 982 963 0
-370 48 540 -963 0
689 -151 -422 118 299 0
737 -596 -363 818 -717 -185 0
-296 -103 607 -269 -220 0
-303 -169 414 772 0
-328 -471 -526 -250 -532 -333 0
386 403 -321 775 300 0
404 659 -212 -359 162 -763 0
-513 -370 -953 -449 0
993 603 657 576 0
898 611 907 167 0
-357 -89 741 -470 283 0
-809 710 688 -289 -290 0
-629 154 -730 -61 0
-690 539 -506 -800 0
-894 -932 -69 -303 107 871 0
-393 -933 -317 -893 -462 0
273 -588 380 274 -97 0
3 769 -991 688 511 0
230 239 -610 790 530 711 0
595 -655 800 398 -146 0
321 -314 -570 601 0
824 -922 941 763 -95 0
-736 -983 450 -433 0
897 89 597 333 41 0
1 -370 807 -574 -84 -490 0
-44 311 827 -120 829 496 0
279 464 -651 -141 896 591 0
905 330 347 171 -593 378 0
-54 333 -347 -734 -799 820 0
340 -613 -125 -192 -13 0
-558 -848 459 431 832 88 0
-96 198 182 -553 0
-598 955 -773 920 0
71 -764 -829 -774 15 968 0
635 954 -623 631 231 0
327 391 -494 -881 141 0
-252 -459 268 833 -963 0
-957 446 -221 -376 825 137 0
-147 872 -613 -279 982 -206 0
643 -561 597 -641 -135 -112 0
333 648 337 -371 812 0
424 401 -593 179 0
-718 491 827 470 0
-713 -536 -206 -959 0
-946 -847 -627 162 -609 0
-920 854 601 -602 0
496 529 -653 -311 0
521 224 834 -15 394 495 0
-330 257 137 -50 0
263 202 -233 -74 154 0
375 -297 165 847 0
257 65 -380 541 0
-600 860 -863 402 52 474 0
-701 361 535 -303 0
787 -410 464 -504 0
-733 -784 -763 842 525 366 0
-339 -93 -872 588 0
79 799 -805 681 0
-33 830 747 -548 534 -724 0
-60 -969 -445 197 0
-594 -554 1 -302 0
-102 -251 -172 -503 0
-910 -532 150 931 -297 -181 0
398 -365 766 979 -621 748 0
505 -221 -793 -464 -242 0
139 -138 -971 -970 -662 -140 0
354 245 -965 -157 669 -737 0
-779 920 372 845 -359 -819 0
-414 621 -491 629 0
388 -127 -378 -854 0
151 -693 919 -91 0
-51 -588 552 428 -155 0
-291 -942 -283 906 0
-250 -641 509 -758 -860 0
-607 889 -260 -361 -291 0
-202 653 207 417 -646 0
-125 -514 428 396 -199 0
-395 696 701 -767 930 0
-653 -64 845 385 -969 247 0
-132 210 611 -796 -464 0
863 -681 -638 302 -7 0
109 -998 -357 -484 384 0
315 829 -454 41 396 58 0
-798 493 -264 -529 -353 436 0
-841 -836 448 533 0
-496 864 442 -502 0
-103 -916 -313 -774 -512 -656 0
4 308 111 -694 0
334 658 -961 280 675 0
267 457 -844 -289 0
-956 -574 493 512 -1000 -957 0
744 -825 341 784 646 0
-781 691 -452 387 0
796 113 82 503 -161 0
-381 459 581 894 81 458 0
714 156 -535 133 0
-936 719 -326 696 129 0
567 937 979 -9 0
970 253 -420 638 -269 -392 0
-162 -180 -378 929 0
413 520 -372 -574 0
-704 935 -906 37 0
-417 784 -18 -83 0
-83 374 448 56 -140 0
64 -651 340 -185 917 80 0
115 -730 524 640 321 768 0
-60 443 -456 -77 0
-418 -881 -651 740 -507 -91 0
98 775 -156 665 -888 0
-86 -36 404 843 -442 826 0
-488 174 384 260 -327 430 0
797 -433 -746 392 364 0
58 207 836 -141 0
-523 -694 436 876 0
-218 -326 349 -269 -515 0
263 -813 44 592 -167 0
-629 461 447 -37 -213 0
-935 159 -68 -598 215 -295 0
495 490 -658 331 0
476 -779 -708 465 -629 0
-45 -802 912 855 0
-955 471 -152 -222 -324 0
-567 -295 514 -949 0
433 328 -690 -156 231 -581 0
-748 947 -71 894 675 0
307 -109 -170 -831 -920 816 0
-722 537 -718 749 -820 0
-680 -443 -930 -990 0
-723 766 166 -690 -38 0
94 -587 -936 152 599 0
-757 -466 516 -548 -126 0
-72 631 248 542 -770 0
805 -696 -241 -28 -158 -442 0
808 -120 362 -383 -304 -543 0
932 -794 615 230 480 -566 0
-161 -418 -379 -853 669 0
-551 658 970 -420 0
677 -726 903 309 892 525 0
-754 -256 154 932 183 0
-89 405 927 -15 -631 -725 0
-938 -297 431 712 62 0
852 -762 -27 -278 0
283 227 -692 555 0
493 -959 101 714 0
-741 -61 57 -989 708 -407 0
658 -545 370 -206 0
428 94 -896 536 259 0
467 158 581 -56 -362 85 0
203 671 -549 -47 -226 0
-609 -66 -585 -704 -40 0
463 924 443 -906 0
-35 447 280 25 -781 0
553 875 -987 -274 0
52 708 -319 100 -240 0
-334 908 318 -167 577 0
800 516 141 -857 0
-82 -657 118 764 -800 0
225 670 -16 128 -703 -431 0
-737 621 547 110 0
-361 -433 927 -833 51 -964 0
-695 -831 355 48 -387 -856 0
-569 -669 -483 109 -673 0
369 -903 -57 709 728 -777 0
112 294 -880 189 -929 60 0
-536 -382 -976 -906 -659 0
739 -236 -736 -996 111 -303 0
598 284 -941 -409 948 37 0
-39 -663 320 247 107 -115 0
508 -346 728 162 0
-626 300 762 -16 0
841 539 -824 -830 0
-621 -369 164 -904 336 0
121 -875 -24 311 -548 16 0
523 -419 -968 -96 286 273 0
-297 370 633 110 784 0
823 349 -518 798 0
641 565 179 180 301 0
-95 -822 -478 548 648 0
-480 375 -135 -198 43 -638 0
561 -963 317 -387 -780 0
437 96 -16 -268 682 0
378 -99 -770 230 0
302 752 548 744 0
472 -9 700 635 0
-189 307 -537 806 973 0
-131 144 496 -800 443 0
-384 -632 -332 -398 308 -165 0
316 153 -699 90 770 0
816 -995 924 426 0
-65 741 310 538 189 0
932 -288 284 -667 -582 0
-248 -453 980 17 0
739 -503 -62 -74 951 0
734 574 704 -742 84 650 0
835 -966 55 264 -917 82 0
986 -673 -466 -772 -869 0
-770 -544 -608 920 0
396 639 -449 162 0
467 634 402 -569 -418 0
129 436 -546 -910 688 362 0
938 317 600 35 -324 0
-191 -80 724 1000 317 0
890 -354 -787 -846 -242 42 0
205 266 -53 11 -601 535 0
-251 743 37 481 -687 152 0
848 94 -328 936 0
717 348 -731 -311 707 -481 0
66 -119 417 -958 74 0
461 645 -413 946 0
669 722 116 284 -143 0
-176 -878 130 -261 0
821 -345 104 -827 0
-24 128 -138 -587 -526 0
239 -782 445 231 -712 237 0
-479 -28 -424 160 0
-432 -577 400 29 106 -161 0
-892 -282 -266 -753 0
345 185 424 -702 -676 0
194 -748 340 -577 578 0
111 -842 -724 -206 36 0
-175 735 991 774 0
-865 531 -867 854 -403 0
-604 848 -782 793 -631 -24 0
274 -37 552 -796 -539 0
498 174 -444 -194 0
-748 567 321 -609 0
-246 646 482 493 0
-439 45 -304 -511 0
-619 -963 571 -837 0
-990 -661 643 -231 -844 -527 0
-557 142 -487 -349 -641 0
12 -845 -485 -637 529 0
355 -886 -767 -111 610 -577 0
-66 677 528 -729 -84 -630 0
-825 -259 -587 -849 668 0
575 -981 -345 -903 0
575 -659 416 289 0
-182 -653 457 -359 0
383 -265 185 -934 -946 0
612 -701 241 967 -970 344 0
-648 763 -157 -545 878 0
-727 902 853 456 0
840 -11 928 -349 483 0
82 690 -619 -28 583 68 0
10 246 327 -432 0
-302 -969 -181 424 -72 0
4 174 -62 606 0
756 -750 -213 326 -566 9 0
544 -79 686 188 0
-712 841 -784 -278 834 0
-689 -748 -465 -452 -108 430 0
39 492 -115 325 0
-230 969 -755 938 640 937 0
-961 -659 960 -294 0
-243 945 -720 -419 879 512 0
690 121 -995 11 0
673 672 -723 293 0
906 -381 267 442 215 -531 0
251 -519 -59 807 -659 0
43 -136 936 802 0
446 -173 -945 -412 0
-757 -788 229 897 -747 0
-611 -990 57 -357 630 0
-264 852 186 574 293 526 0
-721 -398 922 -284 408 257 0
514 -409 -563 470 -770 723 0
-494 -583 356 -940 466 0
-33 123 -837 -876 -722 -537 0
-206 -431 268 -447 -959 -531 0
867 -921 -680 452 -783 -625 0
-323 59 939 -742 0
992 750 4 -68 0
-342 569 -160 -717 972 0
484 706 -475 498 0
-508 886 982 -889 0
-186 39 927 -28 165 0
-181 -829 -224 629 778 0
-229 -110 -726 368 840 0
-83 -789 638 -869 0
-10 121 -332 904 42 -161 0
-367 204 -242 224 -32 0
-131 -599 -677 559 -386 835 0
-833 592 -887 792 0
-834 700 -56 -870 -564 -919 0
770 460 -701 -554 -129 0
243 913 -138 -162 0
-143 -22 864 -694 483 0
-625 -753 -307 -645 35 0
-868 104 -616 304 0
239 -536 804 -19 707 0
-861 795 -299 810 963 -840 0
198 518 -26 125 -916 667 0
-92 -648 275 -722 543 -169 0
582 395 317 -998 0
995 -210 178 476 -685 0
-410 279 -674 219 0
677 -756 769 -947 -264 0
-183 -252 -860 876 0
-59 997 477 -399 0
73 519 -420 24 0
-662 -187 128 -619 0
319 -224 -755 -842 0
797 882 606 267 -752 0
961 676 343 -912 830 -747 0
483 -221 -10 -524 0
891 666 965 821 0
-383 -636 470 493 0
-219 -990 -735 856 -652 437 0
435 -103 942 102 -11 0
-80 -544 48 -205 -462 0
876 858 529 -625 576 0
965 750 -539 818 -308 0
521 -282 808 -860 0
-223 743 -312 578 -164 -932 0
-448 -518 -832 845 -732 0
625 336 558 586 0
242 -601 -344 271 -295 -754 0
-928 462 -421 -456 632 228 0
-764 -264 48 -714 0
-168 671 441 -802 -326 924 0
-755 -471 145 -847 484 -644 0
-477 -312 701 -599 0
430 695 192 607 0
-267 -98 -945 -782 240 404 0
-449 93 -295 951 -242 434 0
-164 -436 -588 -721 0
-780 469 -540 943 102 30 0
200 -887 68 -930 685 0
281 -770 -779 -538 -905 964 0
656 -348 -693 529 615 627 0
-452 -793 -851 371 404 0
112 -54 -214 429 -757 0
447 -210 -34 -353 0
-659 -211 205 -682 0
-329 55 997 587 400 -254 0
-944 384 642 -718 -119 40 0
557 438 -703 401 166 0
-119 -108 -176 -903 483 0
-752 -944 937 -156 759 0
893 -435 230 -169 470 0
-358 235 -31 181 0
-530 147 819 -479 -126 0
416 51 346 808 -911 530 0
702 352 -643 -404 644 -57 0
681 -869 720 513 0
-498 311 -39 -622 -185 416 0
-877 -630 -913 961 0
-548 -9 698 761 0
488 474 -423 -568 986 -753 0
529 450 296 585 679 -720 0
-878 -839 -477 -954 -376 0
-182 -191 319 899 797 -923 0
58 -155 997 -679 0
-193 192 732 393 31 0
-467 475 -830 240 -197 -877 0
-98 -134 -551 -182 535 0
103 270 -385 -955 0
-52 781 -460 -855 0
-727 77 753 -85 711 0
-539 -859 453 270 998 183 0
728 528 335 423 -718 931 0
99 35 605 -98 559 -581 0
376 -224 -913 313 555 294 0
-66 387 -507 710 0
-517 -794 -899 -416 5 -68 0
794 409 -46 846 0
-235 381 25 -538 0
-232 -281 410 372 536 18 0
-844 796 -299 -314 0
-706 -885 278 -398 0
-145 -764 768 -470 0
469 -711 986 585 -9 -627 0
-849 814 -317 -328 -70 854 0
-767 -486 304 219 427 0
822 -701 -408 -590 -568 0
267 -368 -854 800 -237 948 0
412 115 656 -693 -219 0
-494 238 -118 386 218 0
831 74 855 -1000 0
399 878 -227 286 0
-841 -122 484 -186 -477 0
64 -923 -450 304 0
-10 -849 -357 -25 0
388 232 -26 135 434 0
856 -984 477 -995 446 0
-404 466 952 451 662 0
377 -985 -484 678 -872 0
92 523 873 -236 0
-544 508 368 -957 0
933 437 410 96 -177 -560 0
662 888 -714 578 -12 0
246 -272 -391 243 -600 0
-249 265 988 -844 0
-237 400 532 761 -475 17 0
71 -403 863 -267 -533 388 0
-307 203 -260 -16 993 859 0
-41 -823 -470 349 -128 -781 0
-123 854 704 -557 -808 0
-211 755 659 -904 822 164 0
109 -517 -270 -820 0
371 -747 615 770 0
715 -872 -835 995 851 0
-603 -617 -986 587 649 11 0
847 38 601 -671 247 0
-134 783 -334 94 767 -634 0
-151 -847 -898 615 804 232 0
-713 193 178 924 0
-978 210 427 -57 266 871 0
561 -596 672 -591 0
-292 12 992 658 -7 -578 0
-674 -79 261 357 -709 837 0
-559 -241 -429 583 0
-950 987 258 502 807 0
619 -845 226 -91 0
-124 -731 -660 -344 -224 0
948 -126 328 -379 -797 0
-431 -846 -500 -119 822 0
-425 925 774 795 149 0
-354 490 -327 -544 328 0
-880 -995 21 -340 705 158 0
613 678 329 491 -920 -412 0
-841 -950 -111 972 -150 0
-883 621 558 -847 499 0
-67 -135 -783 -474 0
-647 710 970 -256 -741 0
-706 117 -100 -903 -131 0
114 -935 -878 -474 244 270 0
798 300 742 -858 0
-493 -340 -298 230 -565 0
830 974 -583 606 0
236 470 337 -643 -276 -305 0
-958 72 -709 -240 0
-500 812 -743 680 975 0
-975 294 -238 557 759 0
-50 569 207 462 21 0
-839 -350 185 710 -868 -33 0
-377 -661 -599 473 0
720 891 110 336 -391 -405 0
-222 -581 113 71 201 637 0
-546 820 741 553 0
-888 972 131 436 0
876 179 48 501 350 0
720 238 -273 -112 -253 0
-13 492 -683 -945 -410 814 0
-268 356 -877 762 0
-606 623 -415 443 0
-945 766 561 322 9 972 0
85 -899 887 814 0
-110 871 63 -258 778 470 0
836 -321 -130 45 954 -804 0
-714 -160 574 -759 -941 0
294 914 613 -121 -156 0
556 708 324 -828 0
209 -281 947 561 0
966 706 -308 767 -637 0
766 -819 -993 -855 894 980 0
836 463 864 415 0
-22 -285 798 -995 0
-345 509 -746 91 -826 159 0
323 558 -590 -911 -678 0
894 319 -211 658 0
884 207 879 -386 0
-892 215 390 7 0
317 -609 555 457 -594 191 0
-878 307 723 -587 -762 -342 0
222 -345 436 -470 -59 80 0
-734 -817 -214 887 -699 0
-589 -395 -949 986 -745 0
578 359 -828 620 353 0
-891 584 -869 19 -205 940 0
-580 324 33 -263 0
-318 -47 613 -496 438 0
428 925 290 832 0
-701 504 233 -789 561 0
-198 12 -339 -250 0
802 169 -367 -473 539 398 0
-518 -836 353 -816 745 0
15 -181 -435 -437 242 0
-356 739 155 929 19 32 0
-110 937 821 -700 -74 0
260 -627 617 504 0
51 -907 452 803 -628 0
-482 574 492 525 0
276 -663 292 -561 944 0
-817 -919 657 474 0
66 -639 -671 -45 508 -561 0
526 755 246 989 -622 0
971 -783 -178 -540 0
-342 839 -891 349 0
-44 928 642 -768 -307 -780 0
190 -529 -883 -145 -268 314 0
855 406 -469 -943 -414 0
-948 189 -438 20 145 0
758 -791 655 -473 0
299 769 -130 856 0
461 -186 -198 695 -269 0
683 -69 -656 -439 0
118 -380 -273 -367 -278 0
650 673 468 585 -603 -978 0
-314 -991 772 -419 596 859 0
441 690 -21 981 -113 57 0
160 408 133 830 -832 349 0
612 -99 -124 14 0
558 966 -243 375 -128 0
316 113 -297 -335 848 0
469 -971 40 270 0
-509 430 665 303 0
-817 378 706 365 377 -285 0
-280 -160 561 -279 0
-7 387 -738 -955 864 -788 0
262 -284 435 -930 870 0
-264 -773 795 630 -414 -52 0
635 46 -328 187 140 604 0
263 -413 -252 -354 0
64 377 326 73 -82 -750 0
-655 -853 932 -571 0
-529 -203 -150 -114 878 0
868 887 61 -229 -67 -403 0
-177 -559 -230 -434 0
-313 316 -457 560 -229 0
555 -678 707 845 870 425 0
-448 13 152 519 148 0
-986 130 -382 819 -124 581 0
878 -383 -676 898 0
834 468 -594 313 990 0
583 493 670 -273 151 0
-589 -319 241 916 0
832 821 219 -320 917 0
82 -865 -754 -983 0
-237 -176 177 -971 0
659 536 645 442 -908 0
205 -214 658 -168 -914 0
130 632 -826 -978 0
-593 130 762 -330 879 0
5 711 541 -539 -237 0
-282 757 333 -462 -368 94 0
-962 161 459 -153 896 -128 0
60 -784 -223 -665 -691 81 0
458 366 256 909 0
-751 -372 133 -33 127 0
-479 489 -926 -850 0
408 841 -289 341 0
-761 -706 692 -189 0
-736 820 818 856 0
157 -605 -154 -2 0
-215 -368 -548 778 0
-565 -177 -556 -900 -24 0
215 -774 747 365 166 0
234 960 741 357 0
981 -659 -365 -49 -356 0
158 556 918 -503 0
-585 -778 583 708 0
-116 -458 -284 -981 781 -408 0
509 584 -276 -214 16 0
662 -839 174 699 0
-436 -70 294 -287 428 0
-676 -4 182 -204 998 617 0
-487 788 -888 -789 -489 -190 0
-36 -797 -530 5 830 0
209 878 656 149 0
-133 -98 685 -380 -535 -764 0
-826 -890 806 828 390 714 0
-527 654 89 -704 -635 1000 0
-681 -411 84 500 668 0
-970 -158 671 -830 0
15 -821 382 415 5 -394 0
-691 164 742 -432 650 -975 0
928 292 709 -393 -409 194 0
512 607 -8 -840 -865 0
-566 -192 -923 -714 0
-870 -424 819 -242 0
-103 305 -363 789 -920 -619 0
649 889 -611 112 0
14 7 -212 -274 -360 430 0
-836 -81 114 965 0
-74 36 -938 -275 0
549 -398 710 -674 879 -173 0
-674 -581 -74 -442 106 -693 0
653 -297 817 767 -952 0
603 824 -934 557 0
29 608 781 908 420 0
275 -10 -838 531 -53 -414 0
716 -95 653 -523 96 0
-861 -608 -906 586 -383 145 0
-635 -553 607 877 977 0
-730 -859 997 -637 0
-696 -686 703 -885 0
-929 924 523 -322 859 -337 0
-835 -151 -699 815 0
-786 498 421 -916 0
-795 805 472 -503 -226 0
215 341 -212 -771 -838 0
897 121 191 139 0
-621 -834 -793 798 979 0
487 437 -990 -607 53 -627 0
13 639 111 972 0
568 751 -566 246 0
812 429 -558 -612 273 347 0
551 -347 -936 296 0
608 826 -306 -428 814 0
-688 -318 -702 407 331 -601 0
233 455 -74 689 -989 -656 0
609 505 -427 98 643 0
-459 20 -818 767 183 0
314 -120 -130 -188 -693 0
-1000 681 -173 -317 962 13 0
-760 -690 -366 90 0
-684 -497 621 622 0
-563 53 202 -411 -802 900 0
358 -643 224 -510 -865 0
-391 29 -167 -814 -70 605 0
925 -630 868 184 675 831 0
490 -221 -442 -440 431 -412 0
-834 721 242 -289 0
320 -960 292 672 -901 653 0
-285 784 334 971 -451 0
-552 -396 969 377 -690 925 0
890 547 -915 -125 -946 80 0
523 324 -338 -582 122 213 0
414 -757 -512 -265 329 924 0
477 203 902 -701 0
-984 -291 -675 -107 879 -205 0
-942 -811 553 -150 0
-182 38 701 875 -508 -714 0
831 -217 -235 -591 -278 0
371 215 168 653 0
13 275 1 -62 999 0
955 -88 251 -448 0
-132 -137 -361 306 -683 767 0
-131 -551 -45 -627 0
-428 -369 867 704 -19 0
167 543 747 -932 -53 103 0
233 139 -500 -627 0
549 -801 -450 -576 0
328 398 499 759 790 -709 0
-537 837 817 -108 292 -342 0
-480 633 -471 331 -462 91 0
330 -715 -136 -471 0
262 -271 -333 -873 52 0
978 723 -508 203 599 0
-834 969 -704 -963 0
611 43 701 -613 -257 0
241 -63 509 329 0
-507 -479 -252 564 0
505 -357 -544 -979 -741 549 0
388 792 794 -336 0
-93 280 689 -903 128 0
-926 245 -398 -883 0
-495 -713 191 435 976 0
-929 380 -910 202 0
-287 -681 -267 74 0
73 62 783 -559 -903 0
-810 -368 550 -256 0
-242 -680 -298 705 4 0
848 -939 332 981 0
139 -759 107 -390 -900 809 0
-131 50 -108 -322 0
-917 -761 398 938 696 -54 0
-810 124 -857 620 -353 0
-751 842 -4 445 0
-13 645 -549 261 718 953 0
703 598 -460 -196 0
314 -527 975 897 0
-277 -974 582 -420 -752 0
963 275 484 85 0
626 978 -510 -800 -104 0
482 800 -331 -876 -538 792 0
-730 742 -697 722 444 639 0
-14 573 37 596 -400 0
66 278 622 -188 -187 0
-740 906 913 -333 131 0
484 564 -753 876 213 136 0
945 866 -545 -139 -246 0
-144 -470 834 990 0
-742 -738 -564 -411 0
-20 790 -521 982 -407 0
909 431 -496 994 566 0
-938 -660 -204 -277 725 872 0
465 -213 126 235 0
19 -359 954 -30 321 -399 0
-806 451 486 52 50 -586 0
462 610 -528 -475 0
975 -654 -481 953 -980 -372 0
544 -848 -913 -11 -822 0
371 -366 358 757 852 -787 0
766 -482 468 -713 77 0
915 431 -370 169 -197 -541 0
-371 650 235 654 -255 -827 0
735 -733 -1 422 -160 0
-77 501 734 -19 0
-248 97 405 729 702 0
-789 -730 -330 683 -81 31 0
307 248 444 -81 312 857 0
29 593 -411 865 -255 661 0
800 114 146 -370 263 318 0
121 246 -210 -775 797 -934 0
-73 472 320 470 0
383 -52 648 -868 0
-105 -959 538 -449 775 -851 0
967 -693 -799 -941 -987 431 0
-722 291 -227 74 -443 0
876 282 836 970 669 0
-898 -468 -169 -889 -966 -470 0
-161 -309 -963 694 162 0
384 -509 73 -723 -106 0
108 241 884 197 0
-752 32 -120 257 0
31 -107 -199 757 974 -950 0
-104 685 775 968 -138 646 0
-555 -568 -452 768 -891 0
496 -745 -927 134 -268 0
611 547 126 -306 681 -447 0
-702 -901 737 -734 -511 709 0
12 262 905 -42 0
550 301 -826 440 -799 -243 0
144 -363 -358 -62 574 0
-155 947 768 -189 -610 0
-578 676 -874 -41 0
651 881 -310 -543 829 -614 0
-424 806 -118 215 -864 0
-136 496 161 602 194 0
-746 99 150 -565 387 0
-623 -90 421 -92 0
-176 -468 -205 -443 -875 0
177 -780 -182 -560 0
-667 457 -76 -802 -752 0
558 -170 -395 23 0
-25 95 834 210 0
817 914 -570 -184 -71 0
369 -859 -726 -153 -353 227 0
-137 128 -525 139 0
418 -822 -51 936 0
863 -349 213 -821 0
-485 620 -68 -851 -147 0
-174 323 505 32 -428 -4 0
-154 817 -553 63 0
899 560 -997 -933 0
116 -9 -746 -665 993 711 0
-613 -623 410 -739 -721 0
99 784 -192 471 662 0
-238 -848 -67 513 6 0
85 839 -380 138 271 143 0
-915 -688 135 -745 -921 -798 0
574 -349 608 403 0
-955 4 833 994 489 0
72 -285 -998 453 0
-723 360 550 3 770 362 0
43 -359 623 575 -381 -645 0
-661 873 56 5 0
299 43 873 -383 921 0
184 361 580 -418 -42 -717 0
-154 55 250 -469 -828 -155 0
-603 -663 500 255 -823 0
794 313 993 652 -203 -86 0
-743 -639 65 538 -911 987 0
-277 741 7 -334 164 0
-508 556 -41 654 -322 625 0
584 -895 229 485 103 -490 0
-166 879 -580 480 -281 378 0
-975 126 464 -60 0
-261 145 -258 627 339 0
-766 -216 -776 -458 -894 626 0
33 252 446 -467 -71 -828 0
158 126 718 -859 711 0
-908 -469 291 515 0
-941 -538 -911 471 410 554 0
-466 609 590 -900 -691 -100 0
634 607 950 574 -478 0
-69 -985 248 -488 -603 0
99 245 451 -253 595 0
126 169 435 232 4 -736 0
-307 591 122 -135 19 -667 0
144 714 93 -157 146 0
-902 -383 -756 -832 0
12 -284 -790 -188 977 0
-627 95 389 -759 0
994 993 321 474 0
-910 256 -701 -688 0
-756 31 -575 -220 0
-177 -339 804 -455 -342 0
-870 714 -158 74 0
-658 -632 317 -274 -858 0
-663 -483 -269 969 0
378 663 95 937 -19 914 0
365 -500 -662 620 0
247 -887 337 -554 -398 -397 0
939 167 -657 -929 0
970 -992 518 -101 -305 0
905 157 -853 -278 -669 61 0
460 -964 -86 -347 0
-854 123 -299 -846 -982 0
709 -203 83 696 0
442 95 -704 316 880 -301 0
-966 182 -853 523 334 0
-56 -301 -700 -12 0
-357 115 273 -911 -403 0
660 976 -590 -107 0
728 -96 875 542 0
-183 256 -398 -617 -787 944 0
-460 -744 -679 982 -685 -364 0
-553 -167 789 470 495 0
-297 200 492 -499 -486 -720 0
502 346 -577 814 703 404 0
571 -2 434 299 0
-642 155 -348 730 -253 681 0
-423 -166 -254 667 -868 -131 0
294 -391 214 -657 330 -275 0
-760 -738 403 842 -577 -488 0
531 -162 36 -875 -81 976 0
-575 455 175 253 -930 -990 0
-174 -32 -432 -48 981 -320 0
-751 813 145 -447 -877 0
611 579 172 -402 553 0
-540 -902 -393 826 0
-349 -982 365 -39 -898 0
-901 240 -601 -119 76 531 0
461 -857 846 40 433 -216 0
724 581 -629 869 0
50 122 839 -115 996 -568 0
-889 994 485 363 850 -751 0
-210 -33 222 -701 -223 -415 0
-224 128 693 592 -520 -361 0
-909 -673 -296 269 -415 0
212 798 195 -856 463 763 0
870 -13 -69 198 0
-862 148 761 -138 0
13 -659 -416 251 -350 -454 0
-292 467 435 -13 -577 0
-464 459 -538 474 -227 -323 0
-387 330 -95 -354 -197 995 0
-472 23 572 -385 0
-43 -275 787 282 0
180 438 721 -148 0
-999 -561 398 66 115 0
825 685 968 -882 0
500 967 -635 398 0
-417 131 -266 331 -335 788 0
738 -525 -189 -920 0
-945 -41 -382 476 -766 482 0
421 -261 -226 -464 473 345 0
408 -316 487 104 -170 327 0
-860 600 924 689 984 0
886 -592 271 671 873 0
899 403 900 136 661 0
453 75 -300 -756 0
852 271 91 -554 169 -916 0
-389 490 -872 861 800 -6 0
383 -513 -399 -847 317 0
549 -567 515 354 0
312 990 523 897 942 0
539 -993 16 -741 -197 0
-777 -42 338 -686 299 -434 0
633 -219 -893 -496 0
283 -543 950 -464 100 0
-514 -292 401 58 991 -925 0
675 691 -906 296 0
562 37 -757 -846 0
-798 896 -689 -221 -84 0
714 -566 592 384 656 0
-796 -21 879 981 0
567 499 -617 345 -655 0
696 -829 -738 -166 -9 79 0
-691 533 -740 54 0
604 -883 -692 262 0
-281 876 -519 542 -165 -678 0
675 -56 919 -879 0
293 785 504 131 -498 0
-417 -994 935 675 0
-727 806 -673 -589 0
-835 -734 -86 -6 0
-896 -922 -238 -365 0
-242 880 -656 -613 -866 0
-776 -902 -884 -785 0
-257 -401 -952 -639 658 0
593 899 -276 -347 0
-115 928 -190 752 0
570 870 -936 -871 -875 -383 0
232 -994 45 -308 0
-238 329 779 659 355 227 0
-943 497 -886 -998 -576 825 0
-903 149 -377 945 709 -224 0
-478 -814 332 826 -440 -298 0
662 -240 777 882 -72 -270 0
-997 -186 -930 -212 -80 0
937 -875 318 -558 196 907 0
350 611 112 -538 812 0
-939 804 436 714 0
-859 -313 675 559 543 0
-723 -169 -441 465 784 0
525 -791 -103 -370 -482 0
-721 -993 -722 -34 0
-627 -590 481 390 0
562 -839 994 167 732 399 0
-430 363 -636 -734 0
-438 202 -249 -248 533 0
384 -235 -953 -15 0
845 604 -113 -402 0
-425 415 552 -366 -828 0
863 254 319 671 85 -267 0
799 -926 395 -535 222 33 0
-199 520 679 -27 873 698 0
552 -235 681 -899 576 0
-661 -12 672 786 304 0
162 -689 741 -336 295 0
273 -638 754 607 0
248 -551 734 -368 674 0
690 19 3 -671 -918 -101 0
-181 383 -521 -710 -31 210 0
-260 -341 567 611 0
154 -351 130 -512 770 -490 0
-877 -683 213 160 0
-988 489 -410 335 -734 0
596 739 756 -508 0
909 667 -246 646 0
-452 765 -500 -691 0
240 573 677 -930 0
14 -415 177 772 123 533 0
980 893 -5 581 0
-469 -848 -657 -931 0
-919 -749 -902 54 721 0
465 -919 408 715 803 -91 0
480 110 -195 -678 -984 0
72 891 354 -367 0
-900 745 -363 130 -841 0
-953 -225 -96 843 759 0
101 -670 -386 471 -610 0
826 -537 475 -214 -58 745 0
-853 309 209 -730 0
-902 225 426 -73 0
496 -191 602 -26 861 -700 0
896 450 -798 497 -435 200 0
683 -534 -486 -228 -263 821 0
-878 496 592 -776 0
-505 -227 -448 387 466 0
874 405 -550 -723 0
-857 915 573 -557 -569 -763 0
-100 -867 -826 -94 0
-830 -791 13 -904 -128 -187 0
-753 403 460 315 143 -468 0
-435 -626 -978 112 0
-232 13 95 270 0
-756 -574 618 79 933 0
377 -670 488 118 -760 0
-899 -528 704 -847 -788 99 0
456 -543 -27 6 0
244 367 -809 -687 0
-344 526 718 132 0
168 635 -613 -247 -282 -630 0
987 -925 586 -836 0
-335 616 875 -565 -323 0
280 -814 89 -989 0
-191 92 360 891 0
184 -811 -962 -86 673 -747 0
490 -113 -350 -459 1000 0
126 609 -881 -570 564 3 0
323 236 400 585 0
152 109 -197 600 0
990 343 -968 344 645 -821 0
-811 -479 -760 -631 0
-412 237 -652 252 -177 578 0
-446 -877 805 -791 543 0
-500 831 864 -577 -916 0
570 -278 -225 -982 -729 0
152 331 319 -77 619 0
949 -994 -729 506 -266 188 0
-115 999 -465 523 15 0
-579 -603 -558 -947 -122 -56 0
-723 -510 851 147 0
38 674 -516 236 0
406 -99 766 -857 386 803 0
310 617 197 166 0
-762 592 121 -849 0
-960 538 280 316 795 410 0
-924 -266 767 -812 764 0
-651 -893 553 -719 930 0
455 -774 -895 816 0
-507 257 -933 -576 275 0
687 -413 655 527 -988 178 0
323 -609 -819 -829 -1000 -430 0
-854 419 -320 251 -211 0
509 -757 -921 -990 0
317 955 -851 -337 -557 0
709 -377 810 431 0
761 -856 506 154 -794 109 0
516 15 -72 -702 0
-814 -405 51 -260 603 -359 0
-283 129 -255 734 0
176 -979 912 544 234 -505 0
275 554 -580 329 -96 0
-653 30 676 911 -319 0
-393 -663 955 -30 989 0
604 155 192 -242 670 0
-832 -384 381 431 0
916 -141 414 -104 0
-79 -742 254 156 139 690 0
439 -829 123 -536 0
-717 -220 -524 -751 948 344 0
-525 502 -366 742 -190 658 0
-977 -847 -26 421 0
-98 471 747 -814 0
-633 365 -196 2 0
663 237 -471 870 0
-435 860 -108 607 0
