c Easy-SAT formula for GPU Gaussian elimination testing
c 1000 variables, 2000 clauses
c Designed to be easy to satisfy (fast SAT) but large (slow GE)
p cnf 1000 2000
1 0
2 0
3 0
4 0
5 0
6 0
7 0
8 0
9 0
10 0
-442 696 -34 65 986 0
-577 -751 -943 -214 0
893 639 -357 503 -446 501 0
-914 593 509 -872 0
757 -828 -303 437 500 0
-306 343 48 219 0
353 618 -906 594 0
773 -40 893 -477 -548 0
-289 591 -364 373 690 0
585 -350 -174 -253 0
36 756 -277 -167 -61 124 0
-863 -209 -321 -819 -833 0
-350 900 177 819 -598 684 0
982 547 733 275 0
-838 -191 948 -539 673 0
-507 -362 652 -401 0
-591 325 905 324 0
250 -856 -953 -444 0
-468 796 303 -427 -152 0
446 596 972 -784 0
746 -95 -631 -135 0
605 -353 562 -10 -73 -341 0
788 -145 -867 654 0
-694 -399 330 -243 0
523 -574 -296 -318 410 0
625 811 -103 435 0
825 654 63 -136 0
-999 765 695 -313 7 -141 0
-978 -67 75 846 -497 272 0
587 533 -268 938 276 294 0
567 -416 544 -22 0
93 491 -440 -638 785 0
41 376 -914 -34 726 0
-792 583 -628 143 0
456 640 -565 539 0
-585 365 -456 952 945 0
746 278 607 319 -783 0
-813 509 118 12 -820 0
951 -577 419 -837 503 436 0
312 -266 419 663 0
258 -560 -212 -950 -386 -136 0
753 396 209 379 0
-147 -875 -721 -666 -642 0
-148 527 351 -334 546 0
367 433 -829 949 0
590 -535 178 -472 976 0
-938 -116 -326 800 -522 0
62 237 516 -304 -750 -714 0
470 -775 -372 -507 906 373 0
-169 979 128 41 560 116 0
706 -163 671 956 0
100 136 964 -60 0
-345 -436 -340 130 875 -979 0
211 518 -179 -21 264 0
87 -740 -467 480 61 0
-68 977 -614 83 829 0
-173 -475 400 -360 -78 0
-200 762 294 175 858 -445 0
526 -672 885 -484 0
35 -176 860 930 712 0
692 382 -952 -835 -276 -422 0
87 92 -866 436 934 -287 0
-914 886 -727 -905 0
-174 -271 244 617 -944 0
-120 550 -299 -267 695 0
-401 -314 396 608 -342 303 0
-163 -772 14 325 670 -439 0
190 850 553 119 0
838 563 -436 947 346 0
292 446 802 877 -290 -741 0
404 -911 771 -900 0
154 -91 -76 -60 -508 0
870 -573 -260 1000 0
-520 -311 -296 276 730 0
588 32 -164 -282 0
-974 -600 715 -925 164 340 0
421 859 -343 732 340 0
903 -566 -48 -743 70 0
535 775 15 -178 0
-836 -591 -746 -652 0
-353 578 -550 756 -697 -654 0
994 -420 -407 465 253 -709 0
-173 -598 -858 -724 0
-509 -774 246 3 96 814 0
210 -899 -112 -911 0
-827 230 702 803 -923 0
-301 -786 -415 -511 0
-480 -404 263 -63 -961 -606 0
-160 -653 -99 -615 857 -337 0
633 670 352 -548 5 0
494 924 274 -639 0
120 -943 803 842 -298 0
-331 885 -418 230 -118 -359 0
-876 -927 149 -168 -30 0
834 231 416 453 -236 0
-227 -517 850 264 956 -936 0
493 261 597 -998 -57 0
613 113 -353 709 -527 282 0
-894 393 -555 390 -35 0
884 -343 -848 -956 566 543 0
-885 -142 -97 904 0
-216 -368 -603 -133 95 -289 0
542 -968 634 -601 -74 0
-395 -957 -824 912 219 0
39 415 -579 114 434 0
133 -352 -31 -237 0
965 -473 -848 -725 142 0
172 237 93 -297 0
-377 931 -14 -957 0
849 949 753 354 623 55 0
137 -831 -675 286 0
-312 -201 832 -873 -809 0
-798 115 923 -776 -455 0
490 602 -832 -667 0
-204 -174 822 -791 0
414 -498 -945 -50 0
387 954 850 -360 0
-834 -387 733 888 487 0
-356 600 -638 358 986 -987 0
618 225 -737 633 -244 705 0
-365 356 473 -225 0
-225 -470 350 949 0
-91 -635 430 -800 -681 0
774 -281 588 -258 0
-16 -699 723 765 -351 0
203 -550 -799 -364 259 0
-394 -647 253 458 0
-42 404 -130 -582 -944 842 0
50 297 -61 -219 0
96 -239 227 28 0
489 819 -81 46 0
237 -309 115 -909 347 0
490 -449 778 257 0
-708 651 701 125 0
-339 -220 -251 526 -930 0
-581 456 399 -853 -53 0
-105 -184 -484 -601 0
-476 -77 -385 -17 0
-788 611 167 -882 -962 0
-586 -986 97 172 -776 720 0
586 -57 -322 515 0
482 603 -311 336 0
-858 702 570 -703 -621 0
855 450 786 156 737 196 0
776 -959 -640 828 905 -582 0
-385 436 221 668 -722 0
836 961 -764 188 -233 0
-137 -607 -355 -641 -806 -101 0
-174 -134 220 -525 -944 0
711 -1000 -481 839 -778 -857 0
-408 -71 161 -222 382 0
-153 620 272 421 134 -514 0
-514 -587 481 781 817 0
625 513 -27 161 -703 -631 0
353 42 -463 -251 21 309 0
439 220 -601 -98 -807 0
-500 866 -493 -464 -373 -808 0
-260 -487 -634 -52 0
501 414 -33 -797 885 11 0
-697 144 -923 634 611 -636 0
-866 -661 191 -322 0
-235 588 287 395 0
481 195 69 -78 0
-257 -968 -820 -754 0
846 -568 -832 318 0
632 -165 -351 788 128 0
-901 -232 -856 542 -7 300 0
583 133 -470 454 -832 0
-92 -950 467 366 -336 351 0
203 419 -896 833 0
-372 -576 -651 692 -218 691 0
-703 432 -477 575 -696 -499 0
-897 340 -69 -102 -390 -975 0
579 320 288 630 0
20 -7 -899 93 254 0
-200 -543 256 915 -606 0
907 580 -504 -311 296 0
-325 989 404 -32 -625 0
-491 756 652 -574 -433 -9 0
432 81 -938 -857 779 0
-663 163 -186 -626 0
151 -918 946 416 754 -313 0
59 894 -358 540 -398 0
910 -794 -443 -807 -203 0
-942 -731 -849 284 894 -238 0
404 -244 391 403 846 0
924 -357 41 -798 -825 402 0
-586 -745 -78 -132 765 766 0
952 -754 601 -889 0
-242 442 333 -350 0
-727 278 847 -932 349 0
285 -44 32 435 -726 511 0
647 640 329 -438 0
429 219 48 -227 -951 99 0
-487 -47 -759 -236 0
238 232 -747 74 -264 0
694 394 333 201 -873 0
160 -670 678 533 660 0
-801 838 -958 -368 229 -31 0
-747 -215 773 -474 300 0
-652 -343 -36 719 0
-473 972 -538 -323 0
-213 336 -468 834 -209 275 0
-13 474 507 909 0
161 -137 123 691 -260 -433 0
541 851 828 -963 -191 112 0
-912 -86 -125 -939 0
-774 -633 -475 -756 0
-13 -472 346 -302 -64 -796 0
-724 -895 964 -660 -902 0
-854 94 301 -408 0
-628 -376 304 211 0
846 -849 -70 -256 152 -631 0
539 -474 156 914 0
-900 156 -219 -341 -781 0
109 59 -564 -770 0
-268 -570 360 -755 0
886 935 943 -658 433 0
753 -93 -51 -151 -14 0
-521 -570 86 696 0
-676 -795 278 848 0
721 -470 -428 849 -386 -528 0
-69 -717 -209 -418 0
686 292 608 -403 -443 0
-172 -149 -828 979 -670 810 0
835 438 -973 -698 -695 460 0
894 646 88 744 -831 552 0
-548 352 809 -720 -67 -683 0
468 -3 242 842 95 0
406 477 -305 -998 192 -257 0
684 -658 563 -428 -788 0
442 -897 -172 -480 0
399 -800 151 -910 0
-523 361 -851 -411 0
-528 955 731 -455 0
749 -836 -849 -482 541 0
-469 13 -249 460 -525 783 0
-928 -966 320 -488 0
-500 -609 102 142 405 0
-220 -885 773 -460 -98 0
21 504 682 49 285 0
490 612 680 -32 -547 296 0
-21 -109 -56 -890 504 0
-947 738 590 83 -804 -647 0
866 -824 657 955 805 0
-375 352 49 -564 0
784 -198 66 -859 -60 0
891 -45 142 -697 0
428 -119 939 -269 983 0
-229 -272 130 -916 336 0
36 -843 265 770 870 0
710 176 890 -999 0
-157 -1000 979 849 406 587 0
-656 -274 -77 64 27 160 0
-429 -949 -311 725 0
446 -476 -221 -701 -98 202 0
569 -739 628 650 -817 702 0
846 -35 -923 -81 0
-496 -862 930 566 733 -860 0
-669 -44 411 -547 -205 0
292 -344 -238 -501 0
227 494 -909 -325 0
464 237 -358 191 910 -494 0
945 -994 417 -992 0
71 -741 -948 -512 89 0
-602 -500 664 747 813 -598 0
-481 -649 -303 423 0
818 121 936 82 -117 0
-987 964 -603 -19 0
692 269 -96 110 324 756 0
-866 4 -589 -830 -378 0
-558 -211 669 617 -709 -666 0
986 351 -112 -235 663 0
475 -33 262 -749 0
-693 135 -645 467 210 203 0
929 536 937 -444 0
-677 947 966 -177 -692 0
-289 428 -336 811 0
368 665 -678 -635 0
-437 -101 -78 -184 0
-384 729 21 -176 -709 0
579 -955 412 355 -444 0
382 598 -428 180 0
18 361 775 -52 -773 0
90 -480 504 -573 0
-629 -25 -304 -141 0
184 -729 502 -487 -310 638 0
-687 361 -379 688 204 0
596 -213 -936 -978 0
368 -644 22 580 0
685 699 430 -584 0
-98 -353 746 172 -504 0
699 369 -576 420 0
633 239 -723 251 219 -329 0
746 426 -664 957 0
990 -458 -357 447 338 0
-516 509 849 478 814 0
-852 482 204 -961 0
350 -778 14 968 -543 -973 0
146 -41 209 -457 0
473 552 -437 -44 -936 0
505 932 -937 -986 0
-309 144 642 -301 -523 464 0
-123 945 409 -265 -914 321 0
-71 27 918 372 -230 0
588 -873 -32 -658 0
995 -330 -246 818 0
945 -904 -213 86 0
-584 -940 185 699 553 0
-708 453 64 620 -344 0
-432 990 829 344 -822 -79 0
93 -330 779 -929 722 -210 0
-193 721 279 334 157 0
-71 799 -572 618 660 214 0
-609 533 -680 -580 -419 0
-479 673 -901 247 -470 907 0
806 -598 -861 190 656 0
829 -459 -250 -539 -140 -157 0
574 400 951 848 -808 0
-199 -878 -418 -180 885 -853 0
766 690 -120 -935 -640 -581 0
428 -960 375 745 450 0
-387 645 932 -843 -80 -566 0
29 -267 599 -886 684 626 0
-623 -590 830 502 25 0
407 -908 907 164 0
588 179 -977 -8 0
954 -101 -999 922 0
-9 -750 -135 923 931 0
-766 -982 -817 366 -606 -970 0
-284 -180 -683 626 228 0
-786 837 969 -687 -703 0
-553 926 -298 -404 589 917 0
-991 -758 355 338 -438 0
796 -741 104 753 779 -570 0
-307 -648 -522 -216 0
467 -111 -919 677 -296 -544 0
-463 438 -387 990 -191 926 0
-998 -535 -542 -942 -475 0
-18 821 -923 -332 813 0
7 -450 -945 952 889 481 0
-984 951 272 55 0
9 311 -722 345 0
-613 -776 408 958 -869 189 0
-359 -358 -229 -489 0
-998 -611 -760 324 -462 716 0
-488 -534 -393 -175 -817 0
839 -879 751 916 748 0
-923 801 -464 583 0
-449 326 717 -904 242 0
-180 108 328 -886 249 0
-610 -712 -415 -308 0
110 41 -914 554 -183 666 0
-902 140 -784 -846 592 -451 0
986 825 164 90 0
883 -147 -201 -617 0
-743 607 -181 464 0
-720 -968 391 796 0
-292 708 138 779 0
-114 -871 -288 -201 572 -633 0
982 -489 4 165 0
899 118 360 464 -281 788 0
-880 865 62 -838 530 69 0
310 -543 -949 -181 0
923 -16 -142 385 -207 202 0
-553 -853 -871 211 -84 0
-970 620 758 449 -972 0
543 766 441 479 260 0
626 14 953 -813 300 -592 0
-459 468 -986 -303 108 0
-680 419 975 -146 171 0
-301 -912 -614 -945 -670 808 0
373 -85 248 72 -993 0
438 600 732 498 -652 970 0
397 151 -794 -741 -552 -409 0
-952 -901 -264 589 484 -871 0
409 -904 -401 14 -752 0
876 241 536 -229 0
-127 -722 -324 -133 350 0
920 -129 -230 -573 -152 -530 0
596 -193 182 265 0
-750 622 848 124 0
-949 269 -401 -768 0
-837 430 -313 -789 155 0
-535 393 -975 -8 -716 -880 0
-502 -214 537 -442 -68 0
102 352 136 -644 861 164 0
992 -629 -829 -817 77 0
769 277 -741 -896 427 -947 0
-184 65 -717 -129 -465 0
327 -266 49 -762 -896 -795 0
368 -375 -392 16 -278 0
-569 444 -302 875 -105 0
957 237 -321 -131 -426 0
830 493 -846 -414 873 108 0
487 -152 106 322 0
229 -474 -679 -957 -617 0
-715 -41 -413 623 0
127 -914 989 -110 332 0
-492 811 -993 906 128 0
-901 -141 -355 160 -375 0
-769 565 -112 334 0
-125 44 -168 -924 -444 211 0
40 -931 -594 -90 0
70 873 113 -278 0
-233 816 61 -850 718 0
867 336 703 -192 396 -607 0
-74 273 167 -121 -173 0
652 -418 170 -346 -462 0
588 -844 -863 -133 974 347 0
-185 221 655 865 -797 0
-62 184 661 -329 0
724 -837 -717 -191 0
-717 675 -992 -297 0
605 -156 -147 732 0
561 257 57 786 0
110 -248 -779 -742 0
247 -805 681 653 211 0
-733 -376 -331 -919 0
-920 -353 -941 78 248 -293 0
-280 460 -764 -787 0
-31 -33 328 -526 0
463 832 -944 -444 692 0
-195 -526 -953 -116 749 0
-410 -229 618 916 997 0
-645 515 -40 145 263 0
186 336 -440 -55 799 0
673 -279 638 64 -185 0
-236 438 954 362 -392 0
966 277 859 -979 0
-562 -579 -532 -904 776 0
-925 726 670 223 -94 0
-411 423 -951 -64 142 0
795 946 -712 471 0
783 -449 -524 -431 0
954 661 924 -851 -215 0
29 -730 -445 -986 -543 -523 0
735 -478 17 -155 -361 0
500 75 223 -568 754 390 0
558 -36 -338 -820 0
294 411 956 886 -826 -146 0
-155 -878 -465 -487 0
-966 -889 -705 -83 144 466 0
149 -926 -761 -272 721 -129 0
-44 203 -330 -217 209 28 0
-411 -673 -755 -989 597 -319 0
-578 974 -791 28 -215 305 0
-140 721 -676 -740 593 -693 0
578 726 579 828 228 563 0
51 991 -38 771 0
930 807 425 301 0
-576 -578 -43 -517 -144 172 0
-655 -142 205 281 504 -438 0
73 751 -315 -837 -211 0
-91 -181 836 -746 897 0
612 120 -116 572 513 -603 0
805 273 -218 256 0
46 55 -324 -719 0
-231 -473 -109 689 0
113 653 407 211 -921 0
245 -602 -235 -268 -430 0
803 -277 449 -890 -313 -163 0
896 -285 773 286 0
-467 -847 665 -24 0
-407 -208 -640 -32 -707 0
605 831 -132 -925 0
-212 64 650 -646 -943 -965 0
-739 -901 -76 22 0
-66 324 557 834 0
-741 -794 48 584 0
188 388 -337 367 0
923 310 999 359 -833 0
104 608 -622 -882 -720 -656 0
162 -757 -719 -521 416 -560 0
-929 452 -669 -356 216 -612 0
-402 399 -864 -554 0
607 -598 397 -613 -180 0
282 214 -276 -867 -89 95 0
-201 230 -200 -878 -430 -670 0
-500 75 -147 231 0
-985 -801 466 793 45 0
710 -702 959 -493 -847 -873 0
-860 -272 113 -546 0
-25 -799 63 -883 -9 844 0
392 -407 -363 -852 0
-170 -501 -574 930 213 34 0
-440 -684 110 648 905 237 0
-656 181 -796 -461 -9 0
127 -271 -636 -210 -719 50 0
-161 654 653 680 277 0
-272 -268 -862 -190 606 0
-555 950 -436 806 304 -721 0
149 -95 907 855 335 0
105 45 896 155 14 -349 0
450 -284 281 -303 -464 0
179 891 -898 608 -157 89 0
-948 -200 -273 353 0
893 52 603 -772 0
450 -668 -675 -574 -511 466 0
-959 889 -750 -98 -897 -626 0
80 -422 430 -7 0
-624 -704 895 -333 208 0
490 714 438 -723 0
-489 -370 -731 -116 -371 0
235 357 849 31 0
226 509 -246 -960 0
-910 -560 203 985 621 0
437 -273 691 -860 -460 635 0
67 -399 965 704 998 0
-680 -506 911 273 -437 707 0
-223 247 -921 394 -621 968 0
-716 962 947 652 -848 0
-779 511 187 230 383 980 0
173 -947 314 -428 116 0
332 489 -437 182 0
-906 -494 204 407 0
-772 997 636 763 -2 -288 0
728 -976 874 15 904 510 0
-657 -426 582 232 56 0
622 -703 398 -296 -80 0
-815 -626 -331 -169 -429 0
-359 173 -901 -302 0
485 -18 15 638 0
980 991 775 -722 995 56 0
-561 -1 -925 399 -993 0
787 106 597 696 0
917 -799 -644 -702 980 987 0
-243 330 706 99 306 -313 0
-822 693 149 -269 399 -460 0
-543 450 444 -479 343 0
-438 850 820 -506 -876 0
-697 321 -28 -29 0
-311 47 569 -456 -437 0
988 -761 -146 672 487 819 0
232 430 -414 -354 111 -578 0
714 96 893 445 522 -274 0
245 919 111 870 408 -513 0
242 751 -590 -176 0
-40 334 141 -869 -321 0
-135 703 881 103 -62 0
732 -507 -579 -577 -557 -645 0
16 780 234 48 992 -531 0
-298 362 -366 26 331 0
-757 79 207 835 -834 -196 0
11 530 222 52 122 -753 0
629 -911 162 -605 887 0
841 -40 144 -768 862 0
568 -427 710 729 0
520 -518 374 982 0
54 28 -657 -929 149 0
547 -321 992 762 0
-71 -22 -769 286 0
-567 -611 -300 -193 0
-994 -952 -912 -140 0
945 107 558 -122 0
874 661 -268 -829 777 -810 0
150 230 626 523 28 -144 0
-400 -526 -770 960 0
-210 -416 -191 -343 -426 -436 0
-97 177 840 -737 741 0
947 886 888 636 0
-368 81 989 154 233 0
191 -420 -164 901 -396 -387 0
1000 -560 848 -978 314 0
105 -642 531 952 0
-277 390 -670 192 868 0
80 85 -98 -527 830 0
-571 -678 899 -170 0
-233 -800 -668 -194 -806 178 0
-25 -440 295 -533 -75 585 0
329 639 -574 -847 -933 0
-822 -710 -244 -91 -749 469 0
-913 478 -522 496 -732 -196 0
488 569 -787 -329 -365 893 0
-797 -187 932 -752 998 0
368 997 585 -108 0
-988 696 987 -980 -97 0
502 703 -862 -280 -343 385 0
268 839 458 -672 91 0
71 -635 -987 -2 -946 0
407 72 -165 604 -564 -793 0
787 233 641 -335 0
-774 495 -467 -103 0
231 992 -941 87 0
-344 -800 -10 979 -505 0
484 -716 268 418 -74 0
-725 780 -544 -429 0
924 -327 -419 285 915 0
-290 328 -208 423 0
971 456 -2 -852 372 0
-251 690 -775 -750 0
88 -695 978 -594 0
-110 -52 -117 -671 757 623 0
81 -810 254 831 550 0
557 -507 47 126 442 -943 0
-823 461 -840 109 -562 -611 0
882 436 58 568 0
748 -513 486 733 0
-385 194 402 440 -916 -343 0
-780 534 -725 -464 234 -25 0
-158 -87 -489 -787 -450 838 0
592 876 -581 149 0
-590 -205 967 -908 -992 -849 0
471 -237 499 574 735 -292 0
485 251 120 912 0
985 620 442 654 -405 144 0
-260 524 -926 266 0
-475 256 435 203 -866 -871 0
260 -495 318 300 0
-80 489 319 371 0
-125 394 -944 -842 -177 0
461 -902 -756 -655 0
610 85 -266 -433 0
-286 756 -881 68 0
785 -464 -560 915 394 0
495 -642 789 -559 12 35 0
254 -658 655 404 -28 372 0
186 -771 -673 615 0
889 -3 -42 -57 0
-521 325 -276 85 510 0
21 387 -449 -334 0
-820 -119 -645 -314 -282 0
132 -274 -686 995 875 -149 0
258 678 3 -2 0
-922 -86 -733 -810 0
-574 -887 544 -592 960 276 0
519 -640 435 -609 844 439 0
-859 243 -319 884 -380 0
-82 -313 -227 -646 -848 0
509 -304 326 904 -741 0
-134 -826 703 -595 -598 -292 0
-546 3 -357 -749 241 915 0
-528 -821 -276 -424 -393 0
-810 -713 313 871 -202 770 0
-534 133 139 -206 0
753 -364 499 -966 0
90 890 -732 103 -576 698 0
-449 -223 797 556 665 805 0
580 378 871 789 -692 -703 0
-18 255 -359 643 -706 0
261 -76 -142 268 0
-610 -59 991 -206 0
-694 -986 320 -289 -122 0
-625 -733 716 -972 -668 0
603 721 642 451 585 0
994 -847 332 -228 -30 0
848 -199 704 286 0
993 393 231 -655 0
-420 -174 651 -318 319 0
576 -820 27 20 0
43 977 156 -567 -239 -63 0
728 -456 478 -440 -712 0
-884 -283 -387 88 580 162 0
-580 73 -928 481 -182 0
432 -225 52 -986 -15 0
-250 342 -566 -490 335 0
-534 571 -226 -756 0
-368 389 234 515 568 0
455 102 454 509 643 652 0
254 147 -810 460 -918 0
886 -220 -38 -312 354 548 0
-755 570 929 -632 -505 0
896 -458 -748 673 964 0
946 747 127 -422 202 -111 0
-48 590 701 771 866 0
-385 -929 661 -253 773 -731 0
-746 -73 -269 -507 74 0
-295 506 238 -549 13 987 0
990 978 -814 -912 -263 -106 0
-576 -171 473 810 -850 0
166 -810 -569 -778 230 0
-938 -848 8 -104 -396 0
-826 877 -298 -946 239 0
475 983 688 303 219 -133 0
-736 -484 530 -153 687 224 0
6 -29 -486 634 357 0
-604 -852 -43 -601 -456 94 0
-880 -965 -112 -681 -784 -878 0
950 -31 -60 -23 -888 -742 0
857 45 181 -961 -544 -380 0
-548 -526 618 125 -247 714 0
129 430 -301 489 771 0
16 -412 -900 -440 105 308 0
930 -995 -609 -100 590 681 0
-511 38 667 -601 0
263 623 119 -983 215 924 0
212 2 313 -457 0
-116 -625 555 769 0
-516 -960 -797 199 0
-582 55 -910 -640 -597 -916 0
717 -695 509 321 -861 225 0
-748 -831 314 -991 0
975 208 -298 673 -838 0
529 532 -923 -780 0
-413 710 864 -258 -627 0
860 366 -684 734 0
671 -470 -884 368 -205 0
-248 303 129 -866 0
481 -112 -749 -934 0
-601 -297 680 936 211 -572 0
-527 372 -962 -463 847 744 0
318 -631 -495 341 -285 137 0
437 719 -758 -959 423 -516 0
-931 680 -773 -637 -754 0
271 116 317 972 111 651 0
-12 894 -209 864 0
802 661 -726 -922 -959 0
-381 -875 -601 -442 -678 832 0
761 206 324 -479 -366 0
-749 -266 186 768 0
349 710 -934 -787 0
-734 630 -777 210 -567 0
809 -676 -665 753 0
560 182 827 -450 0
366 -709 998 -457 0
-936 628 659 280 -995 0
24 45 -884 430 -954 0
-374 595 989 502 -83 -365 0
-126 569 343 -52 -792 119 0
2 485 -912 -827 -337 567 0
262 -691 645 706 179 0
-829 -366 -877 -376 -492 -596 0
369 203 -523 513 -844 0
987 -766 -788 754 0
-531 414 -566 -790 0
774 611 425 -239 -523 0
192 -716 437 -490 0
366 -612 -45 -898 795 -861 0
783 839 -147 569 -520 0
-620 -659 -131 -320 -858 220 0
-138 -697 -53 -953 -1000 0
742 -549 230 806 0
-588 -684 -603 282 0
-831 -766 -395 619 -490 -503 0
770 909 875 49 0
579 -95 -895 221 0
-861 560 752 -444 0
-568 -909 -97 -711 -793 362 0
487 -849 -491 -98 -106 0
-135 120 925 -970 0
907 398 -409 -117 -935 0
304 -28 476 -341 -720 -914 0
3 638 -451 -853 -693 0
731 -935 -528 507 -124 0
32 853 641 320 -242 0
-549 69 199 -226 728 0
-512 608 169 -746 -589 0
567 91 -793 448 0
-930 -102 887 -248 0
389 -131 364 605 -703 -84 0
-100 -788 116 -579 161 -293 0
-465 -130 -32 802 536 0
550 271 661 888 27 267 0
-419 200 657 339 1 -627 0
899 -606 431 -512 -494 -641 0
-824 595 -754 -814 -411 0
-532 -602 -936 -629 -957 -337 0
-201 65 -419 -685 139 978 0
538 957 762 -666 0
-725 -920 739 720 260 -331 0
180 -595 703 -669 38 65 0
-941 715 448 -619 -487 0
-857 374 -58 404 357 470 0
97 715 143 928 0
-387 -591 -628 875 -659 -172 0
354 861 -597 -99 0
93 702 -473 903 136 0
995 -838 909 645 316 0
-963 746 959 721 925 -854 0
879 -47 -935 -354 856 -475 0
-628 303 -122 73 768 0
-7 -713 848 892 -109 0
-631 -537 279 -638 880 -56 0
532 29 -200 -718 0
-290 713 524 -769 -737 0
226 -844 -90 138 -597 0
587 -6 345 436 280 -356 0
-236 -947 -818 151 -348 -409 0
-696 -234 496 -248 0
-704 823 -991 634 -264 0
340 -84 383 -252 -941 945 0
-451 -176 -791 611 584 0
205 -983 -956 239 392 817 0
-962 574 -785 -409 0
-901 -981 -774 -149 -638 0
975 -569 -754 -977 0
-499 -808 -391 -102 -126 325 0
-830 492 -1000 446 -34 0
904 911 -701 -307 0
495 601 763 233 -125 0
-729 474 5 -516 -101 0
182 675 27 685 445 -933 0
-917 -168 250 853 -365 7 0
-690 879 -175 -892 -735 202 0
28 119 -426 -243 -693 -279 0
-81 40 -713 616 -938 0
-783 940 343 668 -2 0
663 767 365 -401 0
-450 -907 -80 -2 205 0
-894 625 34 -227 -945 0
401 -850 772 356 0
193 141 -66 -578 -2 0
593 -236 958 811 0
-347 -194 -850 690 -390 433 0
-833 -360 -691 100 0
-346 -572 -616 757 406 0
-287 675 344 -360 -10 0
899 -270 617 746 -894 0
843 -176 -674 582 0
-762 -486 522 -929 528 0
-990 854 -51 333 0
788 649 -228 599 0
-679 -488 -483 194 -27 -11 0
-204 771 -1000 -949 -817 243 0
-114 -127 -588 -86 -243 0
354 -301 -167 -50 891 0
-330 329 -972 -823 929 -244 0
-213 515 -98 -4 108 0
-353 968 -829 838 836 -669 0
-490 62 778 -341 0
-10 -238 -49 545 -35 604 0
767 -233 855 20 -335 726 0
502 -427 921 -561 -799 0
82 602 -667 -670 156 -134 0
301 442 -385 796 -587 -27 0
264 -737 740 742 79 -213 0
-463 -748 -613 756 0
74 -519 381 922 -499 0
-727 -972 -94 -276 -103 905 0
-66 236 -109 -232 -688 125 0
440 243 470 415 0
358 825 16 -165 0
166 -290 297 805 0
-332 -145 853 -852 0
877 670 -607 392 0
-351 -602 -319 -458 613 0
748 -265 597 98 -422 -110 0
698 76 718 -899 0
-931 -635 -153 456 0
308 24 -872 833 132 0
353 749 581 547 -284 -977 0
943 -814 189 -67 203 0
803 -259 -148 301 -855 242 0
872 61 156 304 -310 -888 0
710 649 628 405 -807 0
925 675 -74 284 -906 0
-710 184 -51 622 -223 444 0
-671 -669 -662 -767 470 0
-400 -316 591 226 90 252 0
-434 -889 214 231 -64 -770 0
-829 877 -423 72 0
-217 715 905 -519 -216 0
643 -946 -872 -797 829 0
-899 91 -947 911 -425 -684 0
-584 -228 -442 946 -324 0
939 -200 -814 -350 0
-7 252 957 -248 876 0
-448 394 -381 152 0
-783 595 179 -395 -790 82 0
-189 -528 -306 -192 -46 675 0
346 862 -945 705 178 -187 0
84 514 288 859 0
-482 -148 779 321 -104 162 0
790 999 -409 114 -208 741 0
862 496 -207 -389 -840 283 0
-487 -358 199 -70 -642 -191 0
95 -507 -176 -581 519 0
243 215 -373 -335 955 -157 0
-130 465 150 -50 -20 937 0
78 -798 923 -870 782 682 0
-111 829 897 61 0
-887 -797 584 88 0
-323 -7 -351 759 0
-5 -329 -217 -177 -687 -974 0
-567 -845 -301 -10 0
-676 -742 -237 -339 843 354 0
-324 275 -652 -151 0
929 -18 766 727 0
910 -946 921 247 -860 0
178 -534 950 -992 0
597 -149 -139 -44 0
-704 -873 -44 -958 0
616 397 236 511 856 0
-822 -135 675 509 625 0
761 -743 -151 -215 -640 0
318 -696 46 445 0
-837 156 -565 632 -68 367 0
-243 596 362 925 0
50 751 -2 -756 79 0
225 848 -650 866 85 -908 0
227 726 -834 170 646 0
371 602 361 -335 0
745 457 -704 -588 241 763 0
620 589 3 -612 0
984 -830 333 95 0
165 450 -935 342 370 852 0
-477 -513 -845 -731 0
353 -242 -42 -872 0
810 -935 202 -537 765 0
-836 111 102 805 370 0
825 145 -244 204 0
-156 748 736 -569 0
229 932 625 937 338 0
92 -32 192 -267 0
-874 -894 -318 -983 646 -72 0
314 805 -48 124 -110 0
700 -597 347 115 810 0
585 818 -985 -53 -980 97 0
510 -761 421 993 -457 0
-887 -351 527 870 378 63 0
276 -7 544 442 -455 0
905 49 37 459 829 -454 0
-507 -172 790 -344 233 -697 0
-333 -924 443 70 0
-204 971 -592 -460 -537 0
-483 -887 -284 730 0
-39 -969 48 402 -26 0
-438 802 239 848 0
-528 470 322 808 0
454 -243 -163 -70 -597 -508 0
472 -185 385 -784 72 341 0
-801 821 712 708 -467 605 0
314 688 -979 529 68 0
602 -255 -723 806 0
-464 -379 -134 699 0
204 313 -444 639 0
-122 878 298 281 0
660 289 211 -465 143 -971 0
394 63 39 890 0
297 -445 -803 444 247 -750 0
485 -379 898 547 -550 -60 0
296 764 -486 947 846 0
-979 884 -853 -148 0
699 354 -933 556 0
-963 693 -456 -608 0
950 657 121 -312 0
-25 -380 566 883 0
975 990 -795 385 0
-583 697 690 420 0
8 112 -171 790 -390 0
-445 846 -240 -565 -393 0
950 -96 -513 104 -255 0
-101 -640 635 442 507 0
882 482 563 695 159 -451 0
-514 590 -310 -550 -661 715 0
626 952 -544 371 0
-700 973 860 742 105 -574 0
-119 872 -990 -620 -908 63 0
317 180 665 97 0
818 908 -124 -377 728 0
186 -634 991 136 -285 96 0
-243 535 196 380 0
669 -685 159 -472 -697 0
-691 444 244 -907 0
366 174 -106 -781 482 753 0
-135 -77 -994 201 0
-359 -230 -697 -266 575 64 0
731 507 396 -810 0
591 667 411 -922 850 0
924 639 617 292 0
-178 -944 -929 800 0
-397 -127 829 -741 -193 -658 0
475 814 665 -409 6 0
499 -329 -325 -232 -374 0
755 901 -420 695 -710 0
940 -976 295 405 0
-256 724 726 214 363 -911 0
788 856 217 -532 -986 884 0
827 186 -964 332 389 706 0
513 -844 751 128 0
606 597 303 -111 749 0
628 341 601 820 -415 0
-703 605 228 -501 0
571 317 -469 320 -265 0
565 533 -38 -954 -342 980 0
-712 -386 -789 -92 -232 0
724 -44 196 -759 -836 0
209 -337 -320 -144 309 0
-584 -187 -671 -820 -699 -324 0
-856 -569 183 515 0
-437 -380 -305 673 945 0
485 -185 -743 -5 0
428 939 152 479 -360 -739 0
-215 -109 243 750 0
102 -860 -86 384 -730 -395 0
-123 576 176 -133 -976 -42 0
-609 -76 971 937 0
-200 296 52 681 -404 0
53 -3 979 -474 85 329 0
278 432 663 126 -746 -811 0
-310 925 -899 -943 -866 0
519 75 -956 301 0
-918 660 -295 -639 16 0
-655 322 689 -620 0
-601 313 -36 -342 484 994 0
-372 593 660 -32 0
-918 -87 301 -546 0
191 -388 802 -504 -822 0
540 -639 851 164 -88 0
533 67 551 213 0
950 -396 223 -802 0
267 -178 810 -981 -84 39 0
-156 -495 -256 -736 0
-543 -244 825 -155 19 0
884 -418 -329 -148 437 0
981 -564 -945 -100 -632 0
899 107 -916 -963 -655 0
-400 978 59 211 863 0
-59 287 -499 445 683 829 0
-824 -998 131 997 0
-80 -269 -55 304 -4 218 0
12 -915 458 499 1000 0
-605 351 -767 111 -989 793 0
345 718 -43 -15 -257 0
-767 -168 -554 127 -387 0
110 282 -646 -694 -812 0
-512 787 24 -150 0
-91 -914 611 -786 347 0
785 -996 70 -712 -239 -847 0
-660 208 890 429 0
831 128 930 -510 -978 -431 0
-152 371 710 -746 4 96 0
-739 27 -350 -553 172 0
108 -436 440 169 561 0
-779 717 281 752 0
-425 597 -265 643 679 -829 0
-93 -113 -556 -53 0
-192 -877 -412 702 971 381 0
301 739 712 960 689 0
-184 -443 -393 876 -930 -473 0
-136 -40 -405 -47 0
-923 436 162 619 0
173 821 72 -135 -18 0
-900 -689 -498 -971 0
203 -130 -283 -63 0
140 994 669 872 797 -275 0
-456 116 81 -304 -301 -604 0
-918 -20 -760 -572 0
-275 712 682 -137 -687 0
65 -131 -692 -9 -445 -724 0
-882 14 -432 -961 0
129 778 215 775 -951 0
839 -193 178 17 514 -977 0
467 -772 -384 -36 -147 0
-674 -112 -959 -757 849 -980 0
889 -115 -206 -633 542 -960 0
450 -408 -797 867 83 0
-443 -215 647 961 -25 -89 0
-455 -350 -823 254 48 -414 0
-233 -996 143 -332 0
-298 988 -761 635 396 0
-148 -459 82 -392 0
-59 -301 917 461 -990 0
419 630 134 418 -387 0
-688 -888 612 576 668 0
94 -129 -390 -251 -534 530 0
-315 275 -372 135 0
-92 984 -332 -392 924 539 0
-156 -465 882 -270 0
-697 904 -357 193 -982 -816 0
553 -809 734 -270 382 120 0
-410 718 -346 232 555 0
471 104 679 502 280 0
-426 -806 -136 -58 497 -145 0
91 848 -990 -594 472 0
816 -642 -840 743 0
930 232 -646 -177 200 0
454 -558 -328 -388 -969 0
899 -784 996 -73 986 911 0
616 -546 529 -540 -970 0
-1000 -969 334 -660 865 149 0
490 -693 -327 -472 -53 -162 0
-316 -234 -384 -371 0
846 179 656 806 -971 -786 0
496 746 967 366 212 -213 0
-828 -566 596 567 -283 0
551 -819 618 219 376 0
-469 -134 477 756 0
188 900 -450 92 -299 0
538 609 -834 500 -375 0
861 181 412 997 -619 -295 0
19 249 -374 -51 479 -393 0
-969 563 -125 417 365 0
-493 262 140 123 -564 433 0
459 645 482 865 0
393 -880 69 -979 0
-796 -733 162 -825 0
294 147 -514 76 969 0
-347 772 35 -453 -510 -785 0
-20 -961 -23 -243 778 0
462 721 -946 -291 273 0
139 856 268 449 303 0
957 -197 -314 982 -804 -953 0
-254 438 -13 564 668 0
-197 410 260 -239 0
55 -559 376 529 0
-648 379 777 420 415 -421 0
913 509 964 373 918 0
916 555 930 -235 987 0
362 -501 -720 -412 73 627 0
895 -648 -50 553 -717 0
-256 567 637 -743 0
373 -361 -276 -598 -420 410 0
-258 -358 764 -295 629 -939 0
209 -63 204 -195 0
773 -273 -255 -350 839 0
962 478 134 425 822 0
-858 265 -81 18 -394 0
466 393 513 -545 -116 0
-171 -956 -266 886 0
-726 -537 -860 -816 -893 0
877 396 59 -634 -873 -619 0
397 535 -993 -980 773 0
95 400 -346 694 247 141 0
424 70 -966 -474 495 0
406 60 535 773 0
647 -205 169 246 204 362 0
949 -647 249 610 0
-142 -996 -47 882 662 0
471 896 -54 305 0
-552 263 286 589 0
-271 -299 887 -53 0
806 -980 672 340 -75 0
-471 414 297 -232 0
-218 -15 -644 -869 -533 0
898 545 328 344 431 616 0
462 738 952 373 362 363 0
-482 -310 -187 374 -961 0
595 848 521 431 484 -7 0
535 225 305 612 -57 198 0
-477 -846 -380 -139 -315 -378 0
-833 -691 -867 -336 -56 0
527 -190 -673 556 0
-555 -240 51 644 0
286 -770 675 -333 107 409 0
124 421 500 -597 522 0
791 916 970 -236 -367 0
-514 -358 -957 274 0
-551 -522 -44 675 685 0
974 226 187 438 -924 0
797 -980 -259 810 0
104 703 715 408 239 0
-533 443 177 -807 904 -331 0
857 -995 57 97 239 0
425 13 789 568 -281 -573 0
-825 850 -650 601 -321 61 0
82 -950 -985 -894 -842 415 0
992 -180 -943 201 0
-118 58 154 291 0
255 -243 925 -225 856 -61 0
481 238 -868 934 -972 0
689 312 420 904 -621 0
-112 -841 452 -451 0
-124 434 -172 -984 -372 133 0
-407 -174 992 -3 85 -959 0
-503 456 -767 -771 0
-578 -627 48 712 -128 0
781 -283 -12 -317 -743 -519 0
-152 -410 -54 -732 -318 252 0
-78 248 -551 -339 -706 343 0
-150 978 929 -781 0
-304 183 661 580 0
-559 -238 -740 -20 719 0
-628 -392 925 -507 0
-400 -375 773 -780 0
371 -332 842 979 -50 743 0
-554 575 -1 751 -529 229 0
853 -117 -439 866 0
778 897 989 -463 -457 976 0
260 792 605 662 0
352 711 260 126 0
-210 935 -162 -112 -816 0
-651 -550 -955 -395 -750 -500 0
250 -458 -712 620 0
-14 -956 882 -419 -39 -331 0
868 268 24 -474 -176 -908 0
999 -740 984 -367 0
-750 -737 -405 -280 0
-963 -552 54 213 694 0
701 84 569 595 0
-303 -979 -185 260 389 0
736 552 161 625 187 -341 0
61 229 -100 -915 -941 0
-986 38 -586 683 -699 560 0
-354 -239 -423 -71 975 -311 0
958 575 -746 -349 -296 0
343 443 -204 11 645 123 0
-880 -738 -730 325 -31 0
-705 -851 -145 608 -334 0
-498 244 253 686 -891 -665 0
433 -597 100 522 0
-833 -361 -103 -664 96 0
-912 -320 391 -852 -272 0
486 -869 96 -210 0
629 552 25 11 467 0
-370 -82 590 -105 0
-944 949 218 -914 -44 569 0
378 -144 557 394 0
-798 183 -267 -801 552 -416 0
617 745 143 -720 457 664 0
642 -254 -306 429 0
641 990 -383 121 0
-994 -930 472 -676 0
728 347 994 -911 -355 0
631 487 -751 928 0
408 264 180 819 -217 695 0
-350 822 -918 -65 847 -367 0
275 -15 -835 803 675 0
452 877 970 869 -892 -250 0
713 944 608 -460 -138 0
-259 -705 -737 -811 0
150 159 -449 -568 0
-96 648 -610 971 -838 0
-534 -201 -686 984 906 0
500 660 -69 227 0
302 -428 327 -322 -642 0
-730 532 431 -688 -981 0
-227 -19 171 341 0
392 848 998 -546 156 0
967 331 -107 -541 -597 -955 0
-769 411 -914 626 0
-472 -413 -3 -780 13 -633 0
326 -655 -751 202 909 0
-758 60 -280 269 997 0
591 222 394 312 -983 -58 0
-957 -615 -449 -355 0
-613 -107 625 -993 605 -545 0
52 -246 -170 -892 393 -194 0
-425 -562 960 -549 47 0
-700 -587 -375 -230 848 0
-676 704 536 348 0
-248 -389 371 88 419 259 0
-423 -271 -723 425 0
-816 -67 -694 949 920 0
865 135 748 576 -290 0
-84 -771 22 40 -971 0
-224 -915 -586 28 0
-926 -118 -479 -735 0
705 -549 -485 318 -201 0
-426 -544 -801 914 0
-120 505 312 -533 167 0
416 -920 457 -108 -840 0
-558 -642 242 695 311 0
197 -295 -235 -90 -438 0
-112 -820 639 886 -900 -859 0
886 -977 532 -255 94 481 0
-748 -356 567 416 0
-301 407 -698 1000 0
612 -811 108 -413 -421 0
418 263 -396 405 486 819 0
920 640 -627 886 0
-793 -819 -350 -887 0
-342 -800 460 -806 -268 -652 0
-525 -244 -425 755 0
110 -406 974 616 678 482 0
732 528 67 -641 0
548 -429 358 97 0
576 -674 177 300 242 0
31 -721 310 -36 796 -437 0
27 -185 -797 632 -854 0
446 353 112 134 0
-524 818 -643 -24 325 0
-661 246 969 105 0
-284 618 -584 595 -817 -43 0
79 572 633 -454 -583 0
-993 262 -200 352 785 0
-663 604 612 486 235 -23 0
595 -921 -449 -814 0
824 -116 900 727 0
-876 -203 -831 -865 967 739 0
-756 -54 -670 -936 0
273 700 812 -858 877 -503 0
-70 601 -783 -389 -852 936 0
-1000 481 612 -257 899 671 0
-693 880 -188 21 536 0
-999 990 -577 392 0
-690 188 72 -997 612 -120 0
-313 -406 -679 284 672 0
670 615 826 -107 0
-515 448 -802 -938 -776 -477 0
-681 -71 -705 762 -438 0
-386 141 -329 -401 -770 -936 0
230 -575 533 -813 -210 0
-838 306 568 -939 -981 0
895 -257 -716 305 0
429 -586 295 244 -569 0
-616 -696 -986 787 -122 0
-663 762 858 -704 0
42 -430 846 524 33 0
-639 208 -492 654 0
193 803 -535 425 -415 0
-313 879 -736 947 -70 768 0
680 239 25 -399 0
-866 30 -841 -680 0
-239 -453 330 695 0
-991 -851 -433 -285 901 368 0
-923 -6 898 924 426 -488 0
-535 -193 -503 -491 0
936 -788 -269 -687 966 778 0
-277 487 902 -22 -364 0
-966 -362 2 -926 -349 166 0
468 -287 608 343 941 496 0
480 168 -24 437 0
757 -91 367 508 -305 -29 0
163 402 -293 268 631 -661 0
-96 820 -408 441 -722 7 0
602 838 364 858 0
-13 807 481 -341 0
903 -59 -509 907 0
176 147 264 -180 778 544 0
580 629 -235 -23 85 0
476 -634 535 251 582 -611 0
867 746 -877 -955 -924 0
512 57 -895 91 -765 0
77 33 54 -135 225 0
613 -795 -751 -55 0
-844 928 -815 556 0
-685 -295 283 -540 969 122 0
734 -970 -551 -897 -7 0
566 -700 369 283 0
-92 -698 844 -489 -148 0
558 -972 549 -380 270 0
734 -216 -228 -333 584 0
705 257 -129 -433 -878 -837 0
-162 907 -394 5 984 936 0
-419 -906 -248 963 -601 0
930 47 933 -512 -611 0
276 -45 -598 -13 0
650 -119 152 -1 -968 0
-445 248 -812 -255 59 0
24 -431 -212 -484 983 0
68 -416 436 100 637 0
-785 276 324 -685 -442 0
663 721 -517 -843 747 0
247 449 199 -4 0
339 533 -356 -635 0
-118 156 145 -484 0
-518 -937 -835 -761 -328 0
-755 331 -414 364 287 577 0
746 439 35 166 -213 -995 0
-379 111 -311 53 0
225 -810 -157 -382 924 0
-253 -211 134 812 964 209 0
301 -422 774 798 0
-910 662 116 986 0
128 -761 64 546 527 -238 0
860 -733 -511 791 513 157 0
504 -510 -31 -559 0
-203 -977 -115 299 689 -986 0
-460 -556 366 -893 885 0
-828 -263 683 955 33 0
428 -750 951 -712 0
-709 516 267 235 0
-852 774 -703 249 -255 -555 0
62 -914 1 -256 0
-477 -391 950 -392 0
850 -163 -84 877 648 -294 0
-659 -551 -980 926 593 576 0
46 788 -712 325 -31 0
141 901 -881 -333 0
-946 -174 -444 780 -314 0
421 -653 306 -702 -940 0
-218 119 -517 -700 0
414 -54 -542 -827 -127 -80 0
169 343 -554 -524 0
-458 -461 691 -791 514 -683 0
-450 -529 515 -538 -690 0
-975 -813 -538 -218 965 645 0
-14 -498 -320 24 923 -275 0
-901 407 -805 -497 996 0
910 -135 763 665 -281 446 0
-743 518 816 203 -934 258 0
534 347 -879 -538 -672 623 0
526 959 187 -996 189 0
520 -868 697 346 -728 0
826 -4 381 -54 893 304 0
-770 -652 -201 31 0
413 154 -507 975 -197 0
721 241 740 -291 0
336 255 711 420 -259 -851 0
339 -934 56 -388 -769 -171 0
-695 457 -937 373 -200 -594 0
435 613 -658 -826 0
-663 -77 483 796 -953 -758 0
-486 667 -895 -462 -201 0
-504 -855 842 388 956 0
-83 -804 755 -871 434 0
87 484 -228 317 -689 442 0
-245 -225 730 126 824 0
656 -722 165 372 -901 761 0
-694 663 -854 697 0
911 768 743 188 0
699 -552 -536 862 -154 0
-840 -210 782 -792 697 0
-450 685 -727 -942 306 951 0
931 -857 -86 458 -94 0
-54 367 198 194 0
-399 -489 -953 878 -846 -243 0
-372 451 -246 466 -496 0
-328 899 982 768 0
248 514 -141 772 -786 -529 0
863 -735 -673 -812 0
661 -551 796 441 -12 289 0
512 -419 745 882 379 -580 0
605 860 819 -302 0
-206 -791 172 -585 -341 0
386 -170 34 -925 906 -360 0
-631 -766 954 -693 0
-459 -683 -636 -451 -488 0
-486 972 -456 82 -640 0
-778 688 487 -720 -564 0
911 159 609 -476 -261 -632 0
-581 -796 999 400 0
-9 -72 57 -229 889 0
-192 -157 -774 248 -383 -624 0
800 -301 872 -179 -180 -447 0
258 -969 -966 -783 -835 0
-318 176 -503 799 -549 0
-753 928 690 -154 -847 697 0
-244 -375 -628 -818 -741 102 0
-958 797 -257 593 0
-94 -184 -320 528 0
-869 -590 917 -607 0
-209 340 475 432 917 -746 0
780 58 -413 -11 606 -104 0
823 -576 997 -613 0
-257 945 -303 -224 0
-108 601 627 109 -290 -129 0
720 685 -524 -401 -373 469 0
150 503 733 -948 -225 0
-469 -16 -716 -58 222 166 0
-970 -298 -254 999 0
-697 80 201 718 -418 0
-176 57 879 488 897 -922 0
518 918 -155 578 342 245 0
623 -681 662 -810 -895 456 0
26 -304 778 607 795 -732 0
-832 967 683 754 0
-694 -21 497 -884 0
396 -220 704 403 0
948 -533 45 -369 0
-434 -281 126 -303 0
-691 151 -66 -180 0
951 259 162 901 0
651 758 805 613 264 64 0
-594 454 -260 -291 0
-900 157 -404 -322 86 -719 0
996 -307 -943 -764 573 0
969 607 1 86 345 382 0
28 134 542 -248 0
675 -885 -674 -741 -508 850 0
-414 226 -70 569 -443 -341 0
978 924 656 761 -31 374 0
406 48 -274 -680 210 208 0
-890 -601 -165 -612 439 -922 0
25 460 -636 -193 0
237 -107 190 -198 0
-539 667 -955 119 808 -48 0
198 -968 -805 30 0
-473 141 283 -794 181 0
2 502 474 -754 0
250 -42 169 429 -158 -512 0
-855 973 -449 451 0
-765 275 -437 -349 963 201 0
852 -369 884 200 -262 -251 0
845 -223 650 684 0
-35 493 -874 709 0
341 668 590 258 944 533 0
-853 705 -692 -828 -109 -349 0
833 -240 -934 -122 0
-384 -10 930 -172 690 -865 0
-52 -868 475 -653 -352 707 0
-985 513 -409 -416 -31 280 0
-879 584 -188 185 -734 -871 0
-977 -490 261 245 -539 0
92 -783 568 -50 0
-808 -796 899 -872 -450 -952 0
-480 31 -912 -349 -902 69 0
190 415 462 -969 -497 163 0
567 515 833 393 507 0
383 -250 174 308 0
339 -788 920 -227 -113 -760 0
-237 -667 -190 -680 0
946 -214 508 -434 0
712 -732 -776 425 -169 -457 0
17 47 -193 893 0
-866 -611 254 925 454 -666 0
241 54 895 -227 0
310 -502 -100 -523 -156 -556 0
-14 220 -269 36 -868 713 0
-796 -402 -6 700 -68 -351 0
773 587 -611 158 125 -504 0
482 -583 -67 844 -939 439 0
76 87 422 -816 263 0
277 72 934 841 -165 -41 0
-326 -392 174 -304 694 681 0
58 310 -210 -417 0
-944 906 354 -219 -191 0
-329 460 -652 -954 596 -194 0
607 941 517 -345 0
657 -943 -668 -659 0
-238 -755 240 936 0
-825 -567 -256 178 -997 0
-306 -152 -384 -567 338 0
339 941 50 -60 0
-722 -834 666 -190 760 0
-288 182 607 922 443 -567 0
274 634 -315 -678 677 411 0
325 -65 75 733 449 0
-389 -29 828 870 -799 0
918 -999 -53 -269 454 47 0
-243 -634 433 -109 0
-721 -741 748 -744 856 393 0
84 -357 -373 448 0
-22 210 165 -633 925 0
-442 -9 572 -401 -902 0
-195 -360 954 817 768 0
-365 -912 -162 -27 795 713 0
241 -425 -13 1000 0
-542 -591 516 -829 0
660 -190 -324 -820 -851 -460 0
-324 516 958 -860 0
-633 510 -213 -294 0
-763 767 418 -36 -523 0
377 936 207 359 0
-13 -993 238 922 -859 0
-905 241 -840 -495 -706 459 0
-763 290 883 203 -894 -455 0
974 350 605 235 0
-13 589 -781 -529 267 -604 0
50 535 -540 -429 0
794 -730 -683 917 419 -762 0
-117 -848 -21 -450 -415 0
192 999 -225 -277 0
241 603 501 18 0
575 652 -882 509 0
475 -780 -389 14 0
-493 644 -111 -667 0
-243 -669 353 689 0
212 -397 -373 16 0
618 575 809 -31 -316 70 0
-198 534 154 111 -45 -345 0
542 933 -429 -352 764 -349 0
946 -875 -179 151 -686 0
214 -554 -916 724 -936 0
-825 -385 954 276 -426 -320 0
621 -323 650 -11 -741 0
-386 -418 -847 140 0
69 612 70 206 -876 -785 0
186 -620 -28 619 506 0
766 -98 -527 155 335 -701 0
688 213 -649 -72 0
-955 -761 -112 918 0
-127 -837 989 -769 0
150 790 695 -961 -859 906 0
716 -597 -325 -721 -904 -364 0
116 399 884 -732 0
-846 770 -22 -350 0
-472 -97 699 55 0
96 28 813 911 641 0
389 -836 642 827 -2 0
-309 771 58 625 -663 0
8 343 -91 -682 526 0
-807 719 -524 -690 -163 0
-565 602 -529 823 383 0
-495 395 -947 347 -744 317 0
-981 -723 -123 160 200 0
501 -749 -254 -204 780 0
-311 -638 -289 526 -789 0
-392 -560 -264 955 -529 0
686 -214 551 760 -613 0
-126 -180 -400 -684 608 0
-541 -273 318 102 -844 0
-929 -491 54 -661 -492 -218 0
918 -557 -901 130 872 -266 0
861 567 786 -898 -759 -76 0
79 756 444 704 -307 -426 0
42 645 -384 -74 213 0
726 -275 12 -777 0
-509 -477 437 -456 848 0
997 813 406 -313 156 708 0
330 507 731 931 -735 0
-851 -107 22 408 4 0
-855 256 746 71 -322 0
-421 776 465 -987 881 -86 0
-973 833 -315 -77 60 0
-464 79 -31 -325 -878 0
-224 -604 348 -949 0
797 -964 835 656 -80 0
-961 270 -498 -707 45 0
386 343 -950 804 -971 0
980 -891 -915 571 -637 0
689 833 -824 -864 -146 0
-610 837 -500 189 -309 -371 0
-620 877 8 -553 0
927 -133 -655 -800 375 620 0
933 266 -43 -804 -697 -89 0
254 -234 49 -801 600 0
284 841 494 637 517 0
989 209 580 507 0
429 495 46 854 -362 0
-432 -814 -31 -152 916 0
562 397 -106 116 -816 0
964 -98 -719 -645 0
629 32 -613 -414 0
605 723 -186 492 -662 430 0
-263 433 110 -130 0
707 410 162 -589 505 -206 0
419 645 73 465 0
755 -47 -487 783 304 -245 0
82 -843 308 61 -254 0
-666 -121 450 870 0
712 540 203 984 704 -44 0
-899 -473 872 298 -383 633 0
-134 -109 -522 -387 0
-444 540 -936 948 -553 613 0
-809 -607 -454 747 -527 0
723 290 -427 17 -34 0
421 678 126 -742 -537 -45 0
497 810 -277 61 -416 -371 0
757 -550 -493 -772 0
-604 191 -206 922 0
359 -633 670 343 0
-131 106 -333 571 -959 0
413 118 -557 66 575 -606 0
626 -715 747 884 0
348 -944 -121 -506 0
-440 100 383 -187 484 0
325 -863 621 156 -535 631 0
-135 255 283 399 535 371 0
-840 695 -556 -28 0
-881 -203 36 -794 0
-817 485 755 17 0
-580 301 -641 -629 -27 -690 0
238 895 227 -919 224 616 0
-661 -115 360 494 517 0
210 470 -744 786 -151 -431 0
-370 983 -787 227 -515 -648 0
-258 -161 571 647 711 -837 0
103 -921 -774 493 -96 0
716 -850 756 807 228 0
-924 -173 -404 622 152 0
767 121 526 335 -168 -713 0
438 16 993 -355 0
-23 -415 277 688 -226 0
509 873 -969 270 306 295 0
623 -918 -217 396 -707 -774 0
-867 -972 -454 596 900 0
-969 358 -869 295 0
-962 -713 411 -667 0
-301 807 239 439 -190 0
-695 -261 962 -849 -623 0
305 -145 -341 -978 114 0
-444 781 943 -456 681 0
506 926 476 -791 -614 0
867 -334 365 579 0
-588 331 -850 -867 -379 820 0
710 342 274 -234 809 740 0
387 899 212 855 -210 0
323 75 142 510 -425 904 0
650 -424 -957 498 -559 -765 0
465 -946 -826 -491 -74 -10 0
-97 858 -254 -862 0
380 -243 767 -569 -588 0
-479 -148 836 335 551 0
336 -238 600 -277 -541 356 0
271 255 -547 810 0
748 -508 495 -533 104 0
453 -513 27 -583 248 498 0
-806 936 237 -365 -300 948 0
-332 -651 577 279 817 472 0
285 -264 409 481 865 630 0
14 293 590 611 0
736 885 392 404 0
179 -805 -44 -672 0
-728 852 -160 652 -209 -74 0
224 -167 -34 536 -525 -292 0
-303 551 -459 437 941 0
813 -871 -205 -479 9 425 0
895 950 -288 -572 -18 0
855 801 -872 -461 121 260 0
716 -599 569 -22 -93 647 0
761 954 904 988 924 792 0
889 719 -22 -424 -343 0
-86 353 -56 -336 -548 -205 0
-159 163 -324 227 0
361 239 472 236 -464 0
-370 -851 889 382 0
-584 -322 157 -456 -161 0
586 -692 454 329 -361 0
-628 -843 -420 -915 -154 876 0
-629 851 -879 -270 431 0
-756 265 544 -72 69 -422 0
-811 455 340 -343 443 -850 0
-630 259 503 388 0
-637 691 364 552 883 0
-26 -452 -121 -570 545 0
189 -263 24 -825 746 0
701 -294 861 -413 788 235 0
269 -453 -86 -266 33 0
-604 319 259 511 0
-743 -949 904 181 196 -391 0
-5 564 190 -34 -192 174 0
954 245 64 -404 430 209 0
-370 462 -103 -937 0
-638 -630 829 -542 879 -675 0
779 -413 516 -859 -117 0
-205 865 -570 -34 0
465 82 294 -585 121 -19 0
-328 463 84 -424 0
-515 68 -970 314 0
-839 -829 -213 618 834 -91 0
17 232 364 -296 0
-839 823 -169 -937 623 -726 0
798 -311 115 448 101 210 0
842 -977 656 -632 -651 0
-167 -221 -821 186 41 0
11 -541 -263 425 -125 0
441 -556 80 812 566 977 0
-238 622 392 50 -343 0
116 -313 248 263 -616 0
409 397 610 149 0
77 -512 -4 -244 382 -639 0
275 -967 -568 293 -993 0
93 258 73 338 264 0
540 -50 633 -427 895 0
-707 -526 -727 -425 0
378 985 102 179 0
-945 511 488 -562 0
707 401 819 -375 0
-996 243 -197 252 -396 0
-953 -792 704 911 503 -359 0
-322 387 -663 -521 -675 0
-202 -678 853 -426 312 -639 0
465 -809 -98 828 -529 0
728 -251 248 -538 0
-71 -182 -158 531 574 0
-838 756 205 577 345 0
516 863 164 -782 0
-163 541 -984 -953 976 0
-970 753 257 126 0
-203 127 -467 171 0
143 -361 -782 -712 976 0
145 -134 588 218 -52 0
592 688 -363 420 -423 0
257 -311 186 -320 214 728 0
-575 443 -229 -971 -230 0
970 -295 -803 546 -823 0
-908 -759 -684 -918 664 0
-932 -113 -260 -438 -297 616 0
-926 -350 623 -137 -550 -976 0
379 -955 -616 -868 -161 0
639 -39 693 -172 612 0
-769 732 20 543 -891 0
713 376 -801 984 0
27 -85 -440 -164 961 0
-899 75 -166 -496 -861 0
-442 867 307 -356 -932 892 0
-696 594 794 -291 332 -523 0
949 629 -185 13 988 0
-555 274 698 -185 -165 625 0
325 -523 -456 -86 -962 487 0
741 979 765 107 0
-31 -133 -86 -792 0
500 196 -36 -197 0
-450 -870 895 121 254 803 0
119 -381 448 -118 867 500 0
-190 -954 546 -20 0
-922 -455 926 195 -302 0
-603 -162 946 -689 -780 0
-797 858 138 -373 -215 0
173 300 -588 581 -509 0
423 544 911 -227 -925 0
603 -955 -828 -579 325 72 0
700 524 843 352 0
763 -9 843 598 -201 -799 0
-817 -729 -116 -94 0
-886 -204 -722 53 0
-559 635 -981 571 -290 47 0
580 -340 206 -701 682 0
-182 -639 906 460 0
-814 -63 93 -84 883 892 0
479 850 -483 808 266 0
-23 -172 -835 186 442 0
-609 -396 -277 -635 -863 0
-622 95 -917 -442 0
384 921 -443 -339 0
696 425 -86 -557 439 0
638 905 -671 -733 0
-227 613 -587 -422 438 -158 0
533 -168 -157 -462 0
255 -273 215 -381 0
930 768 933 35 0
28 -319 -518 -678 0
564 -305 169 -194 -350 522 0
-839 788 -618 681 127 0
46 218 -912 625 338 -844 0
684 -744 702 -592 642 0
-792 980 -851 -732 935 0
723 -80 920 446 -604 0
83 241 648 -57 465 0
69 -21 -873 818 -854 0
-651 986 -902 -276 448 -710 0
-172 604 70 -836 -912 219 0
58 -60 980 -931 -688 0
-802 -523 -740 638 -156 413 0
-970 976 491 179 490 753 0
-488 592 843 480 611 84 0
595 -123 -877 44 -369 -207 0
823 -497 829 365 0
-224 416 -253 833 0
374 375 126 -200 977 821 0
258 327 -223 811 0
-965 412 273 925 -723 0
-7 753 8 98 0
860 -352 -154 229 -79 0
953 -384 958 -61 0
-403 -28 548 -294 -792 -600 0
975 -851 867 680 809 -698 0
-786 322 724 967 -949 -334 0
787 -653 -727 -776 154 0
-898 -657 -611 58 0
-364 -759 -414 -543 -588 -447 0
51 -673 414 -617 -536 0
-980 759 142 830 0
433 592 -172 -791 758 890 0
-552 -355 -744 691 870 0
458 -888 -657 -894 0
45 -824 -663 365 55 -626 0
-720 -332 619 831 -45 0
464 746 -294 757 519 616 0
-836 -169 981 647 709 0
-16 -277 -526 -733 -895 0
798 -872 -129 288 0
257 -840 487 395 -6 -686 0
-398 977 -931 -449 -397 297 0
147 658 831 665 708 0
744 -110 -578 -997 -963 -849 0
-203 -994 -663 264 0
213 729 -692 -495 0
74 364 -12 -901 438 0
-74 -802 -493 678 363 861 0
655 -731 960 54 92 -937 0
-2 -8 -270 837 -156 182 0
-630 18 -859 820 -92 0
-645 808 -585 -154 0
338 816 902 377 -604 -729 0
365 995 152 664 0
696 595 207 -894 0
509 -506 400 -700 913 0
-309 -190 251 942 0
-437 -198 165 177 0
-113 898 416 297 371 0
-445 -429 434 498 0
-273 266 -835 252 -212 -314 0
641 165 221 694 -415 0
-465 475 -16 235 0
195 -421 -184 732 -584 -740 0
-423 886 -925 706 934 254 0
-569 669 514 -300 0
225 107 -973 -484 0
813 -576 -832 963 542 -628 0
-383 950 -151 640 912 0
39 -234 341 -874 127 0
-594 295 277 -137 -376 0
164 -377 -345 884 617 303 0
-442 251 396 66 -823 0
-314 -747 -423 -780 -28 0
-639 -347 -174 818 0
-36 778 -109 -267 0
-617 -340 200 79 0
-589 -3 -870 500 0
-734 -327 -985 -170 711 -886 0
-57 -297 752 821 842 -70 0
763 588 -804 -969 122 0
-595 -274 -986 845 -736 0
-440 -299 -126 -822 275 0
731 61 108 411 0
-627 -386 544 525 202 276 0
154 -489 -39 -632 0
-531 -983 859 4 0
-320 -745 687 866 -928 -727 0
895 -671 589 -416 -389 -123 0
-950 964 344 424 308 -276 0
-135 467 483 940 0
-920 -492 783 542 -1000 -826 0
255 -977 -102 -881 0
292 978 -42 911 0
602 -46 886 90 0
642 592 880 666 313 0
-680 572 195 515 -230 140 0
503 -754 -312 88 182 0
50 -108 -728 516 -965 0
282 788 -813 -439 178 -558 0
-629 634 527 -817 437 0
985 -491 837 -360 516 0
-785 -44 -415 -753 -398 370 0
176 293 368 349 0
174 678 635 -166 -581 964 0
-510 -101 112 391 -855 105 0
216 -355 535 -912 -178 0
983 -661 352 -100 980 0
-457 500 956 843 154 0
850 682 -986 -60 -519 -606 0
703 516 -749 705 -320 -798 0
-655 -735 168 719 -444 0
478 -268 319 513 570 -838 0
-911 -522 986 949 0
-565 218 455 417 0
-441 745 -203 761 379 0
146 -758 -674 -851 -903 558 0
-783 -315 116 717 0
147 471 -562 782 -398 -563 0
-477 -979 15 151 0
-421 198 -917 -982 0
-551 -839 -202 878 -475 67 0
930 -550 138 539 0
657 -520 3 476 0
-818 -105 688 727 114 146 0
332 67 464 959 -160 414 0
-813 589 -856 -777 -66 0
461 377 -430 624 0
898 686 330 -570 673 332 0
-793 24 916 -53 -792 0
-292 570 878 761 471 0
405 664 -44 214 10 131 0
-946 -629 -612 889 395 0
-35 -852 -678 -990 494 -993 0
-259 -302 722 740 592 654 0
-248 706 888 374 730 42 0
-237 124 968 131 432 601 0
303 -789 366 880 -830 0
-172 -231 -671 795 -979 0
852 -946 903 854 196 0
235 -134 -67 687 368 0
-226 -703 -734 735 0
-612 154 -590 686 321 119 0
28 91 -728 -294 -498 -759 0
109 766 -208 678 852 0
981 -710 943 -937 880 0
-121 198 78 423 -699 -643 0
-145 359 -426 -310 -115 0
714 -109 118 -697 138 0
-615 874 421 312 0
-685 839 15 -900 -597 969 0
111 -871 727 62 0
-384 461 -241 515 804 0
-31 -680 -722 178 14 379 0
-50 739 -40 934 795 0
387 -432 -400 -526 612 354 0
755 -370 293 312 0
186 664 -123 304 0
-126 -98 152 -873 404 83 0
-149 472 -272 557 0
-889 -163 321 145 0
-478 83 611 -314 209 0
134 408 -54 600 440 105 0
-451 -23 343 95 0
695 -431 571 653 0
-84 -712 135 -947 933 -847 0
-298 107 545 -499 -783 954 0
-113 745 799 -889 -887 0
676 21 574 -394 731 657 0
-264 -113 -49 -274 920 0
238 547 154 352 -364 432 0
891 385 -434 908 0
-79 806 -632 438 -344 649 0
416 -962 -15 -862 -746 0
-410 531 -847 -409 0
-14 -445 813 802 924 -489 0
-851 -257 187 565 0
-680 -30 -423 298 0
-132 -862 116 -768 0
630 -64 -14 -192 0
912 -149 -779 687 0
342 394 -911 -41 -614 0
-453 -639 59 666 792 -779 0
97 -290 35 245 0
-592 -45 -384 -276 0
74 921 -600 -446 832 0
-267 -773 -172 634 0
298 -304 578 533 0
-1 377 -250 -415 0
179 -308 987 23 347 151 0
-316 -655 -216 -556 0
-355 338 -471 -322 -16 0
160 -218 548 15 471 0
801 -247 846 -59 34 0
-87 -235 -310 -559 906 -446 0
240 65 -885 -206 -16 0
