c Horn formula (polynomial-time solvable)
c 1000 variables, 2500 clauses
p cnf 1000 2500
109 -888 -666 0
559 -281 -123 -295 0
809 -414 -276 -832 0
-157 -101 -170 0
-501 -13 -902 0
-676 -695 -828 -93 0
984 -990 -384 -942 0
614 -452 -387 0
652 -822 0
-176 -416 -144 -60 0
114 -470 -36 -723 0
259 -559 -113 -305 0
-104 -308 -358 -412 0
203 -22 -320 -44 0
-792 -938 0
820 -698 -215 0
-507 -444 -871 0
-934 -714 -784 -924 0
-652 -680 -418 0
-983 -746 -4 -636 0
-896 -403 0
240 -163 -327 0
230 -175 -33 -652 0
373 -752 -174 0
-933 -453 -225 -145 0
255 -715 -986 -301 0
990 -291 -779 -890 0
964 -267 0
54 -972 -990 0
-106 -780 -30 0
754 -939 -980 0
123 -415 -405 0
-266 -947 -24 -644 0
824 -356 -568 0
556 -888 -728 0
309 -691 -626 -978 0
557 -360 0
643 -420 0
-393 -936 0
874 -361 -48 0
262 -413 0
352 -898 -483 -684 0
175 -209 -383 0
475 -500 -920 -530 0
366 -336 -742 -274 0
109 -21 -369 -966 0
913 -191 -731 0
-836 -399 0
-788 -504 -814 -632 0
-432 -381 -899 0
-231 -294 -681 -799 0
-624 -270 -336 -327 0
-456 -705 -982 -277 0
846 -554 -153 0
165 -440 -357 -266 0
-130 -92 0
426 -649 -483 0
625 -851 -912 -790 0
213 -698 -165 -158 0
859 -359 -975 0
275 -590 0
964 -375 -517 0
986 -839 -713 -134 0
676 -727 0
-902 -703 -40 0
235 -121 -951 -807 0
-542 -410 0
524 -946 0
426 -351 -477 -561 0
223 -564 -602 0
69 -355 -834 0
293 -932 -104 0
-700 -188 -693 0
927 -112 0
-726 -830 -586 0
409 -651 -969 0
-683 -283 0
329 -458 0
282 -460 -818 0
-507 -782 -597 0
568 -613 -136 0
684 -962 0
146 -215 -19 0
-922 -632 0
-590 -235 0
383 -216 -777 -814 0
29 -211 0
790 -819 0
418 -401 0
192 -524 -47 -262 0
-992 -894 0
841 -674 -773 0
401 -384 -144 -154 0
389 -328 -218 0
193 -727 -992 0
677 -952 -580 -81 0
530 -389 -376 0
924 -684 -680 0
433 -157 -493 -294 0
324 -722 -693 -441 0
930 -10 -893 -107 0
-708 -537 0
660 -438 -867 0
-748 -471 -799 -900 0
694 -648 -574 0
515 -964 -886 -381 0
563 -564 -752 -976 0
-633 -399 -612 0
774 -739 -848 0
132 -184 -209 0
462 -937 -553 0
908 -451 -928 -712 0
338 -62 -609 0
235 -973 -847 0
-953 -138 -529 -945 0
-991 -4 -495 0
88 -765 0
157 -400 -831 -318 0
711 -45 -134 -298 0
401 -799 -870 0
-114 -597 -441 0
-435 -910 -589 0
797 -563 0
992 -58 -775 0
-100 -160 0
429 -503 0
-611 -542 0
475 -510 -395 0
126 -121 -516 0
487 -342 -96 -31 0
470 -140 0
31 -127 -435 -492 0
908 -591 0
184 -198 -183 0
330 -569 -651 -642 0
258 -989 -165 -744 0
984 -25 0
605 -835 -228 0
537 -323 -304 0
541 -186 0
794 -856 0
850 -167 0
871 -597 0
439 -4 0
52 -170 0
947 -137 0
514 -721 -354 0
618 -79 0
319 -145 -412 0
-80 -72 -150 0
501 -495 0
719 -940 -659 -26 0
-131 -178 -164 -851 0
360 -6 -335 0
-406 -134 -383 0
-826 -742 0
-774 -401 -818 0
390 -178 0
-782 -597 -212 0
536 -706 -132 -235 0
755 -119 -829 0
-4 -225 -134 0
114 -10 -942 0
817 -486 -393 -594 0
669 -103 0
947 -57 -463 0
704 -749 0
136 -240 0
-506 -442 0
261 -226 -902 0
691 -172 -872 -480 0
648 -281 -558 -857 0
893 -720 0
395 -10 -542 -692 0
602 -404 -912 -767 0
571 -172 -294 0
-749 -644 -531 -300 0
924 -180 -970 -181 0
284 -264 -73 -441 0
-290 -706 0
138 -882 -463 -529 0
434 -789 -680 -560 0
579 -606 -134 -505 0
699 -291 -433 -138 0
170 -1000 -447 0
106 -856 -53 -50 0
579 -859 0
-372 -280 -244 -752 0
860 -868 0
178 -552 -499 0
357 -706 0
-224 -90 0
-930 -761 -221 -191 0
421 -493 -766 -635 0
435 -180 0
71 -819 0
979 -350 -709 -466 0
394 -353 0
310 -686 -363 -454 0
-78 -323 -497 0
376 -333 -112 -474 0
-422 -470 0
437 -125 0
-390 -916 -141 0
264 -579 0
629 -818 0
-39 -529 -887 0
906 -734 -458 0
997 -108 -821 0
-536 -269 -311 0
522 -602 -84 0
868 -654 -816 -534 0
264 -529 -800 0
-506 -16 -584 -386 0
426 -832 -80 0
716 -601 -693 0
7 -964 0
-833 -537 0
660 -678 0
-386 -129 -422 -769 0
585 -674 -601 -412 0
-809 -104 -132 0
902 -489 0
602 -114 -192 0
130 -404 -383 -564 0
593 -402 -920 -735 0
641 -376 -617 0
973 -268 0
382 -347 -536 0
489 -166 0
357 -918 -133 0
81 -826 -498 0
747 -663 -959 0
933 -51 0
912 -214 -854 0
-293 -187 -458 0
158 -459 -918 0
756 -647 -58 0
-863 -153 -341 0
360 -839 0
4 -853 0
670 -657 0
-789 -397 -992 -596 0
58 -863 0
-123 -71 -332 0
96 -610 -914 -126 0
416 -927 -989 -753 0
12 -579 0
462 -117 0
-513 -971 -989 -142 0
-806 -610 -403 0
-897 -554 -719 0
632 -45 -570 0
98 -475 0
-753 -274 0
-672 -186 0
301 -182 -602 -855 0
519 -967 -19 0
458 -206 -693 -588 0
224 -202 0
322 -347 -404 -45 0
869 -885 -569 -288 0
15 -82 0
-665 -611 -535 -255 0
-94 -550 0
808 -42 0
696 -807 -463 0
987 -890 0
405 -191 0
563 -915 -612 -251 0
882 -722 -227 -891 0
-209 -10 0
626 -410 -429 0
833 -52 -796 -522 0
481 -62 0
832 -992 -718 -608 0
507 -772 -238 -823 0
-257 -441 -445 -919 0
-924 -46 -135 0
-285 -541 -78 0
478 -12 0
677 -98 -949 -399 0
382 -791 -724 -440 0
-653 -471 -913 0
367 -783 -803 -47 0
331 -279 -188 0
6 -915 0
-12 -49 0
-520 -521 -557 0
732 -23 -528 -376 0
497 -901 0
-337 -57 -955 0
-925 -381 0
124 -503 -114 -392 0
755 -132 -761 0
-166 -904 -761 -158 0
-2 -43 0
284 -944 0
872 -798 -361 -365 0
232 -668 0
540 -461 -792 0
-78 -668 -973 -476 0
386 -458 -168 -41 0
332 -449 0
-726 -937 -371 -975 0
123 -991 -242 -905 0
-269 -966 -339 0
712 -970 -506 0
900 -404 -685 -405 0
730 -338 -17 0
777 -172 0
661 -213 -407 0
-43 -949 -961 0
-449 -914 -118 0
697 -193 0
887 -992 -69 -127 0
-160 -921 -451 -186 0
490 -20 -560 0
805 -399 -90 -978 0
669 -211 -684 0
95 -454 0
359 -292 0
204 -366 -159 -992 0
-435 -893 -110 0
972 -964 0
603 -540 -344 0
304 -795 -178 0
-694 -376 -875 -994 0
850 -588 0
434 -504 -670 0
710 -481 -477 -939 0
328 -24 0
-387 -597 -450 0
960 -374 -425 0
-77 -190 0
-144 -528 -752 0
-532 -408 -191 -868 0
681 -549 0
391 -318 0
242 -257 0
383 -419 -240 0
805 -726 -929 0
-207 -911 -607 -318 0
-184 -318 -97 -874 0
801 -539 -128 0
-233 -281 -918 -876 0
610 -188 0
781 -213 -638 -29 0
144 -273 -528 -618 0
856 -145 -907 0
95 -933 0
327 -389 0
-518 -891 -682 0
913 -485 0
-573 -58 -137 -984 0
-737 -770 -917 0
-693 -429 -880 0
-946 -849 -558 -487 0
511 -6 0
155 -676 -703 0
110 -403 0
669 -99 -705 0
432 -643 0
848 -322 -381 -395 0
324 -55 -241 -860 0
-914 -683 -142 0
207 -42 -931 0
-407 -394 -336 -651 0
194 -700 0
-883 -167 -451 -456 0
760 -636 -56 0
823 -173 -377 0
51 -70 0
726 -24 -966 0
366 -339 -107 -776 0
449 -54 -875 0
520 -354 -874 -609 0
429 -85 -428 -660 0
408 -600 -528 0
594 -707 -154 0
367 -582 -718 0
-976 -394 0
156 -266 -744 -389 0
-467 -662 0
469 -890 -426 -136 0
-686 -667 -931 -818 0
987 -819 -548 -886 0
-578 -391 0
-849 -878 -608 0
-255 -207 -832 0
880 -563 -357 0
545 -961 -566 0
768 -368 0
-637 -458 -361 0
-548 -90 -487 0
-435 -184 0
765 -771 -704 -806 0
802 -278 0
-882 -641 -52 -424 0
594 -160 0
-546 -687 -873 -490 0
804 -475 -491 -440 0
832 -844 -105 -331 0
-184 -94 -582 0
-19 -382 -251 -334 0
988 -983 0
506 -15 -346 -625 0
607 -105 -104 0
-335 -229 0
487 -779 -336 -491 0
-622 -12 0
235 -100 0
-674 -851 -420 0
442 -103 -55 -647 0
-263 -143 -951 0
467 -963 0
535 -514 -521 0
-87 -644 -427 -426 0
922 -348 -460 -368 0
56 -357 -585 0
-535 -389 -396 0
-130 -899 -492 0
85 -897 -400 -892 0
928 -461 -141 -129 0
-663 -583 0
994 -573 0
-309 -44 0
349 -50 -648 0
93 -719 -788 0
691 -147 -994 -736 0
634 -238 -863 -644 0
-137 -869 0
101 -138 0
39 -293 0
223 -799 -726 0
-836 -644 -6 0
-76 -438 -968 -287 0
507 -95 -575 -857 0
918 -761 -42 0
467 -215 -277 -869 0
-124 -175 -908 0
652 -584 0
-444 -887 -601 0
-661 -906 0
-675 -435 0
767 -848 -403 0
-655 -126 0
-564 -471 0
184 -236 0
612 -930 -625 0
252 -866 -416 0
33 -671 0
919 -242 0
613 -280 0
-890 -743 -68 -185 0
-442 -170 -511 -122 0
-401 -169 0
18 -524 -275 -836 0
-343 -168 0
946 -510 -563 -415 0
-937 -490 -203 0
-618 -737 -897 0
876 -903 -177 -96 0
785 -250 -122 0
942 -472 -767 -667 0
-760 -112 -591 -838 0
848 -597 -909 0
133 -609 -384 -986 0
895 -541 -779 0
-530 -912 0
207 -694 -763 -275 0
39 -571 -548 -438 0
-208 -813 -759 -872 0
-879 -391 -540 -639 0
-10 -490 0
507 -633 -868 0
969 -843 0
-279 -74 0
322 -212 -394 0
851 -888 -585 0
413 -221 -801 0
413 -641 0
387 -925 -469 0
-425 -711 -55 -489 0
-101 -586 -134 -534 0
300 -888 -817 -384 0
280 -397 -465 0
598 -195 -436 0
-251 -480 -979 -767 0
-696 -448 -790 0
-761 -848 -521 0
646 -728 -475 -321 0
93 -344 -330 0
-646 -339 0
584 -407 0
707 -932 0
907 -533 0
14 -634 -495 -309 0
155 -170 -553 0
559 -102 -225 -920 0
391 -919 -499 -254 0
940 -665 -154 0
214 -371 -600 -746 0
674 -112 0
-731 -712 -926 0
993 -631 0
416 -674 -376 0
469 -352 -526 0
70 -68 -521 0
647 -15 -618 -434 0
-557 -121 0
178 -699 -271 -465 0
865 -801 -28 0
436 -70 -272 0
274 -306 -47 -529 0
273 -680 -751 0
864 -953 -644 0
513 -992 -219 0
866 -377 0
-96 -670 0
363 -340 -783 0
497 -844 -28 -96 0
887 -744 0
936 -463 -172 -112 0
451 -148 0
31 -576 -466 0
141 -285 -435 -498 0
328 -732 -374 -317 0
363 -935 -430 0
-361 -135 -717 -501 0
264 -167 -1000 -815 0
49 -220 -735 0
72 -225 0
797 -575 -468 0
406 -148 -109 -491 0
916 -987 -656 0
287 -338 -524 0
683 -552 -556 0
989 -268 -748 -588 0
593 -993 -34 -171 0
-976 -295 -911 -577 0
976 -105 -128 -858 0
222 -343 0
722 -179 -470 0
521 -626 0
-314 -622 -554 0
77 -636 -106 0
-509 -567 0
879 -151 0
249 -234 -132 0
112 -898 -498 -755 0
36 -290 0
992 -137 -323 -208 0
-988 -935 -195 -666 0
-931 -356 -284 -443 0
387 -369 -660 -753 0
-717 -704 -295 -796 0
265 -279 -136 -415 0
764 -529 0
530 -214 -949 -497 0
-604 -424 -574 0
167 -931 0
898 -604 -120 -410 0
-485 -499 -954 0
402 -80 -841 -560 0
333 -675 -318 0
814 -670 0
-704 -375 -317 0
368 -81 0
499 -363 -451 -125 0
432 -142 -813 0
183 -653 -470 -729 0
622 -62 -51 0
354 -837 0
33 -313 -594 -231 0
190 -145 0
179 -93 0
-119 -668 -982 0
901 -752 -767 0
17 -169 0
50 -599 0
703 -74 -479 0
972 -393 -943 -831 0
267 -797 -660 0
179 -742 0
332 -20 -874 0
-819 -861 -579 0
436 -418 -978 0
929 -111 -39 -394 0
984 -265 -809 -126 0
144 -976 -445 -499 0
-789 -38 -263 0
599 -624 -591 0
929 -83 -889 0
428 -148 0
-485 -723 -23 0
509 -66 -374 0
-125 -870 -779 -827 0
469 -500 -349 -225 0
635 -143 0
392 -90 0
439 -767 0
964 -353 0
140 -204 -5 -353 0
542 -505 -725 0
-337 -396 -192 -958 0
989 -61 0
458 -192 0
-234 -468 -445 -873 0
415 -252 -495 -795 0
-459 -982 -91 0
-59 -131 -185 -635 0
421 -870 -652 -198 0
686 -147 -954 -826 0
741 -840 0
-648 -266 0
500 -560 0
48 -577 -212 -312 0
182 -561 0
140 -798 -930 -458 0
393 -795 -445 -540 0
608 -222 0
671 -269 -655 -765 0
-837 -465 -74 -497 0
-609 -276 0
154 -699 -129 0
871 -470 -791 0
524 -464 -446 -816 0
376 -366 -765 0
355 -569 -996 -522 0
742 -973 -847 0
576 -866 0
104 -995 0
214 -699 -304 -318 0
811 -915 -86 -688 0
429 -908 0
696 -130 -309 -32 0
252 -527 0
654 -889 -610 0
658 -919 0
804 -240 -719 -507 0
-148 -301 0
-678 -363 -124 0
827 -549 0
844 -61 -119 0
483 -837 -806 0
513 -896 0
465 -200 -254 0
84 -798 -897 0
791 -493 0
-71 -399 -998 0
-813 -786 -37 0
-178 -409 0
-93 -636 -755 0
-321 -227 -495 0
720 -33 -576 0
122 -921 -566 0
216 -701 0
-386 -142 0
693 -32 -324 -815 0
49 -859 -65 -305 0
167 -281 -311 0
740 -650 0
950 -110 0
254 -550 -884 0
-819 -652 -832 -105 0
209 -827 -89 -482 0
802 -874 -967 -447 0
-694 -917 -315 -785 0
-589 -621 -404 -197 0
866 -667 0
852 -729 0
605 -672 -758 0
-862 -853 0
784 -469 -901 -625 0
86 -308 -685 0
-929 -160 -495 -167 0
68 -304 -493 0
-529 -673 -590 -767 0
121 -446 -28 -720 0
397 -971 -790 -122 0
417 -203 -607 -595 0
671 -114 -270 0
434 -496 -247 0
25 -186 -820 -330 0
996 -42 -724 -488 0
520 -457 -983 -551 0
761 -724 0
14 -384 0
862 -243 -992 0
335 -345 0
669 -941 -486 -967 0
-134 -680 -972 -253 0
-844 -880 0
-106 -859 -143 0
111 -489 -351 0
646 -84 0
729 -791 -605 -760 0
655 -504 0
-686 -258 0
226 -136 -354 0
10 -598 0
67 -629 0
339 -253 0
320 -72 0
495 -964 -698 0
825 -917 -594 -736 0
-56 -740 -659 -978 0
974 -507 0
403 -616 -998 0
952 -944 -160 -932 0
-70 -767 -935 -852 0
725 -523 -332 -953 0
360 -796 -658 0
-472 -430 -863 0
661 -526 -340 -304 0
9 -253 -123 -936 0
434 -705 -723 0
-590 -711 0
550 -266 0
491 -433 -117 0
-759 -920 -648 0
154 -474 -836 0
-609 -950 0
304 -789 0
-432 -345 -291 -547 0
391 -160 -770 -803 0
881 -597 -860 0
-116 -929 -738 -676 0
-649 -685 -708 -187 0
123 -663 -850 0
336 -228 0
493 -116 -711 -59 0
519 -38 0
614 -314 -956 0
222 -338 0
337 -937 -353 -473 0
278 -824 0
555 -967 0
-203 -46 -278 0
-418 -742 0
-396 -436 -639 0
212 -28 -168 0
436 -958 -507 0
917 -493 -48 0
5 -100 -928 -313 0
-805 -367 -748 -240 0
949 -310 -199 0
944 -876 -117 -740 0
77 -74 -969 0
-518 -567 -384 -861 0
720 -907 0
955 -944 0
173 -808 -500 -239 0
73 -2 0
-569 -40 -348 0
-166 -220 0
537 -636 0
392 -907 -556 0
-370 -129 -506 0
-740 -969 0
742 -359 -241 0
823 -162 0
-731 -353 0
-161 -136 0
175 -401 -419 0
433 -132 0
672 -217 -174 -194 0
977 -971 -30 0
-398 -696 -260 -876 0
-645 -693 -902 0
-919 -740 0
149 -32 -193 0
936 -310 -283 0
112 -799 0
651 -304 -210 0
300 -976 -437 0
392 -369 0
313 -526 -531 -884 0
-108 -425 0
292 -290 0
355 -215 0
73 -320 -775 -970 0
-510 -774 0
999 -901 -595 -8 0
95 -283 -527 -794 0
588 -330 -92 -86 0
951 -770 0
468 -667 -155 0
988 -249 -516 -471 0
130 -944 0
519 -306 -444 0
-492 -741 -378 -987 0
673 -730 -147 0
283 -921 -509 -306 0
778 -481 0
738 -554 -71 0
621 -563 0
-736 -8 -565 -926 0
-196 -509 -549 -559 0
-33 -901 0
36 -75 -582 -412 0
752 -569 -507 0
-13 -491 -382 0
-985 -166 -216 0
653 -390 0
286 -816 -653 0
761 -504 -15 0
-490 -697 -500 -837 0
-45 -400 0
394 -319 -927 -757 0
108 -117 -24 0
69 -567 0
-85 -325 -61 0
-565 -934 -264 0
781 -598 -470 0
162 -942 0
-62 -51 0
-184 -589 0
254 -464 -937 -95 0
108 -925 -605 0
-168 -601 -78 0
132 -559 -653 0
149 -769 -819 0
199 -709 0
712 -3 0
244 -267 -33 -853 0
386 -35 -406 -709 0
130 -316 -372 -322 0
129 -748 -758 0
600 -953 0
208 -64 -693 0
389 -127 -848 0
-499 -621 -700 -874 0
259 -752 -891 0
-254 -660 -582 -310 0
-67 -987 -490 -300 0
579 -447 -797 -611 0
63 -240 -375 0
964 -58 -989 0
-173 -496 0
-674 -102 0
412 -228 -477 -37 0
929 -753 -983 -884 0
238 -577 -669 -404 0
635 -158 -575 -972 0
573 -101 -375 0
652 -911 -659 -927 0
124 -468 0
-273 -384 -792 0
811 -435 0
447 -204 -813 -656 0
-184 -810 0
415 -635 -37 0
281 -133 0
618 -371 -749 0
433 -638 0
382 -139 0
776 -955 -710 -514 0
-545 -354 0
140 -847 0
-51 -717 -459 -45 0
115 -757 0
33 -863 0
-579 -995 -758 0
360 -375 -9 -470 0
83 -368 -262 -385 0
562 -699 -589 0
538 -860 -160 0
663 -693 -492 -34 0
342 -544 -123 -506 0
377 -610 0
-14 -20 -537 0
-276 -111 -456 0
-935 -629 0
-357 -505 -48 -526 0
486 -700 -526 0
902 -835 -250 -771 0
-282 -463 -67 -482 0
856 -168 -553 -765 0
953 -275 -448 0
386 -768 0
520 -452 0
-630 -966 0
-631 -228 -867 -851 0
418 -635 -396 -221 0
398 -438 -796 0
490 -114 -146 0
460 -503 0
682 -45 -669 0
-860 -99 -882 -446 0
235 -530 -735 -967 0
773 -835 -223 -774 0
753 -44 -370 -37 0
-320 -665 0
726 -164 0
591 -762 -796 -941 0
603 -961 0
189 -684 0
-895 -607 -145 -865 0
343 -695 -182 0
775 -670 -800 0
638 -888 0
442 -838 -847 0
360 -822 -344 -363 0
374 -341 -819 -933 0
-539 -374 0
394 -687 -289 -364 0
-945 -47 -123 -939 0
111 -394 0
449 -873 -87 -575 0
578 -130 -129 -539 0
-495 -956 -372 -324 0
478 -984 0
805 -682 -426 -480 0
129 -498 0
429 -175 0
46 -713 -449 -183 0
-356 -170 0
992 -259 0
344 -401 -995 -895 0
-599 -679 0
-753 -383 -104 -736 0
655 -543 -834 0
285 -580 0
870 -579 -88 -595 0
-806 -962 -801 -100 0
264 -557 0
-212 -994 -982 0
-83 -553 -841 0
390 -899 -90 0
282 -559 -80 -197 0
-297 -802 0
-432 -972 0
808 -756 0
755 -623 -205 -946 0
189 -253 -321 0
-316 -354 -613 -914 0
985 -340 -349 -892 0
-652 -813 -518 0
727 -467 -143 0
96 -885 -42 0
848 -949 -114 0
594 -677 -638 -571 0
844 -259 -508 0
383 -470 0
461 -796 -730 -469 0
783 -399 -717 -278 0
780 -13 0
-186 -447 -555 -599 0
423 -260 0
-429 -179 -609 0
469 -699 0
16 -434 -584 0
-150 -606 -537 -16 0
556 -678 0
142 -219 -963 -590 0
-322 -300 -671 -548 0
-157 -56 -377 -968 0
304 -984 -576 0
-36 -990 -917 0
114 -599 -974 0
-484 -379 -897 -199 0
513 -705 -21 -507 0
-801 -308 0
241 -535 -436 0
-709 -334 0
34 -880 -733 0
474 -751 0
469 -473 -301 0
332 -832 -483 0
102 -874 -234 0
-2 -897 -45 -987 0
-376 -398 -460 -435 0
415 -218 -639 -48 0
996 -979 -649 -609 0
936 -105 -281 0
-350 -726 0
-227 -307 0
341 -303 -654 -203 0
-590 -238 0
987 -845 0
559 -412 -330 -542 0
213 -112 -1 0
198 -895 -414 -447 0
-908 -98 -4 0
451 -758 0
186 -151 -809 0
89 -398 0
-107 -132 0
930 -376 0
374 -487 0
818 -462 0
464 -740 0
800 -82 -214 0
194 -835 0
854 -914 -597 0
-46 -741 -567 -225 0
-812 -212 0
113 -660 -71 0
730 -880 -540 0
522 -155 -949 -506 0
381 -328 0
133 -527 0
-418 -504 -145 -758 0
160 -378 -600 -413 0
480 -466 -684 0
386 -779 0
96 -632 -542 -762 0
19 -37 0
852 -87 0
312 -72 -957 -677 0
36 -572 0
326 -895 -278 -827 0
934 -330 -335 -453 0
81 -398 -619 0
-267 -520 0
-572 -354 -234 0
-86 -555 -770 0
574 -326 -68 0
504 -759 -467 -812 0
677 -698 -457 -968 0
146 -247 -866 -501 0
434 -91 -160 -73 0
388 -312 -158 0
598 -488 0
-735 -806 -997 -941 0
556 -607 0
-349 -18 -398 0
645 -485 0
527 -652 -142 -3 0
373 -682 -790 0
269 -909 -221 0
504 -632 -65 -395 0
-821 -378 0
69 -255 -826 0
538 -741 -951 0
491 -446 0
-9 -899 -652 0
929 -660 -541 0
780 -418 -898 -637 0
-469 -441 0
144 -871 -463 -8 0
775 -406 0
337 -363 0
-447 -629 -514 0
55 -28 -668 0
288 -143 0
646 -156 -380 -506 0
295 -279 -864 -305 0
680 -877 0
159 -708 0
855 -25 -562 0
-185 -580 -842 0
-522 -892 -913 -228 0
518 -366 -122 -987 0
969 -429 0
338 -930 -198 -970 0
368 -64 0
182 -382 -121 0
-793 -848 0
256 -647 0
68 -96 0
750 -156 0
-768 -587 0
-138 -275 -683 -256 0
-516 -331 -869 0
-901 -586 -293 -122 0
155 -308 -269 -367 0
614 -592 -749 -925 0
969 -113 -775 0
-566 -137 -135 -791 0
193 -130 -244 -867 0
145 -660 -825 -976 0
195 -451 -4 -787 0
-548 -451 -617 0
462 -800 0
570 -262 -944 0
707 -347 -614 -650 0
458 -206 -68 0
568 -24 -689 -341 0
317 -639 -51 0
-62 -103 -239 0
-369 -1 -987 -128 0
110 -567 -253 -359 0
-437 -227 -408 -399 0
15 -979 -464 -673 0
-931 -819 0
903 -677 -761 0
271 -994 -105 -357 0
442 -241 -268 0
-166 -830 -921 -395 0
667 -395 -40 -165 0
-588 -680 -880 0
964 -746 0
662 -544 -55 -178 0
-917 -974 -856 0
286 -467 -570 0
849 -365 -817 -470 0
307 -301 0
-754 -204 -750 -467 0
830 -284 -857 -666 0
617 -323 -667 0
21 -695 -461 0
415 -484 -283 -615 0
36 -307 0
157 -466 -815 0
707 -196 -458 0
842 -723 -915 0
269 -231 -942 0
372 -249 -15 -346 0
904 -704 -505 -494 0
-721 -138 -670 -833 0
-353 -947 0
266 -46 -389 0
213 -332 -968 -307 0
712 -720 -454 0
646 -887 -901 -177 0
-966 -272 0
494 -297 -56 -126 0
702 -300 0
-652 -587 0
614 -183 -310 0
778 -258 -448 -970 0
644 -823 -404 0
116 -183 -732 0
79 -557 -797 -618 0
261 -294 -693 -933 0
130 -539 -140 0
-587 -953 -221 0
316 -762 -991 0
832 -932 0
770 -92 0
-954 -930 -998 -470 0
517 -997 0
584 -220 0
111 -989 -68 0
928 -225 0
431 -509 0
-742 -495 -54 0
793 -408 -919 -854 0
534 -403 0
45 -7 -151 0
-68 -61 -636 0
-92 -497 -157 0
921 -844 0
166 -569 -325 0
355 -794 -595 0
-949 -11 -837 -225 0
946 -521 -592 -402 0
507 -528 -886 -86 0
455 -802 -624 0
41 -940 -613 0
387 -145 -967 0
61 -573 0
-5 -57 -729 0
909 -792 -494 -631 0
2 -671 0
693 -371 -933 0
-473 -806 0
302 -242 -205 0
773 -759 0
-589 -34 -622 -597 0
-941 -572 0
610 -166 -192 -430 0
-331 -333 -473 -636 0
535 -476 -812 0
265 -648 0
720 -23 -753 -148 0
312 -925 0
659 -482 -827 0
812 -340 -782 0
76 -966 -247 -50 0
561 -74 -237 0
205 -100 -436 0
744 -542 -982 -196 0
622 -351 -205 -993 0
760 -151 -732 0
609 -985 -193 0
199 -100 0
-848 -889 -714 0
-123 -118 0
923 -684 0
179 -712 -769 0
-146 -410 -547 -742 0
-429 -480 -793 0
358 -295 0
782 -108 -229 0
408 -826 -475 0
-700 -489 -52 0
945 -844 -441 -474 0
-387 -129 0
148 -959 -445 0
710 -632 0
-234 -138 -29 0
944 -156 -584 0
144 -573 0
933 -264 0
927 -932 0
754 -311 -379 -746 0
802 -448 -485 0
100 -95 0
718 -959 -239 0
-569 -853 -153 0
824 -236 -679 0
605 -959 -356 0
-935 -889 -743 -765 0
271 -143 -58 0
478 -371 0
348 -233 -664 -128 0
-255 -680 -101 0
272 -97 0
60 -293 -392 0
-295 -491 0
671 -128 -376 0
-45 -54 -253 0
519 -289 -946 0
334 -44 -918 -182 0
699 -35 -233 -308 0
193 -600 -78 0
500 -885 -121 0
20 -509 -591 -29 0
258 -253 -342 0
-480 -994 -702 -725 0
-900 -177 -468 -694 0
-460 -397 -948 0
145 -8 -803 -694 0
-819 -545 -802 0
810 -529 -407 0
-164 -857 -587 -45 0
-303 -274 -828 -161 0
698 -714 -149 0
190 -688 -628 0
349 -726 0
356 -951 0
-917 -116 0
313 -597 0
838 -950 0
-838 -133 -280 -839 0
-418 -107 -130 0
-701 -403 -14 -23 0
828 -887 0
394 -534 0
8 -918 0
43 -222 0
121 -660 -972 -299 0
-724 -946 -322 -525 0
481 -750 -108 -999 0
-494 -254 -876 0
718 -832 -884 0
-989 -972 0
519 -421 0
730 -680 0
427 -585 0
944 -876 0
881 -876 0
-977 -94 -958 0
43 -817 -106 0
-120 -508 -305 0
783 -905 -158 -22 0
474 -303 -928 -208 0
-236 -160 -431 0
376 -631 0
-889 -92 -237 0
-526 -82 -59 -206 0
-727 -908 -369 -364 0
905 -795 0
-459 -122 -727 -131 0
395 -53 -638 -350 0
-657 -171 -449 0
448 -932 0
-287 -701 0
135 -618 -914 0
594 -162 -726 -634 0
287 -682 0
421 -688 -497 0
844 -550 -307 -114 0
989 -176 0
30 -413 -547 -944 0
773 -915 0
93 -760 -260 -820 0
-380 -204 -463 -533 0
-105 -402 -359 0
-244 -595 -612 0
307 -953 -408 0
621 -594 0
400 -373 -504 0
-853 -77 -437 0
-315 -301 -783 -609 0
637 -450 0
345 -485 -370 -576 0
473 -330 0
66 -345 -264 -215 0
80 -39 -118 -829 0
889 -133 -175 -296 0
72 -551 -357 0
621 -359 -744 0
-865 -534 0
527 -2 -924 0
370 -636 0
-56 -311 -553 -923 0
503 -897 -969 -347 0
-683 -300 -124 -131 0
-580 -602 0
972 -268 -608 -55 0
78 -974 0
192 -890 -805 -603 0
-690 -718 0
-119 -188 0
799 -408 -643 0
231 -465 -624 -83 0
-545 -318 -12 0
153 -492 -844 -418 0
-233 -760 0
-111 -779 -661 0
991 -273 0
937 -868 0
-578 -790 0
481 -70 0
100 -665 -699 -806 0
348 -937 0
951 -757 -67 0
-571 -614 0
-463 -578 0
-620 -845 -601 0
-572 -590 -298 0
601 -737 -479 0
438 -13 0
131 -754 0
585 -19 -480 0
427 -73 -924 -280 0
-308 -813 -247 -521 0
-551 -915 -910 0
63 -997 -639 0
-447 -357 -882 -667 0
285 -302 0
302 -120 0
764 -264 -697 0
88 -17 -150 0
88 -658 -998 -85 0
481 -272 -184 0
886 -640 0
459 -960 0
457 -483 -408 0
942 -627 -868 0
485 -903 -94 -908 0
864 -259 -646 -170 0
-744 -163 -565 0
754 -365 0
-195 -441 -40 0
-821 -661 -920 0
101 -104 -483 -973 0
428 -519 -626 -556 0
-215 -176 0
499 -438 -948 0
374 -287 -823 0
-512 -655 -524 -799 0
718 -487 0
825 -346 -36 -266 0
314 -224 -982 -268 0
76 -371 0
229 -467 -127 0
778 -593 -354 0
509 -883 -861 0
311 -164 -828 0
319 -410 -804 0
781 -95 0
327 -952 -739 -745 0
273 -794 -576 -296 0
261 -379 -332 0
133 -453 0
287 -311 -71 -761 0
643 -704 -984 0
-425 -36 0
-528 -668 -360 -487 0
619 -950 0
147 -119 -947 0
1 -847 -144 -178 0
860 -22 -918 -527 0
89 -44 -40 0
881 -291 -487 -326 0
-994 -401 -156 -833 0
-287 -14 0
571 -549 -552 -938 0
-911 -91 -753 0
787 -925 -974 0
701 -549 -596 0
632 -334 -734 -437 0
713 -562 0
835 -283 0
927 -906 -665 0
631 -821 -981 -792 0
913 -24 0
100 -95 0
-746 -444 -860 0
-942 -132 -454 -64 0
-310 -63 0
86 -12 -293 0
945 -737 -903 0
-469 -118 -253 0
-157 -955 0
220 -38 -734 -962 0
937 -564 0
600 -571 0
909 -355 -121 0
175 -97 -803 -689 0
552 -657 -164 0
251 -864 -893 0
-910 -994 -68 0
-239 -176 -554 -347 0
336 -758 -260 -66 0
550 -685 -270 0
65 -397 -752 -72 0
742 -235 0
-252 -332 -686 0
572 -175 -971 -456 0
263 -220 -126 0
219 -487 -560 -970 0
579 -633 -398 0
177 -835 -112 0
821 -121 0
897 -958 0
91 -723 -667 0
944 -324 -392 0
-890 -784 -636 -342 0
357 -754 -576 0
743 -581 0
483 -185 -560 0
-354 -452 -682 -542 0
39 -618 -61 0
974 -775 -602 -771 0
934 -50 0
415 -30 0
335 -424 -561 0
-103 -74 -213 0
-26 -167 -775 -746 0
894 -123 -186 0
-31 -506 -250 -463 0
916 -534 -560 -617 0
218 -500 -171 -432 0
922 -874 -226 0
-733 -957 -904 0
64 -628 -132 -108 0
639 -100 -7 0
700 -701 -859 -585 0
-944 -309 -393 0
-365 -597 0
335 -88 -946 -816 0
152 -178 0
-493 -721 -397 -483 0
432 -497 0
522 -895 -385 -394 0
135 -737 -322 0
660 -632 -121 -814 0
-451 -969 -296 0
-723 -857 0
515 -248 0
-4 -426 -59 0
-306 -310 0
-606 -365 -7 -180 0
63 -102 -244 -444 0
581 -649 0
-869 -947 0
57 -429 -285 0
-381 -16 0
-18 -573 -708 0
40 -22 0
658 -626 -930 0
142 -134 0
442 -504 -909 0
787 -512 -812 0
-616 -578 0
810 -142 -856 -902 0
352 -875 -639 -1000 0
942 -436 -222 -176 0
624 -577 -646 -550 0
899 -642 -695 -577 0
-640 -778 -733 0
722 -719 0
270 -202 0
18 -836 0
-130 -548 0
481 -226 -349 0
718 -403 -199 -739 0
732 -1000 -34 0
648 -657 0
169 -396 0
565 -22 -201 -762 0
-585 -341 -951 0
-160 -936 -374 -513 0
841 -191 -740 -654 0
903 -634 -534 0
-126 -699 -243 0
2 -58 0
-991 -361 -824 0
563 -501 -260 -726 0
142 -771 0
-592 -612 -250 0
-438 -17 -956 0
796 -494 -629 0
570 -106 -244 -376 0
546 -149 0
998 -873 -892 -606 0
-393 -3 -456 -350 0
750 -983 -890 0
-270 -970 -885 -51 0
922 -100 0
110 -686 -328 -573 0
897 -778 -754 0
901 -374 0
445 -941 0
-979 -764 0
523 -218 -580 0
-490 -375 -428 -69 0
292 -514 0
358 -489 -729 -157 0
473 -438 0
271 -618 0
-774 -81 -546 -630 0
990 -831 -471 0
18 -670 -298 -944 0
12 -476 0
504 -962 0
-369 -146 -331 0
-483 -664 -655 -47 0
251 -965 -781 -739 0
-365 -976 0
55 -104 -4 0
152 -231 -199 0
704 -813 0
949 -277 -988 -318 0
515 -267 0
574 -931 -985 -893 0
831 -441 -215 0
441 -931 -120 0
970 -930 -444 -128 0
251 -449 -116 -918 0
324 -493 -490 0
572 -960 -995 -406 0
878 -830 0
875 -404 -340 0
809 -937 -402 -561 0
873 -858 -619 0
57 -770 -83 0
577 -636 -144 -638 0
-223 -857 -166 -136 0
-835 -117 -724 0
-676 -502 -903 0
299 -403 0
591 -826 0
74 -578 0
317 -339 -732 0
-318 -547 -104 -606 0
56 -307 -209 -368 0
-355 -859 -647 -102 0
103 -755 -90 -547 0
-381 -80 -473 -780 0
313 -898 -978 -582 0
50 -136 -893 0
836 -737 -894 -443 0
184 -630 -909 0
701 -612 -969 0
287 -923 -844 0
148 -426 -912 0
-253 -874 -307 -13 0
722 -192 -78 0
484 -402 -161 0
-39 -962 -940 0
630 -13 0
451 -645 -776 0
-520 -246 -713 -978 0
385 -533 0
715 -581 -750 -170 0
495 -156 0
25 -508 -922 -517 0
618 -464 -534 0
246 -458 -256 -875 0
218 -24 -261 -770 0
56 -500 0
63 -278 0
737 -428 -30 0
513 -139 0
-943 -304 -320 0
228 -71 -303 -83 0
592 -710 -382 -943 0
207 -96 -552 -489 0
-47 -838 0
7 -607 0
410 -768 -580 -145 0
924 -127 -895 0
624 -917 -599 0
171 -652 -845 -388 0
-523 -337 -96 0
193 -894 -881 -797 0
877 -859 -497 -153 0
230 -621 0
668 -347 -179 0
570 -124 0
425 -450 -985 -281 0
429 -549 0
580 -329 -25 0
-860 -284 0
905 -84 -140 -54 0
641 -263 -319 -172 0
25 -590 -544 -836 0
838 -58 0
683 -256 -760 -754 0
862 -998 -538 0
487 -447 -412 0
67 -564 -130 -213 0
-411 -819 -212 -715 0
-921 -624 -910 -295 0
363 -986 -598 0
-714 -877 -498 0
-571 -886 0
-819 -831 -990 0
728 -831 -934 0
412 -284 0
757 -736 -57 0
78 -814 -415 -456 0
888 -739 -634 0
-119 -820 0
597 -958 -967 0
814 -556 0
-545 -644 0
613 -903 0
909 -489 -714 0
-905 -943 0
-86 -871 -146 -446 0
896 -589 -482 -803 0
497 -931 -384 0
236 -206 0
447 -857 -907 -699 0
192 -750 -241 -325 0
493 -925 0
35 -467 0
134 -395 -176 0
500 -521 -733 0
-257 -37 0
-710 -131 -416 0
653 -855 -370 -818 0
182 -609 -447 0
-64 -62 -471 0
609 -166 0
-188 -412 0
381 -800 -49 -579 0
65 -602 -620 -593 0
-967 -286 0
385 -375 -747 0
402 -3 0
398 -201 0
575 -988 0
531 -596 -329 0
613 -651 -284 -396 0
715 -245 -751 -530 0
339 -225 0
-973 -262 -181 0
-461 -216 0
-881 -320 0
579 -808 0
295 -886 -750 -419 0
210 -427 -304 0
815 -88 -545 -931 0
587 -573 0
833 -944 -288 0
-496 -223 -83 -216 0
288 -651 -441 -694 0
-411 -725 -561 0
897 -985 -544 0
-217 -786 -965 -979 0
136 -385 0
-622 -366 -128 0
434 -368 -558 0
-299 -733 -165 0
-567 -830 0
454 -92 0
-940 -443 -727 0
-500 -849 -861 -397 0
-514 -940 0
727 -10 -193 0
-815 -34 0
-281 -969 0
311 -488 -482 -315 0
991 -562 -249 0
-81 -363 -677 -904 0
240 -904 0
971 -115 -376 -369 0
-958 -353 0
-208 -748 -589 -505 0
789 -726 0
103 -739 -115 -695 0
326 -975 -31 -108 0
-982 -752 -18 0
294 -889 -357 -535 0
571 -228 -289 0
-812 -645 0
640 -677 0
532 -284 -52 0
94 -101 -78 -174 0
148 -652 0
-76 -148 -951 -898 0
103 -927 0
584 -573 -109 0
897 -638 -388 0
-774 -443 -701 0
728 -535 -606 0
42 -957 -105 -839 0
-740 -156 0
907 -184 0
-649 -409 -24 0
634 -272 -814 -370 0
868 -53 0
-838 -549 -917 -192 0
831 -12 -360 0
612 -518 -159 -321 0
210 -470 -939 -844 0
208 -678 0
-846 -367 -197 -868 0
-773 -788 0
421 -463 -912 -416 0
448 -518 -948 0
-557 -494 -92 0
-420 -598 -387 0
370 -336 -511 0
411 -61 -192 0
151 -679 -827 0
-43 -868 0
114 -325 -79 -900 0
-402 -472 -594 0
-716 -940 -142 0
-254 -128 0
-924 -206 -690 -339 0
-424 -186 0
417 -845 -542 -45 0
567 -515 -461 0
428 -959 0
6 -977 -237 0
706 -38 -257 -466 0
747 -521 -79 -353 0
122 -973 -262 0
218 -892 0
-459 -888 -678 0
697 -401 0
-389 -463 0
668 -250 -678 0
-283 -712 -155 -736 0
804 -338 0
-436 -529 0
700 -381 -26 -653 0
-366 -431 0
904 -410 0
-216 -244 -771 -19 0
902 -751 -888 0
322 -954 -31 -676 0
263 -483 -914 -869 0
767 -984 -119 0
259 -273 -995 -92 0
-896 -745 -378 0
-328 -172 -436 -574 0
-691 -269 -600 -654 0
144 -953 -179 -791 0
182 -279 0
-729 -83 0
-411 -128 -643 0
560 -60 0
200 -990 -53 0
364 -852 0
610 -763 -453 -16 0
699 -451 -601 0
921 -524 -631 -656 0
828 -627 -872 -529 0
713 -607 -87 0
-538 -588 0
55 -381 -722 -140 0
146 -902 -213 -507 0
146 -646 -795 0
109 -542 -614 0
14 -550 0
601 -26 -129 0
838 -179 -302 0
213 -92 -707 0
-537 -442 -239 -685 0
-271 -865 -2 -511 0
886 -460 -718 -797 0
231 -393 -191 0
-700 -852 -484 0
-688 -129 0
372 -925 -984 -265 0
-467 -788 0
967 -552 0
849 -497 0
733 -23 0
451 -858 0
-690 -528 -521 0
331 -647 0
589 -134 -137 -423 0
789 -135 -161 0
-463 -926 0
478 -371 -983 0
269 -49 -733 -4 0
161 -386 0
525 -632 0
-283 -325 0
283 -223 0
511 -915 0
909 -966 -696 -993 0
854 -668 0
-66 -520 -450 0
70 -644 0
-624 -627 -56 -438 0
-914 -777 0
707 -134 -575 -766 0
-718 -341 -524 0
-737 -45 -194 -442 0
-936 -720 -72 -179 0
18 -891 0
44 -243 -975 0
87 -178 0
-395 -446 -55 0
-951 -112 -534 -673 0
-205 -442 -235 0
-518 -269 0
543 -465 -737 -668 0
196 -165 0
623 -759 -45 0
672 -706 0
159 -2 -35 0
674 -825 -852 0
126 -394 -690 -356 0
505 -90 -993 -508 0
262 -473 0
535 -179 -724 -847 0
-145 -893 -313 0
211 -282 -905 -482 0
173 -738 -14 0
-570 -146 -624 0
942 -674 0
-123 -506 -415 -596 0
590 -496 0
353 -73 -212 -422 0
245 -581 0
-47 -350 0
357 -233 0
45 -170 0
886 -484 -246 0
106 -635 0
-241 -964 -280 -728 0
-234 -189 -764 0
-797 -353 -301 -37 0
-415 -731 0
308 -60 -552 -569 0
882 -211 -31 -513 0
575 -815 0
476 -768 -6 0
738 -657 -574 0
722 -360 0
36 -121 -974 0
-768 -78 -430 -358 0
894 -429 -742 0
549 -924 0
-716 -777 0
301 -908 0
672 -19 0
734 -650 -152 -232 0
-691 -427 -673 -731 0
729 -171 -929 0
-643 -299 -742 -752 0
169 -28 -427 -822 0
440 -443 -289 0
-631 -591 -297 -217 0
131 -415 -592 -297 0
904 -197 0
852 -896 0
700 -139 -807 -74 0
-781 -352 -72 -377 0
-543 -58 -135 0
496 -336 -152 -620 0
-432 -852 0
243 -85 -381 0
162 -695 0
-498 -805 0
841 -622 -370 -114 0
-806 -446 -373 0
721 -474 -699 -447 0
347 -756 -315 0
481 -247 -740 0
14 -310 0
-315 -605 0
-95 -305 -151 -48 0
-318 -587 0
199 -997 0
318 -652 0
-599 -906 -951 0
868 -307 -345 -252 0
394 -159 -605 -870 0
707 -797 -599 -603 0
629 -213 -119 -652 0
-943 -632 0
915 -472 -475 0
233 -28 0
-507 -969 -221 0
962 -484 -172 0
-891 -525 -133 0
-571 -681 -59 0
706 -413 -788 -468 0
151 -369 -47 0
14 -233 0
-136 -834 -378 0
180 -966 -285 0
863 -826 -349 -167 0
65 -74 -339 0
573 -723 -201 -238 0
-999 -472 -766 0
65 -175 -335 0
383 -742 0
-830 -257 -496 0
762 -845 -172 0
824 -441 -360 -753 0
885 -475 -554 -281 0
379 -820 -931 -457 0
481 -129 -548 0
499 -351 0
-586 -309 0
424 -86 -92 -224 0
946 -35 -8 -143 0
-202 -654 -280 0
668 -443 0
-683 -420 0
551 -514 -790 -315 0
868 -387 -417 0
201 -658 -261 -221 0
560 -310 -215 0
646 -540 -715 0
428 -603 0
576 -316 -975 -493 0
909 -720 -900 0
115 -5 0
598 -464 -451 0
67 -459 -98 0
848 -917 0
948 -955 -552 0
953 -1 0
175 -22 -870 0
562 -821 -900 -571 0
13 -900 -54 0
680 -164 -566 0
706 -862 0
-647 -345 -87 -395 0
255 -7 0
-266 -722 -428 -942 0
814 -822 -94 0
606 -195 -796 -695 0
140 -216 -193 0
323 -647 -649 0
-646 -608 0
777 -600 -682 0
176 -675 0
898 -120 0
717 -459 -739 0
541 -45 -939 0
725 -603 -439 -819 0
664 -135 0
333 -245 -82 0
-983 -303 -369 0
-397 -186 0
52 -824 -844 0
568 -372 -690 -541 0
-604 -793 -737 0
-211 -531 -64 -540 0
532 -16 -841 0
-361 -849 0
625 -346 -91 0
466 -256 0
-214 -276 -55 0
378 -703 -278 -735 0
845 -599 -206 -826 0
979 -640 -950 -779 0
485 -169 -1000 0
-364 -487 -963 -210 0
717 -961 -556 -358 0
133 -562 -511 0
-892 -752 -488 -280 0
473 -186 0
297 -333 0
582 -215 -755 0
307 -455 -605 -591 0
-322 -363 -469 -426 0
502 -470 -691 0
208 -746 -500 -231 0
322 -721 -696 0
-947 -14 -323 0
-594 -163 -863 0
266 -962 -893 -894 0
-533 -617 -670 -49 0
-304 -773 0
-938 -746 0
-145 -768 -902 -550 0
46 -929 0
-602 -305 0
414 -98 0
-222 -61 0
562 -888 0
477 -771 -272 -374 0
844 -159 0
858 -273 -396 -23 0
973 -727 0
699 -632 -696 0
-242 -886 0
6 -285 -191 -577 0
97 -189 -46 -791 0
12 -129 -528 -81 0
20 -644 -893 -756 0
307 -547 0
-91 -305 -519 -704 0
577 -258 -856 -180 0
-163 -591 -61 -583 0
-887 -186 -85 -77 0
85 -539 0
416 -295 0
871 -703 0
454 -554 0
997 -317 0
681 -771 -601 -847 0
655 -167 -350 0
-319 -108 -281 -532 0
205 -820 -945 0
168 -560 -954 0
415 -758 -285 0
245 -428 -31 0
243 -36 -902 0
262 -382 0
150 -201 -33 -245 0
213 -79 -471 0
-581 -537 0
860 -333 -806 0
265 -878 -688 -643 0
894 -17 -151 0
549 -798 -321 -692 0
885 -984 -418 0
-557 -94 0
597 -780 0
-359 -996 -457 -280 0
158 -188 0
984 -8 0
954 -695 0
443 -933 -543 0
-12 -29 -158 0
784 -652 0
364 -674 -48 0
584 -475 -630 -509 0
-121 -564 -216 -177 0
-897 -978 -777 0
-71 -594 -488 0
-125 -246 -49 0
150 -848 0
-837 -653 0
584 -363 0
888 -221 -572 -950 0
619 -445 -262 -797 0
428 -382 0
-892 -593 0
917 -481 -234 -85 0
-831 -299 0
235 -830 -624 -560 0
360 -349 -530 -16 0
514 -56 0
940 -95 0
-496 -565 0
-207 -794 -614 0
716 -806 -584 0
493 -733 -456 -278 0
211 -266 -465 -340 0
228 -504 -440 -185 0
593 -405 -470 -779 0
250 -628 -331 0
-953 -684 0
406 -108 -367 -125 0
-288 -18 -384 -803 0
225 -675 0
826 -479 0
523 -323 -342 -689 0
783 -795 -183 -525 0
561 -351 0
276 -711 -484 -455 0
695 -354 -83 -111 0
629 -393 -712 0
10 -722 0
-901 -508 0
240 -767 0
272 -761 0
2 -98 -561 0
-43 -8 0
292 -164 0
174 -515 -824 0
-997 -466 -998 0
855 -447 0
901 -80 -357 -26 0
-923 -47 -153 -790 0
899 -7 -211 0
-296 -448 -301 0
216 -277 0
24 -963 -794 0
920 -579 0
113 -100 -315 -953 0
128 -385 0
-665 -838 0
239 -678 0
431 -982 -466 0
47 -380 -65 0
721 -109 -579 0
876 -753 -381 -770 0
-855 -360 0
405 -900 -733 0
451 -370 -425 0
-400 -795 0
108 -522 0
688 -666 -757 0
204 -798 -77 0
796 -999 -975 -431 0
925 -716 -793 0
891 -440 0
527 -778 0
747 -282 -68 0
888 -352 -587 -524 0
-29 -791 -989 -271 0
961 -583 -835 -933 0
584 -424 -220 0
916 -474 -396 0
210 -666 0
-661 -629 -473 0
-27 -431 -440 -645 0
-519 -830 0
-427 -711 0
-784 -951 0
867 -839 0
138 -838 -922 0
643 -480 0
793 -333 -428 -914 0
-826 -780 -786 -64 0
-273 -809 0
-169 -747 -9 0
558 -970 -939 -72 0
-426 -630 -663 -76 0
847 -838 0
-991 -443 0
-220 -130 -545 0
990 -893 -655 -289 0
-130 -131 -433 -250 0
-965 -800 -83 -139 0
646 -394 -369 0
257 -167 -496 0
444 -113 0
964 -946 -848 0
625 -196 -729 -322 0
152 -904 0
-220 -956 -527 -867 0
130 -641 0
724 -687 -286 0
-524 -105 -911 0
198 -292 0
625 -832 -306 -522 0
-294 -990 0
616 -643 -874 -651 0
-854 -580 -577 0
449 -217 -61 -259 0
-879 -132 -19 0
490 -241 -707 0
-615 -616 0
-227 -770 -304 -629 0
437 -353 -742 -533 0
678 -10 0
356 -25 -958 0
609 -195 -701 0
-388 -933 -200 0
-946 -851 0
-946 -644 -90 -256 0
-665 -759 -671 0
-418 -208 -858 0
435 -348 0
-759 -402 0
97 -691 -741 -130 0
155 -992 0
419 -599 0
677 -107 -528 -641 0
307 -676 -513 0
880 -59 0
-260 -630 0
-537 -557 -673 0
62 -553 -323 0
77 -362 -848 -850 0
-461 -654 -688 0
704 -189 -164 -6 0
281 -810 -932 0
839 -690 -186 -724 0
238 -871 0
951 -344 -121 -949 0
590 -463 -943 -841 0
-163 -547 -199 -907 0
-106 -702 0
-115 -657 -819 -250 0
-343 -461 -128 -395 0
369 -923 -208 0
665 -175 -535 -139 0
162 -13 -123 -39 0
76 -386 -699 -449 0
-271 -764 0
25 -722 -30 0
-816 -392 0
619 -557 -368 -207 0
-738 -18 -169 -551 0
-820 -697 0
-577 -810 -877 0
182 -22 0
880 -135 -217 -649 0
394 -744 -399 0
103 -7 -923 0
530 -756 -960 -775 0
125 -792 0
-545 -184 -449 0
743 -335 0
77 -553 -823 0
-128 -2 0
575 -447 -214 -138 0
888 -671 -274 -789 0
664 -886 -118 0
279 -748 -946 0
534 -153 -789 0
202 -286 -530 -984 0
952 -161 0
641 -457 0
255 -889 -887 0
-413 -507 0
861 -19 0
67 -732 0
746 -444 0
336 -862 -980 -576 0
642 -829 0
10 -952 -161 0
282 -327 -492 -215 0
-121 -113 -359 -365 0
111 -728 0
390 -868 -158 -23 0
16 -811 -868 0
476 -821 -569 -404 0
-650 -950 -490 0
629 -204 -310 -185 0
346 -184 -41 -149 0
802 -237 -671 0
-39 -710 0
-935 -807 0
994 -284 -474 -719 0
-918 -657 -876 -749 0
647 -757 -494 -30 0
326 -276 -115 -723 0
428 -822 -41 0
-702 -319 -95 -594 0
419 -932 -25 -67 0
921 -786 -682 -102 0
264 -778 -68 0
46 -162 0
884 -510 -356 0
607 -431 -295 -193 0
593 -711 0
459 -823 0
55 -451 -286 0
-568 -662 -183 -77 0
324 -242 0
-617 -658 0
60 -830 0
-920 -317 -625 0
810 -757 -519 -31 0
157 -546 -472 -143 0
632 -271 0
526 -127 0
353 -637 -809 0
-92 -147 -643 -340 0
749 -745 -663 -812 0
339 -966 -337 -499 0
-224 -497 0
140 -896 -390 -243 0
832 -73 -737 0
323 -225 -841 0
970 -284 -871 -855 0
714 -476 -289 0
7 -989 -769 0
674 -161 -133 -733 0
-741 -176 0
668 -226 -512 -198 0
71 -239 -863 0
998 -803 -860 0
-311 -896 -5 -233 0
143 -1000 -615 0
761 -306 -75 -760 0
468 -103 -520 -133 0
-323 -923 0
967 -840 0
803 -815 -24 -710 0
-412 -935 -253 -932 0
-332 -135 0
-857 -328 0
-50 -59 -850 -450 0
38 -606 0
86 -212 -701 -834 0
258 -601 -434 0
458 -896 0
918 -377 -719 0
620 -913 -221 0
-473 -519 -837 -416 0
871 -401 0
586 -689 -990 0
479 -26 -679 0
-465 -984 -423 0
263 -218 -281 -83 0
402 -898 -978 0
631 -108 0
579 -146 -890 0
125 -403 0
-946 -753 -980 0
807 -639 -766 0
-996 -635 -845 0
-207 -235 0
-437 -652 -640 -99 0
293 -839 -269 0
883 -935 -335 -34 0
967 -773 -619 -872 0
185 -4 -362 0
603 -248 0
900 -753 -441 0
-464 -56 -162 -268 0
-590 -679 -243 0
242 -853 -355 0
343 -271 -506 -178 0
-641 -851 -241 0
-230 -952 -971 -361 0
-847 -381 -945 0
515 -229 -394 0
-968 -396 -189 -674 0
308 -167 -909 0
673 -814 -86 -868 0
-743 -421 -719 0
341 -855 -260 0
317 -25 -622 -591 0
795 -891 0
362 -491 -78 0
556 -730 0
335 -630 -819 -407 0
279 -27 -965 0
549 -672 -604 -315 0
958 -800 -51 -928 0
415 -54 -665 -765 0
-275 -920 -822 0
830 -521 -127 0
791 -20 -763 0
785 -270 -405 0
366 -258 -854 0
821 -380 -959 0
-889 -623 -273 -565 0
452 -953 -917 0
924 -598 -333 0
76 -425 -162 0
100 -937 -59 -449 0
806 -203 -600 -82 0
-899 -773 0
-746 -212 -800 0
804 -255 -674 0
74 -331 -929 -156 0
-772 -413 -617 0
319 -2 0
-35 -503 -397 -570 0
816 -352 0
612 -846 -87 -902 0
742 -116 -830 0
419 -883 -289 -353 0
379 -92 0
122 -840 0
-289 -120 -413 0
546 -504 0
237 -924 0
131 -400 -605 0
-45 -168 -49 -426 0
332 -466 -235 -956 0
-370 -537 -758 -866 0
24 -679 -917 0
435 -449 -706 -198 0
-810 -139 -402 -820 0
326 -86 0
-997 -903 -417 0
556 -395 -747 0
-790 -981 0
-917 -210 -491 0
247 -315 -987 0
287 -434 -961 0
-286 -830 -444 0
945 -655 0
-495 -100 0
-720 -184 -933 -48 0
496 -277 0
-894 -637 0
-189 -725 -444 -180 0
167 -324 -59 -870 0
547 -934 0
926 -913 0
831 -109 0
878 -466 -777 0
821 -942 -835 -148 0
-357 -862 0
-465 -255 0
581 -238 -525 0
895 -321 -907 -934 0
670 -197 -262 0
406 -3 -90 0
272 -901 -916 0
2 -545 0
318 -717 -386 0
810 -848 -157 0
-685 -208 -713 -930 0
308 -706 -724 -194 0
244 -850 0
-749 -77 0
943 -618 -426 -404 0
463 -662 -590 0
-816 -992 -870 0
10 -257 -59 -131 0
973 -288 -345 -872 0
697 -181 -419 -824 0
776 -631 -182 -25 0
-924 -454 0
-590 -175 0
961 -938 -351 -170 0
63 -700 -668 0
778 -424 0
631 -322 0
880 -228 -670 -616 0
-263 -13 -109 0
550 -490 0
-316 -665 -318 -997 0
476 -266 -22 -88 0
721 -622 -764 0
704 -70 -526 -293 0
81 -315 0
84 -897 0
-341 -82 0
450 -80 -238 -451 0
972 -924 -337 0
976 -785 -704 -555 0
-84 -129 -230 -799 0
369 -166 -576 0
873 -291 -7 -504 0
-295 -298 -110 0
592 -969 0
217 -709 -412 -689 0
639 -822 0
291 -531 -725 0
733 -765 -375 0
754 -669 -846 -390 0
217 -532 -515 -66 0
768 -959 0
-441 -694 0
750 -250 -84 -819 0
-311 -708 -950 0
205 -700 0
392 -106 0
569 -794 -892 -909 0
340 -984 -438 -736 0
-443 -331 -851 -717 0
17 -239 0
-223 -758 -235 -383 0
368 -23 -799 -292 0
663 -95 -452 0
696 -215 -808 -675 0
-982 -311 -339 -487 0
239 -613 -750 -726 0
379 -501 0
203 -360 0
32 -522 0
-441 -218 -336 0
-340 -104 0
-581 -318 -454 0
555 -438 -574 -940 0
398 -220 -535 0
835 -696 -353 0
573 -168 0
577 -707 -681 0
449 -170 -999 0
-593 -648 -873 -187 0
241 -590 0
-705 -433 -286 -280 0
-439 -126 -860 -628 0
120 -598 0
915 -166 0
104 -443 0
428 -783 0
81 -582 0
-951 -219 -363 0
803 -904 0
549 -52 -803 0
54 -898 0
967 -247 0
-286 -681 -577 -974 0
889 -350 -61 0
