c Horn formula (polynomial-time solvable)
c 1000 variables, 2500 clauses
p cnf 1000 2500
791 -528 -713 0
-726 -98 -964 0
-317 -683 -758 0
834 -757 0
-863 -733 -646 -317 0
-347 -432 0
939 -321 0
923 -672 0
626 -345 -984 0
119 -492 -130 -219 0
944 -955 0
11 -249 -750 -202 0
950 -378 -362 0
-216 -304 -771 0
261 -61 0
-45 -310 0
-687 -694 -187 0
890 -993 -211 0
782 -982 -695 0
698 -752 -582 0
722 -888 -924 -308 0
107 -346 -239 0
629 -860 0
745 -890 0
-598 -200 -550 0
-998 -199 -598 -182 0
-23 -95 -254 -688 0
-598 -116 -221 0
-697 -174 -756 0
174 -840 -911 -345 0
-562 -972 -627 0
-166 -916 -510 0
924 -726 -898 -364 0
-993 -632 0
401 -301 0
870 -444 0
-666 -752 -902 0
685 -173 -273 0
15 -847 0
83 -769 0
164 -778 -779 -108 0
-608 -686 -297 0
-897 -931 -873 -798 0
-98 -34 0
239 -704 -889 -838 0
572 -505 -221 -200 0
659 -977 0
233 -231 -459 -267 0
874 -558 -554 -848 0
-349 -369 0
902 -105 -913 -62 0
897 -601 -317 -236 0
-839 -451 -782 0
649 -190 -473 -421 0
723 -940 -845 0
179 -608 -536 -953 0
414 -502 -239 0
-332 -270 -135 0
-735 -965 -823 0
-343 -832 -98 0
-842 -51 -341 0
-202 -421 -860 0
781 -565 -932 -405 0
717 -298 0
163 -694 -311 0
127 -773 -300 -686 0
586 -427 -352 0
411 -619 -292 -418 0
92 -977 -391 -564 0
804 -255 0
286 -909 0
867 -377 -245 -783 0
567 -454 -579 0
-562 -474 -857 0
601 -344 -727 0
583 -184 0
689 -502 -75 -733 0
780 -580 -948 0
44 -317 0
152 -239 0
856 -525 -666 -604 0
64 -682 0
697 -182 -367 -104 0
267 -183 0
-248 -273 -236 -617 0
198 -794 -769 -233 0
-82 -704 -592 0
-366 -204 -255 -809 0
-153 -914 -315 0
54 -993 -323 0
323 -855 -92 -850 0
615 -921 0
838 -605 -581 0
441 -758 0
-461 -396 0
851 -421 0
-591 -9 0
135 -964 0
784 -71 -819 -818 0
178 -344 -880 -292 0
231 -806 -617 -794 0
93 -192 -190 -915 0
-798 -105 -252 0
392 -107 -819 0
-380 -520 0
-248 -514 -547 0
564 -153 -731 0
619 -383 -966 -405 0
862 -304 -220 0
-238 -294 -175 -667 0
500 -786 -400 0
-672 -211 -741 -112 0
-855 -767 -472 0
708 -100 0
864 -905 0
860 -190 -917 -567 0
340 -59 0
855 -571 -101 0
-517 -263 0
-103 -665 -762 -815 0
431 -103 -554 -882 0
877 -410 -397 0
755 -259 0
396 -759 0
110 -732 -523 0
736 -983 -17 -408 0
850 -598 0
-806 -116 -744 0
-916 -468 0
97 -351 0
-719 -480 -434 0
-790 -871 0
850 -565 -718 -745 0
-731 -716 -688 -480 0
48 -202 0
-729 -431 -757 0
837 -388 -573 -553 0
975 -248 -917 -625 0
825 -446 -44 -314 0
244 -344 0
148 -340 -557 -118 0
403 -898 0
984 -805 -747 0
251 -121 0
394 -215 0
772 -636 -297 -85 0
174 -573 -793 0
966 -367 0
238 -552 -249 0
-739 -455 -625 0
128 -150 -967 0
136 -739 0
818 -118 0
-883 -109 -743 -237 0
749 -616 -911 0
-37 -522 0
543 -803 -961 0
977 -401 0
212 -108 -360 -885 0
139 -866 0
214 -682 -626 0
174 -226 -207 -933 0
262 -537 0
913 -510 0
911 -402 0
-543 -982 -247 0
650 -20 -863 -973 0
967 -814 -470 0
809 -876 -478 0
169 -559 0
425 -252 -391 -121 0
499 -679 0
777 -893 -977 -542 0
348 -521 -114 -875 0
537 -170 0
146 -304 -215 0
890 -649 0
-603 -157 -64 -307 0
431 -347 -163 0
553 -489 -727 0
-420 -600 -390 0
-901 -156 -548 0
258 -704 -796 0
-743 -307 0
805 -162 -950 -786 0
679 -276 0
250 -35 -632 0
369 -287 -78 -787 0
711 -247 0
485 -642 -643 -70 0
368 -848 0
780 -464 -609 0
446 -292 -592 -204 0
122 -544 -288 -16 0
565 -748 -752 -246 0
153 -683 0
-963 -210 -153 -748 0
-327 -283 -858 0
-191 -126 -267 0
396 -555 0
-168 -910 -280 -486 0
147 -273 -199 0
-891 -241 -708 -756 0
914 -695 0
-551 -433 -839 0
830 -415 0
868 -50 -264 -62 0
-671 -60 -364 -528 0
945 -490 -510 0
756 -338 -143 -332 0
408 -113 -210 -504 0
766 -567 0
469 -607 -663 -430 0
673 -644 -978 -736 0
258 -655 0
-816 -894 -453 0
306 -113 -555 0
280 -741 -585 -251 0
408 -313 -834 0
-747 -480 0
497 -754 -138 -801 0
663 -971 0
107 -11 0
137 -827 -41 0
703 -923 0
-603 -993 0
367 -353 -561 0
653 -178 -682 -395 0
389 -356 -889 0
675 -857 -992 -28 0
877 -905 -715 0
537 -100 0
-585 -820 -45 -1 0
336 -646 0
748 -769 -522 0
905 -377 0
703 -460 0
-193 -319 -903 0
-884 -351 -399 -916 0
150 -891 -458 0
99 -869 0
-375 -788 -899 -160 0
431 -60 0
778 -76 0
-821 -73 0
-663 -339 -163 -181 0
639 -754 -403 -940 0
886 -946 0
497 -578 0
-279 -382 0
754 -520 0
524 -822 -598 0
287 -203 -766 -765 0
663 -574 -678 -669 0
897 -550 0
640 -930 0
692 -148 -25 0
718 -842 -278 -139 0
827 -917 -258 0
214 -716 0
338 -843 -304 -758 0
-433 -507 -815 -169 0
409 -768 -549 -218 0
-433 -960 -422 0
928 -427 -631 -690 0
926 -759 0
122 -269 -307 -971 0
123 -900 -577 -674 0
-650 -77 -596 0
277 -525 -546 0
-34 -675 -991 0
493 -956 -124 0
-255 -584 0
350 -764 -302 -499 0
515 -379 -549 0
-952 -59 -553 0
35 -841 -259 -543 0
364 -505 -764 -316 0
-108 -30 -210 0
833 -179 -336 -228 0
137 -149 -985 0
577 -363 -672 0
-918 -981 -959 -734 0
56 -852 -810 -433 0
-914 -448 0
321 -834 -226 0
-406 -661 -337 0
637 -13 -797 0
-558 -727 -891 0
465 -809 -181 -164 0
353 -270 0
835 -991 -891 -772 0
595 -310 0
374 -113 0
-184 -9 0
639 -100 -239 -264 0
395 -471 -669 0
478 -430 -12 0
-405 -930 -479 0
614 -543 -943 -246 0
-548 -564 -344 0
-613 -331 -749 0
332 -372 -974 0
-563 -886 -495 0
-393 -9 -245 0
-195 -928 -886 0
280 -644 -907 0
688 -744 -45 -526 0
64 -851 -556 -613 0
776 -826 -409 0
-885 -457 -104 -212 0
-395 -493 -691 0
447 -861 0
483 -741 0
522 -362 -218 -592 0
61 -68 -186 -150 0
637 -531 0
430 -470 -818 -478 0
51 -668 0
544 -713 0
159 -862 -102 0
676 -389 -658 -350 0
-489 -873 -251 0
-393 -5 -74 -83 0
417 -977 -665 -433 0
439 -665 -541 -36 0
544 -348 0
322 -606 -780 -191 0
-586 -302 -41 0
799 -716 -989 0
-449 -233 0
-729 -753 -203 0
-471 -832 -432 -683 0
-944 -394 -20 -284 0
-756 -705 -271 0
708 -33 -362 -91 0
-38 -128 0
444 -259 -487 0
-501 -384 -838 -677 0
309 -805 0
916 -597 0
590 -293 -896 -992 0
729 -277 -798 0
-184 -827 -126 0
970 -133 -191 0
48 -330 -882 -757 0
116 -714 0
936 -451 0
307 -249 0
894 -916 0
428 -953 -293 -12 0
875 -681 -631 0
935 -551 -69 0
369 -706 -336 0
580 -510 0
391 -579 -99 0
548 -234 -888 -131 0
85 -584 0
202 -624 0
729 -726 0
322 -759 -353 0
714 -393 -870 0
812 -408 0
152 -430 -580 0
589 -6 -562 0
428 -725 -815 -569 0
447 -191 0
421 -287 0
657 -738 0
588 -779 0
-30 -180 0
387 -970 -307 0
353 -409 -223 0
16 -146 -366 0
-140 -670 0
7 -977 -507 0
287 -321 0
79 -925 -713 -406 0
-862 -394 -450 0
313 -645 -205 0
-172 -261 0
-777 -53 -938 -595 0
98 -313 -347 0
151 -846 -800 0
648 -355 -590 0
37 -731 -823 -879 0
404 -502 -315 -427 0
285 -577 -103 0
-509 -80 -764 0
-788 -220 0
864 -51 -730 0
425 -411 -675 -304 0
-824 -489 0
417 -132 -654 0
-862 -103 0
-898 -29 0
317 -879 0
-357 -768 0
455 -184 -273 0
718 -372 0
375 -244 -132 -382 0
-150 -11 -655 0
-742 -808 -556 0
-149 -949 -973 0
978 -713 -617 -766 0
803 -444 -418 -176 0
749 -655 -928 -894 0
178 -509 0
-581 -888 -664 -181 0
479 -805 -302 0
949 -697 -332 -367 0
108 -534 0
314 -200 -30 -68 0
405 -960 -682 -189 0
445 -703 -747 0
-460 -962 -326 0
751 -928 -255 -879 0
-639 -542 -329 -682 0
-96 -910 -422 0
112 -885 -401 0
-640 -560 -352 0
255 -936 0
-680 -456 0
354 -326 0
296 -510 0
856 -913 -207 -873 0
791 -614 -603 0
858 -682 -919 -560 0
-619 -708 0
909 -540 -582 0
-1000 -819 -340 0
860 -398 0
688 -103 -530 0
131 -600 0
768 -323 -28 -583 0
391 -642 0
197 -72 0
-395 -638 -646 -812 0
206 -827 0
642 -51 -39 0
-56 -312 -953 0
218 -36 0
276 -601 0
-735 -974 -21 -900 0
361 -537 -831 -38 0
852 -704 -720 0
926 -109 0
504 -616 -39 0
807 -209 -328 0
453 -680 0
25 -538 0
-864 -515 0
112 -640 -797 0
-795 -189 -32 0
960 -670 -741 0
-613 -796 -868 -823 0
-920 -979 0
244 -273 -339 0
34 -839 -62 -317 0
251 -489 -993 0
-743 -731 -302 -254 0
188 -909 -829 0
718 -909 0
862 -504 0
-840 -734 -665 0
747 -414 0
344 -423 -351 -557 0
-466 -309 -600 0
739 -63 -656 0
844 -410 0
397 -774 -163 -890 0
644 -918 -611 -784 0
957 -974 0
696 -789 0
-103 -337 -353 -814 0
16 -761 -567 0
-384 -29 -539 0
-387 -476 0
706 -665 0
29 -535 -738 -978 0
364 -585 -593 0
123 -948 -618 0
981 -174 -42 0
736 -733 -486 -386 0
418 -133 0
275 -718 -770 0
41 -424 -13 0
415 -577 -704 0
481 -146 0
168 -454 0
924 -278 -339 0
-46 -122 -948 0
318 -558 -158 0
44 -520 -848 0
994 -369 -346 -908 0
567 -222 -312 -192 0
-706 -808 -456 -25 0
256 -722 -170 -707 0
539 -877 0
446 -856 -667 -570 0
-248 -25 0
670 -509 -151 0
652 -738 -134 -773 0
577 -65 0
574 -83 -507 0
177 -704 -940 0
-275 -683 -154 -116 0
386 -288 0
-483 -981 -749 -173 0
566 -227 -375 -629 0
455 -154 0
454 -544 0
-793 -285 -300 0
545 -875 -192 -102 0
486 -685 -913 0
439 -511 -644 -989 0
-533 -746 -341 -268 0
53 -442 -232 -761 0
645 -695 0
165 -149 -602 0
853 -655 -951 0
501 -607 -398 0
988 -38 -678 0
795 -763 0
102 -756 -262 -8 0
-84 -678 -559 -196 0
193 -356 0
665 -561 -317 0
-881 -721 -171 -963 0
626 -6 -832 0
-857 -657 -495 0
-516 -493 -764 -356 0
211 -869 -772 -704 0
818 -267 -417 0
99 -218 0
-174 -808 -326 -264 0
-930 -886 0
644 -566 -577 0
-718 -455 0
543 -470 -94 -968 0
982 -543 -997 0
881 -702 -234 -835 0
803 -721 -665 0
91 -716 -26 -900 0
-178 -653 -4 0
421 -318 -285 -177 0
-350 -126 -481 -11 0
769 -356 0
-459 -553 -865 0
77 -242 -924 0
-793 -417 0
902 -751 0
264 -622 -460 0
-365 -990 -688 -82 0
53 -332 -995 0
362 -238 0
873 -799 0
658 -162 -321 -978 0
856 -87 0
-204 -876 0
936 -126 -809 0
562 -886 0
687 -269 -766 -284 0
125 -511 0
-263 -277 0
974 -759 -77 -700 0
623 -707 -751 0
119 -150 -891 -857 0
117 -936 0
580 -808 0
843 -10 -564 -155 0
-421 -311 -157 0
-391 -789 0
-104 -321 -20 -73 0
484 -157 0
391 -507 -714 0
205 -432 -761 -602 0
321 -223 -60 -200 0
181 -415 -803 0
-555 -758 0
625 -78 -703 -166 0
62 -399 -715 0
337 -523 -526 -218 0
-281 -506 -788 0
830 -406 -845 -490 0
779 -765 -14 0
686 -611 -290 0
950 -743 -892 0
583 -554 -110 0
624 -533 -64 -888 0
110 -421 0
307 -548 -376 -151 0
654 -57 -528 0
363 -857 -460 0
-100 -763 -326 -599 0
-747 -607 -452 0
377 -523 -660 0
-877 -721 -299 0
-464 -93 -475 -618 0
295 -833 -452 0
-893 -727 -975 0
594 -947 -70 0
936 -656 0
211 -951 -640 -263 0
151 -42 -143 -539 0
-578 -904 -725 0
528 -149 0
524 -843 -413 0
-79 -768 0
-625 -897 -699 0
434 -35 0
227 -668 0
-327 -328 -232 0
107 -670 -753 0
-146 -790 -311 -500 0
899 -39 0
637 -142 -861 0
796 -457 -843 0
709 -10 -484 -442 0
-625 -907 -973 0
-897 -921 -290 0
664 -438 0
162 -120 -924 0
68 -926 -977 0
874 -844 -396 -378 0
218 -338 0
872 -755 -991 -327 0
-713 -664 0
875 -692 0
-238 -643 -17 -567 0
297 -375 -559 0
-657 -812 -371 -682 0
-875 -599 -903 -758 0
329 -912 -757 -287 0
673 -975 -425 0
675 -536 -885 -762 0
-96 -984 0
992 -25 -288 -209 0
144 -770 0
466 -352 0
-846 -444 -581 -769 0
-488 -152 -645 0
825 -226 0
931 -839 0
428 -556 -173 0
669 -22 0
220 -674 -383 -114 0
385 -699 -551 0
614 -397 0
-874 -759 -217 0
104 -46 -388 0
798 -760 -495 0
359 -473 -753 -42 0
82 -480 0
615 -980 -946 -413 0
294 -226 -396 0
298 -521 -719 -482 0
283 -76 -551 0
-284 -770 0
313 -802 -973 -821 0
115 -968 -271 0
435 -235 0
-371 -566 0
849 -350 -711 -44 0
7 -835 0
931 -536 -516 0
383 -972 -971 -195 0
779 -974 -157 -49 0
-405 -588 -678 0
-696 -238 -803 0
-69 -749 -981 -786 0
-2 -337 -68 -161 0
58 -262 0
688 -323 -596 -359 0
2 -25 0
122 -928 -13 0
546 -42 0
513 -783 -190 -842 0
-299 -84 -294 -488 0
375 -618 -66 -73 0
599 -148 -76 0
-458 -817 -276 0
-307 -755 -893 0
879 -351 -583 -215 0
590 -103 -822 -656 0
723 -220 -909 0
856 -721 -319 -410 0
-875 -84 -454 0
272 -962 -259 -930 0
-312 -818 -135 0
-796 -621 -411 -265 0
-260 -639 0
-741 -979 -686 -945 0
878 -740 -104 -495 0
188 -105 -897 0
160 -76 0
437 -878 -125 0
375 -691 -903 -541 0
862 -264 0
830 -97 -587 -443 0
671 -854 0
358 -333 -11 0
214 -788 -109 -324 0
-771 -44 -41 0
25 -417 -420 0
639 -17 -489 0
-944 -705 0
971 -413 -862 0
778 -586 0
941 -978 -593 -743 0
266 -601 -989 0
23 -328 -778 -193 0
76 -673 -372 -686 0
-236 -502 0
405 -190 -407 -393 0
117 -562 -657 0
676 -419 0
408 -214 0
748 -955 0
311 -873 0
613 -425 -735 -584 0
-945 -538 0
870 -927 -359 0
-948 -4 -997 -860 0
-192 -52 -241 -745 0
577 -769 0
147 -545 -556 0
882 -346 -529 -98 0
530 -950 0
803 -149 0
-41 -613 -102 0
167 -595 -758 -60 0
659 -146 -267 0
-737 -535 -668 -857 0
673 -924 -210 -633 0
272 -206 -782 0
362 -981 -20 0
418 -327 -161 0
-526 -367 0
-719 -465 -866 -519 0
-145 -69 0
619 -872 -498 -41 0
857 -322 0
-781 -540 0
-719 -426 0
109 -999 -66 0
-254 -360 -594 0
-174 -678 -321 -733 0
351 -202 -705 0
433 -408 -972 0
326 -34 -527 0
236 -687 -998 -45 0
-353 -123 0
-882 -754 -419 0
-175 -539 -298 0
-443 -417 0
866 -670 -993 0
670 -900 -551 0
444 -198 -778 0
827 -791 -148 -353 0
305 -821 -183 0
-971 -272 0
-934 -557 0
618 -976 0
582 -514 -684 -531 0
742 -822 -864 0
-317 -906 -2 0
-158 -199 -252 0
535 -384 -13 0
-420 -897 0
780 -749 -98 -442 0
350 -589 -317 -276 0
318 -601 -590 0
-232 -701 0
499 -14 -851 -41 0
497 -665 -409 -729 0
388 -571 -80 0
555 -3 -73 -731 0
266 -606 -521 -402 0
-104 -954 -576 0
733 -792 -448 0
495 -497 -435 -23 0
276 -918 -879 -213 0
-300 -63 -754 0
300 -188 -445 -652 0
928 -396 -789 0
506 -26 -762 -866 0
44 -45 -400 0
133 -891 -91 -799 0
-116 -161 -999 0
866 -40 -572 -574 0
495 -445 -653 -965 0
457 -489 -468 0
407 -908 -22 -387 0
-446 -520 0
90 -67 0
106 -928 -613 0
-596 -492 -702 0
765 -563 -193 -892 0
97 -568 -172 0
278 -836 0
422 -212 0
583 -900 -472 0
554 -512 -484 -624 0
-174 -75 -21 -495 0
59 -922 -759 -243 0
-241 -138 0
235 -250 -292 0
-712 -110 0
867 -803 0
109 -299 0
649 -370 0
-951 -199 -456 0
861 -755 0
-682 -71 -448 -54 0
-80 -22 -278 0
58 -318 0
362 -63 -130 -419 0
217 -652 -157 0
-152 -680 -867 0
-314 -747 0
784 -889 0
-141 -657 -15 -675 0
-157 -145 -597 0
537 -870 -512 0
311 -894 -136 0
-835 -256 0
-287 -45 0
300 -294 -395 0
401 -234 0
-995 -626 -434 -92 0
-461 -212 -749 -385 0
-905 -509 -566 -261 0
472 -298 -568 0
500 -322 -513 0
940 -501 0
740 -767 -185 -668 0
205 -666 -820 -144 0
829 -729 0
-433 -842 0
250 -920 -598 -844 0
-549 -145 -728 -837 0
897 -541 -967 -701 0
481 -41 0
-665 -984 0
47 -72 0
620 -612 -878 -694 0
-853 -55 -645 -620 0
67 -59 -215 -127 0
-438 -953 -573 -467 0
-109 -122 -202 -687 0
-825 -127 -905 0
517 -21 -685 -202 0
33 -546 0
-839 -503 -182 -681 0
-163 -871 -446 -876 0
212 -318 -824 0
951 -565 -84 -97 0
659 -677 -173 -909 0
151 -301 -287 -445 0
-879 -858 -442 0
-877 -206 0
585 -422 -313 -626 0
337 -693 -990 0
327 -93 -767 -270 0
-904 -635 -386 -562 0
-159 -120 0
-458 -411 -700 0
373 -928 0
858 -85 -239 -111 0
-604 -126 -75 -514 0
553 -740 -878 0
-713 -815 -200 0
678 -844 0
-230 -511 -750 -431 0
977 -351 -247 -498 0
-452 -97 -350 -12 0
253 -572 -745 0
-601 -53 -950 0
864 -886 0
653 -809 0
465 -149 -350 -417 0
-706 -203 -19 0
-785 -979 -95 -276 0
649 -765 -207 -543 0
250 -951 -622 0
503 -756 -282 -654 0
-569 -945 -376 -123 0
-760 -936 -876 0
558 -522 -880 0
172 -540 0
674 -563 0
936 -123 0
-909 -102 0
-882 -382 0
-63 -916 -964 0
-347 -260 0
255 -366 0
353 -905 -367 -781 0
573 -427 0
-978 -20 -474 -109 0
-428 -162 -377 -310 0
368 -442 0
-486 -66 0
534 -719 0
359 -614 0
205 -256 0
327 -676 0
-798 -351 -894 0
-274 -164 0
954 -524 -177 -965 0
22 -493 -422 0
-398 -534 -645 0
-202 -573 0
91 -122 -348 0
373 -759 0
655 -677 -275 -950 0
564 -342 0
795 -77 -870 -329 0
-45 -171 0
1000 -336 -286 -482 0
-348 -857 0
872 -939 -381 -231 0
403 -58 0
902 -229 -657 -262 0
-288 -740 -432 0
-944 -652 -741 0
672 -362 -211 -634 0
232 -178 -57 0
-626 -888 0
10 -866 -636 0
916 -410 0
840 -498 -163 0
335 -258 -900 0
-869 -23 -18 -104 0
-299 -59 0
483 -354 -377 -762 0
-786 -158 -202 -161 0
-324 -467 -219 -95 0
-377 -885 -463 0
344 -638 -217 0
30 -285 -649 -420 0
25 -21 0
334 -187 -984 -957 0
-391 -777 -709 0
602 -853 -636 -351 0
-994 -292 -238 0
464 -76 -32 0
785 -853 0
566 -474 0
-517 -525 -947 -564 0
143 -169 -486 0
-453 -836 -64 0
946 -795 0
21 -904 0
310 -838 0
-760 -468 0
103 -97 0
269 -539 0
201 -160 -927 0
628 -183 -66 -522 0
938 -394 -336 -357 0
-474 -71 -459 0
495 -532 0
147 -443 -382 -300 0
324 -306 0
105 -677 0
739 -255 0
-605 -917 -645 -330 0
-150 -34 -737 -458 0
-347 -523 0
878 -346 -531 0
-529 -168 -851 -402 0
454 -567 -164 -710 0
539 -387 -348 -140 0
-957 -415 0
91 -160 -317 -40 0
-920 -256 -563 0
839 -390 -925 0
-623 -172 -607 -741 0
956 -748 0
715 -136 0
565 -718 -484 -346 0
74 -756 0
-180 -784 -351 0
-16 -967 -242 0
980 -968 -737 0
560 -231 0
760 -488 0
677 -830 0
575 -335 -678 -62 0
-881 -651 0
-914 -64 -920 -923 0
962 -42 -989 -681 0
-812 -408 -828 -438 0
-342 -436 -618 0
285 -311 -412 -991 0
523 -934 -956 0
617 -386 -693 0
-113 -504 -391 -158 0
641 -896 -649 -858 0
7 -187 -141 -987 0
493 -148 0
198 -724 -81 -330 0
906 -664 -577 -504 0
-855 -20 0
300 -381 -56 0
172 -999 -297 -21 0
310 -542 -324 -567 0
749 -434 0
147 -696 0
417 -565 -315 -625 0
-612 -982 -393 -995 0
503 -291 -80 0
398 -760 -512 0
543 -468 -835 -512 0
552 -470 0
170 -396 0
26 -120 -303 -287 0
-495 -227 -520 -803 0
79 -984 -3 -967 0
69 -1 -642 0
-14 -997 -195 0
229 -275 0
915 -702 0
844 -855 -909 0
728 -551 0
-31 -120 0
102 -462 -324 0
598 -378 0
-744 -76 -682 -235 0
-432 -899 -21 -324 0
403 -71 0
841 -771 0
-379 -16 0
609 -926 -183 -683 0
-141 -758 -18 -673 0
304 -534 -666 -955 0
13 -988 -468 0
-989 -737 -99 0
178 -840 -462 -48 0
-400 -478 -878 0
-611 -933 -454 0
165 -438 -25 0
940 -351 0
-717 -190 -836 0
-360 -518 0
306 -159 -52 0
547 -660 -60 -988 0
357 -170 -121 0
429 -650 -226 -562 0
-583 -845 0
803 -964 -94 0
694 -676 0
843 -415 -338 0
-146 -9 -738 -614 0
-563 -1 -912 0
-8 -774 -286 -747 0
210 -439 -75 -661 0
350 -846 0
896 -859 -2 -213 0
-296 -87 0
782 -197 0
177 -183 -610 0
703 -639 0
456 -57 -639 0
879 -407 -922 -624 0
678 -492 0
677 -556 -458 -950 0
542 -37 0
490 -576 -335 0
984 -743 -812 -106 0
361 -37 0
173 -32 -580 -563 0
892 -853 -176 0
20 -181 -412 -754 0
820 -52 0
90 -921 0
193 -900 -543 -25 0
319 -366 0
-889 -268 -181 0
631 -273 -468 0
659 -442 0
-562 -58 -459 -808 0
148 -366 0
97 -458 -304 0
-724 -710 -69 -857 0
799 -103 -663 0
131 -700 -18 -781 0
757 -649 0
-223 -493 -512 -188 0
-183 -248 -49 -165 0
48 -1000 -251 -871 0
-655 -599 -214 0
113 -858 -626 0
212 -565 -282 -120 0
-458 -490 -768 -391 0
-586 -500 -327 0
428 -737 -28 0
262 -451 0
166 -836 0
839 -485 0
125 -638 -303 -95 0
503 -347 0
590 -424 0
535 -205 0
7 -841 0
478 -572 0
-680 -505 -186 -594 0
301 -681 -794 -1000 0
504 -246 -763 -627 0
605 -874 -873 0
307 -119 -89 -43 0
506 -290 0
253 -629 -490 -170 0
827 -824 -710 0
872 -334 -849 -336 0
-5 -932 -714 -440 0
-173 -362 0
270 -425 0
704 -881 -767 -892 0
-127 -588 -921 -889 0
-441 -466 -497 0
519 -299 0
407 -550 -191 0
913 -127 -31 0
86 -477 0
663 -718 0
111 -928 -92 -668 0
682 -146 -447 -181 0
367 -169 0
774 -493 -786 0
61 -441 -149 -290 0
31 -992 -221 0
347 -832 -544 0
-553 -988 -744 -587 0
900 -927 0
53 -342 0
-656 -873 -751 0
-631 -513 0
-685 -724 -834 -290 0
-678 -793 -829 -234 0
934 -115 -158 -708 0
300 -371 -172 -457 0
374 -924 -976 0
145 -379 0
-140 -251 -707 -365 0
-352 -961 -276 -4 0
638 -885 -419 0
683 -27 -907 0
599 -57 -75 0
741 -445 0
643 -818 0
-327 -39 -449 0
-231 -622 0
-414 -762 -7 -886 0
683 -682 -344 0
485 -622 0
670 -120 -913 -543 0
549 -371 -311 -474 0
-269 -104 -913 0
114 -240 -957 -322 0
842 -682 -667 0
169 -441 -579 0
-607 -98 -972 0
-302 -74 -195 0
881 -689 0
-749 -996 -522 0
-673 -159 0
-55 -649 -474 0
164 -34 0
55 -231 -904 -871 0
-32 -257 -220 -683 0
-907 -305 -144 -541 0
121 -264 -916 0
829 -714 -98 -197 0
-454 -424 -733 0
-102 -817 -624 -974 0
49 -862 -107 -541 0
544 -902 -884 -334 0
566 -687 -80 -526 0
427 -250 -609 0
522 -440 -640 -289 0
396 -458 -315 -186 0
919 -467 -875 0
440 -521 0
193 -575 -343 -59 0
34 -301 -663 0
-495 -759 -664 -640 0
800 -218 0
494 -402 -635 0
28 -619 -389 -197 0
-456 -833 -358 0
429 -921 -898 -540 0
455 -96 -554 0
458 -25 0
980 -603 -961 -676 0
794 -852 -581 -657 0
-475 -698 0
-998 -164 -659 -292 0
-266 -289 0
453 -312 -502 0
514 -201 0
823 -514 -312 0
675 -289 0
193 -565 0
101 -88 0
474 -916 -127 -576 0
-318 -255 0
-124 -127 -92 0
-14 -632 -192 -308 0
853 -744 -449 -193 0
595 -6 0
831 -429 -450 -816 0
362 -103 -684 0
-48 -397 -31 0
83 -662 -471 -838 0
-102 -2 -104 0
734 -313 -570 0
-921 -354 0
18 -110 -903 -28 0
413 -895 0
-135 -945 0
861 -481 -174 0
-718 -380 -708 0
364 -722 0
569 -996 0
858 -736 0
735 -424 0
-613 -22 -230 0
121 -693 -113 0
2 -411 0
414 -151 0
788 -188 -898 -203 0
134 -418 -269 -987 0
-978 -249 0
877 -729 -1000 -453 0
-917 -103 0
311 -932 0
688 -607 -178 0
-349 -934 0
966 -325 -495 -636 0
995 -782 0
580 -797 -631 0
-718 -552 -328 -523 0
-496 -402 -302 0
90 -74 0
325 -200 -487 0
-626 -854 -454 0
999 -151 -469 0
-177 -856 -322 -226 0
164 -372 -89 -96 0
-797 -642 0
383 -107 0
-170 -118 0
310 -876 0
-469 -56 0
-652 -431 -899 0
96 -593 -920 0
588 -819 -742 -82 0
528 -35 -214 -746 0
402 -905 0
754 -727 -992 -428 0
-127 -281 -399 -474 0
-419 -117 -836 0
462 -253 0
685 -906 -576 -858 0
779 -359 -579 -405 0
-217 -916 -932 0
426 -892 0
354 -496 -689 -49 0
455 -839 -160 0
-131 -988 0
-101 -610 -486 0
954 -561 -837 0
547 -994 -933 -272 0
727 -132 0
-117 -476 -412 -6 0
-993 -741 0
575 -531 0
351 -606 -595 -137 0
-623 -197 -113 0
191 -762 -223 0
197 -864 -400 -410 0
355 -906 -461 0
533 -486 -405 0
641 -339 -778 0
-818 -893 0
-310 -839 0
321 -67 -341 -815 0
-521 -449 -919 0
50 -171 -389 0
420 -949 0
651 -928 0
-924 -233 -373 -799 0
571 -993 -636 0
57 -23 -198 0
148 -905 -228 -604 0
678 -237 -433 -595 0
683 -538 -167 -779 0
-543 -693 -922 -837 0
919 -369 -608 -146 0
891 -224 -499 0
39 -55 -523 -281 0
673 -830 -512 -720 0
-825 -120 0
34 -644 0
22 -669 -100 0
471 -526 -219 -646 0
626 -161 -570 0
247 -544 -890 0
184 -843 0
946 -142 -602 0
430 -939 -707 -52 0
-709 -791 0
273 -659 0
460 -91 -103 -66 0
-85 -594 -219 0
-230 -294 -808 -913 0
69 -997 0
160 -57 -230 0
686 -90 0
91 -514 -933 0
458 -60 0
360 -350 -746 0
263 -725 -897 0
147 -499 0
92 -682 -344 0
991 -291 -362 0
908 -600 -671 0
183 -236 -348 0
53 -77 -182 -440 0
230 -970 0
517 -136 -53 -181 0
-764 -565 -754 -512 0
85 -195 -182 -103 0
571 -396 0
948 -67 0
-443 -124 0
881 -374 -402 -234 0
759 -99 -73 0
146 -443 0
133 -483 -179 0
-29 -174 -231 0
142 -820 -926 -969 0
818 -879 -418 -425 0
758 -680 -627 0
931 -331 -462 0
171 -205 0
-584 -183 -622 -462 0
-767 -120 -534 0
987 -73 -885 0
597 -772 -252 0
804 -772 -109 0
931 -784 -84 -407 0
876 -197 -2 -499 0
585 -234 -695 0
38 -653 -956 0
-233 -800 0
726 -905 -630 -809 0
315 -405 0
47 -625 -150 -60 0
596 -885 -286 0
248 -39 -602 -208 0
139 -153 -713 0
423 -784 -346 0
-895 -47 -477 -204 0
-930 -310 -530 0
-463 -581 -97 -997 0
568 -574 -433 -116 0
91 -786 0
497 -817 -975 -876 0
243 -749 0
-749 -714 -815 0
168 -996 0
598 -245 -801 0
111 -50 -765 0
-739 -982 0
-646 -200 0
21 -713 -556 -147 0
78 -757 -332 0
747 -531 0
-168 -39 0
555 -364 -712 0
-629 -982 -206 -560 0
179 -402 -226 0
832 -260 -126 0
931 -797 -669 0
353 -80 -750 -846 0
235 -632 -803 0
-287 -75 -612 -642 0
-52 -565 -500 0
-999 -279 0
478 -815 -871 -634 0
-884 -859 0
156 -600 0
295 -482 -374 -931 0
310 -940 -278 -162 0
877 -957 -751 -686 0
166 -977 -231 0
-16 -6 -961 -646 0
219 -908 -152 0
781 -946 -676 -831 0
-448 -268 -292 -300 0
798 -883 0
100 -407 0
956 -184 -523 0
941 -377 -924 -115 0
148 -23 0
558 -79 -121 -276 0
-973 -304 -66 0
-201 -594 -232 -960 0
118 -262 0
428 -368 -899 -853 0
29 -320 0
308 -974 -682 0
502 -783 0
953 -484 -641 -988 0
440 -147 0
443 -625 -911 -440 0
850 -983 -725 -724 0
-857 -634 -864 0
186 -822 -790 -603 0
450 -482 -217 0
992 -948 0
345 -116 -690 -843 0
15 -504 0
451 -177 0
753 -523 -137 -710 0
-800 -792 -864 0
-16 -154 -589 0
-476 -514 -218 0
795 -604 0
687 -293 -360 0
102 -703 -776 -208 0
-491 -438 -266 -166 0
325 -550 -504 0
264 -707 -529 -997 0
812 -278 -737 -720 0
518 -773 -953 0
981 -616 -711 0
225 -747 -8 0
848 -655 -663 0
186 -990 -453 -431 0
874 -957 -693 0
729 -496 -904 -427 0
500 -40 -389 0
998 -5 0
547 -561 -851 0
246 -509 0
706 -58 0
558 -314 -481 -304 0
386 -253 -472 -918 0
-946 -329 0
601 -578 -526 -17 0
23 -698 -363 -624 0
382 -164 -120 -241 0
944 -949 0
366 -566 -188 -245 0
8 -126 -829 -649 0
354 -880 0
63 -704 -861 0
-472 -636 -876 -629 0
850 -852 -578 0
-498 -11 -886 -479 0
-533 -11 -66 -123 0
583 -323 0
355 -899 0
328 -780 0
-863 -945 0
714 -67 -728 -2 0
112 -395 -954 -1 0
-684 -363 -854 -33 0
729 -652 -528 -83 0
-287 -682 -368 0
-194 -20 0
-839 -201 -867 0
96 -528 -40 -803 0
-230 -400 -442 0
923 -112 -567 0
125 -9 -756 0
23 -586 -732 -73 0
-979 -379 -668 0
975 -117 0
-829 -641 -689 0
-164 -251 -924 -990 0
200 -808 -732 0
175 -814 -584 -2 0
-134 -166 -924 -766 0
845 -699 -449 0
609 -2 -261 0
320 -887 -388 -880 0
821 -723 -755 -44 0
926 -611 -258 -150 0
-257 -120 0
327 -40 -117 0
932 -668 -893 -255 0
767 -287 0
362 -801 0
-339 -860 -238 0
-782 -582 0
173 -326 -437 -122 0
-208 -713 -361 0
-132 -657 -429 -468 0
-676 -685 0
-33 -157 -19 -238 0
561 -4 -142 -591 0
-463 -430 -747 -395 0
407 -297 -170 0
301 -644 -849 0
-513 -765 -312 0
808 -528 -536 0
-182 -847 0
-711 -938 0
917 -98 -697 -483 0
171 -272 -689 -526 0
-982 -400 0
867 -47 -879 0
-78 -181 -538 -846 0
935 -770 -592 -312 0
-179 -911 -347 0
811 -361 0
936 -861 0
370 -94 -722 0
146 -516 -446 -552 0
-888 -993 -401 0
194 -381 0
-285 -692 -571 -847 0
747 -238 0
669 -659 -402 -660 0
119 -197 -237 -774 0
454 -36 -148 -19 0
968 -927 -84 0
257 -834 -326 -988 0
756 -472 -720 -706 0
-878 -561 0
903 -895 -525 -884 0
-940 -739 -1000 0
-577 -955 -216 0
458 -251 -858 0
743 -825 -957 0
474 -72 -596 0
300 -664 -722 -441 0
277 -47 -357 0
-450 -216 -69 0
927 -912 -992 -362 0
241 -469 -203 0
668 -109 -754 0
87 -416 -545 -892 0
-194 -328 -318 -246 0
766 -294 -609 0
874 -976 0
172 -184 0
866 -485 0
-335 -170 -822 0
686 -606 0
483 -869 -185 0
1000 -774 -290 0
379 -393 -531 -86 0
681 -15 -830 0
-901 -676 -444 0
-588 -580 -755 0
315 -774 -23 0
358 -65 -650 0
779 -602 0
-217 -719 0
-586 -169 -825 -706 0
344 -198 -285 0
666 -508 0
407 -506 -935 0
822 -895 -222 -405 0
190 -243 0
-58 -597 0
390 -521 0
326 -134 -715 -955 0
398 -792 -458 0
-154 -374 -449 -889 0
-539 -625 -704 0
295 -950 -765 -646 0
-501 -891 -375 -723 0
630 -606 -437 0
-711 -667 -59 0
418 -177 -446 0
-610 -14 -89 0
534 -808 -261 0
906 -763 -436 0
-823 -679 -497 0
499 -526 -775 -146 0
345 -700 -271 -355 0
14 -600 -197 0
387 -72 0
-922 -569 -932 0
497 -921 0
500 -441 0
939 -690 -706 0
945 -317 -227 0
351 -965 -117 -653 0
885 -890 0
541 -907 -155 -88 0
-418 -270 -820 -249 0
-415 -975 0
219 -646 -454 -127 0
980 -470 0
-945 -792 -13 0
-838 -590 -556 0
574 -696 -487 -834 0
597 -283 -519 -362 0
26 -254 -130 0
926 -551 -765 0
646 -735 0
-936 -668 -590 -621 0
-711 -158 -169 -842 0
398 -739 0
895 -200 0
303 -595 0
451 -404 0
274 -776 -44 -348 0
360 -970 -271 0
86 -569 0
7 -332 -106 -913 0
362 -449 -954 0
100 -480 -900 0
183 -547 0
-368 -573 -40 -821 0
-306 -241 0
-378 -451 -506 -880 0
538 -970 -886 0
-540 -557 -414 -862 0
-245 -915 -534 0
282 -825 -541 0
938 -731 -123 -533 0
74 -646 -492 0
549 -690 -117 -263 0
552 -727 -908 -997 0
416 -121 0
464 -382 -265 -199 0
-897 -250 -144 0
-209 -506 0
520 -604 -234 -579 0
656 -91 0
262 -641 -703 -751 0
873 -716 -227 -579 0
453 -639 -606 0
33 -701 0
667 -142 -335 0
43 -303 -454 0
196 -559 -778 0
632 -905 -213 0
-352 -111 0
705 -687 0
29 -463 0
90 -317 0
-986 -710 -384 0
381 -198 0
-172 -423 -864 -121 0
154 -643 -815 -264 0
417 -29 -877 -879 0
389 -707 -89 -667 0
-531 -945 -285 0
-563 -915 -693 -206 0
566 -461 -686 0
837 -947 -719 -769 0
-962 -405 -415 0
404 -303 -646 -124 0
999 -613 -660 0
40 -548 -404 -330 0
36 -124 -724 -63 0
133 -926 -866 -779 0
653 -513 -613 0
825 -725 0
155 -414 0
392 -705 -324 -400 0
417 -769 -839 -39 0
586 -515 -153 -723 0
498 -382 -415 0
238 -149 -439 -888 0
25 -732 -677 -938 0
-177 -578 -701 0
183 -132 0
467 -271 -639 -933 0
295 -818 -880 -114 0
196 -659 0
26 -881 0
549 -572 -761 -63 0
-446 -83 -996 -975 0
867 -368 -410 0
587 -633 -306 0
354 -510 -661 -971 0
-980 -429 -250 0
60 -833 -254 -709 0
-188 -536 -981 0
146 -102 0
-655 -844 0
-280 -835 -24 0
566 -5 0
942 -644 0
-776 -825 -840 -834 0
-540 -51 -382 -488 0
574 -697 -577 0
-62 -65 0
-441 -55 -96 0
-679 -205 -44 -712 0
488 -759 -464 -66 0
-295 -488 -998 0
213 -352 -651 0
460 -150 -780 -213 0
885 -988 0
119 -5 -756 0
959 -282 -104 -375 0
364 -67 -569 -329 0
-149 -401 0
-545 -683 -528 0
657 -323 -341 0
-452 -338 -644 0
-500 -686 0
-924 -558 0
-403 -268 0
407 -310 0
791 -860 -136 0
782 -787 -954 0
-934 -52 0
556 -566 0
340 -325 0
-884 -238 0
374 -80 0
-283 -795 -429 0
-39 -32 -66 -508 0
813 -337 -262 -321 0
464 -391 0
863 -949 0
843 -142 0
930 -795 -669 0
935 -226 -415 -233 0
801 -365 0
508 -127 -438 0
-375 -525 0
-967 -419 -987 -770 0
439 -437 0
309 -197 0
448 -526 -893 -456 0
-163 -560 0
971 -636 0
425 -727 -429 -241 0
-564 -479 -201 0
-273 -977 -897 0
225 -967 -798 -714 0
786 -242 -573 -426 0
665 -325 0
215 -95 -642 -188 0
780 -753 -123 -455 0
-551 -63 -174 0
972 -204 -109 0
-638 -229 -673 0
827 -511 0
920 -241 0
539 -153 -193 -416 0
833 -673 0
-661 -17 -691 -614 0
72 -651 0
-667 -178 -260 -9 0
938 -443 -108 0
-171 -207 -472 0
592 -476 0
139 -278 0
665 -99 -382 0
234 -515 -962 0
523 -456 -467 -23 0
146 -925 -357 0
97 -600 -347 0
849 -679 -620 0
130 -259 -772 0
736 -888 0
647 -584 -258 -156 0
712 -93 0
141 -233 -998 -556 0
324 -640 0
-610 -550 0
-665 -24 -568 0
468 -314 0
865 -854 -79 0
757 -174 -42 0
-297 -890 -619 0
285 -423 -542 0
352 -863 -318 0
854 -914 -604 0
400 -22 -579 0
514 -917 0
592 -34 -167 0
979 -726 0
-153 -158 0
-557 -118 -484 0
451 -183 0
-37 -111 -660 -17 0
47 -564 -503 0
358 -171 -604 0
899 -178 -439 -692 0
736 -894 0
223 -286 -248 0
453 -663 0
826 -404 0
-557 -988 -706 0
175 -119 -769 -933 0
-244 -98 -838 -931 0
801 -350 -727 0
998 -584 -619 -291 0
-309 -624 0
335 -790 -697 -938 0
871 -171 -661 0
30 -143 -977 0
196 -170 -476 -823 0
548 -709 0
-800 -9 0
-952 -783 -183 -75 0
-646 -271 -227 -798 0
-982 -741 0
-805 -575 0
481 -759 0
905 -365 -601 -211 0
74 -36 -33 -318 0
-269 -298 -143 -7 0
115 -485 -704 -117 0
20 -963 -271 -736 0
683 -862 -853 -847 0
-686 -478 0
454 -89 -946 0
-568 -91 -45 0
741 -696 -45 0
896 -794 -56 -855 0
780 -448 -16 0
790 -965 0
391 -317 0
407 -584 -251 -11 0
876 -911 -878 -485 0
480 -990 -567 0
38 -832 0
875 -499 0
-112 -911 0
852 -281 -168 0
-635 -958 -131 -432 0
438 -775 -379 -884 0
505 -358 -371 0
461 -660 -172 -580 0
764 -129 -339 -185 0
-820 -799 0
-358 -732 0
811 -659 -824 -233 0
163 -502 0
736 -607 -895 0
421 -336 0
-985 -53 0
257 -602 -887 0
-168 -506 0
-355 -593 -341 -685 0
199 -761 -584 0
-898 -572 0
922 -231 0
417 -182 -327 -927 0
392 -63 0
475 -959 -247 -801 0
748 -207 -995 0
540 -756 0
781 -751 -778 -43 0
486 -88 -773 0
194 -789 -263 -747 0
331 -146 0
911 -468 0
187 -16 -516 -229 0
-968 -896 -18 -459 0
309 -924 -381 -998 0
802 -579 0
999 -205 -521 -522 0
653 -82 -818 -288 0
-369 -945 -373 0
459 -319 -741 0
74 -923 -664 0
30 -5 -786 0
295 -171 -808 0
78 -245 -446 -49 0
434 -158 -311 -835 0
-428 -362 0
284 -253 -317 -512 0
-993 -66 -271 -536 0
155 -291 -826 0
-766 -291 -535 0
952 -993 -477 -472 0
311 -182 -610 0
534 -358 0
-846 -454 -747 -330 0
224 -457 -386 -877 0
650 -614 -580 0
331 -392 -254 0
-613 -599 -976 -375 0
258 -866 -220 0
709 -966 -578 -712 0
120 -560 0
565 -47 0
551 -8 -23 -228 0
734 -635 0
956 -927 -705 0
-510 -53 0
665 -730 -999 0
945 -925 -265 0
555 -477 -120 0
251 -312 -699 0
-374 -210 -837 0
418 -990 -39 0
-410 -226 0
144 -890 -525 -500 0
12 -649 -428 0
969 -421 -772 -983 0
824 -408 -816 0
740 -582 0
-44 -143 0
137 -997 0
-80 -683 -526 -215 0
132 -440 -681 0
596 -281 0
7 -325 -384 -48 0
247 -514 -947 0
-350 -618 0
-980 -623 -30 -832 0
-547 -567 0
394 -540 -615 0
-314 -901 0
563 -154 -211 0
-441 -353 -807 0
-154 -632 -937 -916 0
-162 -787 -775 -181 0
-495 -90 -773 -116 0
749 -109 -982 0
924 -798 -273 0
463 -431 0
149 -354 -930 0
842 -727 -602 -958 0
-405 -178 -764 -838 0
473 -387 0
135 -417 0
659 -340 0
-17 -509 -386 0
269 -575 -723 0
352 -364 -535 0
797 -61 -902 -55 0
794 -731 -560 -502 0
-373 -997 -580 0
650 -700 -651 0
556 -701 -855 -914 0
-405 -397 0
736 -246 -182 -436 0
325 -468 -264 0
132 -410 -487 -451 0
312 -407 0
309 -414 0
-906 -965 -855 0
935 -811 0
60 -991 -655 0
281 -260 0
-109 -579 -211 0
-435 -552 -600 -430 0
495 -160 -278 -460 0
984 -24 -788 0
989 -813 0
315 -215 -143 -503 0
17 -333 -710 -47 0
402 -442 0
801 -741 -125 0
604 -132 -959 -264 0
-438 -584 0
-554 -45 0
992 -725 -715 -938 0
-880 -207 -231 0
17 -820 -48 0
-3 -449 -84 0
-458 -55 -589 -461 0
145 -854 0
190 -200 0
381 -23 0
-515 -499 -204 -762 0
-805 -175 0
229 -977 -374 -47 0
615 -676 -497 -107 0
-638 -215 -405 -250 0
769 -220 0
-134 -919 -352 -516 0
774 -261 0
-643 -17 -794 -672 0
175 -11 -861 0
725 -57 -95 0
460 -246 -469 0
239 -592 -935 -970 0
182 -260 0
317 -525 -206 0
587 -568 -864 -328 0
858 -586 -740 0
531 -828 -743 0
382 -97 0
526 -477 -458 0
178 -356 -749 -449 0
461 -135 -36 -29 0
96 -413 -958 -606 0
-719 -726 -620 0
663 -400 -268 0
146 -127 -125 0
327 -587 -399 0
-934 -924 -975 0
998 -699 -853 -143 0
-831 -839 -958 0
488 -390 -557 -336 0
741 -730 -329 0
439 -132 -251 0
-203 -973 -363 -983 0
611 -789 -857 -21 0
420 -442 -993 0
671 -74 0
727 -613 0
399 -802 -43 -197 0
465 -792 -666 -922 0
685 -651 0
934 -262 0
576 -198 -829 0
123 -1000 0
106 -715 -459 -794 0
785 -37 0
538 -533 -850 0
730 -667 0
593 -946 -238 -126 0
-971 -667 0
22 -514 0
-436 -952 -519 -573 0
885 -758 -204 -486 0
841 -569 -665 -124 0
470 -191 0
137 -543 -289 -645 0
444 -139 -473 -316 0
349 -463 -117 -337 0
614 -246 -487 -137 0
87 -198 -67 0
-992 -479 -577 0
920 -872 -573 -632 0
510 -218 0
198 -63 0
524 -933 -256 -201 0
407 -275 0
-416 -598 -108 0
390 -782 -617 0
503 -722 -596 0
-779 -772 0
39 -726 0
780 -543 -386 -424 0
-329 -713 -503 -449 0
783 -25 -560 -207 0
-387 -861 0
101 -597 -802 -842 0
534 -832 -879 0
846 -189 -118 0
258 -271 -858 -836 0
-340 -126 0
226 -319 -514 0
-314 -971 -343 0
-275 -495 -101 0
458 -377 -138 0
571 -236 0
614 -723 0
97 -756 -552 0
398 -251 -116 -942 0
906 -350 0
-379 -535 -517 0
501 -970 -827 -449 0
-439 -966 -944 0
194 -152 -263 -742 0
291 -808 0
-464 -518 -937 0
159 -623 0
-566 -234 0
-440 -159 -508 -595 0
49 -506 -792 -220 0
366 -499 -543 0
934 -637 -532 0
921 -106 -913 -154 0
-652 -638 0
898 -965 -109 -473 0
596 -558 0
972 -590 0
491 -124 0
751 -954 -628 0
978 -822 0
-482 -583 -253 -652 0
196 -465 -367 0
-81 -489 -58 0
711 -134 -144 0
690 -973 -283 -873 0
746 -120 0
716 -89 -771 -398 0
920 -111 -657 -439 0
-205 -345 -742 -295 0
835 -773 0
-189 -968 0
-830 -966 0
127 -998 -507 -336 0
-383 -830 -759 0
965 -920 0
-958 -831 -270 0
-978 -836 -140 -19 0
715 -406 -429 0
173 -585 -548 0
-832 -804 -706 -892 0
210 -937 -63 0
366 -945 -94 0
399 -376 0
896 -103 -134 -420 0
197 -572 -563 -611 0
-770 -68 0
989 -367 -238 0
623 -898 0
-56 -924 -708 0
76 -551 -640 0
-962 -482 -889 -778 0
807 -920 -771 -688 0
223 -354 -937 -461 0
-351 -889 -539 -369 0
773 -198 -267 -586 0
455 -157 0
472 -921 -789 0
954 -399 -902 0
430 -860 -123 0
362 -346 0
-854 -695 -528 0
-71 -162 -730 -877 0
694 -699 -810 -996 0
60 -262 0
714 -334 -488 0
-1 -825 -120 -965 0
-419 -220 -686 -49 0
862 -755 0
-934 -682 -838 -790 0
-350 -392 -34 -828 0
-277 -566 0
-522 -156 -636 -719 0
992 -315 0
598 -201 0
-504 -945 -121 0
-572 -12 -276 0
294 -156 -847 0
-751 -98 -881 0
500 -524 -505 0
-726 -355 0
663 -919 -41 0
605 -793 0
829 -216 -930 -674 0
971 -508 -277 0
276 -410 0
-944 -98 -599 0
-415 -1000 -254 0
508 -262 -260 0
814 -916 -620 0
986 -665 -46 -797 0
213 -720 -923 0
-249 -626 -829 0
320 -882 -429 -966 0
-945 -564 -896 0
910 -791 -852 -972 0
-688 -58 0
-195 -749 0
208 -822 -854 0
244 -22 0
540 -709 -191 -421 0
87 -480 -476 -784 0
761 -821 -837 -994 0
787 -455 0
682 -700 0
-607 -550 0
977 -829 0
300 -916 -186 0
-476 -412 0
218 -278 -288 0
182 -740 -353 0
667 -333 -755 0
-109 -225 0
-969 -961 -592 0
158 -222 -131 0
-215 -228 0
-73 -223 -357 -764 0
859 -661 -47 -436 0
831 -635 0
-76 -847 -22 -832 0
175 -967 0
168 -43 -40 0
917 -808 0
949 -462 -953 -39 0
20 -406 0
-581 -956 -484 0
208 -235 -58 -987 0
817 -392 -541 -178 0
705 -776 -547 0
-756 -450 -738 -251 0
186 -408 -469 -757 0
177 -954 -760 0
969 -137 0
681 -547 0
755 -532 -732 0
-562 -605 -969 0
179 -391 -215 -934 0
154 -963 -438 -49 0
638 -96 0
499 -476 0
-997 -303 -407 0
450 -665 -968 0
226 -440 0
900 -77 0
340 -113 0
410 -944 -670 -367 0
535 -335 -347 -911 0
415 -366 0
-155 -225 0
-53 -37 -683 -402 0
21 -579 -624 -925 0
-185 -968 -661 -554 0
603 -210 -869 -396 0
-637 -645 -849 -714 0
614 -424 0
683 -214 0
978 -34 0
896 -465 -830 -478 0
480 -989 -51 -772 0
751 -645 -45 0
143 -333 0
-48 -201 -506 0
-375 -397 -978 0
-198 -17 0
177 -929 -813 -293 0
917 -145 -341 0
670 -104 0
897 -534 -290 0
742 -825 -199 0
922 -67 -40 0
403 -684 -42 -555 0
33 -787 0
-139 -634 0
595 -653 -163 0
653 -881 -502 0
558 -575 -705 -99 0
813 -580 -841 -194 0
908 -603 0
40 -546 -544 -709 0
794 -405 -912 0
-701 -25 0
695 -490 0
563 -444 -812 -860 0
345 -745 -224 0
248 -975 -488 -755 0
349 -653 -56 -339 0
889 -855 0
906 -266 -784 -216 0
255 -67 -764 -43 0
622 -713 -467 0
715 -195 -717 -953 0
-188 -510 -209 0
846 -647 -607 0
287 -380 -861 0
-239 -523 -791 -307 0
721 -487 0
218 -78 -357 0
911 -138 -965 -107 0
452 -524 -34 -551 0
-14 -714 0
56 -425 -957 0
403 -861 -105 0
-811 -549 -69 -607 0
-692 -134 0
455 -791 -700 0
214 -470 -119 0
686 -128 -984 0
224 -86 0
-994 -614 -936 0
77 -799 0
-803 -164 -333 0
745 -109 0
787 -771 0
857 -359 0
636 -368 -350 -613 0
-694 -207 -466 -946 0
-591 -706 -852 -718 0
652 -200 -373 -87 0
747 -470 -469 -387 0
895 -767 -194 0
826 -445 -754 -655 0
51 -231 -257 0
230 -926 -990 -510 0
-175 -250 -83 0
198 -76 -708 0
259 -981 0
993 -171 -405 0
-596 -696 -169 -665 0
297 -446 0
609 -685 -524 0
-607 -662 0
-519 -974 -194 -467 0
213 -495 -751 0
22 -189 0
176 -487 -810 0
500 -946 0
549 -763 -985 -816 0
945 -136 -994 -892 0
212 -562 0
-1000 -969 -540 0
169 -923 0
-913 -859 -238 0
302 -654 -427 -344 0
-515 -506 0
992 -925 -528 0
802 -441 -291 0
-452 -896 -687 0
184 -86 -17 -36 0
520 -412 -865 0
-176 -6 0
-861 -80 0
-181 -256 -467 -627 0
384 -425 -732 -350 0
841 -576 0
448 -198 -240 -32 0
638 -863 -931 -358 0
922 -754 0
-368 -643 0
509 -485 -73 0
642 -491 -606 -94 0
713 -728 -529 0
672 -333 -821 -111 0
341 -129 -4 0
886 -126 0
181 -508 -733 -297 0
923 -699 -380 -720 0
71 -656 -531 -556 0
821 -816 -36 0
-994 -758 -463 0
92 -922 -545 -369 0
-398 -549 0
-133 -607 -322 0
413 -556 -310 -807 0
-996 -816 -243 0
-213 -800 -16 -61 0
-180 -497 -353 0
-958 -444 -25 -644 0
606 -93 -715 -732 0
-321 -588 0
354 -15 -492 0
657 -247 -536 0
508 -772 -910 0
387 -391 -200 -490 0
-470 -180 -250 -321 0
496 -103 0
-767 -400 0
-31 -937 -75 0
-180 -198 0
208 -943 -719 0
-149 -36 0
298 -19 -652 0
291 -15 -163 0
-633 -509 0
-817 -987 -370 -396 0
77 -423 -354 0
-950 -502 -464 0
65 -406 -477 -16 0
-213 -594 -454 0
687 -944 -482 -857 0
-447 -596 0
238 -503 -470 -203 0
282 -197 0
976 -759 -288 -794 0
67 -648 -585 0
696 -602 -541 0
-360 -194 -832 -800 0
518 -749 -397 0
230 -732 0
-413 -203 -109 0
306 -551 -7 0
154 -873 -895 0
-522 -558 -491 0
106 -729 -905 0
915 -264 0
-93 -632 -906 0
-470 -778 -674 0
-114 -113 0
438 -910 -470 0
430 -962 0
540 -446 0
-15 -861 -178 -265 0
23 -932 -601 -970 0
-607 -487 -667 -294 0
170 -460 0
176 -792 -540 -236 0
580 -843 -751 0
793 -807 -609 0
495 -636 -34 -684 0
-582 -186 -955 0
630 -203 0
-643 -329 -803 -366 0
597 -986 -618 0
-325 -278 0
282 -907 -832 0
590 -911 -810 -257 0
662 -735 0
-148 -934 -796 -524 0
210 -986 -940 -658 0
569 -217 0
892 -545 0
331 -792 -460 0
976 -371 -343 -91 0
535 -750 0
164 -473 0
429 -418 0
687 -332 0
-984 -597 0
580 -850 -171 0
882 -354 -900 -95 0
435 -144 -16 0
-173 -553 -584 0
525 -504 -940 0
699 -62 -983 0
-336 -202 -401 -937 0
-111 -837 -967 -166 0
21 -449 0
-777 -973 0
-57 -932 -562 -758 0
-219 -157 -944 -78 0
305 -425 -136 -455 0
770 -96 0
-806 -827 -245 0
387 -290 0
735 -817 -374 -128 0
-795 -134 0
533 -941 0
-508 -933 0
648 -116 0
468 -984 -788 -54 0
251 -594 -988 0
-692 -728 -251 0
984 -704 -582 -595 0
-407 -175 0
677 -708 -622 -494 0
973 -779 -663 0
909 -343 -244 0
462 -311 -7 0
-1000 -463 -350 0
820 -805 -626 -908 0
-554 -725 -936 0
-257 -380 0
-898 -880 0
969 -796 -817 0
-224 -513 -32 -571 0
803 -414 -616 -693 0
-641 -660 -464 -260 0
-858 -404 -781 0
701 -470 -127 0
860 -787 0
551 -779 0
-674 -974 -693 -187 0
371 -421 0
-249 -443 -339 -80 0
-759 -159 -698 0
-465 -193 -879 0
687 -226 -568 -320 0
-281 -254 0
494 -187 -881 -635 0
215 -443 0
336 -554 -13 0
-631 -957 -490 -787 0
511 -670 -532 0
517 -741 -483 -110 0
937 -304 0
897 -608 -358 0
640 -400 -21 0
769 -6 -541 -884 0
273 -411 -368 -645 0
474 -414 0
188 -289 0
-993 -559 -63 0
-399 -672 -693 0
733 -688 -832 -670 0
437 -194 -628 -567 0
391 -517 0
-341 -352 0
646 -851 -253 0
819 -34 -665 -898 0
282 -353 -645 0
558 -682 -812 -900 0
-831 -386 -856 0
506 -266 -118 0
889 -313 0
984 -190 -196 -691 0
791 -912 0
-236 -361 -446 0
-869 -189 0
-74 -297 -882 -404 0
684 -356 -451 -747 0
495 -238 0
-725 -490 0
-824 -732 -155 0
137 -141 -110 0
176 -179 -223 -74 0
-298 -948 -697 0
-773 -939 -394 -982 0
