c Horn formula (polynomial-time solvable)
c 2000 variables, 5000 clauses
p cnf 2000 5000
-716 -342 0
395 -1604 -1183 0
805 -947 -171 0
-724 -1403 0
1648 -1831 -590 -863 0
1846 -838 -1954 -365 0
-1993 -646 -888 0
-429 -910 0
896 -573 0
647 -1112 0
283 -718 -1701 0
-405 -403 -298 -1483 0
1856 -359 0
1757 -1777 -1931 0
1570 -1595 -100 0
663 -1762 -1204 0
-161 -265 -1740 -1515 0
205 -788 0
1486 -689 -141 -1813 0
471 -103 -1308 -1896 0
-388 -706 -248 -1875 0
405 -260 -1845 0
581 -723 -200 0
1741 -465 0
165 -379 -1669 0
942 -1135 -1494 -1452 0
272 -207 -368 0
-271 -1062 -1395 -1730 0
-406 -770 -195 0
-862 -865 -305 -516 0
441 -1408 -949 -939 0
1227 -630 -826 0
213 -1022 -474 0
786 -1655 -1061 0
1186 -812 -1975 0
266 -1995 -908 -119 0
1082 -1960 -847 -1341 0
421 -612 -942 0
544 -61 -1764 0
1713 -609 -726 -656 0
1873 -627 0
1406 -886 0
1315 -541 -1864 0
1415 -1960 0
1766 -1101 -947 -943 0
839 -339 -295 0
1674 -478 -1025 -675 0
1378 -269 -357 0
1577 -1255 -276 0
-1795 -45 -1023 0
330 -1275 -749 0
1655 -1883 -1384 0
-100 -445 -674 -994 0
-1303 -682 0
1084 -1098 -498 0
-296 -1811 -1754 -125 0
1324 -264 -1470 0
1526 -1983 -181 -1844 0
-1975 -421 0
715 -1839 0
-432 -1525 -1728 -868 0
1478 -1215 -716 -947 0
1473 -1111 -1451 0
589 -1385 0
634 -1186 -1603 -318 0
213 -482 0
1371 -589 -146 -628 0
1103 -1966 0
1333 -1663 0
-1174 -605 0
1485 -1556 -1039 -1929 0
1886 -503 0
451 -684 0
396 -1288 -1597 -238 0
739 -715 -999 0
1342 -1427 -1641 -123 0
869 -1038 -38 0
1368 -392 -79 0
-1144 -115 -1552 -1269 0
1304 -1377 0
-1914 -1740 -750 -158 0
489 -1519 -725 -980 0
1057 -1694 0
1605 -241 -1362 -1393 0
701 -1141 -752 0
430 -301 0
-114 -405 0
-235 -890 0
13 -1634 -605 -245 0
1580 -370 -737 0
361 -1383 -96 0
453 -1823 -813 0
182 -1767 -219 0
-857 -25 -558 0
757 -840 0
1943 -1590 0
572 -518 0
1315 -691 0
820 -490 0
1270 -1009 -651 -470 0
-249 -1110 -1703 0
1265 -987 -1493 -199 0
-922 -1236 -351 0
426 -1911 -461 -1973 0
131 -1308 -142 -1967 0
212 -1570 -202 -1910 0
-1545 -33 0
1725 -1455 -897 -1808 0
-765 -1806 -1550 0
-291 -203 -431 0
965 -946 0
1114 -1689 -1272 -1930 0
-790 -521 -867 0
1596 -879 -551 0
-381 -71 -630 -427 0
1720 -1287 -1683 -1400 0
-708 -1360 0
544 -1982 -1942 -1225 0
624 -828 0
1168 -620 -1365 0
-297 -857 -1135 0
583 -1689 -1074 0
1392 -642 -98 0
-1580 -1327 -963 0
-1550 -1124 -1643 0
228 -1146 0
-1541 -1809 0
1153 -879 -464 0
1261 -1084 -251 0
-1156 -763 0
253 -1210 -392 0
1361 -1915 0
1694 -499 -1915 -1816 0
863 -837 -1994 0
1040 -1293 -1580 -210 0
88 -1525 -604 0
1582 -976 -519 0
-1039 -102 -950 -149 0
-759 -34 0
375 -1533 -606 0
130 -1597 0
1552 -441 -259 0
99 -122 0
-130 -364 0
533 -602 0
1274 -1592 0
-1241 -701 0
600 -1705 -551 0
-480 -835 0
1027 -531 -1755 0
1634 -1877 -1649 0
935 -434 -224 -1035 0
84 -638 0
1663 -927 -1882 -1451 0
-463 -220 0
77 -1474 -369 -947 0
798 -976 0
970 -1677 -1345 -389 0
-900 -859 -545 -1956 0
202 -784 -720 -504 0
-1802 -785 -820 0
1607 -731 -1550 0
71 -1505 -1466 -447 0
651 -1628 -694 0
1539 -325 0
-1696 -1653 -941 0
1382 -735 0
1455 -1426 -1556 0
512 -1110 -1350 -1638 0
843 -1755 -1994 0
696 -275 -267 -746 0
1309 -282 -1665 0
763 -1411 -1733 -530 0
1985 -73 -196 0
1809 -524 0
-735 -1848 -1947 0
-1604 -5 -1837 0
1518 -9 0
1892 -1042 -520 -901 0
-1846 -1490 -1437 -1512 0
70 -1837 -1585 -1152 0
139 -1516 -769 0
1089 -1312 0
670 -1185 -1445 -273 0
1492 -1931 -809 0
-1375 -1870 -453 0
-1081 -893 -1317 -851 0
29 -1730 -644 0
1518 -1487 0
1264 -946 -853 -1808 0
1913 -1336 -48 0
1806 -1479 0
205 -1584 -992 0
14 -37 0
1001 -812 0
-1179 -22 -1098 0
944 -748 0
111 -1832 -1312 0
-260 -1909 -1075 -1900 0
147 -267 -57 0
1120 -339 0
290 -104 0
1615 -60 -1037 -923 0
-1038 -1093 0
-1883 -1211 -422 0
-1165 -1321 -745 0
1438 -1654 -1985 0
432 -862 -691 -1325 0
202 -1044 -1774 0
-1719 -1696 -104 -97 0
859 -199 -687 -1272 0
845 -1287 -714 -94 0
837 -1860 0
411 -775 -1490 -319 0
156 -1204 -267 -103 0
1758 -902 -806 -687 0
136 -430 -691 -1523 0
690 -934 -217 0
824 -728 0
1945 -269 -1836 0
-1973 -1057 -230 -1224 0
923 -221 -952 -771 0
-118 -1919 -1580 0
550 -144 0
1692 -281 -1705 -752 0
964 -1031 -617 -1254 0
1021 -462 0
201 -1487 0
511 -630 -76 -1639 0
-1404 -882 -1592 0
-1669 -1383 0
-1357 -1309 -1982 0
418 -496 -97 0
1121 -468 -237 -1200 0
673 -1191 -1126 -1781 0
-417 -1655 0
965 -888 -1020 -1145 0
95 -1955 0
865 -326 -170 0
-141 -1056 -1849 0
592 -1064 -1878 0
42 -54 -463 -483 0
1539 -153 -1565 0
-1729 -1338 -1662 -1394 0
-207 -1725 -1070 -1965 0
1302 -383 0
1916 -1064 -1604 0
-1321 -335 0
535 -198 -926 0
1544 -943 0
310 -95 -663 0
1744 -980 -924 0
-1946 -1886 0
1331 -924 -1079 0
-526 -1298 -739 0
683 -1568 -1349 0
1215 -309 0
1449 -1467 0
779 -1200 -1024 0
204 -999 -739 0
316 -1323 -654 -302 0
-176 -1589 -288 -591 0
1518 -1947 -889 -398 0
-771 -973 -788 0
1677 -2 -608 -459 0
1152 -12 0
-1446 -1567 -673 -1009 0
1524 -1774 -697 0
-439 -1529 -854 -642 0
817 -1189 -105 -1802 0
-652 -485 -1905 -650 0
-995 -849 -820 -1440 0
1416 -1349 -893 -854 0
1970 -105 0
1910 -326 -1498 0
1230 -1688 -1243 0
326 -472 -890 0
-1682 -682 -337 -914 0
467 -76 -479 0
1849 -1354 0
-767 -695 0
1399 -1934 0
-519 -801 -510 0
1415 -150 -1490 -1795 0
37 -1366 -1802 0
1271 -1023 -1693 -1155 0
746 -624 -844 -286 0
1882 -1349 0
-974 -814 -1468 0
25 -694 -1413 0
327 -610 -771 -530 0
63 -1209 0
1863 -962 0
-1972 -804 -731 0
1167 -1696 0
49 -591 -72 0
-203 -981 -516 -1940 0
1378 -970 0
-479 -631 -379 0
-1709 -1053 -1381 0
48 -1762 -1861 0
-657 -578 -392 0
447 -1045 0
83 -517 0
1222 -948 0
1513 -172 -1011 0
-1309 -1830 0
674 -1074 -9 0
652 -1348 -668 0
-1885 -411 -1658 0
1794 -1925 0
-1040 -1357 -1630 0
41 -1312 0
-1767 -658 0
1418 -1540 -1717 0
-554 -1627 -364 -98 0
-820 -331 -1762 0
4 -1180 0
-1076 -902 -1910 0
1136 -1804 -138 -964 0
264 -995 0
1548 -1079 -1144 -1805 0
812 -1160 0
277 -1644 -943 -720 0
1711 -193 -1002 0
143 -1177 0
-1076 -591 0
-1590 -1897 -115 0
1234 -1820 0
-1368 -594 -258 0
1579 -89 -80 0
-106 -1045 -1553 -1785 0
861 -862 -1917 -1749 0
-56 -1168 -890 -455 0
-1179 -1771 -664 0
1282 -1409 0
-1086 -1350 -1752 -1211 0
423 -425 -1629 -1513 0
361 -962 0
1964 -1227 0
1749 -872 -894 0
-1872 -1013 0
-1563 -1507 0
-967 -637 -252 -1157 0
-1374 -1745 -25 0
507 -1873 -655 0
1033 -1874 -688 0
280 -957 0
-601 -119 0
1616 -17 -914 0
1193 -66 -1621 -1409 0
-1758 -1371 -1985 0
1983 -436 -552 0
-1355 -1926 -1981 -122 0
1401 -842 -1203 0
113 -953 0
777 -450 -1208 0
1435 -277 -1918 -1114 0
1279 -1496 -337 -989 0
-84 -512 0
1758 -210 0
-691 -229 0
-1044 -156 -636 -587 0
433 -1750 -61 0
-1056 -29 0
1917 -168 -1380 0
-1065 -1452 0
1387 -338 -492 -1035 0
1487 -1941 -308 0
982 -969 -667 -1585 0
1510 -1924 -1776 -329 0
-1103 -1381 -1300 -1452 0
295 -1875 -1732 -901 0
-227 -571 0
628 -1671 -836 -1157 0
53 -1688 -137 -187 0
944 -1235 0
1880 -1766 0
1327 -568 -838 0
1125 -88 -607 -86 0
357 -1618 -212 -58 0
-608 -744 0
509 -500 0
1024 -1176 -430 0
-1042 -29 -679 -1165 0
1540 -402 0
832 -1780 -1808 -1777 0
678 -580 -762 0
1442 -1842 -1998 -605 0
1304 -1122 -1647 -281 0
1422 -1036 -402 -1657 0
1454 -1705 -135 0
912 -326 -143 0
1963 -1843 -961 0
994 -1345 0
643 -557 -1062 0
1189 -1119 0
-1656 -886 -1966 -1992 0
1662 -1471 -698 -1612 0
-935 -382 -1326 -1497 0
310 -1332 0
1834 -1070 0
597 -1607 -1 -658 0
-315 -185 0
-81 -685 -1913 -899 0
1954 -851 0
-25 -1249 -1225 0
-190 -340 -1711 0
-1156 -58 -1079 0
1764 -1276 -300 0
1529 -653 -1002 -1742 0
-1541 -1246 -1662 -622 0
-1962 -1939 0
1482 -1483 -228 -1133 0
975 -1856 -384 0
-1876 -265 -1661 -676 0
884 -1275 -232 0
948 -1912 -59 0
1323 -841 -150 0
118 -1719 -1134 0
941 -1489 -1874 -746 0
1552 -1290 -1931 -587 0
902 -1101 -213 -1346 0
1342 -1150 -205 -194 0
1733 -54 -1723 0
-1303 -237 0
-403 -1289 -331 -1006 0
1649 -770 -896 0
1842 -173 -684 0
1323 -860 -193 -1671 0
-1184 -1687 -1630 0
602 -1896 -746 -1719 0
1030 -1797 -1466 -365 0
-378 -571 -1554 0
1287 -400 -1994 -319 0
726 -1174 -170 0
1770 -1667 -381 -1861 0
109 -103 0
1023 -1881 -798 0
1645 -1471 0
983 -444 -655 0
-262 -77 -1920 0
358 -230 -219 -1896 0
694 -849 0
1733 -258 -583 0
1943 -1374 -269 0
842 -511 -1343 0
30 -1816 -1804 0
1497 -1793 -281 0
1066 -690 -1250 0
892 -1497 0
-1112 -1901 -607 -1233 0
1598 -803 -414 -1050 0
1694 -886 -1568 -94 0
-293 -826 -876 0
290 -407 -1589 -332 0
1683 -701 -495 0
690 -1196 -1575 0
850 -1097 -837 0
678 -1064 0
1390 -1124 -1046 0
-1971 -43 -112 0
-919 -384 -378 0
1226 -365 0
1679 -417 -713 0
1637 -579 0
572 -1821 -875 -1618 0
-1322 -1846 0
-1626 -508 -1519 -885 0
834 -40 -21 -1576 0
1862 -1056 0
-1836 -9 -525 0
-851 -961 0
390 -761 0
-860 -909 -280 0
652 -27 -722 0
1281 -451 0
-611 -729 -1146 0
876 -1817 -1655 0
-1536 -1162 -516 -1087 0
1452 -988 -911 -123 0
170 -349 0
1431 -462 0
410 -1280 -1060 0
-556 -733 -434 0
493 -1919 -1304 -1503 0
-287 -1691 -985 -902 0
178 -1134 0
1774 -1782 -1431 -1066 0
228 -546 -668 -1422 0
1791 -1153 0
-837 -951 0
958 -29 -598 0
1066 -842 -1648 0
-99 -1602 0
130 -1488 -1675 0
753 -889 -170 0
1798 -973 0
288 -424 0
623 -722 -1266 -1254 0
1393 -1490 -478 0
1919 -1218 0
154 -43 0
-1503 -246 0
1084 -535 -1534 0
-59 -1397 -247 0
-865 -520 -1388 0
269 -1505 -936 -980 0
561 -1925 -794 -448 0
-84 -820 -863 0
1800 -1788 0
-1790 -1424 0
489 -1514 0
-145 -378 0
1540 -1005 0
1235 -1207 -1754 0
1672 -602 0
-1575 -912 -849 0
1966 -119 -1493 -1775 0
-773 -720 -1236 0
-1387 -782 -85 -791 0
-1635 -1680 -822 0
778 -1014 -53 -1747 0
1380 -1090 -318 0
648 -1623 0
-1324 -1365 -1199 0
801 -100 -1031 0
865 -14 -721 -267 0
-1632 -730 -1167 0
-223 -126 -593 -1737 0
1328 -144 -925 0
-707 -1485 0
-637 -466 0
82 -411 -1966 0
1651 -380 -1484 -1226 0
268 -1335 -431 -1796 0
-1960 -1939 -1836 -1000 0
-1377 -1258 0
754 -461 -3 -1675 0
135 -501 -614 -840 0
180 -1488 -844 0
658 -773 -1065 -1320 0
1669 -1442 0
-440 -565 -130 0
1077 -1261 0
821 -894 -395 -1640 0
411 -546 -716 -786 0
1014 -405 -1378 -1817 0
1817 -94 -175 0
1438 -1316 0
1651 -1840 0
1434 -1912 -1070 0
1352 -570 -1329 -637 0
730 -199 -1778 0
-1952 -1764 -363 -368 0
395 -1065 0
178 -1768 0
-1371 -1935 0
486 -513 -237 -254 0
-1654 -1168 -235 0
1951 -758 -102 -198 0
-1663 -1179 0
714 -917 0
471 -512 0
939 -1277 0
-1369 -1577 -1046 -1492 0
1517 -278 -800 0
1217 -394 -1638 -624 0
1167 -1339 -1404 0
-1889 -1888 -723 -777 0
-827 -1767 -1468 0
254 -971 -172 -1372 0
111 -759 -1057 -1542 0
1252 -1070 -71 -1365 0
1047 -859 0
472 -1207 -145 0
881 -1765 -534 0
-1865 -571 -1672 -1096 0
1689 -1843 0
671 -1245 -972 0
1847 -906 -180 0
-1413 -83 0
99 -1575 0
-1202 -424 -397 0
180 -508 -1257 0
-752 -11 -1358 0
-199 -256 -1837 0
-1083 -1684 0
1347 -781 -1800 0
1921 -704 -1620 0
201 -1617 0
1371 -1424 -665 0
1598 -779 -894 -983 0
-638 -344 -205 0
1312 -83 -1762 -1185 0
1694 -965 -165 -1132 0
1435 -732 0
1059 -612 -538 0
671 -1303 0
-1288 -318 -1639 -1621 0
677 -411 -750 0
333 -39 0
149 -1344 -736 -1445 0
1760 -122 0
1922 -1451 -1135 -1200 0
1029 -653 -146 0
247 -455 -1985 0
689 -1489 -1574 0
943 -555 0
347 -608 0
1896 -1375 0
1871 -1702 0
-1670 -1323 0
-1805 -528 -1741 0
608 -475 -997 0
1225 -1844 -1101 -1801 0
729 -297 -667 0
-1604 -59 -427 0
989 -886 -1838 0
1700 -1470 0
1962 -324 0
-1749 -785 -474 -1708 0
239 -1825 -746 -5 0
1737 -612 -1157 0
761 -174 -208 0
240 -1635 0
1168 -819 -320 0
1559 -555 0
1061 -1482 -1409 -559 0
-240 -1194 -1877 -906 0
1734 -1156 -415 -16 0
-410 -1378 0
-1617 -1039 -1075 0
-1582 -1583 -1006 0
1141 -1722 -1114 0
708 -1361 -1315 0
366 -497 -418 -1173 0
538 -1038 -170 0
1420 -793 0
367 -482 -1926 -1059 0
235 -644 -330 -1437 0
-1106 -221 0
1371 -996 -341 0
1897 -467 -310 -1740 0
-157 -337 -851 -521 0
1556 -678 -1874 -1877 0
-657 -739 0
165 -1663 -1089 -1316 0
1315 -1791 -1205 0
161 -1721 -119 -1986 0
25 -269 -1026 -683 0
224 -1915 -1697 0
1402 -469 -15 0
610 -559 -1049 -427 0
773 -1410 -317 -389 0
43 -664 -67 0
1022 -1193 -501 0
-1516 -490 0
1936 -1739 -360 -1990 0
-183 -956 0
428 -244 -796 -1040 0
477 -638 -466 -740 0
1577 -334 -1610 -1821 0
1283 -1520 0
291 -1928 -1489 -1481 0
1219 -1873 0
1255 -1201 0
742 -949 -1101 -232 0
953 -1199 -1998 -1267 0
445 -899 -1406 -798 0
1527 -150 -894 0
-381 -1149 -756 0
1445 -1298 -775 -1015 0
1586 -1369 0
1420 -1955 -963 -1261 0
1154 -1738 -1785 -952 0
1286 -1028 0
554 -1119 -1370 -7 0
1996 -712 -711 -947 0
510 -1236 -695 0
92 -34 -1380 0
1868 -497 -1369 -160 0
1896 -1330 0
1189 -824 -750 0
-1487 -1289 -1670 0
1908 -769 -973 0
939 -1902 -1948 0
233 -835 0
-1541 -367 -906 -666 0
-302 -1187 0
1392 -1216 -1745 -1658 0
-1600 -1457 -1114 -1952 0
1559 -967 -995 -1793 0
998 -1038 -536 -118 0
1615 -1595 -1776 0
600 -906 0
724 -1792 -1989 -899 0
-1108 -1425 -958 -944 0
302 -1205 -475 -229 0
-934 -1039 -1170 0
632 -39 -1548 -586 0
1128 -318 -1892 0
253 -1082 0
1709 -1590 -356 -267 0
-1451 -1605 -533 0
447 -1613 -206 0
-484 -695 -1766 0
1491 -1780 0
599 -1558 -1171 0
1317 -810 -1979 -798 0
-34 -365 -1652 0
302 -1827 -1755 -1557 0
378 -1718 -414 -1977 0
-1700 -883 -328 -1664 0
-180 -1057 -120 0
1256 -927 0
1078 -782 -557 0
862 -364 -1875 -1343 0
233 -230 -1733 0
1647 -954 0
179 -1515 -1730 0
1421 -664 0
1426 -972 -882 -1116 0
-81 -1244 -1993 -1492 0
-1387 -1305 -1956 0
1870 -598 0
153 -392 -1392 0
385 -1953 -1640 -1705 0
357 -859 -694 -885 0
-1483 -672 0
834 -625 -1968 0
291 -716 0
1934 -1806 -307 -571 0
347 -507 -1178 -109 0
-1273 -1500 -548 0
741 -519 -778 0
1754 -724 0
580 -1258 0
473 -1668 0
1894 -1269 0
-1151 -1058 -1386 -324 0
1610 -808 -317 -1628 0
-389 -648 -529 0
1215 -123 -241 0
-1321 -846 -1312 -1065 0
1808 -744 -958 0
1873 -1196 0
-1704 -839 -110 -1245 0
-310 -212 0
-492 -1126 -1458 -1659 0
552 -883 -1412 -877 0
1189 -502 -1268 0
-614 -218 -209 -1914 0
1031 -1147 -1377 0
475 -305 0
-1666 -408 -1941 -1837 0
1203 -854 -960 0
1802 -84 -1991 0
-1713 -303 0
288 -1582 -459 -1806 0
1253 -1212 -1638 -626 0
1599 -548 0
588 -388 0
-756 -1640 0
514 -1773 0
1291 -762 0
766 -1582 -1085 -1249 0
311 -293 0
1417 -1136 0
1859 -588 -1443 -535 0
866 -1070 -1953 0
379 -991 0
663 -405 -1368 -1623 0
-1864 -1545 -336 0
-366 -1635 0
-1213 -884 -62 -1673 0
1495 -1816 -1883 0
1393 -335 -1612 -789 0
-248 -1684 0
1994 -1339 0
-1351 -1337 -1111 0
1245 -1808 0
1620 -776 0
954 -609 -1421 0
744 -993 -1230 -1980 0
171 -532 0
-248 -1920 0
457 -650 -578 -382 0
179 -665 0
617 -1983 -708 0
501 -834 -634 0
-432 -592 0
1413 -970 0
1215 -322 -98 -1162 0
-709 -1548 0
1815 -494 0
771 -759 -167 -1838 0
301 -168 -1978 0
1581 -815 -273 0
1284 -648 -547 0
1141 -1481 -1512 -685 0
986 -472 -1548 -511 0
1129 -1795 0
198 -1338 -214 -439 0
-172 -1850 0
917 -1061 -257 -854 0
1509 -1438 -992 -1464 0
-1290 -1717 -517 0
992 -117 -1510 -805 0
-1515 -1431 -1167 0
874 -1791 0
1528 -1458 -1588 0
-1960 -1479 -134 -1489 0
1886 -256 -78 0
618 -1327 -1928 -1856 0
-1236 -860 -708 -1753 0
-1424 -197 0
732 -1666 0
404 -1153 0
814 -942 -1891 0
573 -1885 -70 -1615 0
1743 -1140 -877 -368 0
-1190 -668 -1167 -1406 0
-187 -1385 0
962 -153 0
959 -961 -967 -1410 0
167 -795 -1885 0
504 -1433 -156 0
529 -207 -840 -657 0
734 -1048 0
65 -383 0
53 -1294 -1126 -1221 0
1047 -1767 0
-1267 -1150 -1014 -635 0
1834 -941 -1570 0
1035 -1301 -1065 0
1773 -700 -1861 0
-1869 -1144 -1454 -1269 0
-554 -610 0
-329 -1450 -584 -157 0
775 -1291 -1555 -1568 0
59 -1154 -310 0
1993 -1803 -1263 -1884 0
-945 -1133 -238 -1887 0
-572 -1923 -1739 0
1413 -413 -992 0
-899 -1866 -270 0
1781 -963 -887 0
332 -740 0
1011 -1321 0
1191 -91 -1061 -412 0
481 -223 -1119 0
927 -429 -1036 0
1898 -11 -1516 0
595 -588 -1062 0
10 -855 -525 0
570 -450 -1127 0
464 -1752 -887 0
1286 -1894 -1343 0
1190 -1250 0
-1512 -376 -1718 -851 0
559 -1440 -1213 0
-1018 -1318 -17 -307 0
831 -1551 -291 0
-477 -1404 0
1621 -136 0
-1389 -1297 -1756 0
1354 -981 0
-468 -1630 -574 0
957 -1024 -1268 0
986 -1776 0
198 -769 -304 0
1588 -1549 0
-1038 -1348 -426 -1699 0
-189 -1988 -1563 -1714 0
-757 -1204 -1814 -1130 0
244 -1598 0
-1529 -1559 -586 -731 0
-1904 -1907 -1947 0
-1279 -1386 -1916 0
-222 -24 -55 0
721 -1867 -1504 0
530 -722 -1314 0
-668 -409 -978 0
922 -1135 0
1741 -88 -1652 0
-689 -1433 -4 -1064 0
255 -696 0
-378 -482 0
1505 -1531 -1704 0
629 -1474 -1809 0
517 -790 -735 -1149 0
1215 -535 0
489 -1156 -858 0
1680 -1969 -261 -1028 0
131 -237 -766 0
1136 -690 -1590 -1322 0
1673 -278 -319 0
-1915 -1640 -751 0
-436 -798 -515 0
418 -1750 0
-125 -834 -459 -325 0
1335 -1895 0
1992 -1850 0
1713 -715 -624 0
248 -1836 0
1267 -67 -1869 0
239 -677 0
1111 -1354 0
-533 -88 0
1176 -990 -925 -619 0
-196 -907 -341 -1739 0
-1118 -487 -1053 0
1146 -1702 -1773 0
13 -203 -559 -1321 0
513 -598 -222 -462 0
1736 -284 -1351 0
-1399 -1823 0
671 -640 -873 0
625 -1662 -1546 0
865 -1092 -855 0
-132 -175 -1016 0
776 -94 -698 0
1244 -524 -140 -438 0
1186 -306 -847 0
-1531 -416 -233 0
-1104 -1642 0
-203 -681 0
-1697 -996 0
-333 -213 0
161 -1890 -231 -525 0
416 -200 -654 -716 0
1090 -403 -272 0
-1734 -316 0
1220 -1971 -1973 -1565 0
1785 -569 -1133 0
163 -1379 -774 -1303 0
712 -1738 -988 0
1058 -1399 0
1885 -1285 -1554 0
875 -1756 -265 -1087 0
-1187 -101 -637 0
1077 -1679 -255 0
412 -33 -54 -561 0
-1950 -811 -742 -1946 0
-131 -1104 -463 0
1421 -1636 0
25 -790 -188 0
1016 -1991 -1017 -133 0
1582 -1970 -1794 0
996 -666 -850 -981 0
1433 -337 -1559 0
1004 -824 0
674 -255 -705 -519 0
867 -239 0
6 -1077 0
-1914 -1595 0
-1614 -284 -268 -102 0
352 -1975 -850 -465 0
124 -774 -1812 -1306 0
56 -1215 0
1488 -1350 0
1503 -1896 -417 0
1694 -1456 -226 0
1698 -581 -1898 -160 0
77 -1419 -1978 -912 0
1628 -1436 0
988 -775 0
1796 -628 -584 0
1310 -1549 0
686 -33 -1865 0
1210 -1052 0
-1083 -1949 -1540 -564 0
-1331 -1122 -255 -1727 0
208 -350 -764 0
841 -1615 -201 0
1469 -495 -1388 -538 0
-1441 -311 0
-1315 -173 -1198 0
101 -945 0
-1206 -200 -1510 -234 0
-1006 -1725 -1077 0
1327 -123 0
-878 -1140 -141 -548 0
402 -1554 -249 -240 0
970 -795 -1498 0
1837 -1462 -1578 -1552 0
-1015 -1916 -1011 -1837 0
-206 -1138 -820 -1794 0
-927 -1421 -1566 -973 0
149 -1958 -1718 -81 0
-1838 -1178 0
1861 -1905 -1949 -725 0
809 -290 0
-407 -1353 -1627 -372 0
-1292 -41 -503 0
980 -838 -885 -912 0
-147 -1173 -813 -838 0
-620 -401 -1555 -690 0
-967 -1234 -1404 0
644 -1297 0
1340 -256 -1181 -328 0
-1313 -392 -1407 -165 0
-800 -189 -131 0
665 -789 -1537 0
-624 -1411 -1367 -1560 0
-359 -398 -262 -1351 0
-48 -196 0
1871 -284 -889 -1956 0
-1551 -1063 -1186 -1855 0
163 -487 -1750 0
-600 -761 -1240 0
1745 -1067 -448 0
778 -1021 0
-1047 -712 -1263 0
-1343 -40 -872 -1607 0
1445 -790 -856 0
135 -42 -1353 -1721 0
-1766 -985 -1531 0
1033 -1323 0
666 -237 -355 0
582 -282 -977 -838 0
1781 -1274 0
501 -1051 -1242 0
-583 -87 0
1631 -1747 -361 -143 0
-1574 -793 -432 0
558 -653 -439 -1302 0
1175 -684 -1527 -36 0
453 -1570 0
655 -805 -1582 0
1480 -355 -1791 -1530 0
482 -1585 -1754 0
1549 -1332 -644 -1968 0
-625 -148 0
78 -1395 -228 0
1093 -1986 0
384 -563 -1408 0
1626 -1759 0
-84 -1465 -1292 -720 0
15 -1487 0
-1831 -282 -20 -245 0
-1915 -1798 0
1770 -1796 -1015 0
1824 -1774 0
69 -412 -1568 -1348 0
1219 -945 -1867 -1275 0
1815 -927 -253 0
1620 -1484 -455 0
756 -1080 -685 -637 0
1842 -1387 -15 -22 0
-721 -1713 -1225 0
184 -261 -1763 -823 0
1513 -250 -418 -985 0
877 -1539 -1542 0
444 -974 -610 -1018 0
1328 -587 -1188 0
1495 -1063 -1580 0
1134 -1333 0
1735 -795 -1135 -787 0
771 -136 -647 -424 0
-946 -718 -1733 0
-1704 -114 0
962 -1166 -452 -870 0
1785 -1338 -796 0
1715 -1055 -653 0
125 -1846 -1254 -1487 0
-1417 -486 0
325 -1547 -692 0
-984 -1973 0
713 -427 -856 0
1836 -215 -822 0
1766 -1382 0
547 -1424 -1035 -1468 0
342 -1025 -815 0
1350 -112 -1471 0
528 -1766 -931 -330 0
-1544 -1501 -1595 -881 0
1516 -240 0
346 -624 -292 -1783 0
1985 -681 0
1578 -1894 0
-1504 -872 0
1118 -759 0
1000 -1595 0
626 -243 -1223 -1468 0
198 -919 0
1685 -1331 0
327 -1074 0
1148 -1202 -1073 -1234 0
1737 -1928 -145 -1346 0
-243 -276 -872 0
287 -117 0
459 -10 -1000 0
-1688 -406 0
168 -1454 0
1442 -655 0
-526 -1453 -1178 -447 0
524 -1594 -1418 0
1781 -19 -711 0
369 -847 -1506 -281 0
174 -568 -1326 0
1258 -378 -338 0
1264 -2000 -1998 0
915 -247 -452 0
1769 -1473 -962 -1700 0
1231 -1786 0
1834 -946 -1907 0
-1168 -1515 -1106 -1953 0
435 -1012 -466 -1713 0
1720 -653 -875 0
1099 -710 -246 -1096 0
1806 -1965 -1728 -1220 0
1904 -1328 0
-1858 -524 0
1793 -641 -1246 0
513 -842 -1637 0
1425 -67 -1198 0
-716 -273 -1685 -582 0
227 -801 -8 0
434 -572 -1283 0
972 -707 -365 0
1744 -1312 -348 -920 0
1012 -1818 -348 0
1545 -756 -764 -61 0
1393 -382 0
1128 -1962 -836 -4 0
1560 -114 -1510 0
505 -1237 0
1247 -643 -1835 -1686 0
162 -530 0
959 -587 0
1664 -1686 0
-1698 -187 -1507 -641 0
330 -1799 -203 -1576 0
578 -1 -104 0
-1167 -488 -90 -1405 0
90 -729 -419 0
195 -1074 -166 -1920 0
778 -1933 -1702 0
66 -1799 0
1804 -231 -983 0
425 -40 -1260 -1932 0
1235 -384 -1616 -967 0
-1821 -827 -776 0
1811 -274 -927 0
66 -665 -1557 -887 0
-520 -1516 -836 -1511 0
-896 -867 0
-1852 -988 0
1116 -1021 -1861 -242 0
773 -1413 -1505 0
-1831 -1064 -543 0
960 -374 -1427 -1271 0
-858 -1877 -1745 -805 0
-150 -1089 -1832 0
243 -1392 0
-1976 -529 -1596 -218 0
352 -1440 0
-1698 -1249 0
1035 -1852 0
1385 -919 0
-1363 -1499 -148 0
-1226 -550 -12 0
-1291 -1651 -706 -1070 0
341 -120 -881 0
-1057 -414 -1731 0
1345 -842 -1669 0
28 -1063 -1371 0
-1233 -443 -1844 -1986 0
799 -1286 -426 0
-1393 -1276 0
154 -577 -1508 0
1447 -1738 -1160 -1501 0
1417 -343 -1972 0
1526 -1223 0
1845 -677 -1320 -455 0
1200 -377 -440 -2000 0
1644 -1268 0
1250 -862 -1570 0
-1079 -1306 0
437 -1549 0
246 -1767 -1182 -208 0
-497 -1273 0
-1047 -71 -1275 -1552 0
-1734 -1824 -733 -1016 0
129 -871 -479 -183 0
1373 -495 -1215 0
920 -1984 0
-1746 -1361 0
560 -1897 0
-1547 -472 0
1957 -1490 -1125 0
1594 -1525 0
1946 -50 -1042 -939 0
89 -901 0
1560 -1049 0
1999 -90 0
1450 -862 -671 -16 0
1866 -571 0
386 -301 0
1982 -1375 -910 0
580 -1776 -1257 -1194 0
262 -475 0
-1809 -1000 -1737 0
591 -816 -1662 0
-340 -1615 0
37 -587 0
-68 -51 -767 0
1578 -1831 -1700 0
987 -1710 -1092 -1747 0
1209 -1187 -1714 -1176 0
690 -902 0
787 -125 0
754 -1576 -527 0
1740 -1001 -889 0
928 -1586 0
1734 -1964 -1664 -162 0
-989 -843 -1072 -1752 0
386 -234 -816 0
1298 -1924 -496 0
1725 -940 -1445 -191 0
722 -223 -759 0
1604 -1074 -1919 0
-352 -1629 -315 -382 0
874 -1994 0
-1659 -784 0
-216 -1435 -1648 0
722 -1088 0
-548 -1247 -685 -918 0
1223 -1931 -1436 0
51 -1260 0
375 -425 -387 -714 0
-613 -1808 -1410 0
884 -1162 -1200 0
1270 -316 0
1004 -1691 -1318 -489 0
356 -412 -1561 0
747 -1069 0
371 -1779 -598 -1094 0
-77 -703 -80 -1310 0
-1411 -1662 0
1557 -84 -297 -310 0
-1240 -1018 -495 -1509 0
336 -1794 -687 0
1873 -952 -722 -378 0
-900 -1999 -1224 0
1378 -1094 -241 0
1650 -644 -1680 0
1563 -273 -212 0
-310 -694 0
-1505 -75 -646 0
1661 -1870 -1581 -1722 0
61 -1115 -1502 0
1357 -721 -1289 0
1982 -279 -538 0
1504 -1518 -709 0
-137 -746 0
86 -1366 -703 -1750 0
-139 -259 0
1385 -777 -1816 -473 0
47 -1780 -12 0
943 -1292 0
1027 -1577 0
1061 -218 -387 -893 0
1037 -323 -1962 -961 0
1038 -660 -87 -1135 0
196 -1616 -806 -1195 0
1962 -311 -1144 -974 0
963 -609 -753 -39 0
1118 -1695 0
1261 -763 0
-296 -915 0
703 -463 -597 0
995 -929 0
1788 -522 -1701 0
-1968 -459 -1295 -650 0
1190 -1051 0
1381 -446 0
-1280 -5 0
1612 -595 -1887 0
92 -756 -281 -751 0
176 -1044 -1295 0
1503 -92 -379 0
1724 -1752 -1058 -1671 0
1149 -305 0
1012 -1703 -1202 -234 0
305 -900 -1920 0
259 -1923 0
1358 -854 0
1793 -1438 -1741 -241 0
180 -605 0
1493 -73 -819 0
1850 -553 0
-632 -1712 -1916 -339 0
945 -1825 -376 -767 0
-1942 -1424 -1385 -984 0
-1770 -476 -1473 0
1448 -760 0
-1898 -1008 -1712 -1447 0
-1586 -1733 -1690 -998 0
-1869 -856 -1704 0
-111 -261 -746 -631 0
-1393 -834 -751 -598 0
1310 -1698 -308 0
433 -1061 -503 -1626 0
1829 -511 -283 -1964 0
-1089 -582 0
1925 -1435 -459 -1145 0
1293 -406 -1733 -190 0
-430 -1325 -329 0
1719 -1852 -661 0
531 -561 -307 -1512 0
1751 -1016 -704 -824 0
1838 -1746 -95 -78 0
205 -1516 0
-1371 -1670 0
-750 -5 -398 -1541 0
318 -1127 0
1526 -991 -883 -1032 0
1585 -752 -890 0
781 -271 -612 0
-625 -1742 -43 -1061 0
197 -1792 -183 -1638 0
-1012 -1801 -764 -928 0
-1671 -43 0
186 -1621 -319 0
-1767 -635 -1748 -1284 0
-965 -1015 -1803 0
1914 -1134 -1941 -996 0
-610 -1443 -1775 0
-1257 -928 0
-1678 -1438 0
-354 -756 -739 -1291 0
868 -1696 -919 -1664 0
-1932 -737 -727 -906 0
1388 -1567 0
1067 -222 -586 -1771 0
1615 -324 -435 0
1289 -1103 -1282 -1340 0
-713 -898 -915 0
357 -245 -928 0
596 -84 -1054 0
-615 -1835 0
858 -800 0
722 -1777 -1739 -1743 0
1418 -1841 0
882 -238 -205 0
-1120 -303 -361 -219 0
-366 -915 -187 0
1806 -300 -1993 0
1309 -768 -960 -358 0
1813 -448 -66 -1596 0
-1158 -131 -1869 0
-92 -977 -545 0
-758 -69 -1927 0
1943 -435 0
1553 -1903 0
325 -1147 0
654 -1453 0
1544 -1004 0
428 -331 0
1501 -1007 0
-931 -559 0
260 -1777 0
-387 -785 0
713 -207 0
-673 -1176 -457 0
839 -928 -1646 0
1170 -579 0
-1943 -620 -903 0
-644 -1911 -536 -924 0
1501 -1263 -715 -1794 0
-1033 -193 -1917 0
-975 -29 -513 0
619 -1454 -667 0
-1219 -1624 -1263 -1364 0
-49 -1877 -726 -1192 0
-1517 -1020 0
1767 -1430 -1345 0
256 -774 0
-1616 -1623 -1804 -1345 0
1567 -1380 0
456 -698 -1525 -374 0
1927 -658 -121 -1753 0
-1688 -230 0
-531 -490 0
494 -596 0
332 -1908 -1202 -245 0
73 -993 0
-223 -794 0
391 -1189 0
-479 -162 0
118 -1028 -185 -1275 0
1480 -1414 -1339 -1277 0
1044 -1990 -1891 -1216 0
-423 -93 -533 -1085 0
811 -644 -1257 -1171 0
1798 -1973 -760 -1126 0
-819 -1969 -1187 0
-1256 -1297 -1725 -789 0
-1735 -1598 -1724 -1274 0
344 -762 0
1630 -16 -1932 0
240 -1337 -24 0
-970 -1780 0
-429 -969 -327 0
-511 -689 -261 -1942 0
-1052 -1986 -1165 -1204 0
1030 -577 0
380 -601 0
-1158 -1440 -920 0
-847 -262 -1797 0
372 -1410 0
466 -1163 -280 -323 0
-1408 -1994 -119 0
511 -646 -1906 0
760 -1185 0
379 -1071 0
319 -578 -1658 -352 0
1218 -294 0
180 -573 -613 0
-844 -240 0
-1398 -1368 -1095 0
689 -855 -1262 0
237 -986 -1332 -1986 0
122 -713 0
1416 -551 -311 -1339 0
-1474 -1444 0
-694 -1111 -1334 -1122 0
1058 -969 0
910 -1502 -1001 0
1192 -1216 -1304 -1868 0
1451 -1232 -225 -240 0
1951 -177 0
853 -1440 -632 0
1569 -38 -1286 -1236 0
56 -315 -459 0
1801 -1256 -1709 0
-241 -79 0
83 -436 -1097 0
-725 -1706 -71 0
-1600 -1434 -1219 -1629 0
947 -92 -458 -149 0
1110 -753 0
-508 -1911 -532 -168 0
621 -914 -99 0
-617 -1361 0
1837 -1190 -181 0
1592 -1137 -1085 -1359 0
649 -1263 -1896 0
642 -451 0
288 -1979 0
802 -1547 -947 0
894 -1559 -690 0
1291 -1036 -707 0
-666 -1002 -1555 -105 0
501 -895 -1320 -1530 0
1603 -621 0
508 -340 -1867 0
1143 -511 -144 0
1329 -889 -1041 0
1505 -1258 -1009 0
429 -1998 0
1305 -1196 0
142 -534 -216 -572 0
1486 -1584 -1850 0
971 -246 -505 -344 0
946 -535 -1112 0
-344 -485 -1210 -1816 0
-1524 -1065 -1654 -1337 0
1867 -431 0
715 -167 -920 -867 0
998 -1278 0
1391 -965 -140 -1648 0
1530 -1917 0
936 -214 0
-14 -1336 0
-1585 -1540 -1757 -1194 0
1445 -624 -1959 -1295 0
737 -1667 -194 0
1145 -486 -1003 -1488 0
47 -216 -1428 0
602 -849 0
-1203 -1944 -1838 -63 0
1964 -1747 -1197 0
1107 -807 0
-1066 -1037 0
1295 -1840 -568 -1058 0
-1892 -515 0
-1519 -1996 -1785 -884 0
1446 -1863 0
1453 -1673 -434 -418 0
1294 -1377 -897 -1875 0
-966 -787 0
124 -1707 -1359 0
1009 -666 -1073 -1144 0
443 -1321 -1265 0
-622 -352 -1627 0
995 -542 -1209 0
-508 -850 0
1306 -1134 0
-1274 -1693 -1727 -492 0
-935 -1517 -56 -866 0
291 -1444 0
-1638 -1312 -677 -1654 0
1089 -907 0
-1677 -1785 0
956 -1713 -1317 -976 0
-679 -818 0
1235 -1219 -148 0
-1240 -1434 -1604 0
1107 -639 0
1041 -1662 0
1320 -449 -902 -354 0
454 -1888 -1541 -479 0
1758 -354 0
-1347 -1493 0
763 -1053 0
1416 -1485 -1903 0
383 -574 0
27 -220 -1929 0
1604 -1884 -716 -1605 0
-897 -232 -177 -664 0
-604 -511 -1903 0
1060 -1226 -461 -1211 0
1619 -1043 0
681 -1523 0
-1839 -1137 0
797 -164 -73 0
770 -1143 -1095 -1210 0
733 -1736 0
551 -313 -534 -637 0
-1472 -452 -1620 -504 0
1303 -985 -658 -1708 0
658 -1058 0
1707 -1872 0
104 -782 0
-700 -530 -495 0
-587 -607 0
1100 -1601 -537 -795 0
1424 -521 -1940 -790 0
1069 -1301 0
1903 -114 -1716 -34 0
1109 -408 0
1859 -474 -287 0
1643 -1818 -607 -406 0
1743 -1044 0
881 -1866 -1333 -448 0
1599 -76 0
-1640 -1618 -1500 0
-1177 -1221 0
1489 -1560 -552 -1266 0
-1753 -508 -1519 -959 0
814 -1070 -1461 -1439 0
-363 -216 0
1193 -705 -630 0
1645 -1441 -856 -1440 0
1095 -1007 0
1109 -1396 0
133 -1064 -1840 0
1930 -229 -1858 0
89 -662 0
302 -1366 0
991 -281 0
1978 -299 -1155 0
-1368 -830 0
-1908 -134 -1484 -847 0
-1678 -1231 -498 -1928 0
-745 -511 -1338 0
1801 -1848 -900 0
410 -1603 0
1729 -1481 0
1663 -1010 -1027 0
861 -665 0
304 -341 -1708 0
15 -400 -1136 -1585 0
462 -333 -741 0
721 -1550 -1425 -75 0
-461 -780 -173 0
-1663 -1472 -1098 -1457 0
438 -84 -177 0
1260 -1717 -322 -950 0
1896 -867 0
1548 -876 -733 0
1189 -829 -835 0
-81 -1425 -1007 -1291 0
-841 -244 -231 -1715 0
-170 -1202 -1962 -950 0
1878 -1957 -1245 -1742 0
1141 -1021 0
883 -537 -1876 0
1410 -888 -1247 -725 0
-1259 -1683 -981 -1224 0
-778 -1241 -980 0
1741 -359 -833 0
-1495 -1638 0
1338 -1225 -1515 -789 0
-369 -1226 -1892 -474 0
1263 -1687 -475 -985 0
439 -1812 -1849 -65 0
-1821 -1874 -113 0
1447 -1842 -462 -945 0
1170 -759 -1874 -71 0
-73 -118 -1429 -227 0
-877 -1331 0
1644 -153 0
1953 -615 -1588 -1660 0
1975 -1015 0
1471 -756 0
-418 -1017 0
569 -361 0
-188 -319 -1655 0
-777 -836 -1182 -1563 0
-992 -1755 0
167 -839 -190 -1639 0
866 -678 -1460 -1539 0
-180 -883 -1225 -954 0
490 -908 0
312 -753 0
1278 -172 -1604 0
958 -1585 0
-1673 -1512 0
-1953 -447 -1561 0
1049 -1605 -99 0
-129 -372 -1726 0
1650 -1746 -168 -1264 0
120 -812 0
979 -1984 -495 -214 0
-684 -1240 -577 -452 0
1333 -1086 -623 -395 0
-1885 -1 -1839 0
1894 -836 -223 0
216 -49 0
6 -89 0
-169 -1396 -111 0
897 -955 -1119 -319 0
21 -913 -1702 -1930 0
141 -1283 -1559 -1946 0
-722 -575 -1900 0
1513 -814 0
1651 -1109 -1586 -807 0
1894 -966 -112 0
-739 -1097 -654 0
-1096 -111 0
641 -997 0
914 -1615 -231 -1100 0
-191 -1767 0
-42 -340 0
747 -1208 -325 -1862 0
665 -1819 -1352 -184 0
432 -1475 -1630 0
1762 -1920 -1378 -1970 0
1387 -199 0
85 -1577 -1455 0
1581 -1851 0
1134 -1188 -1031 0
170 -1734 -327 -539 0
184 -503 0
-1811 -1847 -668 -648 0
-599 -721 -938 -1333 0
703 -931 0
1242 -842 0
-351 -1266 0
1991 -1297 -1023 0
1875 -1256 0
1437 -1518 -62 0
1885 -1208 -1640 -411 0
592 -986 -1798 0
1649 -1015 0
-1132 -535 -23 -221 0
1330 -1754 0
-612 -1371 0
1405 -1733 0
-1606 -1370 -718 0
502 -619 0
1870 -1976 0
487 -204 -920 0
-577 -1913 0
-1466 -1265 -988 0
617 -413 -1070 -1247 0
1948 -20 -1878 -391 0
-529 -1702 0
-761 -1620 -1904 -1270 0
567 -1130 -579 0
895 -1010 -1022 -1998 0
125 -287 -533 0
178 -1643 -1300 0
1686 -326 -1836 -300 0
363 -384 -582 -1754 0
179 -1871 -1528 0
1722 -1228 -1357 -1046 0
586 -1014 -1690 -1311 0
-1530 -934 -1775 0
956 -185 -132 -933 0
1973 -482 -904 0
744 -536 -146 -962 0
916 -1018 0
1103 -1713 -1932 -503 0
418 -818 -1793 0
1815 -1199 0
506 -614 0
279 -952 -1252 -1123 0
29 -221 -138 0
608 -722 -1811 0
-933 -1018 -390 -1051 0
1999 -197 -1311 -1291 0
-1430 -1697 -1979 0
963 -528 0
-329 -763 0
1394 -1416 0
1534 -1360 -1680 -767 0
1413 -1388 -1436 0
-209 -1763 0
1460 -1863 0
185 -719 -1350 -925 0
138 -214 0
487 -523 0
678 -1928 0
-640 -710 0
181 -1735 -339 0
1888 -392 -690 -357 0
-389 -921 -752 -259 0
-1543 -1142 -1363 0
12 -1861 0
1905 -229 -1482 -588 0
-1740 -925 -193 -263 0
1776 -166 -480 0
985 -1772 -701 0
-989 -1920 0
1213 -1400 -1809 -1743 0
1127 -204 0
687 -1214 -583 -896 0
1255 -503 0
853 -1023 0
757 -542 0
-708 -154 0
1569 -548 -426 0
1548 -653 -1626 -708 0
1436 -213 0
1419 -144 -383 -1916 0
1060 -953 -1651 0
760 -979 -541 0
622 -1615 -512 0
958 -1063 0
-1620 -1927 -797 0
417 -267 0
1677 -930 0
1373 -90 -1061 0
1244 -817 -547 -1135 0
1517 -1580 -75 -1213 0
-1430 -458 0
1368 -1872 -325 -1417 0
108 -1141 -169 0
1958 -1699 0
1150 -919 -1757 0
1692 -1832 0
1753 -332 -1664 -1906 0
-1096 -1002 -770 -661 0
1623 -770 0
-1292 -214 -1835 -862 0
1620 -1784 0
1896 -1783 0
1755 -744 -773 0
1528 -323 -1561 0
1170 -26 -1204 -1062 0
-1613 -305 -502 0
894 -574 -410 0
631 -74 -117 -30 0
1431 -266 0
657 -210 -1371 0
-1626 -773 0
1601 -1965 0
1948 -938 -1982 -1565 0
194 -33 -1538 -1929 0
417 -1506 0
1466 -727 -1500 0
764 -1886 -667 0
-358 -1527 -306 -1384 0
1805 -1163 -1584 -1236 0
758 -1924 0
-441 -1876 -1968 -1466 0
1005 -1418 -336 0
731 -105 -1376 -79 0
1814 -1683 0
-414 -675 -2000 -984 0
1847 -958 0
93 -1335 0
-465 -889 -1347 0
1029 -970 -1284 0
523 -1880 0
-1625 -1676 -910 0
536 -480 -862 0
-1558 -1715 -678 -1054 0
567 -1293 -1447 -873 0
1382 -558 -712 -1682 0
1536 -1286 0
-1131 -1855 -1117 0
-543 -1184 -1681 0
1988 -683 0
271 -1469 -178 0
561 -644 -1185 0
-245 -163 -491 -1172 0
-408 -10 -535 -305 0
-1428 -1488 -1880 0
1414 -1556 -739 -22 0
1374 -1126 0
-1150 -1138 0
-1566 -946 0
283 -1348 0
786 -596 0
-440 -1118 -257 0
-1231 -570 0
1167 -1250 -1989 -1003 0
-1568 -485 0
135 -1415 -1093 0
959 -1758 -1539 0
-99 -311 0
573 -1834 -1060 -267 0
1731 -1596 0
993 -521 -1343 0
1418 -1683 -69 0
923 -1235 0
836 -640 -1995 -288 0
-822 -761 -926 -1974 0
-857 -254 0
918 -679 0
-2 -285 -1923 -1413 0
112 -1286 0
1791 -221 -664 -1124 0
-745 -1697 0
1920 -1394 -991 0
1746 -1913 -98 0
1428 -1909 -47 -1188 0
1676 -1756 -207 -941 0
88 -239 -1827 0
767 -1910 0
248 -551 -152 -629 0
476 -432 -1190 0
1580 -402 0
1427 -1087 -1436 0
-1130 -227 -1195 0
1456 -1023 0
1534 -664 -554 -948 0
507 -1997 0
1816 -193 -448 0
-4 -856 -140 -503 0
-710 -821 -789 0
95 -1941 -935 -643 0
-86 -4 -1706 0
-531 -142 -961 0
-1187 -1791 -618 -1178 0
-1339 -454 0
753 -1605 -1531 0
-283 -1599 -485 0
1875 -1571 -1331 0
791 -1562 -173 0
1925 -865 0
300 -892 -841 -351 0
1570 -1050 0
495 -1348 0
195 -1796 -866 0
-1513 -140 -1740 -529 0
1058 -1228 0
652 -1777 0
-1526 -577 -1913 0
986 -1658 0
161 -236 0
560 -1630 -1314 0
-114 -1463 -53 -972 0
108 -595 0
1354 -117 -1035 -99 0
296 -41 -331 -1443 0
269 -17 0
-1970 -139 0
651 -67 0
1114 -1470 -265 -592 0
86 -33 0
1165 -739 -1984 0
938 -842 0
370 -1315 0
192 -208 -1999 -609 0
1187 -1106 0
-1623 -749 -1803 -729 0
1354 -1529 -1872 0
1129 -267 -910 0
1663 -516 0
489 -477 0
1801 -811 -1872 0
1617 -1882 0
-984 -1846 -1626 -988 0
1131 -1486 0
1022 -1468 -250 0
1205 -140 -1710 0
1905 -618 -882 -81 0
993 -708 -501 -1132 0
1229 -1210 -939 0
557 -1907 0
41 -1077 -68 -241 0
-416 -1668 -141 0
1431 -910 0
1406 -1563 0
-1281 -1957 -706 -1275 0
-642 -681 -137 0
1141 -1942 -137 -191 0
-1912 -1623 0
167 -883 -1064 0
1958 -630 0
623 -1939 -1724 0
263 -1261 0
1429 -488 -1534 0
1358 -1281 -1438 -394 0
1790 -284 0
1181 -794 -1545 0
118 -101 0
1885 -335 0
-1496 -1669 -1470 -816 0
-1534 -1526 0
77 -57 -11 -607 0
142 -911 -1482 -916 0
621 -1860 -428 0
-1650 -835 -811 0
1333 -1483 -722 0
1933 -933 -1741 -662 0
1406 -592 0
-227 -1374 0
1416 -139 -821 0
-1156 -1959 -1891 0
1641 -88 0
-324 -253 0
1822 -202 -587 -1973 0
1577 -1626 -123 -1334 0
-1024 -267 0
-1052 -350 -119 -837 0
490 -1297 0
-947 -116 -1425 0
724 -1028 -1677 -79 0
1575 -836 0
-87 -1598 -1932 0
1353 -1235 -1964 -1475 0
1321 -498 -1347 -1552 0
-219 -1940 -1884 0
903 -1183 -1860 0
-509 -707 -748 -996 0
-1711 -1760 -1204 -1011 0
1122 -1728 0
-1747 -428 -1793 0
97 -1214 -1594 -1008 0
1175 -1235 -844 -273 0
991 -1990 -49 -1076 0
884 -252 -1631 0
138 -482 -1629 0
1182 -605 -1236 -1328 0
1481 -40 -1239 0
-321 -1788 0
631 -483 -1388 0
436 -1193 0
-142 -310 -96 0
-196 -17 0
-904 -1316 -1468 -924 0
1008 -1393 -659 0
1803 -1035 0
1579 -650 0
376 -95 -1358 0
1416 -119 -1528 -1546 0
-1224 -1537 -1792 -1838 0
563 -912 -379 -1705 0
1484 -102 -1769 -1348 0
1726 -1130 -183 0
1426 -354 0
-923 -379 0
1725 -1498 -1268 0
1305 -1255 -916 -1500 0
1547 -329 -596 0
-1883 -1470 -1162 0
-751 -796 0
138 -774 -307 -1273 0
73 -666 -892 0
-1580 -22 -1016 0
152 -1119 0
-1147 -352 -576 -657 0
941 -629 0
490 -1531 0
425 -1682 -652 -385 0
1029 -987 -65 0
971 -1450 -218 -1790 0
818 -621 -1063 0
-1419 -635 -1793 -1920 0
1100 -611 -269 -1984 0
1804 -962 -1583 0
400 -1415 0
-354 -1555 0
-663 -46 0
-55 -1341 0
555 -1283 -1754 0
1928 -526 -1116 0
1489 -1623 0
-679 -1971 -926 -504 0
1955 -106 -204 0
1186 -1753 0
1241 -1714 -1234 -1335 0
1003 -1982 -649 -551 0
1660 -66 -1041 0
-1691 -222 -315 -178 0
-1100 -350 0
944 -1103 -277 -330 0
-157 -486 -144 0
424 -1850 -161 0
-1728 -1379 -69 -387 0
1713 -57 -532 0
1376 -451 -935 0
1545 -1652 0
-906 -1116 -1265 0
306 -1302 0
391 -1053 -1515 0
1899 -1037 -1374 0
1029 -1584 0
1876 -1909 -1597 0
-1908 -1407 -256 -179 0
-674 -1283 -1887 -1774 0
-1531 -1253 0
423 -870 -571 0
1240 -606 0
-1509 -622 -1345 0
-1313 -537 -619 -1876 0
71 -1581 -1601 -1763 0
1837 -99 -1059 -1845 0
1183 -1722 -1395 -1574 0
1797 -212 -436 0
200 -1239 -748 0
577 -1589 -1645 -571 0
1995 -200 -1160 -487 0
1930 -1022 -137 -227 0
1793 -1803 0
690 -741 0
-733 -1927 0
181 -801 -1807 0
500 -575 0
689 -1885 -192 -1460 0
-273 -1761 -1966 -1614 0
1835 -1729 -1445 0
-1163 -137 -1684 -379 0
126 -1611 0
902 -266 0
418 -1223 -979 -877 0
595 -1071 -1483 0
-1682 -1354 0
1012 -1678 0
613 -1057 -1572 0
1672 -158 -67 0
427 -1397 -923 -2 0
268 -1087 -1031 -460 0
-1246 -1914 0
-815 -135 0
1204 -462 0
1489 -1743 -1659 -596 0
-1455 -1353 -1775 -1015 0
1098 -527 -1380 -573 0
524 -225 -604 -1050 0
-1084 -1143 -1026 -722 0
308 -1640 0
1183 -57 0
1147 -229 0
772 -112 0
-1568 -1778 -1566 0
338 -1886 -1607 0
-1813 -1718 0
505 -660 -563 -1493 0
-1485 -1921 0
1685 -1317 0
-243 -736 -1549 -1722 0
-1446 -1180 -1432 0
730 -1369 -109 0
197 -1737 -355 0
1402 -1271 0
-1022 -1948 0
-1338 -1562 -1072 -50 0
-1637 -29 0
1680 -1494 -1307 -1047 0
483 -301 -125 -1170 0
1517 -1546 0
325 -1176 -980 -472 0
1734 -1325 -281 -13 0
-545 -1689 0
-37 -627 0
1762 -1552 0
-183 -1101 -953 0
1062 -861 0
1603 -867 -1433 0
743 -1184 -981 0
1728 -514 0
-979 -399 -176 0
132 -1219 -1493 -269 0
875 -100 -596 0
1955 -701 -1115 0
-627 -1522 0
-244 -1133 -886 -439 0
1316 -877 -1534 -490 0
1318 -1539 -1701 -498 0
1440 -631 -191 0
411 -897 0
1391 -1624 -1199 -361 0
1645 -283 -1312 -1236 0
-430 -76 0
773 -267 -738 -1323 0
-1258 -1785 0
1025 -1631 -1074 0
-1112 -1207 -861 -1122 0
1916 -1229 -1046 0
406 -96 -1699 -1246 0
-1745 -1405 0
-186 -1687 0
-83 -501 -1457 -1043 0
1199 -1870 0
-1607 -1189 0
251 -1015 -1662 0
904 -1820 0
895 -1452 -876 -706 0
-1285 -53 0
1284 -1481 0
821 -1794 -866 -1092 0
1675 -264 -1404 0
717 -1485 0
1949 -88 -46 -1452 0
-1339 -436 -1403 0
1831 -1996 -313 -1020 0
-582 -122 0
1400 -1375 -1724 0
95 -1123 -342 0
1912 -846 -1747 -336 0
-1282 -854 0
1963 -88 -916 -928 0
808 -196 -1880 0
1831 -947 -813 -1724 0
649 -215 0
1874 -68 0
913 -557 -1838 -301 0
1832 -1594 -673 -1354 0
1438 -514 0
1554 -668 -1584 -840 0
1245 -1335 -338 0
1505 -398 0
-1395 -150 -39 0
-985 -546 -1383 0
1963 -1313 -707 -1179 0
-454 -665 -138 -908 0
-171 -1374 -1779 -337 0
380 -1151 -1597 0
1237 -689 -1348 0
1349 -824 0
1449 -1443 -1026 -560 0
-153 -1190 0
-506 -1185 -331 -1456 0
1050 -369 -1051 -1296 0
-1291 -1613 -882 -1250 0
609 -35 0
-1880 -1869 0
582 -780 -1365 -1307 0
1160 -443 0
1883 -78 0
-234 -1466 -963 -898 0
1716 -1674 -1927 -511 0
1698 -1085 -244 -301 0
-248 -715 0
1093 -250 0
1374 -1752 0
1442 -1964 -1351 0
1377 -1605 0
616 -1698 -729 -1276 0
139 -855 0
-763 -1005 -1810 -1251 0
1889 -157 -658 -449 0
1498 -784 0
1626 -721 -74 -860 0
944 -1218 -804 0
1219 -1082 0
959 -1559 -387 0
-1949 -1992 0
1335 -1844 -348 0
653 -1492 0
137 -1921 0
594 -1282 -1808 0
207 -653 -1510 0
-783 -1604 -1566 0
618 -769 -1227 -1354 0
549 -442 -133 0
937 -812 -1644 -1521 0
1058 -874 -513 0
721 -1356 -1158 0
1913 -1543 -1303 0
1712 -1871 -1692 -855 0
1760 -167 -634 0
1943 -1827 -1969 -1907 0
1518 -1128 0
321 -170 -1393 0
-165 -195 -182 0
244 -1007 -1549 0
1493 -1246 0
-1158 -1713 -1459 0
57 -135 -1830 -990 0
1155 -65 0
776 -1515 0
863 -857 -510 0
1336 -358 0
273 -202 -1988 0
155 -204 -826 0
364 -151 0
-568 -1075 -778 0
-1161 -1326 -1327 0
257 -1780 -823 0
449 -72 -1604 -1617 0
384 -674 0
-749 -1695 -172 -1680 0
1645 -1510 -534 0
1000 -1218 0
409 -470 -34 -730 0
1215 -1076 0
990 -1266 -366 0
946 -1592 -741 0
-201 -14 -739 0
-228 -1982 -1156 0
341 -898 -1211 0
45 -212 -1119 0
163 -1136 -146 0
1470 -1489 -1167 0
-597 -1480 -49 -712 0
1134 -571 0
496 -956 -1433 -628 0
360 -1402 -432 0
-780 -1955 0
1914 -876 0
1825 -1902 -16 0
275 -1377 -867 0
249 -565 -1785 0
1728 -373 -1654 -983 0
1849 -1330 0
-966 -1810 -1062 0
160 -273 0
297 -944 -1983 -1559 0
866 -335 0
385 -1611 0
1477 -2000 0
1878 -314 -76 0
1445 -1228 -970 -229 0
-700 -1092 0
-104 -753 -147 -1586 0
787 -1182 0
-267 -70 0
-1517 -1074 -140 0
1143 -1337 -823 -1958 0
645 -1851 -1595 0
1727 -82 -1053 -1474 0
1491 -1454 -21 0
127 -504 -270 -1781 0
1282 -803 0
-549 -745 -1826 -1720 0
1209 -1290 -329 -1677 0
-1108 -515 -1927 -1068 0
1987 -1740 -454 0
-1045 -496 -49 0
-1059 -1193 -132 -1570 0
1493 -1673 -1158 0
935 -89 -1608 -628 0
534 -1826 -1150 0
905 -686 0
637 -1336 -1805 -134 0
-734 -1064 -706 -1161 0
-629 -1756 0
-294 -795 -490 -97 0
520 -1396 -322 0
167 -1930 -439 0
1852 -400 -482 -453 0
660 -8 -340 -1016 0
-1696 -1526 -43 -1079 0
19 -970 -183 0
311 -1934 -1392 -1461 0
-1194 -343 -1233 -116 0
1577 -1539 -1743 -1169 0
-775 -1941 -1827 0
-1885 -438 -341 0
1014 -153 0
1422 -1231 -1430 -1848 0
1584 -492 -891 0
821 -826 -153 -1143 0
126 -1085 -1982 -574 0
140 -617 -398 0
645 -190 0
-958 -610 -1527 0
792 -1567 -1930 0
-751 -960 0
-174 -116 -102 -648 0
736 -666 -1278 0
-1976 -720 -1132 0
-449 -710 -1823 -290 0
1386 -1316 -681 0
-1182 -1174 0
1611 -1995 -1471 0
256 -490 0
1154 -1181 -1263 -487 0
260 -409 0
843 -709 0
1830 -1071 0
1784 -1458 0
674 -1203 0
-240 -917 -861 0
59 -939 0
1302 -1776 -36 -1577 0
-1335 -356 -833 -173 0
1434 -755 0
-1820 -620 -1623 0
589 -1135 -1587 0
-1959 -1759 -593 0
1127 -1268 0
-759 -36 0
1756 -442 0
1540 -206 -1799 0
363 -1106 -759 0
-777 -1851 -1835 0
368 -120 -298 -518 0
987 -1373 0
1791 -1301 -968 0
-30 -950 -114 -595 0
-954 -1195 -1184 0
1257 -860 -673 -659 0
1706 -690 0
348 -1576 -856 0
-1322 -18 -1755 -379 0
792 -994 -112 -80 0
982 -151 -1988 0
-805 -1060 0
-142 -168 -302 -371 0
1089 -348 -123 -48 0
-796 -1910 0
1079 -1924 -600 -514 0
1865 -664 0
-1075 -682 -1402 0
-1160 -1759 0
346 -1704 0
880 -831 0
102 -574 -1990 -65 0
-1627 -737 0
316 -860 -939 0
-1751 -53 -884 0
1510 -1411 -1253 -602 0
514 -720 -1407 0
1133 -783 -749 -974 0
532 -342 0
12 -1627 -442 -1915 0
368 -965 -1561 -14 0
60 -1474 -1823 0
365 -1146 -341 0
77 -691 0
1713 -1118 -2000 0
-31 -410 -1874 0
411 -1045 0
-1202 -1534 0
626 -1057 -932 0
-788 -342 -394 -528 0
1489 -556 -505 0
-1897 -1291 -1604 0
802 -1810 -733 0
471 -1074 -1974 -21 0
-203 -1779 -330 0
61 -849 -325 -1317 0
1017 -1498 -1366 -191 0
-993 -126 0
651 -87 0
-1426 -862 0
500 -1861 -1743 -1899 0
634 -837 -54 -1167 0
-1113 -1106 0
1164 -175 -1541 0
-481 -1131 -1371 0
1939 -215 0
1373 -145 -488 0
976 -1378 -516 -375 0
-717 -1765 -1044 -913 0
393 -1975 -1180 -376 0
80 -1295 -622 -618 0
849 -1859 -1872 -360 0
1986 -175 -226 -844 0
19 -604 -1838 -1177 0
-1378 -259 -111 0
1397 -1556 -1663 -517 0
1389 -170 -712 -487 0
975 -675 -1602 0
1881 -1746 -1602 0
-279 -538 0
631 -1108 -1255 -1672 0
528 -412 0
862 -1562 -1430 0
1577 -1130 -639 -1690 0
1063 -1326 -1761 -1966 0
627 -1005 -1208 0
-630 -1958 -83 0
262 -146 -1501 0
-975 -1287 0
1041 -1781 -497 0
946 -854 -684 -1563 0
1792 -1269 0
659 -96 -1852 -1076 0
1503 -1129 0
204 -1172 -1099 0
1537 -914 0
59 -788 0
-1912 -416 -781 -1002 0
-1093 -1055 -1182 0
-1566 -1295 0
869 -8 0
670 -413 0
1942 -1293 0
1906 -1637 0
519 -28 0
1215 -1850 0
1942 -1418 0
-649 -546 0
1183 -1774 -1303 0
1334 -1138 -1561 -52 0
-1065 -1975 -1703 0
684 -1894 -1029 0
-1686 -1446 -826 0
-855 -1074 -1578 0
-1635 -1468 0
1619 -1764 -792 0
719 -1569 -1682 -619 0
1121 -41 -1306 -732 0
1167 -109 -1632 0
-727 -1653 0
467 -848 0
-489 -1946 0
1179 -977 0
497 -1992 0
1935 -543 -738 0
1652 -145 0
-705 -1641 -1024 -782 0
-107 -1120 0
1278 -1200 -301 0
1557 -851 -1780 -140 0
-913 -1422 -1605 0
1978 -1226 -1288 -876 0
-31 -342 -1139 0
1585 -1137 -1107 -1899 0
475 -1634 -1031 0
-1561 -376 0
-1618 -996 -719 0
856 -463 -1470 -1732 0
1272 -799 0
578 -1268 -1078 0
484 -1941 0
601 -1677 -766 0
1274 -1327 0
881 -77 -1641 0
-1322 -853 -4 0
201 -1187 0
-182 -746 0
-211 -724 -497 -878 0
1019 -1321 -1038 -846 0
1986 -238 0
539 -1164 -1002 -1241 0
1784 -1002 0
806 -132 -777 0
590 -1379 -1815 0
1725 -1418 0
1255 -439 -967 -733 0
1140 -1996 0
700 -1685 0
-1122 -840 -443 -1912 0
1272 -1420 -1545 0
1777 -755 -323 -1583 0
155 -126 -1985 0
1510 -1274 -201 0
603 -828 0
-1758 -1066 0
1994 -1523 -1111 -1592 0
1184 -493 0
531 -551 -1037 0
1060 -1151 0
1800 -1627 -1177 -440 0
-1482 -1583 0
1744 -151 0
955 -1827 0
109 -578 -1589 -1851 0
-1413 -971 0
1794 -1901 0
726 -1397 0
-1053 -1355 -1374 0
1906 -920 -126 0
1125 -1043 -609 -891 0
-276 -1200 0
98 -243 -970 -1414 0
-710 -231 -635 0
15 -793 0
-1577 -436 -1555 -1000 0
550 -1477 0
1165 -212 -296 0
-1963 -1773 -1566 -464 0
-89 -660 -1509 -663 0
1125 -1901 -748 -1245 0
1229 -1468 -1975 0
-1216 -62 0
468 -1145 0
94 -1895 -1632 -705 0
174 -218 -908 0
-1333 -605 0
722 -1034 -119 -1438 0
-725 -1953 0
424 -335 -1353 0
599 -1861 -466 0
1483 -85 -854 0
1564 -601 0
448 -1060 -1793 0
-565 -621 0
617 -1677 0
-457 -291 -938 -481 0
-206 -1760 -1650 -1109 0
882 -603 -1300 0
1951 -1559 -1348 -1994 0
448 -1688 0
1871 -1600 -1977 -1746 0
1942 -959 -91 0
-1528 -1417 0
-520 -1828 -1965 -1935 0
-1347 -1323 0
547 -610 0
-198 -520 -796 -217 0
1880 -1398 0
-1452 -1109 0
-1688 -498 -1563 -273 0
74 -142 0
-765 -562 0
1530 -1132 -543 0
1112 -1790 -1174 -261 0
-1107 -1395 -1885 -635 0
-568 -1327 -66 0
-421 -389 0
476 -539 0
788 -1717 0
1408 -172 -926 -59 0
849 -1610 -1252 0
1433 -959 -551 -671 0
249 -211 -820 -1835 0
810 -87 -1951 -1166 0
388 -153 0
941 -11 -1471 0
-1447 -1518 -1107 -524 0
1901 -1425 -1009 -1049 0
1750 -1603 -1001 0
1323 -1335 0
42 -125 -645 0
287 -1819 0
-932 -1626 0
802 -1256 -466 0
-1415 -452 0
-1440 -180 -1451 -171 0
1684 -1828 0
-1069 -856 -1222 0
1829 -814 -893 -1480 0
-1898 -1925 -1537 -338 0
807 -1054 0
131 -1211 -333 0
904 -1452 -645 -1805 0
1776 -817 -128 0
1952 -1159 0
-288 -1680 -1081 -1690 0
-1777 -15 0
-1063 -1938 -380 0
1892 -643 0
244 -1538 -1784 0
796 -536 0
1258 -481 0
1805 -1820 -1132 -1382 0
1077 -453 -295 0
1062 -1370 -706 0
-1870 -102 -538 0
-1748 -190 0
-1942 -566 -1374 0
1321 -1881 -1480 -241 0
-1142 -341 0
-222 -525 0
1731 -1727 -1667 0
-355 -855 -1707 0
82 -832 -1952 0
768 -1886 0
1074 -1816 0
-1863 -592 0
-1404 -960 -1642 0
1223 -1843 -1116 0
710 -1986 -1848 0
752 -1729 -632 0
-1216 -260 0
1752 -65 -1165 0
-221 -1263 -1062 0
490 -258 -250 -728 0
1938 -746 -1020 -1803 0
1143 -1612 0
439 -1442 0
1997 -1549 0
1648 -551 0
-1561 -1551 -1411 0
287 -1906 -84 0
-1237 -69 -816 0
1420 -1135 -517 -1153 0
1449 -918 0
1295 -650 0
-1665 -1723 -1641 0
327 -296 -1160 -491 0
943 -555 -691 -654 0
248 -643 -616 -555 0
1344 -1075 0
238 -137 -10 -1910 0
1325 -1035 -1051 0
1772 -331 0
651 -203 0
1232 -998 -1862 -1926 0
1558 -1076 0
1835 -1788 -1778 -1515 0
1066 -839 -1566 -337 0
-683 -271 0
525 -1072 0
138 -1290 0
717 -734 0
258 -811 0
1079 -304 0
1013 -1293 -1996 -920 0
604 -231 0
1553 -645 0
460 -1325 -342 0
287 -1926 -448 0
-615 -1205 -1584 -1470 0
329 -1321 -1649 0
-1966 -42 0
1297 -1994 -1392 0
156 -1214 0
564 -1242 0
1853 -412 0
1338 -1523 -1161 -1226 0
-361 -541 -569 -1366 0
-1927 -1223 -1165 -1293 0
1259 -1132 -1378 -1108 0
-1558 -677 0
271 -424 -1971 -1210 0
1264 -871 -867 -1920 0
538 -1792 -1231 0
-1323 -1353 0
1939 -642 0
1515 -735 -1445 -751 0
1470 -1010 0
1443 -1619 -319 -1723 0
1157 -1367 -558 -1717 0
-472 -179 -1454 -490 0
1852 -252 0
1954 -1829 0
1669 -345 -1482 -226 0
-351 -1982 -925 -1599 0
-793 -1176 -164 -1384 0
1579 -1133 -795 0
814 -1475 -1807 0
768 -1102 0
903 -1235 -116 -1311 0
190 -1528 0
-1242 -844 0
150 -1246 0
277 -542 -259 0
-1858 -1220 -1173 0
881 -1 -151 -1453 0
1360 -635 0
-1178 -564 0
-1287 -1585 0
-765 -474 -1836 -1533 0
-61 -765 -921 -79 0
1942 -298 -1192 -1479 0
1961 -117 0
-1477 -1077 -1155 0
200 -1023 0
720 -82 -1422 0
432 -155 0
-40 -1673 -711 -1960 0
-885 -508 0
1494 -1331 -1181 0
-3 -1545 -1466 -177 0
1045 -1381 0
-1624 -1610 0
-1958 -792 0
-695 -1532 0
-526 -1994 -1102 -1402 0
-725 -835 -849 0
-1439 -1585 0
-945 -1651 0
1060 -207 -536 -417 0
1119 -920 0
326 -1875 -902 -1433 0
500 -319 -520 -1338 0
132 -644 0
1544 -492 -1758 -1692 0
1579 -873 -1193 0
767 -1673 0
425 -802 0
479 -60 -1293 0
1031 -1316 -558 -1907 0
1766 -1775 -847 -1621 0
511 -491 -1989 -752 0
1935 -1013 -579 0
-1924 -1129 -51 -1440 0
-326 -1649 0
1346 -885 0
1514 -1916 -1247 0
-1957 -1245 0
-1444 -1064 0
1512 -1678 -1696 -669 0
1135 -1222 -432 -1205 0
822 -291 0
1757 -1356 -976 -1099 0
1547 -1635 0
924 -198 -37 0
1206 -1296 -1739 -1028 0
1842 -1846 0
1467 -423 -327 0
450 -1224 -1393 -1897 0
-950 -358 -1574 -1819 0
-565 -146 0
65 -1468 -1033 0
1155 -1514 0
-561 -553 0
883 -109 -166 0
134 -1167 -691 0
1724 -1888 -453 0
367 -101 0
1414 -1096 -425 0
-1446 -848 -245 -590 0
-1168 -994 -664 0
-1121 -1018 -1191 -1657 0
405 -210 -1889 -1000 0
1584 -1847 0
1318 -181 -686 -599 0
-1706 -319 0
1053 -1195 -1252 0
1688 -375 0
1586 -1004 0
-458 -704 0
-662 -1467 -835 -1325 0
878 -449 -1529 -409 0
822 -377 -1429 0
1425 -806 -1268 0
-400 -1604 0
1468 -583 0
214 -1654 -1556 0
-1894 -1096 0
-654 -370 -1558 0
324 -185 -1090 -655 0
190 -158 0
1827 -1958 -1644 0
-727 -695 -1113 -867 0
-1651 -309 -1859 -840 0
1000 -1188 -517 -1056 0
219 -510 -570 -715 0
939 -1615 -848 -90 0
1575 -685 -805 -321 0
-1420 -495 0
401 -297 -254 -543 0
1219 -123 0
-22 -1097 -1158 -262 0
-1148 -613 -1095 -93 0
1228 -1303 -1012 0
598 -100 0
990 -100 0
1322 -1054 -1951 -1022 0
-550 -1033 -324 -914 0
1992 -757 0
1364 -289 -99 -548 0
1697 -1835 -334 -936 0
1913 -455 -1878 -1677 0
361 -1420 -621 0
-1368 -146 -1880 -869 0
-1100 -1936 -1207 -1983 0
1895 -1811 -459 0
-648 -1634 0
-1224 -1969 -202 -513 0
-1416 -1699 -111 -1043 0
-126 -15 0
1695 -413 0
-739 -716 0
1002 -477 -1764 -1609 0
-745 -1587 0
266 -76 0
-1123 -1916 -1361 -1143 0
803 -53 -1344 -1268 0
1813 -672 -503 -715 0
1045 -949 -901 0
317 -907 -159 -1310 0
4 -545 -818 -735 0
1146 -1139 -598 -91 0
-374 -281 -654 0
1904 -281 -1992 -1645 0
1550 -1352 0
638 -1360 0
-288 -875 -1611 -62 0
-1281 -826 -315 0
1231 -1637 0
236 -331 -983 0
1136 -1386 -891 0
1775 -1442 -3 0
1515 -1287 0
810 -958 -514 -1164 0
-1779 -242 -434 0
1486 -1265 0
-893 -1610 -242 -1441 0
1463 -491 0
1491 -58 0
1449 -1800 -71 0
-1296 -337 -654 0
1687 -52 -1260 -1412 0
42 -844 0
-1980 -1961 -281 0
-1604 -1230 -1913 -992 0
1689 -455 0
-649 -456 -1778 -1433 0
-250 -1826 -324 0
444 -1352 0
-1115 -311 0
-1219 -1216 0
135 -1274 -1436 -443 0
1237 -710 -836 0
1924 -564 0
-900 -1834 -965 -1459 0
479 -1474 -1204 -268 0
1199 -1803 -416 -652 0
1824 -1960 0
124 -506 0
-1329 -665 0
783 -470 -1220 0
1487 -328 -1188 0
317 -1872 0
1033 -658 -224 -346 0
1261 -670 0
1840 -1788 0
90 -1112 0
-714 -1933 -1873 0
1373 -997 0
1420 -1173 0
1245 -1489 -1058 0
1286 -1266 0
399 -514 -235 0
155 -1061 -388 0
-716 -1825 0
914 -509 -1997 0
660 -393 -123 -498 0
1383 -1990 -1359 -43 0
-170 -93 -227 -1449 0
1168 -962 -1718 -484 0
1553 -415 -1006 -1034 0
1247 -1218 -1875 -1647 0
759 -1239 0
-1008 -960 0
1719 -269 0
-765 -21 0
-1266 -992 -1911 -687 0
174 -1410 0
1483 -1028 -155 0
662 -1222 -316 -1649 0
-301 -654 -495 0
-258 -1292 0
551 -770 -1837 -385 0
883 -738 -439 -139 0
468 -1849 0
1083 -300 -121 -774 0
1875 -471 -459 -1400 0
1850 -874 0
-483 -228 -1318 -1571 0
1643 -107 -1800 0
1521 -808 -170 -1651 0
822 -1870 0
1753 -1632 -815 0
1749 -969 -554 -1820 0
730 -387 0
97 -886 0
-305 -78 0
1598 -374 0
1109 -25 -1763 -1082 0
816 -1290 -1986 -1285 0
313 -903 -1403 0
-1128 -1115 0
1666 -1122 -769 0
1315 -98 0
-1761 -1323 0
-702 -200 -210 0
-1393 -1391 -282 -201 0
1731 -1279 -1650 -167 0
1292 -11 0
298 -1514 0
-1966 -1279 -583 -204 0
278 -1444 -493 -1042 0
-441 -898 -1033 0
1853 -810 -1655 -518 0
66 -586 -1268 0
1436 -1480 -441 -1391 0
-1193 -1632 -211 -250 0
1010 -286 -1609 0
-1015 -1110 0
1100 -872 -590 -261 0
-46 -753 0
-295 -1364 0
677 -1989 -349 0
1514 -266 -162 0
1467 -1906 0
932 -18 -626 -1506 0
311 -395 -299 -1437 0
-583 -1630 -1712 -611 0
1865 -1173 0
-1420 -853 0
-1203 -550 -1205 -829 0
-1536 -543 -1676 0
411 -1940 -1548 0
-1345 -128 -1257 -1411 0
1499 -551 -68 -1838 0
387 -1506 -943 -267 0
324 -1767 -1922 -1839 0
-1620 -721 -1290 -372 0
1307 -1363 -831 -1778 0
1629 -221 -1010 0
-19 -1342 -951 0
327 -1144 -1489 0
223 -1656 -546 0
775 -1752 -1283 0
-343 -1099 -295 0
1115 -388 0
1153 -484 0
105 -1922 0
1723 -1142 0
-648 -1717 -785 -1906 0
704 -1049 -745 -1397 0
-1793 -1995 -724 -420 0
1561 -1494 -1185 -1437 0
1182 -946 0
411 -131 -1962 -1183 0
1829 -1305 -1192 0
-766 -1467 -1011 -158 0
134 -910 -777 0
1484 -136 -1943 -1857 0
1886 -778 0
649 -924 0
-615 -84 -1478 0
-862 -1644 0
-1858 -1528 -376 -487 0
1005 -24 -387 -764 0
-932 -435 -347 0
1916 -1107 -40 0
1152 -1748 -1450 0
1478 -1981 -176 -1805 0
1009 -952 0
1912 -164 0
374 -266 -1958 0
31 -1652 -1974 0
1992 -1998 0
1236 -1760 0
555 -1671 -425 0
-880 -1694 0
502 -88 -560 -1050 0
505 -1326 -1384 -449 0
96 -1947 -1908 0
-1391 -965 0
-774 -1831 -1990 0
-1541 -1975 -786 -1795 0
526 -1704 0
1869 -384 -1181 0
760 -616 -1197 -1196 0
1969 -487 -132 -181 0
-1412 -1637 -1490 -880 0
835 -1864 0
-233 -1338 -1150 0
131 -519 0
481 -36 -479 -1408 0
-1656 -365 -319 0
-484 -1455 -556 0
1482 -908 -1509 0
1570 -1452 0
-1234 -1319 0
-72 -1074 -918 -1093 0
-1414 -540 0
1896 -1182 -895 0
1321 -749 -1259 0
-527 -1346 -1240 -776 0
1648 -1422 -1198 -824 0
-516 -1255 -83 0
1592 -739 -1617 -1899 0
579 -630 0
-1802 -1039 -1909 -1652 0
-910 -1141 -780 0
1052 -468 0
928 -1620 -1905 0
-1563 -1841 -888 -1208 0
-1349 -1295 -216 -1216 0
-958 -414 -1624 -1976 0
-1928 -252 -1847 -1258 0
1654 -1240 -336 0
1627 -822 -1902 0
1026 -1631 0
792 -801 -962 0
797 -1871 0
86 -332 -17 -264 0
762 -1660 0
1105 -1512 0
718 -1632 -1910 -1242 0
1845 -1550 -984 -467 0
-889 -887 -1432 0
1711 -1162 0
786 -1062 0
1241 -302 -125 0
-452 -1207 -1797 0
829 -1464 0
1769 -789 -1378 -1189 0
-903 -590 -1702 0
1167 -576 0
-231 -890 -1234 0
-1410 -1498 -1875 -1225 0
1148 -101 -1276 0
1873 -336 0
1169 -1289 0
136 -1626 -1267 0
859 -1988 0
1995 -1982 0
756 -1541 -1555 0
107 -1724 -630 0
1397 -152 0
-1873 -841 0
926 -1347 0
-1035 -545 -1951 -727 0
1211 -1520 0
867 -343 -1351 -637 0
-121 -772 -1158 -253 0
538 -387 0
1068 -1612 -65 -864 0
-1412 -134 0
1834 -1251 -1381 -924 0
-755 -1333 -809 -395 0
1453 -336 0
-428 -1903 0
887 -239 -166 -743 0
1299 -791 -1291 0
-37 -124 -285 -429 0
1089 -1758 0
1398 -1538 0
415 -473 -555 0
-727 -157 0
167 -63 -477 0
1580 -1920 -1668 0
1067 -240 -1806 -1973 0
1869 -597 -1091 -1544 0
1686 -172 0
279 -1958 -1796 -1976 0
937 -1638 0
804 -49 -1348 -1024 0
1382 -165 -1428 0
972 -1196 -586 0
517 -1458 -1958 -1764 0
-1310 -1320 0
168 -1489 -1267 0
630 -576 -1858 0
672 -557 -1087 -1566 0
1083 -37 -1173 0
1123 -694 0
-300 -193 -149 -611 0
949 -273 -1869 -203 0
318 -465 0
-1080 -552 -1541 -63 0
257 -150 -758 -1576 0
-746 -603 0
630 -1519 -1039 0
1803 -1437 -1507 -1748 0
529 -1951 -178 -541 0
-1135 -123 -1818 -1953 0
121 -156 -323 -1547 0
1908 -93 0
1487 -1296 -1322 -646 0
1131 -671 -734 0
-1073 -651 0
-466 -1090 -370 0
-1058 -916 -1714 0
-211 -268 0
1903 -1146 0
68 -552 -1380 -1194 0
756 -740 -50 -1694 0
-1175 -1103 0
402 -1765 -1611 0
451 -1185 0
-904 -1976 -710 -1351 0
1222 -895 -469 0
-754 -1835 -152 0
245 -1759 -417 -1150 0
1608 -1836 0
43 -766 -652 0
-439 -876 -653 0
1891 -725 -788 -511 0
887 -1709 0
-814 -1867 0
-357 -76 0
622 -986 -676 0
790 -1765 -575 0
1445 -706 -1676 0
-80 -633 -1658 -535 0
1696 -69 -969 0
-760 -1510 -1305 0
-1904 -1336 -1854 0
1816 -1794 0
-1144 -1869 -1825 0
-1024 -492 -516 0
1495 -1376 -2000 -1446 0
1991 -1547 -885 -881 0
-1736 -308 -1072 -1075 0
-678 -148 -673 0
53 -1562 -274 -1818 0
720 -531 0
1739 -102 0
579 -1182 -956 0
1050 -1600 0
656 -1728 0
402 -746 0
1564 -886 0
965 -112 -1524 0
5 -1832 0
305 -1749 -321 -681 0
-53 -1274 -426 0
1254 -1018 -798 -26 0
1016 -291 -1468 0
445 -327 -1823 0
92 -1824 0
-1667 -1515 0
-1789 -478 0
723 -1707 0
-455 -983 -1795 0
948 -580 -1305 -401 0
1247 -1447 0
-1657 -1610 0
1801 -98 -88 -305 0
1720 -1850 -553 0
1159 -1644 -624 0
1364 -1503 -1914 -875 0
347 -296 -192 -1969 0
1576 -1257 -1703 -1666 0
1701 -1030 -729 -443 0
1435 -453 -1825 0
810 -763 -1999 0
664 -469 0
1695 -1488 -1464 -1741 0
1029 -725 0
652 -1820 -631 -1739 0
1739 -1073 0
186 -912 0
-323 -1051 0
658 -1848 0
224 -87 0
91 -1362 -1034 0
-1226 -319 -364 -196 0
-1565 -1829 -784 -243 0
141 -739 -926 -1991 0
-407 -675 -757 0
-1594 -317 -1840 0
496 -267 0
1359 -1579 0
1177 -265 0
1460 -69 -1476 -1870 0
-789 -1485 -472 0
118 -1763 -201 -576 0
-450 -856 -261 0
133 -984 -1678 0
-22 -65 0
-1662 -831 -894 0
759 -346 -259 -1715 0
326 -433 -1694 0
-1074 -1415 -225 -1393 0
1761 -192 -1499 0
561 -1819 -168 0
1418 -801 0
1426 -539 -205 -1457 0
-176 -461 -1433 0
1735 -1107 -1751 -1323 0
1998 -1329 -1116 -1970 0
-1431 -1390 -1356 0
756 -941 -1067 0
1823 -460 -47 0
866 -990 0
730 -1875 -860 -131 0
1025 -1521 -22 0
1691 -166 0
689 -598 -1722 -425 0
761 -41 -569 0
1373 -1681 -1604 -1455 0
1963 -1485 -100 0
-1968 -1 -1619 0
-1345 -1329 -1 -1779 0
21 -1480 -607 -1419 0
-1518 -440 -68 0
1872 -1018 -247 -1690 0
-947 -1983 -73 0
-729 -1930 0
1391 -22 -532 0
-77 -140 -1639 0
1677 -1929 0
1561 -1654 -1816 0
-1820 -1681 -1939 -517 0
400 -1360 -826 0
878 -155 0
-484 -1120 -927 0
-1217 -1894 -1414 0
-1628 -1109 0
1085 -1422 -318 0
-250 -5 -91 -1531 0
425 -1962 0
572 -399 -2000 0
487 -1728 -194 -1283 0
-1675 -1700 -375 -1417 0
173 -1159 0
739 -1225 0
1113 -786 -516 0
1115 -368 -130 -323 0
1615 -1024 0
-510 -891 -717 -1464 0
626 -1490 -1162 -1 0
264 -1500 -613 0
100 -1322 -789 -828 0
1854 -1467 0
1708 -1760 -358 -1764 0
-1511 -903 -767 -1368 0
1199 -1557 -1337 0
-764 -1005 -1063 -360 0
1269 -448 -1206 0
-1141 -1349 -879 0
1741 -1994 -1030 -1338 0
-502 -1840 -397 -1948 0
-464 -229 0
1565 -1911 0
-356 -1133 -1617 -846 0
1201 -1277 -1080 0
-1683 -1025 -1921 -1355 0
-851 -750 -380 0
974 -1031 -964 -54 0
147 -1615 -541 0
194 -47 -85 0
240 -1499 -173 -277 0
-953 -251 -119 -65 0
41 -804 -400 -1171 0
414 -1513 0
650 -188 0
-1067 -728 -1484 -1468 0
1142 -1154 -1408 -870 0
1437 -1131 0
-179 -413 0
1586 -1193 -874 -766 0
151 -334 -824 -179 0
751 -229 -1517 0
101 -925 -1667 0
723 -1822 -253 0
-1008 -1185 -1348 -677 0
-1168 -1343 -1858 0
-184 -1476 -1750 -1308 0
-1591 -1034 0
-576 -23 -232 -894 0
-204 -1929 -794 0
669 -276 0
1524 -65 0
420 -1840 0
-1060 -910 -1779 -50 0
-992 -666 -282 0
-514 -1165 -240 -1305 0
595 -1962 -1910 -1395 0
334 -452 0
-290 -1666 0
1692 -707 0
1122 -1363 -126 -252 0
1912 -930 0
1716 -640 0
421 -408 -414 0
1720 -984 0
965 -474 -1781 -1087 0
-1649 -1140 -290 -92 0
648 -208 -1968 0
754 -787 -1536 0
-413 -1274 0
318 -357 0
578 -1909 -1361 0
-1964 -1601 -634 0
923 -1118 -1034 -417 0
707 -122 -332 -1425 0
151 -1175 -81 -374 0
-354 -1222 -1751 0
-1339 -670 -316 0
1814 -1074 -761 0
1951 -1816 0
462 -1785 -958 0
108 -675 -1666 -463 0
-542 -138 -1401 -1046 0
-758 -442 0
-769 -415 0
-144 -208 -1938 0
-1331 -431 -1519 -1069 0
-462 -1803 -1634 -768 0
1660 -1593 0
1863 -1416 -1013 -1665 0
1369 -1083 -1482 -647 0
1415 -844 -422 0
568 -99 -864 0
1685 -1982 0
1355 -1981 -1825 0
-88 -41 -31 0
574 -16 -1356 -1514 0
1893 -1646 -1973 -494 0
1227 -1524 -1597 0
1903 -869 0
194 -225 -1714 0
1264 -1162 0
321 -621 0
1857 -1954 -1801 -1468 0
1078 -913 0
1179 -474 -408 0
1589 -892 -1170 0
1132 -176 0
471 -1837 -1836 -891 0
1662 -1190 -1684 -837 0
421 -40 -977 -1401 0
1840 -1033 -274 -21 0
394 -138 -1831 -958 0
335 -1427 0
107 -95 0
1226 -1105 -1625 0
1341 -1709 -794 -670 0
183 -1724 0
146 -1409 0
-1751 -637 0
-714 -131 -224 0
1066 -1191 0
1368 -781 -1527 -705 0
-1016 -486 -778 -1320 0
331 -1182 -33 -121 0
-588 -1797 -433 -921 0
249 -1927 -1932 0
1202 -899 0
1869 -1581 0
1925 -1237 -1169 0
132 -1584 -1567 -976 0
62 -1101 -997 0
-1480 -554 -1987 0
-834 -1517 -1002 0
1585 -1127 -24 0
1045 -248 -1534 -5 0
-294 -1168 0
222 -1743 0
-77 -1268 -974 0
-1946 -725 0
1229 -670 -1532 0
-1817 -1317 0
565 -1621 0
7 -1550 -46 0
1088 -1367 -202 0
-296 -1691 -374 -1073 0
512 -1195 0
1675 -891 -1671 -1504 0
1749 -612 -38 -788 0
1719 -1487 -549 0
-1630 -255 0
-1338 -1824 -787 0
-573 -1793 -1545 0
-781 -127 -218 0
925 -1347 -444 0
1863 -1620 -1944 -159 0
-1256 -1146 0
-559 -1431 0
1795 -520 0
391 -113 -1716 -550 0
-905 -816 0
909 -725 0
415 -39 0
-1095 -1205 -108 -1288 0
-1285 -216 -65 0
958 -180 0
760 -1835 -735 -1990 0
91 -862 -1842 -668 0
1051 -766 0
321 -1349 0
576 -1409 -342 0
58 -81 -1485 0
307 -1294 -935 -1306 0
-285 -1665 0
796 -797 -1351 -1107 0
1615 -121 -825 0
-1146 -1862 0
1712 -1897 -1557 -1945 0
-1275 -1007 -438 0
818 -1811 -1984 -1682 0
715 -544 0
-507 -1061 -1999 0
526 -1418 -1541 0
1204 -588 -1889 0
427 -930 -730 0
714 -821 -1734 -1960 0
645 -1643 0
283 -284 0
1095 -494 -374 0
-361 -643 0
-1514 -1486 0
510 -1328 -1786 0
-129 -1690 -775 -1861 0
794 -453 -880 -1880 0
-667 -913 0
83 -781 -997 -64 0
1894 -790 -1398 -183 0
1103 -1612 -1074 -169 0
411 -783 0
711 -541 -928 0
-181 -31 -734 0
501 -1549 -1534 -152 0
401 -426 -1848 -358 0
246 -454 -74 0
725 -128 0
1194 -1969 -388 0
602 -678 -242 -1047 0
167 -223 -1779 0
1133 -741 0
762 -1537 -1287 0
-826 -586 -688 -1096 0
-959 -1188 0
957 -1785 0
810 -1983 0
766 -1664 -1618 0
699 -1744 0
1126 -550 -762 -326 0
192 -653 -1938 -852 0
-16 -97 0
-1734 -911 -976 -1934 0
885 -131 -1235 0
-568 -1765 0
1242 -1774 0
-1532 -53 -868 0
616 -1733 0
167 -1239 -452 0
1962 -1999 -1427 -1790 0
1546 -779 -1523 -1513 0
-380 -1544 -727 0
1945 -268 -1884 -509 0
883 -1723 -1856 0
-1898 -934 -846 -497 0
516 -761 -748 -826 0
725 -1751 -1009 0
1565 -1926 -1307 0
836 -201 -468 -821 0
1949 -1996 0
-767 -827 -1928 -412 0
435 -1791 0
1154 -721 -618 0
34 -746 0
-197 -1894 0
936 -1683 -73 -1633 0
1007 -1436 -216 0
528 -664 0
723 -269 -1790 -1316 0
364 -1394 -876 -1606 0
-1913 -212 -767 0
-1252 -912 0
675 -1372 -917 -1011 0
1468 -1983 -1478 -1029 0
1320 -38 -255 -817 0
1090 -1103 -262 0
-1089 -855 -1431 -1950 0
519 -481 -1968 -639 0
1170 -593 -191 -1191 0
-1077 -1873 -303 -13 0
1535 -240 -563 0
1247 -922 -172 0
-1742 -286 -1073 0
1106 -1888 -1228 -591 0
963 -1462 -673 0
-392 -681 0
1342 -1814 -149 0
-242 -118 -1015 0
-338 -581 -1932 -128 0
-855 -1727 0
-1414 -918 0
309 -294 -1052 -1834 0
359 -1484 -1555 0
-1606 -1986 -1749 0
1200 -644 -349 -491 0
1265 -527 -1253 -113 0
1327 -1649 0
1334 -737 -1201 -273 0
-1230 -105 -789 -17 0
1942 -1548 0
1043 -1967 -122 0
-568 -256 -651 0
942 -576 -536 0
47 -414 -369 0
-1930 -96 -1532 -226 0
1192 -350 0
-212 -232 -126 -682 0
1127 -1479 -987 0
483 -212 -1282 0
1433 -2 0
567 -477 0
1547 -623 0
1933 -278 0
-1621 -88 -1099 0
896 -1704 -292 -300 0
-1229 -1079 0
1444 -782 -1271 0
1153 -978 -960 0
-1402 -1464 0
579 -769 -1937 -599 0
-721 -1862 0
1676 -989 -1110 -1855 0
1034 -278 -201 0
796 -388 -1727 -1768 0
-1595 -1445 0
1626 -1381 -1809 -1710 0
1313 -388 0
-472 -656 -1504 -1840 0
65 -371 -1347 -1569 0
-812 -243 -796 -220 0
-577 -1571 0
1144 -666 -1252 0
-1569 -839 0
721 -1516 -920 0
1322 -1435 0
1942 -88 0
1207 -786 0
102 -121 0
1603 -655 0
1669 -276 0
834 -930 0
624 -1454 -394 0
1391 -582 -443 -1096 0
1583 -1660 -1818 0
1634 -737 0
1215 -1916 -465 -1102 0
1171 -1143 -1250 0
1670 -1086 -1491 0
151 -680 0
533 -1278 -424 0
1271 -1753 -1699 -176 0
237 -31 0
-312 -1064 -1746 -173 0
463 -847 0
1154 -1315 0
719 -1568 -1895 -70 0
-1353 -1298 0
899 -1691 -750 -1008 0
1291 -1266 0
-1580 -138 -1352 0
827 -676 -1523 -1092 0
530 -918 -252 -1458 0
961 -609 -697 -1232 0
-1732 -1700 0
-1450 -1756 -793 -1919 0
1999 -182 0
404 -1890 -653 0
1787 -1201 -1234 0
-587 -1292 -114 0
-1367 -1565 -1807 -628 0
1732 -1853 -191 -234 0
1299 -771 0
208 -724 -1888 -1576 0
1592 -488 0
967 -1253 -1366 0
-158 -1584 -1956 0
-1945 -1752 -1957 -1259 0
-729 -1794 -675 -683 0
184 -1158 0
495 -1076 -607 -1887 0
902 -530 -1480 0
680 -1566 0
-1853 -1926 -1306 -641 0
1146 -226 -313 -1666 0
416 -129 -1548 0
1899 -1393 -1088 0
-137 -11 -531 -1099 0
876 -19 -1186 0
64 -493 0
-1038 -617 0
-1822 -630 0
460 -1902 -1091 -1865 0
-562 -2 -1054 -697 0
729 -1571 -1693 -1101 0
1196 -795 0
33 -415 -1609 -1483 0
-411 -529 -1708 -65 0
-1412 -1888 -1986 -352 0
-440 -1394 0
267 -813 -1734 -1784 0
-1976 -440 0
1563 -1461 0
14 -1727 -1278 -1685 0
1906 -13 -603 -1670 0
499 -1755 -605 -1897 0
-1708 -1797 0
1577 -857 -1304 -677 0
1905 -804 0
-552 -645 0
654 -657 0
-1287 -758 0
651 -623 0
-557 -1837 -558 0
1124 -1036 -1655 0
375 -1334 -723 -805 0
1415 -207 -1351 0
1902 -1252 0
1095 -184 -775 0
-1748 -414 -1850 -706 0
-1051 -1547 0
-583 -1755 0
806 -1634 0
-1435 -350 -1141 0
1337 -1949 -978 0
141 -1223 -823 0
849 -611 -561 0
273 -1499 -1385 0
-1708 -1183 -1573 0
-1258 -1629 -1489 -114 0
1303 -1394 -1691 0
263 -894 -1488 0
454 -754 -461 0
918 -1450 -333 -5 0
468 -104 -144 0
813 -949 -7 -1218 0
1490 -745 -1515 -10 0
1142 -1090 -695 -400 0
-165 -84 -531 0
-541 -250 0
-1130 -639 0
884 -396 -117 0
1021 -485 -381 0
1094 -1546 -8 0
1028 -1815 -1911 0
822 -187 -125 -1073 0
-1562 -1045 -1569 -1779 0
1065 -1595 -1675 0
848 -596 -722 0
1370 -1371 -1699 -245 0
33 -840 0
1065 -1151 -1382 -199 0
346 -142 -382 0
1352 -1282 -1009 -1911 0
1691 -595 -151 -50 0
-1539 -744 -1077 0
662 -1934 -1594 0
1178 -469 -1981 -583 0
445 -1897 -1584 0
82 -1513 0
817 -1155 -698 0
900 -67 0
1935 -1509 -1296 -285 0
1227 -3 -317 -1788 0
1590 -1235 -713 0
1915 -726 -529 0
-1527 -1 0
1266 -753 -107 -652 0
1564 -1902 0
1124 -1916 -783 -1847 0
229 -1581 0
1493 -574 -777 -1558 0
26 -1381 0
1437 -1331 -1936 0
1220 -563 -1455 0
-465 -307 -750 0
-1997 -264 0
152 -1113 -1124 -1133 0
570 -1954 -1498 -467 0
1361 -1853 0
1045 -1554 0
960 -898 -1724 0
354 -1652 0
826 -242 -1736 0
1575 -609 0
914 -439 -822 -828 0
885 -1731 -1271 -771 0
893 -667 -613 -769 0
844 -1929 0
-644 -1720 -1309 0
1522 -622 -181 -1407 0
-990 -1223 -1868 0
-425 -1937 0
1770 -872 -1041 0
1671 -1524 0
-389 -925 -989 0
429 -1556 -798 0
559 -1975 -1763 -414 0
-1758 -43 -1010 0
-1653 -1507 -1150 0
1265 -716 -1196 -1257 0
-936 -42 -1247 -12 0
1492 -1650 -1992 -1445 0
825 -1723 0
-1265 -822 -1483 0
795 -240 0
-854 -777 -1584 -348 0
1191 -190 -727 0
-382 -671 -1914 0
-1064 -1119 -190 -1310 0
1708 -1348 0
647 -1866 0
-1172 -594 0
1024 -1985 0
1188 -1796 -1068 -648 0
1092 -1609 -758 0
-1941 -1836 0
-1468 -1563 -1280 0
-856 -1039 -1406 0
18 -279 0
871 -1482 0
-1843 -1536 0
1151 -818 0
1741 -439 -1505 0
94 -783 -1342 0
1150 -1897 -41 0
-1700 -186 -1832 0
661 -1853 -1243 -926 0
338 -546 -1410 0
418 -842 -625 -545 0
-1645 -106 0
1844 -1946 -1079 -1518 0
424 -1506 -948 -1284 0
1123 -674 0
-1525 -1880 0
655 -1988 -1256 0
-68 -1188 -95 0
331 -208 0
-302 -1235 -1057 0
23 -1141 0
188 -542 -1812 -1156 0
270 -97 -1831 -1326 0
306 -734 -1564 0
1351 -780 -1341 -984 0
848 -701 -909 -992 0
-1303 -370 0
289 -1536 -349 0
1416 -1861 0
1456 -813 -369 0
887 -1792 0
-51 -632 0
219 -141 0
46 -644 -1032 0
1315 -601 0
-1472 -534 0
578 -1572 -1787 -601 0
-18 -473 -1749 -669 0
-1753 -1528 -1723 -1537 0
1736 -1896 0
1950 -1594 -1974 0
468 -1310 0
1998 -608 -1290 0
-1271 -1688 0
1661 -1239 -1468 0
-876 -1048 0
-1983 -596 -1836 0
752 -1002 -434 0
623 -96 0
-1030 -1236 -231 0
1308 -1834 -447 -280 0
117 -1868 -1191 0
741 -492 -150 0
837 -1223 -602 -1791 0
1016 -101 -1793 -713 0
1766 -1324 0
986 -643 -544 0
376 -16 0
-825 -255 -1696 0
1590 -1568 -1200 0
1 -991 -620 -262 0
166 -174 -1350 -782 0
963 -1450 -836 0
-403 -1865 -1098 0
83 -577 -1333 0
-1205 -1219 0
-815 -1165 0
1975 -674 0
317 -1028 -1444 -1709 0
1095 -151 -1982 -1383 0
880 -652 -1874 0
293 -99 0
-191 -58 0
-1483 -1593 -267 0
394 -262 0
-549 -599 -1403 -1607 0
1103 -1604 0
600 -274 0
-556 -1886 0
-1167 -771 -1692 -53 0
983 -208 0
1654 -364 -1275 -1259 0
903 -603 -548 -1252 0
426 -528 -1910 0
1216 -286 -1977 0
1923 -311 -304 0
-915 -348 -51 -1523 0
-31 -853 -1493 0
1150 -668 -1887 0
-741 -1271 -162 -1437 0
1747 -1016 -1101 0
1459 -226 0
710 -1717 0
-252 -135 0
1682 -1557 0
-1002 -416 -542 0
1405 -1739 -16 0
-19 -1154 -420 -638 0
548 -427 -470 -1316 0
-490 -452 0
-639 -177 -651 0
930 -1017 -1920 -716 0
1126 -1786 -821 0
642 -1922 0
1346 -1438 -1436 -506 0
1715 -597 0
-301 -1003 -1124 0
1585 -1186 0
1427 -374 -420 -1378 0
582 -1789 -1486 -777 0
404 -1824 -1388 0
1333 -1028 0
-1285 -174 0
1381 -1732 0
1851 -1098 -1657 -985 0
122 -512 0
-159 -1564 0
272 -1793 -421 0
29 -1371 -409 -1738 0
1047 -547 0
169 -1308 -984 -239 0
1320 -316 -1437 0
28 -25 0
1413 -556 -1401 -847 0
1381 -1629 -1517 -1492 0
-250 -1873 -116 -133 0
-696 -1002 0
1751 -1247 0
918 -1405 -165 0
1256 -1410 -446 -1168 0
1433 -1793 0
559 -1127 0
580 -1495 -1549 0
-405 -222 0
129 -686 -1400 0
-620 -1919 -820 -1418 0
-593 -1436 0
1043 -77 -1612 -1539 0
1741 -136 -814 -1694 0
-708 -157 -804 -563 0
764 -1073 -1447 -918 0
-1370 -1275 -67 -1236 0
984 -255 -1011 0
1784 -954 0
-297 -1083 0
-1174 -880 -1703 -483 0
122 -1307 -1591 0
345 -971 -733 -1685 0
1816 -725 0
1976 -754 0
1272 -782 0
-1573 -1234 -1461 -1655 0
1638 -719 -710 0
276 -1300 -163 -1068 0
-796 -279 -1682 0
-1463 -1760 -575 0
772 -1247 0
1007 -634 0
1956 -148 0
-1607 -992 -640 -1476 0
528 -926 -1147 0
-1886 -103 0
1068 -425 -340 -95 0
1148 -1942 -1797 -1174 0
-742 -627 -1219 -1199 0
1093 -186 -1996 0
73 -1457 0
1585 -54 0
-939 -717 0
1918 -1870 0
716 -285 -794 -1318 0
561 -99 -108 -264 0
1419 -1662 -1869 -10 0
-210 -477 -557 -974 0
-1280 -1865 -1724 -492 0
664 -257 0
-208 -233 -563 -1245 0
1010 -1440 0
1929 -176 -150 -1376 0
382 -66 -789 0
-576 -933 -847 0
-1869 -542 -1815 -1980 0
1452 -771 0
493 -611 -274 -629 0
-738 -618 0
1114 -718 -1211 -751 0
705 -1652 -417 0
1204 -832 -253 0
1478 -1878 -1887 0
1830 -1225 -1129 -1010 0
1041 -386 -233 0
934 -146 -1796 0
741 -1041 -1282 -1615 0
1906 -409 0
-1926 -1645 0
1920 -707 -1405 0
616 -802 0
1434 -1722 0
-1887 -11 0
1137 -1970 -1410 0
198 -1844 -470 0
1899 -1105 0
-381 -1996 0
1846 -101 0
-1778 -1714 -444 -1147 0
704 -285 -1200 0
997 -326 -317 0
245 -620 -34 -1644 0
63 -1399 -456 0
1174 -227 -702 0
955 -258 -1274 -1635 0
1707 -334 -388 -234 0
1377 -1119 -941 -1876 0
-189 -54 0
1595 -977 -1634 0
391 -733 -1817 -1350 0
178 -89 0
498 -1442 -981 -1150 0
1515 -382 -1703 -795 0
551 -1280 -852 0
365 -1440 -1895 -193 0
241 -1033 -1845 -1254 0
-1137 -849 0
-1176 -853 -1993 -922 0
-1761 -93 0
554 -1944 -1588 -1484 0
1100 -1707 0
192 -946 -1001 -1365 0
1618 -1733 -417 -1875 0
1388 -813 -1066 0
-1394 -1602 -491 0
1984 -1231 0
955 -476 -470 0
299 -1559 -121 -449 0
1 -1883 -420 0
1244 -1942 0
-177 -1621 -749 -256 0
-29 -1996 0
420 -1699 -1881 0
1624 -1545 -1134 -1072 0
1656 -1588 0
187 -1571 -1567 0
576 -656 -1851 -241 0
-1911 -1855 -72 -544 0
-315 -270 -1818 -349 0
45 -677 -1304 -1502 0
-1522 -1683 -1083 -1244 0
-189 -1860 -1008 -425 0
-1895 -894 -1347 0
-1232 -762 0
-9 -1048 -1978 -577 0
1306 -1344 -241 0
55 -1596 -924 0
76 -378 -1588 -633 0
867 -576 -1890 -1655 0
1583 -451 -620 -716 0
-854 -1364 0
-1022 -609 -616 -906 0
-1828 -1765 -1997 0
1308 -248 -664 0
46 -206 -1478 0
-37 -1729 0
-997 -909 -1200 -1334 0
563 -1243 0
1775 -749 0
591 -409 -1576 -64 0
1486 -847 -694 0
332 -1292 0
1258 -1848 -40 -1466 0
80 -379 -149 0
1489 -1801 0
122 -1873 -108 -828 0
1532 -525 -1142 0
357 -1507 0
1436 -390 -1451 0
1019 -1914 -280 0
-930 -62 0
717 -64 -375 -1673 0
875 -1340 -1778 -1306 0
1958 -1232 0
161 -1509 0
237 -1240 0
1683 -289 -914 -1930 0
260 -1867 -1676 0
-1981 -696 -778 -585 0
1573 -471 0
-1704 -1839 0
-1523 -179 -53 0
214 -1726 -500 0
155 -1473 -634 0
324 -1903 -74 -1607 0
651 -691 -274 -1945 0
341 -750 -886 -1042 0
1045 -446 0
-211 -1712 -505 -1858 0
1571 -1771 0
1613 -1213 -1802 0
546 -1660 0
1631 -857 -862 -1884 0
1234 -151 -1582 0
1277 -1218 -869 -604 0
1008 -973 0
-356 -1718 0
1876 -453 -1895 0
1518 -452 0
-1908 -258 -1279 0
-1479 -1431 0
1227 -1134 0
502 -1209 0
898 -242 -1949 -355 0
18 -1950 -1817 -1839 0
1324 -960 -1387 -95 0
799 -862 0
-1892 -948 -1619 0
642 -680 -532 0
-272 -1216 -637 -1353 0
1786 -1592 -793 0
461 -1808 -115 0
717 -1988 -537 0
780 -875 -1236 0
15 -777 -234 -771 0
161 -1165 -1588 -101 0
-496 -689 -120 -1379 0
1971 -920 -1431 0
716 -1948 -128 -580 0
1562 -1983 -1512 -163 0
160 -78 0
-845 -13 0
1941 -113 0
-485 -1013 0
852 -1188 -1497 -841 0
1061 -1634 -1956 0
1539 -553 -1865 0
-224 -1608 -1066 -780 0
26 -1639 -1893 -1819 0
-941 -1789 -342 -1881 0
487 -1091 -1112 -1906 0
-1537 -995 -1183 0
-1534 -701 -85 0
1527 -808 0
-1857 -1332 0
116 -948 -1605 0
188 -1953 -1092 -607 0
1703 -1585 -799 0
-954 -472 -1807 0
-1831 -94 -1273 0
-766 -1174 -1558 -1719 0
1685 -1356 -1996 -891 0
1790 -835 -1084 -1939 0
580 -691 -1134 -1601 0
1303 -835 0
720 -213 -681 -341 0
706 -824 0
-814 -174 0
473 -1922 0
1466 -824 -1079 -33 0
325 -590 -1900 0
-1348 -1455 0
988 -78 0
1030 -925 -1413 0
1889 -1531 0
502 -70 -109 0
1848 -1973 -1853 -1349 0
248 -1982 0
-948 -1667 0
1255 -1053 -475 -185 0
1339 -418 -73 0
-1082 -677 -873 0
617 -1060 0
-835 -1953 -1400 0
753 -183 -1406 0
918 -501 -58 0
1458 -512 0
1098 -318 0
898 -645 -910 0
-1179 -1266 -1830 0
985 -899 -1676 -1637 0
-992 -151 -784 0
1884 -440 -1862 -322 0
-701 -918 0
-1088 -20 0
1953 -1798 -1986 -1518 0
273 -470 0
1401 -1995 -1409 0
-287 -1807 -1899 0
1212 -1713 -815 -1332 0
1899 -1704 0
1352 -60 -1285 0
1578 -580 -338 -1824 0
696 -63 -1317 0
495 -1424 -633 -211 0
91 -1214 -997 0
-33 -604 0
-530 -1898 -868 -1892 0
1640 -1469 -793 0
1293 -723 -940 -120 0
-1874 -1783 0
1587 -1762 0
1988 -40 0
1106 -88 -537 -705 0
-1411 -1184 -1024 0
-1008 -614 0
-767 -14 -108 0
-474 -1380 -839 0
1969 -154 -964 -1517 0
-454 -1045 -12 0
-1096 -589 -826 -163 0
1124 -618 0
-70 -1366 0
-609 -313 0
412 -843 -1223 -485 0
1046 -435 -985 -1877 0
974 -1728 0
1512 -932 -559 0
-621 -1017 -531 0
1556 -1463 0
-400 -1542 -1324 0
-144 -332 0
1857 -241 -1955 -1087 0
1031 -870 -373 0
255 -399 -886 -385 0
1507 -616 -1754 -993 0
-1227 -1345 -437 -1184 0
1932 -1328 -884 -820 0
526 -1545 0
1590 -1716 0
-1990 -1018 -1429 -930 0
994 -175 -413 -719 0
426 -1565 0
142 -1577 -1967 -421 0
1441 -1947 -1503 0
1278 -1532 -1401 -973 0
-1918 -1281 -1954 0
1000 -1417 -46 -1865 0
1618 -547 -644 -119 0
453 -1407 -203 -1627 0
-34 -1972 -428 -43 0
1593 -1534 -1676 0
766 -482 0
1543 -1010 0
164 -15 0
1661 -606 0
543 -45 -680 0
53 -1685 -356 0
-953 -1631 -1357 0
-788 -983 0
-1103 -1175 0
-89 -1380 -293 0
1580 -997 0
1419 -222 -464 0
452 -1425 -1338 0
765 -1182 -1536 0
-95 -994 -1008 0
96 -144 -122 -922 0
777 -995 -816 -738 0
-1259 -731 -867 0
1511 -556 -1513 -853 0
-656 -96 -1947 -1154 0
48 -751 -408 -1012 0
1887 -310 0
162 -398 0
-1487 -1340 -1033 -104 0
110 -1259 -712 0
-1862 -825 -1926 -1031 0
1218 -451 -1104 0
670 -739 -1138 0
1280 -81 -1876 -794 0
1291 -1272 -509 -1791 0
-352 -1107 -12 -153 0
-500 -1206 0
884 -815 -1478 -930 0
1923 -1945 -1162 0
849 -388 -1373 0
784 -677 -1183 0
619 -1171 -1614 0
1745 -319 0
-1520 -1242 -519 -1588 0
914 -1193 0
667 -111 0
619 -1821 0
1915 -355 0
1830 -1301 -1815 -666 0
-1411 -372 0
-1636 -15 0
1585 -1173 0
1494 -1060 -113 0
-950 -549 -625 0
646 -223 -381 -1294 0
296 -1791 -537 0
1305 -1754 -480 0
-231 -321 -8 -516 0
-47 -883 -778 -1923 0
-1841 -791 -17 0
276 -1614 -233 0
1428 -492 -906 0
1170 -922 -725 -1040 0
-1930 -138 -282 -607 0
1295 -969 0
931 -742 -227 0
1603 -1217 -1745 -1178 0
1608 -1602 -1874 0
-1844 -1494 -65 0
1058 -1418 -893 0
176 -723 0
984 -784 -1742 0
435 -1923 -327 -1218 0
1688 -1877 -1068 0
-239 -891 -585 0
1080 -496 0
1357 -352 -32 0
656 -257 -1023 -919 0
1217 -1578 -1323 -1049 0
-714 -1904 -1159 -688 0
1120 -956 -750 -1475 0
447 -1942 -1662 0
1453 -781 -718 0
113 -1294 -537 0
969 -436 -407 -857 0
-664 -1187 0
-404 -916 0
144 -184 0
-1309 -856 -839 -1431 0
-1119 -943 -333 0
-183 -1951 0
-334 -618 -1860 0
1744 -859 0
1316 -709 -664 -1082 0
-683 -510 -1528 0
-1697 -294 -1824 -146 0
111 -409 -883 -27 0
988 -874 -481 0
-1796 -1114 -953 0
-190 -542 0
-202 -939 0
-684 -188 0
-462 -1544 -846 -1351 0
-1981 -86 0
-1306 -1611 0
337 -1443 -289 -290 0
1498 -1141 -1689 0
-1299 -502 -408 -1716 0
-949 -1266 0
1437 -1576 -1291 -445 0
-118 -838 -670 -1073 0
1343 -420 -1577 0
-1306 -890 -1132 0
533 -618 -353 0
1256 -941 -1396 0
1822 -1549 -1313 0
-780 -220 -610 0
1993 -669 0
488 -1016 -1036 0
324 -1918 -1027 -1045 0
-1093 -1373 0
1803 -1032 -1990 -167 0
-498 -722 -1035 -1594 0
460 -1113 -1505 -912 0
575 -48 -1826 0
862 -1991 0
-743 -703 -641 -1099 0
1141 -1820 -905 0
840 -369 -1899 0
1012 -82 -1204 -1425 0
-71 -623 -1998 -1382 0
-680 -1379 -733 0
-181 -917 -830 -1832 0
-573 -1130 -1783 0
87 -1887 -721 -1203 0
1492 -596 0
1066 -127 0
1560 -1602 -523 0
1899 -779 -1232 0
1399 -27 -1070 -1374 0
-1288 -1923 -1713 -492 0
-876 -1457 0
1602 -834 0
14 -119 -85 -838 0
-392 -1750 0
-1631 -1262 0
511 -1291 0
-988 -663 -1825 -96 0
1622 -511 -1970 0
1631 -1600 0
-1837 -662 -1270 -1055 0
557 -735 0
-452 -9 0
1896 -200 0
-1372 -1243 -1582 0
1363 -1666 0
1314 -1191 -992 0
-937 -82 0
1285 -106 -747 0
978 -205 -276 0
-24 -1721 0
914 -1514 0
-1534 -621 -1752 0
-1649 -1703 -649 -538 0
1079 -555 -737 0
-1828 -157 -1504 0
1765 -1631 -1073 -802 0
1065 -1261 0
1018 -847 0
1054 -991 -913 0
1745 -1445 0
143 -744 -1440 -554 0
1836 -1555 0
57 -803 -1106 -1640 0
1893 -712 -1366 -137 0
-612 -1253 0
1913 -235 -53 0
-141 -1741 -1860 0
1628 -942 0
-312 -876 0
-310 -1510 -131 -1255 0
-29 -1731 -1308 -1724 0
-1985 -215 0
1474 -354 -1190 0
1168 -340 0
1692 -1027 -1029 0
1880 -1892 -995 0
-1556 -329 -253 0
64 -67 -1435 0
997 -853 -1001 -1591 0
-586 -101 -342 -1343 0
641 -1862 -798 0
1330 -1319 -1336 -1706 0
269 -481 -899 -1046 0
1176 -1398 -1399 0
1605 -1488 -1366 0
1013 -954 -114 0
1079 -1925 -1264 0
-800 -681 -1886 -1314 0
1046 -144 -1655 0
-692 -100 -302 0
1462 -1819 0
142 -1596 -1258 0
1331 -756 -256 -876 0
1741 -322 -1328 0
1039 -3 0
692 -955 0
1602 -796 -1672 -819 0
112 -1292 0
-855 -244 -606 0
1 -616 -1716 -687 0
-1491 -876 0
-1316 -1447 0
1517 -727 0
-137 -1398 -968 0
1427 -258 -1501 0
1000 -655 0
-943 -418 -1466 -186 0
-133 -441 -720 -1992 0
323 -812 -408 -1001 0
-1785 -939 -1989 -978 0
-1486 -720 -870 0
991 -1658 0
-1917 -314 -1484 0
1573 -155 -1253 -969 0
929 -1308 0
1766 -80 -401 0
-641 -318 0
910 -1042 0
1226 -1963 0
1985 -1534 -55 -726 0
-188 -1841 -268 0
728 -1495 -427 0
1033 -1781 -1040 -1807 0
652 -262 0
17 -1436 -1135 -1478 0
581 -1944 -43 0
1659 -1727 -1050 -1407 0
-489 -1526 -1652 -193 0
1302 -1322 -1103 -1876 0
468 -125 0
85 -1247 0
382 -238 -775 0
945 -486 -1942 -306 0
1493 -1305 -1629 0
-929 -560 -875 -1161 0
230 -1664 0
504 -700 -1654 -193 0
-1778 -636 -1255 0
896 -1170 0
858 -1706 -1063 -1541 0
1323 -183 -534 0
1534 -1898 -1063 -800 0
1885 -767 -1199 -1845 0
59 -1981 0
1814 -1922 -920 -948 0
622 -1545 0
1194 -507 -327 0
500 -525 -1189 0
1159 -1959 -603 0
-1258 -1712 -1305 -1981 0
89 -1827 -1857 0
1095 -118 -1407 0
-813 -1171 -659 -714 0
422 -722 0
-250 -441 -1471 0
429 -98 0
-1100 -419 0
-1658 -780 0
1044 -1894 -1756 -1528 0
1931 -447 -993 0
-377 -51 0
20 -1990 0
831 -1390 0
1325 -884 -1300 0
-1099 -87 -1217 0
417 -1123 0
803 -600 -1070 0
1139 -1304 -1994 0
506 -837 0
-31 -6 -89 0
-1858 -1190 -1685 0
964 -1450 0
705 -602 -1589 -86 0
236 -247 -32 -1612 0
-1344 -518 0
850 -1607 -725 0
-1531 -984 -831 0
-1280 -1914 -1639 -1491 0
945 -1719 0
-11 -612 0
1848 -554 -899 -318 0
1262 -1119 0
1261 -45 -1503 -39 0
-1311 -1203 0
1112 -1572 0
1776 -849 -537 0
-1749 -290 -836 -42 0
151 -1921 0
-1358 -517 0
1020 -1891 -276 0
-120 -1089 0
44 -281 0
-1145 -1034 0
1244 -797 -1280 0
-500 -39 -1521 -1285 0
81 -1614 -301 -306 0
298 -1335 0
-1104 -743 0
1047 -1471 -961 0
-1103 -1425 -1191 0
1200 -360 -680 0
1526 -1129 0
819 -1504 0
1095 -1289 -590 0
533 -58 -924 0
1690 -1498 -208 -889 0
-1936 -1642 0
-1727 -1573 -1917 0
1770 -588 0
-1816 -166 -1883 0
-1676 -558 -1166 0
1126 -619 -926 -351 0
-1256 -988 0
1440 -565 -148 0
589 -891 -899 -1180 0
-779 -1777 -1478 0
-135 -1725 -795 -270 0
1206 -1371 -910 0
45 -1935 -5 -1565 0
284 -503 -1394 -1623 0
1762 -1208 0
1588 -1778 -1141 -42 0
1748 -1894 -434 -1475 0
1984 -1311 -1296 0
283 -1015 0
394 -730 0
1867 -1840 0
-1357 -1961 -283 0
1988 -1122 0
492 -1944 0
156 -1213 -818 -160 0
1440 -1775 0
725 -765 -1313 -748 0
-167 -431 -536 -950 0
779 -910 -418 -1227 0
533 -101 -618 0
601 -1729 -1264 -440 0
315 -1523 0
-926 -754 0
857 -1014 -744 0
335 -765 0
1745 -67 0
-879 -237 0
1407 -146 -847 -147 0
-1372 -1400 0
1512 -567 -1728 0
1350 -320 -1609 0
-546 -1369 -312 0
1755 -381 0
1831 -1245 -35 -761 0
1107 -1174 0
343 -1740 -1499 -1330 0
820 -1434 -812 -774 0
984 -433 -1922 -1266 0
519 -619 -1492 0
-1768 -461 -1989 0
-1924 -1618 -1876 0
446 -132 -183 0
-1983 -1733 0
1139 -409 0
-1536 -780 -1545 0
282 -1171 -1520 -520 0
1055 -1590 -147 0
882 -1897 -1088 0
882 -317 -547 0
1143 -1802 0
1372 -187 0
-1698 -1551 -1961 0
-329 -377 0
1105 -422 0
1215 -1347 -813 0
1485 -1055 0
608 -1340 -1656 -570 0
2000 -350 0
-633 -1303 0
-808 -107 0
-1728 -1393 0
1012 -1562 -295 -1598 0
238 -1729 -502 -284 0
287 -1490 -1736 -1819 0
211 -1706 -312 -1555 0
104 -1164 -1387 0
1506 -629 -1938 -347 0
88 -1197 -348 -1111 0
-208 -233 0
-1026 -1065 -1217 -1284 0
-1369 -951 -74 0
679 -563 0
12 -616 -1332 0
-803 -1906 -820 0
1381 -1711 -56 -894 0
-1528 -777 -710 -1991 0
1285 -1316 0
963 -617 -1897 -1235 0
-168 -463 -1021 -1447 0
1344 -1332 -1894 0
668 -38 -410 -323 0
-131 -55 -132 -588 0
-1613 -493 -1679 -1295 0
-607 -1344 -1011 -812 0
241 -746 0
1019 -574 -1960 0
517 -581 -1529 0
501 -982 -1500 -477 0
1847 -904 -300 -625 0
725 -972 -332 -1953 0
1879 -1500 0
1490 -1361 0
1394 -876 -844 -1465 0
1062 -1677 0
962 -469 0
-1059 -137 -1538 0
94 -1285 0
836 -843 -1502 -1377 0
-312 -700 0
1936 -1864 0
1717 -763 -1927 0
1069 -1351 -115 -180 0
796 -471 -196 -1738 0
1792 -1505 0
1686 -1228 -453 0
-201 -97 0
791 -437 -1871 0
-1606 -1781 -832 -1103 0
1631 -305 -395 -791 0
1145 -1479 -471 0
-759 -1868 -1732 0
865 -511 0
43 -1686 0
122 -1357 -1228 0
77 -789 -414 0
1631 -883 -106 0
1421 -1349 -1941 -1149 0
622 -1446 -1137 -690 0
-275 -396 0
566 -282 0
1166 -958 0
295 -1069 -1286 -1414 0
-90 -1555 0
-1926 -63 0
1734 -220 0
-938 -942 -661 0
-460 -1137 -547 -250 0
-1497 -1091 0
-645 -1106 0
1132 -1627 -185 -364 0
-984 -1158 -475 0
-306 -1293 -1283 0
896 -1049 -1109 -817 0
-983 -1766 -1096 -1051 0
-1573 -90 -448 -662 0
663 -647 -1824 -911 0
1588 -655 -1647 0
937 -858 0
1329 -7 0
1038 -1830 -1332 -378 0
1952 -943 -987 0
-306 -38 -1837 0
-563 -1536 -1477 0
-1073 -934 -88 -1052 0
180 -453 -987 0
1064 -287 -335 -480 0
587 -1482 0
7 -227 -1498 -1116 0
354 -649 -441 0
-1650 -1605 0
-10 -960 -1352 -1150 0
-859 -1605 0
-1392 -687 -616 -1237 0
873 -476 -946 0
-196 -539 -63 -1473 0
655 -1927 -1925 0
-1533 -1619 -162 0
835 -133 -1558 0
575 -1930 -1235 0
1065 -575 0
211 -207 -871 -1273 0
660 -213 -1520 0
1181 -1064 -865 0
1525 -892 0
686 -790 -1192 0
494 -1991 -1859 -1513 0
-136 -1538 -994 -358 0
62 -23 -152 -957 0
936 -296 -652 0
1033 -1359 -1734 0
164 -279 -95 0
-1654 -1031 -678 -23 0
-1032 -794 0
82 -1815 -785 -363 0
-986 -664 0
1363 -111 0
334 -1621 0
1105 -689 -127 0
1906 -1987 0
1237 -1510 -236 -1817 0
-313 -449 -1764 0
-342 -1699 -1044 -1093 0
-55 -610 0
1140 -708 -67 0
-1750 -1351 -1210 -753 0
286 -70 -1617 0
804 -890 -1521 -1685 0
-890 -93 0
-1564 -1619 -72 -482 0
1465 -1579 -607 -715 0
1420 -1880 0
1784 -837 -1823 0
1389 -1345 -1739 0
1818 -176 0
907 -1476 -1219 -379 0
1531 -1295 0
496 -1990 -1355 -504 0
1058 -357 -635 0
1095 -945 0
988 -1172 -1193 -1663 0
340 -662 0
1770 -1008 0
1797 -1442 0
-46 -1415 0
684 -1166 -1032 0
702 -1133 -50 -1379 0
1734 -94 -1595 -226 0
464 -767 0
1278 -1772 -969 0
761 -1575 0
120 -1812 -77 0
1082 -1131 -1234 0
1331 -400 0
-454 -1884 0
697 -1214 -1570 0
1744 -1037 -1598 -1171 0
-1598 -270 -75 0
1539 -162 -1268 -723 0
1 -612 -310 0
-1187 -772 -1583 0
1985 -974 -595 -629 0
1083 -1540 -1918 0
279 -680 -1776 0
1307 -412 -1876 0
1528 -144 -1009 0
1676 -1817 -850 0
-1179 -832 0
470 -1920 0
625 -1614 -1037 0
-697 -1839 -1099 0
1524 -1265 -1943 0
1235 -449 -40 -783 0
522 -1795 -1045 0
1217 -1213 -229 -1065 0
777 -877 -662 0
1156 -1005 -68 0
-24 -470 -268 0
1588 -1384 0
-1383 -1212 -1640 0
-696 -1564 -1250 0
-1683 -262 0
-1093 -751 -1442 0
-1246 -1967 0
-1705 -1959 0
1776 -1180 -1668 0
1413 -227 -328 -1750 0
-506 -253 0
612 -477 -1030 0
-1148 -380 -603 0
1439 -1761 0
55 -850 0
559 -320 -1143 -760 0
529 -3 -371 -700 0
1450 -271 -153 -741 0
1001 -831 -1397 -4 0
1208 -1645 0
1182 -319 0
255 -321 -697 -1330 0
1966 -300 -694 0
-1651 -1161 -976 -397 0
865 -943 -731 0
399 -1315 -672 -294 0
-384 -168 0
1718 -1613 -1032 0
596 -87 -414 -1646 0
1369 -1068 -427 0
674 -1728 0
-1016 -225 -1822 -965 0
530 -1317 -1057 -1549 0
800 -308 0
908 -102 0
169 -271 -1275 0
1291 -1928 0
-723 -1789 -952 -458 0
948 -542 -1970 -1619 0
810 -1074 0
1496 -1418 -1387 -697 0
1545 -626 -283 -1755 0
1329 -1518 -146 -1841 0
-1612 -1192 -1705 -330 0
-927 -828 -282 0
29 -61 0
807 -344 0
-848 -528 -1151 -1079 0
1415 -185 0
-16 -751 -1852 -857 0
302 -1363 0
899 -1142 0
1447 -249 -1573 -58 0
-1095 -1915 -1496 -1860 0
993 -1216 -266 0
1932 -804 -1239 0
1118 -1083 0
1737 -1522 -1586 0
1343 -1527 -1154 -1409 0
591 -1142 -203 0
372 -1133 -893 0
-617 -1333 -323 -183 0
69 -457 0
40 -1081 -906 0
1079 -1425 -1722 -586 0
90 -13 -866 -300 0
-1476 -1502 0
261 -674 -783 -1292 0
-1536 -1556 -1615 0
755 -73 -68 -385 0
717 -1657 0
1194 -802 -1992 0
-1427 -184 -840 0
394 -1737 0
-832 -1164 0
-691 -1887 -237 -1205 0
132 -951 -164 -1160 0
-1421 -456 0
1265 -920 0
1159 -1498 0
850 -1853 -20 0
942 -1592 0
709 -1130 0
1383 -548 -1818 -443 0
1103 -972 0
-1041 -845 -1194 0
1767 -1681 -113 -1881 0
1207 -1756 -1426 -183 0
310 -1648 -1681 0
1496 -226 -1414 -337 0
-827 -1822 0
26 -1446 -1391 0
230 -831 -144 -714 0
1912 -964 -1158 -1689 0
-1444 -1904 -959 0
901 -1733 -351 -1093 0
1283 -1773 0
-992 -1449 -1516 -2 0
201 -1119 0
1995 -1046 -1920 0
1631 -638 -1168 -1949 0
-1099 -563 0
1781 -194 -1536 -674 0
341 -1329 -1022 0
240 -504 0
1470 -190 0
1816 -120 -1248 -1609 0
-1577 -939 0
826 -7 -798 -1677 0
135 -1315 0
196 -1439 -1756 -654 0
507 -1157 0
-24 -232 -1156 0
-1952 -1824 -984 0
1344 -1304 0
371 -1134 -116 0
493 -1606 -792 -1794 0
-1782 -1049 0
-1079 -262 0
-1444 -252 -1412 -332 0
1576 -1364 -1036 -1337 0
-1300 -452 0
843 -1880 -1088 0
1641 -1601 0
-372 -1821 -631 0
1011 -815 0
75 -1454 -1848 -1676 0
525 -591 -360 0
-1574 -1808 0
1874 -903 0
-773 -619 -1895 -727 0
1395 -1119 -227 -1770 0
-562 -1605 0
-1625 -801 -387 0
635 -1355 0
1049 -1236 0
-1646 -1969 0
451 -1269 -1332 0
-185 -1855 0
-1109 -1258 -7 -1476 0
-1719 -441 -229 -414 0
389 -55 -1966 0
-620 -1235 -152 0
1803 -54 0
-820 -1554 -209 0
-1069 -922 -1710 0
-684 -1827 -1074 -1509 0
1876 -99 0
-4 -1401 -839 -41 0
-20 -1398 -1257 0
388 -499 -1690 -927 0
1257 -338 -627 -1 0
997 -759 -422 0
399 -672 -1684 -267 0
34 -1527 -1313 0
1669 -1869 -1593 -379 0
1424 -1975 -1812 -1519 0
-1242 -1504 -1285 -1791 0
394 -206 -1646 -724 0
-397 -1349 -1687 -1570 0
130 -1046 -1732 -1454 0
1775 -934 0
-29 -190 -1898 -1366 0
-602 -1724 -1468 0
1876 -1355 -1139 -1300 0
1477 -630 0
383 -1803 -1041 0
375 -1703 -1883 -1136 0
1706 -1687 0
1723 -818 -1066 0
1617 -1555 0
525 -1794 -1233 0
981 -1028 -866 0
1370 -152 -1339 0
509 -243 0
767 -1448 -635 -639 0
364 -1386 0
821 -4 -1058 0
1275 -1942 -1293 -299 0
-159 -1519 -1146 -1688 0
1723 -1009 -1039 -1612 0
1319 -1284 -1050 -916 0
874 -1059 0
219 -1546 0
-1323 -40 0
-193 -175 -914 -1585 0
528 -1334 0
535 -1148 -22 0
-181 -1937 -422 0
1669 -1213 -1623 -552 0
717 -1554 0
787 -1537 -1870 -1289 0
-330 -669 -1287 -162 0
1922 -1586 -316 0
1237 -8 0
-201 -1017 -1855 0
1181 -448 -1829 -824 0
1067 -575 0
205 -1705 0
955 -324 0
1618 -150 -1257 -587 0
984 -328 -231 -769 0
135 -943 -461 0
-323 -1531 -121 0
877 -952 -1320 0
1315 -1984 -1652 -516 0
-1070 -1319 -289 0
1523 -363 -1846 0
-1379 -495 0
1426 -637 -530 -250 0
1636 -440 -278 0
-265 -818 0
1228 -1710 -8 -1580 0
-310 -1826 -698 -609 0
-870 -1009 -379 -1346 0
1883 -1319 0
946 -1149 -27 -1065 0
1959 -893 0
211 -1822 0
303 -4 -893 -1130 0
1008 -820 -813 -1018 0
-506 -1276 -202 -785 0
264 -1206 -442 -1975 0
488 -221 -1996 -228 0
823 -1833 -274 0
672 -954 -1913 -912 0
1906 -475 -1095 -294 0
-1307 -1649 -442 -1841 0
1726 -409 -68 0
652 -114 0
1087 -997 0
1921 -768 -961 0
-1858 -1314 0
839 -1049 -740 0
392 -1708 0
1982 -1892 -9 -1747 0
1162 -125 -1409 -1884 0
-1408 -980 -431 0
177 -301 -1985 -280 0
-26 -1824 0
136 -555 -893 -1936 0
333 -968 -1280 0
-1786 -243 -841 0
1491 -749 0
510 -645 -159 0
-841 -721 0
1983 -1836 -1424 -448 0
1521 -983 0
533 -1906 -1026 0
-990 -720 -1297 -1829 0
1808 -1389 -1923 -1065 0
1979 -1597 0
585 -1998 -1667 0
-1564 -126 -72 0
1891 -681 0
1576 -1542 0
1048 -1301 -920 -1571 0
148 -1188 -579 -2 0
931 -1384 0
484 -689 -1494 -944 0
1983 -384 -1037 -1276 0
563 -521 0
1798 -1946 -1936 0
-1363 -1260 0
1181 -1257 -1450 -876 0
546 -497 0
462 -1819 -1264 -1778 0
-1429 -1654 0
1038 -383 -1943 -856 0
1721 -1166 -402 0
-169 -138 -49 0
441 -1731 0
1912 -110 0
-7 -1051 0
1722 -1186 -1542 0
1874 -1682 0
527 -862 -715 0
-1569 -252 -69 -111 0
-1382 -375 -1052 -194 0
923 -1833 -530 -1735 0
1743 -450 -1406 -323 0
695 -830 0
1718 -1630 -1628 -1785 0
1678 -502 -697 -1473 0
255 -1918 -1147 -96 0
1977 -511 0
-1856 -576 -1728 0
289 -1755 -1581 -1511 0
1515 -1933 -296 0
1300 -1667 -77 0
1869 -299 -1378 0
-636 -1357 -1076 -930 0
992 -188 -338 0
-819 -650 0
-1025 -718 -1842 0
1114 -1697 -498 -1281 0
222 -1122 0
1873 -1652 0
843 -1443 -834 -510 0
-1910 -564 -114 -1079 0
1531 -463 -78 0
390 -1073 -575 -1601 0
