c Horn formula (polynomial-time solvable)
c 2000 variables, 5000 clauses
p cnf 2000 5000
1950 -85 -1554 -1857 0
104 -1403 -254 0
-1081 -717 -898 0
-1092 -814 0
1218 -1095 -252 0
1327 -638 -1545 0
210 -48 -319 0
-954 -474 0
622 -1959 -1043 -1148 0
405 -1493 0
1041 -1450 0
1714 -63 -1489 -589 0
-793 -807 -1398 0
-1674 -1914 -1953 -1737 0
-1341 -1850 -712 0
617 -848 0
-406 -1720 -833 -1392 0
1987 -714 -922 0
-102 -1198 0
-589 -1806 -744 0
-1525 -992 0
552 -1310 -228 0
1482 -1220 -1967 -1900 0
1264 -1484 0
1301 -28 -260 -535 0
854 -481 -654 0
188 -60 -951 -213 0
309 -1789 0
927 -1919 0
1459 -179 -1594 0
-1959 -1985 -333 0
-1122 -1967 -631 -112 0
1571 -1071 -1872 0
68 -834 0
738 -787 -721 -366 0
1870 -674 -451 0
812 -1523 0
-361 -1280 0
336 -265 -1285 -636 0
-449 -305 -268 -734 0
540 -1976 -1724 0
909 -1429 -988 0
761 -921 -608 -1585 0
1382 -1654 -1599 -1469 0
211 -936 -611 -933 0
870 -196 -338 -141 0
1177 -1013 -1227 0
130 -584 -948 -1958 0
804 -1496 0
-977 -41 -1690 0
8 -1058 -1819 -1387 0
-1801 -1960 0
1527 -1682 0
1461 -1744 0
600 -941 -702 0
1462 -277 -398 -1520 0
17 -950 -1655 -103 0
1143 -1345 -971 0
190 -1897 0
-678 -1576 -1933 0
1461 -37 -1361 0
610 -1466 -42 0
1805 -1409 0
1668 -1509 -39 -1382 0
1862 -859 -1503 -1842 0
1111 -711 -327 0
-1316 -1373 -539 0
1589 -786 -1505 -1989 0
-210 -1854 -469 0
1373 -561 -1838 -235 0
1032 -997 -1443 -1348 0
539 -1074 -1487 -530 0
-1257 -1830 0
356 -1227 0
328 -454 -771 0
596 -124 -1427 0
-1570 -586 0
-1510 -876 -1039 0
104 -670 0
1425 -177 -1091 0
1761 -1245 -1375 -500 0
1912 -874 -1148 -1750 0
910 -1494 -244 0
1429 -1362 -161 0
1995 -1688 -596 -740 0
1864 -1658 -1281 -433 0
-468 -708 -1462 0
1692 -1370 -1732 -906 0
-785 -837 0
36 -118 -448 -613 0
-1710 -1427 0
-981 -213 -1396 0
-1050 -1277 -1248 0
-1211 -1469 -783 0
-1499 -1092 0
1049 -461 0
511 -714 -1505 -450 0
-1399 -443 -1279 -516 0
-1877 -1605 -179 -1942 0
1194 -1209 0
512 -821 -1747 -418 0
425 -210 -123 -1812 0
-623 -1456 0
-1425 -1224 -1438 0
586 -802 -1898 -936 0
-306 -1678 0
946 -178 -562 -1122 0
-353 -70 -331 -1641 0
-318 -1409 0
-1738 -1940 -194 0
1425 -1871 -237 0
1903 -856 -1693 0
1094 -297 0
948 -1222 0
813 -656 -436 0
-1838 -94 -837 -563 0
-1544 -587 -1509 0
1716 -1768 0
1877 -1654 -1103 -767 0
1653 -1538 -1655 -214 0
165 -783 -1493 -1311 0
-404 -200 -1719 0
-1861 -216 -1550 0
1975 -1033 0
1685 -1944 -953 -1085 0
599 -1082 -1556 0
38 -1297 -1890 -301 0
618 -722 -1339 0
1356 -120 -1917 0
-1405 -725 -591 0
-652 -1902 0
1507 -1051 -207 -1427 0
898 -703 -1556 0
899 -1126 -1845 -211 0
977 -1140 0
1090 -1483 -1253 0
1725 -1743 -1739 -1897 0
1371 -1602 0
259 -600 0
1863 -1235 -1520 0
-63 -1232 0
-1940 -902 -1078 0
1660 -565 -1259 0
476 -792 -415 0
-295 -688 0
1878 -798 0
1102 -1696 -1283 -913 0
1551 -1449 0
1736 -489 0
13 -1301 0
1593 -437 0
-182 -762 -1689 -1013 0
1333 -84 -168 -900 0
1149 -1597 -1831 -292 0
-1149 -843 -753 -699 0
-1509 -1277 0
1947 -467 0
464 -1479 0
-1416 -422 0
1897 -191 -1405 0
1758 -1425 -598 0
1151 -1925 0
122 -1561 -203 0
39 -1334 0
1224 -1524 -1615 -1096 0
-1618 -132 -1105 0
142 -1011 -236 0
-904 -1517 -1739 -1801 0
763 -1250 -1634 -1203 0
1264 -1335 -210 -1345 0
-634 -640 0
1517 -107 -1736 0
993 -1994 0
848 -1568 -1638 -498 0
914 -856 -368 -509 0
406 -592 0
241 -380 0
950 -1309 -1673 -368 0
1177 -1037 -629 0
1537 -1999 0
-116 -1149 -198 0
1529 -1401 -717 -391 0
606 -891 0
1565 -1386 -33 -690 0
494 -385 -1988 -1914 0
1915 -405 0
978 -1103 -1886 0
1906 -828 -4 0
1537 -1082 -1006 0
-889 -419 0
1394 -1521 -870 -163 0
1043 -697 -1726 0
438 -1055 0
1635 -1028 -1586 -361 0
722 -430 -856 -832 0
-865 -125 -175 -1795 0
420 -1108 -725 -1017 0
969 -1636 0
499 -1098 -249 -541 0
1344 -849 -47 0
-1105 -1010 -1327 0
-456 -1665 0
-1132 -1541 -1892 -1438 0
1137 -1401 -521 0
-1404 -769 -51 0
806 -762 0
289 -1127 0
-1079 -514 -1879 0
1680 -34 -462 -421 0
1849 -1718 -132 0
178 -943 -560 -1023 0
1822 -1176 -1661 0
1940 -238 0
849 -192 0
710 -1870 0
1022 -149 -97 -1731 0
794 -459 0
-1821 -231 -595 0
751 -1435 -417 -1472 0
1492 -959 0
-1295 -1542 -1508 0
-1432 -1560 0
791 -1763 0
540 -1490 -885 0
458 -579 -1569 0
-1530 -1420 -1728 0
1725 -713 0
1221 -1113 0
972 -357 -1054 0
1917 -1289 0
1914 -773 -209 0
562 -1618 0
849 -1111 -574 0
-840 -12 -618 -1651 0
1378 -1828 -143 0
-1981 -1170 0
1305 -1450 -95 -1418 0
955 -1777 -1042 -940 0
1944 -654 -1783 0
-1654 -639 -218 0
-1039 -428 -976 -816 0
557 -487 -1672 0
1129 -115 -1135 -381 0
-228 -1580 -1295 0
-605 -448 -1042 -1258 0
-1798 -136 -764 0
44 -213 -1127 0
1372 -251 -104 -185 0
-206 -946 -86 0
880 -1263 0
250 -1128 -1506 0
287 -1629 -452 0
836 -781 -592 0
1651 -1834 -621 0
-1229 -638 -1483 0
749 -1533 0
1173 -1408 -64 -1505 0
-1764 -196 -1972 -901 0
-39 -1454 0
1531 -471 0
1270 -908 0
-519 -594 -1933 -1137 0
-768 -295 -167 0
1099 -1289 -771 -1911 0
-745 -1951 -1834 0
1817 -139 -649 0
599 -1259 -1827 0
20 -1086 0
1968 -1479 0
1727 -132 -991 0
1922 -396 -915 0
-926 -416 0
1942 -188 -241 -295 0
-528 -747 -8 0
1705 -1080 -839 -1300 0
953 -882 0
-556 -585 0
117 -440 0
1551 -694 -292 0
338 -1180 -1955 -238 0
1289 -1079 -1247 0
1046 -734 0
973 -196 -1017 0
1557 -1880 -1234 0
1397 -649 -131 0
-888 -432 -241 0
604 -362 0
-1662 -437 -1893 0
-1656 -23 -429 -131 0
1738 -543 -1763 -499 0
-1141 -1404 -844 -1537 0
101 -208 0
368 -1134 -161 -451 0
1996 -841 0
382 -1220 -817 0
-455 -191 -1222 0
-899 -208 -235 -1495 0
-410 -1068 -1243 0
-1052 -1662 -656 -1678 0
-1548 -1615 -735 0
610 -1652 0
693 -1259 -1743 -373 0
1288 -909 0
398 -1775 0
1476 -1465 -1277 0
855 -808 -1002 -537 0
118 -1404 -1139 -1933 0
609 -764 -1104 0
519 -319 -528 -822 0
282 -1843 -1436 0
522 -1855 0
1785 -587 0
-51 -1024 -1014 0
1314 -888 -1181 0
-351 -1920 0
-261 -892 -1265 -1425 0
-1329 -453 -1838 0
110 -1349 0
1251 -945 -154 -1667 0
929 -1181 -993 -1520 0
1066 -602 0
1635 -1849 -1318 0
1157 -383 -1901 0
1364 -1607 -566 0
1256 -1123 -1408 -1896 0
627 -1092 0
-1198 -1854 0
-594 -1915 -1609 0
1841 -1274 -1237 -773 0
442 -1782 -683 0
790 -1331 0
473 -83 -1776 0
-1775 -1753 0
-627 -276 -1378 0
59 -1635 0
-749 -1395 -1545 0
-1783 -201 -272 -32 0
535 -1910 -1307 0
1239 -1798 -1014 -610 0
1685 -1292 -1937 -280 0
-324 -1655 -641 -1133 0
-609 -727 0
610 -1656 -1921 -10 0
1479 -1410 -1278 -267 0
683 -1569 0
1133 -1623 0
1822 -406 -1411 -4 0
1126 -505 0
633 -1499 -1702 -572 0
500 -1406 0
1449 -1665 -71 -708 0
34 -1866 -1629 0
333 -1905 -1801 -335 0
609 -901 -13 0
-552 -1965 0
1284 -1350 0
1710 -1538 0
-1563 -602 -219 0
-316 -1038 0
-4 -1384 -1857 -1096 0
778 -1935 0
-927 -1417 0
1664 -306 0
1879 -660 -1901 -285 0
1732 -511 -1924 -1539 0
674 -1565 -640 0
721 -769 -165 0
-1262 -642 -1087 0
1668 -1672 0
704 -832 -1725 0
181 -1600 -1807 0
-851 -249 -1432 -1105 0
-1890 -1730 -378 -339 0
223 -1051 -1292 0
-746 -683 0
1090 -1260 -228 0
91 -1831 -304 -635 0
1521 -987 -141 0
-466 -1770 0
631 -1991 -1629 0
788 -1370 0
501 -1884 0
-1 -735 -1225 0
1372 -669 0
140 -397 0
345 -1321 -1802 0
-1454 -1529 -1493 0
1684 -855 -1726 -194 0
-8 -1973 -378 0
-1105 -134 -1951 -1127 0
-1149 -1395 -769 -444 0
376 -1527 -389 -351 0
-1133 -1040 -1446 0
1324 -696 -1820 0
-522 -1095 -1429 0
-749 -388 0
192 -1749 -735 -851 0
896 -1801 -181 0
474 -451 0
796 -1021 0
478 -897 -1922 -777 0
-1983 -1608 -973 -1766 0
318 -221 0
-1241 -1015 -798 -1387 0
746 -726 -37 -1521 0
1437 -1016 0
1181 -553 -1604 -1138 0
1280 -888 -1945 -1144 0
1222 -1591 0
-717 -946 -638 -52 0
-54 -1734 -38 -1313 0
206 -1906 -40 -518 0
729 -872 -244 -477 0
1007 -1262 -1518 0
1636 -820 0
175 -818 0
378 -821 -1688 0
-1567 -1927 0
-835 -133 0
1828 -1444 -1251 -285 0
-1922 -329 -1191 0
516 -1207 -1257 0
744 -1664 0
538 -1630 -1075 -637 0
1543 -372 -1364 -1711 0
1769 -1427 -1654 0
403 -798 0
-298 -1908 -184 0
895 -1633 -280 -1058 0
250 -405 0
1623 -182 0
1676 -501 -1185 -878 0
1685 -212 0
-1584 -352 0
1372 -757 0
1738 -1872 -1955 -303 0
392 -191 -1342 0
1285 -161 -1901 -1273 0
277 -765 0
461 -70 -1684 0
833 -1220 0
573 -168 -1847 0
-1882 -280 -1093 -312 0
202 -413 -7 0
755 -931 -1397 0
190 -1981 -1007 -2000 0
-1846 -681 -1150 -1867 0
1323 -1974 -555 0
921 -388 0
-207 -506 0
1561 -1727 -306 -1059 0
242 -1570 -1623 -1952 0
1734 -1344 -1019 -462 0
596 -1829 0
-1953 -1154 0
-1824 -308 -1189 -1543 0
395 -600 -1191 0
449 -1985 -1006 -1472 0
1911 -690 0
-272 -1056 0
-1478 -1319 -764 0
1626 -214 0
-1576 -927 0
1541 -584 0
189 -592 0
1192 -465 -1349 -212 0
236 -263 -383 -733 0
148 -1731 0
566 -609 -574 0
1832 -1764 0
1341 -1841 -400 0
-1066 -1477 0
-842 -639 0
-629 -379 -25 0
-591 -1341 -1867 -412 0
-1030 -101 0
991 -852 0
704 -1192 0
773 -303 -817 0
283 -1369 -116 -579 0
484 -444 0
1433 -9 0
889 -1846 -599 0
1165 -640 -986 -126 0
641 -587 0
1165 -1683 -1032 -71 0
646 -1813 -154 0
-1968 -229 0
1441 -777 0
-1547 -595 -1518 0
960 -1422 -525 0
-1465 -173 -494 -1214 0
712 -612 -1301 -759 0
790 -473 -1705 -1819 0
-895 -903 0
1925 -1901 -512 0
-1291 -1648 -490 0
805 -794 -1014 0
1634 -864 0
1157 -783 0
-235 -670 0
-94 -1422 -1127 0
1887 -867 -89 0
-401 -1473 -489 -331 0
1150 -1894 -242 -1989 0
1508 -559 0
500 -1170 -1475 -1429 0
-1877 -1447 -1453 -364 0
1577 -533 -1243 -1818 0
67 -799 0
1959 -1048 -1449 0
395 -661 -1297 -427 0
1396 -1835 -468 0
57 -1208 -692 0
1581 -1350 -1777 0
1622 -264 -1859 -1618 0
1275 -1802 0
107 -753 0
113 -478 0
384 -1408 -852 -1914 0
381 -270 -126 -1351 0
250 -4 -1033 0
959 -421 -1831 0
1852 -1349 0
1250 -151 -893 0
92 -586 0
-1053 -1965 -97 -635 0
1364 -1687 -1176 -801 0
-509 -1064 -1801 0
1668 -1813 -88 0
293 -1371 -1579 -1017 0
43 -353 -1821 -283 0
-754 -1730 -1833 0
1421 -1504 -1808 -1198 0
-1514 -1774 -1610 -1408 0
-1233 -900 0
-1487 -1377 -531 0
-269 -291 0
1348 -1829 -1698 0
601 -384 -1585 -1444 0
1350 -1561 0
-22 -617 -1436 -835 0
1964 -1496 0
-766 -987 0
-1586 -757 -1738 -833 0
1196 -359 -1468 0
-1875 -1027 -730 -1012 0
491 -796 -1747 -1249 0
85 -1780 0
-1347 -7 0
1752 -1589 -1549 -1943 0
303 -1418 -1832 -1301 0
1636 -1106 -616 -933 0
92 -515 -419 0
-844 -1324 -1060 -1697 0
48 -1640 0
-670 -1741 0
-1497 -1878 0
-31 -56 -1123 -21 0
193 -1074 0
31 -795 -648 0
1429 -1805 0
691 -891 -39 -1885 0
501 -1250 0
545 -1972 0
1497 -520 -377 -1119 0
-1550 -1045 -766 -764 0
-903 -1292 0
1385 -1430 0
-1711 -927 0
158 -716 0
-848 -141 -1782 -1315 0
-716 -1902 -1817 -1813 0
1912 -435 -1212 0
779 -5 0
-1797 -1318 0
733 -1930 -306 -1589 0
-1613 -1891 -1263 0
1314 -1162 -1874 -1036 0
179 -301 -1650 -859 0
1669 -1711 -868 0
903 -1211 -981 0
431 -388 -162 0
1243 -938 -1075 -1233 0
532 -996 -440 -258 0
477 -1873 -1581 -942 0
-1703 -292 -663 0
819 -1856 -650 -1912 0
-1329 -1352 -384 -764 0
640 -271 -693 -1801 0
-650 -1051 -288 0
-966 -1861 -1778 -294 0
-1550 -1445 -256 0
1057 -453 -1193 0
1212 -1609 -987 -1164 0
-446 -988 0
739 -169 0
414 -1985 -1178 -1595 0
340 -811 -1365 -161 0
496 -918 0
840 -695 0
899 -1950 -958 -1071 0
314 -471 0
1464 -1082 0
1991 -264 -1169 -129 0
-637 -633 0
1336 -831 0
-1706 -815 -982 0
238 -954 0
756 -181 0
620 -460 -610 -1760 0
-860 -545 0
1136 -1318 -1733 0
1955 -461 -1628 -134 0
-977 -87 0
-1430 -1110 0
-129 -1824 -1560 0
743 -399 -78 0
-1492 -836 -22 -1724 0
-156 -1042 0
148 -1439 0
1227 -457 -756 -145 0
1519 -983 -1134 0
-1571 -1789 -208 -228 0
43 -638 -1523 0
1767 -1043 0
-1226 -222 -947 -1734 0
1254 -76 -915 0
406 -1217 0
697 -189 -116 -1739 0
50 -1356 -547 -1011 0
270 -1234 0
256 -416 0
-247 -364 -845 0
-856 -435 0
-425 -174 -149 -1671 0
1962 -1407 -1491 -1199 0
1153 -1125 -869 -954 0
107 -1604 0
82 -1330 0
1029 -1250 -96 -951 0
-1287 -147 0
581 -512 -1272 0
-880 -956 -161 -1849 0
297 -1221 -1730 0
1104 -225 0
573 -1921 0
1309 -678 -86 0
-1822 -1192 0
1938 -1027 -1228 -1536 0
-574 -1150 -584 -1913 0
-915 -1586 -555 -683 0
1091 -369 0
504 -725 -1888 0
844 -819 -582 -855 0
-1307 -562 0
82 -1898 -1511 -1084 0
1390 -1805 0
-707 -636 -1990 -67 0
1469 -1451 -396 0
27 -407 -137 -756 0
1192 -601 -411 -713 0
1225 -220 -393 0
1241 -617 -1970 0
-747 -1589 -1243 -1025 0
144 -224 0
494 -850 -1613 0
1520 -358 -1530 -1439 0
-83 -1875 -297 0
1941 -1805 0
-1600 -1944 -143 -1196 0
1544 -1190 -66 -469 0
1115 -117 0
724 -1406 -1292 0
-337 -91 -1828 0
-1773 -8 0
1238 -96 -1890 -877 0
1947 -1346 -756 0
-737 -106 -1043 -1331 0
1265 -710 -1131 -288 0
-1950 -1414 -988 0
-1525 -76 -1037 -906 0
1750 -923 0
-1518 -1894 -137 0
-19 -1811 -1137 0
-1549 -570 0
-464 -347 -1624 -1428 0
730 -832 -1542 -1922 0
-1477 -838 -336 -1779 0
1872 -1994 -1055 -1214 0
-683 -169 0
-299 -286 0
1416 -435 -510 0
1124 -1636 -26 -1338 0
1602 -164 -826 0
-1758 -641 0
120 -1334 0
304 -1797 0
-328 -1996 -578 -1654 0
645 -1712 0
628 -1069 -755 -505 0
445 -1111 -224 -1427 0
-1772 -1140 0
957 -1015 0
-1660 -69 -1100 -1002 0
186 -673 0
647 -1139 -1337 0
-159 -200 -1908 0
-769 -910 -718 -1097 0
1785 -1408 -779 -871 0
28 -118 -699 -60 0
-1556 -1243 -607 0
676 -639 -1752 -620 0
596 -291 0
1109 -689 0
1481 -1431 -1452 -827 0
226 -379 0
598 -216 -1814 0
-631 -1055 -747 -750 0
1175 -59 0
1261 -317 -667 0
1106 -420 -603 0
194 -298 -6 -1070 0
597 -1289 -1890 0
1118 -1710 0
28 -1774 0
1936 -1096 -1740 -1278 0
1980 -1924 0
1157 -1645 -793 0
866 -337 -1102 -1743 0
-724 -2000 -955 -1066 0
174 -345 0
1908 -37 -2 -692 0
-1060 -1224 0
547 -558 0
1192 -488 -469 0
768 -742 -900 0
946 -1179 -849 -675 0
897 -53 -671 -407 0
1197 -1158 -1243 -998 0
1143 -750 -57 -1091 0
-325 -188 -1697 -308 0
366 -625 -1108 -1163 0
-1114 -513 -1419 0
587 -1370 0
-109 -1939 -514 -688 0
349 -1066 -331 0
-1603 -9 -881 0
894 -70 -196 -1116 0
943 -1156 -806 -796 0
841 -851 0
-29 -415 -1866 -626 0
1342 -1633 -209 0
551 -1793 -1516 0
560 -1285 0
606 -1537 0
-1570 -1237 0
741 -1047 -1049 -441 0
140 -774 -1554 0
1164 -667 0
-1969 -889 0
411 -1435 0
325 -97 -597 0
324 -1999 -803 0
-47 -40 0
-345 -851 -451 0
322 -947 0
1448 -1378 0
76 -140 -1992 0
1584 -1477 0
-1363 -1448 -1114 0
556 -937 -1560 -267 0
549 -172 -1878 -1145 0
1413 -1728 -1179 -803 0
1948 -1032 -498 0
1561 -1001 -224 0
23 -1217 -236 0
1659 -586 0
-1282 -836 0
1425 -3 -778 0
486 -1425 -721 0
236 -755 -719 0
1771 -1735 -1841 -1307 0
1774 -352 0
733 -1062 0
39 -399 0
-227 -1141 -341 0
1700 -727 -1182 -393 0
1225 -1904 -1495 0
-758 -615 0
439 -1989 -863 -710 0
801 -1088 -1086 -1122 0
1418 -345 0
464 -953 0
1036 -1081 -1877 -877 0
553 -1356 -228 -1029 0
1800 -729 -678 0
-1890 -1891 0
1595 -1740 0
771 -251 -1762 0
-126 -1079 -97 0
2 -723 -1178 0
1732 -1863 -713 0
1805 -1839 -499 0
-688 -149 -449 -799 0
-1734 -1962 -410 0
-1011 -861 0
-1225 -972 -743 -1157 0
-1733 -1932 0
852 -290 -1548 -361 0
1089 -596 -1157 0
803 -1845 -401 -238 0
597 -506 -1406 0
-1768 -1181 -1946 0
241 -1119 0
382 -1554 -39 0
-1785 -1240 -582 -1276 0
-1431 -1366 -1026 -1648 0
1210 -1369 -1922 0
1470 -1798 -1907 -1397 0
960 -996 -1534 -1782 0
-1324 -855 -1873 -283 0
1046 -22 -696 0
1509 -941 -234 0
-1788 -1624 -1770 -736 0
219 -1499 -453 -181 0
414 -655 -1755 0
832 -1275 -1189 -1391 0
-871 -159 -1280 -1724 0
1477 -1913 -221 -574 0
1518 -172 -1641 0
-510 -483 -1804 0
-650 -1271 0
33 -692 -260 -1654 0
-1757 -394 -988 -1267 0
1665 -712 -346 -666 0
-122 -1478 -1499 0
1019 -556 -490 0
-1764 -1995 -1618 0
1698 -1433 -944 -417 0
1528 -605 -80 0
1840 -382 -827 -1727 0
895 -949 0
694 -166 -94 0
1684 -1163 -124 -1276 0
589 -1998 -531 0
1753 -1776 -67 0
1151 -1047 -113 -1730 0
1901 -1711 -1257 -890 0
1105 -281 -551 -1321 0
-568 -1615 0
1856 -1156 0
676 -1397 0
-1665 -730 -1703 0
624 -257 -1616 -1676 0
759 -1164 0
-1638 -544 -1037 -1333 0
1341 -1966 -1492 -89 0
1272 -12 0
1364 -591 -457 -1951 0
1069 -861 0
-601 -1822 -605 0
-1570 -619 -1862 0
-753 -1163 -629 0
451 -945 0
1190 -1744 -843 0
768 -873 -733 -1583 0
1376 -1763 -905 0
625 -355 0
1347 -1837 0
-728 -35 -1368 0
-420 -64 -1922 -428 0
1687 -872 -762 0
-934 -1510 -1980 -1053 0
175 -1910 -1828 -850 0
-1475 -542 -1037 0
1387 -1892 0
1199 -187 -618 0
-1602 -1331 -729 0
892 -1756 0
-1539 -1310 -1927 -908 0
962 -1543 0
-1521 -701 0
1646 -183 -631 -806 0
364 -1187 -1533 0
1099 -615 -1248 -1262 0
529 -1395 0
1305 -424 0
-878 -1343 -956 0
831 -960 -1216 0
550 -112 0
1265 -1010 -1968 -1994 0
1220 -1314 0
212 -714 -678 0
-412 -826 -1808 0
1499 -881 -1803 0
148 -1175 -1982 0
1520 -256 -1285 0
1120 -1773 -327 -1100 0
-943 -1756 -778 0
471 -1533 0
-1891 -1739 0
34 -215 -295 -1433 0
916 -208 -668 0
301 -584 -663 0
519 -1484 -1670 0
-964 -1233 -668 0
1728 -732 -767 0
-1577 -1100 -1631 0
-662 -430 -1201 -180 0
1378 -199 0
468 -1717 -1891 -364 0
1887 -1857 -1392 0
-923 -1507 -1551 0
735 -208 0
1641 -441 0
-84 -344 0
442 -1095 0
118 -736 0
-105 -1139 -1176 -1578 0
-1410 -1844 -1427 -1151 0
26 -1058 -219 0
-703 -1401 0
613 -580 0
1864 -321 0
1965 -494 -1370 -721 0
1920 -1483 -190 -1714 0
-430 -1038 0
1677 -328 -1145 0
882 -1458 0
386 -1009 -1536 0
585 -361 -905 -799 0
1080 -1600 -884 0
184 -1369 -1725 0
1464 -1389 -1052 -1650 0
-1910 -289 0
172 -1129 -507 -1488 0
-80 -902 0
301 -608 -635 0
-179 -1820 0
1781 -1028 -1286 0
983 -634 -1602 -1997 0
1176 -1195 -1730 0
-648 -206 0
27 -284 -173 -691 0
9 -25 0
837 -1537 -1272 -404 0
64 -1980 -1410 -301 0
93 -96 -527 0
509 -1322 0
1903 -139 0
-1989 -1325 -712 -1409 0
-1962 -78 -1063 0
-803 -17 0
-1976 -1549 -472 -1490 0
1945 -920 -1756 -1010 0
1236 -1741 -557 0
-1597 -410 -700 -815 0
1105 -1543 -556 -172 0
-1370 -888 -355 -403 0
-1824 -1622 0
1375 -568 -139 -1847 0
-851 -1332 -1899 0
1693 -1248 0
-745 -1303 0
1538 -1351 -920 0
58 -1130 0
428 -1340 0
686 -1712 -1201 0
1128 -1928 -1880 0
1166 -567 -1479 0
181 -747 -176 -119 0
191 -1115 -138 0
1735 -1583 -1794 0
1192 -570 0
702 -1995 -1589 -144 0
1824 -1831 -1455 -819 0
1477 -991 -1440 -1002 0
1492 -1035 -1617 -1732 0
-521 -1230 -46 0
1826 -336 -886 0
673 -502 0
1273 -1819 0
795 -475 -693 0
1385 -399 0
1348 -113 -1531 0
64 -493 0
728 -1155 -237 0
803 -342 -1604 0
621 -260 0
-866 -470 -138 -879 0
-254 -1900 0
381 -1250 -940 -1836 0
1334 -807 -1479 0
1386 -759 -136 -1538 0
1441 -1247 -661 -578 0
-1015 -1469 0
-209 -1227 -338 0
1494 -910 -1105 0
-461 -677 -1066 -1869 0
1279 -1055 -1287 0
365 -1562 0
-1888 -1113 -1525 -671 0
-127 -1976 -1647 -1234 0
1363 -84 -281 0
1500 -688 -381 -1209 0
-664 -297 -220 0
788 -324 -1984 0
1836 -928 0
1082 -1940 0
1383 -1347 -905 -579 0
-227 -711 -852 -11 0
1679 -643 -1423 0
794 -866 0
-1368 -368 -1992 0
1801 -873 -1457 0
427 -781 0
1158 -1015 0
1764 -802 -1822 0
1085 -494 -161 0
1272 -1809 -1433 0
1804 -1466 -1648 0
1706 -705 -1283 0
763 -665 0
1409 -606 -1153 0
1246 -1709 -1091 -595 0
1008 -1948 -1888 -1099 0
-1599 -1474 -197 -1484 0
214 -360 -602 0
1058 -645 -693 -1808 0
861 -590 -216 0
1990 -138 0
-1504 -1386 -861 -1651 0
1858 -1614 -1060 -1968 0
1987 -390 -1497 0
-1052 -1209 0
-1600 -748 -737 -1096 0
1378 -718 0
-790 -161 -492 -724 0
1558 -358 0
107 -1923 0
1369 -1708 -542 -205 0
814 -1792 -1346 -187 0
-1601 -1692 -613 -1495 0
1907 -639 -369 0
862 -1248 0
346 -1312 -305 0
-207 -1829 -1779 -103 0
1867 -1255 -1097 0
-827 -1148 0
-622 -758 -1587 -293 0
181 -1096 -307 0
-1571 -371 0
986 -1443 0
1996 -1420 -1946 0
509 -1153 -771 0
596 -882 0
949 -580 0
1466 -1820 -1984 0
-867 -1224 -743 0
304 -1930 0
272 -1093 -82 0
-1810 -350 -1284 0
345 -24 0
1248 -1379 -1215 -146 0
712 -919 -942 -1904 0
1781 -1383 0
418 -444 0
1547 -98 -1785 0
227 -1553 -1816 0
518 -53 -1940 0
1278 -834 -1515 0
-1817 -1797 -680 -128 0
1370 -1350 -1005 -341 0
-1782 -1049 0
263 -22 0
1336 -1308 -282 -1980 0
-330 -1104 -775 0
813 -1065 0
-294 -1801 0
1473 -1009 0
42 -239 -1838 -867 0
-1844 -1880 -1765 0
68 -1866 -250 -1368 0
1182 -1489 -468 -864 0
-1797 -1132 -1460 0
1484 -842 -328 -64 0
735 -1346 -415 0
985 -1293 0
-191 -81 -259 -1901 0
-790 -115 0
389 -1490 -1652 0
165 -1148 -789 -638 0
300 -1535 0
-422 -269 -1693 0
261 -992 -1988 0
-1385 -1127 -470 -794 0
357 -725 -180 0
267 -716 -547 -574 0
1261 -404 0
411 -1724 -1240 -1866 0
834 -33 -1926 -262 0
-1081 -1564 -1647 0
-943 -963 -157 0
-1998 -908 -274 -376 0
1583 -720 -1343 0
1128 -778 -734 -1684 0
457 -220 -126 0
742 -1499 -623 0
588 -1398 -466 -1791 0
1317 -1890 0
536 -1885 -705 0
49 -317 -723 0
963 -502 -1690 -543 0
454 -288 -1033 -1572 0
55 -1659 -379 -1453 0
1326 -919 -1415 0
-1705 -1106 -1380 -121 0
1892 -1988 0
1058 -1986 0
776 -1936 0
-1267 -1740 0
1498 -105 -548 0
136 -878 -1896 -758 0
1882 -329 -947 0
-1002 -571 -253 -193 0
442 -1291 -453 0
1029 -1740 0
35 -517 0
900 -1040 0
-1875 -1199 -1504 -107 0
-233 -1749 -818 -215 0
1137 -651 -1356 0
637 -1359 -801 -1341 0
1766 -373 -365 -478 0
-1488 -828 -1975 0
1548 -1293 -972 0
787 -1067 0
-1181 -656 -1835 -552 0
446 -933 -1846 0
846 -957 0
-360 -382 -836 0
1545 -1762 0
-1375 -1561 0
1858 -1968 -1676 -805 0
1495 -1334 0
371 -698 -524 0
-1599 -1820 -781 0
-550 -999 0
129 -689 0
-1677 -1897 -1662 0
1807 -1827 0
1626 -1994 -1513 -1644 0
1581 -724 -614 0
1127 -408 -66 -415 0
962 -467 0
338 -1798 -1047 -1329 0
1317 -548 -234 -805 0
-149 -620 0
-395 -1593 0
834 -1951 -803 0
-787 -1956 -720 0
497 -1005 -1729 -1020 0
375 -932 -989 0
565 -563 0
255 -1398 -765 -226 0
502 -1534 -1411 -1139 0
1585 -1687 -802 -1680 0
-1243 -1889 0
146 -1712 -1342 -1912 0
643 -1472 -1130 -927 0
917 -1234 -1595 0
1304 -516 -1037 -1246 0
804 -1448 0
1010 -1555 -1635 -113 0
-1281 -801 0
1464 -15 -1813 0
886 -407 0
1054 -164 -789 0
-879 -1927 0
601 -1704 0
-681 -159 0
1469 -171 -39 -1060 0
823 -179 0
123 -1468 0
-494 -1616 -1675 -1022 0
-1798 -980 0
-1237 -441 -289 0
-872 -1174 0
-931 -142 -36 -716 0
1323 -640 0
598 -570 -1134 0
1385 -523 -946 -845 0
955 -329 -683 0
1995 -1430 -717 0
1087 -1698 -1674 -1538 0
-417 -1039 -997 -1583 0
-1806 -813 0
1737 -1962 -1252 -117 0
1212 -1952 -1362 0
145 -49 -1401 -1404 0
432 -1939 0
1322 -1463 -1217 0
1007 -473 -848 0
867 -1394 -1832 -214 0
-57 -1411 -1831 0
968 -150 -1267 0
1230 -827 -1508 0
278 -1529 -1573 0
1906 -1801 -1431 -831 0
-337 -969 -1243 0
117 -397 -821 -721 0
791 -87 0
-140 -1228 -32 0
1623 -440 -655 0
1048 -1117 -14 0
1504 -1555 0
1816 -681 -151 -878 0
946 -910 0
117 -90 -1019 -1731 0
410 -1702 -1296 0
267 -1533 -1267 0
1036 -1681 -35 0
-568 -78 -566 0
524 -1051 0
669 -1607 -8 -884 0
1248 -801 0
1972 -1490 -176 -117 0
567 -579 0
1524 -1739 -1077 0
868 -1432 0
-226 -1335 0
-1072 -255 -1098 0
1093 -480 0
1779 -136 -1559 0
1479 -210 -1647 -1276 0
306 -694 0
-1152 -1433 -1504 -173 0
727 -1746 0
-1498 -1400 0
460 -38 0
1180 -127 -231 0
883 -1488 -1481 0
1323 -293 -689 -412 0
-622 -360 -1977 -1650 0
253 -1296 -789 -794 0
335 -1414 -1636 -1922 0
398 -1152 -808 -731 0
-1630 -401 -441 -1098 0
689 -205 0
623 -305 -960 0
246 -169 -982 0
-894 -211 0
221 -636 -793 0
1627 -972 0
1001 -312 -1018 -798 0
-408 -592 -1906 -29 0
740 -10 -1677 -1619 0
333 -334 0
-1766 -1003 -1776 0
132 -1725 -1792 -1622 0
887 -809 -280 -1968 0
320 -1597 0
-1931 -423 -1873 -1869 0
1382 -685 -697 0
1457 -268 0
-518 -1202 -1558 0
23 -701 -605 -1151 0
1410 -1919 0
435 -75 0
202 -1125 -851 0
540 -1895 0
952 -940 0
590 -1313 -955 0
1508 -194 -1896 0
385 -631 0
1461 -458 -1112 0
-646 -53 -1881 -635 0
-463 -1791 -1427 -1963 0
1954 -1025 0
716 -1115 0
1766 -1684 -115 -1437 0
227 -1602 -1782 0
810 -1993 -695 0
-1497 -432 0
883 -983 -1710 0
1389 -764 -821 0
428 -1541 -1721 -1908 0
-1125 -377 0
722 -128 0
428 -1221 0
981 -346 0
-607 -457 0
-723 -304 -541 -1682 0
1185 -819 -165 0
1338 -1999 -1112 0
853 -1631 0
-178 -1164 0
1216 -72 -897 0
-491 -755 -638 -1396 0
-1633 -494 -850 0
-126 -1408 0
836 -1600 -165 0
-336 -356 -721 0
1667 -632 -497 0
-1033 -1849 -1555 -1111 0
654 -1341 -121 -1906 0
-1374 -1171 -540 0
1814 -1594 0
1562 -682 -205 -1352 0
594 -1776 0
-1529 -1557 0
-429 -1749 -1476 -1762 0
1713 -1843 0
1232 -1755 -725 -1874 0
-1274 -1076 -557 0
-1850 -1103 -1570 0
147 -1237 0
743 -1105 -167 -1314 0
480 -932 -374 0
-527 -1837 -1808 -1799 0
1165 -1530 -374 -1659 0
1897 -1904 -1484 -724 0
599 -41 -1993 -729 0
855 -536 -1377 -815 0
1779 -1327 -370 -1741 0
-281 -732 -1468 0
695 -957 -1006 0
1102 -342 0
409 -856 -1040 0
144 -222 0
1089 -147 -1890 0
-1591 -1339 -781 0
1016 -1724 -1839 0
1669 -280 0
454 -1639 -299 0
-1154 -1863 0
-426 -714 -323 -592 0
1297 -956 -27 -1893 0
967 -1132 -1774 0
-1728 -1181 -1792 -1164 0
1246 -1609 -707 -621 0
1007 -1767 0
1374 -834 -1936 0
634 -1303 -288 0
-48 -902 0
1410 -717 -1786 -1238 0
1205 -802 -565 -89 0
-118 -1014 0
1170 -625 -1639 0
-1176 -1268 -1288 0
1856 -789 0
378 -17 0
1598 -1638 -790 0
-1296 -839 -625 -1030 0
283 -125 0
1649 -1928 -1827 0
11 -944 0
-783 -1955 -347 -621 0
567 -1340 -20 -459 0
1270 -635 0
1720 -776 -1866 -1860 0
368 -1297 -936 0
-1237 -1284 -1502 -964 0
792 -784 0
1057 -781 -344 0
687 -261 -1218 -852 0
1412 -1657 -63 0
-1620 -1344 0
429 -360 -1860 -1008 0
1591 -39 0
1902 -951 0
728 -1379 -1982 -958 0
583 -439 0
-1505 -1007 -1418 0
741 -710 -535 -3 0
787 -1477 0
-494 -1758 -1793 0
529 -52 -1811 0
-1126 -1881 0
362 -1272 0
1926 -1184 -1651 0
19 -553 0
509 -937 0
-1738 -1832 0
206 -1480 -794 -639 0
1979 -61 -1559 -1148 0
-1506 -1499 -1234 0
1798 -1622 0
1439 -1723 -1487 -397 0
-854 -1884 -1226 0
232 -352 -357 0
351 -359 -1098 -316 0
1573 -1201 0
-1139 -1338 -52 -1366 0
1122 -1362 -1841 -1199 0
1981 -204 0
908 -304 0
1530 -1254 -1109 -1211 0
1317 -1580 -265 -645 0
42 -1480 -1195 0
1677 -1781 -1769 -1750 0
89 -1076 0
259 -304 -34 0
216 -981 -1523 -452 0
994 -971 -1099 0
1435 -283 0
407 -562 0
1930 -519 -826 -1283 0
-489 -1571 -189 0
-1019 -35 0
895 -496 -292 0
1972 -914 -601 0
1361 -1918 -1640 -836 0
278 -664 -479 -250 0
1155 -785 0
-518 -982 0
-1346 -1578 -883 0
984 -1809 -1558 -162 0
1333 -890 -281 0
1391 -1521 -1653 -1891 0
-1245 -496 0
1100 -570 0
543 -607 -382 -1222 0
1602 -1939 -1567 0
1426 -860 -1670 -1393 0
1756 -1276 -1985 -1897 0
1559 -693 -985 0
1853 -1244 -1450 0
664 -317 -185 0
896 -1785 -1639 -1200 0
876 -871 0
-923 -790 -1081 0
1304 -1786 -1288 0
451 -1103 -1541 -1399 0
1696 -1182 -1048 -300 0
1957 -1383 0
-1984 -1833 -324 0
1269 -253 0
1622 -337 -1346 -1649 0
805 -186 -840 -1876 0
-1292 -1193 -1329 0
621 -1546 -154 0
635 -1019 -1132 -479 0
-985 -908 -1643 0
-521 -183 -1785 0
1091 -1270 0
291 -1631 -1548 -1480 0
1671 -1158 0
-221 -1098 -1377 -538 0
-1414 -1096 -1212 -657 0
432 -1619 0
1436 -542 0
-1364 -385 -1074 -1505 0
-1206 -1472 -1717 -1167 0
273 -211 0
1324 -103 0
-1270 -651 -1409 0
1479 -1295 0
1004 -1124 -1831 -141 0
877 -962 -1716 0
-1159 -831 -73 0
833 -1897 -1397 0
1417 -717 0
124 -935 -1831 0
1319 -1741 -1606 0
-948 -858 -956 -1381 0
-808 -1341 0
1264 -95 -786 -517 0
1217 -558 0
-1289 -857 0
1605 -133 -806 -56 0
977 -609 0
-1749 -1500 0
-1653 -1914 0
1692 -567 -164 -1595 0
1083 -534 -320 0
-1309 -549 0
-712 -1703 0
-417 -1288 0
909 -1871 -758 0
-645 -263 -259 0
-157 -704 -699 -1052 0
165 -779 -1943 -1380 0
-1550 -771 0
-728 -1515 0
1466 -1958 0
-57 -1985 -1507 -1867 0
1916 -1684 -96 0
1764 -322 0
-259 -267 -1870 0
-538 -297 0
1233 -1167 -1256 -864 0
1370 -1067 0
521 -220 -1578 0
963 -1054 -1108 -687 0
1135 -979 0
-34 -1267 0
1552 -925 0
1123 -1159 -185 0
-41 -556 0
1511 -948 -1605 -120 0
-826 -310 -1855 -609 0
179 -1997 -1632 -1059 0
677 -1117 -1790 0
869 -235 -935 -896 0
-119 -1684 -1808 -894 0
-1269 -648 -1268 0
253 -239 -1048 -1167 0
1574 -1956 -6 -1418 0
306 -1414 -359 0
-614 -1852 -1214 -1702 0
727 -60 -673 -1923 0
-1857 -1281 -497 0
-1990 -363 0
-573 -1820 0
-1356 -491 0
-960 -50 -360 -1035 0
-170 -196 0
-226 -483 0
-1779 -110 -1265 -67 0
-438 -1427 0
1855 -409 -1494 0
-1006 -272 -83 -1582 0
532 -1707 -1381 0
688 -1150 -421 0
-1287 -1686 0
-1389 -650 -1691 -1113 0
547 -1023 -1075 0
1364 -1255 -1009 -1994 0
929 -1155 -1982 -1666 0
113 -1397 -904 -5 0
1508 -936 -1802 -462 0
399 -1482 -234 0
1519 -1889 0
-129 -1340 -1528 0
229 -362 -1235 -1148 0
410 -1511 -160 -155 0
1626 -1477 0
1890 -40 0
110 -871 -1959 -1403 0
1473 -894 -328 -1034 0
570 -1364 -192 0
923 -385 -1235 -128 0
-1242 -1394 0
793 -439 -593 0
604 -1607 -578 -579 0
257 -1629 -1316 -20 0
-1438 -638 -551 0
1359 -18 0
593 -316 0
1644 -32 0
74 -1929 -1421 -949 0
-125 -705 0
1293 -508 -251 0
838 -1754 0
1860 -1403 0
-454 -1663 -1736 -637 0
425 -997 -728 0
-169 -404 0
-1946 -1006 -1444 -804 0
1025 -1358 -1217 -17 0
1699 -1447 0
381 -1959 -578 0
-1889 -270 -1649 -1526 0
252 -581 0
364 -691 -1728 -54 0
217 -835 -1788 0
1538 -1685 0
1208 -318 -1073 -550 0
-1291 -943 0
149 -104 0
-947 -1156 0
-1178 -1881 0
-572 -932 -1136 -445 0
154 -606 -1221 0
-544 -564 -1705 -1041 0
-141 -1802 0
1524 -1418 -84 0
486 -1682 0
-1832 -1575 0
1549 -951 -1852 0
1649 -21 -771 0
1 -244 0
423 -546 0
1978 -104 -257 -1874 0
1702 -632 -177 0
503 -428 -211 0
-850 -1518 0
476 -890 0
1136 -624 -1896 0
506 -717 -1649 0
408 -1259 -440 -326 0
-1212 -253 -1807 -1616 0
1749 -1862 -1595 0
473 -1515 -1999 -370 0
688 -1035 -620 -854 0
-271 -280 -179 -384 0
24 -582 0
319 -1071 0
45 -1684 -1884 0
348 -1373 0
342 -767 -708 -1296 0
633 -1758 -825 -715 0
1683 -438 0
330 -1195 -520 -1436 0
1444 -462 -551 0
466 -1470 -989 0
1462 -378 0
-277 -406 -1206 0
1875 -1556 -1013 -1985 0
1091 -1693 0
344 -1261 -1890 0
1076 -792 -1881 0
1142 -1332 0
-966 -768 -1033 0
1684 -740 -764 -519 0
691 -1638 0
547 -663 0
1495 -815 0
965 -36 0
1962 -141 0
1971 -1938 -1775 0
1898 -1166 0
45 -971 -481 0
463 -1671 -270 -673 0
1620 -661 -1431 -941 0
1937 -182 0
498 -404 0
1543 -1829 -1369 0
877 -553 0
-1003 -709 -1224 0
1974 -654 -143 -1711 0
-1655 -1523 0
341 -437 -328 -420 0
543 -818 0
520 -496 0
1482 -777 -936 0
1345 -42 0
740 -795 -163 -645 0
92 -177 0
-825 -1636 -521 0
1413 -735 0
1578 -1256 -825 -629 0
-1541 -48 -1557 -240 0
1515 -1964 -1105 -133 0
-535 -828 -399 0
-1494 -1466 0
185 -322 0
800 -937 0
-633 -1954 0
1088 -785 -1376 0
924 -834 0
1891 -510 -1159 0
1907 -1398 -743 0
153 -33 -11 -94 0
1562 -1443 -239 0
-651 -491 0
1338 -912 -1326 0
455 -143 -891 -1861 0
1990 -21 -507 0
-1455 -771 -1721 0
1872 -1751 -266 -1292 0
1440 -224 -1044 0
1597 -939 -162 0
1547 -224 -1959 -575 0
-1391 -1224 -505 -1843 0
952 -777 -137 -1240 0
-1035 -985 -863 -212 0
-389 -1311 -982 -1354 0
9 -1465 -1578 0
325 -1384 0
590 -1554 -1561 -1808 0
1758 -1375 0
1614 -1894 -1811 0
1339 -1343 0
1677 -1310 -1979 -1375 0
-1369 -20 0
169 -1226 -623 0
177 -1584 -428 -1465 0
303 -946 0
467 -1681 0
1032 -1514 -193 0
1968 -815 -1289 0
118 -1397 -1298 0
184 -217 0
1724 -825 0
1023 -1575 -1205 -1853 0
592 -715 -530 0
166 -1162 0
204 -1854 -100 -1910 0
417 -1333 -1221 0
590 -1669 0
229 -986 0
56 -524 -1369 0
-1372 -952 0
1259 -712 -223 -244 0
438 -1804 -1912 0
990 -117 -788 0
-1343 -1937 -1927 -928 0
841 -1937 -64 -1936 0
-1625 -354 0
1372 -370 0
1853 -156 -1334 -696 0
-47 -1678 0
1821 -1269 -407 0
1496 -395 -1676 -1672 0
727 -423 -1611 0
1731 -876 -1174 0
-1985 -977 -1567 0
939 -119 -1588 0
1664 -246 -1023 0
962 -661 0
1596 -68 -891 0
1337 -1998 0
1267 -814 0
1626 -840 -347 0
-866 -344 0
1968 -126 -1813 -1146 0
-1576 -1788 0
-1831 -153 -360 0
-52 -1087 -1678 -1001 0
1206 -1346 -1926 0
-604 -1839 -755 -1328 0
660 -930 -55 0
-1750 -1542 -657 -1266 0
1711 -1355 0
449 -1552 -1070 -910 0
-1845 -1975 -112 -312 0
-518 -1011 -1333 0
933 -1615 -1247 0
1214 -1856 0
134 -812 -1846 -933 0
-1238 -459 -803 -1343 0
823 -307 -727 -74 0
-1834 -876 -1696 -1053 0
-467 -1136 -973 0
1336 -612 -1272 -1453 0
-1244 -1418 -1522 -782 0
213 -1773 -238 -566 0
1820 -1704 -1666 0
758 -1408 -1612 -1818 0
90 -1678 -283 0
1558 -1431 -494 -1188 0
456 -1830 -1496 -818 0
1404 -345 -781 0
1950 -1373 0
1929 -1713 -1423 0
107 -608 0
1810 -650 0
-108 -527 -232 -293 0
1388 -64 -1604 0
-69 -1136 -71 0
216 -258 -1215 0
-436 -1520 -450 -1457 0
211 -1124 0
-8 -763 -1413 0
-910 -327 -1752 0
562 -796 -932 0
1406 -732 -1470 -1884 0
131 -1846 -600 0
-1234 -1641 -1443 0
-23 -345 -1939 0
1699 -1056 0
1771 -684 -896 -551 0
-1146 -721 -44 0
-698 -1749 -148 -454 0
-612 -1830 -675 -1989 0
636 -1932 -196 0
1823 -1671 -1852 -688 0
1773 -1720 0
1519 -497 -1030 0
1640 -1281 -273 0
949 -962 0
1464 -392 -482 -1997 0
-578 -212 0
-1641 -1019 -1514 0
1265 -1701 -223 -1074 0
864 -1713 -234 0
438 -794 -762 0
1415 -176 -816 -1015 0
835 -1820 -803 -294 0
1176 -825 -1965 -110 0
-1860 -1388 -56 -1569 0
443 -1747 0
-7 -9 -1526 0
782 -978 0
424 -955 -484 0
-1065 -445 0
62 -1289 -313 0
1018 -752 -1246 0
1685 -1364 -1755 -391 0
1522 -1400 -1645 0
-16 -1439 -563 -1177 0
1158 -424 0
-847 -1995 -647 -1144 0
1108 -103 -396 0
581 -749 -1858 0
317 -937 0
1523 -1265 -341 0
448 -491 -487 0
878 -586 -693 0
634 -1824 -735 -596 0
-1256 -1170 0
1611 -1110 -1141 -708 0
-1774 -553 -1886 -615 0
632 -1362 -1726 -1150 0
1336 -1458 -1350 -49 0
1590 -19 -756 0
928 -1130 -1868 -755 0
1339 -1445 -1069 -1312 0
-331 -965 0
-1839 -1781 -31 -355 0
-350 -143 0
236 -1004 0
-199 -1676 -1035 -921 0
-186 -121 -175 0
596 -87 -1437 0
244 -1420 0
-1118 -778 0
1179 -1963 -665 -1979 0
1318 -1819 0
1205 -809 0
-1046 -1690 -1894 0
577 -509 0
-170 -570 -1830 0
45 -335 0
-1752 -1415 0
-1261 -1476 -1303 0
330 -1279 -961 -410 0
-843 -1694 -468 0
-343 -1734 -1556 -1357 0
39 -1714 -1979 0
-1843 -435 -653 0
1980 -334 -255 -1530 0
-1411 -212 -593 -620 0
-1412 -228 -1491 -823 0
1856 -1410 -1431 0
-1052 -1364 -516 -1736 0
-706 -981 0
1408 -1800 -229 -855 0
1094 -18 0
803 -1870 0
382 -1681 0
1717 -1046 -295 0
1896 -858 -932 -715 0
-289 -539 -248 -928 0
888 -1730 0
258 -970 -82 -1022 0
-1444 -1218 -708 -1421 0
1553 -13 0
1907 -227 0
1383 -1484 -517 -200 0
-1700 -888 -1789 -163 0
1746 -1702 -618 -720 0
1293 -1118 -625 -859 0
1457 -1315 -341 0
1079 -1641 -1306 -1271 0
1982 -232 -294 -1467 0
-269 -1073 -1994 -802 0
773 -83 -1211 -687 0
1504 -1073 -79 -32 0
929 -1973 -1334 0
-51 -1366 -1399 0
1962 -1868 0
891 -801 -627 -875 0
-648 -354 -284 -1562 0
541 -860 -1736 0
492 -152 0
-1260 -128 0
1814 -60 -723 0
1367 -1864 -374 0
708 -377 0
1166 -663 -953 0
703 -1267 -1264 0
1369 -361 -1328 -776 0
-1357 -1493 0
1289 -1329 -512 -731 0
308 -1053 0
-1956 -501 -1200 -513 0
740 -525 -1382 -286 0
1209 -1762 -480 0
1573 -646 -1015 0
183 -1621 -1782 0
1103 -993 -830 0
821 -1888 -91 0
-734 -1007 -146 -1971 0
666 -1487 0
992 -1932 -1144 -1163 0
-1829 -583 -473 0
1383 -403 0
328 -607 -1182 0
244 -921 0
-1172 -39 -1961 -1113 0
-904 -1807 -993 0
1365 -892 0
409 -408 -776 -1595 0
1060 -993 -1366 0
-838 -930 0
188 -1998 0
436 -1422 -1399 -1864 0
219 -636 -1720 -1189 0
1846 -1805 -725 -1912 0
-509 -811 -1450 0
1905 -597 -623 0
1298 -1264 0
-291 -1866 -544 0
1450 -1282 -156 0
41 -451 -395 0
267 -1849 -1281 -1279 0
-1164 -850 -910 -1413 0
-324 -689 -851 -1388 0
-1215 -1312 -277 -1178 0
-1205 -324 -643 0
921 -1723 0
426 -596 -135 -77 0
1403 -1038 -660 -1509 0
1131 -333 -979 0
-1611 -158 -105 -514 0
738 -1514 -574 0
-3 -385 -317 -1753 0
958 -830 0
-578 -1075 0
1664 -1916 0
463 -214 0
1685 -933 0
589 -412 -884 0
879 -1258 -1004 -474 0
-1395 -685 -463 -546 0
1956 -666 -682 0
736 -310 -594 0
462 -151 -1605 -554 0
1116 -204 0
1156 -184 0
1520 -153 -266 -391 0
737 -1022 -52 -1327 0
168 -1302 -1597 0
815 -1183 -523 0
-1631 -1090 0
709 -229 0
1919 -1237 -1460 0
1164 -205 0
1832 -1176 -713 -1503 0
1021 -1383 -1748 0
1643 -1290 0
-1236 -347 -1837 -1394 0
-1671 -662 -1505 -1576 0
550 -1145 -201 -317 0
1969 -126 -1438 -1743 0
191 -778 -1908 -1710 0
-1634 -1982 -1251 -1805 0
1894 -281 0
-253 -1012 0
483 -447 0
-1437 -992 0
438 -972 0
775 -463 -1199 -543 0
1665 -1885 0
-23 -1904 0
1934 -842 -1072 -1535 0
991 -670 -1805 -31 0
-1105 -629 -1222 -1040 0
-1435 -1304 0
-1366 -1973 0
1562 -691 -2 -1402 0
1946 -1675 -1720 0
338 -645 -1659 -1517 0
92 -1343 -236 -394 0
44 -1001 0
-78 -845 -354 -1584 0
-915 -563 -272 -253 0
-771 -1520 -7 0
841 -1164 -1145 0
515 -1128 0
-309 -431 -475 -771 0
981 -549 -1473 -831 0
843 -1848 0
-1799 -1451 0
1704 -992 0
-1165 -572 -1368 0
1426 -198 -648 0
-674 -1850 -931 -1358 0
610 -1900 0
-1909 -1273 0
-1397 -1918 -783 0
660 -319 -220 0
1203 -131 -1674 0
-1026 -1266 -871 -626 0
1506 -626 -361 -549 0
-1819 -663 -1402 0
-1667 -851 0
1461 -909 -1522 -1246 0
54 -1117 0
-56 -512 -817 0
-1667 -1717 0
729 -899 0
726 -762 -1385 -1274 0
143 -983 -1552 -1525 0
1423 -1100 0
-177 -1627 -354 0
-1014 -1115 0
682 -55 0
241 -1210 -735 -36 0
1205 -1583 0
1277 -611 -464 0
1351 -1565 -178 0
1616 -1411 0
435 -1275 0
71 -427 -1821 0
1144 -1376 0
-732 -16 0
191 -1781 -948 0
492 -1869 -1940 0
1150 -1370 0
1586 -1564 -1479 0
223 -936 -666 -1715 0
392 -775 -966 0
1828 -373 0
-249 -1755 0
459 -1319 0
510 -1177 -388 0
100 -1289 -35 0
-1405 -439 -1422 -361 0
-1381 -1579 -693 0
-430 -554 -1804 -249 0
-456 -220 0
1119 -973 -811 -1783 0
1472 -137 0
1689 -590 -718 0
386 -1644 0
1367 -1872 0
-611 -1487 -847 -170 0
-517 -1101 -1007 0
-1253 -573 0
1186 -42 -157 -1183 0
835 -308 -1419 0
1140 -1711 0
664 -15 -347 0
1492 -59 -1896 0
-1237 -17 -1419 -268 0
551 -1110 -767 -216 0
-264 -142 -1861 0
1896 -1079 -89 -1048 0
1246 -851 -1638 0
1405 -1969 -1150 -4 0
639 -279 0
1900 -498 -1387 0
-396 -889 -1509 0
-292 -1355 -1599 0
1247 -310 -376 0
-1226 -386 -28 0
485 -217 -1556 0
-550 -1651 -724 -1240 0
1734 -508 0
191 -54 0
1999 -1161 -192 0
-1772 -1103 0
1801 -16 0
1236 -1092 0
1904 -918 -534 -599 0
42 -260 -81 -1653 0
689 -629 0
1582 -671 -1071 0
454 -975 0
1876 -1640 -292 -1306 0
1383 -1603 -886 -314 0
10 -1066 -1353 -442 0
-1393 -1275 0
-1461 -1219 -1202 -1002 0
-753 -1235 -222 0
858 -1139 -1853 0
-1138 -956 -554 0
917 -847 0
1565 -865 -1959 -945 0
1771 -1140 -1897 0
-902 -819 -689 0
1512 -297 0
715 -1747 0
-801 -1238 0
1196 -962 0
409 -897 -555 0
-772 -1086 0
1061 -991 -258 0
268 -1522 -1696 0
366 -1085 -1427 -43 0
541 -338 -540 -710 0
543 -406 -858 0
1823 -1160 0
-429 -1468 0
-1003 -725 0
1994 -1841 -1384 -1250 0
538 -1003 -130 -671 0
-1925 -935 -1723 -289 0
-1227 -326 -1096 0
1344 -545 -706 -3 0
-1109 -3 -1617 -1375 0
-234 -1418 -728 0
1903 -1184 0
80 -854 -1026 0
1189 -1710 -234 -1125 0
-1861 -1002 0
127 -1293 -100 0
1832 -1524 0
-711 -867 -256 -904 0
495 -1336 0
785 -631 -1299 0
1742 -538 -1682 -470 0
1480 -1386 -1004 0
1143 -558 0
2000 -667 -1630 -535 0
1113 -1321 0
1733 -1317 -1947 0
-1335 -1845 0
1207 -470 -1437 -1327 0
1883 -1420 -1775 -1816 0
1308 -2000 -671 -1024 0
1229 -759 0
-1236 -1691 -917 -608 0
1670 -1768 -518 -1663 0
-185 -1494 -1312 0
1268 -1727 0
1163 -1963 -1778 0
935 -1915 -48 -1505 0
539 -906 -1814 0
1342 -1193 0
1400 -659 0
-163 -917 0
586 -129 -763 0
-304 -116 -1098 0
-1207 -1806 -1278 -1638 0
-887 -1877 -580 -1477 0
-558 -1779 0
125 -342 -303 0
1671 -324 -1189 0
1277 -963 -1564 -589 0
-82 -1666 0
957 -583 -1203 0
-1325 -605 -1922 0
-134 -1266 0
1241 -1139 -107 -2000 0
1335 -403 -1314 0
237 -914 -1243 -709 0
40 -1417 -1093 -659 0
-1734 -1588 0
841 -1181 0
1580 -746 -1763 -283 0
1686 -1191 -1385 0
1865 -1882 0
95 -288 -1002 0
761 -926 -290 0
1333 -22 0
938 -611 0
-1519 -1246 -1817 0
585 -456 0
1769 -813 -1910 0
551 -1686 -1488 -1147 0
1417 -295 0
-954 -1199 -546 0
-1258 -717 -896 0
-507 -1729 0
-1387 -1513 0
751 -1680 -855 -1688 0
-625 -369 -870 -653 0
330 -1611 -1894 0
38 -579 -1595 -140 0
1216 -836 -1408 0
773 -1468 0
-999 -663 -925 0
-1323 -25 0
899 -1655 -1339 -559 0
274 -621 0
-1555 -1333 -742 -1947 0
334 -951 -1769 -1366 0
718 -1330 -430 -1238 0
-152 -1977 -1541 -1091 0
1077 -582 0
-1763 -2 -1687 -1030 0
492 -1043 -88 0
-9 -347 0
-1867 -1351 -311 0
1481 -429 -1776 -513 0
1153 -1386 -405 -835 0
777 -787 -685 0
603 -1051 -730 0
679 -854 -895 0
390 -639 0
1102 -817 0
1013 -996 -1929 -1480 0
1185 -667 -1254 -1679 0
1360 -928 0
486 -873 0
-1022 -207 0
-1175 -1934 0
-1148 -1758 -717 0
474 -505 -1177 0
1254 -931 0
-830 -729 0
-750 -1411 -1412 0
1277 -1390 0
903 -1064 -753 -1442 0
174 -1553 0
405 -1181 -438 0
-707 -1130 -399 -1174 0
960 -1541 0
1213 -765 0
-1065 -32 -1398 0
336 -1464 0
-591 -703 0
1483 -735 -1778 -1276 0
841 -1447 0
591 -1126 -1731 -33 0
188 -1037 -1443 0
788 -1275 -219 -1534 0
689 -979 -563 0
1528 -786 -1313 -987 0
-957 -1794 0
-1165 -1059 -1188 -332 0
-1535 -457 -1850 0
1126 -1556 -1257 0
1348 -1294 -1310 0
631 -1678 -1697 -763 0
598 -1697 -47 -1726 0
580 -609 0
-1178 -963 0
1273 -1036 0
-1991 -1097 0
1396 -464 0
234 -1441 0
-1746 -1231 -1068 0
939 -977 -874 -13 0
1207 -1742 -61 0
1953 -1515 -1079 -1578 0
17 -1807 0
273 -1970 -85 -180 0
982 -1965 -109 -1338 0
7 -1332 -355 0
574 -161 0
1133 -330 -1754 0
-126 -673 0
-1794 -864 -1004 0
-402 -1641 -1175 -602 0
1982 -266 -243 0
858 -1802 -121 -1543 0
-1189 -1559 -439 0
-1163 -420 0
1056 -1000 -1436 0
1960 -567 -453 -1815 0
-819 -1476 0
686 -714 -336 -1450 0
386 -76 -404 -1042 0
477 -1678 0
1823 -1584 -1707 0
1393 -1998 0
-131 -683 -1074 0
-501 -655 -482 -1904 0
648 -500 -1618 -20 0
1552 -726 -397 -1504 0
1507 -1561 -646 0
1956 -1663 0
1773 -489 -1304 -1459 0
203 -1702 -86 -710 0
-1855 -722 -126 0
-525 -781 0
326 -1426 0
-444 -1419 -1134 -963 0
614 -1320 -817 0
1386 -1955 -805 -1088 0
1293 -1993 -1638 0
281 -923 -163 0
1664 -1383 0
771 -1881 -1194 0
513 -1496 0
1210 -1868 0
1635 -852 0
1990 -1935 -1631 0
1349 -1397 -718 0
-1303 -1211 -1600 0
-671 -891 -1026 0
1832 -297 -35 0
110 -1102 -865 0
838 -310 -1503 -1570 0
555 -67 -724 -1841 0
1227 -1269 0
-1237 -1886 0
96 -317 -1803 0
856 -336 -1347 -971 0
571 -272 -79 0
2000 -1077 -900 -631 0
1893 -216 0
1308 -604 -1061 0
124 -479 -355 -1031 0
-949 -321 -1992 -1892 0
-1098 -1450 -470 -899 0
2000 -349 -1561 0
-1381 -1911 -1273 0
509 -948 -1975 0
1505 -1442 -62 -900 0
1502 -1689 -117 0
979 -850 -49 0
1867 -1285 0
539 -1814 -1584 -1475 0
-1320 -364 0
479 -497 0
1410 -285 -1841 0
-6 -453 0
763 -1917 -351 0
983 -283 0
1579 -1021 0
636 -686 -501 0
1310 -782 -1087 -1084 0
1991 -471 -827 -1727 0
-1112 -661 -1036 0
1897 -933 -733 -1305 0
1831 -948 0
-1908 -59 -2000 -55 0
931 -132 -1625 -1050 0
134 -474 0
905 -1119 -330 0
1828 -974 -720 -539 0
-843 -1209 0
-1658 -1275 -1190 -397 0
1599 -1987 -697 -1142 0
204 -695 0
1029 -969 -1891 -618 0
-590 -1894 0
-1951 -1046 0
243 -973 -1823 -304 0
1972 -1071 0
1986 -904 -1279 0
1052 -388 -1601 -275 0
-1262 -377 -1407 -346 0
-872 -634 -1416 0
658 -1780 0
386 -92 0
-1226 -488 -1137 0
87 -1303 -1666 0
-1698 -1083 -494 0
-1590 -423 0
-1853 -845 0
277 -38 0
593 -1120 -1680 -205 0
1427 -677 -334 0
522 -600 -339 0
1845 -1192 -819 0
1598 -1613 -1555 0
1252 -1996 -808 -1104 0
225 -1510 -546 0
-767 -1716 -8 0
-780 -648 -938 -702 0
1248 -407 -1305 -1281 0
1258 -821 -1465 -252 0
750 -11 -1739 0
1000 -1163 -1453 -698 0
1706 -395 -1024 -834 0
-1316 -180 0
-597 -1401 0
223 -623 0
1782 -1674 -356 0
892 -1943 -641 0
-402 -954 -577 -1970 0
1072 -1528 -1854 -453 0
467 -1657 0
1789 -1520 -1716 -529 0
1448 -1480 0
623 -1967 -1580 0
723 -545 0
261 -136 0
1722 -1965 0
1220 -1525 0
1684 -73 -1910 -284 0
1968 -1355 -465 0
303 -1729 0
147 -1832 0
1078 -284 -1962 0
392 -1509 0
-1740 -1363 0
1787 -742 0
362 -1358 0
-1249 -31 -906 0
773 -1287 -11 0
1480 -1088 -1709 0
-1038 -1274 0
-433 -461 -1794 0
-651 -64 -977 -1620 0
484 -324 0
1295 -800 -1245 0
542 -1212 -578 -1498 0
1189 -140 -971 0
290 -22 0
13 -1497 0
1416 -1585 -790 0
1420 -44 0
548 -48 -1113 -1452 0
-1098 -1592 0
1766 -420 0
1413 -701 0
-84 -144 -667 0
466 -1980 -440 -1119 0
562 -584 -465 0
747 -135 0
681 -1088 -1284 0
1600 -1385 -1366 -937 0
-65 -1625 -1267 -475 0
1138 -1793 -1829 0
677 -490 0
543 -356 -1806 -711 0
601 -1907 -751 0
1433 -1958 0
-1026 -431 -891 0
-199 -508 0
-110 -1907 0
551 -1456 -1268 -1579 0
806 -943 -1013 0
-440 -1463 -1270 -1224 0
1271 -1564 -1567 0
-1405 -309 -500 -715 0
984 -1373 0
-225 -316 -1238 -975 0
1766 -1121 -1583 -1850 0
1195 -1819 -744 0
943 -1625 -825 -1688 0
400 -960 -1988 0
569 -1562 -1337 -1945 0
-1826 -162 -87 -1085 0
684 -238 -1273 0
1078 -530 -352 0
-1439 -833 -1651 -1557 0
854 -334 -491 -832 0
1879 -1377 -1221 -1571 0
1599 -820 -1605 0
383 -1736 -1863 0
1707 -34 0
203 -1830 0
-925 -1504 0
873 -903 -451 -62 0
1182 -1399 0
909 -748 -551 -1794 0
-817 -1981 -245 0
229 -416 0
-138 -164 -1838 0
1313 -1913 0
1091 -742 0
692 -1169 -154 0
-626 -1306 -1334 0
504 -222 0
-688 -1240 0
-1605 -1911 0
1105 -802 0
562 -1322 -1051 -659 0
1627 -1483 -419 0
-860 -1365 -1521 0
1199 -1672 -1525 -920 0
775 -561 -1132 0
1554 -727 -1051 0
1484 -490 -617 -1829 0
49 -2000 -1774 -267 0
652 -1453 -1011 0
1361 -111 0
685 -1780 0
921 -660 -938 0
-330 -320 -1489 0
528 -179 -225 -405 0
343 -1364 -1690 0
28 -872 -1991 -654 0
1478 -185 -1712 -200 0
-1796 -193 -1640 0
-1518 -1369 -1511 0
342 -749 0
916 -1414 0
318 -1426 0
1828 -306 -1288 -494 0
-111 -1012 -1401 -1524 0
-1196 -36 -762 0
1516 -1735 -767 0
1071 -1043 0
1110 -1854 -1291 0
-1228 -259 -1312 0
-849 -1180 0
1926 -1882 -1582 -1885 0
-1676 -918 0
-376 -1821 0
-828 -1830 -710 0
726 -1460 0
659 -1551 -597 0
1640 -1809 -493 0
819 -1146 0
-456 -1159 -158 0
1388 -935 -759 0
821 -1519 0
1364 -599 -413 0
-1000 -1156 -1060 0
-1741 -1104 -613 -784 0
339 -506 -496 0
836 -501 -28 0
366 -1993 -1077 -1164 0
306 -803 -1457 0
484 -1421 -920 0
2 -1572 0
1947 -1642 -147 -1876 0
1090 -375 0
684 -1953 -1807 0
1761 -859 -1053 -6 0
-1197 -1921 0
-744 -67 -1226 -768 0
-75 -496 0
-831 -1389 0
1108 -853 0
134 -65 -1637 -684 0
-821 -801 -1552 0
203 -1265 -1875 -779 0
-1658 -1205 0
1609 -858 -1493 0
547 -1875 0
1525 -88 0
625 -766 -1512 0
77 -1644 -1940 -379 0
261 -1462 -207 0
205 -857 -1234 -1456 0
1606 -1201 -1882 0
-107 -720 0
690 -955 0
768 -1733 0
1048 -1844 -1985 0
1003 -864 -520 0
1314 -1074 -290 0
1629 -1340 -1875 -1116 0
-1107 -1948 0
-1343 -1325 -753 0
-718 -1908 -1035 0
-721 -868 0
1752 -1185 -1294 -1630 0
1661 -16 0
1280 -1396 -1570 0
-1024 -1066 -1820 0
956 -728 -1547 0
1361 -286 0
718 -287 -546 -433 0
1997 -1465 -1733 0
-691 -1301 -1063 -1123 0
1756 -349 -1971 0
99 -1626 -1535 0
930 -1047 -110 -1486 0
1241 -1816 -242 -1194 0
-1499 -1526 0
1232 -1179 -1935 0
967 -1727 -1278 0
-27 -1109 0
1293 -1526 0
1820 -121 -1086 0
1899 -476 0
-74 -676 -99 0
-1117 -795 -403 -216 0
704 -1245 -1983 -736 0
1683 -1579 -162 -693 0
311 -702 0
1008 -1272 -495 -6 0
356 -1874 0
1483 -1092 -873 0
147 -958 -1909 -1088 0
1950 -423 0
640 -1319 -1712 -1378 0
1814 -297 0
-1818 -1140 0
1782 -1562 0
145 -1049 0
1185 -120 -1084 0
1613 -1792 -120 0
371 -1126 0
1918 -1289 -673 -1284 0
-1469 -807 -327 0
1198 -694 -1747 0
593 -226 -1022 0
917 -940 0
421 -649 -1548 0
290 -1091 -530 0
668 -519 0
1344 -1329 -1932 -1370 0
1639 -135 -1671 0
1747 -14 0
648 -1657 0
-981 -1998 0
1354 -1472 -763 0
890 -1342 0
1922 -681 0
327 -946 0
-298 -1591 -583 -910 0
460 -266 -1324 0
-1991 -1907 0
463 -1054 -629 0
-680 -1363 -1789 -1836 0
-1471 -209 -964 -202 0
1651 -1568 0
529 -428 -700 -277 0
1349 -796 -1630 -1876 0
-858 -702 -1845 -1539 0
1888 -836 0
1485 -1596 -631 -1729 0
-1886 -1962 0
300 -365 -872 0
1057 -1650 -247 0
329 -1713 -1911 -78 0
1884 -288 0
748 -1368 -914 0
1189 -498 0
793 -1028 0
1510 -392 -865 0
-1563 -165 -1343 0
1793 -112 -244 -991 0
328 -203 -908 -617 0
1608 -846 0
1102 -920 0
-1517 -1983 0
288 -1754 0
1794 -1766 -132 0
884 -938 0
601 -1263 -500 0
1375 -741 -366 -1144 0
-297 -1230 0
511 -378 -169 -1299 0
-1485 -351 0
211 -1439 0
1346 -278 0
614 -1393 0
967 -826 -12 -1330 0
1057 -1403 -771 0
1337 -1985 0
1043 -1593 -1946 -1471 0
1935 -1068 0
107 -981 -248 0
1802 -695 -65 0
539 -460 0
-931 -741 -1365 -1716 0
-1915 -1574 -1013 -1303 0
-1675 -123 0
1813 -1392 0
222 -435 0
105 -881 -374 0
26 -1170 -294 -1371 0
-1478 -129 -956 -757 0
384 -1010 -157 -619 0
1208 -38 -141 -303 0
869 -1356 0
-1741 -565 0
1360 -213 -1206 -1559 0
-429 -1985 -1573 0
34 -1435 -703 -522 0
1638 -1983 -743 0
30 -652 -580 -1468 0
1132 -1615 -1489 0
88 -1050 -1940 -1389 0
1797 -1988 0
1313 -449 -393 -1519 0
1707 -1307 -1058 -1987 0
1524 -640 0
101 -1988 0
1779 -976 -1103 0
893 -873 0
-1625 -1144 0
-1547 -1637 -1497 0
441 -468 -1261 -1278 0
319 -1450 -344 -1156 0
882 -843 -585 -142 0
-1504 -671 0
-427 -568 -1400 0
1402 -1090 -1678 -1192 0
1918 -1352 -1236 0
80 -1542 0
-1796 -1811 -1040 0
1582 -381 0
533 -748 -488 0
-1652 -1580 -676 -1774 0
1414 -431 -564 0
1285 -1582 0
-1498 -524 0
1824 -1574 -785 0
-1208 -356 -339 0
1061 -1381 0
-1113 -1810 -885 0
674 -1076 -1258 0
-1868 -942 -234 -1996 0
-791 -442 -475 -233 0
-1038 -258 -1323 -205 0
-1877 -431 0
1208 -1474 -1798 -1335 0
1868 -513 0
-1901 -569 -1887 -885 0
1118 -1917 -1275 0
645 -1918 0
62 -1618 -1145 0
-847 -60 0
-887 -1254 -495 0
-403 -1981 0
1609 -1474 0
-756 -224 -791 0
562 -806 0
448 -971 -1689 0
1381 -426 -1421 0
1656 -1340 -1726 0
1238 -1433 -1544 0
-986 -1609 0
1554 -18 -299 0
973 -1757 -1710 0
-1229 -1703 -1776 0
889 -746 0
-666 -264 -1645 -1518 0
-17 -1947 0
1726 -499 0
1975 -1531 0
148 -1274 0
279 -135 0
1339 -344 0
1640 -1510 -940 -1661 0
1919 -396 0
1755 -923 0
-237 -552 -1176 -463 0
1041 -572 0
1695 -1521 0
961 -1966 -838 -1865 0
-799 -664 0
1410 -559 0
-489 -1646 0
467 -591 -1408 0
48 -1870 -419 0
-1277 -779 -377 0
475 -1768 -1892 0
1027 -1224 -525 -1438 0
447 -722 0
-1273 -1114 0
-304 -631 -167 -480 0
1214 -1071 0
391 -1883 -1846 -1315 0
332 -1375 -246 0
1863 -325 -629 0
-1444 -1642 0
-717 -384 0
416 -1754 -1908 -258 0
1680 -1793 0
1798 -317 -1959 0
-1070 -1121 0
-274 -1952 -1644 0
-391 -1550 -460 0
-1889 -1834 0
-882 -367 -617 -994 0
-1064 -1548 -1496 -730 0
-655 -386 -1828 0
500 -1472 -1924 0
41 -1317 0
-583 -649 -1629 -1349 0
1406 -66 -1571 -700 0
1271 -524 -654 0
-1566 -1553 -64 0
1764 -561 0
1077 -1428 -172 -1418 0
458 -710 -1674 -790 0
1859 -143 0
340 -41 -889 -1963 0
81 -1525 -1954 0
303 -486 -1041 -654 0
38 -1511 0
1046 -339 -528 0
1627 -1543 -1819 -994 0
446 -1026 -2000 -1592 0
-1074 -979 0
-1439 -1603 -1280 0
1368 -1905 -741 0
-400 -80 -82 0
76 -1579 -1958 -1170 0
68 -1272 -1246 -674 0
-800 -5 0
1274 -97 0
1447 -1625 -678 0
794 -1898 0
100 -430 0
667 -1353 -1758 -670 0
-1137 -796 0
1605 -708 -939 0
1266 -136 -1143 0
1014 -725 -1911 0
1167 -1324 -1539 0
248 -117 -1543 0
865 -1477 -1169 0
730 -1017 0
290 -1616 -707 0
-1322 -34 0
1012 -608 -827 -461 0
-769 -790 -1934 0
1549 -1236 0
1635 -775 -1094 0
1320 -1064 -1070 -1563 0
1378 -1476 -763 -1996 0
-1025 -760 -1118 0
425 -1803 -1708 0
50 -1573 0
-1723 -270 0
-448 -412 -68 -346 0
-1173 -1921 -1077 -525 0
-492 -1592 -587 -1307 0
819 -542 -1658 -1438 0
1101 -1453 0
575 -590 -936 -892 0
1585 -1197 -1984 -598 0
-547 -1266 0
1116 -708 -1621 -1582 0
1655 -1382 -1351 -219 0
1192 -959 -213 0
-236 -1489 -429 0
-1035 -920 -190 -1216 0
1432 -1989 -1807 -1171 0
674 -1521 0
1062 -117 -1318 -1574 0
569 -1804 0
279 -793 -1 0
1547 -224 0
-1810 -556 -1087 0
1855 -1306 -1999 -734 0
-813 -1301 -1013 0
-1866 -631 0
752 -1157 0
569 -658 -439 0
823 -40 -254 0
702 -354 0
394 -1937 -1956 0
1528 -1446 -507 0
629 -672 -1068 0
-1175 -1303 -979 0
-1028 -1629 -171 -1395 0
1446 -1025 -1678 0
256 -444 -600 -818 0
618 -1830 0
127 -1431 -272 0
780 -887 -622 0
934 -1743 -109 -464 0
728 -158 -1956 0
620 -796 -22 -1044 0
-1647 -426 -831 -1382 0
63 -1957 -1972 0
-440 -661 -787 -1528 0
1034 -1742 0
-1441 -72 -1929 -1178 0
-529 -431 -946 -1422 0
1321 -1300 -1223 0
341 -880 -1321 -1677 0
37 -932 -1374 0
1123 -675 -148 0
-85 -653 -404 0
-1106 -1727 -985 -1902 0
-153 -1154 -1393 0
1586 -543 0
1314 -112 0
-177 -971 0
-912 -1168 -1786 0
1194 -1803 0
1588 -645 0
-1649 -1262 -1639 0
183 -21 -1268 0
1118 -1929 0
294 -949 0
365 -452 -1700 -541 0
768 -1301 0
-1313 -289 -1134 0
1499 -1462 -121 -113 0
1347 -1357 -1828 -836 0
824 -1875 -1442 0
1788 -170 0
-1203 -1335 0
-965 -699 0
1972 -1065 0
-1698 -111 -1383 -1760 0
-554 -1371 -320 0
1964 -1117 -1414 0
1022 -670 0
984 -42 -1132 0
-1805 -518 -1826 -1783 0
1328 -178 -56 -979 0
1617 -84 -1401 -702 0
1498 -1156 -403 -214 0
-1429 -650 0
-1079 -951 -1960 -1515 0
842 -255 -168 -419 0
907 -1782 0
1916 -38 -1134 0
408 -1111 -1477 -1125 0
956 -1760 -1330 0
490 -1043 0
628 -305 -212 0
396 -1876 -1020 -1577 0
1541 -1664 0
-1460 -1314 -810 0
-1891 -1253 0
-1392 -1891 -1625 -331 0
1435 -119 -1543 -200 0
-1282 -1949 -79 -1121 0
-841 -494 -41 0
330 -1353 0
1194 -1878 -540 -1997 0
1073 -1019 -1962 -135 0
1170 -1697 -865 0
1909 -1130 -1707 0
-490 -1367 0
586 -1174 0
414 -901 0
1205 -694 -1270 -1444 0
1459 -1772 -1097 -1194 0
-932 -414 -36 0
1100 -1254 -882 -1713 0
-453 -1552 0
1319 -1481 -996 -1921 0
-121 -30 -883 -534 0
1887 -1892 -851 -628 0
-1170 -825 -1070 0
1555 -1286 -999 0
725 -588 0
712 -471 -1579 0
-519 -1679 0
-94 -1707 -242 0
-1180 -1161 -1118 0
342 -1302 0
1703 -828 -1314 0
235 -1947 -813 0
-774 -93 -646 0
-238 -1430 -544 -879 0
931 -507 0
162 -1137 -100 -1886 0
151 -1401 -350 0
-725 -1251 -276 0
637 -1111 -507 0
22 -939 0
866 -704 -1285 0
1031 -1671 -1204 -266 0
1212 -1878 -1033 0
462 -177 0
1893 -893 -1557 -1829 0
-476 -337 -842 -1719 0
615 -1433 -408 -483 0
1839 -778 -649 -20 0
768 -1981 -1974 -43 0
696 -1603 -1799 -1277 0
1659 -523 -288 0
835 -1 -1182 0
-1570 -1815 -909 0
517 -484 -930 -899 0
1930 -1253 0
1423 -1584 0
1084 -1705 -606 0
1141 -799 -1221 0
514 -1021 -1542 -1034 0
1541 -1661 -1421 0
-445 -248 -1274 -1323 0
1634 -1978 -1284 0
-1004 -72 0
1413 -1327 -1109 -423 0
-908 -1249 -1954 -1392 0
-1640 -352 -486 -1712 0
123 -1276 -534 0
-490 -1328 -74 -1762 0
1073 -1285 -159 0
436 -1669 -716 -1010 0
-1139 -1407 -1932 -1975 0
1195 -796 0
1188 -1724 -702 -1924 0
309 -1107 -543 -1463 0
1874 -970 -592 0
-1379 -538 0
1061 -1078 0
752 -1655 -380 0
-862 -1908 -821 -1287 0
1176 -284 -1998 -1574 0
108 -1390 -1568 0
-479 -96 -1907 0
-1370 -1185 0
1247 -328 -355 0
238 -1170 -964 -1336 0
-872 -599 0
-1240 -1702 -1888 -1960 0
756 -1134 0
1032 -670 0
-750 -1048 -1196 0
-1525 -419 -1383 -1064 0
180 -407 -1367 0
1916 -1155 0
1083 -144 -1941 -293 0
-1813 -1297 -986 -43 0
-1216 -815 -1191 0
-1246 -1430 -438 0
-459 -805 -1930 -30 0
1402 -1856 -1718 -1282 0
1108 -1046 -1371 -633 0
303 -935 0
479 -1628 -1645 0
1536 -1829 -1836 0
-1573 -1097 -1687 -1777 0
-1500 -1942 -893 -298 0
1305 -1482 -1145 -1237 0
437 -1533 0
877 -1925 -1014 -553 0
1957 -821 -979 0
1717 -1082 -1366 -1947 0
1962 -1500 0
1847 -1834 -415 0
1406 -1639 -1688 0
311 -797 -1677 0
1997 -327 -1949 0
1091 -394 0
21 -1353 0
1732 -287 -553 -1343 0
-87 -1708 0
1988 -538 -1311 -1025 0
1663 -743 -1748 0
-1369 -781 -227 -1162 0
1479 -332 -1216 0
1494 -1685 0
87 -1939 -1840 -1620 0
1424 -1303 -1333 -124 0
1980 -1825 -1278 -982 0
1060 -1320 -196 0
1241 -416 0
246 -1217 -716 0
-57 -261 -1899 0
-1802 -1881 -839 0
1462 -1619 -109 0
1212 -391 -341 -1157 0
340 -1268 0
1782 -1554 -1661 0
1021 -1880 0
721 -1965 0
277 -1830 -564 0
1983 -997 -1226 0
-422 -560 0
668 -240 0
-1041 -1522 -1403 -948 0
1851 -114 0
733 -539 -904 0
1069 -748 0
1502 -207 -1163 -946 0
729 -1261 0
1348 -192 -1068 0
1485 -602 -574 -1790 0
-560 -11 0
1111 -1653 -151 0
112 -1964 -1012 -82 0
756 -512 -763 -986 0
1072 -202 0
1787 -1571 -60 0
1676 -1233 -896 -52 0
-1651 -1800 -1869 0
221 -394 -42 -742 0
1706 -480 0
1942 -689 0
-1301 -1700 -1365 0
-52 -1550 0
989 -505 0
1309 -312 -701 -1753 0
1679 -648 -299 -1528 0
19 -972 -711 -409 0
-1400 -176 0
145 -581 0
-1319 -1143 -1482 0
1026 -402 -278 -1218 0
1668 -373 -1033 0
522 -384 -1420 0
933 -1008 0
256 -1032 0
1369 -277 -361 -855 0
1843 -794 0
787 -210 -280 -1291 0
-284 -1667 -1770 0
955 -330 0
1809 -1307 -1005 0
1212 -564 -801 0
-1168 -657 0
48 -923 -561 -1298 0
856 -162 -1714 0
1307 -48 -1806 0
945 -458 -1169 0
-847 -1231 -1632 0
-228 -498 -1093 -291 0
1948 -1581 -393 -364 0
1861 -1511 0
-1921 -307 -401 -1268 0
1756 -1761 -1790 -1128 0
-485 -1672 -2000 0
-1683 -584 -1750 0
1390 -1504 -1030 -745 0
133 -1789 -814 0
498 -1888 -1697 -1308 0
953 -847 -887 -408 0
1909 -665 -815 0
26 -1008 -1709 -884 0
-527 -1403 0
1711 -1311 0
1038 -158 0
-1595 -941 -87 -987 0
1868 -47 0
1852 -1096 -754 -702 0
215 -682 0
1448 -244 -1754 0
-1516 -1432 -1032 0
978 -360 0
647 -1196 0
1150 -20 0
-701 -132 -472 -238 0
1240 -1874 0
1480 -1957 -1803 0
134 -943 -513 0
-1788 -929 -1403 -599 0
1152 -1553 -1179 -1527 0
387 -1919 0
1395 -1159 -1326 0
125 -687 -717 0
1795 -1607 -1749 -493 0
1943 -666 0
246 -769 -1384 -343 0
-1293 -1380 -1005 -1263 0
1868 -489 0
-624 -830 0
372 -349 0
-86 -468 -1276 0
-1262 -968 -467 -1798 0
1279 -838 -318 0
1403 -1679 0
157 -78 0
1309 -1326 -389 -1272 0
704 -907 -1263 -1858 0
923 -151 -825 -488 0
-1442 -1761 0
1886 -723 -1535 0
478 -1310 0
201 -491 -1080 0
1045 -1960 -616 0
17 -153 0
639 -1801 0
-1025 -519 -1396 0
759 -1448 0
-1767 -1653 -1384 0
-512 -1261 0
-1695 -597 -327 0
122 -773 0
-22 -420 -959 0
-915 -225 0
-932 -133 0
455 -1843 0
-367 -1083 -398 0
-444 -561 -1070 0
-66 -1081 0
160 -863 -1022 0
1463 -579 0
264 -2 -1706 0
-1708 -1349 -1928 -1989 0
761 -1445 -503 0
-1271 -559 0
166 -1425 0
1022 -1179 -1633 0
821 -451 -747 -627 0
1604 -1242 -1714 -1418 0
550 -569 -1787 0
1768 -837 -391 0
-275 -1623 -192 0
1586 -1048 -1932 -387 0
1352 -263 -486 -1789 0
1384 -766 -1727 0
404 -1521 -1191 -1179 0
-522 -572 0
1823 -1288 -1677 -1821 0
-567 -1321 -836 0
1137 -612 -59 0
1330 -411 -356 0
-873 -687 -150 -1558 0
1648 -530 -267 -686 0
1968 -851 -1484 -1874 0
548 -1413 -1703 0
1831 -686 -1232 -972 0
1287 -1065 0
1524 -134 -713 0
280 -1780 -234 -1495 0
1624 -1489 -463 0
1525 -476 -1226 0
-1661 -593 0
397 -1480 -1178 -1525 0
-1695 -902 0
294 -399 -1014 0
460 -1287 -1801 -1976 0
479 -1943 -674 -1127 0
321 -1153 -431 -1629 0
987 -1855 0
839 -1828 -1332 -929 0
-1048 -1515 0
809 -1054 0
1800 -649 -771 -1060 0
1833 -1351 -583 0
1426 -1107 -936 -1338 0
-100 -489 -550 -1036 0
-1399 -1138 -1521 -1921 0
-1975 -1047 0
1731 -406 -619 -1886 0
1258 -922 -1650 0
-1189 -470 -1519 -494 0
1411 -456 0
1386 -338 -117 0
-1573 -6 0
1236 -1977 -1280 -1783 0
-285 -518 -851 0
804 -1878 0
354 -1435 0
-1544 -1257 0
1813 -600 -148 -1890 0
788 -1432 -1071 0
-1715 -432 -331 0
466 -578 -1653 -1015 0
330 -514 -1245 -925 0
1121 -377 -1777 -1784 0
1198 -1847 -1128 0
769 -1293 -1388 0
933 -526 -1453 0
765 -86 0
786 -1951 0
1706 -1367 -1554 0
-1367 -1465 -715 0
746 -14 -1853 -1772 0
-534 -1688 -1188 0
-1861 -448 0
1076 -689 -363 -1757 0
1961 -582 -1729 -1993 0
1290 -500 -436 -437 0
-1605 -531 0
1567 -1688 -1419 -438 0
-644 -1533 -1061 0
881 -1611 -560 -1133 0
1437 -96 0
994 -1036 0
-203 -979 0
-1533 -1063 -251 -764 0
1255 -818 -1665 -979 0
-1868 -560 0
1228 -335 -1258 0
148 -1341 -766 0
616 -885 0
-436 -846 -711 -365 0
598 -1146 -701 -729 0
-1329 -842 0
-1923 -751 0
-1208 -1709 0
1129 -39 -1745 0
-1432 -685 -286 -848 0
1072 -970 -801 0
-85 -1493 -1964 -726 0
-1884 -420 -324 0
1333 -145 -1746 0
1366 -227 0
92 -1921 -1403 0
-1983 -21 0
-1829 -241 0
1647 -1385 0
1336 -1946 -370 -1269 0
675 -1618 -510 -1899 0
1203 -1068 -497 -1802 0
1197 -703 0
1410 -1013 -1038 -1438 0
99 -404 0
-1632 -1102 -1696 -744 0
-345 -1045 -1088 0
1941 -1312 -968 -1271 0
-739 -1545 0
621 -754 -1775 -1073 0
1993 -1010 -180 0
1606 -525 -1307 -548 0
9 -274 0
-204 -139 -329 0
-904 -1447 -1319 -194 0
85 -1769 0
1063 -1093 -165 0
-46 -1215 -367 0
-1166 -133 -1719 0
783 -1097 0
1938 -1886 -609 0
-1223 -304 -339 -69 0
901 -1694 -355 0
1212 -1252 -370 -56 0
510 -1113 -1245 -1298 0
-1446 -1381 -805 -534 0
388 -526 -50 0
1391 -814 -596 -943 0
207 -976 -1987 -1642 0
-1496 -454 0
-172 -1865 -94 -934 0
1289 -1605 -1843 0
-998 -1757 -220 -488 0
58 -1539 -437 -788 0
184 -1024 -1314 0
988 -855 -844 -1344 0
445 -1190 -1109 -1793 0
-668 -1740 -1997 -1319 0
1243 -1654 -11 0
65 -1735 -254 0
417 -1577 0
834 -373 -1737 0
-1545 -1767 -337 0
1868 -1378 -1228 -298 0
38 -1536 0
135 -653 -995 0
-610 -1303 -1811 -1185 0
1691 -1295 0
-1294 -1919 -469 -1265 0
-411 -1919 0
-1043 -303 -876 -216 0
803 -767 -1210 0
884 -34 -1039 0
-1774 -418 -502 -1092 0
-1469 -281 0
1396 -1720 0
-1362 -1494 -1643 -1278 0
331 -673 -944 -1388 0
1001 -635 -909 0
-1931 -1936 -964 0
607 -1924 -1152 0
1899 -1966 -299 -184 0
52 -1456 -302 -629 0
773 -1659 0
-1392 -1856 -1107 0
1494 -1451 0
1534 -614 -1676 -56 0
1555 -1305 -410 0
1891 -897 -1696 -1027 0
1740 -1100 -648 -1760 0
1910 -1036 -248 0
1179 -1789 -493 -1210 0
354 -25 -1210 0
1589 -1518 -930 -88 0
46 -785 -484 -1481 0
1075 -1970 -239 0
832 -1269 0
1832 -882 -770 -1132 0
-945 -133 0
-929 -1736 -1878 -1291 0
1534 -1446 -893 0
878 -1082 -1458 -315 0
346 -296 -1593 -491 0
-789 -186 -500 0
1771 -490 -862 0
1933 -888 0
377 -1308 -507 0
1320 -1441 -1593 0
1740 -1944 -1072 -1758 0
1760 -1457 -1719 0
834 -24 -458 -354 0
417 -329 -767 0
1565 -1196 -608 -726 0
849 -1597 0
484 -1270 -217 -218 0
571 -1278 -1412 0
910 -1282 -143 -1875 0
-831 -1733 0
1339 -1828 -1897 0
-231 -1725 -1029 -1657 0
1729 -1625 -1372 0
1354 -1504 -1737 0
1506 -194 -600 -1669 0
454 -806 -909 -848 0
1639 -580 -794 0
76 -853 -362 -1194 0
381 -549 -1131 -1512 0
1067 -915 -1631 0
-345 -357 -31 0
1043 -1074 -1678 0
138 -1719 0
1856 -1184 -1085 -1741 0
-207 -1245 -675 -80 0
1843 -1968 -1267 0
962 -1814 -1976 -1048 0
-1314 -1575 0
1221 -1570 0
1151 -1318 -279 -1006 0
861 -554 0
-947 -812 -902 -1461 0
1517 -1103 0
-1913 -352 0
254 -1416 -949 0
-1836 -1825 -1388 0
-388 -545 -1221 -966 0
1014 -1219 -39 -365 0
1905 -1877 -1643 0
-736 -479 0
1449 -1957 0
993 -718 -1272 0
971 -1158 0
595 -1891 0
1707 -1512 0
811 -1732 0
674 -761 0
1591 -1057 0
-1242 -1972 -785 0
1095 -1890 -1683 -502 0
1939 -1226 -1360 0
-1960 -1239 -1869 -889 0
-1320 -478 0
321 -1321 0
-6 -974 -1970 -1823 0
68 -1651 -332 0
1595 -1029 -734 0
582 -1119 -1660 0
-1276 -1179 -1639 0
316 -1460 -1475 -1028 0
41 -279 -1204 0
1431 -173 -1180 -1059 0
1983 -969 0
344 -1269 0
1179 -1885 -1130 0
278 -1569 -777 -788 0
1103 -920 -1311 -958 0
1821 -803 -1267 0
677 -1809 0
881 -1918 -1357 -759 0
505 -1862 -735 -435 0
476 -1262 -1313 0
939 -1777 -1494 -1803 0
1793 -846 0
1357 -1289 -706 0
156 -895 0
-723 -191 0
799 -1233 -443 -765 0
-935 -1632 0
-1689 -199 -1492 -1691 0
1945 -765 0
827 -580 -90 0
-122 -1026 -856 -862 0
568 -1276 -982 -670 0
1429 -637 -1302 0
204 -1803 -1965 0
-555 -439 0
1899 -1278 0
1037 -1153 0
1304 -44 -1205 0
-538 -712 -644 0
80 -97 -852 0
185 -1177 -338 -579 0
-1215 -1808 0
-647 -1183 -834 -1424 0
-1885 -1355 -1314 0
113 -1036 -1654 0
-932 -410 -753 0
-907 -950 -1908 0
-1675 -383 -1551 -1708 0
-412 -1595 -1450 0
1399 -280 0
192 -306 -714 -589 0
1320 -46 -641 0
-1606 -1999 0
693 -1512 -287 0
1150 -693 -474 -1008 0
-1998 -1195 0
-1277 -5 -385 -1686 0
1563 -466 0
1834 -883 -1849 -949 0
981 -1931 0
1299 -1048 -73 0
-461 -782 -1344 -1906 0
1 -1357 0
-1279 -1828 -1810 0
187 -1113 0
834 -1193 -783 0
1091 -170 -166 0
1453 -1463 0
888 -1375 0
1529 -567 -566 0
-1082 -945 -344 0
190 -32 0
1235 -1525 -659 0
-449 -406 -1930 -108 0
1531 -983 0
206 -1555 -1639 -405 0
55 -954 0
-424 -108 -668 -1919 0
-622 -1995 -503 -145 0
-638 -1481 -175 -565 0
1985 -1591 -468 0
1793 -865 0
-284 -1082 -871 0
424 -509 -1710 -1194 0
1511 -1396 0
394 -1933 0
-1289 -1690 0
819 -1921 -1670 0
133 -1670 -967 -1518 0
1894 -1047 -475 0
825 -184 -1356 0
1519 -1369 -228 -423 0
1104 -382 0
1191 -1620 0
-1377 -1953 -713 0
305 -275 0
-310 -1785 -1571 -912 0
-1491 -728 -237 0
-6 -335 0
1671 -1795 -1527 -1077 0
1591 -1223 -276 -1595 0
1198 -336 0
1034 -569 -978 0
1233 -463 0
815 -1033 -1380 0
-531 -3 -1392 -816 0
893 -827 0
611 -15 0
1697 -1960 -443 -1544 0
-137 -1036 -1611 -184 0
-1265 -425 0
-1501 -1312 -972 0
-862 -873 -1876 -685 0
456 -785 0
248 -361 0
-1434 -1102 -1036 0
-986 -1494 -971 -1147 0
-1233 -36 0
972 -237 -1320 0
480 -1784 -1284 -413 0
1539 -706 -597 0
536 -1150 -1397 -1039 0
453 -39 0
407 -1208 -1096 -857 0
1777 -1511 -1800 0
1479 -98 -441 -558 0
1225 -1201 -1487 0
1256 -1116 0
158 -183 -101 0
1305 -318 -446 -343 0
-1229 -1380 0
853 -13 -1299 -1586 0
-1793 -601 -1174 -10 0
1982 -612 -727 0
311 -989 -873 0
-1993 -203 0
1237 -1718 -553 -329 0
480 -1270 -861 0
819 -435 -124 0
300 -1093 0
-129 -1184 -1816 0
673 -260 -148 -650 0
1863 -1164 0
1870 -14 0
445 -1280 0
1524 -606 0
31 -907 0
353 -775 0
265 -1315 -1917 0
-895 -1895 0
-11 -37 0
1190 -1035 -1232 -387 0
47 -1566 0
375 -348 -1990 0
1590 -1861 0
331 -73 -1601 0
517 -830 0
456 -1714 -926 -153 0
850 -703 -1756 -275 0
878 -14 -938 0
616 -118 -1850 -949 0
1855 -907 -787 -1020 0
-213 -1375 0
854 -244 -424 0
1779 -418 0
860 -1550 -1243 0
180 -1594 0
1377 -392 -688 -1091 0
-1136 -1585 -1959 0
1140 -1610 0
-338 -1607 0
1477 -1 -323 -1345 0
33 -1448 0
-45 -1406 -1655 0
-1685 -881 -367 0
506 -263 0
294 -55 -1887 0
456 -1843 -381 0
-998 -1167 -921 0
170 -1686 0
931 -5 -1134 0
-1273 -1126 -1389 -163 0
158 -1872 -1991 -449 0
1180 -1195 -1605 -1002 0
373 -1492 -1935 0
129 -1475 -1670 -1002 0
247 -569 0
516 -1834 0
1242 -1578 -221 0
-228 -496 0
-121 -950 -1173 -914 0
641 -20 -335 -204 0
-1526 -1809 -900 -1776 0
1418 -1979 0
979 -10 0
1643 -653 -1957 0
1376 -1461 -475 -956 0
1193 -300 -1302 0
1695 -1324 -1855 0
-1630 -1095 -1738 0
533 -369 0
134 -1897 0
-406 -1596 0
1615 -734 -1133 0
1755 -90 -1364 0
-1161 -411 -296 -1485 0
1868 -1409 -1736 -53 0
-1607 -325 -1856 0
-410 -1537 -1869 0
869 -1998 -1435 -2000 0
1642 -81 -1099 0
1719 -1867 0
367 -1044 -1667 -1009 0
91 -1043 -897 -1793 0
-1748 -1804 0
-1701 -95 -420 0
1472 -51 -1485 -1917 0
-827 -1288 -882 -1259 0
-167 -877 -226 0
1409 -466 -428 0
1845 -80 0
817 -800 -881 -116 0
715 -306 -873 0
126 -1840 -468 0
-1853 -1979 0
1282 -548 -374 -449 0
1330 -596 -285 0
-614 -8 -1563 0
649 -141 0
-1406 -1011 0
1982 -1579 -1332 -1590 0
-158 -1816 -1908 0
1119 -328 -1061 -95 0
689 -1407 -625 -1480 0
-33 -1362 -1595 -959 0
-911 -1345 0
718 -734 -1897 0
993 -1396 -1565 0
1783 -1862 0
545 -243 0
1442 -373 -693 0
1104 -322 0
376 -173 -818 -153 0
1978 -831 -1431 0
1623 -439 -486 0
-790 -1282 -177 -1409 0
1661 -1741 0
1571 -664 0
1326 -1240 -1621 0
-1051 -434 -798 -1070 0
847 -1547 -173 0
296 -621 -91 0
-52 -1001 -1391 0
758 -935 -835 -438 0
898 -410 0
-316 -34 0
-1820 -125 0
137 -326 0
-1364 -990 0
476 -172 0
-661 -1005 -1213 -254 0
970 -1187 -570 -733 0
450 -650 0
204 -498 -1662 -1672 0
1192 -1030 -1613 -556 0
1214 -779 -1667 -495 0
-1501 -1425 0
494 -388 0
953 -556 -185 0
-1244 -358 0
1826 -1852 -1037 -1556 0
1194 -550 -153 -302 0
-1211 -1104 0
-546 -1957 0
135 -312 0
1053 -427 -1301 -423 0
1389 -1117 -651 -1191 0
-389 -65 -1775 0
-302 -1293 0
-1594 -221 -274 -1273 0
264 -62 0
-1550 -1106 -1646 0
-133 -1172 -1342 0
996 -191 0
1217 -1614 -1627 -185 0
602 -1951 -1268 0
153 -336 0
-1444 -31 -1459 0
1624 -735 0
693 -824 0
654 -708 0
1624 -765 -84 0
-494 -476 0
-1819 -858 0
1410 -671 -850 -1843 0
-1299 -206 0
134 -613 0
-1603 -1576 -1460 -1149 0
1106 -405 -1566 -1222 0
-991 -493 0
669 -1337 -1798 0
1990 -411 -1567 -494 0
-1328 -1232 0
-1813 -641 -1217 -486 0
902 -1490 -700 -958 0
1129 -29 -745 -636 0
-1132 -991 0
153 -115 0
573 -496 -777 -1491 0
1453 -799 0
197 -654 0
270 -574 -294 -617 0
869 -542 -1744 0
608 -1935 0
1613 -560 -1537 -1192 0
1250 -1402 0
-763 -1139 -88 0
894 -522 -1516 -41 0
1759 -1948 -1097 -970 0
1274 -1592 -1916 -1223 0
1778 -778 0
1010 -1018 -165 -629 0
-422 -1083 -133 -904 0
776 -1402 -681 0
289 -624 -499 0
903 -533 -709 0
223 -1665 0
1049 -1462 -795 0
441 -1215 0
885 -1890 -1060 -73 0
716 -355 0
699 -1514 0
613 -1559 0
1227 -1072 -1862 0
-1670 -433 0
170 -1861 -1087 -1680 0
1737 -1527 -1819 0
168 -1211 0
1088 -164 0
-1910 -1947 0
-61 -1188 0
1739 -423 -630 -641 0
-1353 -846 0
-99 -1888 0
899 -1354 -1970 0
1990 -1019 -185 -1777 0
-1642 -459 0
-163 -1918 -1426 0
1094 -1107 0
1440 -149 0
106 -619 -1913 0
808 -178 -1808 0
1557 -213 0
1651 -346 -1667 -878 0
997 -1828 -492 -343 0
967 -1826 0
172 -1263 -1565 -179 0
401 -1495 0
1191 -1412 -1071 0
709 -1294 0
1911 -1556 -625 0
1440 -1640 -1913 -1907 0
879 -235 -553 0
1517 -1224 -1432 0
1629 -79 0
970 -425 -1292 -1753 0
1731 -943 0
491 -610 -1505 0
-292 -358 -1607 -1850 0
553 -1332 -581 -1769 0
1119 -1820 -191 0
911 -1872 0
1487 -555 -725 -353 0
-1174 -250 -1879 0
1299 -1433 0
404 -1832 0
425 -1451 0
1529 -659 -1777 0
-722 -1097 -1485 0
1502 -325 -537 -1951 0
179 -1622 0
229 -1723 0
-1309 -300 -1822 -1112 0
-125 -1622 -616 -571 0
-851 -877 0
790 -902 0
1723 -1863 -1818 0
838 -360 -1342 -909 0
401 -794 0
905 -609 0
294 -302 -504 -79 0
891 -1924 0
-1300 -1771 -620 0
-610 -319 -688 0
-758 -155 -220 -1807 0
-1638 -1075 -100 -913 0
516 -106 -1543 -1751 0
1349 -1177 0
1491 -505 -554 -826 0
-1368 -1702 0
-1064 -1185 -1681 -1488 0
1244 -1255 0
426 -832 -361 -1054 0
1438 -922 -451 0
588 -530 0
-77 -1512 -1929 0
929 -602 0
1699 -1299 -1695 0
972 -923 -411 0
464 -398 0
1073 -1020 -154 -771 0
-55 -1712 -993 -899 0
793 -542 0
899 -720 -893 -1876 0
843 -386 -1409 0
363 -904 0
1431 -157 -742 0
639 -1074 0
1915 -639 -995 -1195 0
-1938 -709 -1424 0
1521 -1304 -839 -1035 0
-701 -792 0
665 -276 0
1359 -1586 -1912 0
-327 -1796 0
-61 -1357 0
-1566 -1115 0
1354 -126 -231 0
1407 -742 -1078 -1211 0
802 -270 -1545 -500 0
-431 -1277 -895 0
625 -1539 -1292 -36 0
-1837 -1134 0
1950 -1957 0
29 -443 -615 0
991 -1635 0
725 -863 -1802 0
1847 -1065 -1682 0
1142 -594 0
-777 -454 -257 -1867 0
1064 -108 -1304 -227 0
-1790 -1662 -1073 0
419 -707 -641 -952 0
-1241 -1684 0
773 -1125 0
167 -692 -867 0
1247 -286 0
-1487 -1730 -1850 -1689 0
741 -1116 -293 -138 0
1798 -299 -1926 -55 0
-1210 -1053 0
1139 -1691 0
-693 -502 0
1507 -153 -446 -1416 0
-740 -1616 0
-877 -194 -924 0
-1829 -895 -1133 -1389 0
1442 -1583 -1790 -1013 0
1481 -1415 0
988 -1933 -865 0
1173 -2000 -469 0
746 -1578 -664 -1583 0
1919 -1171 0
33 -1612 -509 -242 0
1628 -604 -1396 0
1741 -1053 -227 -1707 0
567 -1062 -349 -1410 0
-952 -290 -1693 0
-56 -838 -1820 -1612 0
300 -1326 -149 0
190 -1921 -1067 0
-1779 -1268 -738 -1223 0
1781 -1852 0
-451 -310 -18 -1545 0
-199 -1540 -1546 0
1492 -1603 -606 -175 0
-545 -1799 -721 0
424 -1267 -72 -1962 0
987 -935 -1543 -767 0
1940 -307 -87 0
139 -1662 -1353 -537 0
-1632 -270 0
-346 -1121 -922 -195 0
-994 -779 0
460 -930 -1136 0
-1418 -1365 0
1744 -392 -488 0
1330 -949 -1231 -116 0
778 -1873 -313 0
1534 -1898 -341 -324 0
-1011 -199 0
444 -1262 0
1355 -580 -1550 -1316 0
1645 -893 -473 -318 0
1765 -528 0
789 -1575 -1378 -1146 0
-152 -1194 -1126 -711 0
-436 -1551 0
1404 -1794 -132 -1546 0
479 -820 -1344 0
1420 -569 -622 -629 0
929 -340 -1877 -1541 0
1615 -1125 0
66 -1038 -1918 0
467 -1668 -257 0
-623 -1125 -990 0
118 -530 0
-818 -443 -1091 0
303 -866 -1216 -164 0
1341 -1754 0
308 -1692 -680 -1357 0
942 -116 -607 0
553 -970 -392 0
485 -1295 -189 0
-1294 -1006 0
530 -838 -948 0
836 -897 -1681 0
1592 -1544 -1635 0
1852 -817 -332 0
1075 -1731 -1167 -1140 0
622 -1975 -1691 0
879 -170 -1467 -1929 0
633 -904 -656 -1819 0
629 -1627 -1235 -849 0
293 -1311 0
-216 -1003 0
1186 -1300 0
791 -572 -1929 -440 0
1705 -891 -380 -1814 0
1341 -1146 -1027 -424 0
958 -764 -1188 -422 0
636 -1067 -548 -228 0
1541 -889 -723 -977 0
-1097 -1954 -430 -374 0
621 -410 0
1306 -732 -514 -79 0
988 -1021 -1105 -1065 0
738 -513 0
-746 -921 -220 -668 0
136 -1356 0
1243 -1883 -592 -557 0
1341 -8 -1618 0
1156 -323 -1815 -92 0
1691 -1010 -1645 0
278 -197 0
-63 -458 0
-1223 -244 -876 -111 0
152 -1428 -172 0
-232 -250 -434 0
-1334 -664 -897 -617 0
1838 -445 0
1767 -1748 -1509 -1652 0
861 -635 -304 -137 0
739 -1894 0
-981 -1723 -23 -1992 0
993 -775 -1618 0
-1919 -1103 0
1163 -561 -466 0
-1643 -949 -358 -488 0
298 -257 -112 -709 0
-1770 -116 -407 -1804 0
1207 -1819 -255 0
1470 -1075 -893 0
-728 -200 -579 -306 0
-1350 -99 -1332 -1671 0
804 -1520 -1620 -447 0
604 -1005 -1745 0
1412 -1327 -95 -427 0
784 -452 -1014 -1426 0
-788 -325 -1875 0
1733 -1689 0
-187 -1135 -1853 -195 0
696 -523 -960 0
-1433 -662 -1662 -860 0
1126 -1683 -40 0
83 -1698 -865 0
476 -1212 -1873 0
125 -984 0
-103 -388 -617 0
884 -1238 -176 0
1312 -1483 -1440 0
-1844 -992 -1019 -1674 0
160 -1386 0
1293 -1855 -856 -1284 0
-1905 -971 -94 0
-693 -1506 -1955 0
-1469 -1346 0
726 -500 -1453 0
-1025 -326 -66 0
-1235 -1757 -1066 -1190 0
1710 -831 -1255 -1669 0
1781 -1427 -1811 0
1421 -375 -1331 -1515 0
541 -1069 -1203 -1051 0
1840 -1276 0
424 -1572 -276 -1284 0
1758 -1166 -568 0
1377 -656 -206 -1861 0
829 -26 -1245 -990 0
4 -462 0
137 -1555 0
105 -1185 -1849 0
509 -1999 -1237 -951 0
784 -1398 0
-1437 -683 -290 -1105 0
-557 -444 -126 -1604 0
962 -1452 -895 0
-93 -1358 -59 0
-1835 -1916 -1929 0
663 -110 -1104 -1418 0
610 -296 -1076 -1826 0
-416 -1580 0
1603 -1870 0
1291 -859 -611 -138 0
468 -1146 -413 -746 0
37 -903 0
1016 -1408 0
-661 -1720 0
-857 -1279 0
1663 -1531 -219 -1059 0
1476 -1687 -310 0
1927 -934 -1871 -1158 0
15 -1098 0
1751 -1721 -674 0
358 -1702 -1323 -1448 0
-6 -1892 -551 0
1388 -1433 -391 0
419 -76 -1615 -454 0
-1408 -1964 -251 0
775 -1676 -487 -137 0
-387 -1664 0
605 -688 -1537 -427 0
-1389 -267 -1862 0
1404 -1648 0
714 -1826 0
1827 -711 0
-1874 -1095 -52 -1712 0
-1628 -1090 -1796 -1177 0
1677 -1494 -711 0
-601 -443 -1218 -1057 0
-935 -1564 -260 -1008 0
845 -1002 0
249 -529 -744 0
1955 -1672 0
232 -1238 -1668 0
561 -110 -1174 -773 0
-231 -1765 -750 0
1514 -91 0
1763 -1619 -1070 -1966 0
1476 -447 -1474 -1321 0
831 -1753 -984 -108 0
1642 -549 -149 0
961 -1760 0
249 -1208 0
581 -1578 -308 0
909 -1345 0
1808 -491 0
1336 -1860 -1880 -874 0
-717 -1185 -1746 -1572 0
1069 -1576 -1891 -1468 0
172 -1353 -62 -280 0
1134 -1274 0
-835 -841 0
139 -1809 -120 0
1282 -1788 -1372 0
1318 -1825 -1622 -934 0
695 -546 -1614 -76 0
-1882 -69 -1789 -368 0
-654 -1370 -1174 -370 0
1704 -489 -538 -1470 0
1834 -890 0
1221 -1771 -164 -1997 0
-1913 -1300 -484 0
1372 -494 0
-387 -888 -1006 0
1270 -1530 0
1756 -851 -1598 0
1405 -369 0
1112 -759 -1640 -838 0
1136 -555 0
411 -1443 -1616 -1798 0
-1892 -603 -1200 -149 0
-262 -219 0
1798 -592 -975 0
1932 -1814 -151 0
-1613 -591 0
341 -1550 -1506 0
470 -700 0
-1809 -895 -1569 0
796 -611 0
1499 -1858 0
415 -226 -1446 -1246 0
668 -1999 -1055 0
-1294 -1513 0
1554 -997 -338 -593 0
-1204 -1208 -1643 0
546 -1133 0
380 -1203 -1850 0
723 -199 0
1192 -1264 -561 -1558 0
1538 -698 0
1982 -3 -732 0
780 -1566 -1373 -376 0
-531 -312 0
-1579 -288 -1392 -834 0
1174 -434 -512 -278 0
1186 -36 0
228 -952 0
-1384 -1799 0
1075 -820 0
-1045 -98 0
-1318 -920 0
-981 -359 -1176 0
470 -1577 -1537 0
1659 -1290 -72 -806 0
387 -917 0
1657 -908 -414 -179 0
297 -1884 0
163 -109 0
776 -437 -1110 0
-505 -1004 0
1865 -672 -904 -1856 0
1061 -13 -1054 0
1458 -1882 -835 0
627 -1624 -487 0
896 -662 -1521 -784 0
562 -602 -1737 -1292 0
999 -1777 -1467 -1664 0
550 -1222 -471 0
-56 -259 0
1926 -647 0
627 -696 -1357 -119 0
196 -1682 -1793 -306 0
1216 -752 -390 0
1222 -143 -1424 -635 0
1257 -1838 0
-1682 -834 0
52 -333 0
-1107 -1658 0
-1273 -1863 -461 -16 0
1496 -1759 0
1505 -1110 -403 -286 0
1316 -281 0
-903 -1123 -411 0
940 -694 -476 -1091 0
962 -1781 0
1772 -732 0
315 -120 -238 0
1527 -1242 0
-944 -927 -1515 0
-1323 -1095 -320 -1740 0
294 -1178 0
-646 -482 0
124 -1546 -504 -608 0
1901 -520 -743 0
657 -488 -1931 -1867 0
1944 -1063 0
-1393 -1734 -988 0
574 -1509 -930 0
-440 -1109 -1032 0
328 -1317 0
245 -1359 -1909 0
-736 -15 0
1955 -1662 -1111 -1128 0
397 -511 -1215 0
-63 -1311 -432 -946 0
462 -1255 -1535 -305 0
1399 -1267 -830 -1406 0
-66 -459 -305 -1795 0
-250 -1090 -1488 -1776 0
197 -541 -1018 0
961 -1357 -561 -398 0
1001 -1460 -1833 0
632 -1754 -1054 -1770 0
516 -1810 -648 0
-1130 -1597 -1906 -1378 0
1433 -369 -472 -592 0
1975 -1447 -1351 -1170 0
354 -908 -672 -164 0
1694 -1491 -1216 0
1745 -256 0
-1679 -1140 0
1020 -512 -1295 0
55 -1341 -638 0
1740 -1600 -1691 0
170 -963 -237 -141 0
1773 -511 -446 -828 0
1535 -319 -1086 -1808 0
-1039 -485 0
964 -466 0
1331 -1351 -795 -1217 0
851 -770 -1280 0
570 -1501 -267 -975 0
-1438 -1619 0
-1467 -869 -1225 -1456 0
270 -1028 0
1339 -1782 -1142 0
72 -1867 0
-1548 -970 -110 -91 0
1362 -1592 0
454 -1794 -1452 0
952 -656 -1379 0
1420 -960 -1353 -1716 0
1575 -1709 -1561 -1820 0
393 -1558 -829 0
869 -1682 0
1933 -1763 -1968 -1513 0
1760 -385 -1860 -1786 0
-1167 -971 -1608 -155 0
-1793 -258 -686 -1477 0
122 -1947 0
-873 -234 -329 0
289 -17 -851 -955 0
1116 -633 -1434 0
301 -1472 0
-232 -637 -824 -1009 0
1835 -1675 -784 0
-1059 -1454 -1642 0
883 -689 -833 -427 0
900 -1863 0
1906 -1186 -1405 0
-774 -321 -567 0
1670 -1405 -804 -998 0
-850 -1117 0
1879 -977 -1670 0
1575 -1796 -860 0
-331 -1995 -1451 -651 0
1749 -1786 0
1170 -1832 -278 -355 0
640 -242 -1448 0
1891 -1367 -52 -1761 0
911 -539 -1372 0
1242 -283 -948 0
168 -1436 -1797 -645 0
1820 -1805 0
-965 -864 -1648 0
152 -247 0
1995 -1714 -907 -1527 0
1578 -666 -882 0
184 -1197 0
921 -496 -671 -686 0
-1646 -1313 0
-677 -1574 0
110 -253 -1301 -1330 0
664 -513 -1184 0
19 -1618 0
-75 -121 -148 -1991 0
-1356 -981 -1109 -1474 0
1917 -1013 -991 -819 0
1729 -1405 -238 -794 0
-1702 -1353 -908 -181 0
1778 -1677 -1433 -93 0
533 -301 -1307 0
1409 -1401 0
1851 -143 -346 0
147 -343 -509 -1811 0
1070 -1601 -1708 0
-702 -1643 -1414 0
1717 -59 -1444 0
1868 -1253 -1942 -1234 0
337 -1525 -1410 0
1881 -1506 -1981 -1072 0
-1227 -198 -377 -1627 0
825 -714 -70 0
872 -59 -1967 -657 0
1125 -185 -1550 0
1112 -315 -995 0
1085 -503 -531 0
402 -1288 -1712 0
-908 -620 -1181 -63 0
-1221 -772 -1830 -1921 0
1184 -1190 -1044 -986 0
313 -237 -67 -874 0
821 -10 -38 0
-1135 -1606 -1553 -1249 0
329 -846 -274 0
1348 -282 -517 -1147 0
-1601 -1113 -96 -610 0
-1582 -711 0
1355 -582 -414 -533 0
-592 -1424 0
1790 -1932 -1806 0
-463 -1402 -1502 0
1071 -1758 -752 0
1794 -132 0
469 -1795 -898 -140 0
825 -1048 -1459 -248 0
139 -519 -1700 0
-1344 -1258 -1508 -1523 0
859 -305 -1261 0
-1506 -552 -462 -21 0
1797 -1259 -1984 -959 0
-884 -940 0
-372 -314 -669 -954 0
1748 -342 -25 0
922 -844 -990 0
968 -45 0
627 -686 -178 -1022 0
250 -1577 -1604 0
-43 -613 -1633 -1478 0
196 -1306 -1549 0
1647 -329 0
873 -1348 0
1363 -1554 0
239 -684 -33 -236 0
514 -1681 -632 -1229 0
279 -105 -813 -80 0
1944 -1625 -1497 -1636 0
-688 -1570 -275 -1939 0
1122 -1838 0
433 -690 0
938 -1658 0
288 -1157 -806 0
-1225 -370 -1137 -517 0
-937 -26 -34 0
806 -1662 -1199 0
-1798 -695 -286 -1681 0
945 -1539 0
-836 -1356 -1340 -794 0
803 -1210 0
555 -471 -1384 0
852 -1958 -1784 0
1537 -20 -134 -1137 0
585 -631 0
648 -1295 0
-189 -552 -44 0
793 -897 -1188 0
525 -203 0
-732 -1355 -1378 0
-1050 -1357 -499 -1319 0
-544 -287 -982 0
522 -1251 -1070 0
275 -1883 -78 -517 0
562 -1441 0
-1727 -720 -679 -1514 0
1687 -1722 -1295 -1194 0
-1155 -308 -429 0
-1744 -439 -158 0
1758 -197 0
-16 -733 0
558 -309 -481 -1418 0
-413 -1329 -1559 0
1058 -1495 -1085 0
-149 -63 -1807 0
547 -1878 -1858 -276 0
155 -1418 0
680 -327 -1070 0
-6 -1939 0
1 -1188 -1630 -1852 0
915 -241 0
1582 -1193 0
-276 -1991 0
-176 -633 -762 0
1552 -1629 0
-848 -1655 0
577 -1062 0
883 -1470 0
909 -303 0
1527 -1230 0
-1259 -1867 0
590 -1149 0
793 -290 -139 -1860 0
-898 -403 0
1855 -650 0
93 -711 0
984 -1721 -1723 -1896 0
-1154 -1893 -864 -468 0
590 -207 -730 -1752 0
-733 -561 0
1883 -1912 -319 0
-66 -311 -1228 -805 0
1696 -1291 -1200 0
957 -1990 0
254 -823 -403 0
494 -1950 -368 0
288 -256 -918 0
945 -1837 -1054 -1124 0
1512 -438 -405 0
519 -1183 0
1806 -989 0
1262 -1771 0
-1426 -1148 -1799 0
-1000 -1667 -1152 0
1603 -356 -475 -418 0
818 -904 0
293 -89 -1713 -459 0
-729 -1165 -697 0
69 -286 -196 -1882 0
1639 -15 -868 -894 0
1627 -1845 -1138 -998 0
598 -626 0
1186 -584 0
1741 -429 -992 0
-206 -1149 0
1269 -1386 0
-788 -279 -1291 0
-5 -47 -414 0
1238 -1807 -1896 -1569 0
-1361 -1490 -839 0
1158 -1649 -476 -1470 0
-387 -470 0
349 -1375 0
-648 -1470 -1833 -1928 0
489 -660 -588 0
-1245 -1005 -737 -79 0
665 -1375 -1862 0
1175 -483 -673 0
826 -65 0
-1713 -1463 -1891 -1406 0
1817 -640 -1456 -579 0
328 -5 -1902 0
-1610 -874 0
-1244 -1085 -15 0
1723 -889 -1562 -341 0
-1735 -1770 -74 -485 0
-1883 -615 -197 -580 0
1785 -1628 -1610 -1660 0
1698 -1299 -852 -951 0
957 -1393 -1596 -257 0
435 -327 -1274 -834 0
717 -1042 -1526 -263 0
12 -1917 0
1549 -1570 -1882 0
1729 -1006 -1569 0
920 -909 -690 0
313 -1444 -915 -229 0
1989 -523 -186 -358 0
89 -1642 -1874 0
147 -142 0
244 -1983 -181 0
1428 -1187 -355 -659 0
1875 -1578 0
1795 -1411 -1229 0
914 -1387 -2000 -267 0
795 -1915 -509 0
-155 -1667 -569 0
-1284 -101 -1051 0
1802 -1161 -1011 0
1941 -666 -764 -818 0
1387 -1912 -513 0
1083 -108 -882 0
1237 -1400 -1252 0
1796 -376 -404 -1695 0
-58 -1146 0
1125 -361 -1722 -481 0
1611 -248 -398 -733 0
-1635 -604 -22 -497 0
1550 -155 0
-215 -983 0
1829 -1783 -1378 0
1398 -1204 -279 -181 0
-1429 -1484 -71 -117 0
1072 -1343 -1273 0
1251 -102 -1759 0
585 -169 0
1240 -1882 -1978 -53 0
930 -85 -1754 0
286 -794 -1976 0
-1867 -267 0
-52 -88 -1730 -1695 0
204 -919 -778 0
-231 -1229 0
217 -1074 -1345 0
1671 -1952 -1693 -1574 0
417 -1280 0
173 -754 0
-1366 -874 -1679 0
1370 -255 -1834 0
-764 -866 -445 -1610 0
-1642 -785 -1306 0
-152 -1379 -1049 0
237 -570 -31 0
-1373 -719 -471 0
807 -1239 -334 -128 0
-1662 -1793 -1426 -283 0
-52 -1212 0
1890 -1714 -801 0
-1138 -1827 0
-1302 -1873 0
881 -297 -1780 0
1489 -1313 -574 0
-669 -1608 -1081 -1500 0
-576 -1098 -1173 0
924 -1510 -674 0
1922 -1150 -757 -341 0
-1274 -1934 0
1691 -1696 0
-1006 -1546 -1068 -1418 0
-1586 -1272 0
320 -1416 -877 0
-1578 -1492 -542 -128 0
513 -538 -1764 0
-1671 -377 -1256 -1296 0
559 -36 -639 0
-1233 -1735 0
1148 -176 -1361 -1073 0
-357 -987 0
130 -710 -528 -1593 0
1296 -893 0
-1802 -860 -1003 0
322 -1510 -1580 -1466 0
163 -1951 -220 0
1359 -976 -1818 -1337 0
1345 -34 -1851 -1260 0
1223 -1339 -544 -877 0
-1733 -1148 0
1739 -247 0
894 -1201 -1253 -603 0
1681 -10 -1335 0
2 -456 -830 0
1634 -1660 -1625 0
1288 -1841 0
1127 -771 -1988 0
421 -1627 -1598 0
-408 -294 0
-1345 -1011 -1149 0
381 -1271 0
775 -1054 -656 0
-1447 -476 -1215 -913 0
1775 -1896 -884 -1631 0
389 -1129 -1788 0
70 -818 0
1629 -516 -171 0
468 -1143 -555 0
289 -861 0
-1105 -1483 -1220 -1280 0
1980 -86 0
1369 -733 0
-448 -121 0
-230 -1121 0
-337 -834 -604 0
-603 -51 0
1210 -182 -586 -1678 0
400 -666 -1662 0
40 -1131 -693 -477 0
-1862 -1702 0
1729 -1152 -776 0
356 -25 -1690 0
167 -1521 -1634 -918 0
-285 -76 -1809 -434 0
415 -1457 -627 -1922 0
1011 -1892 0
509 -921 0
-1557 -1184 -1488 -1378 0
1563 -1595 -1631 0
-291 -658 -1896 0
528 -360 -429 -1720 0
1020 -960 -1661 0
1090 -148 -1153 -678 0
1321 -1414 -343 0
-10 -1649 -805 0
341 -722 -902 -1030 0
206 -264 -1246 0
1795 -421 0
-958 -1993 -563 0
-926 -1131 -1419 -1455 0
1995 -61 -837 0
-854 -1018 -1227 -1237 0
1691 -427 0
675 -938 -1053 -1996 0
-1406 -894 -890 -278 0
507 -653 0
1729 -610 -1836 -852 0
1005 -557 0
1941 -1961 0
1076 -690 -953 0
1817 -805 0
522 -584 -1446 -727 0
1645 -510 0
259 -645 -60 0
642 -29 0
898 -885 -1280 0
1035 -478 0
350 -1686 -1329 0
857 -806 -818 -1477 0
-453 -891 -1808 0
-872 -1846 0
324 -1308 0
-1466 -1041 0
692 -489 -608 0
-507 -444 -233 0
1205 -1303 0
1254 -1395 0
1319 -280 -1317 -638 0
-1307 -142 -1746 0
-67 -1581 0
551 -653 -1227 0
-1921 -634 0
1099 -888 -64 -776 0
1363 -360 -705 -605 0
-495 -52 -1181 -560 0
1874 -880 -958 0
164 -1476 -1434 -326 0
-1299 -1911 -32 -1251 0
1791 -953 -1749 -1860 0
20 -949 0
-160 -44 0
-835 -1781 -841 -1425 0
-110 -911 0
-682 -1695 -478 0
-820 -314 0
-85 -341 0
-1983 -20 0
1489 -194 -1619 0
989 -473 -1475 0
1053 -424 -728 0
-940 -694 -1353 0
765 -590 -1642 0
1427 -804 -1709 -1107 0
1935 -714 0
-316 -1326 -224 0
1530 -1105 0
1977 -111 0
1472 -1038 -474 -1345 0
1034 -1456 -770 -739 0
1361 -1476 -1763 -1679 0
96 -1568 -1643 0
1775 -783 0
-257 -1216 -1902 0
1519 -592 0
1516 -1352 -1047 0
573 -212 0
1160 -1171 -679 0
1764 -1683 0
1135 -635 0
-521 -1071 0
576 -934 0
52 -1088 -23 0
53 -135 -453 -855 0
-1299 -471 -232 0
-1972 -1358 -789 -516 0
-307 -269 -911 -1292 0
1306 -1255 -1254 -81 0
1497 -278 0
53 -1216 0
568 -434 -1643 0
-960 -954 -1084 0
1019 -1441 -1943 0
215 -670 -1060 0
862 -752 -1264 0
1044 -1174 -583 -1541 0
1293 -861 -397 0
-629 -1865 -33 -486 0
1139 -653 0
-925 -71 0
1293 -1954 0
3 -600 0
-1107 -1986 -137 0
-1873 -108 -1485 -4 0
-1174 -1564 -33 0
-614 -303 -902 -895 0
993 -1690 -1337 0
-933 -717 0
1465 -1142 -714 -54 0
808 -1785 0
-803 -1942 -162 0
1618 -1299 0
-1116 -1663 -510 -312 0
1126 -439 -1813 -1352 0
-1387 -1298 -879 0
1865 -1302 0
1474 -1466 0
-526 -1041 -1818 -1688 0
1176 -1345 -1820 0
1140 -1800 0
1446 -384 -1254 0
383 -1966 -287 -1303 0
539 -1458 -1350 0
298 -988 0
385 -1736 -1013 -1286 0
1092 -701 -453 0
-680 -1629 0
-1193 -122 0
1142 -1818 0
1981 -765 -989 0
1156 -1958 0
-127 -1065 -1537 -593 0
1774 -1480 -1209 0
437 -442 -1477 0
1354 -639 0
459 -1373 -1686 -688 0
955 -1740 -359 0
425 -156 -967 0
1027 -1542 0
519 -648 -1566 -715 0
1287 -1768 -685 0
-730 -341 -106 -66 0
742 -1480 -1547 -1529 0
299 -1739 0
135 -681 0
-487 -1280 -403 0
1158 -971 -126 0
1611 -599 -95 0
1135 -1368 0
-1987 -167 0
965 -824 -831 0
-1200 -683 -1692 0
-1565 -397 0
1942 -1435 0
-503 -1333 0
1043 -645 -655 0
1036 -1540 -1434 -1137 0
1445 -225 -905 -439 0
1325 -1913 0
-1632 -463 0
1738 -1195 0
1038 -187 -916 -959 0
-102 -1637 0
31 -1176 -731 0
1424 -1053 -589 -886 0
1763 -713 -280 -436 0
1747 -765 0
1569 -596 -562 0
269 -1920 -1343 -1482 0
-796 -293 -303 -582 0
722 -487 0
603 -1112 -1495 0
-1076 -1494 -874 -66 0
-1475 -1051 0
1590 -1334 -1321 0
-1399 -1477 -1464 0
1931 -763 -106 -606 0
-1129 -109 0
-1727 -1258 -491 0
541 -519 -1910 0
692 -992 -723 0
1725 -678 -754 0
-338 -1607 -631 0
-477 -772 0
-14 -797 -1333 -1256 0
-970 -1630 -1397 0
1313 -1737 0
-1247 -876 0
552 -787 -901 -408 0
646 -1930 -208 0
165 -1390 -401 -1263 0
-385 -1617 -1043 0
729 -510 -1893 0
1445 -1325 0
-1034 -42 -1835 -1140 0
-1283 -13 0
-801 -145 -112 0
1266 -1885 -106 0
936 -1680 -593 -1999 0
1428 -870 -1093 0
350 -1443 -17 0
737 -411 -1882 0
1881 -1817 -245 0
-1265 -1418 -1337 -1349 0
1082 -832 -1196 -1224 0
-826 -1997 -727 0
1918 -1397 -1055 0
-1168 -812 -1685 -1309 0
-1060 -1089 -785 0
1790 -737 0
1884 -479 0
-1389 -1621 0
744 -1379 -557 0
1614 -174 -732 -511 0
167 -634 -32 0
1198 -498 0
205 -1045 -362 0
-412 -1648 -322 0
-296 -1703 0
-1908 -1710 0
479 -954 0
1865 -1777 -122 -681 0
282 -1926 -645 -322 0
53 -326 0
615 -704 0
8 -475 -1123 -427 0
867 -913 0
679 -952 -119 -1706 0
892 -845 -790 -1749 0
1246 -1001 -326 0
1462 -1095 -162 -1834 0
-642 -1247 -487 -1095 0
1820 -1935 -173 0
-982 -483 -1290 -41 0
1378 -166 0
87 -1896 0
784 -253 -392 0
534 -213 -1636 -391 0
-1705 -532 -400 0
921 -1350 -1387 0
108 -185 -407 -211 0
1213 -692 0
1727 -901 -88 -184 0
-1553 -1960 -1893 0
-489 -383 0
1713 -1354 -1200 0
690 -238 -960 0
1863 -1343 -895 -1398 0
1384 -1531 0
1861 -831 -188 -1183 0
-4 -959 0
-1649 -1618 -589 -1373 0
1012 -3 -1508 0
577 -265 -529 -272 0
-1647 -1626 -1552 -810 0
1933 -1130 -1015 -531 0
9 -809 -481 0
775 -1283 -1431 -179 0
410 -1141 -1101 0
937 -562 -487 -495 0
1729 -467 -1962 0
1768 -1105 -625 -99 0
630 -112 -523 0
-1617 -293 -714 -102 0
250 -1293 -145 0
-1772 -706 0
-1470 -1964 0
645 -364 -73 0
-1678 -581 0
600 -313 0
1320 -1248 -651 0
1164 -164 -716 0
-1996 -1641 -1954 0
109 -578 0
800 -165 0
1954 -1320 -572 -107 0
1287 -1968 0
-283 -609 0
1153 -1784 0
-1690 -1266 -1634 0
-284 -471 -721 -515 0
-125 -734 -827 -433 0
971 -154 -926 0
241 -1465 -351 0
-609 -529 0
338 -1258 -1657 -171 0
-288 -1765 -1363 0
1567 -1216 -152 0
387 -1504 0
1747 -459 -1586 0
612 -362 -194 0
1398 -222 0
-1419 -1257 0
1161 -516 -1424 -1145 0
1275 -1777 0
1810 -1913 -1273 -851 0
1362 -819 -1224 0
-1956 -392 -953 0
1028 -615 -1707 -1767 0
695 -1994 -295 0
-1705 -1334 -305 -1323 0
754 -1993 -861 0
599 -150 -734 -626 0
-836 -151 -1838 0
-1853 -726 -44 -900 0
1756 -1913 -1632 0
1390 -911 -1654 0
420 -889 -810 0
769 -239 0
-382 -1086 0
1761 -1606 -1097 -1546 0
1106 -1834 -1950 -949 0
1943 -1432 0
620 -536 -831 -1595 0
-1991 -1241 -634 -762 0
-517 -447 -1751 0
1927 -107 0
1515 -429 -1669 0
-1382 -503 -1162 0
147 -18 0
-1386 -606 0
1139 -1526 0
507 -1266 -739 -1380 0
193 -81 0
448 -1546 -856 -1810 0
-1534 -800 -1065 0
-899 -1142 0
-893 -62 -437 0
1556 -1000 -1261 -1560 0
98 -1650 -502 0
-311 -1884 0
1638 -1472 -803 0
177 -812 0
1227 -1089 0
-1850 -1150 0
1094 -1391 -583 -1823 0
1713 -179 0
-708 -516 -941 -799 0
275 -1830 -34 -1605 0
-437 -1616 -1820 0
932 -955 -388 0
914 -1298 -744 0
1818 -435 -1310 -935 0
511 -747 -1704 -1186 0
-324 -1134 -868 0
1819 -1694 0
797 -1266 -468 0
1456 -205 -1693 0
-1787 -813 0
779 -1615 -407 -794 0
801 -660 0
1089 -1280 -96 0
-452 -1216 -709 0
1451 -528 0
1081 -36 -984 -1355 0
1479 -1083 0
-1087 -840 0
1132 -788 0
-38 -880 -697 -1816 0
406 -1956 0
1025 -1217 -1172 -499 0
1917 -373 -364 -1351 0
1415 -1203 -1116 0
1540 -1233 -481 0
-1538 -1676 -816 -495 0
1055 -1989 -1160 -1353 0
434 -1666 -1603 0
835 -36 -1718 -1686 0
754 -101 -1648 0
1407 -902 -580 0
1983 -1642 0
728 -1674 -568 -707 0
-446 -214 0
888 -1376 -274 -665 0
783 -1936 0
1364 -790 0
309 -318 -1627 0
215 -899 -1910 -485 0
1322 -490 -1510 -1327 0
-309 -974 0
1927 -1254 -1440 -20 0
1861 -1467 0
1371 -1246 0
486 -1380 -1553 -1324 0
831 -1079 0
-1372 -1638 -1193 -812 0
298 -343 -1364 -1105 0
965 -62 0
755 -1432 -1362 0
1318 -652 -1052 -204 0
1062 -1155 -1828 0
648 -1634 0
1485 -1044 0
1231 -437 0
747 -920 0
-299 -253 -1337 -1825 0
1077 -1439 -420 0
1431 -1476 0
627 -173 -1228 0
1019 -768 0
164 -470 -1738 -1912 0
1418 -338 -402 0
1474 -808 0
1426 -211 -50 -105 0
783 -1888 0
70 -1193 0
72 -1966 0
612 -63 -833 -977 0
162 -1568 -414 -712 0
1856 -1687 -680 -154 0
-1000 -1430 -1862 0
1464 -875 0
1574 -1577 -1546 0
908 -1817 -1753 0
267 -242 -1324 -872 0
629 -772 -1025 0
1552 -959 0
644 -747 -926 -99 0
491 -1136 -1838 0
532 -6 -1918 0
952 -516 0
-1396 -534 -1627 -624 0
229 -847 -1222 -4 0
-1500 -1186 0
1075 -952 0
1047 -490 0
1504 -623 -461 -1213 0
-130 -752 -1583 -1659 0
-1315 -1413 -1829 0
-277 -1243 -692 0
372 -1158 -972 0
262 -754 -235 0
1948 -768 -1082 0
1645 -1817 -865 -278 0
-881 -1005 -1311 -1127 0
1660 -775 0
-13 -809 -1021 0
-62 -349 0
1995 -1136 0
130 -1317 -170 -1550 0
-922 -734 0
182 -11 0
1002 -438 0
1827 -438 -1032 -84 0
1560 -311 -1092 0
1225 -1569 -1271 0
1644 -161 0
177 -746 -76 -41 0
1294 -1950 0
781 -1049 0
341 -476 -5 0
1388 -1381 -200 -1022 0
1692 -1291 -1852 0
1888 -584 0
334 -1000 0
1404 -711 0
1371 -1025 0
-1068 -1780 -499 -783 0
1679 -1123 -990 0
1424 -1874 -464 0
1371 -1149 0
-1664 -723 0
