c Horn formula (polynomial-time solvable)
c 2000 variables, 5000 clauses
p cnf 2000 5000
-690 -764 -1363 0
-1208 -1359 -41 -606 0
1370 -204 -883 0
-1355 -1855 -1005 0
553 -1454 -1807 -1113 0
1353 -118 -453 0
-1109 -892 -1412 -252 0
1774 -965 0
1327 -1711 -450 -434 0
750 -1804 -1019 0
1059 -1403 -1463 0
-1932 -1131 0
1766 -982 -1649 -894 0
1869 -27 -1436 0
1669 -559 0
1235 -771 0
818 -1642 0
-1991 -1975 -483 -560 0
612 -1872 -1366 -228 0
1085 -1554 -1145 0
1111 -876 -332 0
-1101 -784 -1781 0
-951 -523 -459 0
579 -370 -1917 -414 0
352 -237 0
-1487 -1615 0
-1678 -585 -369 0
550 -1985 -752 -1459 0
346 -1162 -1869 -838 0
131 -200 0
1978 -1082 -1156 0
294 -742 -683 -646 0
-879 -641 0
1996 -1584 -679 0
1303 -160 -1878 -494 0
-1988 -985 -1658 0
1049 -1867 0
830 -1155 -856 -1985 0
259 -334 -84 -822 0
-285 -1740 -1059 -678 0
813 -726 -307 0
23 -1728 -806 0
1632 -995 -477 -580 0
-56 -391 -181 -1087 0
207 -1803 -1629 -971 0
707 -1317 -1934 0
1085 -1361 -1594 0
1025 -1888 0
1230 -1850 0
-1646 -857 -481 -1398 0
602 -591 0
-1821 -1401 -176 -1897 0
1218 -463 -809 -1936 0
1129 -520 -1003 -1065 0
984 -1929 -1161 0
1015 -480 -840 0
-1065 -242 -750 -6 0
185 -290 0
1377 -1529 -493 -1422 0
1960 -72 -800 -1535 0
153 -1621 0
-636 -1302 -477 0
1429 -669 0
461 -1532 -367 -1892 0
1883 -899 -1786 0
1753 -1662 0
493 -1048 -364 0
29 -1720 -1104 0
572 -1713 -659 -1907 0
907 -1203 0
-1363 -414 -1716 -1947 0
-698 -258 0
1973 -962 0
1280 -1539 -107 -313 0
1395 -92 -145 -506 0
-368 -1711 0
-1983 -1146 0
-1227 -258 -1437 0
87 -1443 -1656 -606 0
1740 -1256 -1195 0
9 -1439 -5 0
1341 -685 -1280 0
434 -271 0
1412 -1954 0
1171 -524 -760 -971 0
565 -1315 -608 -3 0
-963 -35 -1140 0
1996 -859 -303 0
1491 -764 -1637 -1576 0
315 -1316 -447 0
569 -621 0
1076 -1935 -667 -915 0
593 -1798 -277 -1525 0
224 -532 -1065 0
907 -1652 -1459 -1013 0
729 -1207 -1130 0
629 -602 -1661 -1001 0
111 -1143 0
-179 -1871 -1357 0
-1413 -634 0
653 -826 0
1668 -683 -1839 0
160 -37 -1495 -312 0
1078 -487 0
-413 -883 -87 -116 0
-401 -1970 0
1881 -1522 -1520 -589 0
255 -539 -1123 0
1166 -1092 -1928 -1855 0
263 -228 -11 -301 0
-1161 -1679 0
-352 -1278 -189 0
-1924 -1867 -1432 0
1428 -1823 0
811 -1 -1192 0
851 -827 -475 -1719 0
634 -664 0
-1009 -1277 -1869 -814 0
509 -1145 -1051 0
546 -1249 -955 0
938 -710 -451 0
-1144 -1498 -320 0
-1062 -287 -207 0
1893 -1398 -397 0
219 -1959 -541 -903 0
926 -431 -1401 0
910 -1024 -1131 0
-799 -1161 0
1918 -1704 0
1176 -1180 -792 0
1583 -1614 0
234 -535 -1612 0
-1649 -67 0
98 -992 -1692 0
-377 -1087 -1263 -926 0
1611 -224 -1984 0
222 -232 -1454 -189 0
1516 -460 -1442 0
-1509 -1483 0
-733 -205 0
1847 -1482 0
-1907 -1875 -1872 0
-11 -1987 -71 -1399 0
-439 -1978 -761 -1176 0
1670 -61 0
72 -666 0
80 -772 0
1213 -1961 0
1006 -1360 0
1210 -1356 -211 0
1219 -239 -1787 0
1638 -629 0
-238 -322 0
957 -1983 0
1204 -289 -1389 -1080 0
1750 -520 0
-1996 -1128 0
-1093 -1373 -36 0
-1516 -1714 0
375 -1973 -130 0
442 -140 0
-353 -127 0
-997 -574 0
1187 -1422 -572 -373 0
-144 -197 0
1904 -1720 -1856 -720 0
1546 -336 -482 0
961 -1527 -1378 0
813 -1514 -310 0
354 -433 -1839 0
-162 -1079 0
146 -109 -714 0
901 -125 -377 0
-1003 -1051 -397 0
-1665 -1089 0
1410 -1236 -207 -611 0
1234 -1442 -1799 -119 0
611 -596 -1125 -1829 0
729 -71 0
1186 -228 0
-132 -1693 -1194 0
842 -1471 0
1205 -1338 0
-1008 -1478 -415 -1959 0
561 -1405 -1310 0
1226 -792 -1521 -1788 0
154 -382 -701 -465 0
-1736 -1700 -859 0
1691 -1760 -1962 0
842 -1313 0
1171 -1645 -507 -406 0
445 -797 0
1016 -698 -957 -1769 0
-524 -405 -710 0
890 -1535 -941 -1283 0
-704 -1897 0
1002 -1985 0
1441 -1849 -58 0
788 -643 -1674 0
443 -1079 -907 -199 0
-1281 -671 -1966 0
280 -617 -897 0
-1023 -1877 -1272 -1870 0
1336 -1898 -10 -1470 0
994 -1065 -1277 -262 0
-299 -592 -1402 0
98 -1322 0
614 -1929 -1515 0
-942 -939 -434 0
1572 -1114 -693 0
824 -478 0
1183 -761 -21 0
1594 -573 0
1833 -1823 -1750 0
1032 -201 -1884 -173 0
-432 -1289 -943 -757 0
1159 -193 -1428 0
1241 -669 -747 -1642 0
355 -289 0
657 -1989 -1838 -1768 0
-829 -449 -228 -1987 0
-1784 -767 -1036 -25 0
506 -1591 0
1940 -490 -823 0
1363 -1526 -42 -573 0
1175 -357 -1580 -854 0
1824 -1406 -1423 -116 0
90 -1300 -1299 0
505 -241 0
-1639 -78 -1198 -1638 0
-63 -1795 -681 -883 0
-1609 -1844 -1986 -1657 0
1932 -1585 0
825 -570 0
197 -682 -767 0
-1008 -222 -217 0
-696 -1820 0
-1232 -215 -336 0
375 -1314 -576 0
783 -803 -1463 -26 0
-1831 -1248 0
1142 -1705 0
-1036 -1564 -1027 0
1675 -1206 -1193 -484 0
1091 -566 0
-127 -234 -176 -1985 0
45 -990 0
-1112 -552 0
-1958 -201 0
1066 -327 -1009 0
-43 -671 0
1750 -1623 -1005 -1100 0
203 -624 -1846 -1133 0
1973 -222 -1442 0
1516 -1898 -645 -722 0
443 -934 -1404 0
-1656 -294 -1890 -1384 0
1429 -1133 0
-1333 -1012 -1449 -1331 0
1928 -731 0
1347 -943 0
1128 -363 -555 -1025 0
1489 -1773 -1382 -269 0
-1473 -1992 -1046 -442 0
-1452 -882 -1306 -1019 0
-406 -1757 -1183 -1755 0
-937 -317 0
1511 -507 0
-94 -717 -1453 -967 0
317 -1820 0
162 -1831 -610 -1560 0
594 -746 -376 0
1336 -1655 -34 -1032 0
-444 -1975 -339 -154 0
357 -1677 -286 0
541 -1824 -1152 0
-980 -549 0
-1524 -484 0
-789 -64 0
1299 -650 0
753 -1525 -1387 -260 0
-421 -1812 -10 -940 0
541 -777 -1095 0
1399 -1331 -1566 0
231 -677 -600 0
578 -917 0
775 -177 -1843 -1531 0
437 -1482 -1518 -486 0
-1912 -1441 -831 0
236 -1356 -479 -1216 0
381 -1413 0
524 -39 -936 -1042 0
104 -1761 -1326 -350 0
436 -1178 0
677 -758 -508 0
604 -690 -1617 -1480 0
1809 -1695 -1431 0
197 -1336 -126 -617 0
437 -884 0
1975 -1249 -215 0
-366 -1294 -292 -1764 0
741 -1411 -355 -700 0
1895 -356 -1425 -237 0
406 -1308 -1416 0
961 -1970 -142 0
-1904 -157 -223 -1395 0
-518 -468 -231 0
66 -339 0
1843 -619 -1840 -1827 0
1576 -862 0
961 -1040 -1132 -1662 0
570 -456 -413 0
1161 -1788 -1200 -1043 0
-531 -1865 0
1955 -804 -555 0
885 -20 -1352 0
-1308 -1525 0
-1160 -505 -851 0
1451 -335 -193 0
131 -1274 -833 0
1170 -313 -850 -537 0
1890 -875 -51 0
1792 -607 0
983 -754 0
524 -1204 -1363 -1572 0
-1701 -575 -948 0
1206 -1277 -415 0
1354 -1937 0
-1734 -90 -1405 -1614 0
1766 -893 -183 0
558 -1215 0
1925 -1087 -622 -1736 0
125 -530 0
290 -452 -1058 0
869 -1818 0
-1124 -1174 0
215 -517 0
309 -1101 0
-727 -1838 0
1401 -1993 -1566 0
102 -1849 -1738 -1720 0
334 -1282 0
51 -1213 0
851 -1014 -143 -1229 0
951 -50 0
924 -1328 -1548 -333 0
-933 -968 0
164 -1501 -990 -587 0
-1153 -418 -1646 -1220 0
-1795 -1032 -756 -1655 0
1118 -334 -89 0
1243 -1292 -1354 -1300 0
1059 -1120 -1524 -809 0
1652 -1324 0
1366 -456 -507 0
767 -915 -1198 -534 0
-1268 -1285 -1167 0
283 -1668 -1593 -680 0
-1689 -335 -1488 -1652 0
-404 -934 0
1131 -809 -88 0
929 -1158 0
1708 -1259 0
1985 -910 0
216 -675 -104 -51 0
-1663 -1492 -235 0
911 -805 -1540 0
-1596 -213 -1444 -746 0
-1768 -1314 -1041 -814 0
982 -1140 -1921 -1985 0
1792 -1856 -952 -465 0
1568 -1524 -1443 0
1776 -664 -587 -1581 0
-353 -1327 -478 -419 0
560 -1594 0
1753 -385 -1538 0
636 -1263 -29 -1449 0
1057 -481 0
-1249 -1117 -294 -366 0
1941 -1237 -974 -1530 0
-53 -309 -1316 -1145 0
1075 -903 -874 0
-1966 -700 -802 0
-303 -869 -23 0
306 -540 -1150 0
102 -773 0
517 -865 -1420 0
698 -1786 -1730 0
-783 -1447 0
-64 -1924 -733 -1566 0
109 -741 0
394 -330 -754 -898 0
1239 -1328 0
1376 -629 -1510 -1922 0
999 -308 -1976 -1479 0
472 -1507 0
1485 -721 -503 -180 0
180 -1247 -479 -511 0
269 -1191 0
-1509 -274 -368 -889 0
6 -1998 -412 -342 0
434 -838 0
586 -195 -1337 -1808 0
178 -1122 -332 0
1139 -578 0
710 -1205 0
583 -1308 -29 0
547 -1086 0
389 -297 -840 0
1665 -1410 -186 -166 0
-706 -640 0
1686 -301 0
-1799 -1534 -1634 -1349 0
-851 -733 -1586 0
1699 -600 -1857 -757 0
139 -23 0
-115 -1871 0
192 -762 0
1667 -778 0
892 -1760 -181 0
1761 -124 -1882 -1955 0
1573 -910 -381 -528 0
908 -345 -1338 -1314 0
549 -1291 0
999 -1740 -500 0
147 -527 -497 -1447 0
-1855 -1950 -1433 -280 0
-1180 -559 -1563 -1750 0
1845 -376 -224 -956 0
-772 -728 -648 0
1063 -168 0
-1750 -573 -289 0
1830 -718 0
-687 -1812 -61 -940 0
879 -161 -435 -1275 0
1214 -974 0
729 -1417 0
1133 -868 0
1386 -19 -781 -1252 0
-1559 -673 -1505 -1497 0
410 -1712 -534 0
1776 -660 -943 -16 0
-542 -1464 0
1683 -1520 -217 0
1282 -1225 -765 -1103 0
-445 -768 -1992 0
1070 -1216 0
1448 -9 -945 0
-1357 -1054 0
-993 -914 0
-700 -1787 0
1633 -390 -1110 -147 0
211 -1693 -1750 -120 0
-556 -1049 0
-448 -1182 -199 -575 0
1284 -1080 -520 0
1947 -1262 -1568 -1002 0
397 -91 -1506 0
217 -130 -221 0
771 -834 -607 -1991 0
874 -703 -1057 0
1281 -1186 0
-331 -1184 -99 -346 0
1190 -1410 -142 -852 0
-1831 -1593 -695 -184 0
83 -1049 -1561 0
591 -447 -127 0
44 -1541 -1097 0
1937 -45 -1357 -1958 0
976 -763 -733 -97 0
-868 -548 0
34 -1449 -1252 -377 0
594 -849 -1882 0
275 -1689 -1800 0
-1531 -864 -1222 0
-515 -659 -1726 0
1908 -425 0
192 -1261 0
-1514 -341 0
1036 -1811 0
773 -1746 -1725 -16 0
1146 -1398 0
1647 -1702 0
-524 -633 -1782 -826 0
297 -1306 -1549 0
324 -457 -648 0
40 -1177 -1723 -287 0
-812 -1761 0
1327 -1269 0
1686 -1751 0
1628 -638 0
938 -850 0
1988 -1903 -1581 -7 0
118 -25 -1418 0
757 -970 0
1780 -1931 -1929 0
4 -1425 -1681 -1087 0
81 -558 0
1004 -374 -360 0
1425 -1734 -1719 0
1133 -232 -874 -1216 0
-1989 -1770 -492 -424 0
727 -1821 0
1077 -389 0
721 -1493 -1414 0
1989 -1279 -528 -480 0
181 -252 -827 -1080 0
-1748 -16 -1392 -1142 0
1183 -2000 0
-857 -1020 -704 0
-1764 -763 -1247 -267 0
321 -467 -82 -846 0
107 -717 -569 0
1578 -533 -852 0
-1178 -1452 -1449 -55 0
-1147 -1294 -1339 0
58 -1191 -342 -440 0
1234 -1196 -16 0
999 -1313 -1385 -962 0
1565 -384 -954 -1000 0
1077 -417 -1168 -203 0
108 -315 -822 -201 0
825 -1869 -296 -1421 0
-135 -1987 -345 -371 0
1892 -84 -994 0
718 -702 -876 -193 0
-974 -1994 0
92 -1762 -863 -579 0
-446 -1562 -1145 -743 0
546 -1374 0
-152 -583 0
662 -295 -1589 0
788 -994 -1471 -518 0
219 -1276 0
1376 -442 0
1549 -255 -1438 0
1704 -1748 -1764 0
1442 -1369 0
653 -767 0
248 -1684 -1512 0
49 -1099 -1990 -1657 0
985 -622 -1914 -1361 0
1297 -101 -610 -59 0
1322 -1775 -1142 0
1012 -1541 0
-1367 -891 0
-1228 -201 0
327 -1715 -1872 0
792 -1020 0
290 -27 -1799 0
792 -1224 -1257 -1415 0
986 -832 0
-1645 -532 -1004 -81 0
259 -1505 -1164 0
1269 -40 -1051 0
1305 -1470 0
-1054 -283 -1076 -159 0
1803 -1253 -553 -1021 0
137 -762 0
1989 -546 -763 -627 0
843 -990 -1661 0
-1320 -218 -1229 -24 0
-1497 -1161 -1306 0
399 -655 -927 0
1124 -1629 -33 0
1971 -1663 -1100 -1531 0
-1344 -598 -1189 0
442 -1428 0
1667 -1698 0
243 -1093 -1324 0
1564 -1741 -518 -879 0
444 -949 -1854 0
979 -1153 0
179 -1519 -1278 0
-1390 -1397 -366 0
1887 -175 0
91 -126 0
1732 -586 0
672 -822 -1123 0
-1347 -12 0
922 -550 -1247 0
1961 -1139 0
-381 -546 -709 -1588 0
250 -146 -1667 0
1090 -1699 0
690 -1027 -1873 0
-966 -451 0
1577 -1264 0
1290 -1906 -72 0
50 -1014 -981 -1340 0
913 -790 -1878 0
1983 -195 0
1442 -1577 -290 -1660 0
-674 -2 -1469 0
-1287 -1650 -652 0
1850 -1959 -1002 0
177 -1181 -1916 0
613 -1147 -4 0
-160 -883 -147 0
946 -1323 0
676 -716 0
864 -1352 0
676 -915 -1992 0
363 -689 0
981 -1024 -1984 0
675 -1078 0
128 -269 -1517 -497 0
695 -536 0
222 -377 -1898 -1846 0
1440 -725 0
1096 -879 -968 -1552 0
1936 -1891 -548 0
541 -170 -348 0
-1674 -1883 0
958 -1452 -416 0
-1277 -1417 0
805 -1654 0
276 -1828 -100 0
-1969 -324 -1008 -1271 0
-971 -494 -611 0
-1893 -1975 0
1099 -1536 0
824 -384 0
-1866 -164 -602 0
-1699 -1716 -842 0
-483 -1020 -647 0
1446 -164 0
1914 -668 -1249 0
-661 -1907 -43 -1855 0
1753 -1450 -1705 -540 0
-1229 -1718 0
181 -321 -136 -1377 0
1738 -1366 -838 0
-895 -670 0
1761 -1287 -1014 0
469 -507 0
396 -364 -727 0
1633 -1576 -1033 -26 0
-24 -858 -819 -1180 0
1864 -862 -1722 0
595 -652 -582 0
1468 -243 -1916 0
-1617 -1485 -1327 0
1893 -589 -870 0
805 -1683 -458 0
635 -46 -822 -1814 0
-1325 -871 -1911 0
-1772 -1349 0
116 -249 0
-1888 -1813 -146 0
564 -150 -433 0
73 -234 0
442 -1540 0
276 -1092 -803 0
-545 -1490 -1628 -612 0
1349 -1224 -961 0
-231 -1089 0
462 -910 0
1081 -749 -25 0
-1958 -974 -1667 0
532 -295 -1246 0
1908 -1080 0
215 -1123 -1981 -1164 0
-1086 -1060 -503 -1959 0
563 -1924 0
-781 -1199 -1002 -1337 0
603 -1508 -1766 0
577 -1276 -750 0
1527 -17 0
-138 -929 0
1275 -1346 0
1865 -616 -1341 0
-1310 -1863 0
194 -1897 -933 0
1745 -788 -1681 -1730 0
909 -560 0
1398 -80 0
1408 -622 0
222 -261 -1111 0
1799 -641 -308 -1785 0
1806 -1175 -94 0
-1063 -1696 -952 0
-1817 -190 0
1944 -1142 -943 0
240 -1196 -1745 0
387 -1047 0
-403 -1983 -1682 -1233 0
-324 -886 0
1167 -823 0
302 -731 0
516 -1075 0
1758 -450 -1739 -5 0
1574 -1615 -958 0
-1872 -916 -1874 -1302 0
537 -1120 0
1841 -849 0
-1787 -552 -1357 0
805 -463 0
570 -660 0
190 -1125 0
1171 -394 -1329 0
890 -1669 0
1674 -1354 -508 0
-1358 -1200 -291 0
39 -1164 0
896 -460 -270 -1158 0
855 -276 -984 -1785 0
1239 -1695 -2 -95 0
-552 -336 -273 -1292 0
203 -733 -888 -682 0
-420 -401 0
1424 -241 0
364 -720 -149 0
1164 -910 -880 0
-933 -1305 0
-1085 -241 -1761 0
1078 -862 -446 0
-1816 -458 -338 -36 0
496 -872 -469 0
-1972 -1144 -918 -202 0
1445 -872 -796 0
1467 -751 0
1455 -195 0
1545 -1841 0
-486 -7 0
1244 -972 -1058 -763 0
-1266 -1136 -607 0
136 -1439 -375 -845 0
924 -12 -595 0
1327 -1889 -67 0
-925 -1798 -185 0
1876 -1519 0
1066 -1818 0
1996 -1850 -1815 0
329 -10 0
1269 -1537 0
-681 -1658 0
291 -687 0
486 -139 0
681 -348 -1032 -601 0
1363 -1591 -866 -1757 0
598 -1964 -603 0
1992 -1322 0
-1684 -1036 0
1410 -188 -1641 -1681 0
-77 -154 -452 -827 0
-1370 -945 0
-1659 -121 -423 -1016 0
1546 -1277 0
1669 -1683 0
-408 -246 0
1718 -1908 0
210 -1043 -1055 -57 0
849 -1859 -1464 -1391 0
-1253 -1080 0
1716 -692 -331 0
180 -1087 -1906 -874 0
833 -1339 -1170 -75 0
697 -1905 0
645 -1443 -1481 0
1470 -81 -1193 0
1800 -1297 -1756 -1491 0
-1141 -1787 -226 -397 0
-883 -1141 0
-149 -329 -1825 -614 0
1376 -1361 -1993 -591 0
741 -1522 -304 -749 0
-1074 -1715 0
972 -1770 0
917 -1419 -156 -291 0
910 -1727 -1105 0
522 -143 0
1734 -885 -36 -1288 0
-517 -1982 -1096 -864 0
-440 -550 -226 0
-898 -1850 0
878 -815 0
1662 -1474 -342 -21 0
1171 -497 -1001 -1083 0
1608 -375 -1771 -1512 0
-1372 -1769 -715 0
1443 -21 0
1318 -700 0
1824 -371 -1968 -547 0
1193 -1184 -1731 0
1557 -596 -1179 0
593 -1767 -1515 -565 0
1155 -1374 -1912 -1344 0
406 -828 -735 0
-35 -1661 -571 0
-1447 -1803 -125 -381 0
1300 -295 0
-1186 -1208 -660 0
1880 -346 -1438 -1629 0
1633 -60 -1621 0
1039 -1000 0
-1300 -1297 0
1005 -210 -1459 -991 0
1353 -1105 -53 0
-37 -1825 -1516 0
-396 -24 0
1456 -251 -636 0
-1834 -1849 0
-195 -388 -1563 0
883 -1033 0
-1075 -1044 -1283 -769 0
1159 -207 -1223 -1807 0
1638 -816 0
1528 -491 0
1979 -730 -327 0
-1914 -1005 -208 0
1433 -1726 0
-613 -225 -498 -900 0
1239 -712 0
1277 -1210 -54 -1824 0
-394 -743 0
991 -721 -650 -41 0
-1414 -1012 0
1303 -261 -1140 0
1784 -222 -2000 -1995 0
1224 -1696 0
602 -596 -413 0
1706 -559 0
-1782 -1861 -1417 -1530 0
785 -1496 0
1015 -1390 0
1464 -457 -1313 -1754 0
1335 -969 0
711 -1583 -1878 -447 0
-120 -55 0
1320 -530 -959 0
-1807 -1216 -385 -1031 0
1458 -1132 0
63 -133 0
1315 -1116 -1791 -1249 0
1470 -237 -1238 0
325 -1633 0
1798 -771 -487 0
-831 -1935 -2 -297 0
1692 -1517 -1815 -1141 0
1651 -1582 0
253 -1312 -1891 0
-1389 -1407 -212 -1747 0
124 -770 -512 -1064 0
-1677 -1903 -97 -974 0
616 -1288 -1608 -1895 0
1152 -642 -900 0
1726 -135 -1241 -1393 0
1661 -1618 0
-1107 -1274 -1077 0
1982 -489 0
1659 -752 -1810 -611 0
1219 -120 -1107 0
85 -994 -329 -1729 0
1918 -627 -1331 0
-630 -1504 -955 0
1798 -362 -1315 0
1487 -4 0
-1295 -807 -1607 -373 0
951 -1842 -453 -1298 0
760 -399 -360 0
1462 -1843 -1358 0
338 -1818 -1730 -1633 0
1322 -914 -1396 -620 0
1892 -1925 -23 -1558 0
1578 -1522 -103 0
166 -1646 0
-1735 -765 -1654 0
-683 -992 -1353 -1012 0
-399 -1471 0
1195 -945 0
39 -1675 0
-606 -301 -1424 -368 0
1605 -1978 -940 0
1307 -1147 -493 -1123 0
1416 -1094 0
505 -1355 0
1900 -859 0
140 -1754 0
1365 -1024 -501 -1156 0
145 -607 -22 0
1663 -1033 -1330 -1356 0
-221 -1035 -1944 0
736 -563 -1590 0
-1579 -524 -661 0
1674 -22 -433 0
188 -1142 -1909 0
-449 -1077 0
-1587 -1941 -1604 0
-904 -846 -611 -910 0
-1278 -438 -994 -1176 0
269 -759 -955 -1384 0
474 -1237 -804 0
1872 -674 -192 -720 0
-1837 -1357 -1277 0
-532 -377 -620 -530 0
1618 -282 -875 0
1771 -1581 -702 0
1387 -169 0
1436 -1853 -921 0
506 -1505 0
1869 -757 0
-17 -867 -349 -249 0
1386 -636 -329 -117 0
772 -813 0
-998 -11 -356 -437 0
1632 -862 0
483 -1414 0
-1591 -220 0
1529 -259 0
-1300 -1817 -827 0
1532 -1866 -1483 0
589 -1542 -776 -1488 0
-1460 -941 -1743 0
-97 -1219 -275 -1282 0
314 -658 0
967 -1890 -514 -1101 0
-1507 -1950 0
623 -1281 0
427 -1847 -1215 0
1180 -1249 0
978 -1257 -1427 -1632 0
445 -426 0
1910 -668 -533 0
142 -1440 -1330 0
-568 -368 -37 -1260 0
1224 -720 -1724 -1728 0
-733 -764 -1065 -803 0
1130 -1686 -84 -1359 0
-511 -149 -370 0
1585 -894 0
779 -346 0
533 -1392 -1822 0
1751 -1289 -1692 -480 0
261 -1246 -566 0
483 -1184 -329 -109 0
-1458 -225 -1947 -1727 0
2 -526 0
136 -1919 0
1863 -648 0
1795 -1707 0
77 -1151 0
507 -109 0
-650 -1890 -54 0
-729 -507 -130 -272 0
18 -447 0
647 -1250 -266 -601 0
602 -244 -1640 -1825 0
1775 -1770 -1015 0
1419 -1902 0
938 -804 -1583 -1987 0
-681 -316 -1867 0
1295 -1455 0
1529 -251 -354 -26 0
256 -73 0
1385 -1347 -1473 -638 0
1088 -832 0
-1986 -824 -347 -912 0
-973 -1870 0
761 -1411 -618 -724 0
404 -1598 -260 0
1898 -690 0
740 -1984 -1773 0
837 -1834 -1769 0
394 -784 0
73 -83 0
-1764 -502 -1555 -1911 0
-1339 -51 -697 -1554 0
962 -623 0
-556 -943 0
796 -653 -1617 0
298 -74 -295 -1314 0
-440 -442 0
-789 -774 0
1374 -1748 0
73 -297 0
1377 -128 0
202 -1378 0
146 -1469 -1591 -776 0
132 -1620 0
1504 -760 -520 -1134 0
157 -1873 0
1711 -1147 0
396 -268 0
78 -962 -1855 0
-1968 -1527 -1249 0
491 -140 -690 -181 0
491 -1148 -810 0
1390 -1457 -1579 0
-626 -6 -1973 0
926 -316 -353 0
-724 -1902 0
1348 -22 -558 -1909 0
-1989 -269 -277 0
1263 -1594 -554 -62 0
-1607 -165 -1635 -1578 0
1484 -1324 -836 0
830 -1252 -1520 -601 0
-662 -324 0
1641 -68 -983 0
-1706 -277 0
1418 -1196 -1622 0
-704 -248 0
1637 -889 -415 0
237 -641 -701 0
-650 -735 -1655 0
1596 -222 -1559 0
253 -842 -239 -401 0
884 -189 -76 -264 0
1905 -1047 -1577 0
91 -219 0
1138 -677 -1530 0
951 -1199 -790 0
246 -1871 0
1952 -1269 -205 -865 0
478 -414 -983 -1035 0
-1550 -1438 -1385 0
1231 -502 -256 -353 0
-1415 -880 -518 0
1892 -510 0
1445 -1750 -1665 -1477 0
-18 -589 0
8 -1646 0
1858 -1643 -1984 -1636 0
-809 -1541 -1024 -945 0
832 -1851 -1146 -601 0
3 -1851 -862 -1377 0
1972 -630 0
719 -324 0
-1891 -1648 -1233 0
1851 -718 -402 0
1286 -1852 0
918 -1474 0
453 -634 0
31 -1864 0
1248 -512 -651 0
868 -877 -8 -357 0
1931 -1174 0
1381 -1394 -890 -647 0
1316 -958 0
563 -469 -1019 -180 0
73 -547 -191 0
527 -1693 -1439 -1097 0
1258 -637 0
1288 -1419 -1764 0
1353 -1196 -1099 0
1719 -168 -1312 0
-1771 -320 0
1848 -72 -93 -1573 0
-392 -333 -470 -1165 0
1429 -183 -1745 -417 0
152 -91 0
-1773 -1179 -170 0
1947 -1232 -2000 0
51 -982 -140 -224 0
703 -800 -1904 -1046 0
1727 -361 -229 -1847 0
1678 -339 0
410 -1074 -1332 -479 0
627 -1324 0
481 -1524 0
-1239 -1754 -582 0
1145 -1941 -1360 -1832 0
495 -1540 -1173 0
1770 -326 0
268 -1853 -1941 0
906 -1138 -1547 0
1108 -714 -171 -742 0
1000 -1652 -1096 0
40 -71 0
189 -1140 0
480 -105 -1223 -1544 0
-712 -359 -1435 0
743 -866 -814 0
604 -1795 -1812 -716 0
-75 -594 0
1321 -48 -1349 -1422 0
1282 -792 -116 -1788 0
-1569 -1971 -1373 -536 0
1561 -974 -1088 0
-750 -1287 -1548 0
-1793 -1831 -1683 -1192 0
1250 -1367 -1912 0
393 -1364 0
-249 -1807 0
829 -1563 0
1979 -156 0
432 -1245 0
174 -1470 -525 -1617 0
5 -1187 -1326 -222 0
591 -446 -680 -347 0
1094 -1312 0
1087 -1425 -1363 -885 0
-1415 -1902 -1213 0
1370 -1953 -270 -1804 0
-263 -631 -1306 -447 0
151 -160 -667 0
1678 -307 -1906 -132 0
-1946 -353 -743 0
513 -1426 -509 0
1081 -994 0
-661 -599 0
328 -137 0
687 -972 -1141 0
-356 -632 0
-279 -712 0
1698 -175 0
910 -1025 -449 0
1014 -117 -262 -568 0
-1052 -1487 -1110 -191 0
-406 -92 -1095 -1885 0
233 -1558 -251 0
-418 -1975 -1620 -1102 0
-1920 -844 -1060 0
-1447 -1511 0
241 -1224 -1614 -1881 0
421 -1824 0
12 -1463 0
-1219 -141 -1629 -80 0
-140 -1257 -1657 -1123 0
1937 -1993 -464 0
1730 -629 -1103 -1950 0
75 -1334 -1884 0
-1232 -1318 -1511 0
-578 -1158 0
-240 -1993 -414 0
-1219 -412 -1940 -1218 0
153 -1712 0
1464 -836 -1259 -387 0
-514 -1894 -1615 -1056 0
1032 -1261 -192 -1064 0
-1968 -710 -623 -484 0
-346 -480 -1503 0
425 -341 -1268 -428 0
1708 -150 -896 -1754 0
593 -1148 0
605 -859 -723 -901 0
434 -1931 -589 0
-538 -118 0
-1982 -1739 -1591 0
1700 -1867 0
858 -1191 0
-481 -342 -266 0
1424 -1669 0
610 -1602 0
1068 -1737 -1263 0
1334 -1833 0
-737 -1733 0
677 -432 -1978 -1054 0
1337 -418 -975 -1280 0
294 -606 0
875 -1170 -1277 -516 0
1341 -696 -1343 0
252 -1575 -495 0
1685 -1941 0
-1228 -411 -975 0
360 -1892 0
1865 -3 -541 0
-1863 -1717 -649 0
-1791 -464 -1185 0
1786 -999 -1725 0
1707 -330 0
1482 -717 -989 -294 0
1275 -342 0
1472 -1873 -15 -128 0
1809 -1061 0
-1748 -1328 0
-1823 -1939 -1293 -982 0
518 -1366 0
267 -248 -1076 -678 0
798 -461 -1877 -276 0
1575 -32 0
925 -1814 -145 0
-305 -85 -408 0
1904 -609 0
1454 -396 0
1693 -1481 0
-1198 -1019 0
705 -1199 -865 0
-385 -621 0
820 -1333 0
1301 -965 -839 0
-798 -1708 -1089 -805 0
-254 -293 -1821 -295 0
-1798 -770 -1765 -403 0
208 -614 -1307 -344 0
-1791 -307 -1744 0
1747 -446 -216 0
43 -489 0
-1784 -1150 -384 0
356 -797 0
287 -1790 -1251 0
117 -466 -581 -1793 0
181 -638 -758 0
1189 -670 -1328 -1602 0
-436 -1667 -1514 -999 0
1806 -916 -1171 -943 0
-956 -840 -1868 -140 0
951 -615 0
131 -108 -1374 -966 0
-1087 -1920 -835 -1488 0
256 -1572 -695 0
1735 -391 0
425 -770 0
642 -814 -1223 -58 0
980 -1531 0
1298 -1380 0
-64 -1161 -307 -158 0
911 -86 -27 -182 0
327 -1088 -356 -159 0
-1517 -714 -1473 0
-1540 -1205 -997 -1272 0
-69 -860 -299 0
1491 -1807 -961 0
-834 -632 -1741 0
-1826 -217 -1590 0
11 -1043 -268 0
1343 -497 -1006 0
773 -192 0
-339 -1315 0
1542 -1041 0
-1268 -1672 0
372 -993 0
-512 -36 -894 -954 0
875 -1789 -1790 0
1765 -1070 0
1138 -1923 -917 0
1478 -1540 -263 0
-1864 -745 -781 -523 0
80 -555 -839 -1248 0
899 -1938 0
-1255 -1594 0
-132 -247 -332 -1504 0
1418 -1141 -1229 0
1599 -579 -321 0
9 -1622 0
-429 -52 0
1796 -17 -450 -726 0
596 -193 0
1505 -1870 -1923 0
-388 -95 -1650 -54 0
1700 -1885 0
-1162 -1943 -1441 -554 0
1861 -845 -1230 0
-156 -1560 -1524 -1794 0
651 -1142 -584 0
-1164 -611 0
1084 -1572 -900 0
1532 -558 -686 0
1283 -253 0
723 -433 0
1869 -1728 -507 0
162 -200 -105 -1111 0
877 -1433 -1911 0
1259 -843 -1792 0
-1786 -1645 0
1278 -1345 -1058 0
863 -255 -1171 0
-1196 -188 -774 -642 0
1666 -1188 0
250 -774 -1587 0
-1794 -1015 -555 -1202 0
135 -1207 -923 -631 0
1471 -866 0
1014 -994 -43 0
1498 -1805 -232 -1618 0
1688 -1864 0
65 -484 0
-289 -978 -806 0
1826 -99 -914 -1749 0
1937 -1677 -669 0
-899 -1863 -1813 -767 0
420 -1789 -341 -635 0
1952 -578 0
-1155 -496 -29 -158 0
-213 -331 -1999 0
-1109 -1616 -1018 -1853 0
225 -21 -1294 -796 0
618 -817 -660 -787 0
1121 -56 0
587 -755 -1664 -1037 0
1464 -1384 -109 0
1246 -1807 -9 0
138 -838 -1364 0
-61 -210 -8 0
859 -511 0
418 -1054 0
1674 -787 -1843 -304 0
1343 -470 -1675 -462 0
1152 -1795 -583 -1544 0
-346 -1579 -558 0
-1248 -1182 -1791 0
519 -1671 -954 -443 0
402 -29 -123 0
12 -1949 0
-252 -1588 -17 -1872 0
228 -514 0
-662 -155 -1 -420 0
189 -1677 -1568 0
180 -1549 -173 -1486 0
-1084 -908 -1210 -1382 0
789 -1222 0
1967 -604 -365 -994 0
805 -354 0
1653 -1645 -407 0
164 -749 -1331 -1189 0
-262 -784 -1204 0
1332 -772 -1503 -907 0
414 -322 -1461 0
1582 -1612 -858 0
914 -1542 -1041 -1967 0
1657 -1628 -6 -935 0
1460 -606 -1641 0
822 -1040 -211 0
993 -409 0
-337 -1276 -1116 -1362 0
-1224 -1680 0
910 -1450 -999 -1794 0
285 -991 -164 0
-207 -655 -653 -1586 0
1035 -1483 -1783 -964 0
-1241 -1032 0
228 -353 0
332 -1103 -1812 -1034 0
1068 -255 -1248 -1640 0
492 -562 -1423 0
198 -392 -794 -194 0
-632 -1539 0
-1073 -569 -1733 -1699 0
-587 -1622 -252 -1693 0
1250 -1300 -64 0
862 -1617 -1913 0
440 -1864 -85 -982 0
506 -1641 0
110 -1356 -1303 0
79 -1730 0
65 -1381 0
-77 -866 -1430 0
244 -1610 0
886 -384 0
1242 -1208 -338 -209 0
-588 -1985 0
-1130 -210 -1194 -565 0
-1899 -427 -1484 0
787 -1865 -1477 -391 0
-1583 -517 0
-1029 -1489 -974 -192 0
1897 -745 -524 0
493 -1683 -1350 -1666 0
800 -761 -806 0
-451 -1531 -780 -739 0
1172 -1657 -1643 -1458 0
394 -867 -1527 0
-1277 -1456 -1246 0
1198 -1060 -1269 0
682 -922 -928 0
246 -518 -1047 -713 0
1538 -1476 -1212 0
947 -588 0
1090 -820 -1304 -197 0
-586 -412 0
1283 -1298 -952 0
127 -757 -1578 0
5 -1319 -601 -1478 0
571 -1580 0
1874 -398 -1008 0
-580 -1174 -1319 0
1200 -988 -443 -1922 0
251 -892 0
1515 -1679 -948 0
1675 -64 0
22 -1919 0
1323 -939 0
1922 -739 -1731 -1270 0
806 -601 -1135 0
252 -1039 -502 -205 0
1373 -1914 -333 -1507 0
1120 -572 -660 -1105 0
1151 -1256 -1585 -1716 0
983 -530 0
1939 -1219 -1790 0
-282 -1333 -1771 0
708 -1719 0
968 -11 -1525 -1507 0
-1986 -272 -55 0
2 -1216 -1260 0
1028 -821 0
1475 -1497 0
-1224 -1322 -764 0
88 -1032 0
1183 -1087 0
374 -1266 -1558 -657 0
206 -1202 0
-389 -261 -1092 0
-882 -823 -536 -1575 0
926 -605 0
410 -1089 0
653 -1171 0
911 -915 0
812 -1828 -631 -1206 0
-328 -1824 -453 -614 0
-573 -85 0
1569 -488 0
610 -1248 0
1847 -1931 -264 -1447 0
860 -1612 -1735 0
429 -1257 -1819 0
554 -1203 0
1459 -344 -1785 0
-1900 -147 -1778 0
-1898 -1073 0
1479 -1745 0
-1735 -1875 -519 0
535 -476 -1141 -1277 0
385 -309 -1988 0
-511 -951 -679 0
1885 -523 -115 0
23 -731 -760 0
1916 -395 0
-1891 -1171 -510 -1201 0
440 -459 -1077 0
1729 -1620 0
582 -860 0
1231 -1051 -1987 0
-1105 -754 -11 -649 0
1637 -305 0
-445 -1198 0
446 -1502 -1797 0
-1873 -571 -43 0
-995 -898 -1461 -1113 0
409 -1260 -241 -1805 0
783 -924 -1423 -357 0
1052 -593 -1626 0
1550 -822 0
1098 -1109 -279 0
261 -1982 -1576 -1854 0
423 -1951 0
-1336 -73 -31 -688 0
-1977 -62 -884 0
928 -1328 -1158 0
1279 -1979 -247 -1038 0
836 -1086 0
1454 -76 -1595 0
199 -613 -911 -211 0
253 -75 0
888 -1966 -14 0
504 -1614 -764 -505 0
1321 -274 -1819 0
635 -811 0
-1838 -850 -917 -1967 0
-1835 -997 -1825 -220 0
-334 -323 -573 -424 0
1730 -1858 -203 0
721 -872 -1497 0
-902 -703 0
59 -1915 -518 0
-1262 -428 -1609 0
1135 -1624 -748 -1190 0
675 -1864 -1071 0
539 -534 0
737 -1156 -1225 -1084 0
1607 -1371 -518 0
1477 -737 -750 0
262 -293 -88 0
-1683 -833 0
1303 -1850 -922 0
1524 -412 0
1269 -1345 -1183 0
-1957 -451 -782 0
112 -606 -962 -1740 0
641 -1836 -784 0
358 -587 -1563 -125 0
681 -169 -657 -718 0
886 -393 0
799 -331 0
253 -1494 -1438 0
-189 -1322 0
-1987 -1630 0
891 -1976 0
1777 -479 -1112 -1650 0
1749 -529 -1363 -1507 0
23 -113 0
863 -925 -697 -919 0
415 -1196 -536 -1062 0
361 -1149 -905 0
-43 -1109 -628 -883 0
-705 -1370 0
-465 -1690 0
-1826 -1894 -251 0
1655 -627 -1222 0
-1465 -183 0
1992 -41 -744 -1838 0
-1259 -431 -1960 0
1325 -627 0
1337 -768 -1055 -1164 0
1726 -1344 -1982 0
904 -875 -1084 -1437 0
-1057 -1208 0
1510 -840 -1220 -729 0
-141 -1970 0
430 -793 0
-96 -982 -1983 -1645 0
645 -199 -725 0
791 -1083 -1412 0
287 -899 -1687 -1483 0
437 -1538 0
-1512 -629 -625 0
-872 -1050 -1767 -283 0
831 -1664 0
-632 -466 -1787 -770 0
-398 -706 0
593 -619 -1134 0
-60 -1056 0
455 -29 -384 -1474 0
935 -704 -450 -864 0
120 -1059 -611 0
-309 -1722 -1808 0
-672 -1590 0
1981 -1421 0
102 -1952 0
1703 -1252 -302 -1874 0
1528 -1904 -1878 -147 0
1545 -230 -1972 -1885 0
110 -988 -1335 0
598 -902 0
241 -590 -1181 -443 0
1436 -1598 -781 -1584 0
1474 -1491 0
1593 -305 0
-1007 -1597 -715 -1954 0
-594 -123 -792 0
-107 -1684 -345 0
1352 -312 -185 -1412 0
-1059 -1960 0
19 -1512 0
-1140 -1410 -1091 -1922 0
1071 -1036 0
1005 -1769 -1180 0
1442 -1428 -1575 0
1262 -1183 -1728 0
454 -1245 -1555 -1929 0
720 -1548 -264 0
1613 -425 -174 -622 0
1364 -1702 -1873 0
-1153 -1633 0
431 -880 -1941 -1285 0
850 -1329 0
736 -445 -1952 -655 0
-585 -1165 0
1711 -708 0
1883 -521 0
-1053 -38 -1726 0
1229 -1847 -1553 -1600 0
684 -197 -737 0
-1977 -378 -492 -1954 0
1677 -72 0
1999 -834 -1852 -1242 0
142 -1918 0
1847 -1029 -911 0
-747 -838 -946 -244 0
1102 -1611 -1929 -1087 0
371 -24 -48 0
1067 -1290 0
646 -730 0
1717 -785 0
-1856 -1308 -9 0
-383 -1008 0
399 -1482 -1691 -705 0
1846 -1813 0
980 -1499 -1828 -778 0
831 -559 0
1917 -705 -1737 0
308 -533 0
-637 -651 0
-1516 -46 -619 -125 0
1940 -1173 0
1229 -968 -138 -1543 0
31 -1556 -850 0
961 -753 -691 -1172 0
1019 -1710 -626 -1265 0
1107 -1823 -1549 0
-853 -1308 0
-837 -1706 -1292 -1452 0
-1867 -1339 0
555 -983 -1151 0
-1210 -1544 0
-180 -1261 -1046 0
1675 -133 0
1614 -580 -73 0
645 -27 -1518 0
1485 -1379 -1191 -1956 0
-307 -93 0
535 -132 -373 0
1783 -1881 -1367 -851 0
210 -1201 -915 0
1368 -984 0
-943 -466 -1526 0
1155 -1261 0
486 -1720 -1469 0
-1508 -213 -1596 0
544 -15 -968 -1161 0
-1019 -1631 -112 -1950 0
806 -194 -1807 -956 0
390 -97 -1180 0
285 -451 -693 -1065 0
1787 -1035 0
1310 -1468 -1881 0
1800 -52 -1052 -588 0
576 -910 -1933 -864 0
525 -1269 -940 -332 0
-190 -1051 0
-213 -1855 0
-1092 -1992 0
667 -1296 -1610 -1822 0
1054 -454 -1363 -161 0
1942 -733 -182 0
-653 -350 -1980 -914 0
466 -977 -1608 0
690 -499 -1808 0
1582 -1478 0
-1075 -625 -415 0
971 -894 0
1568 -1518 0
1247 -1382 -910 0
-472 -1635 -836 -16 0
1216 -768 -610 0
989 -1376 0
-1480 -1959 -930 -1338 0
646 -1181 -1212 -1867 0
202 -1314 -713 -1598 0
187 -550 0
-1777 -377 -1990 0
1034 -613 0
1918 -1658 -896 -1969 0
1857 -332 -1276 -659 0
1220 -1024 -1862 0
994 -52 -216 0
485 -1481 -1078 -1958 0
1271 -1204 0
-528 -1269 -1001 -206 0
1311 -290 -464 -1102 0
-261 -1939 -1233 -461 0
815 -1036 0
-711 -1912 0
1521 -143 -1770 0
1579 -1604 -128 0
1279 -588 -1068 -32 0
355 -1917 -169 -1474 0
-472 -1507 -1815 0
606 -1298 0
348 -276 0
-1371 -622 -1171 0
1988 -509 -275 -864 0
654 -814 0
1112 -416 -1617 -572 0
1569 -602 0
1506 -775 -811 -828 0
1265 -85 -1622 -529 0
1829 -127 -1949 0
-61 -1529 -1506 -1695 0
1084 -1693 0
844 -1795 -1627 0
227 -1834 -929 0
-1679 -619 -521 0
278 -1797 -1145 0
757 -742 -1717 -1725 0
643 -47 -247 0
1535 -826 0
-1854 -375 0
-957 -197 -1287 0
1143 -8 -653 -500 0
656 -877 -517 -1088 0
-546 -49 -1819 -1996 0
326 -1282 -861 0
205 -912 -1622 0
-169 -907 0
1214 -594 -1245 -1705 0
950 -1476 -1925 -1485 0
66 -137 0
785 -1428 0
768 -573 -974 0
1153 -1539 0
1062 -1994 -1350 -1959 0
893 -1708 -1670 0
854 -1087 0
-340 -822 -1601 -163 0
1830 -1650 -763 0
973 -1630 -191 -43 0
1099 -1579 0
770 -530 -484 -379 0
-455 -977 0
-934 -1721 -530 -1684 0
569 -1697 0
-852 -1273 -6 -1634 0
1446 -801 -1174 -1491 0
1388 -1456 -1275 -226 0
23 -828 -1575 -608 0
791 -1040 0
1639 -1155 -576 0
479 -952 -184 0
962 -549 -300 -1937 0
-202 -323 -911 0
430 -858 0
-492 -289 0
-1063 -1356 -1647 -1587 0
565 -382 -831 -855 0
-1506 -1944 0
313 -499 0
679 -1923 -457 -1159 0
786 -1100 -1379 0
1537 -1514 -1994 0
-126 -561 -1313 -1246 0
1217 -1834 -998 -294 0
184 -1280 0
1637 -1532 -87 0
311 -771 -1180 -695 0
313 -1790 -168 -73 0
-920 -1244 -1234 -1246 0
1688 -1597 0
1917 -1854 -1263 0
1658 -696 -1152 0
-1158 -1701 -1509 0
-1746 -1981 0
1590 -1360 0
-1427 -1730 0
1934 -1110 0
-1998 -1613 -682 -1993 0
1935 -1198 -721 0
-1803 -560 -1695 0
487 -1604 -823 0
1967 -1996 0
1518 -105 -975 0
-704 -663 0
-1696 -1234 -1036 0
-239 -1264 0
1190 -299 -850 -804 0
291 -121 -1810 0
-323 -1406 -380 0
-531 -591 0
-687 -903 -209 -974 0
635 -230 -516 -1659 0
947 -1239 -1431 0
1990 -1359 0
-1223 -1531 0
-1303 -413 -635 0
-1389 -1155 -548 -1467 0
-1791 -605 -140 0
1055 -37 -525 -1568 0
-1328 -1414 -927 -125 0
1829 -1992 -648 0
-806 -1067 -508 0
1969 -236 0
-350 -232 -1072 -1774 0
-1340 -821 0
-1957 -1138 -1638 0
-82 -485 -1370 -572 0
1888 -1967 -746 0
533 -1562 -1945 -453 0
1967 -588 0
-1377 -1155 -665 -810 0
1266 -916 -1623 0
-1194 -1427 -1979 -1086 0
-74 -328 0
1180 -1051 -929 -1131 0
232 -400 -1206 0
-1557 -1762 -68 0
1476 -1496 -606 -772 0
859 -1731 0
577 -200 -359 -1442 0
1172 -403 -826 -550 0
1087 -1994 -771 0
77 -1865 -1127 0
223 -1684 -566 -369 0
-1774 -1906 -2000 0
1873 -1170 0
462 -1164 -531 0
-953 -1000 0
1592 -1000 -834 -355 0
928 -187 -106 -654 0
59 -918 -617 -1901 0
-706 -953 -1117 0
899 -404 -179 0
1987 -998 -1399 0
-391 -1276 -710 0
-297 -683 -1045 -1279 0
1320 -707 0
-59 -1548 -451 -525 0
62 -1081 -111 -63 0
1970 -911 0
1109 -629 -1752 0
1287 -970 0
-906 -1292 0
1481 -107 -186 0
1320 -764 -1395 -1576 0
676 -970 0
-1659 -1995 -1890 -681 0
1219 -115 -1423 -648 0
-1473 -1805 0
995 -524 0
1310 -538 0
1336 -127 -1488 0
-1108 -908 -1672 -432 0
1965 -1552 -1021 0
-1027 -1264 0
1917 -1467 0
-403 -1331 -1085 0
1192 -1816 -1310 0
1601 -1172 0
-156 -1930 -736 -1387 0
1034 -1670 0
868 -175 0
1420 -536 -111 -1795 0
432 -497 -245 0
1975 -1838 0
-1853 -705 -1783 -450 0
1287 -720 -878 -1860 0
758 -1313 -227 -85 0
602 -1347 -753 -1135 0
37 -994 -1198 -133 0
1001 -1566 -1845 0
-294 -860 -437 -1675 0
304 -31 0
-179 -710 0
132 -256 0
-1328 -501 -504 0
85 -1796 0
812 -739 -1312 0
123 -1056 -1018 0
-1903 -298 -368 -1295 0
910 -1388 0
-1995 -269 0
623 -306 -929 -1974 0
-1683 -1846 -871 -1451 0
-138 -489 -3 0
1537 -510 -1092 -735 0
-125 -1868 -530 -623 0
1194 -1503 -1980 -1902 0
912 -924 -1700 0
1916 -902 -1099 0
-934 -8 0
346 -46 -1738 -132 0
176 -630 -268 0
621 -898 0
1490 -438 -343 -917 0
1511 -129 -1184 -831 0
1382 -1040 -835 0
258 -971 0
1325 -720 0
376 -1223 -1068 -414 0
1486 -1024 -1400 0
-1821 -1052 -355 -438 0
-1528 -1994 -968 0
612 -1955 0
-50 -435 0
1929 -68 0
182 -211 0
780 -1899 -1719 0
788 -318 0
1762 -37 -502 0
245 -604 0
1438 -1198 -1017 0
605 -132 0
290 -951 -1946 -1588 0
-339 -1214 -1621 0
297 -1548 -1506 -1557 0
-659 -751 -518 -576 0
1394 -1169 0
549 -468 0
872 -1182 -1407 0
-357 -414 -836 -1623 0
311 -1899 -1233 0
-1895 -1728 0
866 -259 0
1500 -557 0
-770 -185 0
-1676 -733 -984 0
813 -351 -75 -1073 0
1162 -1758 -139 -1380 0
-1678 -1539 -1947 0
1326 -1313 -411 0
1996 -1731 -73 -1080 0
-367 -749 0
1672 -448 -43 0
-1895 -1597 -1063 -1012 0
-1382 -1122 -531 0
1129 -402 -525 0
-491 -717 0
1151 -60 -381 -854 0
982 -220 -1467 0
1878 -1824 -1736 -904 0
151 -485 -1436 0
1549 -652 -1439 -58 0
-132 -273 -1102 -204 0
1733 -1182 -466 -1677 0
1604 -980 -156 -728 0
708 -943 0
183 -706 0
-1143 -1065 -865 0
-702 -681 -1078 0
-105 -1318 -983 0
357 -1923 -680 -1655 0
-1423 -724 -1079 0
970 -1335 0
-1752 -1984 -1321 -1148 0
1420 -600 0
-1163 -1224 -214 -269 0
-1400 -298 -623 -1183 0
1031 -212 -1707 0
973 -1745 0
1946 -1894 0
256 -708 -445 -266 0
-1832 -1750 -445 -1376 0
-9 -628 -576 -1610 0
979 -467 0
1402 -1265 0
414 -541 -1391 0
903 -1562 -63 0
205 -617 -942 0
-1046 -1340 -505 -1627 0
1071 -8 -1219 0
1884 -854 -1191 -195 0
-1483 -1818 -186 -1226 0
1504 -107 0
828 -505 -191 0
396 -1621 0
635 -630 0
1868 -1046 0
1796 -1894 -912 0
-1318 -178 0
667 -492 0
1580 -549 -954 -121 0
1438 -459 -1036 0
298 -1578 -1961 -965 0
1096 -412 0
458 -1552 -1927 -1514 0
1115 -566 0
1105 -1277 0
1223 -261 -490 0
1973 -1366 -569 -85 0
1036 -1579 0
1531 -315 0
314 -454 -14 0
-1682 -309 0
997 -334 -1503 0
290 -373 -188 -528 0
417 -1649 0
1381 -1008 -1025 0
439 -1700 -188 0
366 -958 0
1710 -565 -279 -1183 0
230 -79 -570 0
67 -825 -863 -1116 0
704 -472 -72 -1619 0
1443 -1591 -712 -1459 0
-241 -1715 0
173 -172 -634 0
808 -482 -830 0
-436 -644 -478 0
1219 -635 -723 0
1384 -834 0
902 -1647 -456 0
-1635 -1618 -601 -1560 0
1619 -595 0
491 -400 -779 -1595 0
540 -1421 -11 -1143 0
-574 -817 0
592 -1672 -1298 -742 0
1120 -640 -1450 0
1 -148 0
-937 -1736 -1524 -581 0
262 -1444 -1654 0
1566 -229 -279 0
1630 -655 -1435 0
-504 -770 0
-674 -384 -145 0
830 -671 -1297 0
525 -506 -1249 -1747 0
1158 -1176 -741 -1825 0
419 -1498 0
190 -1779 0
1371 -978 -1303 -1592 0
1361 -236 0
712 -1881 -1661 -1057 0
369 -1380 -1549 -898 0
-285 -1635 0
1867 -101 0
126 -1206 -770 0
1188 -1199 0
746 -124 -320 0
-1471 -1059 0
1491 -1021 -1893 0
785 -1680 0
813 -1276 -880 0
-1809 -162 -1878 -222 0
-1067 -685 -1292 0
1333 -152 -1509 0
-102 -815 -417 -841 0
1090 -104 -601 0
874 -1869 -571 -79 0
-1281 -1914 -1470 -653 0
-157 -1111 -873 -859 0
606 -397 -487 0
-670 -78 -1578 -1393 0
1549 -503 -1145 0
1643 -262 -639 -135 0
-883 -701 -1881 -409 0
1479 -1135 -878 -995 0
-108 -332 -565 0
760 -15 0
1557 -445 -718 0
1217 -556 -879 -568 0
1511 -597 -1678 -1235 0
-1889 -576 -765 -150 0
1134 -1042 -269 -1098 0
1527 -1294 0
1639 -451 -649 -948 0
693 -541 0
394 -1709 -1829 0
-1435 -203 -313 -1704 0
241 -1327 0
1901 -1162 0
1221 -836 -77 0
-627 -1406 -182 -1476 0
880 -555 -636 0
1632 -777 -490 0
-71 -120 -1922 0
969 -1491 0
164 -908 0
-538 -222 -237 -1142 0
1340 -59 -1457 0
1086 -1489 -1509 -71 0
508 -420 -1511 0
-81 -1349 -1064 0
-1332 -10 0
137 -1714 -871 -1353 0
1119 -1276 -565 -855 0
1842 -1948 0
-117 -313 -1390 0
-357 -447 0
1098 -1856 -1250 -1707 0
958 -1430 -707 0
240 -880 0
206 -1824 -931 0
-1632 -771 -801 -757 0
1774 -1946 -302 0
1123 -1873 -1060 0
1611 -85 0
840 -1681 -1599 -1547 0
1308 -1148 -886 0
544 -484 0
-213 -754 0
-898 -613 -1560 -1177 0
242 -747 0
-62 -1140 0
22 -1251 -1674 -706 0
952 -1870 0
1925 -1641 -1168 0
1382 -1463 -1092 0
1874 -238 -1189 -221 0
1545 -822 -812 -1497 0
1547 -432 -1438 -1142 0
-1222 -339 -1857 0
191 -442 0
331 -1582 -1962 0
1046 -1524 0
807 -2000 -837 0
997 -1111 -678 -1668 0
-907 -673 -1109 0
1840 -361 -667 -330 0
492 -112 -1869 -1873 0
692 -647 0
1124 -504 0
1830 -1671 -967 -1532 0
1645 -962 -31 -1914 0
246 -274 -604 -1998 0
697 -335 -647 0
-1759 -1039 0
-1669 -743 -1778 0
325 -412 0
-517 -1764 -1878 -1927 0
-1947 -1727 -1710 0
1630 -609 -1790 -1266 0
1549 -916 -1710 -1623 0
819 -286 -1838 -1546 0
1718 -1534 -1754 0
1329 -774 -924 -1685 0
1046 -927 -59 0
185 -94 -618 0
-868 -1691 0
1815 -512 0
152 -779 -669 -321 0
143 -692 0
308 -1052 -279 -127 0
-1047 -914 0
1702 -140 0
-1617 -1229 -1980 0
-558 -1992 -870 0
570 -730 -1056 -1515 0
337 -1601 -1198 0
1377 -1491 0
1734 -1693 0
-1107 -1927 0
78 -676 0
-1755 -1301 0
1641 -1027 -473 -584 0
410 -954 0
-1111 -1133 -1329 -1021 0
1346 -1959 0
-1582 -1749 0
1315 -1739 -88 0
258 -1199 0
-1423 -120 0
403 -1421 0
1651 -873 -261 0
1701 -1308 0
178 -248 -1258 -1547 0
898 -786 -894 0
-1727 -1040 -318 0
8 -1274 -1177 0
1436 -669 -597 0
1010 -1552 -1470 0
327 -1312 0
1201 -637 0
-1177 -1 -452 -902 0
19 -207 -178 0
1142 -443 -845 0
1797 -44 -283 0
-87 -676 -804 -1120 0
94 -650 -248 -333 0
-919 -200 -1197 0
1145 -1913 -1788 0
1087 -1414 -1931 -1383 0
1844 -1969 0
1312 -705 0
225 -1077 -1822 -1844 0
867 -91 -351 0
-1936 -1899 -410 0
239 -398 -237 -1556 0
381 -482 0
-1079 -1460 -33 0
-1643 -1595 0
562 -200 -1431 -310 0
-1259 -927 -1485 -62 0
-1252 -1772 0
1025 -1836 -216 -184 0
83 -1441 -1353 -847 0
470 -1878 0
-1714 -740 -1174 -1164 0
1272 -370 0
345 -1233 0
763 -1096 0
1268 -1810 0
947 -1398 0
651 -727 0
-1317 -911 0
-1889 -29 -198 -1266 0
872 -10 0
1971 -1342 -317 -954 0
264 -1703 -367 -594 0
-157 -728 -950 0
1928 -875 0
380 -1968 -447 -1803 0
33 -337 0
796 -1102 0
-1640 -1675 0
29 -883 -726 -403 0
1546 -5 0
624 -575 -1930 0
20 -794 -172 -1053 0
1294 -1643 -548 0
1092 -131 -1385 0
1252 -369 0
-687 -583 -1584 0
1151 -35 -1968 -575 0
1989 -1342 0
1365 -556 -875 0
585 -562 -843 -1061 0
-389 -909 0
112 -566 0
1914 -180 -24 0
284 -1190 -982 -594 0
1441 -1666 0
561 -843 0
-652 -1194 -1055 0
581 -1325 0
981 -1502 -1944 -1451 0
-1802 -399 0
1909 -1633 -65 0
1363 -961 0
259 -509 0
1504 -152 -1721 -1174 0
1668 -1181 -759 0
753 -403 -641 -7 0
-1248 -178 -567 -1930 0
-1768 -1527 -910 -459 0
1259 -133 -1311 -448 0
227 -879 -638 0
-1615 -842 -1091 -1032 0
1133 -458 -753 0
1718 -416 -585 0
-372 -241 -145 -1287 0
-473 -933 0
975 -416 -938 -1544 0
-400 -858 -1780 0
1959 -546 -1065 -1028 0
1448 -1202 0
394 -1490 0
115 -1631 0
1308 -1782 0
1746 -1763 -807 -1710 0
964 -61 -1395 -220 0
1889 -423 -1861 -836 0
-1919 -852 0
1182 -536 0
1368 -1888 0
925 -1366 0
-63 -672 -40 0
726 -782 -572 -58 0
239 -784 -540 -956 0
-1924 -952 -344 0
-361 -1178 -452 -1213 0
-632 -788 0
1140 -1590 -1714 0
448 -81 0
38 -1362 -1794 0
1935 -1579 0
1164 -604 -885 -1901 0
1070 -225 -1050 -1728 0
-892 -1729 -573 -1513 0
895 -927 -1722 0
1072 -1692 -925 -1418 0
916 -84 0
1627 -208 -1216 -822 0
1385 -846 -977 0
-634 -976 -346 -276 0
-1541 -1656 -1853 0
1365 -451 0
289 -1084 0
600 -605 -51 0
1985 -293 0
853 -589 -1884 -1107 0
-440 -693 -729 0
-1066 -827 -1596 0
-388 -44 0
780 -1298 -75 0
-1469 -1198 -842 0
1844 -1540 -24 -1783 0
1144 -953 0
-810 -1727 -760 -194 0
1039 -430 -998 -1873 0
201 -719 -584 -1236 0
13 -256 0
1259 -1036 0
-609 -65 0
764 -1709 -789 -677 0
-357 -947 -823 -499 0
1445 -1931 -1751 -198 0
1229 -1958 -1366 -936 0
-455 -1038 -90 -1921 0
628 -335 0
-1427 -41 -425 -1885 0
1469 -424 -1288 -1466 0
120 -1683 0
609 -168 -10 0
5 -227 -1161 0
1464 -869 -1018 0
100 -476 -660 0
-1017 -782 -592 -1090 0
1134 -784 -1846 -872 0
1653 -1749 -1795 0
-1954 -1931 0
918 -1483 -1975 -648 0
1321 -1989 -1310 -80 0
796 -773 -1886 0
1197 -1878 -1150 -1638 0
491 -436 -1328 0
1984 -1663 -1006 -1862 0
1641 -1233 -921 0
1447 -1035 -1888 0
1122 -159 -1157 0
1273 -328 -649 -931 0
1533 -1410 -201 -55 0
793 -1565 0
716 -781 -737 -1004 0
519 -461 -1453 -1527 0
758 -1483 0
-1233 -1843 -510 -830 0
198 -849 -324 0
-1247 -728 0
1587 -960 -1180 -354 0
150 -1302 -1364 0
1344 -1834 -775 -1871 0
-1361 -1631 -350 -1272 0
192 -1131 -296 -270 0
62 -636 0
963 -1057 -1730 0
-1330 -1689 -118 0
1186 -662 0
812 -972 0
711 -1535 -389 -482 0
291 -1150 -944 -841 0
1309 -1001 0
-1222 -151 -1456 -1669 0
510 -366 -144 0
-1650 -1312 0
668 -1627 -1990 -396 0
975 -1745 -3 -814 0
-1452 -1573 0
-1663 -46 0
1407 -1194 -1706 0
813 -709 -372 -342 0
1989 -1627 0
459 -1972 0
1370 -914 -419 -425 0
1093 -534 -1765 -953 0
931 -833 -1875 0
326 -880 0
225 -864 0
1159 -1466 -1637 -358 0
-1918 -1432 0
-581 -469 0
-4 -1835 0
1424 -597 -1327 -876 0
-1358 -629 -1267 0
1258 -1517 0
1184 -771 -1894 0
-1286 -1666 -160 -1178 0
162 -228 -1782 -59 0
962 -1382 0
334 -21 -237 -239 0
-1236 -390 0
888 -122 0
796 -19 -1291 0
522 -1883 -1195 -984 0
243 -1075 -313 0
-868 -1859 0
812 -1110 -633 0
1034 -512 -1773 -1324 0
-896 -1828 0
-919 -1514 -1623 0
224 -1820 -1650 0
714 -494 -133 0
1795 -1336 0
1820 -633 0
399 -1302 0
643 -1620 0
364 -258 -302 0
981 -661 -1258 0
1880 -1754 -1027 -1294 0
-685 -383 0
-617 -437 0
1926 -526 -1269 0
1329 -509 0
333 -303 -1661 -1701 0
780 -855 -583 -607 0
882 -1329 -1843 -1579 0
-690 -1674 0
1885 -1871 0
362 -881 0
-949 -627 -1064 -1001 0
691 -1055 0
1773 -530 0
146 -1635 0
1739 -842 -1670 -1820 0
-1404 -586 -1601 0
-916 -1085 0
-1364 -1332 0
-661 -1974 0
1467 -1171 0
142 -914 0
630 -386 -866 -1181 0
18 -1958 0
1954 -12 -918 -1912 0
1236 -1961 -350 -795 0
1902 -1755 -418 -333 0
-74 -1841 -1262 -516 0
1525 -145 -948 0
-1447 -1628 -239 -335 0
1263 -231 -401 -734 0
1262 -795 0
1094 -1524 0
731 -1908 -1278 -340 0
714 -1528 -888 -1229 0
-957 -978 0
1149 -743 -1705 -215 0
248 -1207 0
-259 -1754 0
100 -1717 -1963 -1594 0
1146 -1205 -1023 0
583 -853 -2000 0
-1174 -80 -1485 0
-628 -1457 -1587 0
1123 -194 -869 -401 0
-1848 -765 -1317 0
726 -1497 -169 0
249 -1030 -593 0
578 -1916 -704 -573 0
-1998 -1260 -977 -1814 0
1432 -1690 0
1293 -1602 0
-90 -1716 -926 0
-1882 -1791 -1772 -455 0
212 -1895 -69 0
-491 -340 -211 0
127 -934 -836 0
-1065 -896 -267 -325 0
1806 -82 0
860 -563 -9 -1414 0
-381 -1313 0
151 -755 -1919 -39 0
1510 -62 -1168 -395 0
1924 -93 0
1125 -736 -1205 -410 0
868 -355 0
2000 -932 -321 0
1530 -1271 -1952 0
763 -1252 -1362 -177 0
93 -1643 -499 -1684 0
-761 -785 0
-538 -1242 -1840 -312 0
-1774 -1262 -1915 0
-613 -122 -663 0
1526 -1025 -1553 -1337 0
625 -583 -1129 0
45 -1911 -756 0
-184 -1286 -901 0
-1351 -1909 -627 -625 0
1542 -1613 -1248 -1111 0
1377 -1688 0
1101 -911 -1281 0
-804 -1357 -1287 -1301 0
-45 -938 0
-1857 -286 0
859 -1539 -221 -926 0
-1796 -1024 -1895 0
1772 -529 -175 -1686 0
166 -853 -1381 -529 0
1486 -1966 -434 0
-792 -123 -1721 -1828 0
-1292 -1756 0
749 -1191 0
1176 -1067 -573 -541 0
-504 -1322 -365 0
-1572 -1267 -265 -1689 0
-1222 -1215 0
1675 -973 0
267 -1545 -1917 0
780 -218 -546 -681 0
1163 -278 -914 0
486 -694 0
-714 -549 0
1591 -10 0
1399 -1063 -1622 -803 0
315 -1488 -1214 -1871 0
475 -165 -1586 -1710 0
-1105 -1209 0
-71 -1830 0
397 -1403 -840 -1949 0
-895 -1543 -1139 0
533 -621 0
872 -769 -1299 -1594 0
228 -399 -1196 0
1586 -1803 -116 0
-187 -1033 -437 0
1322 -871 -948 -890 0
-1130 -1132 0
944 -694 -1033 0
942 -360 0
196 -613 0
500 -82 -907 -964 0
1133 -905 -1279 0
725 -787 -996 0
1441 -539 -414 -423 0
1380 -1419 -1783 0
1176 -1664 -1613 0
1944 -1399 -589 0
1068 -1498 0
1667 -750 -972 -1168 0
1708 -819 0
-1676 -1344 -560 0
1405 -1513 -1415 -658 0
1110 -1588 0
1900 -1487 -934 -162 0
1191 -1574 -361 -1332 0
1097 -885 -1068 0
748 -73 0
1354 -535 -915 0
1815 -865 -127 -59 0
1669 -769 -1761 0
-182 -1988 0
-1072 -113 -66 -491 0
-478 -973 -13 -236 0
1164 -1987 0
297 -1273 -945 -503 0
1497 -1891 -1113 0
1627 -885 -1052 -1199 0
-980 -522 0
1151 -594 -281 0
903 -1776 -1936 0
-1758 -1594 -1729 0
517 -233 0
1016 -469 -1472 -288 0
382 -827 -160 0
1022 -1595 -1331 -307 0
816 -1654 -369 -444 0
79 -1209 0
333 -1929 -1931 0
1734 -914 -508 -852 0
414 -452 -353 0
1761 -207 -648 0
-910 -1263 0
1650 -37 0
1352 -284 -636 0
1868 -1970 -12 -1625 0
-1513 -1264 -389 -1064 0
-1666 -1256 -1584 -228 0
1440 -1571 -987 0
-557 -201 0
274 -1064 -1206 0
81 -755 0
1684 -588 -854 -1431 0
-819 -227 -1299 -1247 0
-81 -1543 -1174 -1120 0
157 -1357 0
-1020 -944 -1759 0
1128 -1273 0
507 -1320 -121 -352 0
1647 -1773 -1610 -867 0
30 -443 -609 0
281 -1177 0
568 -1443 0
68 -255 -1036 -1425 0
1580 -508 -1320 -303 0
-273 -889 0
737 -1955 -183 -1826 0
150 -789 -59 -590 0
1985 -276 -1094 0
774 -1915 -813 -1751 0
-1257 -168 -32 0
484 -1172 -1434 -748 0
1969 -1783 -1853 -1088 0
279 -1646 -604 0
1817 -445 -377 0
1848 -975 -798 -1693 0
1629 -440 -722 0
861 -607 -441 -1877 0
-900 -594 -1404 0
490 -351 0
-1639 -1764 -1743 0
678 -1575 0
1656 -1942 0
1784 -1049 0
-8 -844 -264 0
224 -488 -383 0
-1621 -350 -1728 -351 0
1942 -1683 -4 -1959 0
1000 -409 -1475 0
1677 -126 0
-1445 -1192 0
-589 -490 0
124 -1059 -1196 0
65 -1322 -901 0
1766 -1110 -796 0
605 -1067 0
-1445 -820 0
-797 -150 -9 -95 0
674 -1341 -92 -400 0
-1532 -540 -655 0
854 -1254 -836 0
-1580 -1793 0
277 -1366 -1452 -615 0
1502 -145 -1867 -1047 0
-1346 -1129 -62 0
1834 -389 0
1701 -1354 -1897 -1615 0
555 -968 -1386 -1785 0
1120 -1483 0
-13 -971 -322 0
1874 -1231 0
-957 -1631 0
1556 -1116 -1484 -182 0
-646 -345 -144 0
945 -1189 0
492 -1202 0
878 -429 -631 0
-1112 -601 0
1080 -1241 -278 0
1015 -1660 -1004 0
-435 -36 -1867 -1032 0
495 -1529 -971 0
1654 -1707 0
573 -236 -1793 0
-1524 -634 -308 -208 0
437 -1337 -1681 -695 0
969 -201 -402 -1272 0
407 -1211 0
1138 -941 0
853 -706 0
464 -1935 0
-1360 -1962 -627 -1878 0
-96 -784 -732 0
1460 -29 -245 -989 0
1843 -1549 0
1574 -9 -116 0
1064 -5 0
255 -43 -1261 0
103 -1345 0
948 -1015 -57 0
1640 -1493 0
-1096 -1737 -1747 -473 0
1550 -75 -1032 0
902 -1052 -288 -793 0
-1691 -438 -666 -1973 0
1602 -1502 -261 -217 0
-1733 -897 -121 0
1260 -1064 0
718 -254 0
1599 -1211 0
369 -1218 0
979 -978 0
1453 -1995 0
1526 -627 0
-599 -898 0
-1492 -399 -1255 -1434 0
1412 -919 -1950 0
-833 -622 -1884 -89 0
5 -1031 -1520 -1730 0
879 -1970 -1795 0
-772 -1019 -889 -1242 0
1360 -1988 -1116 0
-1443 -1315 0
84 -866 0
1513 -1992 -1162 -1967 0
1085 -365 -704 0
1421 -1531 -830 0
749 -298 0
-1179 -1302 0
1872 -114 0
1241 -471 0
1581 -1396 -545 -1322 0
-1111 -578 -66 -1282 0
-329 -1796 -257 0
-1374 -1831 -24 0
-122 -177 -537 -1728 0
-1645 -644 -223 -1208 0
165 -1667 -1877 -1964 0
365 -1091 0
218 -1196 0
-1431 -1953 0
-707 -1132 -1257 -372 0
1516 -533 0
1828 -1639 -267 0
-953 -1367 0
-1841 -1931 0
1644 -1676 -1482 -152 0
-833 -1999 0
109 -1270 0
1013 -995 -115 -1273 0
244 -1556 -1119 -297 0
196 -9 -1527 0
1818 -1138 -267 0
599 -669 0
1384 -1042 0
-206 -1497 -1716 0
1188 -1947 -1425 -643 0
356 -1744 0
683 -1991 -303 0
1616 -1475 -876 -1638 0
1586 -1870 0
908 -1852 0
1750 -1511 0
-385 -764 -442 0
852 -286 0
1009 -1505 -818 -1790 0
848 -892 -1231 0
1218 -4 -1215 0
730 -946 -952 -1647 0
1655 -875 -1403 -808 0
-1805 -180 0
307 -791 0
206 -156 -939 -833 0
120 -422 0
-1331 -726 -1690 -1199 0
98 -688 0
1486 -483 0
-581 -771 -220 -1975 0
745 -1165 -664 0
1521 -480 0
-285 -1260 -1821 -208 0
696 -1718 0
280 -833 -1313 -1299 0
-1827 -1179 0
250 -1537 -1113 -91 0
1508 -1430 0
-467 -176 -915 0
1048 -1648 0
541 -432 -1058 0
-1730 -760 0
754 -842 0
1635 -1546 0
1276 -1946 -1203 -1621 0
1339 -74 -1862 0
105 -1374 -1909 -816 0
10 -907 -502 0
584 -96 0
-435 -1919 -466 -1921 0
1468 -906 0
-1725 -965 -491 -778 0
369 -1776 0
1002 -124 -922 0
-722 -1472 -642 -329 0
-1237 -642 -629 -490 0
232 -925 -1447 -394 0
-279 -1460 -1534 0
765 -1273 0
1537 -18 0
-1509 -314 0
-1050 -221 0
1550 -1406 -1487 -247 0
1078 -250 -1180 -395 0
1798 -578 -1753 -619 0
1047 -216 -1694 0
618 -688 -1596 -895 0
618 -1669 -1759 0
325 -1026 -892 0
1559 -1125 0
406 -199 -1647 0
65 -76 0
1230 -163 -1136 -652 0
158 -1413 -674 -1192 0
1359 -473 0
-1879 -214 -1480 -1408 0
-1803 -1733 -1817 -1142 0
10 -83 -1440 0
1962 -1926 -333 -1255 0
-1629 -1741 -1254 -1411 0
1957 -333 0
522 -1221 -1346 0
396 -1475 -540 0
1610 -717 -817 0
-651 -428 0
353 -1444 0
1390 -311 -1487 0
1947 -1728 -438 0
1491 -784 -1019 -1820 0
1879 -1316 -87 0
475 -1987 0
804 -1368 0
1671 -1698 -1921 -477 0
388 -1649 -1034 0
-1468 -14 -242 -1389 0
1859 -590 -5 0
1565 -893 -1493 -756 0
-1357 -1198 -280 0
-1131 -626 -1798 0
-842 -321 -1140 -697 0
1786 -96 -1028 0
309 -1433 -500 0
134 -1058 0
426 -984 0
86 -1051 0
1657 -714 -1576 -481 0
820 -1470 -1722 0
-1685 -1682 -211 0
907 -439 -1864 0
342 -146 0
-1435 -412 0
765 -166 -928 0
-1093 -1377 -1958 0
1235 -1088 -630 0
-1354 -356 -1351 0
1953 -996 -20 -1720 0
-1345 -596 -1091 0
2000 -505 -596 0
-1206 -1049 -1690 0
-182 -538 -1914 -998 0
1799 -1376 -1540 0
577 -1394 -1111 -1589 0
872 -1320 0
1775 -825 -509 -1363 0
1869 -1952 -1757 0
122 -496 0
983 -441 0
1721 -1071 -887 -1124 0
-617 -1896 0
1479 -1023 -161 -697 0
1225 -145 0
1847 -861 0
1139 -1991 -1944 0
-1457 -399 -885 0
997 -1200 -526 0
-742 -1387 -424 0
1268 -935 0
530 -69 -815 0
-1456 -347 -792 -1906 0
20 -1352 0
84 -1976 0
-52 -81 0
-166 -1332 0
1370 -109 -1997 0
-618 -1629 -28 0
1363 -58 -1797 0
1506 -999 0
1867 -1149 -1286 -1457 0
1045 -564 -1529 -1319 0
-1016 -1826 -625 -968 0
639 -897 -1031 0
1900 -1457 -1445 -7 0
772 -705 -1098 -244 0
811 -198 -662 0
1557 -155 -1514 0
725 -838 -1007 0
905 -1500 -313 0
1259 -9 -1944 0
1353 -888 0
541 -1721 -1674 0
-1220 -870 -386 0
694 -522 0
-97 -59 -1528 0
1138 -1139 -1701 -55 0
725 -1852 -730 -338 0
406 -1153 -1715 -647 0
271 -1200 0
69 -502 -202 -363 0
1693 -517 -563 -592 0
373 -154 -1526 0
1119 -1441 -883 0
1923 -719 -1293 -1423 0
-1774 -913 -1993 -219 0
618 -1794 -798 -405 0
-971 -1414 -1161 -1269 0
1290 -384 -1113 -111 0
986 -115 -100 -763 0
-1764 -370 -520 0
327 -994 -593 -239 0
1638 -257 -253 -649 0
1340 -505 -1642 0
396 -1430 -1732 0
1657 -337 -1885 0
-1172 -1842 0
1585 -1987 0
1209 -370 -1178 0
-1990 -1398 -250 -84 0
424 -1515 -339 0
1772 -186 0
1208 -487 0
1794 -629 -318 0
-1358 -195 -362 -414 0
377 -571 -1151 0
423 -1223 0
-20 -738 0
-1393 -1016 -372 -1905 0
918 -1472 -242 0
-1551 -1058 -1669 0
-484 -370 -73 -894 0
-1924 -1375 0
-358 -31 -1700 -145 0
-622 -1439 0
-1110 -1765 -738 -1176 0
1340 -904 0
-878 -268 -1337 0
1211 -385 -184 0
1558 -416 -484 -1799 0
1893 -1770 0
893 -655 0
1978 -952 0
1021 -1702 -1293 -1557 0
1082 -1891 -929 -1589 0
650 -452 0
598 -994 0
319 -542 -1733 0
539 -571 -1252 0
-186 -162 -1580 0
-1607 -551 -1488 -1077 0
-1262 -1549 -1341 -542 0
-498 -320 -94 -347 0
-1067 -71 -969 -673 0
627 -1334 0
347 -769 -1038 0
240 -1789 0
316 -1706 -1997 -501 0
1941 -85 0
761 -186 -10 0
855 -1389 -655 -1237 0
-1367 -660 0
544 -634 -1877 0
-845 -1144 0
975 -249 -1728 0
819 -1671 0
-1631 -1834 -1610 0
690 -1473 -1806 -656 0
1404 -812 -1914 -1912 0
447 -1837 0
-946 -504 0
186 -1714 0
-198 -1305 0
994 -1883 -194 0
1999 -974 0
316 -1749 -255 -1691 0
-1148 -594 -1418 -378 0
-330 -162 -527 0
79 -1307 -1961 -756 0
1259 -1543 -988 -744 0
-1198 -449 0
981 -1304 -770 -1484 0
55 -986 0
1578 -990 -962 0
909 -281 -1529 -121 0
-72 -1581 0
-1391 -206 0
-536 -519 0
609 -26 -1190 -42 0
127 -850 0
-183 -1888 -1374 -326 0
-954 -573 -495 0
-1700 -1135 0
1008 -1630 0
-423 -1152 0
-160 -657 -216 0
1669 -1868 -595 0
1250 -1878 -1524 -1745 0
-1446 -340 -715 0
-1235 -1206 -1351 0
50 -652 -1278 0
34 -956 0
956 -1021 -1077 -1671 0
907 -898 -1813 -1800 0
628 -1638 -1686 -104 0
1345 -1889 -1113 -909 0
1777 -1060 0
-1206 -118 -144 -1460 0
1740 -19 0
-716 -97 -1284 0
1250 -1435 0
-1972 -318 -1755 0
1532 -736 -812 -573 0
-992 -389 -578 0
1569 -1435 -735 -195 0
-1969 -959 -740 0
1008 -1554 -1923 -1842 0
-1098 -259 -1921 -1222 0
53 -561 -1630 0
-447 -495 -806 -850 0
1150 -1879 0
600 -1352 0
1017 -1276 -214 -1089 0
1816 -676 0
-1181 -337 -246 -847 0
714 -572 -1648 -63 0
1817 -460 -1889 0
1371 -1200 -619 0
1323 -480 0
1140 -941 0
882 -280 -1795 0
43 -1611 -901 0
659 -427 0
-1110 -396 -212 -975 0
-663 -879 -697 -1034 0
-802 -1621 -1449 0
-1385 -903 -1229 -815 0
173 -1725 -1419 -1745 0
-1049 -1138 0
549 -1697 -925 0
1776 -312 -1734 0
248 -647 -1830 -1285 0
1754 -1488 -732 -517 0
167 -1163 0
-929 -1815 -993 0
-694 -2000 -902 -1553 0
1899 -143 -536 -178 0
-44 -1178 0
1887 -805 0
1031 -1370 0
483 -1666 -1628 -1272 0
-1307 -697 0
1114 -1801 0
194 -677 -1063 0
933 -736 -95 0
-408 -534 0
974 -1841 -1982 -1445 0
451 -1561 -1851 0
1827 -790 0
-1010 -927 -871 -1885 0
1721 -1398 -1533 -656 0
534 -1171 -1398 -708 0
-1931 -580 0
-222 -1023 -693 -509 0
1204 -202 0
-959 -1713 -1669 0
96 -1718 0
1432 -584 -1620 0
559 -1947 -696 -1302 0
857 -382 -1560 -182 0
-1333 -1044 -65 -764 0
1631 -236 -530 0
-905 -1011 -511 0
830 -777 -559 0
879 -875 -17 -92 0
588 -403 -1145 -880 0
-1624 -288 0
82 -1949 0
1170 -112 0
1048 -164 0
1876 -1454 -521 -1688 0
1969 -75 0
1200 -197 -1447 -1664 0
836 -1298 -525 0
366 -1192 -1471 0
826 -443 -832 0
1005 -1728 -493 0
1884 -1866 -1148 -1184 0
341 -1010 -1699 -171 0
356 -294 0
-1279 -919 -1723 0
983 -1373 -632 -1229 0
640 -1283 -261 0
1409 -1344 0
-1739 -1490 -827 -1039 0
639 -1656 0
-1067 -1504 -1276 -157 0
-1537 -949 0
940 -673 -1934 0
-1961 -1732 -1686 0
24 -361 -645 -1827 0
1977 -421 -299 0
1122 -1167 0
1709 -1408 -1951 0
1916 -1166 -1249 0
43 -648 0
1062 -1445 -500 -384 0
819 -1473 -1444 0
1379 -458 0
456 -106 -1967 -123 0
-1607 -242 0
888 -1348 -206 -1108 0
1065 -1657 -1843 0
-746 -797 0
587 -1461 -1177 -791 0
1767 -82 -1879 0
-832 -1406 0
1140 -1513 -852 0
1227 -250 -552 0
1907 -18 0
200 -161 0
-1826 -1547 0
1333 -530 -598 0
404 -1151 -123 -1978 0
1788 -811 -1335 -897 0
595 -1221 -349 0
-544 -250 0
721 -1923 -8 -369 0
-1400 -1277 0
598 -1180 0
1578 -141 -811 -1651 0
-185 -1810 -353 0
-1531 -1195 0
920 -1574 -777 0
1688 -1822 -768 0
1137 -716 -930 0
1263 -1680 0
-1802 -1046 -1494 0
1870 -342 -1289 0
1732 -1747 -1764 0
-1005 -135 0
-1445 -590 -1301 0
-681 -1688 0
-655 -151 -1928 0
-1967 -1238 0
764 -1159 -226 -919 0
1726 -1004 0
1299 -1406 -159 -137 0
172 -590 -1202 -1233 0
465 -1191 -1161 0
610 -1301 -1138 -1388 0
1179 -1439 -106 0
-932 -1690 -25 -578 0
-292 -746 0
-784 -1659 0
1855 -1697 0
1419 -324 0
-1580 -1443 -1897 0
1321 -1242 -1788 0
340 -1387 0
166 -1299 0
1208 -1954 -1465 -976 0
-1037 -423 -1730 0
873 -1799 0
-704 -605 0
385 -1609 -1351 -1949 0
-1697 -251 -1678 -1397 0
1883 -501 -1936 0
200 -1129 -342 0
1272 -1399 -1990 0
1767 -1952 0
1473 -1529 -1269 -1697 0
570 -1579 -410 0
1451 -1892 -1619 0
1164 -1180 0
-1581 -1922 -1475 -740 0
123 -505 -341 0
970 -1856 -278 0
-1477 -1451 -711 0
668 -1728 -1925 0
-1989 -1072 0
-1052 -77 -1252 -994 0
835 -1952 -987 -706 0
-923 -280 -543 0
395 -1729 0
198 -1099 -1795 0
654 -807 -1811 -1796 0
1828 -1714 0
1959 -597 -228 -94 0
827 -1704 -1711 0
147 -1519 -948 -703 0
1462 -584 -885 -59 0
-1591 -639 0
-743 -1337 -899 0
1105 -572 -1016 -1678 0
137 -1956 0
640 -1904 0
165 -648 -855 -1126 0
232 -1820 0
-590 -39 -142 0
1909 -1081 -1968 -410 0
463 -1938 0
-528 -1463 -393 0
1493 -748 0
1649 -1339 -1873 -1180 0
-1180 -990 -1369 -332 0
1643 -1201 -1281 0
-689 -1689 0
-1170 -574 -1756 -1705 0
1571 -1875 -851 0
83 -1188 -1798 0
1811 -1185 -688 -1407 0
724 -1714 -1785 0
575 -1851 0
1997 -1593 0
567 -488 -1798 -75 0
1085 -767 -1154 0
1246 -1518 -467 0
1281 -1855 -1998 0
-1463 -1661 -1786 0
1788 -1798 -539 -541 0
-1589 -248 -33 0
1504 -287 -1034 -1223 0
-1957 -637 0
1036 -1249 0
1953 -1039 0
357 -1236 -1230 0
-862 -1226 -582 0
1015 -1228 -1384 -1800 0
-99 -1561 -812 0
669 -1998 -1042 0
518 -99 -456 0
66 -1761 0
1554 -776 0
-965 -1918 -1402 -1425 0
-1540 -649 0
837 -720 -2000 0
276 -1074 0
1973 -1328 0
873 -1646 -321 0
1187 -1841 -196 -337 0
445 -813 -553 -321 0
483 -1747 0
394 -304 -353 -691 0
-1475 -545 -1542 -1130 0
1164 -1526 -367 0
-131 -1096 -313 0
-200 -380 0
1071 -336 -604 -1475 0
-1365 -28 -864 -797 0
1389 -1300 0
-1462 -892 0
658 -1888 -1487 0
1353 -1077 -1315 0
-303 -737 -1921 -1837 0
1533 -339 0
1872 -855 0
1162 -1548 0
-444 -1244 -1414 -827 0
-820 -5 -1685 -226 0
-901 -1414 0
701 -50 -700 0
800 -1096 -1725 0
-1077 -857 -1496 -1515 0
-333 -1815 0
957 -1357 -1032 0
883 -232 0
1535 -382 -1309 0
726 -1982 0
1577 -1705 -405 0
778 -869 0
1699 -1880 0
1794 -1330 0
1801 -666 -1410 0
1403 -1667 -1705 0
1072 -1870 -309 -1953 0
257 -228 -1030 0
1913 -137 -510 -1362 0
887 -818 0
-1654 -708 -1470 0
-272 -198 -1938 -140 0
1607 -741 -621 0
1305 -289 -545 -1296 0
-173 -613 -1860 0
1388 -477 -296 -964 0
1221 -798 -632 -820 0
1352 -397 -1966 0
1978 -995 -1296 0
380 -572 -156 0
752 -112 0
1682 -262 -290 -1769 0
1640 -503 -806 0
1028 -1906 0
970 -588 0
1922 -1980 -177 -1689 0
33 -1977 0
-1991 -1628 -1181 -731 0
1074 -458 -381 -1749 0
1137 -964 -471 0
1134 -1656 0
953 -1396 -1159 -600 0
-338 -1901 0
1066 -235 -509 0
924 -1475 -654 -1078 0
-104 -1689 -1780 0
-276 -1659 -801 0
1959 -7 -71 -1197 0
-955 -1430 0
1636 -186 0
1224 -1607 0
142 -1584 -1766 -568 0
1621 -460 -58 0
-292 -1184 -275 -1374 0
815 -1786 -1179 0
1625 -1774 -1748 -876 0
1523 -735 -1592 -281 0
697 -1242 0
458 -1563 -14 -659 0
183 -88 0
277 -1617 0
669 -702 -810 0
1442 -503 -1560 0
1840 -221 -66 -1414 0
357 -1073 -332 0
1231 -819 -1746 0
-495 -197 -1797 0
1339 -370 -32 0
150 -79 -55 0
-380 -1369 -40 0
1025 -203 -1538 0
-1773 -835 -1438 0
1049 -860 -267 0
350 -159 -789 -1797 0
-58 -891 -1997 0
1164 -1062 0
340 -1719 -1818 -1943 0
1729 -1558 -1058 -1882 0
398 -80 -1923 0
179 -56 -968 -1913 0
452 -1984 -1138 -1463 0
-475 -125 0
276 -666 -308 0
339 -74 0
21 -1748 0
478 -857 0
1542 -1813 0
1588 -382 0
-1769 -1098 0
1406 -1795 -1553 0
971 -1813 0
847 -1064 -693 -1412 0
1934 -840 -1392 0
1730 -424 -1663 0
1698 -1542 -259 -1776 0
566 -1308 -504 0
1868 -392 0
-1057 -496 0
613 -1315 -1097 0
926 -734 -1391 0
1556 -767 -1886 -846 0
1719 -324 -1000 0
384 -1728 -373 -1929 0
761 -1498 -121 -101 0
605 -1208 -487 0
879 -241 -160 -111 0
805 -1967 -1193 -352 0
-1366 -1274 -1502 0
1060 -1156 -1016 -20 0
-1303 -1179 -1764 -669 0
-1625 -1758 0
-1070 -265 0
1504 -1440 0
-143 -404 -297 0
889 -188 -688 -232 0
-753 -234 -1517 0
419 -1793 -1543 -1437 0
1927 -1358 -82 -410 0
1772 -793 -281 -40 0
650 -1018 -1892 0
1617 -556 -720 0
-1770 -1027 0
684 -820 -1039 -498 0
545 -1698 -1115 -1957 0
-641 -387 -39 0
1784 -947 -603 -1499 0
1288 -122 -362 0
1292 -1274 -1636 0
322 -1272 0
1468 -900 0
-402 -1755 -787 -1793 0
1194 -1783 -1136 -2000 0
-1384 -1752 -1462 -780 0
737 -481 0
1566 -1678 -530 -116 0
1889 -764 0
-696 -472 0
-1834 -1506 -880 0
1608 -20 0
992 -864 0
438 -1509 0
1750 -1979 -1964 -671 0
445 -1974 0
1376 -1028 -2000 -947 0
42 -1782 -229 -1456 0
-1976 -738 -1627 -642 0
1331 -1820 -1527 -1493 0
-1976 -956 0
762 -1893 -399 0
1219 -1731 0
483 -242 -475 -380 0
150 -1093 -1691 -1039 0
881 -525 -905 -223 0
1279 -1065 0
1019 -1107 -937 -1787 0
1166 -817 -676 0
-176 -1669 0
1823 -528 -1251 0
1066 -82 0
-1674 -1907 0
1555 -63 -1905 0
1063 -1679 -998 -1981 0
-369 -1284 -482 -852 0
584 -861 -430 0
261 -540 0
526 -1371 -170 -1404 0
873 -117 0
867 -1886 0
994 -596 0
716 -1466 -1020 -140 0
-692 -1904 -1859 -1101 0
775 -1162 -1846 0
734 -195 -628 0
-1016 -67 0
549 -193 -1236 -86 0
675 -1256 -1433 0
563 -1593 -512 0
1442 -389 -1959 -62 0
920 -559 0
756 -1753 0
1375 -226 0
-601 -1313 -1688 -1724 0
1739 -1895 -624 0
-925 -1664 -1038 -1407 0
-34 -716 0
1334 -1981 -321 -1923 0
904 -1782 0
1851 -1009 0
1393 -1085 -1757 -1794 0
55 -432 0
1715 -1631 -1669 -661 0
1519 -428 -346 0
152 -937 0
383 -436 -872 0
-1640 -1684 -539 -1635 0
-1498 -1600 0
300 -1601 -1050 0
1025 -836 0
811 -52 -1778 -883 0
-1656 -1294 0
1253 -93 0
-1319 -1697 0
1159 -1389 -1042 0
985 -659 -957 0
211 -1847 0
1783 -1948 -623 0
592 -1277 -570 -1669 0
455 -1972 0
1980 -1004 0
129 -797 0
-1999 -1343 -857 -620 0
-97 -1584 -938 -901 0
1694 -476 0
-599 -319 -1661 -1296 0
1337 -1635 -882 -1750 0
-933 -853 -1610 0
-47 -25 -1465 0
1702 -378 -547 0
1356 -1570 -272 -1911 0
1548 -1785 -1475 0
1104 -1722 0
1517 -384 -151 -579 0
-492 -1068 -1301 0
272 -1459 0
246 -1875 -1202 -1427 0
1803 -1706 -1997 -1513 0
526 -1253 0
-1521 -548 -1309 0
-1124 -1535 0
267 -1163 -1744 -535 0
-1324 -17 0
1259 -47 0
-910 -342 -1355 0
659 -109 -1427 0
866 -1211 -1021 -1684 0
589 -780 -1088 -67 0
-1523 -1489 -1742 0
313 -966 0
-1227 -134 0
1597 -1876 0
1216 -480 -667 0
-1930 -82 -1647 0
223 -1491 0
1758 -1362 -1118 -1958 0
1304 -1452 0
211 -541 0
-1858 -900 0
496 -604 0
894 -687 -172 -340 0
982 -797 -1496 0
1181 -702 -1306 -1755 0
612 -72 -769 0
1012 -78 0
290 -1586 0
1935 -454 -1153 -1473 0
1846 -1956 -737 -270 0
1020 -529 -1593 -1634 0
1697 -235 -641 -650 0
1202 -1736 0
-1460 -293 -492 -894 0
1832 -1951 -148 0
-1102 -727 0
1422 -361 -405 0
1699 -1129 -1744 0
1064 -563 -1447 0
-1218 -992 -165 0
1871 -411 0
547 -1703 0
1143 -1123 0
428 -534 -1873 0
705 -222 -437 -629 0
-1235 -1280 -322 -718 0
759 -1129 -651 -1002 0
-711 -1775 0
1897 -613 -459 0
1141 -1688 0
125 -44 -267 -639 0
35 -931 0
1434 -39 0
911 -1204 -192 -1212 0
158 -1995 -1369 -326 0
-1970 -353 0
854 -1476 -361 0
1057 -805 0
-142 -734 -185 0
26 -500 -217 0
1940 -1811 -796 -1362 0
393 -1156 -862 -1725 0
-1418 -1542 -578 -401 0
504 -1857 -640 0
1246 -1882 -473 -418 0
206 -1170 -1829 0
1057 -1688 0
1641 -1884 0
797 -1862 -1692 -1017 0
-949 -227 0
718 -694 -1961 0
208 -185 -1997 -298 0
301 -1932 -1292 0
-1918 -716 0
-1391 -670 -1995 -1830 0
1737 -1383 -121 -793 0
971 -1987 0
-1960 -1385 0
548 -1286 -1414 0
716 -1172 -842 -874 0
1531 -1382 0
-1191 -1098 -408 -1731 0
1817 -1876 -654 -1424 0
1359 -1765 -1755 -138 0
912 -1648 -306 0
539 -1556 0
-1255 -341 -1577 0
-1661 -1223 -1982 -51 0
-1933 -1800 -779 -403 0
1097 -744 -803 -1903 0
188 -624 -578 -270 0
1369 -127 0
-787 -1033 0
-901 -773 -89 0
1139 -147 -427 -1071 0
-234 -659 -1585 -1021 0
159 -1669 -1154 0
1744 -112 0
264 -1558 0
23 -1363 0
-817 -572 0
-1009 -1624 -1163 0
-231 -1877 -1629 -678 0
1289 -1228 0
1760 -1860 -1636 -1963 0
165 -632 0
-372 -208 -637 -1091 0
1294 -1761 -1562 0
294 -828 -1049 -1756 0
574 -993 -1930 0
213 -2 -1024 -1806 0
1418 -1308 0
1199 -288 -1093 0
751 -742 -359 0
847 -778 -83 0
-1314 -713 -793 0
-1221 -1521 -881 0
621 -209 0
725 -1612 0
1745 -247 0
1583 -536 0
289 -196 -1184 0
456 -1233 0
-1499 -1789 -1696 0
-150 -1479 -456 0
593 -830 -356 0
-258 -482 0
786 -583 -855 -1339 0
1452 -918 0
244 -124 -74 0
-556 -1192 -1933 0
1019 -1118 0
-1140 -313 -316 -713 0
-1468 -1634 -482 -342 0
1904 -119 -108 0
476 -528 -583 0
1985 -170 -1508 0
229 -765 -1526 -1320 0
1009 -1784 -1418 0
-278 -1796 -59 -941 0
-1678 -719 -304 -1634 0
-1920 -721 0
1113 -1925 -905 -1775 0
1112 -1183 -657 0
887 -1373 -740 -728 0
1047 -633 0
479 -731 -1005 -1925 0
-762 -954 -661 -945 0
-1729 -62 0
1374 -721 0
1673 -1569 0
-276 -1673 -1300 0
1970 -1633 0
-1691 -609 -1560 0
1394 -264 -370 0
125 -244 0
-1023 -826 -816 0
372 -190 0
-1244 -907 -1893 -928 0
-353 -1482 -500 -1052 0
1777 -1000 -1486 0
1831 -1668 -67 0
1252 -1007 -54 -1450 0
1936 -1676 0
1547 -1028 -863 0
1757 -1876 0
-1499 -284 0
-694 -1588 -548 -722 0
551 -1240 0
-416 -178 -1080 -1952 0
482 -458 -1226 0
531 -1599 0
650 -1176 0
-1444 -810 -863 0
207 -514 0
547 -555 0
1200 -531 -1514 -124 0
260 -1191 -1480 -413 0
1778 -10 -1844 -943 0
1739 -596 -653 0
764 -1624 -145 0
-230 -727 0
811 -1472 -1948 0
770 -426 -606 -1504 0
-339 -1651 0
1197 -456 -605 -49 0
1798 -80 -965 0
1360 -1332 -190 -74 0
386 -1117 -1635 -1219 0
403 -550 -1401 0
-281 -1478 -150 0
739 -1202 -306 0
-1943 -280 -219 -1265 0
718 -396 -816 0
640 -1927 0
1479 -290 -43 0
217 -927 -1885 -1292 0
1356 -1265 -1544 -808 0
858 -1012 -1421 0
417 -1258 -959 0
-1952 -1352 -636 0
995 -1256 -346 0
-1370 -290 -608 0
336 -1918 -951 -451 0
71 -593 0
454 -456 -1401 0
253 -1937 -1021 -599 0
643 -1064 0
712 -194 0
627 -1805 0
-1492 -134 -1898 -557 0
-985 -1278 -469 -34 0
-1466 -298 0
462 -1272 -778 0
-1407 -756 -1484 -612 0
-1345 -782 -884 0
280 -1288 -669 0
1405 -285 -1567 0
-996 -1505 -304 0
-1629 -1180 -1772 -611 0
1761 -797 0
926 -570 -1 -228 0
1580 -1682 0
848 -739 -895 -1913 0
-677 -23 0
-1887 -217 -118 -129 0
1675 -601 -1581 -1642 0
514 -601 -1211 -1843 0
-1630 -367 -956 0
-1421 -447 -749 -610 0
601 -1113 -604 -1507 0
-302 -551 -1373 0
396 -357 0
36 -1368 -1812 0
-40 -203 0
1328 -1902 -1504 0
792 -3 0
-369 -1108 0
-196 -184 -551 -41 0
330 -685 0
1373 -1 0
686 -1882 -727 -689 0
108 -1559 -971 -260 0
485 -1679 0
-1564 -406 -1303 0
-105 -1736 -1666 -496 0
1582 -403 -558 -1083 0
1766 -268 -588 0
1412 -431 0
936 -181 -1535 -277 0
-1993 -863 -731 0
1512 -1355 -50 -407 0
-919 -697 -172 0
969 -1205 0
1665 -427 0
-54 -519 -39 0
1057 -156 -485 0
1926 -1889 -339 0
1053 -1864 -164 -1590 0
1377 -1682 -1893 0
94 -10 -1857 0
796 -1625 0
1902 -539 -769 0
108 -556 -1064 0
-292 -1461 -819 0
1442 -1925 -1930 0
231 -568 0
-1673 -106 0
1244 -1973 0
-1793 -1426 0
1210 -1332 -1037 -1912 0
-407 -1906 0
-1151 -1932 0
-1270 -869 -1639 0
626 -1836 -1731 0
512 -1040 -1143 0
-1606 -1883 0
291 -991 -7 0
585 -79 0
17 -947 -1277 -193 0
-1487 -1886 -853 -1669 0
627 -1052 -420 -520 0
1120 -608 -371 0
-558 -318 0
-490 -1094 -211 -1009 0
75 -911 0
-639 -836 -170 0
1920 -1077 0
1103 -442 -896 -902 0
1758 -1722 0
920 -1685 0
1090 -732 -48 0
1157 -1391 -320 0
528 -1887 -1999 0
576 -638 -657 -511 0
-615 -1608 -118 -1762 0
-328 -1752 -1385 -1704 0
1827 -161 -639 0
-1487 -1500 0
433 -468 0
-411 -993 0
370 -415 -1286 0
-1961 -1078 0
565 -1088 0
1289 -1657 -761 0
1192 -1846 -1170 -995 0
794 -36 -692 -1658 0
174 -727 0
-360 -1154 0
1927 -1874 -668 -149 0
-1553 -342 -1973 0
840 -930 0
31 -1262 -1249 -1014 0
1930 -317 -284 -463 0
1801 -950 -815 0
778 -803 0
-1066 -1996 -136 0
1056 -347 0
910 -396 0
429 -27 0
1188 -1122 -881 -1287 0
565 -749 -606 -644 0
-31 -223 -518 0
1229 -1518 0
-1425 -654 0
-574 -1339 -613 -1261 0
1465 -1759 -1050 -1665 0
132 -984 0
-903 -1992 -24 -1661 0
833 -1305 -415 -1391 0
632 -1515 -213 0
95 -1839 0
-138 -1225 -1165 0
-1455 -375 0
1545 -1238 -169 -1091 0
1815 -166 0
-474 -1597 0
530 -1266 -1809 -737 0
710 -706 -434 0
97 -1832 -1134 0
1493 -468 -886 0
-1470 -1069 -823 0
1073 -1299 -1716 0
-783 -606 0
-1915 -992 0
806 -122 -260 0
1002 -415 -1856 0
-1867 -1749 0
436 -107 -122 -1337 0
849 -33 -1979 -1297 0
951 -353 -1993 -369 0
-545 -135 0
26 -1299 -10 0
-582 -1241 0
83 -630 -1709 -1678 0
-724 -894 0
1123 -1966 -1558 -574 0
1847 -1543 0
-687 -887 0
-1207 -1343 -1472 0
-74 -864 -413 -832 0
496 -342 0
286 -1844 -1272 -1250 0
1950 -1403 -261 -1688 0
1751 -493 0
1609 -900 0
295 -509 -727 0
658 -1446 -1849 -1434 0
59 -424 -300 0
1992 -1395 -601 -1512 0
367 -354 0
722 -867 -1577 -953 0
876 -409 -1970 0
231 -308 0
110 -223 -1914 -198 0
1274 -824 -1909 -1171 0
323 -664 -1821 -1870 0
1340 -1508 -90 -586 0
1202 -1494 -1252 -1176 0
1157 -1247 -1859 -86 0
-1797 -1306 -609 0
13 -845 0
575 -1400 0
-1274 -1728 -748 -335 0
1291 -681 -1125 0
-1816 -442 -1568 0
1007 -561 0
1081 -571 -324 -1002 0
1999 -1343 -1540 -1330 0
1534 -152 0
-1881 -1464 -1266 -792 0
1798 -598 -1140 0
1483 -1836 0
1431 -1132 -478 -1439 0
746 -583 0
1728 -638 -392 -1317 0
1906 -1958 -1694 0
-1394 -306 0
-1613 -713 0
-1215 -1114 -616 0
382 -421 -814 0
-1080 -1129 0
1047 -1521 -696 0
1786 -820 0
473 -308 0
649 -1593 0
223 -1693 -813 0
-1082 -665 0
3 -1852 -1654 0
-1805 -1737 -528 -18 0
-1331 -1886 0
-1745 -1316 -1301 0
1273 -564 0
788 -965 -1787 -1717 0
-697 -1287 -711 0
1783 -628 -395 -1794 0
-780 -1790 -1032 0
-150 -1052 0
84 -1957 -1117 -766 0
1964 -822 -1924 0
1857 -757 -1519 0
137 -1050 -667 -1588 0
390 -1315 0
1257 -1161 0
-182 -731 -696 0
1583 -1709 -1094 -8 0
73 -745 -102 0
321 -1530 0
-1418 -1724 -1530 0
24 -942 -799 0
1365 -1996 -1214 -1596 0
-337 -121 -843 -1991 0
577 -1548 0
-55 -769 -1411 -209 0
987 -1989 0
1057 -579 0
845 -1451 -1471 0
-1787 -677 -48 0
383 -1887 -1531 -1624 0
-660 -717 0
-1646 -1738 -1253 -230 0
-1487 -1618 -25 -1489 0
1326 -576 -1386 -1617 0
1289 -410 -481 0
-302 -1364 -157 0
-1525 -1623 -903 -1228 0
1517 -100 0
-512 -1843 0
398 -267 0
-1487 -611 -765 0
251 -531 0
-968 -1463 -409 -418 0
596 -885 0
-1807 -405 -254 -1364 0
-545 -1291 -909 0
1848 -649 -1303 -1328 0
1294 -889 -247 -1409 0
1182 -1888 0
-1626 -966 -363 -1318 0
1899 -816 -619 -688 0
1533 -3 -1638 0
2000 -1904 -1764 0
321 -44 -1839 0
-314 -9 -179 -104 0
615 -775 0
361 -1610 0
1873 -1286 -1264 0
-674 -237 0
861 -1250 0
225 -1681 -1159 -1093 0
34 -1352 -1897 0
45 -11 -815 -1193 0
868 -280 0
-498 -929 -1261 -732 0
1100 -1793 0
-472 -1573 -1163 0
152 -1229 -1886 -1775 0
1059 -738 -210 0
-324 -1301 -230 0
-1978 -72 0
-157 -920 -1125 0
-496 -606 -656 0
132 -1331 0
-1634 -1343 0
1636 -1024 -1375 -1247 0
-269 -1537 -1054 0
579 -629 -699 0
1458 -228 0
119 -1086 0
527 -788 -1779 -498 0
-1988 -1174 -1068 0
331 -1831 -14 -879 0
308 -1146 -1759 0
1754 -277 0
-1457 -68 0
538 -1382 0
831 -1162 0
-1534 -1610 -1686 -1302 0
-374 -1403 -1368 -1878 0
276 -1369 -794 -1545 0
1405 -1838 -671 -12 0
1324 -1529 0
153 -187 -1157 -864 0
487 -1525 -519 0
1129 -259 -1711 -1423 0
1474 -882 -911 0
820 -262 -1440 -641 0
-554 -1619 -801 -1871 0
555 -534 0
1277 -603 0
-1171 -1771 -826 -1717 0
-1827 -1649 0
-1291 -1442 -575 0
866 -584 0
751 -1491 0
-1589 -1797 -1336 -1133 0
-212 -1258 -311 -235 0
-690 -196 -125 0
313 -1170 0
879 -828 -871 0
-1291 -485 -592 0
470 -822 0
411 -1927 0
1970 -286 -1879 -1871 0
1470 -78 -1641 -1553 0
-717 -1493 -881 0
1768 -1918 -1599 0
537 -781 -777 0
-1581 -681 0
1270 -1330 -738 0
1982 -332 -1954 -1263 0
349 -1437 -564 0
-665 -777 0
1463 -1453 0
-1571 -353 -170 0
-1165 -179 -1259 -1826 0
-222 -453 -214 -1905 0
88 -1186 -307 0
504 -781 -1385 0
1158 -536 -519 -265 0
1185 -160 0
317 -367 0
-1526 -1290 0
1881 -1975 0
639 -293 -920 -1674 0
1010 -349 -239 0
517 -833 -986 -370 0
1103 -1141 0
-1326 -1784 -506 -949 0
-1995 -385 -1291 0
919 -276 -1039 0
-57 -1341 -1736 -1713 0
1246 -684 -751 0
567 -1814 -625 0
-1682 -1178 0
43 -1973 -492 0
-309 -576 -532 -49 0
1005 -146 0
106 -479 -982 -1672 0
1428 -1554 0
-200 -654 -1229 0
1460 -1267 -1860 -751 0
-1030 -288 -1830 0
-794 -630 0
136 -1370 0
-305 -1623 0
-1533 -693 0
1969 -1637 -1033 -765 0
-895 -1441 0
-732 -601 0
1767 -1325 0
1647 -1491 -698 -1143 0
434 -1066 -1452 -582 0
284 -1551 -1254 -1686 0
-354 -137 -496 0
730 -1397 -1739 0
-1251 -1765 0
1359 -736 -941 0
1045 -1702 -804 -956 0
486 -162 -1272 0
479 -1584 -1529 -1864 0
-290 -208 -1325 -331 0
1053 -613 -1361 -575 0
897 -1368 -1346 -1017 0
-1024 -401 -131 0
-314 -1117 0
174 -653 -23 0
149 -595 0
852 -355 -851 -743 0
1593 -881 -74 -593 0
-252 -665 -1175 -1678 0
-1933 -1453 0
646 -1088 -325 0
-38 -1063 -15 0
1098 -1917 -239 0
755 -903 0
692 -807 -1988 0
-1963 -1375 -1797 -199 0
139 -554 -1638 -456 0
834 -1081 -1870 0
719 -414 -576 -10 0
-64 -1514 0
472 -1562 0
217 -1046 -1474 0
-1687 -548 0
-1391 -681 0
1717 -294 0
243 -1902 -934 -1296 0
261 -1154 -160 0
932 -123 -73 -1681 0
520 -1733 0
1715 -763 -81 -1956 0
-247 -1655 0
1464 -1616 -142 0
-984 -1725 -1941 0
6 -2 -1622 0
149 -1176 0
-1898 -475 -742 0
-502 -1422 -1788 -1483 0
-933 -1038 -1454 0
1006 -1786 -1646 -888 0
-1613 -1622 -1373 -305 0
827 -847 -1221 0
1976 -382 -292 0
299 -349 -1538 0
273 -757 -912 0
-1649 -1170 0
1256 -611 -1618 -368 0
-686 -931 0
1983 -668 -35 0
587 -746 0
1817 -1203 0
204 -1152 0
1272 -1919 -329 -255 0
1409 -567 -1775 -1084 0
1910 -1245 -361 0
-180 -260 0
878 -1436 0
926 -128 -1202 0
1090 -164 -1198 -1840 0
1459 -1348 0
986 -1111 0
749 -1306 -162 0
1453 -1773 0
30 -39 0
1974 -184 -978 -1718 0
1021 -404 0
1422 -1671 -1584 -698 0
1794 -492 -621 0
264 -707 0
990 -100 -787 0
490 -713 0
-128 -1117 -617 -1347 0
1871 -675 0
1132 -343 -1304 0
1989 -1747 0
-768 -1338 -1553 0
-1535 -566 -625 0
-1268 -1532 -1919 -326 0
472 -1381 -265 0
990 -77 0
1228 -688 -1983 0
-1092 -1396 -1965 0
620 -1707 -1931 -1419 0
1742 -1345 -332 0
-730 -816 -279 0
972 -915 0
47 -1122 -768 -1040 0
395 -1554 -1559 0
396 -767 -1911 -977 0
-200 -353 0
924 -200 -159 -336 0
631 -141 -1565 -807 0
262 -272 0
1529 -265 -1452 -946 0
1496 -1196 -1002 -1978 0
1147 -883 -37 0
1115 -1798 0
416 -99 0
-1467 -1200 -1252 0
-812 -1694 -163 -1651 0
421 -1043 -1277 0
1624 -1857 -588 0
163 -1059 -1850 -1525 0
1275 -1252 0
104 -339 -1488 0
-658 -743 -1699 -1315 0
249 -91 0
1872 -1171 -1374 -1262 0
1366 -1588 -262 0
1781 -1289 -79 -1601 0
1334 -872 -445 -693 0
-1538 -391 -1505 -40 0
-1949 -1928 -513 0
-757 -220 -1840 -1908 0
1725 -1763 -521 -1888 0
109 -1939 -1131 -1773 0
144 -1676 -516 -676 0
901 -1229 -390 -1080 0
1930 -1249 -718 0
176 -107 -1608 0
976 -855 -758 0
38 -2 -99 -175 0
-1960 -603 -1894 0
407 -371 -1469 0
1662 -1339 -420 0
-1785 -1076 -614 -1065 0
1832 -1967 -746 0
1434 -378 -1809 -886 0
1959 -1011 -1118 -996 0
-1469 -645 0
1964 -1609 -433 0
1545 -895 -984 -1055 0
-224 -1898 -1042 -1135 0
1871 -1946 -1594 -413 0
1821 -268 -1989 0
-1173 -987 -1860 -927 0
176 -957 0
800 -1919 -1613 0
1660 -1746 -752 0
1925 -1918 -330 0
1987 -1687 -458 0
340 -284 0
1401 -1697 -430 -1796 0
462 -1620 -1790 0
1159 -1827 -125 0
676 -175 0
1966 -1868 -1803 -215 0
530 -902 -905 -1074 0
-155 -751 -1112 -1533 0
954 -729 -1364 0
1 -1654 -622 0
897 -562 -1595 -1466 0
1650 -1677 0
1827 -1159 0
1060 -599 0
1025 -1708 -1709 -384 0
921 -1818 -1468 0
-370 -135 -1069 0
331 -671 -731 -759 0
-1984 -792 -1152 -1764 0
537 -1786 -1983 0
938 -1904 0
1819 -1488 -861 0
1940 -93 -889 0
749 -1865 -738 -440 0
1981 -1154 -140 0
-810 -1655 -1240 -1959 0
1702 -80 -1862 0
613 -329 -292 -1833 0
1764 -972 -1566 -1486 0
-586 -136 0
931 -170 -623 -474 0
-44 -113 -483 0
139 -1331 0
1853 -1844 -649 -51 0
884 -1882 -753 -560 0
1863 -107 -1768 -452 0
1361 -410 -1280 -1572 0
510 -1963 -888 0
702 -420 -1379 -1110 0
704 -1975 0
1225 -810 0
1574 -1503 -1648 0
518 -818 -1920 0
1143 -961 -289 0
-1741 -1404 -583 0
-757 -218 -414 0
1754 -1182 0
1204 -532 -1899 0
1133 -1953 -998 0
120 -1477 0
-1832 -158 -347 0
1010 -1768 -1103 -981 0
2000 -1611 -973 -1703 0
-389 -1778 -1366 -1942 0
1724 -1912 0
64 -1519 -796 0
-355 -1864 -732 0
-1292 -421 -1318 -557 0
589 -567 -1480 0
133 -1175 -505 -1696 0
-1121 -270 0
-617 -831 -263 -1042 0
-1686 -1477 -1816 0
1025 -130 0
-1007 -1593 -1376 0
560 -874 -1674 0
-1430 -889 -1439 0
-244 -1587 -1110 0
843 -719 -757 0
350 -267 -1703 -1816 0
504 -580 0
1202 -627 -1822 -947 0
1347 -205 0
932 -95 -1590 -1633 0
1265 -297 0
-932 -1441 -545 0
852 -1574 0
-1891 -333 -214 -101 0
281 -252 -1028 -1578 0
1774 -1170 -916 0
639 -1422 -851 0
-1974 -1661 -752 0
1983 -413 -141 -166 0
954 -956 -1739 -1902 0
295 -1702 0
300 -208 -756 0
-917 -546 -238 -1189 0
1702 -414 -1846 0
1622 -1196 0
841 -1883 -1493 0
258 -150 -1068 0
-1209 -1417 -55 0
2 -158 -1044 0
135 -298 -1207 -1526 0
1608 -1741 -400 0
-1891 -162 -191 0
-163 -653 -544 -1667 0
745 -1543 0
578 -605 -1290 -1932 0
738 -1955 0
971 -76 0
667 -1096 0
269 -1833 -1974 0
2000 -1035 -1603 -1921 0
1507 -1105 0
-1540 -693 -1594 -990 0
802 -966 0
1073 -54 0
1833 -1073 0
192 -484 0
-1493 -972 -1727 -555 0
1128 -1190 -1886 0
69 -695 -170 -1946 0
641 -1526 0
1966 -747 -1590 0
225 -1888 -1509 -808 0
1595 -879 -460 -1483 0
1594 -1116 -925 -1671 0
-1739 -595 -1107 -1129 0
-290 -332 0
1464 -1684 -1621 0
1883 -285 -474 0
164 -202 -178 -828 0
180 -403 -1996 -1964 0
-104 -1157 0
-489 -1660 0
-1044 -883 -13 -1749 0
808 -1664 -1366 0
1911 -1863 -852 -1764 0
134 -1897 0
822 -510 -162 0
1100 -792 0
1575 -901 -1520 0
852 -747 -144 0
124 -1905 -1783 -1679 0
-90 -188 -258 0
-805 -500 -330 0
1630 -1972 0
147 -1282 0
286 -748 -805 0
1223 -129 -1529 -1556 0
934 -912 -851 0
1181 -1572 0
1033 -1243 -521 0
1811 -862 -1772 -1037 0
-508 -43 -844 -502 0
-818 -1888 -783 -285 0
-1820 -1969 0
1543 -575 -1165 0
1834 -1013 -1269 -933 0
-1639 -1248 0
-600 -1755 -1302 0
1989 -1339 -899 0
1746 -532 0
1015 -1235 -1981 0
1856 -211 -976 -1503 0
-643 -329 -68 0
1303 -620 -623 0
1394 -9 -1373 -819 0
667 -1887 -369 -1682 0
1147 -1895 0
1233 -824 0
1681 -935 -1841 -597 0
1527 -1899 -652 0
1359 -1407 -1382 0
-1013 -1705 -1136 0
1068 -232 -984 0
745 -1821 0
1481 -563 -1665 -1875 0
759 -1981 0
-1246 -1378 -1790 -565 0
100 -748 0
-934 -1947 -607 0
-263 -91 -1309 0
398 -591 0
-1859 -1984 -1962 0
1722 -657 -1031 -1068 0
-461 -1030 -1319 0
1882 -124 0
807 -686 0
-625 -1175 0
-441 -998 -740 -1576 0
47 -1876 0
-798 -1018 -1404 0
-635 -1590 -183 -1865 0
-1102 -33 -1018 -1412 0
294 -924 0
-909 -924 -1308 0
-496 -1453 -416 -259 0
-1575 -1574 -580 0
525 -248 -1890 -1482 0
1132 -1407 -735 0
1907 -204 0
972 -565 -609 0
1707 -959 -1367 0
1927 -1568 0
-754 -1747 -187 -649 0
1996 -1940 -494 -1327 0
-128 -118 -101 -226 0
1752 -411 -253 -177 0
-1252 -529 -1309 -1397 0
-633 -113 -1822 -1032 0
799 -886 -396 0
933 -18 -1507 -533 0
1376 -593 -1610 -1932 0
860 -608 -438 0
14 -1832 -815 0
832 -1050 -1918 -157 0
-206 -660 -129 -589 0
1314 -307 0
1280 -1566 -647 0
-679 -1778 0
354 -1147 -981 0
977 -610 -1626 -132 0
1615 -1609 -701 -1262 0
982 -1631 -1268 0
1360 -1866 0
387 -1175 -1293 -1785 0
198 -1626 -937 -665 0
717 -1745 0
1061 -1149 0
217 -1240 0
-1643 -665 -946 0
1504 -1250 0
354 -367 -1225 0
1329 -152 -1251 0
590 -1366 -119 0
-290 -921 0
100 -1755 0
-689 -1064 -1822 -1577 0
997 -242 -1943 -1447 0
1861 -497 -182 0
482 -1015 -665 0
-338 -1529 0
313 -1740 -1312 -1823 0
1788 -753 -442 0
890 -807 0
-1224 -449 0
1861 -1960 -1145 0
156 -686 -673 -1804 0
1065 -1230 -1728 0
-430 -1674 0
353 -1287 -913 -56 0
-1926 -1596 -1613 -1782 0
867 -1401 -1426 -1309 0
1166 -833 -622 0
-270 -252 -183 -1225 0
-1713 -1241 -1956 0
909 -378 -30 0
-1799 -1240 -774 0
1212 -1280 -518 0
694 -467 -667 -1457 0
1305 -932 -1250 0
-152 -1233 -1487 0
1228 -1615 -2000 0
1523 -663 -1934 -117 0
145 -711 -1590 0
400 -1859 0
798 -905 -683 -20 0
1946 -1970 0
347 -1442 -547 -989 0
-296 -378 -1399 -1659 0
-1063 -1385 -1528 0
1577 -1626 -67 0
480 -1811 -894 0
-1052 -379 -713 -1152 0
1026 -1270 -849 0
1669 -207 0
1577 -656 0
1831 -650 -1321 -1906 0
695 -284 -1492 -477 0
1619 -83 -1132 -380 0
563 -636 -62 -319 0
1809 -1454 -1412 0
713 -1774 -942 0
-1986 -2 -1959 -1669 0
590 -1756 0
1715 -1317 0
1216 -1224 -1704 0
1813 -1079 -1906 0
1879 -136 -1656 -1510 0
1560 -937 -1227 -1134 0
-499 -760 -1592 -1525 0
-994 -1183 -248 -1281 0
642 -1182 -1725 -1708 0
1779 -263 -872 0
1637 -142 0
-49 -1397 -247 0
708 -208 -1478 0
305 -118 -251 0
1236 -978 0
492 -1872 -258 -450 0
215 -915 0
-1952 -773 0
1229 -1495 -1751 -609 0
1691 -1656 -395 -832 0
1270 -1757 -900 0
1557 -545 -1468 -1372 0
1966 -17 -1202 0
184 -938 0
-496 -202 0
368 -1497 -1487 0
-1079 -645 0
-285 -1970 0
803 -942 -309 0
1118 -1358 -1765 0
279 -592 -1758 -424 0
-102 -610 -1502 -900 0
1107 -693 -756 0
-1688 -1019 -309 0
1931 -153 -1697 -213 0
551 -1791 -1027 0
-1572 -1164 -1449 0
-872 -991 -1003 0
1639 -1611 0
-1658 -1911 -1724 0
266 -1708 -194 -1905 0
1209 -968 -1622 -234 0
-1162 -1449 0
-1534 -141 -1931 -611 0
1101 -1137 0
-1909 -774 0
1604 -607 -1417 0
1506 -334 0
-292 -1810 -1995 0
1121 -154 -1082 -1342 0
1313 -360 -1044 0
453 -173 -1614 -1587 0
1645 -1448 -1778 -1168 0
-926 -895 -523 0
-782 -269 -179 0
487 -573 -31 -1602 0
-1968 -795 -76 -1229 0
855 -1482 0
1702 -1693 0
881 -871 -827 -406 0
1794 -1041 -263 0
-146 -1180 -1765 -1334 0
568 -1917 0
-1355 -1865 -664 -859 0
982 -1939 0
-340 -1526 -838 -1448 0
1330 -82 0
814 -183 -819 0
1524 -245 0
1672 -1226 -125 0
-1425 -713 0
1190 -60 0
657 -1369 -89 0
125 -1516 -1483 -402 0
976 -512 -934 -457 0
196 -1116 -15 0
322 -1166 0
-83 -1013 0
1651 -109 -1896 0
99 -1656 0
-1980 -1712 -1555 0
684 -1722 -1282 -1991 0
92 -864 -1746 0
1687 -655 -1808 -1397 0
414 -1158 0
-1866 -1961 -790 -1832 0
-90 -436 0
708 -199 -1113 0
-50 -1520 -894 0
436 -936 -1155 -964 0
465 -1878 -1612 -69 0
217 -1840 -1348 0
1090 -1472 0
327 -977 -1086 0
-1829 -1465 0
-623 -239 0
564 -1299 0
1286 -779 -1629 -1698 0
1612 -1610 0
-1547 -208 0
482 -1413 0
281 -580 0
1968 -1748 0
673 -1573 -831 0
552 -363 -782 -630 0
-1975 -860 0
116 -845 -1594 -1769 0
213 -687 -393 -1671 0
557 -531 0
724 -938 -674 0
1585 -826 -823 0
705 -1751 -1000 -1630 0
-1606 -536 -456 0
-892 -880 -981 -1703 0
178 -1746 -73 -1059 0
-1448 -1221 -1922 -635 0
931 -323 -432 0
1191 -1883 -160 -1171 0
-181 -10 0
898 -412 0
1869 -1504 -1332 -1299 0
674 -1315 -296 -1178 0
835 -1900 0
145 -1425 0
527 -1792 -1768 0
609 -19 -1953 -846 0
-1120 -525 -1786 -592 0
-1543 -86 -291 -1401 0
-1101 -464 0
-963 -142 -1698 -187 0
537 -173 -418 -402 0
-1649 -1909 -395 -722 0
-692 -175 0
1275 -954 0
1642 -1609 -1100 0
-619 -491 -1084 -1094 0
-638 -211 0
703 -963 -1031 0
615 -42 -525 -1133 0
-494 -213 -749 0
1301 -1806 -1873 -1371 0
1604 -237 -752 0
1151 -474 0
567 -1257 -1433 -703 0
916 -1118 -575 0
659 -1759 -1848 -1158 0
-952 -1076 -1709 -1303 0
1436 -1292 -1957 0
294 -280 0
1060 -1973 -149 -549 0
438 -850 -882 0
-1172 -684 -51 -591 0
1844 -484 -975 0
902 -1393 -1062 0
215 -1029 0
792 -33 -1312 0
276 -1423 0
215 -999 -649 0
1792 -550 -667 -1056 0
-1321 -189 0
1486 -1804 -497 -146 0
-224 -1828 0
1770 -96 -758 -445 0
567 -1993 -306 0
-1698 -1827 0
1602 -508 -1703 0
-490 -871 -1428 -864 0
-585 -1138 0
218 -225 0
1361 -1814 0
778 -293 -532 0
1909 -1275 0
190 -1286 -545 -585 0
-547 -813 -905 -710 0
119 -1226 -574 0
1349 -654 0
583 -789 0
1629 -1024 -1002 0
1662 -112 -516 0
-894 -1817 -293 -63 0
1278 -723 -724 0
617 -1798 0
1520 -509 -1379 0
-1723 -694 0
1108 -1715 -1240 0
-920 -142 -1902 0
1813 -1528 -65 -1377 0
-643 -194 -801 -58 0
1573 -711 -474 0
-1913 -978 0
973 -1483 -1907 0
1915 -565 -1790 0
-438 -966 -1660 0
1600 -161 0
1882 -60 -285 0
1898 -1258 0
1411 -1833 0
272 -1835 0
670 -1005 -928 0
1374 -1146 -719 -287 0
1328 -1100 -864 -1631 0
1206 -382 0
242 -87 -1684 -975 0
575 -555 -253 0
606 -341 0
28 -780 -318 0
-448 -430 0
-97 -1643 -1724 -362 0
744 -563 -1604 0
-26 -1650 -589 -1808 0
1217 -368 -1759 0
1244 -1622 -1335 -1791 0
-297 -1992 0
1989 -1218 -745 -1640 0
-593 -675 -1351 -507 0
-998 -3 -1673 -191 0
321 -1468 -1506 -1979 0
1934 -904 -1858 0
1831 -1266 0
344 -1310 0
447 -897 0
250 -1281 -228 -1007 0
-1312 -718 -1192 -1324 0
-955 -502 0
1074 -68 0
-1036 -757 0
729 -1501 -1469 -581 0
1776 -1414 0
435 -301 0
1486 -1186 -1156 -364 0
942 -545 0
1142 -1451 -1611 -1082 0
-305 -1149 -513 0
1518 -394 -90 0
-667 -588 -710 -1543 0
1412 -25 -893 -1719 0
1308 -1821 0
340 -131 -823 -519 0
211 -201 -259 0
-198 -585 -1632 -750 0
58 -925 -1672 0
741 -185 -1619 -156 0
1481 -99 -1123 0
-352 -201 -1329 0
587 -1859 -1206 -1190 0
1155 -584 0
1550 -615 -1252 -617 0
1982 -1971 -1339 -1266 0
-1496 -1956 -1296 -670 0
-589 -183 -1381 -1648 0
-991 -376 0
-551 -752 -846 0
1746 -1895 0
1892 -137 0
1237 -1618 -890 -558 0
1999 -1868 0
1510 -1608 -540 -875 0
-251 -902 0
-1001 -1903 0
1441 -616 0
-1069 -608 -878 -1530 0
1864 -840 -425 0
856 -1512 0
-1097 -370 0
1393 -953 0
-1769 -329 0
787 -982 0
596 -1271 -1851 -1194 0
-191 -681 0
-8 -894 -112 0
-1497 -584 -1282 0
-1307 -1265 -268 -452 0
-927 -1407 -1219 0
-1182 -1168 0
507 -286 0
1752 -502 0
1722 -453 -675 -1108 0
-1720 -606 -1136 0
1675 -1107 -1047 -1699 0
509 -1954 0
884 -316 0
1983 -1008 0
1979 -273 -1675 0
1945 -648 -478 0
980 -649 -903 0
1507 -1916 -1366 0
1787 -464 0
-1315 -651 0
1069 -1718 0
687 -1455 -1345 -1931 0
814 -1607 -1391 -922 0
-1523 -186 -1516 0
216 -1357 0
77 -883 0
1072 -1278 -38 0
-504 -1091 0
1948 -345 0
8 -1682 0
436 -594 -1463 -1853 0
1018 -61 0
703 -951 -778 -1662 0
-1070 -1123 0
-1489 -264 0
-692 -931 0
-141 -1163 -1346 0
735 -1389 -1956 0
1780 -600 0
525 -1643 0
94 -644 -769 -185 0
877 -1167 0
1104 -1837 -914 -528 0
383 -1314 0
1785 -1037 -905 -1376 0
1681 -502 -793 -1738 0
-1866 -974 0
-1658 -509 -1779 0
707 -362 -1892 0
-1422 -1264 -818 0
-1962 -1903 -1529 -1916 0
-55 -1329 0
996 -980 0
835 -1278 -1687 0
-1672 -721 -72 -1996 0
-241 -1116 -458 -725 0
-606 -453 -251 -517 0
1608 -494 -475 -1951 0
191 -1938 -1560 0
1506 -1245 0
208 -374 -214 -1503 0
1737 -711 -1605 -626 0
1547 -452 -89 0
553 -815 0
-1341 -731 0
1292 -1865 -1095 0
452 -1168 -367 -356 0
-856 -1238 -872 0
-1375 -692 -68 -1187 0
176 -1996 -49 -583 0
1113 -774 0
815 -427 -1009 -161 0
-392 -770 -51 -1034 0
123 -1446 0
1770 -574 -1781 0
1254 -1247 0
-79 -1304 0
352 -563 -1310 -1117 0
-455 -1323 -16 -1670 0
1129 -1268 -1944 -1795 0
1016 -1712 -1730 -1701 0
526 -1824 -609 0
189 -1602 0
652 -530 0
1825 -600 -1510 0
-1560 -964 0
326 -477 -1539 0
-182 -55 0
509 -1450 0
1533 -1249 -1521 0
-547 -184 -1837 0
-1202 -673 -378 -1496 0
1088 -1409 0
1783 -1047 0
1322 -1758 -1070 0
-637 -1274 0
1670 -1135 -127 -1885 0
1581 -55 -1099 0
-1124 -1129 0
-721 -11 0
1787 -1304 0
1859 -998 -1975 -127 0
-1959 -1046 -1013 0
-1201 -1401 -754 -526 0
912 -1378 -406 0
1171 -1314 -1216 -265 0
561 -75 -1925 -420 0
26 -77 -1861 0
1348 -2000 -1935 -1689 0
1776 -1347 -562 -109 0
-1325 -9 -1006 0
932 -1994 -1887 0
1419 -517 -394 -1901 0
86 -1405 0
-461 -409 -1009 0
1429 -1474 -1151 -166 0
-1211 -26 -563 0
955 -1390 -438 0
-382 -1360 0
772 -1508 0
-470 -129 0
-1047 -662 -1234 0
-1143 -1578 -217 -357 0
15 -1081 0
-862 -1957 -1844 -789 0
1108 -908 0
697 -1910 -95 -1887 0
1675 -71 -229 -1139 0
876 -277 -1537 0
502 -881 0
1245 -1914 0
1325 -1327 -576 -1361 0
1069 -1924 -1408 0
539 -1579 -1783 -57 0
-798 -359 -1515 0
1017 -42 -360 0
1096 -654 -1793 -1758 0
-1052 -33 0
1149 -563 -1457 0
1853 -1223 -1871 -1812 0
1929 -540 -635 -906 0
-1681 -462 -1704 -1236 0
-1312 -504 -909 -220 0
1607 -349 -630 0
120 -1239 -1004 0
776 -677 -129 -1883 0
-1330 -1350 -1527 -776 0
-1881 -1015 -987 0
664 -1284 -880 0
1543 -860 -601 -1720 0
1511 -1139 -940 0
1462 -1035 -810 0
1513 -1313 -1425 0
1233 -548 -1424 0
941 -1898 -583 0
909 -907 0
1645 -174 0
-1461 -245 0
-903 -747 0
-644 -1007 -1341 0
-1851 -698 -365 -2 0
50 -54 -897 0
-430 -703 0
180 -1333 0
1869 -198 -815 0
960 -1250 -259 -548 0
-1048 -1663 -1436 -2 0
975 -262 0
-1422 -308 0
1659 -355 -1609 -1733 0
1034 -747 0
391 -1903 -656 -782 0
245 -603 -1743 0
1908 -964 0
64 -1781 -861 0
218 -298 0
-1955 -1203 -1779 0
43 -1867 0
1335 -415 0
333 -978 -441 -89 0
1305 -232 -1630 -1701 0
218 -1282 -1021 0
-1611 -468 0
-382 -1850 -1544 -1739 0
444 -1245 -461 0
459 -311 -1641 0
1613 -357 -1778 -1901 0
479 -1203 -1656 -940 0
1474 -271 0
1587 -1665 -1016 -829 0
398 -1260 -1811 0
1868 -927 -1737 -1614 0
646 -1800 -1869 -1564 0
763 -383 0
1703 -1398 -562 0
1253 -1747 -559 -1406 0
678 -347 0
1575 -536 0
-1468 -1903 -2000 0
1040 -1633 -1807 0
1784 -1998 0
-1242 -1907 0
80 -917 -1087 -263 0
1657 -1312 -1761 -1030 0
-835 -1109 0
597 -1930 0
588 -714 -1262 -135 0
590 -387 -890 0
81 -1700 0
1035 -1700 -346 -1302 0
67 -1508 -282 0
-657 -488 -1929 -378 0
1936 -22 0
1192 -33 0
-454 -634 -841 0
1134 -1149 0
1581 -282 -616 0
1369 -1910 0
527 -580 -1341 0
328 -1026 0
-662 -1637 0
-102 -1039 -819 0
-1948 -1126 0
488 -1483 -1501 0
-787 -234 -1459 0
1421 -872 0
97 -743 -1317 0
1225 -1135 0
-623 -1319 -669 0
-830 -586 -485 -107 0
192 -1033 -991 0
770 -1380 -357 0
-1163 -1794 -899 0
-1412 -377 0
1305 -884 -1714 0
-894 -383 -1194 0
1945 -1504 0
307 -638 -192 0
410 -995 -111 -1797 0
216 -948 -1708 0
-569 -119 0
-69 -1893 0
183 -602 -451 -1972 0
711 -42 0
-754 -756 -1369 0
283 -1144 -1154 0
876 -1487 -523 -1482 0
-16 -992 0
1214 -1357 -1699 -1673 0
599 -792 -33 -613 0
1999 -1190 -40 -1433 0
1335 -990 -794 0
-1942 -1781 -1430 -716 0
1653 -651 -548 -1060 0
382 -690 -892 0
-175 -1289 -1449 0
-1765 -1161 -894 -1888 0
693 -1408 -836 0
1029 -143 0
-1540 -1369 -1366 -953 0
-274 -1885 0
1579 -142 -1448 0
1760 -733 0
1541 -1733 -789 0
1059 -1776 -877 0
1740 -966 -495 0
198 -1806 -150 0
1715 -410 -608 0
747 -968 -53 -1660 0
-696 -1149 -854 0
1383 -474 0
1678 -1696 -112 -1198 0
1668 -1262 0
-1230 -900 -211 -1888 0
1886 -1673 -55 0
1304 -866 0
677 -362 -1928 0
1507 -1419 0
1768 -1443 -1194 0
174 -896 -123 -1131 0
1756 -1786 0
217 -420 -361 -620 0
1531 -1439 -623 -295 0
1139 -28 -351 0
1128 -1760 -1119 -1404 0
554 -777 -98 -443 0
231 -648 -66 0
756 -1353 0
-125 -1460 -442 0
-270 -1073 -1159 -730 0
-1311 -172 -790 0
-1819 -591 0
810 -1460 -1921 0
347 -313 0
330 -1489 0
586 -1734 0
-1244 -724 -137 0
674 -1253 -1377 -1187 0
-1262 -1530 0
1303 -742 0
883 -213 0
1848 -501 -59 -1816 0
1924 -147 -1363 0
112 -215 -460 0
-1894 -1613 -1895 0
224 -55 -1165 -23 0
1776 -820 0
-385 -1807 -1627 0
-581 -224 -1192 0
634 -542 -1589 -373 0
1056 -776 -144 0
578 -712 -61 -942 0
-1890 -17 -1554 0
-930 -9 -1065 -200 0
-1068 -355 -1601 -68 0
447 -849 0
1542 -639 0
444 -1816 -1517 0
-1640 -388 -555 0
607 -820 -230 -1539 0
1563 -162 -1090 0
1235 -1527 -10 -1078 0
1905 -538 -1219 -197 0
896 -450 -543 -187 0
361 -1938 -1556 -1320 0
-666 -1874 -1119 -712 0
