c Horn formula (polynomial-time solvable)
c 2000 variables, 5000 clauses
p cnf 2000 5000
1881 -1134 -44 -667 0
601 -987 -1924 -1955 0
152 -114 -1724 0
991 -1002 -1068 0
1784 -997 -5 0
1077 -1750 0
-1400 -556 -1558 0
-589 -810 -891 0
1494 -1704 -1573 0
-1126 -940 -1488 -1701 0
1898 -1684 -53 0
694 -1995 -1961 0
268 -1185 0
1390 -1037 -616 -548 0
-186 -653 -537 -1941 0
-650 -785 -1603 0
-1727 -190 -332 0
516 -1399 0
1133 -274 -299 0
146 -1529 -1069 0
1877 -777 -1725 0
1094 -322 -1020 0
1294 -1251 -948 -1782 0
167 -1533 0
378 -773 0
1818 -704 -1885 0
250 -1682 0
751 -1583 0
1501 -1473 -345 0
-1431 -777 -491 0
-269 -58 -1863 -1341 0
645 -1902 0
1038 -1613 -1385 -746 0
862 -70 -1811 0
831 -1290 0
837 -905 -1066 0
-119 -1531 0
609 -1753 0
1626 -1535 -1068 -979 0
1183 -1207 -756 0
786 -25 0
1613 -767 -325 0
115 -1379 -404 0
1026 -732 -1757 0
1168 -13 -1275 -1589 0
784 -322 -1164 -68 0
-1368 -221 -683 0
1702 -426 -68 0
829 -1435 0
344 -1175 -864 -1910 0
891 -777 -440 -1374 0
-133 -162 0
1888 -1036 -1050 -1315 0
186 -497 0
242 -539 -708 -1539 0
914 -788 -198 0
868 -1030 -1719 -767 0
-1280 -1198 0
-1429 -1755 0
688 -1514 -1534 0
1013 -710 0
382 -1925 -1107 0
172 -102 -1222 0
1139 -1742 -465 0
-1671 -183 -496 0
328 -1886 0
1315 -888 0
-1026 -1780 -1415 0
1190 -1081 0
1294 -282 -320 0
1513 -514 0
1884 -237 -1980 0
791 -1402 -986 -1847 0
-1128 -1502 -1194 0
1646 -1558 0
888 -1405 -1862 0
1784 -9 -1474 -1692 0
388 -1412 -24 -568 0
812 -64 -1011 -1489 0
-485 -1276 -1029 -1462 0
1520 -605 -1687 0
-1128 -866 0
461 -1677 -15 0
1341 -1093 0
1771 -1079 -264 0
470 -1395 -2000 -410 0
144 -1301 0
1190 -1827 0
-1452 -870 -294 -468 0
1480 -174 -894 -1870 0
-75 -936 -1019 -1242 0
1626 -1341 -1633 -979 0
-1811 -1371 0
1223 -1230 -1424 -1271 0
-528 -1073 -629 0
1666 -821 -1742 0
1216 -601 -1432 -240 0
-937 -1805 0
1925 -705 -1165 -650 0
704 -955 0
134 -1609 -139 0
584 -1189 -77 0
891 -1493 0
1942 -484 -1873 -344 0
-1570 -1413 0
-173 -1356 -1544 -771 0
-1096 -397 -966 0
839 -1352 -1852 -753 0
1380 -630 -287 0
-1929 -1529 -118 0
1568 -1715 -601 0
-608 -1015 0
22 -959 0
1684 -1753 0
-1049 -368 -1395 -1357 0
-1845 -263 -1261 -181 0
1127 -804 -1685 -397 0
-986 -1524 -592 0
-1847 -1111 -308 -1358 0
-183 -742 -1270 -345 0
775 -1006 0
-413 -1275 0
248 -31 -1300 0
1107 -1944 0
-285 -1180 -476 0
1419 -1291 -450 0
1135 -259 0
-211 -1394 -983 -287 0
1893 -328 0
-1038 -1622 -397 0
-1119 -739 -900 0
-1062 -109 0
1777 -1927 0
430 -1797 -475 -1445 0
378 -984 -831 0
1391 -1525 -909 0
1009 -967 -1213 0
-214 -1556 -981 0
1570 -451 -524 0
854 -620 0
1304 -718 0
234 -164 0
-1100 -1562 -209 -1526 0
-461 -1425 -648 0
-1160 -1964 -1873 -81 0
-1051 -1881 0
-357 -1368 -1263 -1321 0
1139 -578 -1928 0
-473 -262 -72 0
-1013 -1950 0
-647 -1265 -387 0
1930 -428 -1753 -385 0
-1040 -1410 0
26 -1067 -926 -733 0
1372 -676 -1719 -1546 0
1447 -1964 0
362 -1828 -97 0
175 -1747 -837 -714 0
-741 -1474 -2 -1056 0
8 -810 0
-205 -1002 -1925 -1978 0
1611 -608 0
-1943 -1632 0
-1287 -740 0
-1398 -737 -309 -1076 0
326 -1907 -1500 0
-1168 -1910 0
787 -1407 0
900 -745 -157 0
-373 -1658 0
306 -792 -1251 0
2 -1201 -1836 -263 0
-1801 -1857 0
430 -1493 -495 -1255 0
-658 -238 0
1558 -381 -1289 0
634 -1519 -638 -302 0
316 -1435 -296 0
-1514 -1541 -1393 -884 0
472 -105 -1848 -1053 0
676 -1610 0
1075 -131 -1392 0
279 -73 -1550 0
1300 -818 -1243 -51 0
1577 -1001 0
1120 -1291 -1341 0
168 -845 0
1172 -168 0
250 -1890 -512 0
-659 -765 -18 0
1744 -57 -841 -193 0
1450 -1551 -1384 -124 0
779 -1830 0
-1032 -30 0
1916 -1558 -1502 0
972 -522 -90 0
1525 -653 -1958 0
1974 -259 -946 -1156 0
1804 -644 -436 0
738 -1831 0
453 -1060 0
1675 -1401 0
581 -14 0
1424 -470 -1596 -1929 0
103 -522 0
-48 -1388 -1133 -1011 0
-1398 -460 0
770 -969 0
-1556 -552 0
1098 -1709 -1059 0
-580 -1320 -1102 0
-77 -990 0
1851 -1249 0
-29 -1765 -232 0
293 -895 0
1606 -1971 0
-13 -1656 -885 -1259 0
1437 -86 -1477 0
1327 -1082 -792 -1294 0
-1056 -1199 0
1867 -1360 -616 -1235 0
500 -551 0
806 -873 -258 -743 0
162 -396 0
581 -1362 -1476 0
-397 -1885 -1546 -1866 0
46 -710 -1559 0
967 -855 0
1842 -1486 -1846 -964 0
1971 -1189 -1465 -1278 0
1728 -1632 0
-1797 -1805 -1778 -1730 0
1617 -473 0
809 -222 -915 0
239 -1569 0
-853 -1604 0
-841 -1993 -445 0
-998 -1695 0
964 -151 -1523 0
1039 -59 -1173 -939 0
1593 -18 -869 -103 0
13 -805 0
-596 -908 -308 -358 0
-810 -1584 -132 0
-1413 -1424 -427 0
618 -1574 0
1383 -596 -1800 0
1094 -1409 -1235 -1875 0
-791 -490 -1936 0
550 -417 -612 0
1582 -787 0
1181 -1284 0
890 -1409 0
1422 -1834 -1792 -285 0
1998 -971 -1648 -644 0
1802 -338 0
195 -547 -967 0
-1355 -372 -1849 0
1399 -1889 -1053 -1705 0
-1198 -968 0
1092 -1431 0
-893 -185 0
115 -355 -910 -1427 0
387 -1951 -97 0
1838 -660 -1834 0
-1151 -1435 -1650 -358 0
412 -321 0
-1873 -1355 -1720 -851 0
-957 -1564 -835 0
-1823 -648 0
409 -1034 -1995 0
-487 -351 0
-507 -1058 -538 0
1937 -1525 0
1790 -1173 -29 -1316 0
660 -750 0
1439 -507 -1932 -601 0
927 -1401 -43 0
561 -41 -1355 -125 0
239 -1314 -888 -190 0
154 -1840 -1099 -881 0
1619 -129 0
1967 -134 -1226 0
-669 -1756 -226 -440 0
33 -522 -1673 0
-1791 -440 -70 -523 0
1351 -1521 -592 -1015 0
-467 -889 -827 0
1199 -495 -79 0
1681 -135 0
1030 -1780 0
1637 -1360 -1049 0
147 -498 -1514 -1029 0
52 -503 -1915 0
841 -985 -489 -81 0
-455 -1023 -603 0
415 -1785 -1903 -1601 0
1874 -809 -368 0
508 -566 0
1575 -1847 -1845 0
1294 -1529 -1963 0
1472 -1188 -1609 -336 0
223 -426 0
688 -1195 -477 -850 0
607 -326 -1696 -1815 0
83 -1265 -1525 -540 0
-1268 -521 0
1943 -1620 0
1447 -1913 -350 0
390 -953 -1656 0
1240 -1025 0
-834 -1326 -54 -979 0
1261 -592 -1077 -1037 0
1866 -1236 -847 0
588 -1740 -1230 -1003 0
137 -1158 -1421 -472 0
1498 -592 -974 -522 0
1887 -1849 -1969 0
423 -893 -1341 0
771 -1656 -1306 -1830 0
211 -1738 -1874 0
-520 -131 0
-33 -1299 0
674 -547 0
-1340 -974 0
-1206 -1002 -1640 -1469 0
386 -701 -678 -1787 0
1144 -54 -1184 0
716 -1742 0
257 -778 -901 0
742 -1966 -640 -534 0
1398 -841 -1635 0
1370 -837 0
-961 -901 -251 -1163 0
1459 -503 0
1583 -527 -1303 0
1257 -1983 -1544 -403 0
1805 -1438 0
-837 -353 -775 -1826 0
1976 -349 0
-1739 -1623 0
1015 -1248 -864 -1106 0
-283 -610 -1900 0
1384 -1202 -1937 -306 0
-1155 -540 -1895 0
-803 -1788 -1990 -970 0
-1256 -1554 0
1873 -1230 0
-1427 -237 0
661 -1037 -1959 0
86 -720 -1008 0
1363 -1116 -1551 -518 0
-1927 -1748 -135 0
1777 -1610 0
1039 -1255 -927 0
-1671 -1819 0
-1565 -686 -1737 0
333 -739 -488 0
1898 -1417 0
100 -514 -1331 -1677 0
193 -142 -1919 -749 0
788 -1114 -1443 -33 0
347 -1338 -1603 0
1703 -68 -644 -443 0
579 -1502 -915 -1233 0
-838 -1597 -136 -823 0
1132 -1871 -138 -1819 0
400 -1523 -399 0
1469 -602 -1709 0
-84 -95 -1586 -908 0
1570 -917 -676 0
-1570 -1953 -1826 0
460 -1433 -686 -1298 0
-1140 -1904 0
465 -1260 -1138 -434 0
-905 -809 0
403 -52 -849 -248 0
868 -1758 -943 -1942 0
1850 -599 -615 -1345 0
308 -588 -1044 0
417 -460 -377 0
1037 -843 -304 -1831 0
1674 -683 0
647 -1809 0
1740 -933 -1005 -127 0
1162 -1080 -579 0
757 -68 -684 -1059 0
85 -656 0
1430 -947 0
1079 -1158 -1676 -712 0
856 -1653 0
-1952 -373 -1510 -867 0
-1578 -1177 -756 -253 0
670 -521 -1156 -396 0
727 -574 -1633 0
8 -676 0
-377 -812 -1461 0
859 -1909 -811 0
-1311 -1625 0
1178 -306 0
134 -1599 -1355 0
-1961 -1998 0
1000 -395 -1142 -996 0
519 -1591 -1922 0
196 -1425 -1362 -574 0
-11 -520 -969 -1061 0
-1449 -908 0
55 -1517 -647 -1385 0
1554 -1216 -109 0
469 -793 -891 -1211 0
-1324 -86 -108 -1614 0
962 -709 -773 0
-791 -1539 -817 -206 0
191 -1286 -168 -225 0
503 -848 0
194 -1891 0
1930 -1268 0
645 -180 -1247 0
251 -438 0
-1612 -1542 -1209 0
1875 -190 -794 0
-1423 -922 -771 0
222 -900 -1185 0
-405 -1834 -819 0
142 -811 -779 -1321 0
1223 -557 -1264 0
-484 -1773 -1636 0
1638 -1507 -355 0
956 -66 0
1998 -354 0
1837 -1164 0
614 -1935 -1231 -1131 0
1779 -404 -195 0
1118 -281 0
101 -182 -553 -84 0
548 -1090 -614 0
1015 -1962 -1563 0
1040 -898 -1459 0
1025 -703 -968 0
-1067 -1598 -1454 0
1935 -634 -1979 -626 0
1805 -1413 -873 0
696 -1649 -628 -1330 0
1407 -1909 0
-1948 -147 -413 -1447 0
186 -2 0
888 -1281 0
1299 -993 -652 -382 0
-1260 -151 -947 -1153 0
-1694 -923 -1510 0
1685 -624 -1125 -13 0
-462 -585 -597 0
-667 -438 -329 0
-344 -961 0
-1256 -1705 -1408 -19 0
1598 -774 -528 -795 0
667 -935 -214 -1212 0
1333 -1503 -695 0
53 -1777 0
1993 -159 0
-357 -1888 -1914 -1233 0
-1457 -1095 0
363 -1320 -1975 0
1539 -1890 -1871 0
-172 -1851 -955 -316 0
-1968 -863 -43 0
1811 -811 -177 -699 0
273 -439 -1797 0
-1231 -1556 0
873 -1625 -990 0
1599 -1406 -1884 -1195 0
196 -915 -1573 -641 0
929 -278 -108 -1854 0
-1782 -1056 0
295 -1647 0
792 -1616 0
870 -492 0
814 -25 0
1332 -1356 -1837 -967 0
985 -1251 -1270 -1569 0
-1296 -741 -459 -185 0
1361 -579 -1121 0
-1653 -404 -1382 0
-919 -196 -477 -257 0
576 -1267 -236 -1076 0
1418 -1136 0
963 -1057 -1174 0
1875 -1870 0
1866 -385 0
931 -1615 0
-870 -1957 0
1164 -1379 0
252 -620 -1527 0
691 -1438 0
695 -734 0
1677 -432 -1767 -567 0
1252 -1554 -220 0
1366 -182 0
1683 -885 0
718 -1086 -1041 0
1814 -950 -987 -19 0
1423 -348 -395 -1308 0
1466 -596 0
-1297 -693 0
13 -1933 -1081 -1531 0
91 -1275 0
-368 -947 0
227 -1820 0
-469 -1168 0
1408 -1249 -587 -1008 0
368 -1580 -519 -1351 0
-1871 -296 0
1443 -1203 -1692 0
994 -1438 -1906 -866 0
277 -1138 0
252 -77 -1649 -1812 0
-1340 -147 -90 0
1924 -501 0
1353 -66 0
1658 -280 -1870 0
1974 -1690 -745 -423 0
1487 -1579 -533 -516 0
-485 -656 0
1834 -1482 -1852 -857 0
-965 -1078 0
1611 -862 -1612 -1530 0
-186 -1671 -637 -418 0
-344 -1955 0
794 -1343 -1873 0
1914 -402 -752 -1863 0
518 -535 -1555 -266 0
891 -1156 0
302 -1097 0
605 -658 0
1256 -977 0
1668 -945 0
-678 -1312 -475 -537 0
1445 -658 -329 0
764 -133 -1873 -1840 0
814 -1519 0
1653 -21 -1234 0
-593 -1753 -817 0
1874 -1589 -1415 -1606 0
16 -1922 -738 -663 0
-1498 -165 0
1602 -378 0
1189 -890 0
309 -808 -35 0
1812 -998 -1777 0
180 -1872 -366 0
144 -150 0
166 -377 0
-671 -1903 -1046 -1228 0
1702 -142 0
1975 -726 -730 0
523 -95 0
-493 -347 0
-1411 -1629 -1715 0
1210 -288 -631 0
294 -135 -1141 0
373 -639 -1662 0
-174 -997 0
296 -1176 -1562 0
-1437 -432 -61 -1716 0
650 -246 -1817 -1865 0
1540 -13 -1637 0
-753 -729 0
21 -553 -320 0
632 -610 -1613 0
-1798 -1245 -1950 0
1826 -474 -1902 -632 0
1562 -132 -958 0
1116 -494 -1279 -355 0
1160 -949 0
1070 -1488 0
-1921 -110 -437 0
1344 -44 0
1343 -1650 -1123 -1501 0
1977 -1450 -265 0
371 -1774 0
517 -1339 -213 0
-781 -520 -756 0
1367 -1435 0
1877 -224 0
1880 -1674 0
1534 -1938 -1166 0
1041 -732 0
1164 -229 -764 0
23 -1117 -1429 0
-1843 -744 -108 -1956 0
-1467 -1286 0
660 -1985 -1148 0
-1829 -850 -1637 0
-1407 -975 -20 -1808 0
512 -1211 0
1622 -66 0
852 -1472 -1455 0
1214 -603 -360 0
-1303 -471 -761 -256 0
378 -938 0
-419 -1809 0
16 -1567 0
1375 -1738 -30 0
-1823 -1475 0
1758 -80 0
-1628 -29 0
197 -703 -1826 0
1195 -318 -1474 -1542 0
1472 -1521 0
1646 -20 -1203 -495 0
-306 -1348 -208 0
763 -1961 -1734 -471 0
595 -1218 -1752 -59 0
1960 -670 0
-461 -770 -1111 -63 0
484 -217 -1437 0
981 -764 -205 0
1170 -1172 -1646 0
1072 -487 -857 0
1239 -1769 0
971 -413 -993 0
-1780 -1810 -1748 0
1754 -201 -767 0
-42 -493 0
772 -325 -1785 0
-1372 -1341 -184 0
1518 -1030 -1203 0
1818 -112 -575 0
948 -71 0
1756 -1405 0
288 -1974 -309 -1629 0
-469 -688 -1150 -1128 0
-1015 -119 0
1615 -1366 0
322 -1193 -224 0
934 -1738 -215 0
1049 -300 -1774 -1377 0
-906 -1137 0
1191 -606 -1746 -1395 0
1557 -438 0
-190 -1988 -1472 -693 0
1054 -1867 0
-752 -1721 -1858 0
-126 -1117 0
-1352 -322 -1461 0
-994 -511 0
1324 -1032 -664 -1033 0
1493 -483 -1604 -1736 0
947 -313 -380 -1177 0
-644 -1537 0
-903 -831 0
1841 -1469 -1098 -403 0
48 -1608 -1233 0
635 -1006 0
-465 -1153 -724 -951 0
-22 -1933 -314 -1760 0
-1777 -986 -1497 -923 0
1405 -1687 -161 -1 0
964 -1355 -749 -1127 0
1175 -1779 0
865 -112 -777 -585 0
351 -128 -247 -1419 0
826 -1491 -1260 0
601 -200 -804 0
1654 -388 0
1723 -1725 -1780 0
952 -1580 -1826 0
-1372 -37 0
121 -470 -1218 -1275 0
414 -605 0
-1314 -1779 -1716 0
-1114 -1375 0
1153 -1154 0
1446 -1998 0
41 -787 0
715 -1116 0
-1692 -1450 0
169 -1374 0
-1181 -152 -1723 0
1127 -964 -1552 -1947 0
-1534 -844 0
1251 -666 0
652 -1436 -26 0
-600 -651 -1388 -1306 0
1395 -1551 -663 -1388 0
-976 -1296 0
1643 -1879 -1143 0
1151 -78 -1019 0
1870 -132 -1871 0
12 -864 0
430 -1715 -522 0
1697 -1517 0
1537 -126 0
1546 -617 -679 0
1197 -592 0
66 -1408 -449 -1768 0
1422 -943 -497 0
-1800 -1095 -991 -1244 0
-617 -282 0
1036 -1841 -372 -400 0
-1182 -996 -1314 0
1135 -1721 -1290 -1544 0
1182 -851 -817 -34 0
412 -1880 -976 -775 0
-1227 -404 -1878 -727 0
275 -59 -654 -643 0
160 -477 0
1738 -334 -1856 -1157 0
1878 -1755 0
846 -1143 0
609 -663 0
1102 -1297 -289 -1446 0
-1720 -1301 -1525 0
1729 -1660 -1369 -288 0
1457 -996 0
1069 -1285 -1852 -1079 0
1219 -1915 0
-1891 -249 -1168 -155 0
1233 -1597 -1079 0
1074 -392 0
-1509 -1254 -680 -1331 0
1021 -881 0
818 -531 -1816 0
1107 -1233 0
360 -1248 -1290 0
745 -207 -1906 -861 0
-1288 -267 -807 0
1316 -1287 0
843 -1381 -1781 -1665 0
1945 -117 0
897 -1683 0
-158 -1058 0
1726 -216 -570 0
286 -1297 -188 -1378 0
1937 -334 0
771 -370 -189 -774 0
1458 -407 -228 -888 0
570 -164 -1749 -1660 0
479 -462 0
486 -1848 0
-475 -325 0
970 -28 -52 0
260 -1271 -1978 0
1578 -1949 -1497 -1977 0
1858 -1716 -143 0
-294 -612 -1436 0
1131 -269 -687 0
1735 -1560 -491 0
-1392 -923 0
1046 -889 -254 0
-1990 -1450 -1712 -433 0
254 -1849 -709 -537 0
271 -1588 -1185 0
-710 -299 0
1356 -482 -194 -1132 0
-1389 -771 -393 -861 0
51 -1039 -946 -1423 0
-657 -1511 -1255 -195 0
1374 -79 0
1810 -1865 -1764 0
1401 -611 0
1139 -1496 0
1344 -1970 -1940 0
65 -1114 -1599 0
671 -1258 0
-689 -1288 -364 -1241 0
349 -301 -75 0
861 -50 -1840 -839 0
1653 -163 -1160 -1549 0
1020 -1843 0
-401 -461 -101 -100 0
1036 -126 0
1466 -547 -288 0
192 -914 0
1918 -294 0
1459 -748 -246 0
55 -882 -109 0
-950 -936 -615 0
-258 -1509 -940 0
1769 -1699 -876 -287 0
636 -1709 0
1076 -1251 -978 -1643 0
860 -1880 -997 0
1721 -1491 0
1117 -320 -104 -590 0
-1891 -1815 -74 0
-1502 -1846 -1916 -707 0
-1653 -20 -1937 -1733 0
-743 -874 -1228 -1212 0
1151 -1546 -1629 -1871 0
1935 -972 -784 -374 0
1804 -859 0
1762 -1647 -61 -1143 0
1190 -1148 -1198 -110 0
566 -1985 0
1039 -1964 -1231 0
529 -1921 -482 -1125 0
1582 -605 0
-1360 -1231 -1622 0
-1041 -381 -1403 -935 0
200 -1669 -683 0
-670 -1390 -583 -1497 0
-452 -671 0
-1146 -1119 -269 -1076 0
25 -140 0
1981 -357 -490 0
607 -1981 0
1819 -823 -1192 0
178 -306 -1950 -1676 0
1968 -40 -1839 -888 0
-47 -412 -1896 -1660 0
-773 -749 -547 -1357 0
827 -1227 0
-1732 -1080 -1085 0
-885 -1302 -1052 -1322 0
1935 -1397 -176 -1426 0
-305 -386 -1832 0
1731 -1161 -1518 -470 0
1377 -370 0
-1455 -1705 -97 0
1033 -1557 -502 0
1036 -160 -1947 -1759 0
763 -1971 -976 0
-261 -1555 -1551 0
-473 -980 0
1205 -1356 -749 0
-1905 -442 -1735 -875 0
1083 -456 -275 0
862 -1349 -1414 -957 0
943 -1509 -1888 -1525 0
569 -1733 0
-276 -1062 -212 -1672 0
-1646 -1957 -223 -859 0
1760 -480 0
483 -235 0
385 -1507 -1603 -75 0
1102 -1222 0
1827 -1524 0
703 -605 0
-1387 -1057 0
166 -633 -1231 -1 0
677 -362 -1182 0
647 -866 -556 0
182 -737 -1711 -506 0
-879 -558 0
1165 -972 -591 -1095 0
-568 -419 -1993 -701 0
1462 -848 -330 0
965 -1176 -1608 0
1355 -907 -372 0
1461 -16 -1235 -1048 0
-224 -216 -1243 -1297 0
-770 -817 0
115 -277 0
1817 -154 -845 0
-1533 -918 -1355 0
947 -11 -228 0
383 -1924 0
1887 -1682 -696 -613 0
1328 -1267 -766 -267 0
1579 -1680 -405 0
-654 -730 -1417 -1053 0
1848 -1873 -439 -1865 0
-578 -336 -880 -1445 0
-1838 -702 -1253 -855 0
-202 -1545 -1291 -1212 0
-1414 -227 -539 0
201 -226 -1899 -1057 0
-1169 -1620 0
-123 -169 0
390 -775 -1460 -281 0
-1065 -1262 -1900 -1795 0
-534 -707 -1167 0
1079 -310 0
110 -652 0
-1904 -10 -1281 -651 0
230 -499 -369 0
1501 -161 0
739 -513 0
1296 -1985 -175 -1883 0
1267 -1925 -257 -1788 0
-1033 -1486 -794 0
207 -428 -1002 0
-1800 -225 0
307 -1554 0
875 -680 -1250 0
1514 -881 -822 0
1037 -398 0
1645 -1654 0
1419 -1428 -911 -804 0
1758 -1878 0
210 -462 -1872 0
-792 -301 0
1213 -1040 -949 -101 0
-1376 -243 -1075 0
-937 -510 0
1533 -1790 0
669 -477 -952 0
1988 -1766 -4 -1542 0
-540 -594 -380 0
-208 -1374 0
-233 -1316 0
290 -519 -499 0
1455 -1365 0
587 -1662 -523 -604 0
950 -585 -235 -726 0
1996 -1839 0
1867 -1983 -1552 0
1938 -602 -818 -310 0
926 -1455 -1209 -1481 0
-953 -954 -1307 0
1083 -691 0
-750 -1876 0
-1308 -504 -361 -930 0
1253 -1577 -975 0
914 -672 -844 0
1459 -820 0
1504 -878 0
1076 -368 -728 -1602 0
-1040 -1846 -509 0
1073 -124 -1946 -367 0
494 -1220 -1038 -1871 0
415 -1320 0
1462 -1164 -1376 -644 0
1415 -1113 -324 -546 0
-1025 -138 -1960 0
-854 -821 -8 -1485 0
-1763 -1916 -19 0
920 -1942 -1316 0
-1098 -1127 -807 0
706 -1909 0
1573 -60 0
-281 -439 0
1097 -919 -696 -1165 0
1227 -1888 0
1640 -193 -1056 0
1138 -1860 -1146 -572 0
-1633 -1077 -1708 -967 0
1391 -173 0
-306 -1146 -683 0
1360 -1004 -1989 -1705 0
999 -1361 -1712 -406 0
-1781 -767 -1508 -1996 0
1645 -1521 -230 -651 0
-939 -983 0
425 -1577 -1813 -561 0
650 -250 0
84 -676 -1727 0
-1146 -871 -825 -510 0
1057 -1810 -167 0
-1013 -1727 -1273 0
-34 -1679 -1089 0
597 -167 -480 -110 0
-491 -442 -783 -1098 0
-1490 -1781 0
1450 -1185 -1715 -202 0
629 -447 -175 0
1602 -1452 -1212 0
1727 -147 -494 0
265 -1111 -422 -423 0
974 -364 -50 -395 0
1813 -1608 0
883 -1191 -207 -967 0
1739 -1817 -803 -442 0
1488 -1204 -1323 0
560 -640 -203 -1024 0
449 -1798 0
927 -1967 -634 -1111 0
-1209 -737 0
109 -1317 -589 -970 0
-1290 -669 -589 -1157 0
-1893 -1936 -1397 0
1892 -960 -1068 0
1780 -1432 0
1029 -1405 0
1475 -479 0
1682 -745 -956 -1955 0
1772 -1589 0
-1598 -820 -1450 0
1555 -196 -1290 0
1597 -1559 0
125 -1181 -1684 -1227 0
668 -507 -1870 -958 0
571 -586 0
-639 -864 -1224 0
-194 -1068 0
1889 -1152 0
-63 -948 0
-1742 -1746 0
231 -1434 -1723 0
1132 -1966 0
1501 -304 -1193 0
1300 -1500 -893 -800 0
408 -1884 0
-1786 -1617 -413 -1017 0
1981 -332 0
274 -320 -1667 0
1270 -427 -1426 -113 0
779 -1139 0
1900 -280 0
37 -1493 -1903 0
1428 -584 0
1401 -1581 0
330 -1586 -855 0
-150 -632 -1843 -747 0
1971 -1391 -937 0
-503 -1371 -1027 -1194 0
815 -1452 0
-1347 -1590 -228 0
-1680 -348 0
1063 -1131 -1357 -1522 0
1860 -1613 -1830 0
-1010 -1321 0
-549 -641 -380 0
475 -114 -1912 0
-1662 -1468 -1521 0
1750 -1697 0
-14 -495 -1693 0
1396 -1209 -262 -92 0
180 -1746 -1560 0
1660 -155 -447 0
1525 -92 -69 0
-865 -1173 0
1640 -974 -1885 -1990 0
612 -318 -805 -1266 0
708 -1560 0
-1967 -1486 -1455 0
415 -1621 -1766 0
-1109 -1719 -1143 -1063 0
-1561 -1691 -362 -349 0
-1660 -1597 -960 0
-1142 -142 -730 0
322 -927 0
1383 -607 -1681 0
1290 -403 -862 0
1664 -1776 0
-731 -1161 -1388 -943 0
449 -1971 -1564 0
-1854 -1819 0
1812 -665 -730 0
22 -270 -265 -688 0
434 -1928 -11 -788 0
-439 -1729 -683 -203 0
1382 -612 0
984 -161 -435 -1571 0
1061 -729 0
1513 -1556 -210 -1239 0
1081 -794 -86 -44 0
1363 -1032 -765 0
1211 -1809 -1660 -987 0
1185 -1175 0
1742 -290 -366 -1512 0
1723 -485 -246 -1419 0
248 -1748 0
168 -1587 -1960 0
693 -679 -1785 0
-1766 -691 0
-1280 -6 0
1817 -1141 -1703 -233 0
653 -991 -1350 0
1997 -1589 -791 0
1273 -686 -521 -1397 0
1978 -1488 -1394 0
297 -1737 -162 -1346 0
1212 -989 -929 0
-1621 -1345 -699 -1641 0
-253 -698 0
-1854 -1769 -329 0
1988 -1832 -681 0
1950 -1479 -1663 0
62 -1876 -119 -438 0
-539 -988 0
1004 -1878 -1451 -229 0
383 -1592 0
880 -1784 -497 -543 0
1772 -1889 0
-1178 -1124 0
1184 -1234 -1003 0
315 -1265 -859 0
143 -651 -995 0
-236 -1291 -721 -1000 0
883 -401 -1306 -1676 0
1096 -1826 0
1486 -248 0
534 -134 0
865 -1640 0
-168 -1629 -1853 0
74 -102 0
-1009 -1764 -85 -284 0
827 -1861 -718 0
-550 -210 0
-1593 -450 0
-1628 -10 -1405 -1201 0
30 -842 -345 -1248 0
1459 -449 -142 -214 0
940 -1273 -1779 0
-324 -226 0
-1205 -1420 0
-54 -1897 -245 0
1214 -1605 -413 -1833 0
1318 -992 0
1817 -1874 -1622 0
1750 -1376 -1571 -485 0
673 -915 -592 0
-1358 -1656 0
1583 -1660 -82 0
757 -1040 -61 0
669 -1848 -167 -80 0
-1098 -139 -948 -1932 0
-608 -1664 -1344 0
-705 -74 -1696 0
1961 -626 -775 0
913 -117 0
196 -262 -1796 -1757 0
1584 -1725 -777 0
374 -1654 -80 0
1904 -1958 -599 0
671 -664 0
807 -1831 0
-1556 -1742 -1001 -968 0
436 -991 0
1838 -521 0
-972 -1688 0
1573 -1801 -1518 0
1191 -1161 0
-88 -1954 -779 0
1168 -310 -1181 -591 0
1986 -1409 -1967 -1542 0
421 -1120 -1491 0
-107 -1553 -336 -1555 0
1324 -1959 -1120 -45 0
-592 -782 0
-1963 -431 -770 -126 0
1833 -359 0
241 -607 -890 -1778 0
-336 -1504 0
1781 -402 -594 0
1036 -1370 0
-355 -215 0
-87 -1957 -1636 0
533 -704 0
1471 -1660 0
541 -1203 -618 -293 0
1803 -585 -1410 0
665 -1246 -1441 -1319 0
379 -1844 0
1197 -1879 -975 -1391 0
287 -1182 -1683 0
290 -1563 -562 -776 0
576 -687 -861 0
1764 -1086 -505 0
131 -364 0
-1706 -1151 -1550 -1708 0
-206 -1332 -1393 -1325 0
499 -763 -673 -836 0
751 -1459 -435 0
941 -1883 0
1666 -1234 0
29 -1222 -1140 -1836 0
1110 -1545 0
1948 -753 -1705 -653 0
-307 -1454 -1898 0
870 -129 -254 0
-1913 -1675 -695 0
1307 -211 -1665 0
1687 -13 -1935 0
-697 -871 -609 0
392 -253 -898 -51 0
243 -279 0
1773 -1869 0
1038 -1151 -84 -710 0
-1340 -898 -1682 0
1782 -758 -1500 0
1566 -228 -804 -960 0
-1565 -1227 0
-379 -1498 -1166 -1970 0
-422 -631 -1563 -1071 0
-1710 -891 -755 -1153 0
66 -1956 -806 -1779 0
33 -888 -1562 -828 0
1585 -1404 -678 -308 0
1495 -935 0
666 -333 0
870 -1764 -1857 -1898 0
1240 -397 -1836 0
-205 -1533 -1111 0
1819 -937 0
236 -1025 -1788 0
-1614 -1292 -384 0
-738 -215 0
-1246 -875 -216 0
-522 -1316 -1799 -527 0
1026 -773 -1585 -1210 0
341 -1464 -625 0
47 -1740 0
151 -650 -962 0
-208 -1463 -830 0
126 -18 0
1533 -1854 0
944 -1930 -1880 -563 0
-534 -1179 -1705 -809 0
1742 -387 -223 -1189 0
1734 -1868 -241 0
-998 -842 0
795 -726 -1629 0
189 -1486 -350 -988 0
358 -1598 -1728 -729 0
738 -928 0
1379 -255 -500 -1639 0
979 -65 -1067 -1551 0
106 -91 -1177 0
1505 -1988 0
1042 -110 -737 -812 0
92 -1892 0
736 -677 -1730 -1941 0
1300 -1651 -1305 0
495 -123 -1344 -1644 0
11 -1324 0
1204 -658 -785 -148 0
1617 -647 -183 0
542 -235 -1986 0
1047 -677 -1979 -1715 0
-1124 -1429 -483 -1174 0
758 -1506 -178 0
740 -1635 -489 -1516 0
-678 -753 -1377 -1853 0
-436 -1123 -1360 0
1522 -1287 -1970 -858 0
-1974 -1400 0
1902 -1546 -493 0
1201 -540 -1349 0
1261 -180 -480 0
-946 -787 0
1183 -1941 -457 -1094 0
1562 -446 -174 0
-1162 -1608 -147 -288 0
1065 -1989 0
1349 -43 -906 0
-1095 -1438 -1453 -802 0
52 -1615 -1471 0
-1208 -1265 0
1896 -1836 -39 0
-1967 -691 0
1837 -1176 -462 -500 0
1640 -1750 -574 -71 0
1082 -673 -1446 0
676 -1055 -542 -1617 0
-673 -1262 -1457 -373 0
-1535 -1385 -37 -939 0
-1262 -1961 0
15 -1010 -1714 0
1954 -916 -859 -1654 0
-647 -1455 0
-582 -648 -1831 -1870 0
1473 -533 -536 -680 0
91 -1367 -47 -1959 0
-792 -214 0
1305 -1831 -628 -1646 0
1222 -1567 -1719 -1574 0
708 -1891 0
-1268 -444 0
797 -1235 0
438 -1817 -123 0
973 -39 -1052 0
-554 -1555 -865 0
1722 -10 -129 -1600 0
1741 -186 0
167 -739 -382 -1556 0
1898 -1353 -641 0
1126 -1030 -144 -1044 0
1770 -1676 0
115 -166 0
1034 -621 -1177 -1956 0
-1791 -1818 -814 -1460 0
1870 -378 0
920 -871 -957 0
1918 -260 0
1456 -418 -1051 0
1199 -209 0
773 -825 0
823 -1787 -979 -325 0
1678 -1226 0
484 -71 -1191 0
387 -585 0
1140 -795 -1043 0
1916 -1114 -1695 -242 0
377 -730 -1258 0
-1980 -1662 -1827 0
948 -1482 0
325 -1443 -786 -236 0
653 -567 -920 -233 0
-363 -385 -1549 0
-647 -783 -561 -911 0
240 -1449 -779 -500 0
549 -435 0
1471 -895 -549 -1230 0
-1627 -1452 -31 -1513 0
1962 -1230 0
214 -1958 -802 0
-301 -63 -1204 -1461 0
202 -1205 -66 0
105 -1682 -122 -476 0
1163 -604 0
831 -894 0
-263 -226 0
1684 -616 -1424 0
363 -245 -600 -164 0
-1606 -766 -1528 -661 0
-181 -628 -1965 -1193 0
945 -1538 0
-898 -1509 -1145 -83 0
1306 -1348 -211 0
-37 -719 -130 0
177 -966 -799 -213 0
1701 -1683 0
899 -840 -1699 -937 0
1773 -489 -1897 -261 0
1441 -727 0
1118 -1611 0
796 -1918 -1526 0
1975 -130 -983 -783 0
1707 -843 -103 0
87 -1490 -534 0
1953 -797 -475 -1589 0
869 -1259 -476 -1640 0
695 -1054 -1230 0
1754 -1510 0
1941 -1172 -1036 -1392 0
1095 -554 0
298 -1004 0
694 -612 0
1553 -1076 -153 -1562 0
862 -1729 0
1585 -658 -456 0
547 -543 0
1729 -170 -166 0
-967 -100 0
-258 -459 -1528 0
280 -635 -722 -816 0
-194 -511 -1311 0
1358 -743 -1392 0
827 -837 -1565 0
872 -1827 -1672 -1154 0
773 -1549 -1820 -781 0
644 -513 0
139 -1212 -1224 -729 0
810 -1596 0
-40 -1388 0
1557 -500 -1121 0
15 -593 0
1548 -794 0
109 -1089 -712 0
107 -1755 -217 -920 0
358 -1138 0
-652 -828 -1443 -1169 0
106 -203 -1068 0
791 -1157 -419 -192 0
-1384 -551 -798 -234 0
-843 -1957 -593 0
474 -806 0
756 -710 -1412 0
486 -1948 -1403 0
-324 -1816 0
806 -560 -492 0
-297 -274 -18 0
328 -1107 -1909 -1967 0
1229 -1853 0
-524 -600 0
1507 -1473 -1607 0
-511 -1266 -801 -731 0
337 -6 -1397 0
415 -1374 0
1309 -1145 -1695 -1519 0
1712 -456 -1470 0
1089 -651 -78 0
1697 -1258 0
1741 -337 -1747 -1515 0
570 -206 0
-61 -1491 0
1844 -1915 0
-25 -1642 -52 0
1066 -574 -1330 0
-1186 -1683 -131 0
1736 -1558 0
206 -847 -914 0
492 -1945 -214 0
1824 -1534 0
619 -1180 -1309 -119 0
-379 -846 -90 -892 0
-1877 -610 0
947 -1226 0
490 -819 0
-1701 -1776 -996 0
-1204 -944 0
1954 -1626 -625 0
-778 -100 -1356 0
-1084 -1175 -1081 0
-106 -160 -1447 0
-1368 -4 -1192 -552 0
1031 -140 -1143 0
376 -1754 0
1907 -1199 0
1556 -208 -130 -1758 0
1283 -42 -1272 -1092 0
-639 -813 -1218 -1512 0
733 -1494 -270 0
-876 -1652 -1507 -987 0
804 -775 0
829 -350 0
1155 -1196 -570 -389 0
741 -1135 -1142 -852 0
1750 -308 -1144 -810 0
1975 -10 -801 0
106 -204 -538 -1971 0
243 -415 -1510 -1040 0
1071 -1974 -470 -1291 0
284 -746 0
1517 -626 -1515 0
259 -187 0
1339 -1728 0
1665 -45 0
1449 -574 -1773 -1434 0
-1192 -322 -1373 0
99 -998 -1692 0
922 -198 -1761 0
356 -179 -1540 0
-440 -239 -59 -836 0
869 -1453 -509 0
345 -1249 -1528 0
-1302 -554 -463 0
371 -756 0
1244 -1547 -1510 -1710 0
66 -1152 -1520 -665 0
126 -355 0
-770 -1694 -174 -1368 0
611 -1401 -1846 0
-1063 -1584 0
-152 -1102 -691 -323 0
1958 -272 -1670 -1746 0
1453 -1457 0
982 -229 -711 0
-1630 -1750 0
368 -1833 0
-808 -1424 0
-1378 -633 -469 0
1392 -999 0
992 -148 0
1862 -334 -1192 -1815 0
-1768 -1090 -1702 0
226 -1610 -1113 0
1295 -685 -1197 -1768 0
1945 -601 -323 0
1873 -137 -591 0
1632 -928 -1551 0
-1533 -442 -746 0
-1732 -1406 -974 0
441 -705 -56 0
1678 -1296 -1108 -1469 0
1758 -922 -1017 0
1992 -1675 -1341 0
1977 -654 0
156 -1468 -1458 -661 0
-769 -516 0
-477 -24 -1321 0
1416 -1459 -1415 -547 0
1693 -332 -374 0
750 -613 -1350 0
-1354 -1856 -1449 0
1914 -648 -964 -1644 0
180 -695 -1824 0
-275 -259 -1279 0
1925 -905 0
443 -579 -1364 0
1054 -458 -361 -1901 0
1986 -843 -526 0
-806 -1746 0
1613 -1277 -1371 -143 0
32 -1975 -1412 0
1951 -1730 -614 0
1195 -1519 -549 -1645 0
295 -960 -1879 0
717 -273 -81 0
1736 -761 0
-1361 -1313 -631 0
-1152 -1292 0
1650 -1947 -705 -762 0
267 -792 -455 -2 0
1760 -1355 -90 0
1120 -1793 -1327 0
1656 -908 -1346 0
389 -1869 -110 0
100 -482 -1605 -672 0
1966 -1745 -1949 -1590 0
-915 -1452 -864 0
1017 -365 -954 -147 0
435 -585 -1662 -17 0
1726 -1237 0
-1612 -1477 0
1494 -1187 -1659 0
-2 -825 -674 -1016 0
633 -551 -72 0
313 -1595 0
242 -395 -1777 0
-111 -1171 -1259 0
-1488 -795 -1206 0
-1601 -946 -1250 -316 0
-485 -1092 -61 -1246 0
70 -1004 0
803 -459 -1974 0
1640 -1065 0
1008 -689 -1386 0
1590 -1156 0
-1025 -757 0
-356 -850 -1076 -1441 0
1121 -1629 -303 -516 0
649 -1433 0
1587 -1106 0
1371 -1010 -1913 0
1143 -959 -518 -758 0
-94 -1423 -101 -400 0
750 -1258 0
-794 -485 0
85 -450 0
1908 -212 -264 -811 0
1360 -1917 -702 -1723 0
1707 -637 0
1497 -1060 -1944 0
513 -23 0
-1646 -1150 0
1322 -1716 0
-624 -100 0
-1984 -1077 -1785 -844 0
712 -405 0
688 -571 -536 0
549 -1633 0
871 -1134 0
970 -1262 -1071 0
676 -1244 -562 -1122 0
1986 -1899 0
-222 -1122 0
208 -1168 0
454 -1666 -1866 -1499 0
-288 -1601 -597 -564 0
347 -959 -507 -609 0
-1902 -247 -1720 0
-1149 -1427 0
670 -1637 -44 -505 0
1060 -1528 -1702 -1567 0
41 -1055 -1503 -469 0
-154 -888 -818 -960 0
1950 -1262 0
-1931 -943 0
-1681 -23 0
-1048 -1664 0
1030 -83 -698 0
168 -1911 0
-338 -1234 -1581 -522 0
1477 -1290 0
947 -212 -1644 -652 0
895 -1694 0
1098 -737 -784 -1229 0
965 -1699 -851 -802 0
783 -1123 -1799 0
710 -979 -1013 0
-859 -1785 0
-1789 -569 -1458 -839 0
34 -263 -922 -511 0
1676 -582 -590 0
1414 -1496 -1444 -1289 0
466 -953 -806 -1090 0
-1429 -1984 -520 0
1554 -1899 -1499 -572 0
112 -117 0
556 -564 -1004 -637 0
727 -140 -683 -1376 0
1180 -783 -890 0
85 -1227 -642 0
-653 -719 -1102 0
741 -565 -1940 -108 0
256 -888 0
563 -1858 -65 -1180 0
-1925 -336 -1084 -958 0
956 -623 -928 -150 0
1801 -860 -522 -1848 0
975 -1548 -6 0
232 -88 -744 -684 0
1261 -698 0
-644 -116 0
73 -1254 -497 0
-1013 -1187 -1870 -268 0
480 -1493 -774 0
-1243 -1417 0
-1340 -1199 -940 -1942 0
-822 -1294 -1714 0
484 -693 0
393 -1714 -724 0
1201 -1891 0
658 -1001 0
-779 -1252 -1989 -1296 0
955 -923 -1482 0
1217 -1327 -693 -1125 0
-1158 -236 -511 0
1367 -1188 -1942 -1694 0
1214 -870 -1946 -399 0
-1244 -32 -188 -1171 0
478 -665 -1185 -1125 0
632 -948 -733 -172 0
838 -1631 -1714 0
-1790 -883 0
1475 -1806 -1794 0
-1915 -1014 -26 -263 0
1018 -728 0
1331 -1914 0
463 -309 0
1161 -697 0
1734 -417 -391 -89 0
-1888 -710 -24 0
214 -1353 -357 0
-147 -817 0
1182 -1482 -1080 0
-1099 -801 0
-620 -362 -541 0
-1268 -704 -1855 0
31 -729 -181 0
773 -626 -753 -91 0
1440 -746 0
319 -1787 -1398 0
1206 -1684 0
1037 -1540 0
-705 -1431 -537 0
789 -991 -355 0
1548 -563 -1265 -174 0
455 -744 -1013 -263 0
1253 -814 0
1545 -1809 -158 0
1840 -206 -1666 0
437 -101 -133 0
-535 -1658 -935 -1146 0
514 -483 0
582 -15 -650 0
1148 -1242 0
921 -40 0
748 -628 0
1111 -1587 -1641 0
1798 -1180 -651 -1663 0
958 -337 -1255 -1398 0
632 -936 -1919 0
263 -366 0
1592 -1496 -1112 0
-485 -891 -1085 -1093 0
1411 -1509 -571 -1935 0
111 -1203 0
-1824 -43 -1529 -682 0
31 -1585 -22 0
797 -595 0
460 -858 -928 -1574 0
-141 -607 0
-1795 -1374 0
644 -1238 -1659 -1647 0
-656 -1230 0
1325 -630 -1297 -367 0
137 -555 0
1234 -1840 0
346 -26 0
-1874 -104 0
-141 -847 0
-1056 -1098 -94 0
1733 -1828 -1655 -1818 0
-953 -1131 -380 -1254 0
1252 -404 -682 0
1608 -1885 -539 -538 0
-841 -922 0
288 -826 -1031 -216 0
882 -780 -700 0
1261 -491 -571 -31 0
-1378 -1400 -383 0
-804 -270 -306 0
1434 -219 0
283 -389 -1454 0
699 -1260 -72 -1779 0
-1598 -1811 -499 -453 0
19 -136 -1304 -665 0
1753 -1797 -677 -1746 0
-909 -832 -1056 0
714 -742 0
654 -1687 0
-113 -1384 -1870 0
-1340 -683 -1453 0
1558 -1636 -1521 0
1955 -789 0
674 -1086 -1722 0
225 -602 -930 0
519 -228 -1872 -224 0
-1241 -1685 0
170 -1347 -1074 -1468 0
397 -106 -1863 0
-720 -499 -1978 0
1174 -1182 -1964 -703 0
-343 -613 0
1084 -1810 0
1913 -943 -50 -1509 0
1312 -511 -616 -754 0
-1072 -1817 0
1180 -668 0
1521 -373 -938 0
-1684 -882 0
1611 -837 0
1509 -74 0
-1012 -1207 -538 0
930 -1847 -419 0
-958 -1523 0
1988 -1578 0
-509 -433 0
1610 -534 -1429 -1667 0
1350 -425 0
-14 -215 -326 0
-1418 -148 -412 -1849 0
-152 -170 0
1862 -881 -297 0
35 -57 -1127 0
-573 -1308 -1275 -1537 0
1506 -663 0
-748 -158 -1899 -1880 0
-351 -431 0
1272 -1245 -95 0
-941 -489 -28 0
1202 -1546 -1443 0
-1195 -1567 0
-1888 -548 -125 0
1166 -1677 -10 0
1193 -1147 0
844 -613 0
-1411 -1811 0
-1035 -1690 -1203 0
436 -358 -1326 0
468 -1638 0
-272 -797 -1594 0
419 -359 -1829 -1846 0
-104 -1965 -236 0
-1572 -22 -254 0
360 -1965 -467 -1127 0
53 -196 -1895 -1211 0
1647 -362 0
1111 -1443 -387 0
-1280 -1668 0
678 -960 -1652 0
-1269 -322 -1760 -61 0
-1370 -1942 -763 0
841 -1327 -992 0
537 -1511 0
-10 -1365 0
765 -567 -1310 0
-446 -504 -1095 -1776 0
1738 -281 -1678 0
839 -1277 -1396 -1775 0
-96 -504 0
590 -177 0
496 -1950 0
1806 -1628 -1955 0
247 -191 0
1412 -1964 -970 0
1199 -1764 -1455 -267 0
415 -1888 -1939 -833 0
1247 -568 -622 0
1413 -835 -444 0
1895 -5 -357 0
207 -404 -1014 -1216 0
1552 -1414 -24 0
1945 -814 -1744 -1558 0
1995 -343 0
743 -963 -724 -281 0
206 -1483 -658 -1568 0
1833 -516 -1228 0
-1366 -1674 0
-1410 -1881 -201 -546 0
414 -1369 -1116 -1777 0
-1480 -1315 -319 0
179 -58 -1978 0
1658 -362 -679 -1788 0
-1439 -773 -404 -556 0
689 -19 -1832 -836 0
797 -1386 0
-1563 -1039 -1263 -299 0
1639 -1067 -1022 -1519 0
1000 -530 0
945 -65 -1352 0
1225 -23 -1779 -870 0
1120 -1919 -759 0
-1093 -914 -353 -134 0
742 -41 0
1576 -810 -1326 0
1712 -1810 0
-785 -1461 0
1018 -94 -168 -940 0
149 -702 0
-682 -1282 0
-1648 -22 -790 -1652 0
172 -433 0
1578 -1415 0
880 -1592 0
727 -1956 -1252 0
554 -814 -1988 -1920 0
-1099 -107 -46 0
1849 -595 -401 0
1167 -1174 -1499 -608 0
1610 -1683 -866 0
-393 -408 0
-332 -216 -172 0
1049 -998 -91 -167 0
370 -778 -201 -177 0
-1185 -1093 -856 0
-822 -1781 -708 0
-422 -89 -60 0
1534 -1656 0
985 -1471 -560 -1431 0
1915 -1241 0
646 -926 0
283 -1141 0
667 -444 -36 -913 0
1815 -59 -77 -329 0
1384 -573 0
-1691 -1745 0
312 -1982 -1726 0
1895 -377 -1862 -1890 0
583 -66 -662 -738 0
392 -477 -546 0
-345 -809 -969 -1822 0
811 -544 0
-1597 -1261 0
-751 -994 -1774 0
-1171 -831 -700 -1652 0
-1358 -1311 -354 -592 0
659 -1162 -730 -1098 0
-1231 -1740 0
151 -1571 0
1070 -1819 0
1161 -111 0
-925 -1003 -391 -1917 0
1097 -1334 0
1555 -1084 0
-1267 -276 -599 0
1750 -213 0
-1365 -452 -1519 0
1421 -736 -1308 -464 0
1977 -352 -405 -937 0
-535 -390 0
-750 -953 -1407 0
1940 -1700 -1638 -113 0
1049 -1578 0
714 -1949 -1261 0
117 -1182 -429 0
1559 -536 -346 -1372 0
1307 -1289 -288 -1093 0
394 -1102 -1571 -48 0
-1436 -936 -733 0
812 -1842 0
1470 -970 0
439 -1839 -1467 0
1761 -1824 -716 0
181 -643 -987 -1539 0
594 -1401 -746 -651 0
644 -1027 0
77 -164 0
1687 -1358 0
509 -54 -700 0
-690 -623 -649 -759 0
130 -806 0
1990 -332 -147 -319 0
271 -1529 0
-1495 -330 -986 0
1260 -604 -826 -391 0
1932 -1590 -1336 0
89 -1385 0
-495 -143 0
-811 -529 0
-739 -1494 0
-876 -890 -1737 -1948 0
198 -1648 -211 0
224 -98 0
-1608 -202 -942 0
1715 -655 0
1432 -1136 -1611 0
1048 -1469 0
451 -1853 0
-228 -1343 0
-1554 -650 -805 -1034 0
663 -793 0
-138 -1495 -1769 -605 0
1210 -1892 -1247 -1689 0
1042 -419 -741 0
1040 -885 0
703 -1618 -1370 0
495 -1402 0
929 -1535 0
-1640 -1786 -437 0
459 -1140 -918 0
-991 -297 -535 0
400 -1434 -342 0
667 -1229 -892 -930 0
-1686 -1345 0
966 -820 0
798 -1606 -717 -4 0
-1755 -1732 -1685 -1793 0
-1692 -1906 -631 -276 0
496 -1205 -1588 0
1177 -646 -774 -411 0
1456 -101 -947 -1722 0
1028 -1759 -587 -73 0
500 -1223 -1518 0
1007 -751 -116 0
899 -634 -920 0
688 -595 0
-1143 -346 -1256 -805 0
966 -239 -62 -1654 0
-704 -661 0
182 -316 0
83 -1442 -477 0
312 -421 -1388 -824 0
-677 -1925 0
1252 -1583 -1074 -425 0
-1036 -176 -1020 0
254 -183 -353 -8 0
519 -1337 -40 -1885 0
-1329 -378 -161 0
1886 -526 -85 -141 0
-1774 -976 -442 0
1425 -333 -1695 -1271 0
1285 -1990 -135 0
-1437 -1354 -632 0
1527 -958 0
-1532 -1934 0
748 -1814 -1005 0
1837 -629 0
1430 -238 0
-1221 -1533 -205 -1829 0
973 -1698 0
1223 -846 -1037 -490 0
807 -1786 -1606 0
5 -276 0
1826 -951 -184 0
-1558 -1357 -409 0
-1738 -1727 -931 0
182 -37 -1741 0
32 -551 -1682 -466 0
601 -1682 0
1775 -1464 0
657 -63 -1675 0
957 -1655 0
-384 -1307 -1168 -1900 0
1660 -305 -811 0
-1430 -39 -77 0
1878 -328 0
957 -947 0
658 -1608 -1254 0
1325 -1269 -892 0
-782 -26 0
1337 -81 -158 0
1368 -430 -1393 -226 0
1285 -1875 -850 0
1938 -961 -82 -365 0
-569 -1494 0
1327 -17 0
958 -1424 -590 -1659 0
-907 -513 -1542 0
-1693 -689 -718 -1169 0
1439 -251 0
1406 -472 -1671 -1955 0
1364 -1409 0
1539 -1307 0
1742 -68 -124 0
-883 -83 0
-481 -282 0
1220 -329 -408 0
-935 -1750 0
1045 -1951 -1619 0
761 -1991 -1244 -402 0
794 -55 -1862 -1380 0
1065 -311 -453 -229 0
1617 -768 0
313 -1297 -703 0
578 -1812 -1910 -1928 0
-1950 -524 -1183 -1173 0
408 -1535 0
-780 -781 -1266 -949 0
994 -1361 0
1871 -1752 -433 -537 0
1468 -384 -210 0
968 -1713 -1463 0
555 -673 -1452 -113 0
1142 -1017 0
1951 -77 0
203 -940 -397 -762 0
1086 -701 -1150 0
933 -1384 0
1129 -1630 -92 0
1633 -1355 -877 0
207 -781 -918 0
-1426 -251 -1424 -1724 0
671 -1058 0
1852 -1080 0
803 -967 -1212 -836 0
50 -365 -438 -496 0
1172 -686 0
148 -982 -1428 -1896 0
847 -614 -1714 -964 0
1048 -1060 -257 -327 0
-294 -1165 -1599 -1550 0
45 -840 -265 0
392 -732 -1731 -296 0
164 -834 0
1317 -465 -1774 0
1589 -627 -1341 0
1617 -1710 0
-1692 -1985 -842 -1278 0
172 -638 -560 -1186 0
966 -986 -387 -273 0
-1237 -7 -936 0
757 -221 0
1798 -1063 -1092 -1475 0
958 -95 0
1125 -1044 -328 0
1016 -357 -1702 0
487 -527 -178 0
1189 -1480 0
489 -98 -310 -1588 0
-620 -781 -222 -1927 0
791 -187 -1938 -65 0
298 -1298 -49 -911 0
631 -1034 -1883 -161 0
-1594 -662 -1598 -440 0
1608 -1681 -694 0
-244 -1602 -1698 0
294 -273 -998 0
907 -1758 0
339 -25 -1135 -1491 0
-1994 -1633 0
1754 -870 0
637 -305 -344 0
2000 -741 -1568 0
408 -528 -971 0
-1845 -249 -503 0
-1211 -1026 0
1492 -918 0
883 -240 0
20 -1613 0
74 -928 -711 -1949 0
1666 -1434 0
846 -1751 -1572 -1760 0
774 -1874 -1107 0
921 -597 -1417 0
1034 -1023 -38 0
175 -1332 -1121 0
1001 -1291 0
1631 -101 -1236 -506 0
-577 -550 -793 -1088 0
228 -1860 0
1858 -679 -1290 0
-18 -365 -1227 -1394 0
418 -1208 0
-1785 -397 -1493 -347 0
48 -846 0
100 -484 -1701 -700 0
1241 -1402 0
1875 -847 0
29 -999 -1175 0
1762 -1251 -1371 0
620 -1438 0
388 -1843 -707 -1660 0
-1893 -699 0
-316 -1252 -1687 -1236 0
906 -153 -1389 -577 0
1228 -396 -1854 -1224 0
1334 -1915 -1399 -711 0
-1715 -1842 -1419 0
1646 -634 -122 -552 0
1242 -195 -301 0
459 -1182 -946 0
1367 -1473 0
653 -1866 -295 0
257 -1521 -720 0
1333 -1940 -824 0
341 -1983 0
970 -374 0
458 -1542 -1276 0
596 -1736 -1133 -32 0
1313 -1273 -1711 0
-830 -375 -582 0
635 -1495 -1351 0
1321 -1114 -869 -1892 0
666 -1173 -1212 0
492 -900 -1998 -612 0
-1191 -1953 0
1419 -320 0
1043 -861 -1258 -1475 0
350 -933 -1949 -1011 0
1782 -1520 -43 0
1620 -894 -1785 0
1341 -446 -1672 0
527 -1274 -1724 -1892 0
-1255 -977 0
1110 -490 -266 0
-594 -1859 -1839 -343 0
-1886 -132 -243 -1395 0
-274 -804 -283 0
1630 -1662 0
572 -728 -924 -995 0
960 -804 -922 0
1773 -814 -143 -1238 0
527 -232 0
28 -1849 0
1379 -1231 -878 -1078 0
1547 -544 0
614 -1727 0
599 -164 -363 -1325 0
383 -1205 0
-1721 -1787 0
-287 -1087 -1324 0
-1290 -1311 -948 -1970 0
-399 -1273 -1086 -802 0
-21 -1639 -1391 -330 0
-676 -961 -1662 -1622 0
488 -1443 -1414 0
907 -481 0
1666 -1434 -1682 -1280 0
1816 -455 -1635 0
1619 -1739 -640 -405 0
1551 -816 -1142 -107 0
1411 -1069 -554 -231 0
632 -1320 -595 0
221 -650 -1870 -828 0
169 -523 -1154 -705 0
106 -987 0
767 -293 0
878 -1156 -274 0
1154 -109 -427 0
-942 -1578 -1743 -1426 0
1499 -905 -1908 -1425 0
-93 -998 -265 0
465 -1906 0
1188 -1358 -1462 -1091 0
1417 -1446 -980 0
-3 -887 0
-729 -372 0
1816 -1840 -1811 0
1707 -1039 -701 0
147 -1321 -586 0
1703 -1734 0
286 -799 -690 -99 0
1580 -800 0
1290 -1457 -1869 0
710 -525 -1805 -1348 0
-817 -346 -1640 0
536 -1890 -1490 -1233 0
643 -182 -1558 -1543 0
-1003 -751 0
1331 -1158 -236 0
512 -1074 0
-1020 -1032 -533 -1397 0
1437 -681 -1654 -1705 0
-1341 -1911 -1215 -1026 0
1209 -767 -1035 -1174 0
67 -824 -132 0
948 -1131 -247 -1187 0
1269 -1391 -370 -1980 0
774 -1602 0
-195 -1862 -429 -241 0
644 -623 -263 -1140 0
1260 -1295 -1885 0
1213 -1217 -1734 0
1647 -1465 0
880 -202 0
425 -1903 0
1132 -1339 -1874 -1574 0
1637 -92 -425 0
247 -700 -1560 -506 0
-2 -1900 -1401 0
1561 -1924 -1774 -511 0
-1149 -957 -1868 -468 0
1774 -524 -592 -1227 0
368 -137 0
102 -205 -1345 0
-1245 -20 0
1141 -442 0
1927 -992 -1851 -1557 0
391 -661 -1054 0
-188 -1662 -1934 0
-1807 -402 0
-1382 -1830 0
-471 -535 -1840 -405 0
810 -1764 -1463 -148 0
1993 -1223 -841 0
1793 -1447 -881 0
1280 -805 -137 -196 0
-1995 -1911 0
-241 -1332 0
1595 -468 -159 -1707 0
-501 -1428 0
66 -1562 0
1464 -932 -1426 0
1096 -1552 0
1286 -1866 -1420 0
-1270 -495 -65 0
465 -264 0
-1181 -496 -808 0
578 -503 0
-408 -990 -1237 -1419 0
-1106 -1624 -1433 -770 0
-493 -273 -909 -1583 0
-1184 -1068 -707 0
1198 -1050 -180 0
1979 -745 0
293 -1936 -708 0
1336 -435 0
683 -1062 0
1819 -164 0
601 -1548 -1510 -634 0
-649 -1935 -450 -543 0
826 -1688 -1708 0
651 -1790 0
1620 -1947 -1072 0
190 -980 -1510 -545 0
77 -405 -881 0
314 -850 -1072 0
-1789 -1833 -771 0
120 -306 0
826 -1745 -89 0
-121 -272 0
112 -776 0
458 -1104 0
1383 -1855 -1858 -1577 0
-1578 -488 0
1409 -1758 -720 -419 0
532 -489 -1689 -934 0
1141 -34 -1674 -1410 0
-1824 -1108 -1560 -1318 0
1577 -1140 -1591 -210 0
1938 -1860 0
1145 -147 -1215 0
89 -730 0
423 -200 -273 0
293 -383 -1315 -1769 0
1039 -654 -1352 -467 0
394 -258 -955 -1382 0
-223 -1910 0
-73 -110 0
1328 -770 -581 0
33 -1638 0
416 -1747 -1056 0
1242 -755 -1214 -1271 0
1629 -1809 -924 -770 0
1757 -1232 -1941 0
-1836 -250 -1732 0
749 -1460 -1150 0
434 -730 -893 0
-1535 -1297 -541 0
-1070 -1019 -191 0
183 -573 -1769 0
1131 -1666 0
1186 -828 0
1534 -1590 0
-227 -953 -886 -500 0
491 -320 -739 0
1671 -573 0
474 -315 -195 0
1995 -1854 -1848 -917 0
838 -1480 0
1280 -1600 0
1289 -70 -842 0
437 -805 0
1253 -555 0
754 -319 0
-1056 -958 0
-171 -2000 -1120 0
1771 -546 0
-1938 -1409 -1068 0
1422 -1537 0
1970 -482 -1788 0
1491 -1203 0
-378 -1184 0
1400 -367 -1304 -1374 0
624 -1132 -1510 0
723 -1392 -1401 0
912 -1845 -507 -1961 0
1288 -702 0
1811 -1804 -388 0
1436 -221 -1508 0
582 -547 -1196 0
-644 -243 0
164 -707 -524 0
-646 -767 0
40 -862 -676 -1023 0
534 -1606 -717 0
-131 -132 0
1477 -1075 -1530 0
1616 -1984 0
1897 -658 -1186 0
903 -412 0
-1049 -632 -850 -1334 0
1795 -671 0
-840 -621 -1609 0
1383 -772 -1963 -1346 0
656 -1759 -309 -1331 0
1417 -484 -602 0
1979 -1711 0
846 -1698 -856 -206 0
490 -723 -1964 0
1787 -666 0
157 -1808 -903 -689 0
1304 -1711 0
-1656 -308 -1162 0
-1262 -1636 -607 -1878 0
-1976 -1991 -1112 -1826 0
286 -1559 0
-835 -1809 -506 -1720 0
-952 -1863 0
264 -604 -1357 -1832 0
-1639 -871 -1602 0
220 -1712 -1306 -1567 0
-1396 -78 0
1532 -478 -670 -643 0
-1138 -929 -1421 0
1627 -901 -304 -842 0
1858 -1142 -318 -998 0
790 -1549 -744 -617 0
815 -1412 0
803 -1751 -659 0
836 -1237 -750 -1324 0
-1779 -1070 -1750 0
610 -1047 -1151 -255 0
-272 -1417 -5 0
497 -380 -791 0
1226 -56 -1627 0
-595 -1289 -666 -1529 0
1323 -922 0
600 -52 0
905 -1393 -106 0
-1476 -448 0
775 -86 -1666 -815 0
-1975 -1206 -127 0
1790 -1314 0
-830 -906 -6 0
-1421 -1702 0
-1251 -1888 -1651 -941 0
632 -1761 -499 -11 0
-1136 -1513 0
796 -237 0
-933 -646 -259 -1975 0
1375 -1831 -1082 -12 0
1753 -557 0
-1895 -904 0
129 -105 0
-1861 -923 0
1269 -6 -593 -1223 0
539 -540 0
-1227 -1996 0
-813 -1385 -783 -419 0
1557 -1724 -226 0
1830 -1602 -1067 -1185 0
-966 -742 0
714 -827 -1593 0
1200 -406 -318 -1797 0
233 -1459 -546 -1747 0
587 -55 -626 0
473 -179 -1347 0
-1873 -874 0
943 -1250 -803 0
457 -472 -1737 0
-821 -801 -545 -717 0
1879 -1284 -1041 0
46 -448 -38 -225 0
-1511 -640 0
576 -615 0
1514 -400 -205 0
74 -1348 -419 0
-495 -1517 -1872 0
935 -1998 0
365 -364 0
1545 -1570 -1726 0
1734 -515 0
1754 -1557 -1222 0
-354 -1663 -1253 0
-1149 -1232 -1706 -1029 0
1105 -1208 -1195 -1656 0
1871 -1189 0
1556 -1393 -297 0
1073 -352 -1353 0
-985 -1143 0
965 -102 -1271 -1640 0
620 -149 0
1244 -1075 -478 -305 0
883 -3 0
-1123 -635 -1542 -761 0
967 -835 -1788 -428 0
1353 -701 -343 0
1097 -427 0
1106 -1774 0
1618 -1720 -1424 -337 0
1588 -726 -951 -1865 0
-606 -1332 -1360 0
3 -1925 0
79 -976 -281 0
1155 -23 -62 0
1990 -327 -541 0
658 -627 0
-1217 -792 -1859 -89 0
1759 -1226 0
-697 -1953 -1302 -1886 0
-1826 -132 -21 -691 0
-1802 -826 0
-1091 -27 -1669 0
901 -1446 -1337 0
971 -697 0
1010 -1328 0
890 -519 -783 0
1803 -50 -1891 -1147 0
902 -1001 0
1973 -1574 0
1040 -568 -1972 0
532 -1729 -1812 -1048 0
-381 -98 -1040 0
1520 -40 -1130 0
1639 -478 0
1389 -1599 0
1155 -562 -284 -1116 0
1550 -496 0
-962 -106 -1378 -1474 0
942 -1093 -179 -1600 0
1150 -5 -579 -1900 0
1546 -1301 -474 -1626 0
1463 -1739 0
1208 -657 0
281 -1651 -1836 -1030 0
-787 -1880 -783 0
173 -744 -436 -279 0
21 -1860 -1408 0
-877 -1632 -280 -1578 0
968 -118 -19 -1001 0
-725 -1396 0
1287 -281 -1719 0
1219 -1903 -1976 0
-1953 -853 0
-1145 -1488 0
1935 -1510 0
1612 -471 -1588 0
1129 -126 -835 -1364 0
854 -1295 0
1990 -1785 -532 -1119 0
389 -1282 -765 0
428 -1290 -1073 -1051 0
311 -1716 0
845 -1186 -319 -612 0
1788 -868 -1600 -1101 0
605 -870 -970 -802 0
366 -1237 0
668 -1528 0
236 -107 -11 0
-852 -532 -1290 0
-1979 -104 -368 0
1884 -32 0
1069 -1440 -1859 0
717 -1610 -522 0
1263 -1665 -314 -853 0
942 -1496 0
-1676 -821 -1774 0
-755 -499 0
-227 -441 -955 -1609 0
557 -206 0
-1814 -185 -140 0
101 -1051 -1530 -597 0
1542 -1563 0
1595 -1442 -151 -376 0
1981 -1403 0
754 -808 0
1303 -1329 0
-884 -611 -1273 -1431 0
242 -535 -1362 0
367 -262 0
1158 -590 -505 -444 0
917 -387 -1452 0
663 -1299 -387 -522 0
209 -948 -1627 -1502 0
439 -650 0
-93 -1388 -92 0
51 -279 -1904 -881 0
15 -852 -251 0
360 -1804 -44 -1930 0
809 -754 -465 -1882 0
605 -1669 -1827 0
667 -1086 -1100 0
-1454 -1558 -179 -828 0
1682 -1326 -1676 0
-1634 -504 -268 0
1192 -837 -513 -932 0
85 -125 0
526 -1442 0
1532 -167 0
1823 -203 -148 0
1850 -142 -1076 -1991 0
1956 -1344 -1218 0
591 -1381 -1196 -874 0
-1388 -488 -1952 -102 0
1425 -460 -1480 -558 0
-1786 -1575 0
1481 -1891 -1648 0
-1928 -1780 0
1148 -1014 -1971 0
1904 -1755 -1149 -768 0
870 -582 0
-1 -1102 -656 0
1371 -315 -337 0
-1417 -1524 0
921 -735 -1812 -1969 0
815 -4 -294 -498 0
1770 -385 0
-128 -674 -935 0
1179 -161 -1181 0
596 -215 0
495 -222 0
178 -1283 -930 -435 0
639 -799 0
975 -1873 -388 -206 0
-218 -992 -1843 0
1663 -425 0
-1896 -86 -1607 -268 0
876 -1596 0
1600 -1450 -385 0
1693 -1000 -1890 0
39 -906 0
1209 -81 -659 0
1384 -929 0
497 -903 -844 0
1488 -1693 -1937 0
674 -132 -246 0
531 -301 0
1775 -286 -1946 0
-201 -250 0
-182 -559 -967 0
1857 -380 -1228 -742 0
-348 -88 -162 -446 0
1615 -1930 0
-941 -926 0
225 -1143 -1884 0
1106 -1340 -1375 0
805 -892 -127 0
1869 -1423 -726 -890 0
1651 -758 0
1901 -1612 0
-971 -1753 -725 0
1268 -228 -1947 0
-1501 -1887 -1425 0
1076 -1588 -1964 -104 0
650 -1789 -112 -227 0
426 -146 0
-1441 -109 -1894 0
-1340 -1748 -1428 -1869 0
1832 -1830 -440 0
-1749 -342 -1480 -691 0
1035 -262 -1134 -612 0
-740 -805 -408 -737 0
576 -1684 0
146 -791 -914 -1292 0
73 -523 -781 -1342 0
1494 -1 0
477 -428 0
1615 -1449 -1544 0
235 -1867 0
454 -164 -1543 -1202 0
1566 -1663 0
99 -483 -1788 0
1295 -1281 -327 0
-1369 -736 0
-746 -623 -1748 -827 0
944 -680 -1488 0
189 -1876 0
-960 -425 -32 0
1325 -39 -1886 -528 0
1484 -1158 -796 -1122 0
606 -1923 0
-1986 -1006 -1466 -1798 0
-1309 -1943 -572 0
733 -821 0
1329 -750 -1989 0
728 -245 -32 0
1534 -1232 -1676 -1658 0
221 -731 -1991 0
-820 -862 -1952 0
-1464 -1338 -1667 -1864 0
-180 -488 0
120 -74 -1815 -1376 0
-1198 -390 0
1116 -1720 0
422 -1364 0
1124 -631 -836 -1582 0
234 -965 -1657 -1250 0
909 -1209 0
1870 -1920 -1280 0
927 -807 -572 -1645 0
1631 -690 -43 -399 0
885 -347 0
1144 -1280 -1415 -866 0
917 -691 0
1116 -872 -1882 -1068 0
-907 -1541 -1904 -1626 0
-741 -357 -27 -91 0
908 -125 -171 -1213 0
1880 -1098 -221 0
-720 -1307 0
41 -922 0
-226 -1145 0
-542 -1894 -15 0
-1345 -169 -1954 -373 0
736 -1610 -1292 0
-703 -1387 -1052 -276 0
-38 -1493 0
1985 -1789 -900 0
-538 -1418 -1407 0
494 -1153 -1818 0
1772 -194 0
-1943 -240 0
-440 -53 -193 0
772 -1269 -1285 -918 0
-1422 -1929 -1487 -64 0
517 -1189 0
1255 -1998 -286 0
-1416 -1758 -1417 -128 0
-1637 -393 -1783 0
-1739 -552 -496 0
1606 -1642 -1382 -130 0
1222 -1216 -487 -44 0
1707 -1291 -1352 -1324 0
680 -936 -191 -1480 0
63 -1943 -1534 -913 0
1898 -1758 0
-877 -900 -795 0
24 -939 0
-731 -1675 0
1653 -1949 -241 0
997 -1477 -553 0
16 -267 -967 -918 0
558 -340 -551 -1161 0
399 -383 0
-718 -1881 0
1383 -915 -1538 0
-747 -851 0
641 -906 0
-1913 -1708 -1261 0
510 -649 0
1215 -1593 -1460 -364 0
-1145 -350 -1264 -671 0
887 -1245 -1924 -385 0
1909 -1850 0
-629 -782 -1385 0
-1175 -1051 -1491 -419 0
-1922 -1269 0
451 -1982 0
238 -1406 -551 0
-1893 -371 -236 0
64 -999 -1844 0
1892 -1525 0
711 -817 0
1050 -558 0
1843 -1884 0
1168 -1689 0
1669 -1003 -974 0
1029 -1241 0
1040 -376 -1820 0
448 -351 0
-838 -163 -1509 0
-304 -1473 -830 0
417 -82 0
-1030 -901 -109 0
632 -713 -979 -1248 0
-427 -1605 0
-419 -1950 -1038 -415 0
1499 -1660 0
1490 -1790 -543 0
759 -109 -1912 -157 0
1070 -531 -1415 0
1934 -1717 -628 -950 0
468 -437 -465 0
428 -1122 -1825 -324 0
782 -636 -1250 0
-1016 -1447 0
949 -1212 0
15 -1574 0
-685 -1748 0
1089 -1742 -393 -1555 0
857 -230 -1309 0
898 -1462 -1935 0
1654 -361 -935 0
1090 -406 -1615 0
445 -14 -943 0
1605 -927 0
313 -1776 -1500 0
-1383 -453 0
-1682 -1926 -286 0
-159 -894 -1470 -1792 0
338 -861 0
-1968 -585 -1296 0
-456 -1254 -1898 -348 0
1445 -1098 -1555 -1405 0
1304 -510 0
264 -73 -1768 0
1805 -289 -531 -1093 0
-1634 -779 -1752 0
-1194 -1160 -115 -949 0
1055 -1465 0
-1509 -1240 0
-2 -1909 -868 0
-1024 -1187 -822 0
-1212 -1648 -1343 -1671 0
123 -1680 -263 0
-725 -843 0
503 -582 -917 0
879 -1241 0
68 -621 -958 -603 0
-1371 -700 -507 -1011 0
-1800 -566 -161 0
1538 -1603 0
-1016 -788 -632 0
1743 -1091 0
920 -1712 0
-1804 -214 -1713 -1278 0
-1022 -411 0
1584 -1117 -1661 0
-37 -1638 0
-546 -116 0
1266 -1990 -1077 -1215 0
1101 -978 0
886 -188 -454 0
366 -1173 0
1127 -102 -328 -749 0
-1915 -153 -1086 -1797 0
1026 -950 0
189 -1546 -551 0
-1421 -808 -329 -1459 0
-920 -618 0
798 -1432 0
475 -646 -602 -762 0
1429 -677 0
1168 -553 -1426 -99 0
1357 -190 0
152 -528 -194 0
-1811 -1126 0
843 -1616 -418 0
747 -159 -1785 -1813 0
1455 -1667 -1401 -579 0
-1937 -180 -1967 -81 0
140 -468 -543 0
1826 -1295 -126 0
-566 -1099 -641 0
-1447 -531 -164 -1422 0
1609 -1969 -772 -490 0
1410 -1662 -1429 0
223 -1294 -192 -44 0
780 -1851 -592 0
1080 -502 0
-84 -585 0
805 -1635 -1622 -1737 0
628 -1127 0
1550 -779 -1856 -1684 0
161 -756 -1654 -1219 0
1105 -414 0
250 -1351 0
-419 -1846 -289 -163 0
-1260 -696 0
467 -460 -988 0
1642 -1272 0
-1547 -711 -130 -1616 0
1733 -345 -360 -244 0
-1507 -1946 0
1174 -247 -641 0
-1752 -1706 0
-1978 -1979 -1002 0
1012 -913 -444 0
1965 -611 0
-781 -974 -932 0
1205 -1657 0
-632 -1637 -40 -315 0
216 -638 0
1786 -1561 0
526 -265 -641 -5 0
521 -1685 0
-289 -188 0
-1558 -1959 -87 -358 0
1631 -187 -765 0
821 -1157 -1381 -104 0
90 -1814 -1022 0
976 -618 -1215 -1256 0
1905 -325 -365 0
1949 -1405 0
-753 -1027 -1013 -328 0
-1426 -1411 -356 -474 0
1333 -1735 -596 -713 0
-1269 -1204 -179 0
1610 -929 -939 -350 0
57 -247 -105 -1600 0
991 -1261 0
1535 -1601 -244 -477 0
-1231 -797 0
301 -1438 -1918 0
441 -489 -1400 0
279 -207 0
-1776 -1934 -1699 0
-225 -1372 -1959 0
1735 -217 -1328 -1245 0
1901 -25 0
211 -105 -338 -578 0
355 -1519 -407 0
-675 -329 0
-230 -1064 -1036 0
-935 -859 0
346 -1464 -78 -1611 0
673 -825 -1325 0
1640 -1456 0
-90 -636 -1979 -1538 0
304 -1235 -738 -1083 0
-261 -1859 -303 -733 0
77 -1548 -1807 -699 0
-1556 -54 0
179 -1725 -1465 -1143 0
-1621 -1128 -1106 -1694 0
-974 -317 0
-1378 -1524 -423 0
1055 -916 -1718 0
760 -1690 0
1408 -764 -156 -280 0
1978 -129 0
1811 -1258 0
-958 -747 -237 0
-1591 -1411 -1830 0
-703 -610 -393 0
-658 -454 0
941 -437 -1601 0
512 -1295 -980 0
780 -1304 -1544 0
1687 -747 -1834 -557 0
1289 -893 0
-201 -765 -318 0
1750 -643 0
-1343 -793 -1419 -1025 0
493 -607 -1192 -1794 0
-1869 -1548 0
-578 -1020 0
-1531 -1563 -350 -296 0
1967 -1247 0
44 -1768 0
-1039 -831 -429 0
-1742 -687 0
294 -89 -1619 -694 0
1860 -1521 -219 -929 0
1393 -1441 -1906 0
805 -120 0
1138 -1133 0
1617 -1559 0
-1800 -1194 -1577 0
-1098 -1939 -1208 -1140 0
-1433 -1685 -1397 -1350 0
742 -1502 -899 -294 0
-866 -498 -1061 -1600 0
681 -127 0
1529 -955 -1853 0
-1885 -986 -1277 0
-1773 -1242 -368 -1275 0
308 -1434 -125 -1715 0
83 -1006 -1015 -1789 0
-1572 -589 0
-789 -1762 0
770 -1908 -1284 -784 0
180 -1432 0
1216 -516 0
-1053 -945 -1482 -1562 0
475 -1783 -1709 -621 0
88 -253 -883 0
-196 -841 0
1655 -1996 0
735 -852 -798 0
1721 -788 -1813 -1086 0
1110 -1389 -1910 0
89 -1939 -1821 0
1131 -1635 0
70 -646 0
1297 -316 0
673 -917 -412 -49 0
-354 -1945 -1264 -316 0
-89 -1890 0
738 -21 0
447 -67 -338 0
763 -1305 -301 0
1720 -583 0
-1221 -91 -1906 -1043 0
1380 -1591 0
1982 -837 0
-1778 -168 -816 0
1620 -444 -10 0
617 -27 -866 0
-444 -190 -1962 0
1593 -1268 -994 -1350 0
-338 -1130 -982 -499 0
-542 -855 -645 -681 0
-1804 -696 -1947 0
1685 -194 0
477 -540 0
1363 -370 -1091 0
1535 -1410 -1461 0
1868 -1447 -335 -702 0
-819 -915 0
1121 -1514 -29 0
1900 -1219 -1230 0
2 -1210 -20 -969 0
-1796 -462 -1508 -1732 0
35 -1877 -1571 0
-1536 -472 0
-1641 -317 -97 -908 0
1228 -1198 -822 0
-1444 -110 0
1177 -26 -321 0
-479 -1523 -76 -334 0
-1124 -1518 -1447 -381 0
660 -929 -1273 0
-1234 -54 0
-762 -1987 -86 0
188 -438 -462 -1973 0
884 -207 0
1837 -155 0
-1825 -801 0
1407 -27 -1848 0
1714 -1498 0
-683 -1958 -1250 0
1817 -1452 -1043 0
-1028 -1483 -1149 0
1797 -1232 -1574 -1242 0
429 -1304 0
249 -1963 -1706 0
1393 -1425 -98 0
206 -1962 -259 0
258 -633 -1983 0
1666 -928 -1012 -1617 0
738 -1123 -425 -840 0
494 -907 -455 0
621 -747 -317 0
213 -68 0
1700 -252 0
-1898 -707 -562 0
1599 -1017 -433 -205 0
1744 -794 -1019 -289 0
1644 -1515 0
331 -1478 -391 0
1908 -1359 0
1716 -249 0
-1912 -1259 0
-348 -535 0
-1149 -1820 -1193 -1131 0
837 -1262 0
-1263 -100 0
1938 -1635 0
1379 -1338 -939 -1896 0
439 -399 -512 0
-1387 -1278 0
-1226 -1852 -867 0
783 -970 -1126 0
624 -878 0
-32 -1110 0
1468 -1003 -1082 0
1499 -699 0
1454 -1970 0
857 -264 -295 -1363 0
1021 -1161 0
-443 -1267 -976 -865 0
512 -1272 0
167 -1087 -347 -1954 0
590 -1425 -267 0
-222 -258 -257 -695 0
-432 -728 -87 0
-1065 -1603 0
-970 -1446 -54 0
-867 -1735 -587 0
1500 -603 0
1096 -627 0
165 -1838 -1519 0
974 -1105 -1383 -1986 0
-376 -252 -183 0
-1423 -440 -356 -595 0
1974 -1953 -830 -1676 0
-223 -1019 -1925 -1328 0
1481 -1441 -709 -1696 0
1035 -355 -1233 -35 0
612 -1901 -574 0
1425 -368 -1627 -1762 0
1424 -1945 -878 0
1181 -211 -1374 -323 0
440 -342 0
156 -1544 -1435 -908 0
174 -336 -1608 -156 0
-1504 -1424 -529 -79 0
1723 -655 -901 0
565 -1763 0
1757 -1726 -148 0
1132 -1612 -271 0
1435 -1321 -1157 -364 0
1916 -258 -1781 -730 0
30 -580 -1149 -463 0
-1438 -250 -235 0
1999 -1795 0
940 -960 -8 -1477 0
1067 -1041 0
1319 -677 -63 -1521 0
996 -46 -686 -994 0
1605 -1915 0
1934 -1962 0
837 -643 -735 -346 0
842 -600 -303 -935 0
-1719 -1667 0
697 -1022 -160 -1113 0
662 -1210 0
605 -535 -1570 0
-1369 -1 0
-500 -1682 -889 0
968 -747 -104 -1806 0
1047 -407 0
814 -879 -1120 -902 0
1701 -751 -1232 -1326 0
1008 -1130 -250 0
-60 -390 0
139 -978 -1723 0
-1215 -206 0
34 -1693 -842 0
587 -237 -1169 -1681 0
-1466 -417 0
1452 -1614 0
520 -1087 0
-1006 -1293 -1656 0
1111 -531 -877 -1240 0
-1753 -1832 -1312 0
-1201 -1941 0
1588 -1424 -871 0
826 -445 0
-1273 -1543 -692 0
1229 -347 -1614 -885 0
336 -327 -1924 0
1695 -545 -1602 -552 0
1430 -1369 -359 -1176 0
-28 -760 -149 0
638 -1684 0
-1881 -1117 0
-273 -1456 -1581 0
340 -101 -1981 0
1275 -1187 0
-593 -485 -118 0
1215 -1121 -918 -94 0
1222 -1957 -1630 0
1310 -204 -308 -1340 0
1412 -1877 -1750 0
-928 -989 -112 0
-1576 -1581 -71 0
572 -134 -939 0
-803 -1042 -232 -1749 0
739 -1671 -1494 -32 0
1370 -1031 0
356 -407 -584 0
-53 -1694 -1780 0
768 -1068 -430 0
101 -1987 -731 -794 0
1419 -672 -1784 0
1220 -857 -78 -1841 0
-1254 -1894 -1664 -1713 0
1274 -1390 0
-1373 -1763 0
1279 -1871 -431 -258 0
1844 -1141 -1307 0
-748 -186 -972 0
-1270 -1903 -1175 0
1319 -343 0
-142 -1071 -725 -1101 0
-1697 -729 -137 -1712 0
137 -401 -1263 0
686 -624 -1832 0
1212 -1431 0
1697 -1129 0
1808 -1482 -1781 -704 0
-1759 -1424 -170 -1172 0
5 -1070 -244 0
1866 -647 0
1698 -507 -1327 0
78 -1285 -229 0
1518 -1315 -924 -580 0
-863 -1241 -1976 -889 0
-1097 -1576 0
1350 -1195 0
103 -335 0
-1680 -308 0
-211 -548 0
1399 -1646 -770 -1584 0
199 -1050 -284 -837 0
-1963 -1537 -1644 -1116 0
-991 -1716 -832 -1084 0
-485 -129 -611 -1036 0
1631 -44 -1581 0
-834 -1975 0
1562 -1696 0
-545 -1761 0
-864 -1756 -1384 -1858 0
-1151 -55 0
1910 -254 -523 0
1762 -288 -422 -1792 0
590 -1491 -571 -379 0
1674 -1099 -1578 0
658 -80 -262 0
1283 -1129 0
719 -1221 0
230 -463 -787 -656 0
-295 -62 -191 -402 0
1848 -457 -1946 0
1482 -339 -1010 -425 0
-1885 -453 -1166 0
44 -592 0
-1514 -1603 -1414 0
105 -1144 0
514 -1042 0
212 -1816 -1451 -448 0
279 -1060 -1663 0
-1156 -1941 -1418 -172 0
99 -706 0
-881 -1561 0
-32 -628 -316 -680 0
99 -1217 -1725 0
1753 -258 -1241 -241 0
1254 -250 -234 -241 0
564 -231 -1261 -1700 0
1605 -263 0
-160 -1843 -859 0
1690 -25 -1362 -1025 0
-1009 -1760 0
-1182 -444 -1214 0
1362 -39 0
1936 -40 0
76 -1755 0
1504 -1198 -611 0
1837 -1003 0
-560 -1283 -1801 -399 0
-570 -943 -1541 0
103 -635 0
753 -1213 -356 0
467 -483 -254 -1752 0
577 -648 -1605 0
506 -1088 -92 0
1886 -682 -362 -868 0
518 -435 0
1508 -970 0
808 -1319 -1196 -1852 0
1460 -1532 -322 0
69 -1142 -269 0
-1143 -827 -948 0
227 -202 -5 0
1964 -1516 -1639 -1812 0
1086 -129 -843 -1440 0
47 -1301 -1586 0
-1053 -313 -842 -1660 0
1989 -1683 -1716 0
-346 -902 -527 0
-1120 -622 -1668 0
-398 -993 -858 -922 0
1238 -1805 -126 0
-951 -985 -266 -1139 0
1342 -398 0
813 -209 -425 -317 0
3 -1586 -1174 -321 0
-1677 -1468 -886 0
1048 -1327 0
1011 -834 -157 -1941 0
-169 -1661 -1381 -1985 0
-772 -1462 -1788 -1058 0
1395 -1667 0
334 -357 -1228 0
405 -1114 -1912 0
1619 -1608 0
439 -1093 -1345 -1880 0
-507 -1292 0
-1931 -31 -205 0
-787 -642 -695 -1889 0
-459 -591 0
490 -1213 -1802 0
-1826 -1891 0
1130 -1069 -522 0
1332 -1768 0
1020 -1917 -692 -92 0
1645 -812 -174 0
-975 -1882 -965 0
669 -316 -1961 -113 0
33 -1769 -582 -448 0
-1147 -715 -665 0
-1220 -917 0
-1951 -1643 -489 -119 0
465 -1942 -409 -1026 0
1695 -1663 -1328 0
1799 -139 -858 -1786 0
839 -1458 -1994 -1714 0
139 -1272 0
689 -639 0
1084 -774 0
-237 -704 -1988 0
1619 -1735 -1281 -427 0
-996 -62 -189 0
401 -956 0
-256 -1919 -899 0
306 -5 -563 -169 0
1724 -547 0
286 -1048 -283 0
1939 -782 -1986 -1945 0
-1915 -298 -756 0
1820 -456 -818 -354 0
-120 -1737 0
597 -1873 0
880 -1765 -447 0
868 -542 0
-1322 -1860 -1422 0
1635 -1700 0
-1191 -1101 -55 -260 0
50 -719 0
686 -856 -1973 -1579 0
1103 -39 -487 -1871 0
1740 -1097 0
1739 -1677 -1323 0
886 -70 -134 0
586 -19 -1204 0
1648 -1716 0
109 -1562 0
80 -329 -1048 -54 0
-263 -441 -1434 0
-1132 -1785 -1866 0
845 -1643 0
79 -472 0
356 -1076 0
180 -164 0
-703 -697 -1168 -762 0
74 -1539 -1596 -918 0
-950 -418 0
-1481 -1798 -860 -1671 0
281 -1785 -290 -1692 0
452 -170 0
1199 -224 0
608 -1578 -1487 -1055 0
1497 -119 -116 -1635 0
1617 -1641 0
-787 -1891 -646 -1060 0
1914 -1121 0
-1425 -1986 0
419 -266 -1845 0
9 -854 -1443 0
1696 -1563 0
1407 -985 0
1476 -1233 -1816 -785 0
-792 -396 0
1880 -530 -1982 0
1859 -635 -1836 0
-177 -1998 0
1779 -560 -1924 -534 0
-1185 -51 -682 -63 0
1929 -501 -1823 0
490 -1085 0
1677 -859 -691 0
-1144 -1584 -1433 -409 0
1302 -1862 -1086 0
-618 -1558 0
688 -623 0
979 -1256 0
169 -25 -1348 0
350 -576 -1779 0
637 -1345 -1942 0
1484 -997 0
-703 -168 -1387 -1961 0
794 -1240 -1790 -1647 0
1617 -1079 -350 0
1669 -1739 -1455 0
-1670 -142 -1522 -532 0
1649 -135 -823 0
170 -36 -607 0
-1994 -68 -641 -1546 0
1314 -1366 -1350 -1728 0
680 -1032 0
-1286 -1490 0
1526 -1911 -13 0
432 -542 -454 0
305 -1623 -988 0
48 -712 0
884 -1304 -239 0
-1261 -927 -1459 0
1510 -495 0
428 -1599 -1217 -497 0
1322 -288 -269 -88 0
-210 -1686 0
1578 -296 -334 0
-1799 -742 0
-232 -1035 -1602 -444 0
-812 -396 -1859 -546 0
695 -1218 -447 0
1679 -198 -191 0
1959 -118 -921 -1933 0
-1579 -1977 -1187 0
1514 -1273 -39 -1540 0
260 -136 0
1475 -343 -282 0
175 -947 -155 0
525 -1868 -412 0
512 -10 -381 -665 0
1460 -636 -1485 -623 0
-697 -362 0
908 -1082 -206 -318 0
1572 -987 -592 -1542 0
1357 -5 -1949 -711 0
1397 -1115 -1622 -814 0
-602 -57 -190 0
253 -410 0
1861 -443 -1515 -362 0
1093 -1898 -544 0
-1158 -1197 0
-118 -454 0
103 -1666 0
-82 -1401 -1502 0
793 -537 -392 -708 0
821 -1130 0
-1442 -1652 0
-600 -762 -1364 -1223 0
1811 -1921 -324 -761 0
525 -861 -1958 -781 0
351 -1553 -909 0
1623 -485 -362 0
732 -1000 -1950 0
-273 -268 -569 -111 0
1565 -98 -603 0
556 -160 0
-80 -1970 -399 0
1703 -1947 0
-195 -684 -505 0
1325 -1829 0
123 -249 -1917 -720 0
-1907 -1274 -1583 0
1941 -938 0
314 -586 -176 0
694 -326 0
68 -1404 -434 -1443 0
1825 -773 -466 -348 0
773 -1323 0
685 -1317 0
1219 -1602 -430 -1752 0
429 -1967 -712 -1597 0
198 -1274 0
691 -1424 -805 -1998 0
-1954 -1506 0
24 -977 -1214 0
1929 -851 -720 0
-594 -1681 -172 -1719 0
321 -991 0
704 -1163 -986 -1454 0
1914 -977 -1061 -915 0
874 -1466 -635 0
1700 -85 -1418 0
-1783 -1638 -1951 0
-71 -1534 -410 0
674 -1123 -1604 0
509 -1609 -1721 -1980 0
1820 -929 -781 0
-929 -1348 0
1515 -1091 -1604 -1580 0
522 -1110 -1514 -563 0
-1258 -1309 -1699 -1752 0
635 -1689 -86 -283 0
-282 -1417 -327 0
-64 -1663 0
1106 -465 0
836 -338 -668 -866 0
920 -970 -218 0
-1330 -931 0
1193 -1235 -416 -1780 0
-186 -816 -1626 -899 0
890 -202 -406 -1866 0
702 -808 0
-101 -818 0
515 -48 -1625 0
1999 -791 0
1222 -1655 -1756 0
1001 -1621 0
1339 -1817 -12 -272 0
1755 -1085 -1907 0
-832 -1139 0
-198 -1406 -1622 0
-1956 -1681 -562 -994 0
1404 -1305 -640 -901 0
91 -817 -1633 0
1508 -1088 0
-1098 -1117 -210 -1216 0
375 -762 -1710 0
1140 -567 -661 0
-1027 -1427 0
1131 -1007 -1724 -192 0
573 -1310 -916 0
392 -923 0
712 -1497 -1376 -905 0
-858 -1497 -1696 0
-267 -1854 -83 -1285 0
1944 -765 -135 0
6 -1050 0
444 -680 0
965 -1485 -103 0
714 -482 0
1039 -1248 0
1381 -1296 0
904 -1606 -1610 0
-1637 -217 -988 0
1396 -474 -1196 -304 0
-1945 -223 -22 -206 0
158 -1204 0
-5 -1787 0
101 -656 -1098 -1973 0
675 -1163 -360 0
-741 -1514 -1297 0
541 -1902 -663 -534 0
574 -162 -742 0
224 -1516 0
620 -445 0
-1919 -1366 -604 -1054 0
-918 -308 -1039 0
103 -797 0
1353 -212 -430 -581 0
-908 -425 0
205 -826 -1912 0
144 -670 -1892 0
1292 -1022 0
1511 -33 -264 0
1885 -214 0
1791 -1654 -1879 -709 0
886 -1622 0
17 -1601 -532 0
640 -1761 0
94 -1196 -553 -1975 0
-1874 -1500 -854 0
-87 -1671 -1810 0
382 -717 -264 -1444 0
1825 -1866 0
1209 -1072 -1592 0
-1019 -1599 -807 -667 0
235 -1030 -8 -1444 0
932 -141 -609 0
1255 -1963 -606 0
1596 -1811 0
926 -435 -943 0
1576 -1623 -1950 -681 0
-750 -426 0
838 -1909 -1329 0
295 -1147 -1225 -327 0
-1530 -737 -469 -101 0
1126 -1133 -38 0
-744 -1348 -632 -19 0
904 -295 -408 0
1037 -936 -1711 0
1464 -665 0
1126 -1663 -1452 0
1205 -655 0
1979 -1836 -524 0
859 -437 0
831 -532 -1901 0
1900 -411 -356 0
-1364 -424 -12 -1119 0
916 -1911 -1007 0
1040 -547 -12 -1459 0
307 -1509 -195 -1501 0
444 -214 -1971 -1151 0
15 -618 -391 -1215 0
-1472 -1349 -695 -1813 0
1334 -1451 0
-1907 -579 0
-622 -1354 0
1696 -1774 -1753 -140 0
695 -1183 -1016 0
-532 -814 -681 0
1462 -1963 -1023 0
-254 -918 0
110 -307 -15 -1125 0
-1794 -1901 -431 0
1476 -33 0
348 -291 -1081 0
808 -1844 0
1731 -1944 0
1453 -1822 -1756 0
346 -1128 -552 0
1735 -1896 -1818 0
1517 -1647 0
1021 -772 -156 -582 0
421 -1313 -375 -1146 0
1819 -707 -751 0
1813 -1926 0
1565 -187 -1004 0
1227 -1756 -1939 0
307 -1033 -1775 -981 0
406 -1107 0
-885 -1698 -588 -252 0
387 -1712 -1458 0
1810 -184 -948 -1452 0
1539 -1995 0
1117 -1930 -78 0
168 -20 -1516 -377 0
-1785 -104 -81 0
705 -1256 0
415 -1029 -1897 -1459 0
462 -704 -637 0
895 -1811 -1439 0
1153 -1982 0
-489 -41 -500 0
1015 -142 -384 -859 0
-1094 -880 -669 0
-559 -345 -183 0
159 -1496 -722 0
1671 -16 -1850 0
-1961 -97 -2 0
-1176 -795 0
960 -410 -1640 0
1999 -792 -1057 0
425 -1749 0
-981 -319 0
589 -680 -1042 0
1992 -920 0
-1556 -1912 0
1759 -1622 -1645 0
-1481 -1266 0
1414 -229 -595 -1180 0
1166 -1379 -1534 0
1836 -586 -96 -831 0
1822 -1399 -1339 0
372 -431 -869 -1919 0
1631 -785 -999 -1800 0
1351 -1988 -1712 0
1355 -512 -774 0
1304 -556 0
1718 -1915 -491 -159 0
595 -1819 -503 0
-1123 -1454 0
1234 -1794 0
-1905 -1077 -238 0
394 -208 -1440 0
311 -492 0
-1982 -130 -1362 0
947 -1678 -1353 0
1669 -1167 -269 0
1744 -1536 0
-1022 -327 0
1793 -1209 -1739 -1782 0
-357 -1334 -1847 -4 0
125 -1237 -1312 0
-1553 -1226 -1937 0
718 -1586 -1490 0
-1768 -1419 -1830 0
189 -1880 0
1708 -1530 -214 -585 0
1980 -15 -967 0
1995 -1210 0
789 -699 -11 0
1204 -904 -1224 0
-767 -1022 -294 0
-1034 -1144 0
-292 -524 0
846 -1857 -840 -1869 0
1784 -109 -1833 -1175 0
510 -1586 -1508 -398 0
1765 -1339 0
-892 -197 0
910 -1057 -1990 -1580 0
-178 -915 -1998 -114 0
-1945 -746 -455 -1080 0
-855 -954 -961 -1909 0
1055 -267 -1185 -1854 0
1898 -1127 -639 0
49 -627 0
1144 -135 -1581 -1479 0
-305 -1910 -1874 -362 0
-1810 -472 -244 0
-515 -1891 0
841 -647 -816 0
425 -1467 -779 0
201 -1637 0
-356 -1796 -849 -87 0
1299 -1411 -1449 -1009 0
109 -420 -600 -651 0
-496 -1723 0
949 -721 -197 0
-133 -981 0
231 -1292 0
1834 -1462 -743 0
1132 -814 -1207 0
1430 -944 -1477 0
767 -724 -1486 0
-1489 -471 0
-1908 -1001 0
1360 -1049 0
1152 -47 0
55 -940 -1616 0
-1213 -609 -761 -1201 0
324 -1000 -1757 0
288 -1067 0
769 -269 -543 -1327 0
-1836 -1494 -8 0
-118 -1511 0
1040 -1148 -101 0
1528 -1214 0
999 -274 -1973 -993 0
78 -1591 -1350 0
-1674 -558 -1921 -215 0
375 -1532 0
1724 -266 -741 0
1168 -100 -667 0
1708 -1707 -1903 0
-583 -368 -7 0
615 -1206 0
439 -320 0
-1421 -887 -825 0
1967 -362 -1371 -988 0
687 -1269 0
1962 -397 -326 0
1989 -218 -1604 0
-207 -288 0
1760 -1572 -998 -789 0
416 -441 -1230 0
454 -555 -705 0
1106 -979 -1264 -1508 0
1711 -1591 -986 0
-728 -1266 -479 0
1394 -1797 0
1109 -1533 -782 0
773 -51 0
137 -636 0
-549 -1141 -30 0
1923 -530 -12 -1199 0
963 -1538 -428 0
1572 -1458 0
-494 -827 -1953 -1622 0
1248 -1265 -222 -303 0
96 -1296 -540 0
-663 -1871 -1894 0
1470 -999 -1143 0
505 -152 -1938 -1429 0
1257 -247 0
-1658 -216 -1412 -748 0
1523 -1473 -935 -239 0
-1280 -1865 -366 0
154 -489 0
-1014 -452 -627 0
571 -1090 0
1027 -1132 -1952 0
-1664 -636 -1790 -1292 0
409 -1949 -1070 -750 0
-228 -541 -1474 0
-1115 -263 0
184 -1901 -1656 0
-1326 -831 0
994 -968 -1510 0
1257 -211 -1853 -1337 0
-1896 -561 0
1059 -431 -1522 0
255 -660 -1691 -1548 0
1609 -406 0
848 -96 -349 -1948 0
1741 -1358 -557 0
-1414 -234 -1399 0
-597 -587 -856 -1938 0
906 -1431 -1356 0
116 -550 -1021 0
-862 -293 0
15 -385 -1694 -451 0
-21 -1480 -1547 0
1822 -272 -300 -1820 0
1479 -762 -1721 -733 0
621 -650 0
974 -109 -1385 -151 0
1313 -1507 -1986 -1464 0
-658 -50 0
1943 -696 -1092 -1411 0
909 -226 -1341 -301 0
1171 -788 -1072 -1291 0
1690 -1242 -375 0
892 -255 -651 0
933 -122 -1214 0
-914 -827 -1894 0
-1842 -550 -1624 -1162 0
1256 -1472 -673 -606 0
491 -1745 -668 -1754 0
90 -1551 -903 -1590 0
1220 -1356 -1000 -663 0
283 -1049 -436 -1504 0
-1121 -801 0
-1532 -913 -1178 0
1762 -783 0
821 -1670 -891 0
1668 -731 -1512 -185 0
-164 -358 0
-366 -1039 0
-1664 -225 -463 -1220 0
1534 -499 -1450 0
156 -1790 -453 -109 0
-861 -663 0
374 -1343 -1524 -1136 0
-419 -376 -1358 0
1493 -1132 -1719 -975 0
1055 -103 -145 -1156 0
-456 -278 0
-735 -1448 0
637 -1537 0
-426 -1854 -556 0
1817 -1988 -1096 0
1341 -1882 -1831 -1982 0
1105 -595 -717 -383 0
431 -596 -1596 -78 0
485 -486 -908 -1392 0
1605 -1896 -936 -1943 0
1450 -193 -76 0
523 -1941 -1386 0
817 -1365 0
1026 -1495 -1888 -256 0
-1659 -400 -411 -256 0
-257 -623 -1786 0
49 -1786 -1118 0
-465 -1699 -1674 0
-948 -1292 -533 -1663 0
429 -970 -1652 -1633 0
-184 -1813 -418 0
1193 -1827 -1235 -307 0
1061 -1366 -334 -1903 0
-1571 -1877 -743 0
1245 -451 0
1866 -1122 0
-1362 -542 -1001 0
1849 -1080 -1578 0
-1455 -1554 -1346 -1798 0
1525 -695 -1802 -1821 0
1071 -1066 -331 0
-647 -1923 -942 0
615 -1538 -359 -349 0
1964 -1511 0
1553 -1966 -22 -736 0
129 -417 -1523 -92 0
-974 -714 -289 -798 0
1380 -811 -878 0
1004 -1326 -1403 0
1400 -844 -619 0
1144 -765 -537 0
-1059 -896 0
1048 -283 -290 -507 0
-173 -1881 -51 -111 0
1855 -1010 -1137 -1535 0
-1072 -1131 -1482 -21 0
377 -1597 0
1127 -737 -671 -1777 0
1742 -621 0
-94 -844 0
-1222 -1580 -1673 -745 0
1332 -1087 -192 -1117 0
1795 -1062 -700 0
1182 -1171 0
1972 -444 -1178 0
621 -1072 -442 0
1685 -516 -1843 0
1294 -844 -971 -1334 0
-1216 -672 0
424 -1552 -1687 -1711 0
335 -1612 -1782 -683 0
-411 -945 -1864 0
1435 -715 -1774 0
590 -1698 -619 0
-1726 -221 -1180 -605 0
1181 -785 -1924 -1118 0
1069 -1663 0
258 -1031 -1099 0
1895 -804 0
299 -1854 -877 -37 0
338 -32 -1019 -2000 0
523 -258 -223 0
8 -1796 -585 -1627 0
1328 -1316 -1695 -1595 0
-1392 -1426 -1754 0
-1153 -159 0
1091 -1261 -1628 -500 0
694 -43 -1815 0
148 -914 -1433 -1135 0
-627 -1996 0
151 -930 -1265 -1306 0
1276 -805 -877 -599 0
-827 -972 -266 0
845 -1415 -35 -1531 0
240 -1497 0
-1474 -858 -1703 -318 0
-784 -696 0
880 -1736 -1697 -1834 0
-1148 -1565 -1528 -1943 0
-1353 -212 -1801 0
1993 -1513 -1358 0
-1306 -930 0
1354 -1690 -1527 -345 0
-774 -1129 -1133 0
891 -873 -272 0
-486 -1504 -513 0
167 -1524 -1540 -753 0
-1434 -331 0
1973 -1540 -1557 -728 0
-983 -1996 0
1333 -608 -215 0
456 -870 -1502 -1571 0
-1640 -970 0
-523 -1123 -86 0
-542 -632 0
1411 -453 0
-1668 -1704 0
1900 -641 -876 -454 0
-909 -1862 0
1771 -570 0
-354 -1726 -1727 0
1355 -195 0
632 -1799 0
-1353 -1010 -77 0
-673 -1152 -1938 -1796 0
881 -1432 0
-179 -615 -631 -201 0
1813 -1808 -554 0
1566 -1758 -1289 0
-1711 -256 -1568 0
70 -523 -1441 0
-765 -273 -880 0
1102 -1175 0
1721 -647 0
479 -845 -794 -1957 0
-212 -1935 -345 -89 0
-1083 -1829 -1416 -1887 0
790 -955 -1421 -1478 0
692 -1667 -1830 -1664 0
-1516 -1713 0
1728 -1351 0
-1747 -228 0
844 -1745 -1675 -135 0
-1096 -250 -816 -1519 0
-245 -1013 -976 0
265 -425 -1475 0
446 -1144 0
-1061 -399 -1619 0
478 -1526 -1598 0
1525 -1865 -1456 0
-1558 -1022 0
1195 -1813 0
-1842 -983 -1776 -1020 0
1060 -1789 -445 0
-448 -1641 -1556 0
69 -1272 -1769 -1065 0
-1398 -1551 -1672 0
706 -411 0
786 -1840 -316 -1053 0
995 -1848 0
-904 -891 -1228 0
-1712 -1570 0
1448 -619 -907 -1225 0
1751 -1932 -1933 0
273 -911 -1224 -1906 0
546 -67 -1670 -981 0
1158 -1769 -1692 -1905 0
-1493 -1169 -1658 -1969 0
787 -1026 -629 0
766 -496 0
-88 -1440 -69 -1952 0
-1715 -379 -433 -1164 0
-1701 -1206 0
1674 -584 0
1057 -305 -814 -961 0
230 -1558 -1850 0
1234 -1721 -512 0
1902 -660 -674 -1595 0
1432 -1588 0
734 -713 -1284 0
-539 -606 0
1690 -1179 0
1082 -1816 0
1466 -1246 -833 -357 0
-1776 -1463 0
-224 -528 -206 0
-1383 -1351 -735 0
1416 -789 -1985 -141 0
1896 -1745 -1795 -1479 0
1247 -961 0
222 -926 -396 -695 0
1235 -1383 0
1775 -1286 0
340 -1126 -1859 -1376 0
1637 -581 -341 0
1772 -768 -119 -1102 0
676 -1011 0
1601 -440 -1830 -1464 0
1364 -1476 0
1467 -349 0
1476 -1487 0
108 -320 -678 0
-836 -1746 -1631 -1004 0
1682 -1002 0
1484 -286 -1321 -379 0
437 -1194 -1634 -204 0
748 -982 -1507 -798 0
1626 -1813 0
354 -10 -155 -31 0
1892 -1576 -995 0
1845 -1549 -510 0
629 -1328 -1262 -261 0
588 -1631 -418 -929 0
-315 -447 -847 -1673 0
-1673 -1636 -491 -145 0
893 -1910 -840 0
336 -930 -1927 0
1218 -143 0
575 -1510 0
-1015 -1131 -829 0
1154 -1808 -1174 -1094 0
37 -569 0
556 -1998 0
-1768 -1565 -1129 0
1500 -1992 -487 -1750 0
1288 -224 0
136 -1627 -799 -300 0
276 -872 -1714 0
-259 -147 0
-979 -631 -877 0
-1983 -1772 -433 0
318 -779 -1006 -1847 0
1342 -874 0
604 -666 0
517 -1899 0
1074 -1126 -1741 0
226 -619 -1880 -1558 0
1068 -981 -1442 0
-657 -616 0
56 -1358 0
1345 -1145 -782 0
92 -1602 -1987 -455 0
-229 -756 -1592 -405 0
364 -858 0
-141 -1236 -646 0
-1222 -173 -1309 0
1274 -1872 0
1845 -230 0
1167 -111 -244 -1373 0
1325 -1209 -1981 -82 0
1610 -1131 0
-949 -64 0
-193 -689 -484 0
1050 -1737 -1024 0
882 -657 -1985 0
1215 -1029 0
1725 -1156 -804 0
1723 -1911 0
1872 -1374 0
859 -357 0
-932 -1573 -175 0
1755 -1941 -369 -445 0
433 -1048 0
1761 -263 0
-1257 -1457 -633 -354 0
-96 -706 0
863 -151 0
-752 -952 -2 0
-418 -740 -799 0
1072 -1189 0
1106 -381 -1637 -1259 0
-415 -1643 -416 0
547 -1663 -1979 -719 0
582 -1067 -611 -1087 0
-1399 -1993 -894 0
-140 -969 0
1408 -1491 -247 0
-1752 -369 0
-1640 -1521 0
731 -1533 -1652 -208 0
1419 -18 0
860 -1421 0
-1181 -1161 0
595 -1984 -147 -388 0
1323 -1659 -1396 0
1877 -1243 -373 -989 0
519 -60 -1145 0
1172 -1508 -886 -137 0
614 -677 0
674 -689 -576 -1094 0
-1896 -1248 0
-1193 -1951 0
1251 -637 -157 -908 0
1329 -299 -345 0
1749 -587 -1760 0
314 -170 0
-1374 -352 -1564 -994 0
-918 -87 -1452 0
-372 -1011 -919 -1856 0
1341 -1100 0
-600 -537 -28 -1562 0
-810 -113 -420 -284 0
176 -1265 -1535 -820 0
-772 -411 0
1919 -770 -1824 -229 0
1560 -2 -459 0
-1292 -1531 0
-1728 -1190 0
-342 -913 0
1411 -411 0
102 -332 0
1651 -1996 -239 -1101 0
244 -1751 -224 -1151 0
1790 -978 -1182 0
-1325 -809 -637 0
-1892 -1519 -1621 0
430 -1183 0
1616 -1462 -1242 -1727 0
332 -1314 -1342 -701 0
284 -870 -1479 0
1283 -1919 0
257 -363 0
1892 -1829 -813 -343 0
265 -161 -241 0
139 -1405 0
-749 -1717 -1199 0
1725 -589 0
1453 -21 -769 0
-765 -205 0
-824 -1708 -1563 -1323 0
1718 -1296 -794 -1644 0
-1506 -143 -1756 0
778 -392 0
509 -1918 0
-1758 -1492 -116 -13 0
1972 -1073 -612 -1268 0
-845 -1458 0
-1930 -636 0
1575 -506 0
-1359 -1972 0
-438 -52 -711 0
90 -417 0
1109 -1882 0
1512 -1524 0
-1013 -1780 -889 0
-837 -1246 -1767 0
-203 -465 0
1391 -1740 -1376 0
-48 -1234 -93 0
702 -1847 -713 -1839 0
1669 -550 -1145 -663 0
1214 -64 0
176 -1445 -18 -251 0
595 -1278 -172 -136 0
1689 -212 -970 0
281 -1099 -83 -575 0
843 -937 0
1477 -1067 -363 -494 0
724 -347 -1243 0
455 -478 -1457 -1055 0
1023 -1101 -659 -1161 0
1136 -606 -1089 0
-1501 -1566 -1360 -892 0
1923 -1293 -1582 -623 0
312 -845 -104 0
66 -922 -1632 -601 0
297 -541 -1772 0
1042 -1394 0
1704 -1369 0
1829 -1263 -647 0
1343 -837 -683 -1929 0
680 -610 -683 -1720 0
236 -370 -740 -1493 0
-1251 -103 -883 -333 0
-1148 -901 -1638 0
1653 -1297 -1998 0
1337 -312 0
525 -1369 -1444 -1625 0
-1998 -1773 -1131 0
16 -1929 0
-987 -968 -334 0
-1630 -1222 -618 -1869 0
24 -1329 0
423 -319 -1513 -760 0
1204 -952 -926 0
-1605 -1472 -725 0
232 -1652 0
-885 -1815 0
1365 -1564 -1762 -1285 0
1591 -1526 -168 -162 0
1840 -299 -1715 -649 0
1347 -501 0
813 -935 0
1331 -28 0
-840 -194 0
1972 -1081 -332 0
801 -94 0
-32 -135 -1021 0
338 -1563 -1109 0
846 -1378 0
-1267 -1977 0
28 -1993 -142 -1356 0
387 -535 -1378 0
1103 -557 0
690 -100 -1842 0
-623 -507 -1562 0
1325 -33 -890 -1069 0
-1057 -1333 -1401 0
-1473 -1873 -138 0
1029 -1250 -1704 0
1649 -618 0
602 -802 -273 -97 0
1070 -172 -573 0
583 -1631 0
-1721 -1021 -443 -767 0
1075 -554 -101 -725 0
1978 -1786 -1807 -47 0
-1999 -1658 -758 -1944 0
231 -1712 0
-1657 -955 0
950 -1224 0
-552 -990 -27 0
-1375 -38 -1576 -799 0
-1789 -1496 0
325 -875 0
918 -158 -1457 0
449 -1133 -1083 -870 0
-1557 -1058 0
1005 -1268 -329 -1117 0
-1157 -1771 0
-1139 -1734 0
686 -5 -1077 0
685 -1279 0
1557 -1943 -153 -1676 0
1728 -427 -79 0
1261 -481 0
1243 -1288 -1093 0
933 -891 -1517 -1964 0
-9 -1924 -1077 0
1943 -171 0
329 -1516 -277 -1521 0
697 -1456 -160 0
-743 -289 -1633 0
-1613 -1353 -1491 0
-1888 -701 -1607 -268 0
1322 -1109 -1157 0
762 -1163 0
796 -1319 -1529 -458 0
1837 -975 -347 0
458 -555 0
393 -1083 -1913 0
191 -1527 -129 -454 0
777 -1560 0
1938 -901 -700 0
1917 -1352 0
-815 -718 -1575 -462 0
554 -1492 -1503 -1709 0
1716 -1789 -497 -428 0
1511 -1455 -1981 -87 0
1997 -1499 0
378 -1894 0
149 -1825 0
1112 -574 -576 -986 0
373 -519 0
373 -1647 -423 -1562 0
-726 -1488 0
-1071 -871 -1059 0
84 -412 0
157 -1809 0
1681 -1604 0
-164 -1576 -1233 -430 0
1559 -1434 -891 -781 0
1645 -395 0
979 -1039 -884 -461 0
1474 -1044 -61 0
-905 -1120 -1144 0
1786 -956 -1904 0
-50 -1939 -990 -49 0
1128 -46 -1703 -1871 0
65 -1336 -433 0
-764 -565 -1112 0
1401 -584 -925 0
133 -447 -1980 0
-1311 -1111 -1411 0
1551 -344 -1131 0
518 -1763 0
635 -1493 -1666 0
362 -273 -1427 -1591 0
1053 -1285 0
-779 -805 -1705 -893 0
863 -1707 -1696 0
1434 -1148 -1858 0
1754 -1116 -1135 -1906 0
-1345 -1382 -1494 0
1373 -1658 -446 -1310 0
774 -1940 -1164 0
13 -440 0
1920 -386 -1345 -1639 0
200 -212 -819 0
218 -1756 -260 0
818 -1074 -49 0
519 -27 -728 -284 0
-186 -1063 -889 -476 0
348 -1112 -1458 0
1291 -496 0
-1156 -269 -35 0
-258 -985 -1176 -452 0
1350 -1051 0
1369 -1511 -239 0
1472 -842 -144 0
1650 -757 -610 -927 0
270 -1144 -1529 -763 0
-1956 -194 0
62 -944 0
-181 -233 -133 0
1794 -1182 -888 -300 0
-786 -613 -688 0
1737 -233 -1334 -282 0
1413 -994 -1400 0
-756 -1696 0
1420 -1677 0
-1795 -1113 -1156 -1196 0
1214 -1899 0
343 -1633 0
678 -1505 -829 0
666 -742 -1350 0
520 -1129 -1704 0
-372 -1254 -1608 -1319 0
-995 -807 0
-1280 -1014 -1934 0
48 -76 -1075 -395 0
-1565 -566 -216 -1939 0
638 -1856 0
-631 -1741 -1165 -742 0
463 -671 -420 -1857 0
62 -1729 0
1835 -1086 -1990 0
1132 -1374 -1529 -35 0
681 -660 -432 0
-594 -565 -1949 0
880 -1383 -1126 -212 0
777 -933 0
-444 -1535 0
58 -992 0
-1290 -56 0
1529 -1353 0
-1358 -252 -1867 0
-1036 -968 0
-1726 -1171 -1123 -1166 0
-1100 -1974 -500 0
-71 -1470 0
682 -1587 -1914 -235 0
802 -429 0
368 -586 -1680 0
1226 -1994 -1598 0
1913 -849 -1481 -922 0
25 -649 -1195 0
1765 -728 0
1895 -1607 -80 0
1753 -1414 0
195 -287 -1502 -545 0
933 -1127 -1408 -1174 0
633 -522 0
1200 -1320 -1675 -1213 0
-1148 -826 0
1808 -1437 0
-1058 -362 0
-333 -1049 -1980 -1061 0
829 -1993 0
378 -1505 -820 0
225 -810 -914 -1744 0
1451 -1928 0
812 -533 -1028 -1331 0
436 -950 -1583 0
-180 -753 0
1880 -1993 -1276 0
267 -1956 0
-51 -39 0
-711 -1281 -855 0
-1204 -650 0
-1384 -1244 0
-1592 -198 -1508 -1184 0
-233 -369 -771 0
-1401 -1402 -638 0
1298 -270 0
-1571 -1162 0
1358 -476 -1114 0
592 -1453 0
286 -579 0
-940 -1181 -1189 0
134 -202 0
1260 -1062 -1306 0
1547 -810 -637 -1738 0
1079 -1830 -1835 -359 0
1249 -560 -1996 -622 0
130 -1593 -873 0
109 -1283 -1889 0
-1216 -1467 -1639 -608 0
1028 -1922 -575 -504 0
1450 -1481 0
565 -1870 0
1241 -1793 -133 0
-411 -152 -526 0
334 -862 0
-1614 -685 0
-1138 -146 -79 -563 0
241 -1663 0
1652 -1286 -1360 0
1949 -455 -663 -1586 0
1748 -1185 0
213 -1222 0
367 -916 -1105 -1324 0
1210 -784 -1536 0
1759 -666 -567 -455 0
1806 -19 -1920 0
978 -1608 0
946 -370 0
844 -335 -1864 -1450 0
348 -590 -724 0
447 -1122 -1525 -186 0
1791 -287 -1556 0
1019 -609 -1534 0
793 -1376 0
938 -1499 -537 0
969 -63 -1720 0
1604 -478 -800 -349 0
702 -824 0
-968 -1940 -52 0
-1849 -1284 -865 0
33 -930 -937 0
1619 -1334 0
201 -747 0
1158 -1780 0
173 -746 -1140 -1160 0
1016 -913 -968 0
355 -94 -1148 -236 0
1929 -1405 0
1200 -1764 -524 0
-1450 -1444 0
-948 -1565 -888 -833 0
1287 -1036 0
1530 -613 -202 -1441 0
1 -773 -74 0
163 -1126 0
-562 -623 -1408 0
351 -1875 -319 -1170 0
1589 -1844 -946 -60 0
793 -1101 -253 0
1211 -532 -1127 0
745 -1551 0
-1023 -33 0
1852 -444 0
-1246 -999 0
1653 -549 0
390 -1456 -1375 -22 0
542 -574 0
-283 -1935 -1068 -480 0
1899 -1043 0
1977 -1178 -653 -1380 0
-208 -241 -779 0
1846 -887 0
251 -156 -1472 0
1818 -906 -1309 0
-1026 -318 0
-1970 -1599 -1793 -1090 0
149 -1165 0
-1083 -27 -198 -225 0
830 -701 -554 0
299 -1515 -984 0
1919 -1717 -1781 0
-577 -1326 0
1774 -842 0
67 -1629 -868 0
-360 -1283 -1655 0
1224 -375 0
1637 -1167 -515 0
-1649 -124 -1420 0
280 -1573 -1372 0
-433 -1285 -170 0
1808 -608 0
1042 -1005 0
-1923 -1537 0
1342 -462 0
-1982 -1994 -163 -1508 0
1553 -246 0
1598 -1427 0
1119 -8 -1978 0
1062 -1827 0
1223 -1050 0
-1142 -567 -1194 -1408 0
882 -471 0
-968 -901 -1078 -279 0
1046 -1903 0
1998 -123 0
-660 -1096 -147 -474 0
289 -415 -1546 -903 0
1430 -1118 -124 0
482 -1936 0
1864 -91 -1689 -1198 0
267 -1570 -282 0
-626 -1163 -315 0
-570 -581 -796 0
-34 -1384 -784 -535 0
-1772 -836 0
532 -1961 0
-1272 -1144 -1557 0
1282 -1943 -934 0
1009 -1785 -221 -1610 0
246 -515 -377 0
-1576 -1806 0
-41 -1915 -1849 -347 0
747 -1981 0
1683 -1301 0
160 -1465 -649 0
480 -1870 -1930 0
-1194 -1534 0
990 -1189 -1379 0
1659 -775 -1320 -75 0
134 -1353 -1677 0
964 -1714 -35 -277 0
-1845 -1468 -391 0
1018 -504 -958 -586 0
684 -549 0
-1554 -957 -1704 -70 0
-1302 -435 -1894 0
1441 -695 -687 -427 0
233 -1904 0
167 -840 -748 0
1364 -607 -1172 0
555 -1515 -1555 -1553 0
568 -1077 0
-1575 -872 0
-494 -1697 -1922 -1696 0
1599 -1621 -1219 0
687 -1955 -1977 -17 0
-798 -1429 -923 -1492 0
1676 -1843 0
365 -1724 -720 -890 0
1504 -233 0
-1300 -1470 -1622 0
1232 -1704 -1724 0
748 -819 0
914 -1415 -1014 0
220 -810 -772 0
-636 -1622 -634 0
-1968 -504 -1711 -1540 0
642 -580 -375 0
1798 -598 -1805 -145 0
-1926 -712 0
-925 -121 -508 -1733 0
1042 -1837 -1352 0
477 -1401 -330 -1587 0
922 -702 0
1812 -728 -1606 -1947 0
1737 -21 -41 -510 0
1386 -1552 0
198 -1759 -343 0
363 -1115 -196 0
1989 -1735 -556 0
1416 -1727 0
-973 -1871 -430 0
1949 -700 -352 -823 0
-1220 -1361 -1304 -698 0
-418 -1558 0
-589 -203 -1273 -1267 0
1376 -1888 0
653 -1544 -375 -1272 0
1911 -1108 -1435 -1642 0
1452 -1591 0
-1335 -1368 0
1775 -753 0
724 -1987 -890 0
1028 -822 -1665 0
1178 -1778 -1011 -1562 0
1410 -1858 -130 0
1033 -79 -1505 -1635 0
-986 -578 0
1966 -1689 0
-73 -596 -402 -81 0
1172 -796 -1762 -228 0
1350 -1208 -893 -1242 0
5 -1814 -33 0
1241 -207 0
994 -384 0
571 -747 0
1248 -258 0
1003 -3 0
-78 -700 -40 -86 0
736 -1475 -386 0
-129 -1241 -750 -480 0
1265 -1644 0
1236 -1084 -1438 -720 0
195 -1646 -646 0
1052 -811 -877 -1776 0
1063 -1059 -1434 -24 0
1734 -1378 0
-1867 -1856 -223 0
1603 -1055 -1530 0
58 -1319 0
694 -1014 0
1273 -1464 -66 -801 0
1070 -1694 -259 -1656 0
832 -1434 -1686 -1468 0
-1866 -1617 0
90 -1671 0
810 -1031 -1094 0
-1706 -417 -69 -1241 0
571 -1810 0
1663 -292 -1044 -787 0
1084 -528 -1650 0
-1934 -1360 -1271 0
-1146 -479 -1506 0
394 -1037 -1943 0
-417 -1086 -575 -1740 0
1840 -2000 0
-1677 -1099 -868 -1605 0
-664 -569 -1316 -1533 0
1794 -490 0
-79 -164 0
802 -784 -54 0
-184 -1127 -1908 -119 0
542 -576 -1915 -212 0
246 -1818 -1442 -891 0
-313 -1250 -81 -1171 0
-395 -1993 0
1396 -22 -1554 -788 0
1521 -1292 0
684 -398 -1451 0
-1870 -413 -486 0
-52 -1480 0
699 -1594 -783 -1933 0
1389 -534 0
-590 -715 -1214 0
1002 -397 0
-876 -96 -1428 -1862 0
-786 -269 -1598 0
-376 -1015 -1546 0
1631 -963 -1407 -1433 0
58 -407 0
1568 -1107 -640 0
743 -1103 -1106 -1414 0
965 -1305 -1121 0
1180 -880 0
-35 -335 0
-1154 -1341 -117 -1032 0
228 -1469 0
1442 -1703 -1274 -1257 0
757 -936 0
188 -1508 -1258 -1885 0
1002 -565 -326 0
1787 -1845 -1247 -1318 0
-1066 -121 -1038 0
253 -1092 0
636 -1001 0
-1054 -1581 -1198 0
-516 -915 0
-1583 -473 -729 0
1332 -1725 -1910 0
1716 -574 0
1979 -534 0
941 -511 -1846 -1883 0
1865 -1498 0
876 -84 0
1702 -1761 0
1673 -565 0
818 -1888 0
-950 -531 0
1648 -459 0
1615 -1305 0
145 -1082 0
-1858 -1649 0
1099 -884 -683 -1570 0
1308 -1246 0
-1422 -1458 -1360 0
1825 -705 -1610 0
1863 -297 -597 -1941 0
-1636 -125 0
-756 -1773 0
1120 -1955 -1623 -563 0
-1458 -1128 0
475 -1334 -399 0
-1682 -519 -1949 -1007 0
38 -478 0
1018 -252 -1040 -1700 0
860 -911 0
100 -1290 -663 -680 0
-417 -1538 0
-514 -1747 -1302 0
148 -207 -285 0
1857 -1313 0
690 -1905 -479 0
1628 -1268 -575 0
1728 -84 -824 0
821 -38 -1025 -1292 0
522 -904 -1122 0
-1536 -1324 -20 0
1484 -671 -542 0
1318 -145 -1227 -1501 0
-1952 -216 -1333 0
67 -1124 -1758 -92 0
1681 -1621 -1651 0
224 -29 0
250 -1704 0
1643 -1987 0
1976 -1462 -707 -29 0
-1955 -1270 0
1658 -1872 0
482 -60 -1537 -992 0
1435 -1394 0
1745 -1011 -219 -245 0
413 -353 0
378 -1787 0
1522 -648 -402 0
1729 -628 0
232 -169 -1237 0
1647 -645 0
473 -330 0
1899 -558 0
-497 -1245 -1794 -307 0
-367 -1529 -1411 0
1016 -1935 0
1487 -975 -1768 0
-47 -600 -1967 0
1228 -1834 -390 0
1515 -1070 -268 -855 0
908 -1734 -1040 0
1585 -1925 -1845 0
1215 -1828 -1095 0
909 -642 0
882 -849 -1125 -900 0
133 -432 0
-1412 -1813 0
1638 -108 0
-732 -583 -56 -54 0
-327 -1946 -1622 0
1183 -1741 0
21 -1777 -798 0
-854 -1907 0
788 -150 0
412 -1319 -805 0
647 -1578 -1656 -1651 0
1185 -908 -1459 -1747 0
920 -867 -435 0
926 -1562 -239 -1645 0
344 -1892 -1435 0
1900 -1995 -439 0
-1244 -953 -1347 0
1023 -1610 -928 -1423 0
1018 -176 -1564 -1105 0
1689 -686 -184 0
132 -1120 -241 0
1148 -386 0
1508 -1600 -998 0
891 -1521 -1058 -112 0
158 -252 -1299 0
-718 -1381 -281 -155 0
683 -923 -1920 -1175 0
484 -899 -300 -515 0
196 -54 -206 0
-761 -1420 -1455 0
-1311 -965 0
1263 -828 -1534 0
246 -1426 0
-862 -229 -1082 -1892 0
1959 -1271 -1184 0
-1104 -393 -1912 -1514 0
986 -560 0
1792 -1871 -1853 0
996 -988 -740 -1730 0
581 -1196 -428 0
-567 -1979 -1952 -1904 0
417 -1351 -1205 0
828 -651 0
1774 -955 0
348 -1990 -1875 0
710 -1111 0
1487 -135 -1235 0
1070 -1753 0
1439 -690 0
1698 -1722 -31 0
635 -555 0
-228 -1670 0
1951 -1977 -1694 0
68 -80 -1918 0
1112 -1664 -716 -1228 0
361 -1880 -97 0
1131 -217 -119 0
-176 -186 0
-1963 -919 -1501 0
1920 -1962 -1591 0
-1465 -1830 -450 0
786 -35 -225 0
1130 -587 -1577 0
532 -527 -712 0
498 -1807 0
-19 -1183 0
256 -1750 -239 0
1879 -1153 -1961 -398 0
58 -456 -663 -1846 0
41 -1461 -1273 0
196 -1999 -1037 -10 0
1887 -397 -662 -1748 0
231 -841 0
-1759 -1200 0
944 -1588 -430 0
-200 -1381 -1714 0
1162 -95 -1584 0
1101 -905 -843 0
1127 -1676 0
595 -1356 0
1390 -1992 0
932 -1826 0
937 -949 0
1809 -14 0
-143 -615 0
890 -512 -1742 -16 0
759 -1161 -578 0
603 -838 0
1860 -157 -1727 0
81 -1065 0
1794 -902 -1590 0
293 -1429 0
-1300 -526 -1838 -685 0
1972 -1061 0
-1756 -1803 -228 0
-1416 -1725 -160 0
1071 -360 -1745 -1006 0
1049 -319 0
-1617 -159 -754 -348 0
-1310 -888 -1004 0
1114 -1408 -1561 0
1446 -1414 -982 0
498 -82 -1182 -601 0
920 -1704 0
1927 -1877 0
449 -295 -350 0
1809 -1382 0
29 -144 -382 0
1 -1955 -1574 -422 0
590 -389 0
-1254 -540 -132 -1522 0
1685 -588 -1633 -812 0
606 -1714 -47 -1910 0
638 -356 0
1493 -1433 -1632 0
596 -633 -900 0
-363 -116 0
-1873 -802 -1969 0
1807 -1541 -767 -872 0
1704 -1739 0
377 -1970 -1241 -116 0
911 -235 0
-156 -253 0
-348 -1396 0
-1748 -1510 -257 -1852 0
674 -1071 -1345 -628 0
515 -806 0
463 -1211 0
-1971 -56 -265 0
194 -471 -1373 0
-1108 -985 0
61 -130 -1401 -1486 0
1572 -759 -894 0
-1299 -1785 -2 -1473 0
651 -1587 -1526 0
-575 -549 -886 0
1854 -863 0
1082 -139 -739 -573 0
-1872 -1536 -1223 0
-871 -1966 -1448 0
16 -563 -1332 -1008 0
1370 -893 -851 0
1569 -1964 -539 -269 0
-938 -1246 -50 0
1764 -1663 -424 0
-977 -139 0
-1121 -1192 0
-1065 -43 -1025 0
1671 -1708 -1498 0
635 -761 -1686 0
845 -1754 -110 0
898 -1318 0
-1773 -1736 0
145 -1478 -249 -1741 0
-1092 -1907 -1453 0
1859 -1756 -740 0
989 -135 0
-161 -611 0
516 -828 0
493 -329 0
586 -154 -1223 0
1692 -1311 -1699 0
-528 -366 -1470 0
-1053 -652 -580 0
1825 -142 -1414 0
-701 -1436 0
-780 -1242 -1999 0
192 -661 0
1553 -270 -516 -298 0
954 -1109 0
-1278 -303 -1639 0
582 -923 -138 -268 0
569 -1420 -470 -709 0
-816 -409 -1573 -1360 0
606 -1323 -990 0
-178 -1386 -1486 0
380 -593 -1651 0
474 -667 0
-879 -756 -183 0
208 -1011 -1953 0
1257 -342 -251 -862 0
1108 -1093 -242 0
439 -273 -1353 0
1070 -163 0
-150 -1028 -1913 -863 0
1088 -704 -1796 0
131 -1790 -1067 0
1039 -324 0
750 -1196 0
1035 -144 -619 -276 0
1761 -1544 -1092 -505 0
118 -1887 -928 -37 0
1749 -1975 -829 -715 0
1153 -374 0
399 -1594 0
424 -1218 0
440 -378 -1401 -1054 0
1980 -1529 -395 0
1748 -1941 0
-51 -948 0
1554 -619 0
441 -786 -1436 -701 0
-1189 -1982 -1227 -899 0
-510 -1988 -516 -1612 0
740 -1330 -1873 -724 0
-1001 -1025 -944 0
202 -212 -1193 0
167 -751 -860 0
-1973 -778 -1207 -1466 0
514 -1207 0
1035 -270 -252 -1346 0
-1127 -710 0
624 -243 -863 -1542 0
1689 -620 -185 0
310 -749 -1478 -916 0
997 -408 -924 0
1227 -179 -986 -991 0
-196 -1282 -341 0
1433 -1094 -1619 -149 0
1308 -642 -466 -585 0
939 -1760 -549 -541 0
1607 -221 -19 0
1760 -1823 -1265 -390 0
1091 -1599 -624 -1878 0
1985 -1997 -727 0
1906 -587 -1067 0
580 -1926 0
1850 -173 0
1730 -1184 -1568 0
507 -616 -679 0
995 -495 -1964 -194 0
-927 -1029 0
-1896 -1266 -985 0
265 -333 -1420 0
1307 -1371 0
-1795 -1421 -556 -1789 0
1476 -1716 -1203 -1915 0
-1668 -502 -1106 0
1472 -562 0
660 -607 -1209 -1984 0
-1616 -733 -1773 0
678 -1141 0
-343 -330 -979 0
1838 -1878 0
624 -1797 -1508 0
1870 -398 0
-388 -1697 -833 -1286 0
1326 -34 0
414 -548 0
1712 -291 -151 -1340 0
1070 -1583 -778 -1045 0
1412 -439 -193 0
129 -1686 0
149 -29 -99 0
279 -557 -1709 0
707 -1356 0
1317 -1529 -1282 0
1246 -1317 0
1431 -572 -1690 -1107 0
1368 -660 -1088 0
142 -1040 0
-1663 -1666 -460 0
-318 -431 0
419 -570 0
1976 -1402 -1126 -1919 0
-634 -1225 -58 -1323 0
1376 -298 0
-411 -1206 -756 0
-689 -654 0
1815 -183 -1262 0
1300 -1339 -1185 0
1247 -308 0
811 -1574 -452 -1274 0
1810 -94 0
1871 -359 0
754 -69 -439 -1068 0
-1354 -100 -1969 0
-291 -1108 -609 -1982 0
1446 -1271 -803 -1405 0
1908 -1115 -1538 0
1051 -135 0
-647 -1472 0
1132 -1593 0
-798 -1214 -1449 0
887 -1430 0
-1915 -18 0
-1235 -492 -1026 -1412 0
1210 -1062 -1228 -1520 0
-1613 -651 -494 -304 0
1159 -251 -108 0
-280 -1265 0
95 -399 0
875 -295 0
-1361 -1599 -166 -717 0
-246 -1987 -1691 0
-924 -662 -1896 -1781 0
803 -1357 -1426 -835 0
1272 -1131 -904 0
1477 -1914 -141 -1404 0
-139 -352 -774 0
787 -488 -1191 -115 0
493 -1668 -400 0
1661 -306 -1369 -155 0
1505 -504 -1424 0
1950 -992 -1124 0
1007 -637 -1618 -837 0
-636 -661 0
1924 -82 0
1069 -1053 -974 0
799 -128 -705 -1784 0
1907 -1304 -1541 -453 0
476 -691 -651 -1791 0
-145 -348 0
339 -1203 0
1305 -841 -1577 -781 0
245 -804 -1464 0
658 -497 -583 0
1163 -188 -608 0
1186 -456 -962 -1261 0
-279 -1438 -1073 0
456 -205 -694 0
961 -1343 0
-1767 -218 -1540 0
1467 -683 -642 -1955 0
1555 -1737 -719 -29 0
-911 -130 -930 -347 0
1575 -1464 -1245 -1247 0
-1831 -191 -401 0
400 -359 0
-289 -476 0
-1613 -1177 -1219 0
-1944 -1034 -1319 -959 0
863 -97 0
1916 -1773 0
598 -1458 -1649 0
1362 -923 -430 -1880 0
1186 -1217 0
-114 -1404 -1525 -1542 0
682 -1509 0
671 -1134 -232 0
951 -1285 -1899 -1840 0
213 -1303 0
1640 -62 0
-678 -1687 -78 0
-1994 -1145 -238 -918 0
445 -1508 0
-1392 -1921 -1297 0
1105 -1822 0
863 -1933 -170 0
393 -1255 -25 -416 0
-260 -102 0
-311 -181 -898 -398 0
492 -455 -1269 -1042 0
497 -656 -57 0
1991 -1753 -338 -605 0
386 -1811 -1814 -22 0
1119 -777 0
1990 -972 -748 -1737 0
259 -1965 -722 0
1904 -193 0
-432 -762 0
985 -1135 0
226 -744 0
-1923 -1133 -418 0
1636 -1674 -1906 0
-1068 -923 -1201 -291 0
1408 -716 -64 0
1786 -268 -1484 -1939 0
1982 -542 -224 -370 0
1997 -449 -1883 -1734 0
283 -1074 -1360 0
326 -1193 0
920 -1960 -1028 0
1045 -1822 -698 -840 0
-522 -726 0
795 -806 -1561 -537 0
-1247 -1019 -964 0
850 -1817 0
