c Horn formula (polynomial-time solvable)
c 1000 variables, 2500 clauses
p cnf 1000 2500
284 -169 0
757 -294 -313 0
142 -938 -975 -826 0
831 -880 0
-838 -88 0
-420 -754 0
626 -16 -368 -259 0
773 -320 -455 -683 0
-384 -555 0
-338 -545 -159 0
14 -27 0
225 -643 -330 0
444 -864 -223 -749 0
515 -5 -143 0
579 -340 0
137 -786 -823 -128 0
-443 -273 -624 0
-217 -920 0
18 -899 0
921 -576 -12 -612 0
584 -613 0
-569 -814 -475 -857 0
633 -117 0
59 -203 -688 -238 0
501 -815 -520 -533 0
234 -367 -31 0
571 -603 -169 -623 0
527 -322 -170 -406 0
-292 -410 0
-374 -518 -196 0
825 -361 -306 0
140 -116 -991 0
860 -417 -848 0
105 -800 -814 -467 0
918 -472 -689 0
368 -1 -439 -101 0
383 -547 0
-801 -223 -982 0
568 -528 -367 0
-868 -311 0
931 -863 -239 -31 0
757 -474 -348 -812 0
45 -276 0
780 -385 -544 0
701 -5 0
474 -269 -430 -645 0
-191 -192 -313 -441 0
287 -433 0
599 -516 0
383 -473 -146 0
361 -80 -628 0
-525 -989 -646 0
770 -185 -903 -722 0
353 -57 0
521 -235 -888 -786 0
262 -232 -581 0
12 -103 0
-53 -75 0
-729 -675 -726 -575 0
894 -433 -555 0
-789 -715 -199 -39 0
-932 -390 -326 -431 0
79 -611 0
304 -138 -357 -579 0
871 -588 -532 -431 0
497 -195 -735 -45 0
-751 -384 0
94 -555 -351 -394 0
102 -285 -283 -226 0
-394 -641 0
686 -90 -309 -990 0
-123 -91 -787 0
194 -168 -569 0
183 -429 -187 -583 0
818 -67 -454 -65 0
457 -619 0
746 -345 0
257 -931 -475 -663 0
670 -973 -269 -608 0
473 -339 0
-953 -829 -965 0
981 -932 -534 -396 0
-111 -173 -450 0
-410 -802 -512 0
348 -194 -64 0
555 -758 -903 -99 0
-801 -880 -916 0
42 -779 -395 0
-806 -422 -899 0
122 -141 0
998 -765 0
-541 -933 -83 0
483 -552 -32 -194 0
-9 -282 -787 0
-504 -842 -347 -605 0
480 -233 -688 -45 0
923 -415 -859 0
-135 -336 -94 -530 0
-274 -756 0
-839 -448 -855 0
248 -925 0
-557 -233 0
881 -359 -60 -543 0
-645 -761 -514 -57 0
415 -258 -808 -999 0
468 -707 0
-966 -641 -99 -984 0
-986 -961 0
-27 -435 -859 0
555 -45 -646 -302 0
-132 -37 0
862 -132 0
714 -382 -341 -216 0
-589 -489 -924 0
921 -341 -298 -670 0
732 -651 -431 -838 0
-927 -352 -402 -895 0
364 -97 0
916 -600 -353 0
458 -225 -330 -391 0
-887 -229 0
718 -649 -989 0
108 -663 -494 -153 0
508 -83 -364 -173 0
453 -670 0
-361 -906 -635 0
-766 -489 -7 0
101 -796 -112 -187 0
-617 -376 -714 0
-96 -255 -658 0
744 -1 -643 -874 0
13 -431 -337 0
42 -844 -4 -845 0
-641 -637 -433 -894 0
608 -20 -673 -920 0
112 -595 -570 -15 0
-539 -865 -798 -140 0
994 -236 0
96 -885 -473 -946 0
737 -61 0
-680 -630 0
-652 -874 0
959 -420 -365 -521 0
131 -924 -189 -740 0
504 -646 -779 -157 0
15 -302 -489 -349 0
717 -286 -818 -556 0
-280 -603 0
189 -702 -382 -592 0
-40 -294 0
241 -504 -868 -788 0
748 -812 -223 0
26 -343 -458 -737 0
750 -935 0
711 -103 -858 0
95 -256 -849 -323 0
933 -637 -691 -237 0
656 -899 -813 0
316 -530 -740 0
524 -382 -363 0
538 -161 -707 -294 0
151 -143 0
673 -114 -588 -666 0
-952 -353 -641 0
307 -617 0
903 -267 -812 0
-322 -669 0
-818 -367 -100 -659 0
731 -739 -487 -586 0
280 -237 0
614 -291 -982 0
511 -370 -999 -693 0
880 -592 -695 0
230 -152 -251 -6 0
538 -312 0
58 -719 -200 0
815 -679 0
140 -53 -427 0
873 -412 -491 -834 0
-271 -467 -903 -893 0
591 -616 -632 -62 0
-301 -364 -945 0
284 -31 0
679 -780 -608 -653 0
427 -444 -61 -559 0
486 -60 -571 -560 0
-55 -706 -258 -482 0
-287 -409 -277 0
-445 -742 -701 0
-158 -246 0
362 -698 -9 -580 0
301 -898 0
580 -566 0
637 -50 -665 0
622 -66 0
238 -727 0
398 -498 0
-230 -134 -470 -377 0
-734 -653 0
512 -327 -49 0
647 -107 0
160 -961 -604 -23 0
-917 -298 -22 0
68 -401 -619 -372 0
707 -734 -48 0
236 -950 0
384 -252 0
-340 -620 -971 -886 0
636 -203 0
-955 -727 -441 0
974 -108 0
815 -944 0
571 -510 -909 -242 0
-866 -611 0
13 -471 0
478 -403 0
367 -552 0
351 -627 -60 -996 0
837 -887 -509 0
204 -570 -313 -850 0
34 -295 -897 -247 0
325 -629 0
100 -266 -569 -197 0
766 -620 0
-242 -707 -979 -496 0
303 -347 0
-444 -438 -472 0
-846 -892 -190 0
-304 -423 0
204 -249 -182 -833 0
-143 -146 0
805 -244 0
465 -171 -374 -586 0
33 -404 -517 0
704 -582 -536 -703 0
741 -202 0
557 -384 0
57 -286 -233 0
946 -370 -836 -4 0
735 -71 -797 -45 0
744 -311 -375 0
-876 -924 0
700 -500 -73 0
-363 -131 -822 0
53 -358 0
325 -995 -611 -874 0
380 -120 0
-521 -81 0
-624 -321 -644 0
-183 -610 -663 0
733 -481 -859 0
-31 -156 -721 -956 0
733 -1000 -330 0
687 -963 0
30 -225 -239 -766 0
505 -737 -605 0
-142 -378 -723 -463 0
-361 -459 0
171 -664 -252 -502 0
93 -821 -308 -267 0
-536 -904 -408 0
43 -681 0
-350 -628 -827 0
705 -755 -412 0
386 -878 -701 0
531 -769 -659 -203 0
902 -955 -405 -669 0
-514 -409 0
791 -58 -297 -483 0
35 -60 0
486 -102 0
493 -914 -751 -428 0
-554 -411 -726 -529 0
-662 -553 -375 -175 0
259 -449 -663 -575 0
845 -963 0
72 -48 0
895 -772 0
-651 -799 0
497 -26 0
814 -456 0
605 -697 0
982 -43 -483 0
-577 -149 -971 0
395 -85 -995 0
239 -64 0
896 -17 0
-53 -842 0
954 -433 0
555 -731 0
-70 -274 -104 0
-236 -943 0
867 -386 0
490 -118 0
579 -454 -725 0
363 -889 -397 0
-762 -441 -209 0
49 -370 -746 -951 0
710 -40 0
-724 -251 -436 -802 0
399 -273 -562 0
251 -139 -317 0
899 -111 -387 -747 0
260 -970 -238 0
616 -566 0
838 -186 0
-218 -342 0
-750 -283 0
982 -936 -744 -144 0
724 -420 0
93 -649 0
465 -32 -401 0
-433 -903 -80 -171 0
155 -136 -521 0
247 -237 -577 0
129 -753 -451 -378 0
900 -323 -256 0
-774 -843 -800 0
519 -755 0
877 -393 0
177 -374 -795 -946 0
-487 -698 -74 -426 0
794 -534 -50 -560 0
432 -619 -457 0
-1000 -202 -167 0
-685 -472 0
483 -577 -721 0
599 -463 -982 0
485 -283 0
-593 -385 -284 0
-282 -805 -203 -922 0
-758 -925 -577 0
-539 -461 -251 -556 0
436 -316 -156 -447 0
482 -83 -405 -592 0
-387 -637 -626 -308 0
577 -310 -197 0
834 -590 -448 -132 0
593 -451 -345 -870 0
48 -69 -77 0
672 -817 -558 0
634 -120 0
307 -233 -197 -601 0
413 -469 0
-117 -982 0
214 -852 -268 -409 0
224 -239 -381 0
171 -865 -909 -908 0
242 -186 -756 0
55 -11 -832 -528 0
-882 -588 -555 0
272 -325 -599 0
925 -941 -447 0
-493 -287 -462 -205 0
359 -138 -442 -694 0
629 -195 0
-76 -739 0
-395 -521 -392 0
837 -160 -257 0
-617 -802 -443 0
-275 -527 -219 -658 0
212 -125 0
453 -634 -650 -288 0
551 -735 0
-1000 -479 -820 -740 0
845 -15 0
302 -573 0
-762 -160 -515 0
-44 -792 -771 0
311 -998 -725 0
-831 -205 -110 -94 0
969 -691 0
745 -911 0
238 -355 -62 -745 0
280 -243 -930 -249 0
41 -469 -811 0
57 -491 0
673 -428 -365 -671 0
151 -478 -798 0
205 -501 -635 0
734 -812 -392 0
918 -954 -43 -917 0
-483 -331 0
241 -666 -415 0
205 -60 -4 -659 0
8 -612 -795 -757 0
-490 -741 -595 0
-491 -686 -254 -310 0
730 -55 -231 -805 0
743 -740 -454 -297 0
162 -274 0
-353 -210 -769 -113 0
-445 -510 0
-349 -129 0
723 -437 -85 -140 0
299 -412 0
392 -686 0
-246 -819 -589 -825 0
117 -252 0
-152 -138 -552 -756 0
712 -80 0
-262 -560 -539 -147 0
883 -760 0
926 -348 0
939 -391 -231 0
-766 -578 -459 0
-808 -418 -263 0
747 -108 -717 0
618 -701 -236 -511 0
970 -604 0
-783 -62 0
32 -175 -487 0
-72 -844 -940 0
532 -37 -891 -160 0
852 -94 0
-508 -258 0
247 -866 -609 -911 0
-656 -823 -753 -108 0
68 -10 -614 0
746 -292 -844 0
580 -796 -322 0
-907 -537 -727 -268 0
762 -628 -230 0
243 -257 -441 0
81 -223 0
697 -890 -646 0
968 -613 0
27 -295 -612 0
9 -30 -399 -495 0
-597 -1 -223 0
748 -115 -664 -513 0
260 -121 0
-356 -378 -958 0
394 -677 -985 0
15 -773 -661 -807 0
-392 -890 -583 0
134 -661 0
-553 -93 -247 -731 0
730 -446 0
-352 -374 -276 0
956 -534 0
-614 -387 -160 -982 0
645 -230 0
-770 -432 -222 0
129 -213 -852 0
556 -201 0
-55 -62 -321 -258 0
-982 -720 -568 -132 0
307 -911 -624 0
474 -124 -458 0
-759 -877 -910 0
-60 -76 0
353 -318 -312 0
-355 -772 -224 0
531 -481 0
57 -509 -592 -798 0
-673 -525 -511 0
566 -850 0
-312 -901 -87 0
501 -45 -85 0
300 -318 -996 -274 0
437 -277 -808 -576 0
846 -385 -81 0
837 -857 -536 0
10 -432 0
-520 -306 -250 -336 0
224 -645 -144 0
-268 -672 0
697 -879 0
-943 -633 0
823 -396 -125 -790 0
826 -45 -163 -618 0
-382 -756 -974 -71 0
561 -53 0
-247 -744 0
564 -708 -182 0
938 -46 -737 -299 0
596 -283 -476 0
215 -730 0
-900 -54 -646 -171 0
321 -546 -819 0
434 -246 -369 -307 0
564 -732 -406 0
-478 -731 0
554 -623 -16 0
-856 -861 -316 -928 0
686 -415 -816 0
901 -341 -626 -706 0
243 -389 -347 0
-95 -719 -569 0
-923 -842 0
-47 -361 0
811 -539 0
422 -99 -177 -246 0
606 -450 -801 0
-746 -335 0
481 -733 0
-222 -496 -482 -842 0
-59 -89 -771 0
894 -531 -597 0
707 -230 0
312 -24 -268 0
-239 -80 0
706 -418 0
-891 -673 0
16 -241 -927 -861 0
-483 -105 0
114 -392 0
91 -995 -562 0
729 -98 -960 0
722 -888 0
361 -772 -421 -172 0
-359 -994 -356 -67 0
-446 -792 0
430 -944 -982 0
997 -978 0
-431 -771 -332 0
508 -333 -490 -324 0
-321 -293 -571 -822 0
946 -114 -295 -789 0
359 -785 0
132 -681 -410 0
739 -947 0
-478 -955 -192 -9 0
-645 -569 -763 0
688 -469 -523 0
698 -152 -60 0
-801 -767 -559 -62 0
-783 -865 0
-500 -627 -901 -917 0
836 -364 0
449 -219 -903 -369 0
-287 -749 -719 -122 0
252 -737 0
-827 -269 -731 0
-747 -789 0
725 -190 -559 -652 0
-824 -638 0
522 -474 -546 -906 0
728 -740 -429 0
341 -561 0
535 -824 0
901 -243 -911 -699 0
353 -467 -448 -77 0
588 -376 -886 -601 0
-479 -867 -893 0
703 -734 -731 -315 0
860 -346 -994 -371 0
-670 -410 0
689 -225 -154 -494 0
718 -796 -414 -451 0
-24 -681 -257 0
824 -195 0
313 -728 -443 -842 0
832 -99 0
-432 -584 0
782 -774 -857 0
-498 -343 -512 0
864 -876 -466 0
485 -669 -437 0
17 -640 0
544 -332 0
995 -128 -480 -109 0
549 -604 -965 0
-211 -746 0
260 -859 0
541 -358 0
626 -917 -481 -408 0
903 -319 -13 -324 0
549 -116 -633 -37 0
-897 -765 -488 0
276 -342 -280 0
392 -616 -113 -785 0
214 -263 0
181 -859 -468 0
-378 -82 -495 -774 0
-814 -584 0
157 -23 0
-980 -574 0
-460 -357 0
-765 -828 -98 0
724 -693 -611 -605 0
789 -52 -755 -284 0
46 -873 -830 -609 0
-127 -978 -236 0
425 -533 0
456 -836 0
-426 -708 -329 0
-828 -408 0
489 -808 0
-171 -726 -591 0
93 -187 -944 -932 0
569 -663 0
161 -688 0
974 -429 0
988 -135 -208 -959 0
38 -684 0
66 -481 -659 -705 0
547 -678 0
-220 -360 -754 -927 0
977 -181 -480 -468 0
-256 -197 -363 -807 0
954 -513 -153 0
508 -719 0
-353 -937 0
-309 -529 -766 -607 0
289 -237 0
530 -908 0
-783 -58 -893 0
700 -537 -779 0
895 -82 -616 -391 0
44 -988 0
-836 -135 0
-587 -795 -915 0
-952 -157 -457 0
-692 -999 0
27 -78 -350 0
-364 -811 0
402 -731 -166 0
762 -116 0
-796 -114 0
-217 -232 -696 0
-644 -160 -69 -47 0
-614 -859 0
281 -138 -746 0
-261 -442 -325 0
701 -399 0
-285 -945 -529 0
-500 -571 -139 0
259 -148 0
951 -954 -705 0
62 -561 -281 0
-610 -226 -846 0
487 -492 -996 -631 0
-941 -242 -289 0
464 -25 -333 0
-812 -808 -556 -188 0
717 -204 -220 0
446 -914 0
99 -691 -228 -735 0
681 -201 -352 0
373 -352 -103 0
-838 -907 0
301 -138 -815 0
855 -920 -744 0
611 -293 -126 -196 0
429 -384 -373 -821 0
-383 -443 0
-885 -196 0
-347 -291 -383 -867 0
-734 -288 -4 -573 0
802 -906 0
519 -176 -252 0
240 -623 -956 0
-200 -896 -145 -838 0
282 -310 0
-578 -202 -381 0
600 -328 -174 0
883 -140 -957 0
661 -825 0
92 -279 -23 0
121 -88 -131 -948 0
868 -873 -830 -991 0
555 -80 -700 0
-26 -31 -366 -614 0
219 -659 -161 0
-340 -608 0
393 -633 -210 -892 0
594 -232 -63 -932 0
287 -873 -120 -9 0
593 -971 0
-512 -610 0
912 -140 0
-91 -575 -651 -814 0
209 -197 -809 -121 0
-163 -577 0
49 -667 -331 0
-253 -654 0
442 -33 0
159 -479 -692 -953 0
498 -42 0
935 -992 -359 -844 0
693 -769 0
-164 -423 -208 0
-770 -500 -972 0
653 -828 0
8 -987 0
-88 -152 0
485 -571 0
704 -863 -884 -685 0
630 -479 -41 -195 0
-939 -585 0
48 -40 -661 -396 0
-491 -226 -670 0
102 -110 -291 -331 0
46 -36 -820 -94 0
-351 -773 0
-484 -281 -641 0
312 -608 0
479 -906 -7 0
959 -749 0
339 -862 -839 0
168 -933 -60 0
957 -662 -19 -212 0
-749 -894 -675 -454 0
38 -163 0
325 -468 0
-690 -172 -504 0
-456 -452 -600 -187 0
-570 -24 0
905 -9 -828 -271 0
633 -534 -225 -659 0
523 -352 -767 -145 0
933 -424 -801 -779 0
-12 -688 -6 -798 0
826 -264 -685 0
838 -848 -471 0
864 -361 -9 -280 0
684 -624 -106 -909 0
-326 -275 -873 -123 0
339 -754 -475 -301 0
-835 -150 -684 -255 0
832 -450 -455 0
887 -824 -141 0
375 -544 -322 -906 0
912 -940 0
-667 -693 -21 0
38 -613 -240 0
-306 -904 0
-446 -812 -345 -714 0
244 -951 -37 0
-12 -417 0
-671 -528 -366 -924 0
928 -959 0
152 -585 -757 0
401 -31 -226 -809 0
996 -435 -775 -153 0
182 -975 0
200 -236 -728 -172 0
990 -803 0
-490 -290 0
-793 -44 0
274 -264 -652 -860 0
-900 -167 -671 -585 0
942 -647 0
706 -341 -681 -612 0
-696 -292 0
285 -984 -587 0
278 -727 -364 -633 0
267 -644 -350 0
-563 -763 -38 -167 0
-175 -602 0
144 -408 -35 0
-599 -33 0
557 -412 -476 -640 0
886 -104 0
-621 -546 -748 0
702 -696 -378 -125 0
393 -267 -962 -757 0
-824 -890 0
350 -388 -178 -920 0
228 -430 -839 -75 0
720 -264 -39 0
-904 -994 -529 -975 0
-325 -166 -597 -280 0
110 -386 -944 -316 0
-485 -816 -327 -855 0
187 -379 -341 -997 0
567 -665 -910 0
-560 -144 0
621 -326 -306 -798 0
-592 -256 0
677 -552 -571 0
165 -966 -815 0
-18 -902 -914 -287 0
625 -85 -446 -353 0
212 -866 -38 -631 0
719 -145 -936 0
151 -651 -524 0
-457 -71 -562 0
12 -340 -72 0
-927 -587 -438 -997 0
-182 -131 -584 -530 0
515 -24 0
496 -851 -650 0
-1 -680 -187 0
113 -763 0
528 -985 -805 0
505 -844 -319 0
-216 -40 -167 -393 0
586 -382 0
-597 -814 0
557 -22 -475 -389 0
-307 -691 0
747 -931 0
339 -967 -190 -287 0
-789 -555 -362 -542 0
501 -382 0
-627 -929 -814 -257 0
585 -505 -877 0
-748 -408 -211 -967 0
293 -936 -181 0
-805 -653 -829 -549 0
340 -63 -519 0
571 -497 -562 -953 0
-374 -642 -331 0
-706 -618 -506 0
941 -289 -865 -670 0
202 -684 0
894 -349 0
637 -561 -897 0
517 -998 -296 -395 0
126 -618 -609 0
-694 -735 0
-503 -89 -568 -587 0
-243 -235 -569 -640 0
967 -335 -456 -564 0
545 -709 -375 -725 0
-179 -44 -212 0
759 -697 0
726 -113 -475 -64 0
157 -248 -614 -945 0
577 -373 0
-261 -925 -912 -395 0
294 -597 0
84 -393 0
969 -730 0
702 -98 -733 -444 0
-61 -716 0
-871 -343 -510 -569 0
950 -864 -982 -705 0
35 -683 0
-686 -705 -468 -910 0
310 -220 0
711 -655 -824 0
856 -455 0
912 -837 -384 0
-383 -563 -104 0
631 -661 -298 -867 0
804 -998 -142 0
-564 -127 -305 0
-696 -812 -753 0
959 -668 0
324 -183 -371 -433 0
943 -907 0
-731 -844 -901 -840 0
706 -981 -144 0
-413 -825 -325 0
891 -932 0
-73 -99 -276 0
255 -882 -48 -707 0
987 -549 -197 -722 0
82 -328 -708 -972 0
-608 -920 0
-65 -89 -251 -350 0
365 -174 -69 -877 0
413 -484 -782 -883 0
66 -902 0
-839 -234 -558 -476 0
102 -275 0
66 -683 -147 -216 0
495 -606 -46 0
369 -166 -687 0
364 -457 -371 -332 0
400 -457 -1 -109 0
-968 -61 -431 0
-310 -365 -375 0
-639 -363 -820 -474 0
622 -242 0
582 -855 -698 -203 0
650 -25 0
-238 -21 0
41 -578 0
690 -982 -843 0
614 -353 0
-150 -318 -539 0
830 -416 -639 0
649 -719 -130 -844 0
463 -586 -7 0
569 -414 0
758 -683 -76 -639 0
-64 -973 -241 -274 0
665 -399 -611 0
374 -550 -45 0
-123 -259 -441 0
-768 -430 -727 -7 0
867 -779 0
543 -586 -74 0
747 -789 -342 -822 0
43 -436 0
293 -236 -305 0
867 -232 0
-853 -722 -850 0
867 -341 0
945 -161 -953 -74 0
121 -378 -982 -310 0
413 -112 -823 -420 0
227 -56 0
370 -295 -398 0
722 -24 0
-332 -71 -276 0
803 -195 0
857 -526 -120 -379 0
823 -873 -573 -459 0
180 -515 -842 -625 0
333 -866 -441 -599 0
904 -943 -951 0
524 -169 0
168 -498 -793 0
724 -251 -803 -175 0
900 -366 -569 0
-676 -323 -758 -624 0
224 -76 -582 0
523 -966 -807 -154 0
852 -923 -24 0
588 -28 -864 -845 0
183 -933 -671 0
842 -445 -279 0
-937 -825 0
531 -76 0
-617 -846 -333 0
-301 -891 0
891 -489 -882 0
-852 -109 -792 0
311 -952 -835 0
159 -629 -596 -183 0
636 -554 -769 0
-253 -381 0
-997 -62 -430 -234 0
-816 -427 -932 0
-8 -41 0
292 -861 0
953 -726 -58 -483 0
-172 -511 -451 -460 0
82 -310 -237 -253 0
651 -456 -941 0
-587 -949 -183 -428 0
843 -755 0
531 -993 -876 0
737 -980 -369 -914 0
421 -830 0
362 -48 -909 0
222 -388 -258 -800 0
638 -190 -321 -160 0
809 -432 0
491 -558 -283 0
-923 -507 -722 0
-699 -10 -37 -17 0
460 -769 -646 0
993 -624 0
-472 -168 0
-550 -977 -220 -662 0
-433 -207 0
-612 -710 0
-829 -21 -440 0
659 -681 -280 0
-942 -836 0
-166 -31 -39 0
-560 -860 0
-881 -193 -300 -160 0
-609 -32 0
606 -618 -522 0
479 -234 -530 -703 0
-207 -226 -218 -163 0
454 -1000 -333 0
882 -63 -510 -962 0
725 -599 -820 -842 0
649 -459 -660 0
71 -492 0
242 -309 0
-578 -976 -117 -238 0
-49 -984 -85 0
-403 -856 -395 0
114 -656 -835 -338 0
-351 -377 0
917 -442 -69 0
610 -404 -25 0
652 -780 -132 0
-891 -844 -548 0
-27 -693 0
-771 -957 0
-676 -63 0
390 -562 0
278 -57 -780 -495 0
25 -631 0
683 -927 -931 0
836 -185 -201 -463 0
-551 -366 -848 -612 0
717 -487 -848 0
809 -324 -36 -831 0
459 -845 0
722 -480 -889 -744 0
684 -71 -493 0
810 -664 0
716 -590 0
-574 -80 -623 0
514 -526 -208 0
246 -693 -845 0
20 -534 0
539 -257 -889 -238 0
-195 -655 -323 -725 0
647 -124 -651 0
-925 -949 0
527 -368 -590 -28 0
270 -815 -363 -41 0
275 -799 -74 -925 0
69 -698 -720 0
998 -723 -764 0
-732 -66 0
-228 -372 0
483 -644 -806 0
45 -530 0
-149 -90 -585 0
-588 -341 -680 0
930 -182 -160 0
-165 -786 -541 -665 0
446 -481 -823 -281 0
460 -466 -15 0
454 -999 -879 0
802 -824 0
-250 -504 -712 -243 0
875 -866 -352 -430 0
30 -108 0
-189 -193 0
967 -296 0
571 -193 -448 0
-518 -652 -339 -758 0
33 -900 0
188 -225 -151 0
121 -692 -853 -455 0
490 -46 0
-661 -971 0
89 -155 0
-11 -964 -615 0
513 -421 -188 -328 0
-76 -69 -71 0
-939 -894 -895 -430 0
-610 -186 0
-565 -25 -112 0
934 -200 -954 0
440 -745 0
501 -412 0
371 -446 -827 0
480 -804 0
-901 -815 0
459 -272 0
281 -817 0
688 -980 0
987 -269 -226 0
-46 -644 -313 0
-659 -197 0
-698 -498 -695 -747 0
210 -329 0
-420 -787 0
621 -792 -34 0
507 -172 -951 0
-907 -683 0
580 -796 -903 -381 0
482 -445 -421 0
-847 -732 0
34 -944 0
455 -933 -181 -996 0
-974 -121 -533 -254 0
-13 -139 -650 0
332 -194 0
-438 -301 -408 -610 0
144 -980 0
829 -722 -854 -945 0
795 -652 -164 -41 0
520 -531 -161 0
636 -488 -163 0
409 -478 -249 -510 0
253 -985 -874 0
-375 -718 0
-526 -253 0
-821 -274 -688 0
373 -183 -211 0
998 -945 -755 0
-975 -240 -438 0
175 -600 -913 0
688 -131 -737 -442 0
-217 -185 -254 -838 0
265 -546 0
476 -42 -866 0
667 -636 -500 -830 0
54 -176 0
492 -441 -299 0
-639 -643 0
586 -744 -624 0
821 -691 -246 0
-287 -230 0
827 -108 0
594 -745 -872 0
-401 -634 -345 0
696 -720 -907 0
54 -627 0
-584 -181 -338 -956 0
-67 -812 0
723 -378 -411 -399 0
91 -228 0
-932 -287 -237 -61 0
657 -902 -764 -367 0
-228 -896 -443 0
-256 -500 0
-724 -123 0
749 -448 -617 -201 0
162 -429 -7 0
121 -962 -898 0
-290 -358 -800 -911 0
793 -334 0
425 -398 -559 -477 0
-460 -63 -721 0
949 -972 -496 -822 0
375 -843 -53 0
-774 -43 -703 0
319 -348 -856 -70 0
503 -848 -299 -623 0
-626 -628 -661 -403 0
537 -945 -36 0
78 -233 -490 0
96 -875 0
709 -178 0
791 -615 -704 -152 0
470 -935 -963 -110 0
261 -690 -267 -201 0
729 -561 -521 -520 0
662 -429 -380 -643 0
-444 -383 -299 -849 0
831 -794 0
706 -556 -804 -265 0
336 -523 -609 -203 0
776 -940 -780 -178 0
98 -348 0
110 -829 -950 -442 0
482 -806 -691 -506 0
-818 -749 0
732 -334 0
355 -809 -766 0
246 -457 -943 -133 0
-940 -598 -539 0
191 -531 0
507 -530 -997 -847 0
102 -850 0
836 -200 -832 0
-109 -235 -325 0
734 -968 0
69 -853 -553 -829 0
859 -270 -680 -826 0
574 -822 -88 0
710 -57 -140 -830 0
-656 -638 0
492 -156 -309 0
186 -519 -618 -357 0
517 -207 -19 -661 0
179 -237 0
171 -904 -406 -774 0
63 -132 -366 -561 0
241 -390 -487 0
823 -148 -670 -393 0
939 -194 -6 0
885 -963 0
-829 -653 -14 0
-216 -828 -470 0
-20 -86 -957 -122 0
643 -531 -773 -93 0
95 -296 -817 0
951 -130 -346 -764 0
350 -521 -391 -314 0
-595 -46 -331 0
958 -642 0
268 -708 -252 -400 0
141 -397 0
624 -927 -25 0
275 -29 0
-168 -903 0
445 -597 0
519 -21 0
536 -414 -307 -500 0
933 -229 -334 0
437 -840 -147 0
463 -529 0
415 -680 0
935 -64 0
381 -552 -934 0
48 -969 0
-836 -289 -690 0
588 -415 0
613 -147 -387 0
537 -313 -710 -573 0
-135 -651 -518 0
-989 -601 -714 0
195 -10 -862 -732 0
762 -277 -284 -63 0
-974 -595 -669 -571 0
-788 -468 0
-398 -719 -981 0
17 -814 -505 -460 0
612 -888 0
865 -310 0
408 -95 -740 -943 0
-485 -970 -13 0
271 -22 -163 0
182 -177 -294 0
-452 -662 -903 0
-782 -384 0
-943 -741 -122 -264 0
-386 -239 0
-149 -358 -712 -999 0
337 -701 -348 0
737 -32 -620 0
616 -273 -21 -552 0
539 -499 0
761 -560 -342 -880 0
-863 -177 -996 0
750 -912 -201 -538 0
894 -903 0
97 -775 -430 0
924 -91 -563 -139 0
-558 -455 -806 0
655 -500 -567 0
931 -206 -916 0
-159 -988 0
-673 -747 0
-412 -165 0
-824 -259 0
260 -97 -152 -521 0
204 -504 -40 -230 0
618 -238 0
920 -203 -902 -588 0
371 -310 0
649 -720 -29 -399 0
726 -542 -136 0
805 -346 0
-906 -301 -699 -883 0
291 -141 0
6 -507 -825 0
238 -237 0
-687 -392 0
-138 -226 -727 0
100 -425 -720 0
-619 -987 -497 0
-472 -219 -757 0
506 -72 0
714 -70 0
105 -283 0
194 -842 -463 -973 0
265 -227 -115 -630 0
512 -464 0
-418 -38 -921 0
-226 -933 -405 0
-698 -515 -613 0
393 -451 -491 -61 0
635 -204 0
703 -307 0
658 -357 -773 -670 0
359 -856 -220 0
532 -965 -91 0
69 -270 -561 -134 0
954 -250 -214 -663 0
946 -139 -544 0
155 -535 -430 0
228 -752 0
384 -232 0
751 -556 -583 0
291 -412 -525 -85 0
943 -345 -479 0
-818 -813 -289 0
502 -948 -582 0
834 -110 -459 0
316 -1 0
200 -95 -709 -784 0
-970 -116 -381 0
426 -299 -18 0
429 -569 -108 0
358 -181 -445 -444 0
851 -613 -682 0
-519 -954 -839 0
782 -336 0
478 -493 -594 -504 0
905 -947 -562 0
-417 -507 0
875 -451 -467 -428 0
-567 -690 -252 -225 0
540 -629 0
815 -40 -409 -124 0
-890 -834 -164 -625 0
614 -268 -87 -938 0
-244 -399 0
336 -747 -428 -101 0
220 -417 -71 0
-976 -450 -676 0
-526 -746 0
-38 -766 0
298 -939 0
236 -48 -594 0
55 -329 -919 0
-577 -886 -822 -727 0
969 -879 -700 0
-969 -397 0
91 -924 -97 0
158 -296 0
141 -887 0
541 -53 0
14 -229 -704 -306 0
657 -688 0
212 -91 -858 0
554 -681 0
-117 -414 -924 -130 0
174 -417 -330 0
158 -383 -656 -743 0
112 -405 0
67 -106 -228 0
754 -698 -660 -36 0
-910 -730 -692 -65 0
197 -926 0
-441 -587 0
-597 -326 -335 0
311 -680 -351 -935 0
567 -134 0
601 -16 -28 -318 0
681 -241 -812 0
-761 -273 -304 -15 0
350 -343 -840 -687 0
270 -134 -224 0
810 -804 -950 -948 0
971 -672 0
711 -610 -27 0
361 -434 -919 0
909 -5 -271 -416 0
-844 -554 -728 -593 0
645 -43 0
639 -768 0
66 -921 -81 -359 0
-158 -560 -375 -702 0
-366 -909 0
777 -298 0
899 -766 -883 -796 0
365 -293 0
416 -666 0
-713 -629 0
-316 -808 0
-66 -372 -335 0
-993 -224 0
-41 -951 -535 0
-535 -158 -642 0
-8 -980 0
57 -389 -887 0
460 -770 -969 0
589 -592 -620 0
159 -731 -618 0
348 -336 -469 -266 0
765 -28 0
-116 -533 -764 0
-342 -183 -334 -54 0
-525 -622 0
-158 -804 0
-671 -215 -696 0
690 -590 0
392 -120 -948 -72 0
750 -238 0
477 -639 0
-747 -146 0
734 -394 -871 -482 0
67 -979 0
280 -756 -423 0
-474 -199 0
123 -853 0
68 -495 0
669 -597 0
120 -864 0
961 -785 -78 -356 0
830 -96 -356 -626 0
452 -454 0
972 -36 -579 -205 0
-427 -750 0
964 -442 -245 -127 0
35 -586 -976 0
-235 -659 -435 -529 0
390 -448 -88 0
99 -77 -650 0
939 -479 -779 0
-793 -453 -613 -323 0
303 -169 -901 0
642 -41 0
442 -790 0
565 -845 0
481 -498 -457 0
130 -289 -52 0
631 -417 0
186 -262 -859 0
16 -804 -101 0
817 -704 -216 -347 0
-725 -101 -45 0
69 -284 -417 -748 0
-58 -255 -606 -658 0
89 -57 0
408 -769 -324 -690 0
506 -246 -920 0
-767 -840 -62 -365 0
399 -680 0
-425 -297 0
605 -235 0
331 -800 -333 0
952 -24 -395 -323 0
810 -421 -824 -189 0
-460 -537 -955 -482 0
353 -157 0
438 -126 0
-350 -436 -665 -478 0
-536 -663 -72 -936 0
952 -225 -667 0
975 -930 0
-631 -677 -482 -663 0
-628 -859 -269 -970 0
723 -365 -335 0
578 -244 -733 -404 0
357 -946 -8 -715 0
792 -117 -402 0
49 -45 0
473 -891 -154 -851 0
418 -561 -668 0
-66 -220 -831 0
986 -495 -478 0
848 -96 -892 0
56 -998 -419 -542 0
705 -887 -158 -835 0
794 -166 0
582 -55 -921 -753 0
-902 -978 -727 -768 0
718 -269 -423 -684 0
330 -780 -149 0
801 -575 -446 0
292 -911 0
611 -721 -718 -41 0
742 -185 0
570 -796 -491 0
335 -529 -210 -389 0
470 -295 -172 0
85 -109 0
347 -160 0
876 -714 -113 -41 0
748 -679 0
-814 -578 -739 0
-421 -50 -387 -357 0
196 -883 0
-517 -698 -88 0
46 -122 -823 0
256 -354 0
935 -908 0
55 -538 -248 -522 0
102 -764 0
332 -729 -682 -483 0
820 -153 -734 -314 0
-565 -840 0
819 -411 -432 0
433 -651 -856 0
994 -20 0
494 -832 0
-733 -648 -7 0
983 -268 -349 0
-661 -751 -290 -802 0
918 -326 0
666 -554 -837 -287 0
67 -284 -864 0
130 -713 0
602 -971 0
492 -559 -565 0
-620 -630 0
550 -232 -250 -243 0
-139 -708 0
125 -748 -123 0
311 -530 -736 0
-36 -815 0
405 -591 -684 -413 0
621 -92 -425 -987 0
398 -291 -196 -662 0
503 -494 0
676 -657 -674 -931 0
823 -783 -91 0
-88 -49 -709 0
596 -587 -290 -558 0
-570 -478 -582 -280 0
-227 -909 -757 0
-791 -569 0
648 -768 0
-896 -539 0
-933 -45 0
722 -959 -396 0
186 -549 -15 -276 0
-410 -610 0
808 -877 -157 0
64 -956 -136 -448 0
667 -248 -975 -359 0
-296 -51 -884 0
458 -620 -937 0
634 -359 0
-7 -373 -29 -554 0
-293 -609 -224 -508 0
262 -426 0
-331 -910 0
943 -446 -226 0
226 -707 0
-326 -457 -791 -448 0
337 -286 -899 0
138 -415 -788 0
594 -28 -381 -270 0
-585 -866 -810 0
709 -616 -345 -401 0
36 -299 -530 -502 0
192 -891 0
-605 -918 0
-528 -226 -552 -758 0
120 -835 0
921 -631 -20 -980 0
-670 -451 -215 0
-740 -849 -314 -215 0
-602 -329 -54 0
26 -832 -383 -355 0
-623 -644 -474 0
126 -73 0
777 -402 -513 -6 0
300 -113 0
749 -174 -919 0
-312 -363 -852 0
562 -31 -105 -757 0
207 -972 0
-310 -599 0
716 -575 0
-511 -789 -289 0
803 -934 0
488 -740 0
193 -951 0
17 -730 -987 0
961 -433 0
-907 -631 -780 0
534 -107 -407 0
959 -436 -859 -120 0
44 -998 -752 0
-167 -282 0
-133 -745 0
-213 -382 0
998 -288 0
718 -412 0
-739 -60 0
78 -399 -883 0
949 -181 0
855 -981 0
555 -758 0
-284 -773 -112 -876 0
562 -143 0
406 -155 -71 -116 0
262 -70 0
419 -906 -541 0
194 -68 -515 -484 0
-666 -356 0
-172 -950 -364 0
-201 -533 -535 -131 0
953 -356 -947 -277 0
34 -242 -401 -756 0
281 -893 0
394 -463 -421 0
849 -376 0
293 -517 0
-179 -390 -225 0
-596 -283 -151 0
-930 -910 0
-841 -763 -181 0
73 -84 -643 0
-714 -204 -191 -253 0
941 -320 -785 0
873 -513 -649 -187 0
107 -179 -156 -380 0
-416 -265 -372 -892 0
-286 -427 -147 -929 0
576 -382 -696 0
-474 -627 -642 -967 0
171 -35 -866 -725 0
767 -102 -900 0
57 -681 -698 -357 0
752 -871 -184 0
169 -736 0
472 -677 0
90 -697 0
-909 -822 -175 -118 0
-224 -386 -474 0
975 -814 -891 0
-826 -571 0
892 -90 -2 0
878 -493 -741 -354 0
-593 -797 -426 -319 0
127 -741 -207 0
100 -325 -651 -34 0
-540 -464 0
232 -737 -956 -338 0
969 -947 -905 -808 0
933 -459 -708 0
-806 -542 0
-408 -351 0
371 -455 -991 0
954 -124 -283 0
252 -981 0
-706 -39 -714 -622 0
461 -942 -310 0
7 -955 -447 -407 0
673 -219 -101 -491 0
463 -453 -751 0
-808 -725 -672 0
-81 -982 0
863 -437 -872 -527 0
5 -93 -164 -261 0
157 -731 -723 -144 0
-333 -703 -421 0
457 -992 -9 0
231 -355 0
834 -680 -243 0
-958 -80 0
218 -755 -696 0
352 -289 -281 -659 0
132 -85 0
120 -152 -488 -674 0
681 -275 -208 -533 0
450 -989 -686 0
-291 -355 0
60 -554 -814 0
23 -80 -462 0
319 -484 -698 0
-658 -536 -619 0
-862 -591 0
139 -5 -427 -940 0
104 -168 -157 -617 0
-898 -337 -165 0
-603 -981 -914 -647 0
822 -411 0
769 -713 0
39 -70 -243 -55 0
526 -745 -126 -213 0
448 -798 -705 -80 0
968 -347 0
729 -89 -402 -993 0
650 -391 0
395 -100 -975 -439 0
-345 -357 -4 0
466 -561 0
-314 -788 -364 -76 0
-758 -886 -885 -83 0
-501 -266 -671 0
-213 -381 0
-445 -604 -92 0
422 -691 0
76 -797 -469 -876 0
-603 -781 -936 0
-531 -471 -893 -879 0
-709 -696 -577 0
650 -777 0
658 -656 -279 -524 0
992 -735 -850 -561 0
568 -998 0
804 -169 -988 -861 0
-771 -227 -118 -107 0
856 -861 -282 -8 0
940 -39 -258 0
966 -372 0
270 -470 -838 0
-950 -720 -452 0
-248 -680 -265 -997 0
253 -518 -276 0
785 -351 -410 -749 0
431 -677 -1000 -148 0
-581 -712 -737 -323 0
214 -175 -19 0
53 -884 -472 0
871 -513 -434 0
665 -919 -849 -271 0
340 -584 -253 0
-959 -916 -739 0
400 -636 -448 0
459 -584 -902 0
179 -282 0
390 -615 -47 0
552 -646 -121 0
237 -149 0
-887 -395 0
-641 -265 -253 0
-403 -774 0
-68 -6 0
-201 -242 -581 -90 0
143 -626 0
44 -27 0
810 -864 -105 -922 0
5 -528 0
439 -88 -324 -483 0
582 -128 0
839 -733 -975 -78 0
85 -187 0
659 -368 -932 0
557 -300 -318 0
128 -361 -131 0
314 -301 0
-236 -665 -583 -273 0
878 -652 0
-397 -91 -750 -498 0
220 -85 -458 -890 0
625 -188 -218 0
66 -133 0
610 -295 -853 -128 0
654 -104 -7 0
-297 -669 0
389 -994 0
147 -614 -844 -804 0
394 -876 0
289 -64 -89 0
-297 -336 0
116 -565 -634 -463 0
250 -432 0
485 -97 -921 0
167 -869 -316 0
177 -15 -202 -900 0
196 -675 -535 0
-251 -632 0
19 -480 -801 0
438 -403 -618 -455 0
493 -557 -940 -953 0
953 -863 0
909 -530 0
674 -375 0
-385 -579 -239 -842 0
484 -339 0
808 -36 -711 -422 0
183 -130 -154 -746 0
383 -888 0
441 -861 0
-636 -18 0
-945 -85 0
-506 -23 -645 0
88 -588 -149 0
270 -131 -819 0
831 -685 -409 0
620 -407 -262 -391 0
892 -961 0
975 -885 0
466 -291 -332 0
612 -606 -501 0
729 -157 -521 -834 0
-311 -22 0
17 -415 -450 -649 0
-867 -286 -770 0
-269 -51 -602 0
640 -481 0
-868 -674 -225 0
655 -147 -869 -896 0
20 -155 -205 -957 0
380 -200 -674 -57 0
-661 -55 -262 -720 0
-269 -952 0
-419 -757 -382 -527 0
881 -802 -468 -217 0
437 -373 0
786 -418 -393 0
271 -407 -4 -925 0
733 -303 0
-912 -290 0
730 -14 0
525 -13 0
-899 -955 -24 0
583 -288 0
-225 -325 -769 -468 0
856 -443 0
397 -317 -943 0
907 -325 -369 0
580 -26 -235 0
685 -66 -46 0
-359 -381 -961 -629 0
-581 -314 -110 0
-286 -813 -248 -867 0
-458 -619 -503 0
-980 -161 0
154 -321 -484 -89 0
423 -315 -63 -455 0
56 -410 0
-505 -676 0
716 -774 -602 -992 0
790 -126 -317 -980 0
923 -59 -927 -7 0
456 -223 0
-382 -607 -190 -73 0
780 -694 -499 -885 0
-155 -96 0
-525 -908 0
146 -479 -14 -258 0
-491 -530 -415 0
181 -865 0
-672 -880 0
137 -420 -404 -828 0
694 -313 -709 0
514 -257 -594 -11 0
714 -352 -831 0
277 -141 -738 0
760 -675 0
353 -497 -98 0
-886 -687 0
-884 -733 -219 0
321 -660 -430 -471 0
407 -636 -306 -834 0
879 -64 0
249 -469 -2 -108 0
-885 -482 -9 -862 0
423 -409 0
105 -566 0
532 -269 0
373 -452 0
-600 -923 -202 -809 0
-936 -246 -230 -209 0
787 -826 -869 -834 0
-562 -546 0
480 -155 -31 -100 0
298 -214 -704 -584 0
686 -83 -586 0
-336 -212 -814 0
677 -3 0
354 -794 -744 -759 0
196 -712 0
224 -117 -205 0
-368 -159 0
835 -159 -436 -505 0
496 -670 -299 -615 0
862 -186 -144 0
387 -65 -70 -198 0
540 -930 -574 0
-272 -654 -287 0
-211 -236 -448 -612 0
6 -570 -358 -400 0
-855 -111 -286 -818 0
81 -373 -650 0
828 -838 -249 0
-735 -547 -584 -554 0
812 -530 0
794 -365 -20 0
291 -995 -521 0
380 -771 0
576 -949 -191 -697 0
33 -373 0
-895 -587 0
525 -623 -777 0
843 -357 0
40 -214 -49 0
-250 -88 -580 0
-57 -211 -737 0
-833 -743 -224 -176 0
205 -813 0
-917 -268 -823 -730 0
599 -900 -212 0
625 -533 0
583 -46 -397 0
452 -537 -77 0
747 -314 -121 -498 0
10 -533 0
365 -532 -551 0
666 -985 -302 0
-177 -862 -482 -883 0
789 -138 -184 -428 0
106 -923 -640 -662 0
-469 -114 0
642 -664 0
689 -900 -180 -433 0
388 -320 0
770 -423 -753 -815 0
-349 -798 0
584 -449 -663 0
-236 -741 -856 0
393 -276 0
-408 -573 0
-970 -32 -568 0
832 -397 -26 0
920 -543 -578 0
154 -642 -438 0
-700 -864 -325 0
941 -697 0
-257 -659 -728 0
826 -330 0
559 -724 -85 0
171 -483 -139 0
-723 -947 -494 0
145 -872 0
835 -604 -641 -375 0
-680 -372 0
417 -218 0
-100 -571 -178 0
-755 -900 -869 -127 0
-923 -205 -723 0
620 -810 -1000 0
978 -546 0
-317 -26 -306 0
952 -186 -613 0
1000 -905 0
396 -930 -222 0
-906 -762 -997 0
-43 -329 -873 -322 0
-519 -485 -511 0
662 -853 -951 0
665 -944 -317 -830 0
431 -761 -384 0
131 -327 -566 0
-206 -539 0
562 -207 -837 -54 0
-354 -851 -861 0
101 -531 -792 0
908 -111 -199 0
-999 -125 -976 0
35 -403 -861 -999 0
-482 -178 0
734 -669 -395 -523 0
969 -235 -529 0
-468 -535 -875 0
-627 -415 -680 -772 0
757 -590 0
-954 -497 -542 -943 0
510 -496 -645 0
862 -446 -213 0
800 -158 -765 -936 0
-407 -411 -282 -753 0
481 -164 0
424 -965 0
710 -837 0
125 -385 -344 -25 0
447 -530 -95 0
368 -197 -174 0
-340 -762 -226 0
710 -293 -147 0
276 -913 -820 0
-721 -960 0
-878 -731 0
162 -364 -475 -863 0
-246 -360 -236 0
737 -693 -91 -491 0
262 -519 -814 -142 0
624 -971 -362 -772 0
-64 -175 -867 -449 0
-345 -23 -372 0
651 -802 -508 -846 0
568 -771 -130 0
197 -799 -761 0
466 -1 0
732 -865 -88 -609 0
-452 -731 -282 0
789 -127 0
-880 -548 -327 0
252 -181 -592 -183 0
244 -744 -526 0
991 -496 -676 -36 0
-632 -698 -766 -287 0
96 -149 -875 -167 0
397 -303 -29 -825 0
-763 -634 -932 -79 0
522 -53 -258 0
713 -53 0
441 -592 0
-101 -251 -94 0
442 -805 -217 -880 0
558 -893 -200 0
-533 -667 -361 -917 0
611 -141 0
658 -728 -671 0
933 -540 0
829 -360 -940 0
469 -213 0
531 -464 -488 0
202 -310 -785 -273 0
-717 -484 -863 -168 0
-53 -976 0
-294 -249 -687 -147 0
26 -534 -105 0
458 -54 -650 0
243 -683 0
94 -467 -718 -146 0
-963 -524 0
157 -433 -458 -78 0
997 -308 -472 0
900 -918 -974 0
907 -295 -513 0
30 -68 -930 0
748 -74 0
-122 -301 0
650 -588 0
590 -854 -974 0
865 -25 0
731 -621 -396 0
538 -975 -731 0
76 -552 -892 -388 0
114 -299 -130 0
-630 -194 0
777 -61 -215 0
-634 -847 -903 -437 0
183 -809 -797 0
972 -467 -761 0
-41 -454 0
-363 -60 -981 -481 0
244 -855 -779 0
174 -571 -963 -567 0
59 -92 -668 -970 0
129 -514 -170 -251 0
-880 -776 0
744 -332 -274 -34 0
-489 -611 -743 0
-891 -220 -401 0
621 -872 -354 -639 0
925 -819 -759 -310 0
-814 -539 0
10 -95 -124 0
-659 -214 -813 -231 0
-846 -323 0
696 -526 0
650 -692 0
783 -842 -77 -935 0
-750 -703 -970 -571 0
895 -952 0
-213 -846 -671 -927 0
382 -24 -831 0
164 -147 0
407 -255 0
261 -794 -648 0
776 -404 0
568 -271 -786 -631 0
604 -998 0
545 -509 -913 0
849 -224 0
-867 -702 -475 0
-402 -763 -15 -250 0
-65 -737 0
-358 -594 -894 0
123 -729 -353 -782 0
156 -859 0
522 -292 0
271 -333 0
178 -82 -553 -26 0
-23 -651 -721 0
292 -203 -870 -890 0
213 -961 0
730 -777 -625 -832 0
-674 -30 0
-36 -321 0
115 -888 -921 -529 0
595 -689 0
311 -47 -917 -103 0
966 -857 -517 -282 0
485 -154 -397 0
699 -740 -28 -862 0
-311 -927 -882 -616 0
291 -573 0
612 -439 -101 0
-550 -235 -372 0
237 -887 0
327 -695 0
719 -509 0
-664 -880 0
962 -51 0
809 -828 0
463 -163 -773 -151 0
387 -378 -781 -724 0
653 -945 -287 0
588 -527 -727 0
136 -637 0
198 -206 -840 -859 0
942 -864 0
-3 -876 -180 -730 0
548 -824 -233 -52 0
-107 -85 -932 0
-85 -539 -795 -784 0
-241 -234 -77 -796 0
615 -335 -920 0
616 -802 -804 0
73 -621 0
-722 -827 -797 0
-357 -217 0
444 -710 -109 -802 0
862 -4 -802 0
381 -290 0
773 -348 -79 -712 0
960 -421 0
891 -484 -212 -520 0
-656 -571 0
932 -974 -537 -243 0
734 -298 -228 -29 0
357 -761 -590 -950 0
659 -48 0
632 -572 0
338 -306 -543 -158 0
692 -242 0
763 -943 0
489 -744 -387 -166 0
-574 -108 0
-393 -900 -150 -760 0
713 -790 0
-172 -173 -682 0
630 -424 -612 -319 0
396 -248 -224 -918 0
853 -79 -621 0
336 -480 -574 0
613 -190 -904 -589 0
565 -576 -126 0
13 -593 0
207 -613 0
759 -625 0
-368 -482 -464 0
993 -580 -996 -726 0
877 -515 0
799 -882 0
-569 -668 -501 -197 0
101 -771 0
363 -609 -137 -542 0
-305 -68 -900 0
608 -643 0
509 -151 -617 -596 0
-444 -415 0
115 -267 0
-233 -989 -658 0
665 -68 -687 0
-82 -407 -398 0
419 -494 0
233 -978 -588 -525 0
-428 -941 -745 0
703 -904 -25 0
-631 -545 -240 0
-430 -369 0
410 -861 -198 0
856 -632 -378 0
-717 -870 0
916 -199 -753 -705 0
278 -842 0
-494 -422 0
-877 -911 -970 -387 0
-942 -660 0
476 -558 -359 -820 0
227 -19 -416 -118 0
-379 -120 -228 0
981 -660 -554 0
275 -310 0
721 -623 -820 0
464 -167 -444 0
704 -464 -594 0
532 -862 -242 -858 0
-264 -82 0
-889 -682 -740 0
-943 -689 0
176 -875 -557 0
-634 -372 -185 0
212 -691 0
-116 -107 -997 -351 0
49 -523 -200 0
53 -268 -131 -790 0
-346 -92 -820 0
669 -973 0
584 -156 -837 0
103 -442 0
524 -950 -260 -998 0
223 -882 -7 -321 0
492 -9 0
-654 -578 -566 -146 0
242 -438 -111 -941 0
569 -146 0
363 -412 0
631 -213 -427 -38 0
-169 -464 0
920 -546 0
318 -315 0
631 -768 0
-695 -551 -511 -111 0
-40 -489 -237 0
99 -724 -806 -436 0
767 -419 -602 -614 0
565 -806 0
-749 -952 0
991 -928 0
28 -183 0
521 -598 -973 0
564 -67 -9 0
308 -984 0
821 -7 -421 0
964 -145 -860 0
269 -248 -175 0
558 -899 -141 0
540 -943 -878 -404 0
876 -655 0
993 -992 0
326 -572 0
620 -606 -546 -225 0
30 -248 0
292 -848 -829 0
896 -329 -22 -273 0
221 -766 0
123 -98 -288 -258 0
234 -978 -374 0
-180 -923 0
71 -620 0
204 -762 -958 -900 0
-243 -494 -777 -686 0
399 -195 -409 -41 0
498 -551 0
287 -155 0
-582 -45 0
583 -458 -873 -464 0
52 -371 -402 0
830 -182 -813 -456 0
702 -196 -608 0
706 -459 -314 0
-69 -158 0
440 -673 -465 0
87 -858 -440 -956 0
-759 -520 -280 0
-51 -331 -693 0
600 -915 0
643 -602 -782 0
-609 -838 -55 0
263 -52 0
702 -952 -483 -806 0
380 -198 -387 0
534 -622 0
217 -606 -428 -465 0
64 -169 0
-823 -90 0
438 -999 0
1 -610 -495 -542 0
509 -206 -158 -432 0
39 -350 0
542 -157 -623 0
93 -194 -936 -848 0
-154 -627 0
-983 -383 0
999 -868 -41 0
963 -331 0
438 -730 -704 -785 0
943 -63 -331 0
934 -477 0
70 -207 0
-812 -118 -426 -133 0
-275 -577 -733 0
156 -831 -18 0
567 -329 -676 0
-653 -395 -983 -486 0
-155 -704 -223 -252 0
176 -588 -481 0
505 -65 -242 -503 0
-532 -801 0
498 -235 0
-469 -89 -345 -501 0
133 -954 -368 0
396 -194 -355 -542 0
661 -984 -337 -61 0
787 -695 -411 0
-166 -580 -195 0
-563 -383 0
-125 -148 -369 -790 0
388 -453 -233 0
-694 -602 0
237 -310 -885 0
249 -500 0
217 -266 -574 0
261 -811 0
299 -705 -994 -388 0
857 -563 -44 0
733 -157 -465 -613 0
699 -95 -726 0
644 -550 0
1 -844 0
246 -980 -460 -369 0
-393 -520 -786 0
353 -360 0
-981 -413 -547 0
-664 -967 -302 0
127 -774 -407 -196 0
335 -486 -777 0
124 -856 -669 -480 0
390 -38 0
-988 -790 -434 0
647 -482 -520 0
865 -262 0
569 -52 0
294 -520 -713 -810 0
892 -937 -138 -821 0
747 -479 -615 0
272 -833 -797 -223 0
-758 -9 -523 0
720 -610 -384 0
378 -258 -214 -87 0
365 -54 -416 0
-231 -623 0
994 -625 -732 0
603 -980 0
390 -967 -565 -789 0
-772 -275 -484 -63 0
-950 -422 -334 -921 0
730 -213 0
77 -584 -649 0
491 -891 0
-89 -882 0
-839 -450 -869 -580 0
-437 -634 -405 0
536 -651 0
222 -850 0
989 -968 -11 -664 0
-578 -81 -925 0
357 -656 0
-161 -941 -965 -316 0
505 -547 -960 -313 0
393 -802 -374 -83 0
38 -997 0
922 -431 -578 -483 0
-11 -503 0
675 -101 -273 0
697 -950 -228 -947 0
246 -480 0
23 -757 -981 0
82 -239 -644 -67 0
764 -848 -396 -259 0
88 -18 -865 0
123 -507 0
-52 -82 -398 0
-426 -895 -470 0
118 -814 0
-53 -78 0
587 -913 0
859 -503 -240 0
-91 -589 0
586 -766 0
947 -165 0
973 -628 -981 0
933 -882 -838 -681 0
82 -139 -317 -134 0
664 -897 -541 -498 0
195 -583 -773 0
183 -799 -783 0
366 -373 -709 0
464 -430 0
386 -712 0
540 -603 0
6 -257 -291 -129 0
262 -856 0
804 -621 -470 0
108 -995 0
800 -913 0
-725 -860 -408 -217 0
343 -860 0
346 -635 0
756 -131 0
728 -132 -910 -457 0
356 -785 0
-955 -245 -765 0
228 -992 -258 -381 0
-316 -303 -532 -497 0
303 -952 0
333 -543 -588 0
4 -514 0
-666 -929 0
-864 -919 -150 0
-138 -744 0
-793 -516 0
110 -902 -91 -668 0
-984 -903 -771 0
-472 -852 0
-675 -863 0
-47 -207 -251 0
-393 -728 -876 0
220 -984 -552 -236 0
984 -793 -550 -177 0
-400 -846 -950 -860 0
578 -326 -953 -511 0
-807 -432 0
91 -840 -3 -157 0
-599 -26 0
-116 -562 -156 0
985 -318 -157 0
596 -933 -466 -662 0
-280 -236 0
-511 -550 0
-227 -550 0
550 -617 -643 0
-5 -6 -527 0
793 -908 0
976 -906 -738 -207 0
-420 -210 -600 0
-957 -113 0
336 -443 -325 -114 0
778 -196 -928 -998 0
669 -408 -292 -825 0
799 -10 -954 -402 0
-301 -295 0
87 -332 -694 -858 0
236 -245 -59 -960 0
-201 -639 0
-48 -294 -316 -313 0
337 -180 0
199 -89 -994 0
479 -425 -493 -831 0
182 -858 0
769 -447 -91 -332 0
-816 -251 0
207 -651 -204 0
-573 -619 -136 -284 0
157 -572 0
239 -468 -313 -677 0
645 -990 -92 -778 0
243 -193 0
163 -492 0
-69 -134 -710 -941 0
-429 -305 -864 0
696 -603 -81 0
149 -100 -771 0
-691 -276 -548 0
359 -700 -237 -607 0
614 -463 -787 0
-293 -289 -196 -391 0
687 -731 -143 0
-667 -853 -52 -240 0
-38 -325 0
928 -6 0
39 -268 -971 -839 0
-651 -445 -784 -931 0
-305 -409 -527 0
523 -521 0
-496 -894 -528 0
-308 -791 0
378 -603 0
-275 -345 0
897 -178 -697 -971 0
713 -767 0
-518 -675 -986 -47 0
-30 -710 -873 -781 0
192 -354 -59 0
247 -419 0
381 -926 -557 -255 0
683 -237 -722 0
286 -518 -216 -424 0
-483 -704 -161 -505 0
725 -868 -195 0
-202 -286 0
-3 -545 0
451 -418 -869 -901 0
-942 -108 0
-967 -21 -207 -742 0
980 -907 0
818 -277 -999 0
976 -127 -931 0
218 -636 -848 -335 0
897 -958 0
124 -99 -64 -961 0
-970 -892 -496 -140 0
-265 -774 -32 0
866 -429 0
864 -830 -674 0
-818 -595 0
-796 -418 -2 -515 0
-253 -284 -33 0
565 -763 -414 -202 0
806 -562 0
-286 -380 0
670 -416 -660 -985 0
620 -636 -310 -813 0
-257 -563 0
-633 -191 -566 -435 0
451 -482 -709 -419 0
983 -189 0
913 -453 -318 -751 0
477 -986 0
76 -397 0
888 -33 0
592 -35 -683 0
-575 -385 0
-860 -913 -130 0
-945 -468 -992 -767 0
921 -110 -606 0
768 -499 -124 0
672 -721 -234 -159 0
576 -766 -575 -962 0
360 -780 0
577 -551 -511 0
791 -180 -204 -544 0
-927 -956 -807 0
474 -631 -686 0
18 -740 0
219 -634 -103 -33 0
231 -346 -849 0
953 -945 0
-466 -41 0
940 -568 -638 0
145 -666 -792 -835 0
763 -857 -86 0
519 -5 0
-735 -485 0
-250 -650 -450 0
657 -586 0
232 -72 -178 -966 0
823 -36 -205 0
768 -793 -68 -596 0
167 -853 -713 -96 0
-593 -745 -814 0
640 -488 0
-476 -769 -138 -892 0
135 -257 -916 -979 0
-375 -448 -270 0
572 -290 -926 -205 0
605 -142 0
