c Horn formula (polynomial-time solvable)
c 1000 variables, 2500 clauses
p cnf 1000 2500
386 -260 -228 -340 0
916 -566 -12 -930 0
93 -164 -311 -237 0
783 -54 -311 0
-771 -199 -630 0
474 -4 -344 0
-581 -355 -373 -445 0
-301 -84 -989 -863 0
280 -783 -506 -628 0
499 -396 -355 -437 0
968 -203 -402 0
823 -441 0
748 -186 -510 0
972 -769 -42 0
-986 -766 0
1000 -63 -217 -964 0
566 -349 0
179 -578 -124 0
133 -128 -81 -73 0
-718 -856 -689 -796 0
27 -816 -127 -463 0
-720 -882 -495 0
80 -325 -905 -46 0
64 -797 0
-14 -745 -546 -204 0
631 -176 0
116 -387 0
-718 -686 -703 -629 0
276 -405 -314 0
-587 -34 -21 0
-275 -306 -177 0
342 -348 0
564 -333 -662 0
676 -766 -353 -437 0
475 -111 0
-887 -582 0
-424 -233 -271 0
967 -939 -262 -676 0
228 -735 0
-968 -44 0
510 -211 -112 -102 0
484 -205 -759 -918 0
411 -95 -479 0
-15 -465 -920 -569 0
990 -160 0
-337 -244 0
-185 -15 -381 0
-91 -231 -823 -93 0
878 -236 -539 -874 0
-603 -733 -709 0
763 -740 0
36 -767 0
117 -509 -698 0
514 -887 0
984 -958 0
-454 -794 0
-722 -675 -904 -957 0
-388 -475 -95 -408 0
227 -461 0
502 -340 -794 0
42 -536 0
-314 -295 -660 -212 0
96 -367 0
489 -65 -940 -26 0
102 -813 -32 0
88 -122 0
691 -117 -173 -954 0
38 -825 -824 -875 0
506 -349 0
-784 -705 -42 0
571 -15 -346 0
-971 -400 0
690 -312 -191 -819 0
551 -846 0
-860 -326 0
799 -797 0
646 -568 -23 -634 0
851 -749 0
386 -781 -155 -204 0
-10 -833 -366 0
414 -292 -693 -738 0
-985 -797 -224 -735 0
-965 -404 -401 0
237 -913 0
-190 -979 0
-147 -248 -613 -5 0
721 -540 -328 -636 0
-326 -422 -231 -199 0
904 -302 -873 -907 0
-871 -885 -208 0
49 -160 0
939 -871 -210 0
18 -458 0
118 -167 -373 -781 0
91 -134 -113 0
698 -602 -784 0
-170 -82 0
770 -855 -63 -154 0
47 -298 -845 -764 0
859 -634 0
555 -243 -323 0
-764 -512 -172 0
-380 -80 0
-789 -533 -931 -513 0
70 -546 -296 -264 0
760 -724 -895 -369 0
241 -458 -481 0
-745 -9 0
395 -560 -300 0
55 -259 -498 0
-442 -345 -565 -82 0
598 -455 -561 -292 0
574 -220 0
190 -844 -793 -129 0
818 -351 -980 0
471 -473 -430 0
-957 -408 -82 -6 0
155 -53 0
295 -656 -123 -293 0
623 -627 -764 -454 0
427 -988 -668 0
78 -399 -592 0
-988 -388 0
834 -901 -700 0
239 -120 -435 -532 0
-657 -448 0
934 -815 0
592 -783 -849 0
103 -830 -770 -995 0
423 -149 0
-875 -392 -804 -349 0
387 -199 -491 -891 0
932 -698 0
335 -439 0
-442 -776 -230 -748 0
178 -812 0
170 -434 -545 -437 0
692 -158 -351 0
548 -714 -43 0
881 -512 -223 0
203 -614 -286 0
663 -446 0
988 -449 -734 -758 0
444 -762 -755 -764 0
464 -338 -456 0
644 -264 -424 -638 0
-795 -639 -983 -735 0
554 -660 -75 -61 0
395 -425 -147 0
467 -753 -351 0
227 -610 -150 -981 0
752 -812 0
400 -560 -213 -173 0
962 -808 0
651 -617 -49 0
152 -297 -875 -483 0
-790 -988 -566 -654 0
920 -417 0
-951 -740 -269 0
11 -559 -944 0
160 -525 0
126 -483 -743 -506 0
438 -603 -579 0
-819 -702 -111 -316 0
-517 -457 0
-234 -428 0
-425 -510 -777 0
666 -373 -893 -328 0
-836 -310 0
-113 -217 -382 0
409 -553 -737 0
289 -348 0
106 -408 0
377 -48 0
618 -859 0
-14 -44 0
46 -408 -820 -219 0
140 -725 0
-563 -117 -624 0
591 -298 -973 0
543 -227 0
852 -266 -189 0
-776 -305 0
-23 -448 -83 0
-263 -889 -562 -236 0
229 -430 -949 -93 0
454 -519 -573 0
297 -406 -62 -80 0
-804 -946 -807 -698 0
-51 -955 -146 0
700 -725 -672 -82 0
714 -360 0
639 -773 -430 0
-213 -306 -959 0
-664 -836 0
316 -653 -998 0
-475 -211 -427 -461 0
240 -212 -408 -235 0
181 -286 0
317 -799 -761 -282 0
-453 -716 -789 -76 0
-364 -925 -617 -174 0
-507 -878 0
558 -714 0
782 -515 0
259 -550 -937 -410 0
-369 -762 0
-694 -102 -790 0
-799 -234 -546 0
-243 -621 -899 -625 0
-994 -219 -878 -427 0
547 -679 -956 0
948 -70 -38 -79 0
884 -469 -283 -65 0
-546 -445 -890 0
80 -996 -911 0
349 -415 -933 -980 0
-148 -743 0
443 -699 -364 0
554 -839 -78 0
272 -189 -703 -1000 0
690 -767 -203 -106 0
448 -102 -750 -203 0
716 -507 -318 0
636 -781 -878 0
831 -899 0
836 -831 -765 -683 0
573 -82 0
105 -925 -273 0
283 -844 -451 0
520 -324 -800 0
-819 -418 -900 0
412 -772 -688 -591 0
-774 -797 0
-676 -270 -117 -469 0
692 -151 0
407 -517 -158 0
53 -891 -39 -420 0
149 -523 0
309 -381 -803 -473 0
105 -786 0
921 -133 0
177 -592 0
989 -298 0
351 -33 0
712 -770 0
819 -69 0
834 -249 0
493 -710 -707 -713 0
-579 -413 -746 -778 0
663 -8 0
865 -238 -547 0
305 -354 0
23 -988 -197 0
286 -22 -493 -752 0
327 -708 -974 0
-747 -335 -114 -19 0
-304 -415 -369 0
461 -95 -781 -775 0
95 -306 0
603 -757 -246 0
814 -80 -477 -351 0
932 -147 0
222 -549 -198 0
-842 -434 0
-154 -689 0
993 -870 -707 0
688 -355 -556 0
-707 -531 -182 0
648 -930 -326 0
-940 -491 -226 0
230 -518 -716 -409 0
861 -96 -394 0
24 -737 -604 -619 0
875 -564 -86 0
-804 -563 -761 0
264 -944 -150 0
354 -667 -723 0
623 -888 0
-572 -961 0
730 -217 -416 0
-627 -59 0
-719 -325 0
712 -143 -130 0
720 -709 0
555 -28 -822 -105 0
-18 -101 -163 -731 0
-976 -299 0
-567 -723 0
132 -297 -839 0
-893 -423 -781 -75 0
-604 -946 0
895 -232 -660 -89 0
629 -51 -650 0
832 -763 0
216 -343 -356 -128 0
-50 -912 0
184 -315 -864 0
250 -117 0
675 -65 0
912 -546 -88 0
528 -473 -53 0
676 -674 0
-202 -225 0
99 -559 -2 0
517 -757 -547 -459 0
-989 -20 -885 0
708 -165 -208 0
-442 -503 0
627 -672 0
594 -867 -807 -706 0
837 -232 -370 -450 0
788 -389 -261 0
871 -70 -665 0
-588 -748 -11 0
617 -389 0
-954 -881 -77 0
-18 -702 -301 -602 0
575 -862 -601 0
-367 -155 0
949 -560 -877 0
757 -125 -562 -496 0
115 -806 -250 0
-178 -74 0
592 -746 -257 0
30 -385 -696 0
441 -127 -452 -18 0
-680 -346 0
628 -303 0
712 -495 -551 -756 0
794 -573 -351 -620 0
189 -246 -867 0
-71 -983 -564 -112 0
164 -395 0
122 -883 0
-349 -637 0
186 -213 -161 0
-926 -483 0
677 -316 -778 0
-106 -583 -520 -53 0
-661 -900 -436 -200 0
722 -265 0
89 -130 -928 -872 0
441 -114 -585 -88 0
153 -778 -932 0
157 -952 0
795 -277 0
294 -642 -679 0
-396 -249 -96 0
39 -181 0
-967 -804 -113 0
976 -139 -324 0
-612 -586 -909 0
181 -689 -812 0
466 -252 -96 -778 0
491 -240 -294 0
456 -155 -188 0
152 -741 -948 -174 0
243 -556 -789 -598 0
83 -343 -656 0
36 -268 -326 -23 0
-202 -801 -271 -453 0
-652 -490 -505 0
824 -293 -713 -308 0
955 -620 -748 0
-757 -671 -648 0
763 -27 0
693 -333 0
-624 -886 -785 -292 0
-642 -178 -833 -846 0
601 -428 -686 -707 0
728 -23 -898 0
861 -78 -38 0
892 -452 -61 0
-796 -143 0
-893 -751 0
850 -910 0
845 -553 -904 -884 0
884 -235 -690 0
-140 -804 -201 0
-163 -1000 -310 -348 0
760 -424 0
826 -552 -288 -105 0
-486 -300 -371 0
-698 -513 -332 -813 0
-583 -248 -181 0
1 -105 -698 0
-133 -167 -88 0
452 -675 -978 0
-731 -215 0
396 -905 -353 -685 0
746 -951 -192 -768 0
-351 -503 -393 0
741 -8 0
431 -752 -563 -828 0
-34 -687 -194 -158 0
144 -324 -94 -932 0
421 -455 -17 -449 0
293 -260 0
218 -522 -416 0
-416 -846 -372 -154 0
202 -448 -827 -519 0
240 -392 -696 -855 0
478 -175 -376 0
-230 -846 -590 0
37 -710 0
-801 -46 -377 -699 0
774 -719 -540 0
950 -300 0
702 -797 -958 0
712 -416 -321 -882 0
171 -188 0
-916 -511 -905 -795 0
819 -636 0
492 -742 -119 -644 0
559 -857 0
617 -42 -904 0
790 -143 -672 0
849 -387 0
420 -71 0
681 -234 -372 -278 0
-948 -610 -993 -171 0
77 -383 0
-158 -522 -802 -974 0
158 -623 -290 0
400 -755 0
66 -266 -526 -115 0
292 -424 0
751 -24 -40 0
-632 -995 -871 0
256 -842 0
71 -378 -215 -391 0
994 -754 -893 -560 0
670 -633 -309 -297 0
618 -536 0
360 -175 0
-363 -619 -944 0
49 -399 0
842 -703 -305 0
-852 -340 -58 0
-628 -696 -420 -468 0
-410 -937 -551 0
309 -399 0
-784 -690 -944 0
818 -21 -618 -255 0
530 -594 0
-740 -477 -766 -940 0
30 -949 0
23 -576 -284 -66 0
853 -528 -941 -580 0
727 -697 -26 -696 0
-92 -135 -947 0
-895 -150 -655 -646 0
-803 -600 -82 0
537 -930 -904 -138 0
-373 -593 -63 -900 0
804 -635 -631 -307 0
117 -649 0
316 -467 0
-746 -482 0
-700 -989 -664 0
580 -897 0
-810 -354 -310 0
504 -462 -118 0
825 -967 0
-702 -560 -617 0
844 -160 -285 -849 0
290 -108 -838 0
-339 -503 0
87 -548 -578 0
-227 -657 0
-944 -118 -152 -761 0
-373 -306 -297 0
287 -206 -303 -605 0
582 -111 0
-314 -13 -175 0
754 -231 0
470 -32 0
991 -267 -2 -507 0
832 -314 -789 -198 0
69 -215 -763 0
279 -381 -170 0
770 -840 -952 -652 0
821 -849 -743 -484 0
-334 -721 -687 0
134 -53 -229 -515 0
155 -240 -913 0
281 -710 -450 -48 0
-185 -169 -646 0
252 -309 -370 0
399 -962 0
-382 -947 0
469 -565 -444 0
192 -894 -31 -133 0
-744 -848 -541 0
262 -234 -626 -353 0
137 -452 -689 0
-172 -203 0
396 -576 0
-213 -323 0
-660 -926 0
-474 -240 -320 0
344 -514 -707 0
242 -532 -213 0
58 -224 0
-724 -754 0
611 -93 0
-288 -260 0
669 -56 0
939 -623 -197 -869 0
-742 -65 0
-895 -687 -483 0
-976 -384 -692 0
435 -877 -71 -588 0
-289 -845 -554 -202 0
134 -393 -610 0
930 -98 0
-83 -255 -325 -281 0
818 -642 -226 0
535 -421 0
998 -474 -145 0
93 -792 -562 0
-987 -940 -840 0
-905 -625 0
550 -266 -923 0
587 -331 0
121 -990 -441 0
178 -558 -606 0
29 -727 -348 -710 0
-142 -944 -554 0
-218 -792 -292 0
623 -158 -338 -81 0
215 -337 0
875 -380 0
-456 -30 0
212 -233 -602 0
43 -349 0
-592 -540 -706 0
-412 -924 0
-740 -165 0
-608 -182 -737 0
-906 -316 -160 -198 0
854 -909 -441 0
472 -574 -371 -858 0
922 -519 0
907 -97 -208 -93 0
14 -891 -842 0
294 -83 -835 0
-159 -376 -733 -495 0
-988 -732 -219 -237 0
502 -679 0
571 -173 -787 -387 0
491 -221 0
993 -212 0
370 -571 -347 -853 0
917 -713 -162 0
539 -9 -505 0
633 -785 -238 0
348 -514 0
-366 -536 0
-66 -238 -851 -92 0
556 -513 -345 0
886 -750 0
-400 -371 -869 0
-125 -873 0
362 -292 0
540 -702 0
-583 -311 -15 0
626 -941 0
487 -664 -766 -306 0
14 -240 -162 -358 0
-64 -199 -578 -343 0
872 -126 -628 0
135 -640 -740 -487 0
-543 -363 -694 0
337 -561 -747 0
78 -575 -709 0
958 -505 0
435 -316 0
647 -58 -472 0
592 -57 -904 0
-237 -335 -138 -44 0
221 -621 -245 -819 0
181 -785 -899 -351 0
182 -246 -50 -869 0
536 -901 0
374 -691 -477 -764 0
810 -685 -283 0
-51 -31 -290 -305 0
480 -670 -20 0
-543 -105 -749 -275 0
-255 -949 0
-724 -750 0
461 -676 -763 0
659 -5 -621 -818 0
-109 -682 -362 -550 0
438 -297 -687 0
394 -493 -213 -598 0
425 -896 -861 0
-477 -52 -207 -566 0
512 -724 0
354 -381 0
673 -995 -338 0
954 -457 0
694 -786 -129 -123 0
-437 -741 -156 0
-881 -569 -354 0
731 -254 -816 -328 0
-505 -950 0
495 -780 -635 0
857 -303 -212 -591 0
546 -842 0
910 -577 -145 -674 0
-716 -976 -429 -483 0
746 -682 0
-296 -54 0
-646 -802 -651 0
218 -451 -93 0
754 -338 -10 -362 0
-562 -820 0
-847 -785 0
367 -784 -593 -747 0
464 -175 -313 0
75 -299 -103 -493 0
-278 -135 -449 0
573 -183 -859 0
-585 -837 0
-874 -126 -410 0
249 -104 -815 -650 0
-799 -874 -201 -658 0
367 -123 -102 -884 0
790 -631 -656 0
-946 -13 0
-531 -106 -382 -875 0
-519 -901 -410 0
910 -915 -296 0
12 -821 -530 0
906 -361 0
915 -450 -693 -886 0
-48 -761 0
635 -123 0
368 -163 0
380 -991 -636 -796 0
-2 -566 0
-558 -221 -401 0
629 -758 -318 -645 0
612 -834 -641 0
876 -636 -318 0
484 -476 -763 -850 0
-539 -271 0
51 -880 -265 -13 0
280 -908 -166 -697 0
247 -495 0
857 -907 -894 0
82 -707 0
-945 -358 -953 -336 0
976 -27 0
-585 -625 0
920 -626 -714 0
495 -3 0
-26 -354 -646 -462 0
756 -563 -48 -39 0
947 -24 -832 -377 0
206 -155 -222 0
25 -941 0
225 -491 -146 0
13 -141 -849 -704 0
-167 -485 -410 0
-473 -107 -464 -98 0
735 -656 0
558 -452 -175 -733 0
-609 -90 0
795 -744 0
-681 -691 0
32 -725 -217 -694 0
355 -600 -915 0
37 -408 -516 0
231 -593 -171 -887 0
949 -843 -904 -417 0
367 -494 -565 -734 0
305 -547 -976 0
135 -420 -825 -975 0
-153 -560 -39 -724 0
-888 -262 -880 -107 0
33 -744 -21 -243 0
309 -328 -834 -112 0
-14 -314 -509 0
-981 -123 -161 0
472 -26 0
-237 -744 0
76 -331 0
784 -170 0
535 -86 0
-571 -754 -33 0
639 -345 0
-667 -101 0
-718 -53 0
125 -881 -239 0
42 -565 0
394 -324 -849 -401 0
-523 -316 -191 0
585 -364 -875 0
-393 -421 0
869 -945 -871 0
-529 -826 0
612 -934 -543 0
24 -459 0
102 -328 -165 0
633 -164 -641 -495 0
637 -735 -620 0
-759 -741 0
807 -525 0
249 -616 -529 -589 0
-620 -811 0
910 -541 -1 -892 0
134 -84 -27 0
45 -345 -484 -914 0
961 -835 0
-904 -310 -527 -13 0
-653 -51 0
754 -359 -388 -923 0
118 -443 -150 -164 0
222 -54 -11 0
301 -209 -255 0
949 -48 0
-546 -599 0
583 -130 0
812 -221 0
567 -579 -973 -488 0
670 -765 -145 0
-169 -979 -412 0
242 -129 0
-140 -186 0
-537 -572 -951 0
155 -226 -523 -469 0
410 -626 -885 0
-617 -882 0
348 -769 0
842 -726 -925 0
989 -799 -159 0
133 -35 -306 0
-991 -322 0
432 -696 0
757 -46 -199 -445 0
-971 -53 -981 -928 0
664 -901 -349 0
-786 -50 -474 0
758 -723 0
139 -431 -751 -286 0
813 -942 0
979 -189 -783 -380 0
-833 -772 0
224 -32 0
163 -878 0
535 -5 -379 0
957 -891 -217 -243 0
583 -948 0
735 -743 0
478 -643 -174 -671 0
546 -82 -633 -44 0
811 -498 -499 0
-175 -907 -709 -98 0
396 -886 -465 0
907 -937 0
775 -811 -278 -494 0
584 -1 0
148 -251 -464 -739 0
83 -263 0
-45 -14 -817 -110 0
-114 -432 -606 0
311 -386 0
490 -820 0
507 -493 0
499 -497 -744 -332 0
-165 -693 -152 0
-163 -294 0
852 -638 -760 -731 0
971 -65 0
311 -38 -86 -548 0
357 -225 -141 0
150 -161 -334 0
286 -181 0
-358 -572 0
37 -581 -163 0
-226 -231 -381 -792 0
-728 -228 -906 -59 0
44 -662 0
-954 -471 -130 0
313 -838 0
120 -278 -445 -296 0
-219 -220 -708 -445 0
484 -37 -363 -620 0
-647 -142 -960 -912 0
912 -25 0
243 -19 0
146 -525 -150 0
543 -617 0
-847 -793 -647 0
345 -872 -125 -217 0
571 -419 0
179 -272 -598 0
-94 -68 0
-744 -580 -824 -823 0
447 -205 -858 -874 0
1 -24 -409 0
141 -473 -243 0
209 -586 -6 0
44 -414 -98 -34 0
558 -326 0
946 -74 0
-719 -751 -738 -685 0
883 -554 0
890 -232 -40 0
571 -798 -362 0
649 -342 -872 -252 0
-673 -698 0
961 -615 0
474 -246 0
901 -292 0
226 -183 -876 0
424 -47 -433 0
-592 -897 0
8 -38 -762 0
-94 -931 -416 0
487 -973 0
655 -822 0
-838 -392 -676 0
-334 -413 -549 0
365 -114 -927 0
-792 -696 -569 0
871 -817 -843 -816 0
-939 -617 -779 0
943 -32 -397 -323 0
-950 -425 -10 -177 0
286 -348 0
741 -903 0
-212 -219 0
-320 -767 -562 0
141 -625 -202 -144 0
660 -592 0
712 -723 -375 -227 0
-547 -365 -498 -766 0
-334 -244 -398 0
158 -660 0
-667 -895 0
10 -987 0
-853 -365 0
655 -497 -654 0
401 -42 0
147 -152 0
890 -947 0
924 -336 -501 0
445 -260 -105 0
-85 -827 -628 -931 0
31 -35 -477 0
-474 -52 0
643 -909 0
581 -896 -894 0
-962 -911 0
277 -401 0
-248 -662 0
-823 -767 0
150 -373 0
-151 -569 -691 0
-648 -3 -290 -690 0
-951 -289 0
-576 -964 0
113 -725 0
295 -690 0
908 -705 -914 -66 0
618 -211 -367 -404 0
246 -153 -475 0
712 -597 0
-641 -121 -990 -611 0
408 -584 -196 0
-732 -9 -374 -886 0
518 -326 -421 0
-748 -605 0
393 -223 -518 0
247 -248 -92 -246 0
-589 -127 -596 0
-166 -556 -330 0
720 -132 0
-854 -752 0
305 -533 0
-828 -61 -468 0
721 -888 -983 -559 0
285 -430 0
222 -805 -417 -494 0
-3 -370 -914 -892 0
181 -861 0
-830 -694 0
114 -786 0
-932 -698 0
684 -139 -287 0
-293 -275 0
316 -406 -979 0
713 -570 -616 0
-986 -485 -971 -885 0
740 -138 -69 -888 0
314 -337 0
-551 -527 0
725 -689 -573 0
8 -545 -895 0
579 -46 -125 0
508 -314 -992 0
671 -909 -677 0
-84 -394 -951 0
981 -982 -698 -431 0
-242 -541 0
414 -815 -179 0
637 -508 0
808 -736 0
322 -117 -554 0
701 -51 -971 0
194 -577 -15 -733 0
541 -845 -364 -211 0
400 -739 0
-948 -922 -538 -608 0
104 -513 -897 0
388 -768 -794 -465 0
882 -582 0
478 -86 -41 0
313 -723 -178 0
870 -774 -54 0
712 -169 0
-617 -114 -70 -705 0
270 -458 0
-678 -862 0
-445 -717 0
-693 -943 -784 -691 0
668 -310 -669 -831 0
495 -764 -86 -343 0
697 -228 -30 0
906 -726 -524 -824 0
510 -854 -313 -739 0
148 -744 -489 0
659 -542 -173 0
801 -356 0
318 -743 -681 0
161 -367 -828 0
207 -224 -241 -460 0
728 -730 0
-682 -84 -60 -203 0
979 -363 0
590 -349 0
179 -466 -592 0
356 -402 -816 0
616 -441 0
704 -367 -311 0
675 -296 0
295 -534 -175 0
-991 -399 -367 -987 0
2 -93 0
316 -529 -737 -453 0
-890 -616 -289 -799 0
947 -436 -401 -734 0
978 -182 -923 -983 0
431 -921 -134 0
887 -605 -935 -129 0
942 -264 -237 0
270 -959 0
945 -665 -861 0
439 -836 -536 0
426 -402 -646 -423 0
-396 -894 0
820 -507 -629 -104 0
300 -93 -358 -375 0
894 -567 -65 0
219 -849 -589 -80 0
278 -523 -811 -294 0
382 -98 0
-711 -303 0
-186 -770 0
483 -584 -167 0
-618 -920 -4 0
683 -658 0
161 -988 -563 -279 0
-849 -304 0
548 -337 0
793 -771 0
734 -680 0
174 -449 0
342 -396 0
-644 -535 -949 -459 0
-557 -198 -769 0
-338 -119 -305 0
-288 -136 0
-872 -901 -524 -570 0
653 -751 0
850 -879 0
709 -11 -203 0
-526 -122 0
494 -450 0
298 -640 -301 -557 0
817 -127 -131 0
115 -325 -13 0
61 -948 -606 -595 0
-700 -736 0
-383 -983 -764 -621 0
847 -544 -654 0
396 -825 -29 0
165 -344 -342 0
65 -613 -189 0
-525 -4 -399 -126 0
-690 -515 -739 -337 0
-535 -432 0
463 -568 -423 0
45 -398 -704 -143 0
79 -143 0
233 -208 -526 -240 0
-659 -443 0
-563 -802 -968 0
728 -271 -858 0
268 -348 -675 0
-65 -358 -699 -748 0
-291 -143 0
-768 -671 -752 0
787 -747 0
619 -59 -582 -775 0
41 -799 0
785 -449 0
380 -642 0
-113 -63 -406 -389 0
370 -681 0
-553 -951 -368 0
360 -568 -899 0
810 -385 0
875 -673 0
848 -254 -24 0
268 -851 0
505 -579 -48 0
412 -387 -857 0
963 -561 -53 0
-22 -886 0
875 -632 0
-639 -894 0
45 -51 -65 0
-326 -887 0
883 -92 0
800 -315 0
177 -739 0
918 -381 -758 -697 0
563 -401 0
246 -402 -324 0
195 -685 0
513 -746 0
219 -70 -959 -747 0
626 -171 0
563 -524 -507 -539 0
791 -347 -198 -72 0
-192 -475 -232 0
476 -160 -605 0
607 -523 -268 0
921 -502 -181 -438 0
396 -486 0
-592 -914 0
-56 -208 0
260 -952 0
581 -987 -894 -119 0
-181 -920 -582 -754 0
430 -266 -234 -519 0
918 -37 -515 -374 0
410 -490 -489 0
291 -54 0
141 -699 0
958 -451 0
-803 -805 -887 -968 0
-973 -379 -252 -250 0
705 -344 -429 0
190 -900 -698 -336 0
-245 -139 0
734 -142 0
387 -455 -709 -307 0
869 -700 -519 -463 0
918 -825 0
629 -960 0
117 -314 -845 0
-734 -912 0
48 -540 -670 -585 0
546 -209 0
965 -904 -320 -530 0
163 -548 -31 0
730 -14 -269 0
615 -708 -62 -160 0
120 -693 -796 0
906 -958 0
-798 -444 -772 -443 0
251 -77 -57 -194 0
558 -56 0
762 -415 0
-559 -609 0
-666 -9 0
-217 -592 0
828 -542 0
-33 -86 -915 -523 0
347 -376 -378 0
815 -551 -287 0
963 -999 -684 -516 0
352 -354 -631 0
-145 -554 -498 0
-585 -547 -607 0
-665 -895 -65 0
-228 -615 0
-395 -371 -982 -303 0
609 -659 -538 -439 0
314 -303 0
-372 -109 -801 0
166 -775 0
74 -309 -396 0
-332 -150 -766 -630 0
-387 -207 -137 0
653 -175 0
407 -439 0
486 -779 -126 -986 0
964 -903 -158 -503 0
643 -440 0
351 -85 -546 -90 0
705 -441 -745 0
662 -892 -242 -261 0
-218 -772 -865 0
267 -632 -980 -18 0
58 -373 -535 -370 0
-936 -402 0
-198 -930 -819 -336 0
220 -593 0
-170 -666 -100 0
987 -520 -416 -104 0
833 -544 -252 -371 0
827 -628 0
-545 -876 0
639 -135 0
656 -247 -974 0
-717 -687 0
-798 -781 -594 0
805 -635 -244 0
471 -981 0
343 -44 -430 -535 0
-361 -752 -225 0
338 -932 0
804 -148 -600 0
603 -149 0
224 -315 -357 -505 0
967 -213 -339 0
485 -151 0
-853 -95 -453 -984 0
243 -221 0
260 -539 -919 -613 0
310 -540 -641 0
792 -138 -595 0
638 -964 -312 0
-787 -913 -818 -202 0
191 -753 -431 -261 0
-986 -768 -56 0
-424 -386 0
472 -367 0
894 -933 -528 -980 0
47 -890 0
527 -528 -800 -562 0
-610 -942 0
812 -543 -229 0
700 -17 0
-277 -990 -942 0
725 -981 -711 -605 0
243 -296 -686 0
-295 -42 -156 -906 0
-651 -202 0
-930 -512 -818 0
53 -675 -960 0
-979 -550 -446 0
958 -1000 -920 -194 0
-886 -622 -346 -612 0
-35 -767 0
743 -757 0
429 -324 -784 0
529 -982 -568 0
384 -277 -186 -298 0
411 -569 -683 -664 0
-789 -198 0
-126 -241 0
-857 -144 -621 -29 0
-204 -323 -285 0
113 -838 -387 0
156 -83 -409 0
375 -621 0
12 -787 0
981 -454 0
-274 -692 0
-302 -194 -203 -857 0
738 -840 -334 0
-934 -379 -884 0
-247 -871 0
332 -114 -799 -335 0
26 -272 0
-629 -462 -849 0
195 -503 0
-721 -970 -741 -365 0
26 -169 0
850 -270 -10 0
47 -875 0
-133 -406 -665 0
-373 -70 0
883 -63 -191 -405 0
331 -297 -119 0
714 -223 0
252 -461 -860 0
139 -286 0
714 -532 -726 0
379 -75 -236 0
301 -131 -406 -24 0
760 -353 0
29 -540 0
-160 -977 -503 0
-894 -583 0
-573 -969 -501 0
603 -645 0
661 -619 -410 0
559 -494 -600 -718 0
-131 -656 -16 0
164 -179 0
-98 -90 -798 0
-513 -527 -847 -520 0
-556 -116 -147 0
478 -974 0
-169 -899 -461 0
-126 -58 -234 -103 0
-290 -361 -445 -995 0
275 -652 -501 0
150 -534 -13 0
88 -294 -316 -935 0
763 -678 0
-849 -492 -146 0
-374 -955 0
986 -65 -239 -547 0
41 -306 0
504 -957 -880 -755 0
977 -465 0
114 -391 -594 -300 0
51 -177 -524 0
-684 -841 -287 -736 0
-442 -909 -855 -802 0
798 -460 -271 0
550 -667 0
-782 -578 0
655 -990 0
675 -111 -169 0
-502 -701 -732 0
-560 -428 0
342 -447 0
-549 -980 -407 -541 0
946 -507 -128 0
-453 -592 0
580 -442 0
433 -334 -968 -846 0
-949 -892 -249 0
-911 -165 0
457 -280 -107 0
-204 -59 0
-99 -579 -804 -167 0
808 -335 0
793 -648 -495 -674 0
-399 -854 -835 0
389 -23 0
385 -268 -408 -721 0
-470 -147 -508 -808 0
-320 -454 0
639 -885 0
110 -88 -367 0
232 -628 -205 -441 0
-940 -580 -149 0
224 -976 0
328 -358 0
-186 -517 0
-266 -97 -182 -545 0
781 -575 -774 0
990 -228 -25 -192 0
-660 -232 -244 -440 0
-289 -894 -800 -953 0
-586 -543 0
569 -684 -622 -387 0
881 -621 -112 -497 0
524 -518 -208 -355 0
-619 -195 0
252 -667 -602 -638 0
41 -248 -683 0
171 -972 -658 -629 0
-477 -877 0
-892 -51 -794 -526 0
-267 -156 -504 -525 0
-34 -919 -403 -215 0
241 -489 -925 0
642 -884 0
221 -355 0
-955 -423 0
-768 -204 0
-277 -828 0
188 -217 0
679 -163 -49 0
430 -113 -165 0
280 -366 -481 0
853 -49 -529 -92 0
202 -671 -858 -498 0
450 -127 0
635 -526 -517 0
575 -109 0
473 -506 -922 -119 0
-506 -398 -403 -878 0
735 -760 -738 -228 0
635 -297 -454 0
-579 -439 0
-651 -327 -219 0
878 -549 -740 -581 0
590 -230 -821 0
717 -439 0
244 -589 0
-305 -700 -450 -592 0
-603 -987 0
724 -664 -444 0
554 -177 0
309 -469 0
236 -583 -642 0
-330 -997 -27 0
191 -390 0
550 -417 0
77 -790 -354 -146 0
-829 -860 -819 -909 0
700 -938 -85 -655 0
-337 -556 0
328 -516 -803 0
31 -183 0
42 -505 -958 0
202 -224 -749 -29 0
892 -810 -189 0
813 -942 -287 0
889 -203 0
895 -991 -622 -258 0
101 -950 -572 -347 0
667 -79 -45 -781 0
791 -470 -74 -25 0
396 -297 0
862 -654 -200 -344 0
641 -58 -209 0
11 -907 -564 -762 0
721 -37 -56 -682 0
-535 -476 -479 0
32 -969 0
732 -77 0
113 -583 0
143 -969 -728 -816 0
535 -581 -530 0
974 -762 -588 0
952 -715 0
-545 -237 -649 -244 0
-42 -860 0
570 -303 -245 0
41 -424 0
555 -912 0
392 -543 -382 0
863 -529 -513 -925 0
341 -507 0
897 -331 -339 0
84 -539 -495 -780 0
929 -170 0
-461 -836 -714 -692 0
898 -167 -265 -85 0
245 -648 -923 -837 0
873 -277 -750 -738 0
191 -376 -919 0
-370 -413 -974 -991 0
223 -719 -927 -51 0
-472 -820 -549 -312 0
835 -911 -419 0
-494 -130 -902 -338 0
793 -122 -271 -855 0
-440 -964 -561 -612 0
965 -583 0
-859 -704 -811 -995 0
687 -793 -684 0
52 -33 0
393 -191 -200 0
-785 -603 0
199 -934 -124 -101 0
-818 -778 -860 0
251 -27 -36 -798 0
-611 -889 0
518 -361 -471 0
263 -883 0
897 -785 -480 -905 0
954 -407 -620 -391 0
937 -790 0
-755 -721 -827 0
378 -690 -738 0
-498 -550 -196 -506 0
526 -568 0
-698 -307 -623 0
830 -111 0
-740 -656 -799 -879 0
-749 -340 0
553 -256 -429 -153 0
-546 -836 -347 -899 0
620 -681 0
854 -713 -624 0
266 -819 -997 -490 0
-831 -939 0
-130 -347 0
-291 -157 0
792 -98 -417 -920 0
858 -938 0
917 -835 -403 -606 0
-324 -269 -996 -179 0
414 -816 -342 -861 0
-470 -240 0
983 -915 -247 0
-185 -434 0
295 -842 -232 -780 0
530 -471 -965 -259 0
753 -397 -497 -267 0
150 -179 -802 -698 0
475 -112 0
-869 -259 0
-276 -454 -13 0
901 -701 -782 0
974 -57 -256 0
564 -232 -317 -587 0
646 -815 0
118 -60 -629 0
-434 -560 0
557 -780 0
728 -791 -903 -338 0
607 -264 -278 -40 0
-555 -419 -906 0
769 -662 -348 -558 0
9 -666 -981 -62 0
405 -721 -93 0
-760 -52 -261 0
188 -724 -594 -993 0
-646 -35 -85 0
453 -647 0
958 -414 0
-220 -148 0
-944 -329 0
675 -946 0
518 -334 -216 -283 0
807 -649 0
173 -601 0
328 -365 -161 -347 0
216 -693 -13 -213 0
-76 -340 -465 -98 0
404 -648 -182 -692 0
-112 -649 -367 -246 0
50 -295 -932 0
493 -7 -757 0
752 -249 -268 -648 0
967 -962 -886 0
858 -636 -583 -768 0
522 -277 0
-953 -648 0
686 -441 0
242 -758 -11 0
-670 -315 0
907 -743 -744 0
572 -755 -157 0
277 -838 -606 0
439 -793 0
389 -455 0
742 -388 0
311 -732 -746 -33 0
854 -610 0
-568 -778 -388 -510 0
-53 -647 -509 0
181 -205 -908 -731 0
-221 -300 -464 -215 0
-182 -678 -773 -72 0
-714 -586 -640 0
82 -116 0
980 -886 -788 0
114 -59 0
80 -144 -383 0
901 -760 0
394 -425 -220 -743 0
14 -603 -331 0
934 -230 0
875 -608 -539 0
882 -855 0
531 -971 -552 0
195 -296 -587 -158 0
409 -60 -867 -562 0
58 -962 -320 -509 0
505 -354 0
204 -229 -639 -498 0
823 -109 0
-236 -991 0
90 -980 -343 0
435 -225 0
941 -868 -392 -239 0
-474 -520 -443 -900 0
-635 -957 -696 -850 0
-368 -223 -790 -438 0
536 -277 0
-871 -12 -345 -931 0
-205 -458 0
829 -698 0
946 -649 -870 0
-629 -809 0
340 -36 -157 -914 0
523 -149 -244 0
324 -872 -507 -144 0
-534 -419 0
223 -229 -219 -638 0
896 -932 -556 0
556 -770 -365 -326 0
-606 -956 -993 -243 0
-534 -948 0
223 -119 -465 -947 0
923 -522 -763 0
753 -614 -892 -95 0
560 -185 -404 -158 0
-547 -733 0
765 -860 0
113 -577 -682 0
782 -792 -654 0
140 -20 0
-771 -235 -958 -551 0
865 -369 0
138 -98 -948 -245 0
859 -678 -14 0
857 -797 -731 0
-795 -589 -605 0
263 -536 0
134 -555 0
541 -325 0
196 -620 0
249 -569 -627 0
322 -92 -473 0
-747 -12 -837 -562 0
65 -250 -618 0
967 -643 0
275 -694 -889 -558 0
249 -462 0
706 -170 -912 -100 0
804 -570 -99 -325 0
379 -804 0
-748 -396 -535 -165 0
749 -328 0
494 -964 0
-84 -570 -234 -293 0
566 -980 0
-661 -9 -629 -974 0
550 -748 0
388 -74 -479 0
48 -615 0
-784 -70 0
250 -826 -327 -524 0
453 -559 0
667 -823 0
629 -668 -299 -971 0
318 -699 -445 0
174 -473 -315 -638 0
-653 -264 -740 0
156 -874 -305 0
90 -811 -163 0
898 -899 -249 0
690 -252 -420 0
-151 -164 -852 0
395 -113 -963 0
896 -863 0
657 -560 0
457 -791 -216 0
220 -476 -345 0
792 -985 0
741 -711 0
-547 -129 -80 -180 0
951 -735 0
21 -152 -290 0
-933 -501 -794 -624 0
-541 -414 -155 -28 0
511 -238 -297 -171 0
-861 -464 -419 -139 0
949 -959 -574 0
538 -1 -537 -343 0
878 -897 -732 0
-14 -167 -702 -318 0
-945 -667 -92 -314 0
-673 -476 0
297 -285 0
-63 -252 -874 0
762 -148 -843 -199 0
361 -917 -21 0
750 -359 -253 0
710 -73 -535 -223 0
-92 -520 -376 -39 0
985 -855 0
749 -619 0
478 -854 -827 -370 0
358 -197 -621 0
-119 -763 -719 -165 0
588 -303 -982 -584 0
-900 -635 0
-978 -775 0
-207 -826 -228 0
804 -501 -300 -820 0
-282 -404 -772 0
447 -896 -862 -590 0
705 -806 -767 -165 0
-547 -485 -938 -430 0
68 -907 -108 -649 0
67 -262 -768 -789 0
-446 -197 0
811 -451 -542 -315 0
974 -501 0
346 -141 0
678 -962 -946 -192 0
258 -295 -791 -526 0
-311 -30 -551 0
207 -934 -45 0
987 -171 -332 -359 0
313 -396 0
828 -4 0
690 -747 -215 0
466 -655 0
3 -800 -43 -662 0
-806 -899 -326 -429 0
307 -179 -815 0
379 -313 -484 0
-776 -551 -290 0
131 -72 0
624 -818 -702 -925 0
461 -634 0
-115 -377 0
594 -708 -322 -26 0
-910 -294 -322 0
831 -639 0
602 -322 -164 -653 0
-491 -216 -341 -151 0
814 -142 0
-299 -699 -17 -396 0
971 -834 -518 0
989 -241 -806 0
846 -230 -392 -912 0
800 -595 -975 0
-897 -763 -917 -873 0
269 -627 -630 -625 0
110 -410 -265 -82 0
504 -72 -84 -530 0
-626 -556 0
-897 -202 0
-2 -779 0
41 -562 -9 -580 0
-939 -314 -638 -490 0
674 -92 -332 -399 0
235 -508 -225 -518 0
777 -693 -913 0
-160 -190 0
896 -857 0
640 -763 -818 0
170 -192 0
221 -249 -543 -342 0
931 -336 0
562 -325 -716 0
546 -545 -278 0
-244 -945 -522 -912 0
117 -865 -557 -145 0
506 -107 -279 -102 0
186 -733 -65 0
-448 -83 0
-279 -994 0
736 -194 0
-893 -486 -701 0
288 -358 -854 -791 0
-692 -696 -587 0
875 -677 0
901 -201 -526 -181 0
620 -716 -25 0
-565 -736 -13 0
623 -219 -195 0
238 -44 0
66 -939 -124 0
763 -85 -174 0
301 -986 0
777 -213 -722 -758 0
763 -551 0
800 -58 0
863 -130 0
-60 -73 0
-229 -506 -537 0
-308 -735 -987 0
-289 -112 -800 0
-629 -751 0
242 -904 -902 -680 0
-47 -941 -606 0
262 -43 -496 -228 0
574 -455 0
926 -616 -347 -820 0
-4 -653 -362 -281 0
796 -526 0
639 -918 -920 -578 0
-143 -611 -216 -862 0
452 -464 0
202 -99 0
327 -413 -275 0
842 -174 -724 -530 0
-939 -872 -93 0
313 -465 -146 -720 0
-197 -287 0
259 -668 -612 -123 0
788 -952 -168 -571 0
954 -436 -994 0
164 -577 -271 -472 0
665 -397 -83 0
248 -489 -471 0
-417 -325 -802 -748 0
-545 -519 -230 -10 0
-937 -875 -926 -84 0
186 -249 -580 -863 0
-169 -306 0
-936 -508 0
-847 -222 0
759 -663 -503 -351 0
257 -283 -102 -642 0
665 -498 -839 0
609 -184 0
877 -412 -144 -517 0
357 -654 -7 0
592 -587 -618 -276 0
32 -849 -306 0
763 -877 0
422 -747 0
-670 -826 -76 0
452 -324 -97 -113 0
-928 -583 -293 -703 0
799 -890 0
447 -321 0
996 -682 -233 -35 0
-697 -637 -812 -168 0
330 -385 -59 -521 0
262 -338 0
-243 -944 -582 -655 0
460 -943 -281 0
-218 -363 -190 0
323 -606 -428 0
906 -721 0
762 -505 -761 0
393 -672 0
721 -193 -189 0
352 -971 -780 0
-101 -310 -332 -905 0
399 -944 -116 0
643 -855 0
956 -980 0
-436 -239 -800 0
-14 -400 0
-621 -863 0
725 -758 -913 0
782 -653 -965 -314 0
-254 -966 -919 0
800 -35 0
-638 -673 0
699 -138 -805 -275 0
83 -248 -136 0
45 -876 -787 0
-612 -961 -222 0
55 -123 -139 -104 0
-674 -304 0
134 -227 -389 0
991 -201 0
-952 -672 -765 -70 0
-127 -41 -48 0
314 -327 0
413 -467 -447 -158 0
-123 -389 -885 -816 0
375 -914 -708 0
889 -288 -152 0
-939 -352 -717 0
369 -296 -797 0
533 -67 0
758 -691 -316 0
876 -824 -330 0
-170 -996 -495 -948 0
-20 -159 0
86 -924 -231 -714 0
140 -370 -94 0
659 -249 -812 -827 0
-959 -622 -186 -87 0
-199 -366 0
636 -902 -733 -310 0
545 -346 0
-490 -380 -152 0
-782 -400 -745 -599 0
513 -215 0
138 -865 -404 -165 0
830 -624 0
485 -137 0
25 -849 0
-648 -75 -962 -654 0
-233 -997 0
-191 -929 -665 -615 0
-157 -446 0
172 -182 0
621 -312 -955 -862 0
746 -867 0
458 -711 -410 -331 0
185 -466 -747 0
-114 -424 -695 -556 0
-567 -732 0
236 -362 -775 0
872 -564 -192 -395 0
29 -905 0
479 -714 -557 0
644 -615 0
38 -587 -336 -237 0
670 -929 -766 0
465 -202 -335 -284 0
-541 -837 -91 0
-864 -254 0
438 -79 -747 -36 0
-524 -328 0
417 -170 -329 -149 0
790 -786 -789 0
-387 -984 -337 -33 0
-257 -43 -299 0
305 -651 -979 0
100 -726 -743 -166 0
-610 -463 -285 0
386 -671 -256 0
425 -38 -907 0
370 -874 -424 0
211 -279 -999 -277 0
-98 -735 -639 0
44 -992 0
979 -10 -874 -192 0
373 -686 0
778 -840 -27 -228 0
518 -319 -932 -643 0
738 -133 -360 0
780 -164 -801 -877 0
204 -126 -583 -71 0
140 -940 0
354 -867 0
815 -681 -158 -261 0
917 -688 -972 0
90 -257 0
-247 -496 0
178 -30 0
-201 -963 0
947 -645 -324 0
744 -803 0
611 -713 0
353 -174 0
-908 -3 -554 0
574 -603 0
-640 -251 -594 -910 0
2 -833 0
-208 -693 0
75 -358 0
333 -530 0
-546 -987 0
523 -707 0
590 -852 -810 -177 0
-988 -656 0
45 -941 -299 -913 0
804 -966 0
925 -216 -391 0
475 -996 -673 -127 0
235 -262 -467 -481 0
547 -996 -775 -532 0
-262 -605 0
-894 -369 0
987 -134 0
-27 -236 0
917 -294 0
-951 -931 0
698 -79 0
908 -272 -42 0
551 -673 -918 -183 0
112 -276 0
860 -410 0
245 -824 0
446 -805 -442 -289 0
-852 -315 0
538 -976 -225 0
-439 -593 0
52 -689 -174 0
674 -744 -995 -100 0
320 -432 -724 -927 0
16 -498 -580 0
389 -553 -337 -101 0
910 -989 0
791 -442 -319 -655 0
-431 -621 0
53 -586 0
462 -988 -541 -525 0
639 -952 -581 -217 0
971 -44 -240 0
-362 -538 0
-13 -696 -847 0
-219 -792 -746 0
287 -225 0
731 -57 0
-496 -939 -980 -711 0
642 -820 -426 0
-743 -846 -787 -643 0
-381 -737 0
-604 -163 -742 0
-262 -501 -666 0
696 -149 -438 -973 0
-671 -580 -458 0
925 -454 0
-712 -414 -572 0
-668 -50 0
895 -212 -628 0
804 -4 -458 -952 0
312 -977 -50 0
-618 -8 0
281 -114 -484 0
-252 -930 -330 0
753 -920 0
-337 -623 0
70 -750 -552 0
-678 -377 -101 -937 0
30 -731 -893 0
116 -277 0
-982 -696 0
407 -997 0
-321 -420 -611 0
743 -498 -556 0
54 -254 0
440 -456 -458 0
-139 -404 -937 0
905 -714 -338 0
876 -784 -573 0
-43 -555 0
677 -528 0
617 -180 -183 -258 0
597 -306 -59 0
-163 -127 -921 0
519 -346 -623 0
713 -761 -864 -457 0
-680 -650 -103 -474 0
507 -474 -487 0
-409 -249 -714 0
215 -305 0
981 -197 -609 -305 0
136 -71 0
651 -667 -38 0
962 -223 -952 -925 0
-130 -487 0
-854 -798 0
-836 -886 0
218 -634 -145 0
637 -256 0
270 -259 -779 0
705 -629 -17 0
859 -135 0
-211 -148 0
204 -773 -364 0
39 -268 -167 0
743 -664 0
-370 -317 -543 -944 0
492 -505 0
16 -67 -944 0
39 -579 0
-162 -18 -653 0
460 -847 -840 -45 0
76 -337 -90 -262 0
961 -268 -370 0
-755 -724 0
770 -61 -246 -664 0
-596 -741 0
-553 -983 -922 -289 0
-654 -49 0
923 -403 0
612 -381 -743 0
134 -641 -298 0
425 -50 -339 -885 0
912 -188 0
986 -965 0
768 -186 -607 -97 0
679 -950 -218 0
165 -253 -906 0
27 -999 -246 -895 0
-842 -980 -945 0
126 -770 0
184 -290 -801 -750 0
746 -441 -233 -421 0
-160 -499 -692 0
483 -216 -463 -157 0
978 -326 -840 0
-29 -118 -165 0
860 -192 -495 -577 0
273 -813 0
903 -532 0
213 -971 0
997 -585 -783 -472 0
183 -203 -494 -681 0
177 -104 -355 0
453 -412 -91 -508 0
347 -863 -301 0
625 -507 0
461 -381 -463 0
399 -791 -37 -781 0
137 -180 -580 0
506 -9 -580 -395 0
314 -17 -545 -220 0
896 -512 -802 -902 0
558 -926 -221 0
373 -693 -567 -247 0
-464 -808 -287 0
413 -159 0
175 -61 -788 -723 0
357 -46 -614 0
802 -29 -291 -700 0
777 -787 -377 0
-672 -297 -290 -635 0
234 -456 -950 -313 0
479 -199 -793 0
859 -8 0
328 -775 -765 -352 0
631 -674 0
204 -488 -572 -640 0
875 -864 -478 0
452 -21 0
99 -905 -541 0
674 -804 -56 0
885 -197 -420 -992 0
-904 -956 0
94 -620 -123 -685 0
493 -34 -792 0
-884 -413 -184 -783 0
52 -798 -46 -528 0
571 -289 0
-811 -339 0
-5 -899 0
154 -500 0
631 -722 0
-833 -24 -867 0
418 -335 0
-266 -240 -602 -479 0
-581 -385 -649 0
509 -538 -773 -513 0
-884 -23 -650 0
297 -50 0
802 -387 0
347 -238 -349 0
-390 -725 -786 0
-676 -207 -97 -52 0
472 -803 -225 0
-552 -833 -603 -893 0
857 -538 0
315 -651 0
986 -265 -323 0
791 -5 -378 0
326 -602 0
690 -245 -553 -153 0
-395 -428 0
425 -577 -531 -83 0
564 -364 -91 -959 0
-894 -559 -61 0
-56 -585 0
909 -797 0
-518 -248 -944 -893 0
643 -786 -535 0
723 -57 0
281 -448 -823 -673 0
897 -393 -295 0
68 -379 -894 0
596 -853 -950 0
676 -934 -53 -588 0
-720 -580 -443 -36 0
-734 -266 -660 -423 0
-890 -849 -155 0
727 -222 0
94 -225 -617 0
-556 -904 0
768 -460 -413 -646 0
270 -364 0
120 -524 -356 -354 0
352 -357 -141 -442 0
869 -422 0
-232 -119 0
298 -726 -104 -19 0
778 -911 -16 -297 0
56 -688 0
74 -39 -83 -368 0
468 -247 -827 -686 0
258 -433 -339 0
-980 -685 0
746 -336 -86 -554 0
-574 -34 -437 0
751 -499 -906 -593 0
-832 -499 -686 0
581 -929 -361 0
213 -727 -455 -83 0
158 -60 -423 0
153 -292 -691 -707 0
669 -967 0
147 -203 -804 -404 0
184 -21 -979 0
863 -92 -733 0
178 -729 -81 0
-531 -596 -26 0
398 -880 -782 -879 0
597 -211 0
258 -330 -446 -413 0
632 -245 -833 -518 0
-106 -159 0
426 -88 0
843 -794 -424 0
854 -245 -38 -831 0
-662 -897 -497 0
449 -459 -963 0
394 -246 -850 -153 0
898 -580 -326 0
220 -670 -813 0
-185 -982 -921 -880 0
-65 -116 -924 0
583 -290 -981 0
355 -743 -430 -971 0
-627 -152 0
25 -350 -371 0
670 -502 -319 0
138 -429 -206 -122 0
553 -221 -597 -640 0
-215 -548 0
410 -977 -583 -223 0
223 -515 -743 0
990 -710 0
497 -479 -964 -967 0
60 -429 0
601 -860 -236 -609 0
294 -21 0
-530 -631 0
943 -147 0
379 -584 -152 0
166 -745 0
86 -830 0
-766 -930 -153 -771 0
-259 -249 -422 0
-904 -757 0
984 -932 0
101 -14 -876 0
-756 -952 -719 0
210 -902 -395 -454 0
885 -182 -32 -420 0
480 -249 -757 0
-837 -280 0
267 -333 0
83 -855 -875 -178 0
-834 -821 -647 -531 0
927 -851 -109 0
-156 -635 -541 0
927 -241 -811 0
-475 -456 -397 0
-408 -363 0
-867 -955 -620 -999 0
681 -290 -667 0
475 -277 0
472 -931 -562 -15 0
-611 -593 -996 -256 0
515 -129 -543 0
449 -922 -160 0
379 -62 -305 0
464 -613 -142 -337 0
106 -181 -282 -95 0
-102 -104 -360 -730 0
374 -143 -235 0
-330 -409 -401 0
851 -832 0
172 -662 -346 0
263 -24 0
-599 -766 -498 -275 0
539 -389 -222 0
-312 -321 0
532 -270 -830 0
-397 -649 -67 -402 0
-137 -723 -497 0
426 -223 0
747 -379 -189 0
764 -131 0
-140 -939 0
553 -491 -484 -938 0
811 -954 -34 -899 0
597 -925 -929 -745 0
-343 -412 -468 -326 0
844 -870 -459 -894 0
943 -908 -473 -838 0
-80 -541 0
159 -835 -394 -136 0
858 -830 -118 -558 0
256 -540 -637 -247 0
-192 -323 -395 -573 0
-926 -555 0
778 -527 0
177 -631 -2 -272 0
739 -653 0
531 -389 -37 0
241 -665 0
-502 -607 0
853 -818 -848 -389 0
363 -58 -690 -829 0
187 -582 -85 0
835 -125 -441 -24 0
132 -114 -610 0
610 -165 -843 0
-620 -693 -77 0
586 -236 0
-21 -819 -260 0
70 -857 0
811 -332 -379 0
-723 -592 -408 0
163 -104 -663 0
-745 -530 -475 -417 0
-685 -307 -351 -476 0
347 -585 -263 0
-865 -44 -138 -650 0
736 -553 0
24 -655 0
212 -175 -83 0
875 -575 -380 -977 0
805 -620 -989 0
212 -885 0
-412 -794 -997 0
627 -378 -838 0
576 -253 0
-516 -495 0
786 -845 0
-598 -565 -18 -90 0
644 -455 0
-789 -61 -444 0
736 -230 0
-987 -884 -904 0
90 -696 -933 0
340 -586 -367 -205 0
264 -457 -407 0
769 -10 -83 -406 0
-759 -885 -69 0
124 -509 -595 0
-713 -146 -126 -449 0
-379 -129 -482 -675 0
220 -239 0
-33 -653 -273 -558 0
-703 -624 -345 -761 0
93 -902 -313 0
-237 -681 -6 -16 0
35 -562 -637 0
63 -883 -675 0
-526 -830 0
720 -857 -128 0
400 -189 0
896 -699 0
795 -650 -878 0
580 -692 -254 0
-557 -739 0
-403 -89 0
-819 -142 -358 0
147 -200 0
752 -201 -24 0
936 -325 -524 0
-759 -573 0
237 -363 -388 -18 0
698 -623 -640 0
-529 -572 0
490 -523 0
-553 -653 0
-617 -96 -519 0
934 -365 -161 0
-358 -472 -137 0
238 -459 -938 0
933 -414 -238 -857 0
440 -642 -271 0
422 -444 -260 -539 0
-490 -36 0
533 -307 -451 0
101 -179 -192 -330 0
29 -298 -259 -643 0
463 -785 -209 -37 0
323 -813 -803 0
-398 -413 -191 0
-955 -622 0
366 -960 -260 -905 0
48 -358 -757 -15 0
591 -718 -475 -397 0
64 -426 0
359 -447 -433 0
-87 -967 -246 0
513 -544 -10 -414 0
-450 -660 -85 -869 0
-74 -234 0
395 -908 0
745 -147 0
-181 -412 0
-526 -697 0
-319 -949 0
996 -15 -234 -126 0
-153 -436 0
-220 -562 -658 0
791 -959 -770 -952 0
709 -734 -774 -199 0
733 -386 -570 -853 0
-194 -473 -548 0
83 -160 -203 -918 0
731 -885 0
392 -349 0
281 -719 0
-399 -493 0
613 -954 0
779 -40 -695 -687 0
-630 -906 -38 -462 0
-717 -874 -62 0
-884 -769 -379 0
455 -76 -896 0
731 -473 0
39 -327 -878 -444 0
343 -136 0
617 -718 -941 0
-532 -208 -629 0
598 -967 -243 0
173 -198 -402 0
946 -459 0
31 -28 0
229 -69 -809 0
700 -407 -500 0
992 -842 -896 -803 0
-133 -384 -161 0
487 -218 0
-147 -216 -442 0
-855 -176 -250 0
-172 -375 -738 0
66 -958 -330 0
980 -395 0
256 -857 -779 -187 0
506 -908 -747 -104 0
-26 -671 -659 0
478 -265 -244 -846 0
-216 -427 -23 -728 0
797 -188 -370 -596 0
871 -650 0
454 -950 -864 0
783 -599 -431 0
23 -774 -101 -937 0
31 -2 -847 0
106 -119 -993 0
586 -909 -79 -858 0
862 -369 -537 0
864 -582 -680 0
-643 -845 -883 -652 0
301 -688 -728 -642 0
-286 -993 0
104 -437 0
11 -351 0
423 -519 0
720 -752 0
516 -886 -80 -104 0
-770 -836 0
-319 -995 -67 -604 0
-29 -977 -454 0
-303 -598 0
-493 -661 -408 -414 0
454 -521 -778 -463 0
-364 -821 0
-322 -639 0
756 -70 -115 -13 0
-1000 -852 -398 -810 0
131 -670 0
-265 -795 0
-41 -194 -108 -922 0
146 -551 0
820 -726 -439 -900 0
-698 -204 -143 0
-820 -623 0
169 -33 -611 -800 0
694 -752 -345 -762 0
824 -77 -292 -392 0
190 -639 -630 -823 0
-551 -161 0
371 -531 0
382 -942 -504 0
906 -435 -314 -575 0
597 -471 0
-442 -17 0
46 -692 0
241 -710 -414 0
-769 -326 -257 -639 0
494 -528 -341 0
131 -16 0
592 -680 -129 -425 0
183 -207 0
922 -751 0
-809 -661 -580 -620 0
84 -79 -144 -664 0
276 -602 -238 -715 0
785 -113 -484 -860 0
931 -203 0
-155 -122 0
518 -777 0
455 -156 0
204 -60 0
845 -945 -120 -438 0
405 -649 -551 -925 0
-868 -664 0
165 -709 0
-678 -214 -956 -786 0
777 -351 -449 0
153 -812 -176 -395 0
-396 -654 -584 -83 0
842 -248 -749 -290 0
-92 -598 0
-719 -804 -94 0
241 -554 -830 0
16 -412 -285 0
715 -729 0
-48 -924 -95 -486 0
-228 -556 -492 -360 0
324 -356 -642 -834 0
628 -280 -28 0
-440 -247 -567 0
-85 -672 -918 0
-895 -601 0
846 -691 -571 -195 0
-956 -398 -278 0
522 -503 -55 0
971 -348 0
909 -46 0
351 -333 -160 -873 0
515 -357 0
-66 -450 -526 0
156 -823 0
816 -380 -642 0
355 -320 -426 -590 0
295 -388 -692 0
246 -770 0
991 -313 -711 -393 0
991 -231 -149 0
975 -104 -76 -147 0
994 -806 -403 0
804 -376 -965 0
501 -173 0
10 -436 -50 0
81 -723 -112 -933 0
654 -124 -496 -226 0
606 -207 -817 0
-583 -923 -809 -617 0
572 -181 -322 0
443 -567 -846 0
136 -582 -410 -469 0
789 -502 -387 0
-447 -878 -918 0
311 -319 0
-883 -94 -337 0
696 -473 0
27 -880 0
609 -871 -708 -519 0
914 -451 -775 -527 0
-817 -974 0
-524 -983 -186 0
-212 -308 -115 0
-249 -730 -26 -831 0
-941 -487 -166 0
200 -509 -764 -321 0
829 -178 -363 -840 0
722 -773 -504 0
126 -554 0
672 -856 0
425 -92 -887 -349 0
883 -450 0
-684 -574 -454 -987 0
-20 -654 -982 -115 0
487 -197 -18 0
-787 -98 -406 -310 0
867 -378 -987 0
488 -885 0
305 -298 0
159 -34 -915 -595 0
750 -791 -41 -943 0
423 -195 0
210 -650 0
256 -529 0
555 -633 0
-153 -139 0
106 -592 -656 -717 0
741 -524 -592 0
101 -91 0
-820 -297 -9 0
-639 -399 0
75 -481 -427 -867 0
-396 -73 -882 -390 0
317 -437 -518 -335 0
-236 -429 -996 -347 0
708 -459 -630 0
728 -746 0
90 -499 -758 0
319 -140 -337 -154 0
302 -363 0
-727 -944 0
659 -397 -656 -676 0
-414 -377 -665 -215 0
820 -887 -321 -357 0
244 -66 0
302 -374 -231 0
-3 -855 -46 0
108 -567 -63 0
