c Horn formula (polynomial-time solvable)
c 1000 variables, 2500 clauses
p cnf 1000 2500
716 -829 -823 -584 0
754 -296 -800 0
75 -591 -701 0
622 -590 -586 0
-642 -429 0
825 -456 -122 -976 0
-897 -910 -923 -434 0
358 -54 0
436 -299 -355 -161 0
159 -633 0
513 -191 -369 -623 0
251 -65 -943 -312 0
369 -552 -944 0
724 -806 -863 0
-4 -348 -765 -406 0
-122 -355 0
751 -611 0
240 -734 0
460 -971 -864 0
615 -645 -454 -862 0
-211 -508 -80 -839 0
-777 -390 -558 -294 0
274 -744 -589 -216 0
667 -416 -561 -38 0
255 -454 0
219 -511 0
971 -578 -340 -336 0
965 -418 -605 -22 0
887 -84 -280 -763 0
-739 -744 -923 -930 0
-36 -304 -39 0
335 -233 -521 -5 0
219 -273 -237 0
-813 -417 -305 0
481 -672 -197 0
-279 -572 -17 -109 0
-403 -534 0
-67 -528 -97 -473 0
-796 -896 -291 -984 0
-124 -67 -866 -359 0
375 -108 -690 0
739 -834 0
-313 -539 0
558 -259 -21 0
739 -40 -362 -698 0
-23 -789 0
183 -923 0
155 -167 0
802 -71 -867 0
837 -958 -551 0
-964 -5 -940 0
379 -989 0
699 -82 0
824 -248 0
-87 -937 -9 0
942 -674 -407 0
-917 -984 0
602 -741 -745 0
521 -900 -894 0
998 -237 -536 -735 0
63 -110 0
-884 -541 0
113 -349 0
966 -17 0
344 -150 -766 0
815 -475 0
740 -411 -578 -636 0
205 -209 -182 -820 0
658 -965 -147 0
853 -844 -429 0
52 -206 -733 0
-869 -765 -799 0
355 -517 0
167 -731 -485 -952 0
-528 -342 -557 0
-28 -196 -377 -299 0
268 -176 -832 0
294 -846 -540 -754 0
-418 -900 -348 0
-192 -52 -265 -143 0
379 -849 -751 -636 0
69 -781 0
362 -261 0
58 -786 -539 -530 0
-443 -974 -929 -587 0
493 -63 -730 0
-501 -895 -552 0
-335 -510 -924 -742 0
261 -783 0
993 -343 -373 0
738 -906 -565 0
753 -298 -646 -492 0
628 -436 -175 -654 0
455 -595 -257 0
764 -431 -256 0
543 -239 0
701 -778 0
930 -434 -70 -502 0
888 -253 0
59 -469 -906 0
838 -210 -188 0
640 -676 -62 0
476 -528 0
228 -89 -246 -303 0
-172 -308 -186 0
408 -933 -617 0
943 -803 0
638 -332 -553 0
-767 -61 -653 -533 0
244 -347 -38 -406 0
800 -617 -966 0
752 -737 -453 0
215 -219 -729 -211 0
632 -37 0
406 -702 -972 -529 0
818 -119 0
930 -925 -459 0
274 -791 0
842 -354 0
-316 -892 -307 0
77 -472 -376 0
274 -487 -555 -99 0
845 -178 -263 0
-207 -876 -308 -313 0
677 -306 -376 -747 0
283 -243 0
-21 -144 -28 0
128 -644 -935 0
-80 -919 -232 0
340 -713 -271 -306 0
-870 -479 0
-755 -827 0
965 -473 -152 -304 0
924 -714 -268 -82 0
-647 -183 -384 0
150 -629 -415 -617 0
479 -158 0
744 -311 -540 -992 0
862 -172 0
259 -708 0
-240 -948 -210 0
957 -569 0
571 -104 0
976 -663 -403 -336 0
-494 -254 0
334 -461 -441 0
-254 -846 0
125 -131 0
-244 -45 -699 0
-23 -158 -268 -495 0
231 -245 -507 -684 0
764 -66 -267 0
982 -427 -641 0
65 -115 -729 -612 0
950 -496 0
421 -98 0
-619 -882 0
-916 -412 -465 -736 0
802 -81 -392 0
-763 -694 0
-163 -891 0
588 -538 -404 -721 0
846 -755 0
384 -870 -837 -124 0
289 -831 -612 -576 0
-283 -952 -571 -498 0
-178 -762 -688 0
-607 -350 -18 0
377 -906 0
484 -975 -537 -329 0
898 -76 -402 -774 0
-200 -400 -807 -524 0
921 -264 -8 0
509 -887 0
282 -824 0
134 -726 -280 0
422 -482 0
105 -190 -470 -400 0
384 -75 -685 -397 0
73 -229 -283 0
691 -273 -278 0
426 -257 0
-178 -539 -903 -854 0
-82 -750 0
933 -167 -555 -503 0
183 -82 0
655 -92 -946 0
71 -751 0
314 -642 -270 0
935 -2 -871 0
268 -178 0
884 -988 -448 0
424 -227 -671 0
894 -171 -367 -830 0
784 -537 0
-873 -685 -112 -182 0
-977 -92 -552 -398 0
464 -834 -396 -773 0
-832 -628 -228 0
-798 -565 -746 -571 0
658 -265 -842 -591 0
-904 -113 -657 -64 0
-783 -850 -664 -763 0
187 -498 -362 0
-780 -79 -343 0
764 -644 -150 0
257 -39 -119 -674 0
-628 -636 -600 0
-807 -67 -412 0
968 -19 0
705 -210 -848 -205 0
207 -61 0
-225 -564 -350 0
510 -609 0
-790 -609 -589 -727 0
-709 -309 -616 0
-994 -519 -980 0
-696 -431 -599 -520 0
438 -322 -239 0
553 -199 -225 -571 0
585 -669 0
-656 -755 -833 0
219 -388 -936 -590 0
597 -839 0
-150 -578 -705 -80 0
292 -456 -100 0
-168 -149 -544 0
584 -151 -575 -887 0
157 -665 -692 0
859 -405 -816 0
-537 -644 -939 0
348 -861 -326 0
-845 -800 0
425 -526 0
429 -992 -874 -75 0
242 -339 -943 -17 0
543 -254 0
-443 -887 0
147 -386 0
-763 -917 -221 -399 0
-410 -268 -357 0
907 -744 0
918 -644 -499 -76 0
-17 -175 0
870 -950 0
501 -542 -658 0
965 -826 0
307 -986 -338 -637 0
212 -482 -765 -274 0
920 -878 -962 0
640 -367 0
504 -978 0
-186 -193 0
798 -280 -729 -148 0
310 -753 0
804 -691 -584 0
45 -222 -109 0
326 -637 0
-492 -78 -49 0
983 -473 -100 -756 0
695 -179 -279 0
217 -997 -26 0
704 -905 -808 0
55 -812 -454 0
-455 -330 0
117 -77 0
853 -775 0
960 -194 0
282 -933 -945 -769 0
783 -674 -400 -306 0
-572 -675 0
-544 -920 0
429 -686 -880 0
668 -539 -19 -344 0
476 -938 0
369 -270 -438 -418 0
801 -141 -970 0
743 -29 -824 0
479 -229 0
-381 -614 -686 -118 0
-583 -60 -281 -777 0
387 -585 -529 -692 0
-172 -93 -503 -555 0
355 -20 -397 0
-716 -565 -820 -454 0
827 -542 -807 0
443 -551 -307 -34 0
876 -988 -422 0
462 -38 -176 0
-417 -48 -709 0
441 -395 -281 -554 0
80 -998 0
773 -137 0
644 -671 -530 -844 0
127 -933 0
718 -294 -817 -232 0
721 -462 -456 0
121 -299 -359 0
137 -402 -126 0
-777 -662 -641 -901 0
159 -23 0
-438 -973 -152 -645 0
731 -452 0
-220 -679 0
-837 -824 -393 0
863 -569 0
455 -606 0
781 -350 -885 0
-410 -669 -356 -715 0
228 -23 -457 0
343 -671 -301 0
-961 -872 0
492 -596 0
759 -483 -95 -688 0
638 -332 0
788 -551 -735 0
72 -925 -109 0
5 -205 -941 0
710 -151 -703 -368 0
-801 -43 -758 0
439 -838 -709 0
597 -735 0
-826 -451 0
-605 -525 0
-471 -9 -281 0
811 -374 -426 -413 0
455 -547 0
-663 -599 -467 0
-281 -742 0
469 -889 0
760 -651 0
194 -75 -946 0
352 -440 -689 -317 0
101 -143 0
423 -774 -54 0
807 -501 -911 -2 0
23 -277 -82 0
919 -338 0
-846 -780 -195 0
-727 -531 -72 0
-119 -181 -792 0
-511 -461 -420 -646 0
-989 -876 0
766 -804 0
638 -675 -356 0
-947 -554 0
812 -252 0
-582 -229 -977 -326 0
-992 -16 -891 -486 0
629 -573 -30 0
-765 -848 0
977 -449 -116 0
163 -721 -48 0
-410 -570 -883 0
-258 -83 -975 -872 0
395 -754 -343 -789 0
907 -181 0
228 -5 -861 -946 0
840 -458 -944 0
676 -945 -924 0
132 -562 0
531 -4 0
251 -347 -199 -77 0
-341 -374 -127 0
607 -500 -306 0
521 -368 0
265 -991 0
-163 -354 0
441 -185 -710 0
165 -960 -57 -584 0
815 -808 -790 -42 0
543 -553 0
-931 -923 -267 0
193 -772 0
-661 -841 -951 -668 0
662 -507 0
665 -611 -993 -975 0
-401 -151 -106 0
726 -931 -407 0
288 -40 -979 0
-394 -287 -59 -661 0
-213 -16 0
598 -869 -253 0
828 -446 -573 -844 0
963 -617 -280 -319 0
-785 -602 -532 -528 0
-368 -8 -668 0
-640 -666 0
912 -296 -102 0
287 -252 -44 -232 0
928 -546 0
71 -859 0
30 -604 0
426 -831 0
335 -804 0
465 -107 -999 0
22 -1 -469 -274 0
-866 -717 -256 0
285 -39 -610 0
779 -181 0
-176 -740 0
111 -688 -657 -634 0
157 -785 0
583 -367 -382 -957 0
-471 -547 -993 0
103 -702 -760 0
-288 -98 -515 0
990 -852 -947 -49 0
-598 -791 -954 -201 0
603 -364 -772 0
444 -221 -277 -70 0
333 -648 -177 -81 0
363 -944 -778 0
803 -428 -109 -634 0
468 -776 -415 0
216 -338 -941 -575 0
171 -488 0
449 -653 0
246 -639 -624 -606 0
-19 -319 -102 -61 0
38 -960 0
341 -898 -437 -864 0
242 -339 0
586 -424 -170 -28 0
171 -748 -402 0
601 -588 0
317 -133 0
-413 -631 -517 0
862 -387 0
549 -587 -24 0
801 -815 -646 -548 0
143 -95 -458 -3 0
579 -973 -935 0
4 -794 0
451 -50 -231 0
472 -437 -282 -175 0
813 -927 -642 -316 0
917 -345 -480 0
261 -780 -933 0
-314 -340 -174 0
104 -592 -288 -9 0
-462 -769 0
-736 -951 -133 0
-776 -50 0
516 -646 -562 -11 0
63 -715 -568 -270 0
499 -995 -831 -339 0
-614 -224 -997 0
140 -98 -858 0
103 -6 -503 -429 0
-180 -375 0
501 -2 -401 0
181 -516 0
-682 -274 -633 0
490 -325 -237 -817 0
289 -161 -440 0
134 -546 -744 -719 0
350 -178 -329 0
-498 -204 0
162 -726 -416 -105 0
-35 -392 -569 -753 0
533 -169 -70 0
701 -652 -654 0
-435 -612 -941 0
-458 -953 -652 -668 0
915 -117 -845 -472 0
881 -438 -610 -305 0
875 -56 -445 0
-284 -801 -21 -486 0
673 -997 0
-142 -42 -325 0
-926 -108 -104 -167 0
940 -718 -884 0
-325 -946 0
242 -979 -199 0
-942 -945 -413 0
-791 -502 0
414 -866 0
670 -914 -534 0
295 -61 -616 -86 0
-658 -336 -664 -861 0
470 -182 -141 -954 0
277 -905 0
508 -387 -314 -521 0
733 -58 -812 -255 0
-634 -85 -678 -379 0
-51 -591 0
949 -75 -146 -616 0
-309 -748 0
792 -476 0
780 -869 0
480 -925 -259 -201 0
374 -370 -368 0
589 -539 -158 0
-675 -436 -547 0
-945 -164 -441 0
38 -771 -26 0
306 -294 -47 0
802 -427 0
953 -151 0
-871 -246 0
66 -305 -889 -870 0
341 -848 -236 0
512 -76 -836 -467 0
381 -147 -231 0
130 -21 -585 0
-731 -475 0
940 -225 -700 -163 0
414 -584 -272 -889 0
809 -542 -259 -237 0
331 -202 0
838 -666 -94 -636 0
-102 -579 -233 -152 0
-480 -440 0
448 -893 0
440 -771 0
646 -194 0
-12 -56 -268 0
-663 -189 -401 -593 0
-193 -612 -264 -140 0
-457 -635 -314 -25 0
786 -277 -13 -106 0
676 -246 -314 0
151 -94 -947 0
51 -872 0
-296 -990 -930 0
380 -347 0
-302 -330 0
643 -638 -935 0
121 -59 -372 -945 0
925 -744 0
140 -423 -573 -875 0
871 -463 0
504 -683 -169 0
747 -415 -97 0
986 -507 -493 0
-944 -152 0
-766 -279 -671 -821 0
499 -608 -716 -963 0
967 -677 -30 0
273 -250 -112 0
988 -456 0
-860 -786 -639 0
-140 -177 -170 0
-432 -436 -296 -841 0
721 -55 0
819 -314 -796 0
953 -545 -144 -397 0
912 -23 0
-614 -843 -723 0
97 -631 -715 -408 0
23 -854 0
535 -672 -197 0
963 -461 0
885 -408 -292 0
363 -725 0
945 -259 -464 -366 0
-187 -733 -359 0
-657 -754 0
-654 -271 -859 -734 0
635 -86 -866 -189 0
66 -589 -33 0
-591 -22 -771 -467 0
-612 -342 -886 -611 0
251 -935 -390 -641 0
111 -522 -837 0
382 -937 -565 0
345 -484 -577 -488 0
-790 -861 -964 -262 0
95 -637 -872 -358 0
466 -858 -733 -697 0
991 -884 0
-240 -821 -566 -424 0
-307 -90 -395 0
525 -806 -730 -721 0
-218 -758 0
-470 -372 0
789 -752 -714 0
861 -876 0
20 -296 -650 -446 0
-165 -984 -424 0
500 -663 -304 0
-24 -728 -206 0
307 -251 -495 0
428 -26 -380 0
994 -983 -57 0
-352 -651 0
701 -900 0
384 -538 -987 -732 0
-497 -685 -626 -348 0
-992 -689 0
25 -338 -244 -52 0
512 -389 -889 -401 0
-541 -590 -771 0
778 -540 0
921 -422 -685 -475 0
671 -113 0
774 -571 0
55 -828 0
341 -424 -314 -182 0
713 -254 0
305 -183 -846 0
585 -613 -908 -839 0
863 -903 -15 -349 0
98 -484 -722 -549 0
194 -102 -101 0
848 -722 -713 0
-970 -516 -62 0
754 -4 -829 -855 0
264 -341 -600 0
912 -524 0
886 -439 -93 -858 0
403 -947 -341 -105 0
333 -426 0
887 -963 -407 0
-265 -310 -671 0
49 -355 -222 0
628 -629 0
-988 -206 -948 -333 0
-544 -899 0
-237 -226 -100 0
-194 -553 -4 -303 0
-680 -943 -617 -125 0
533 -411 -457 0
262 -879 -238 -567 0
-495 -94 -646 -594 0
728 -981 0
40 -644 -345 -312 0
841 -744 0
282 -676 -935 0
-526 -525 -162 -870 0
-281 -387 0
-928 -450 -463 0
-595 -586 -54 -419 0
982 -836 0
62 -856 0
341 -401 0
391 -994 -787 0
211 -413 -948 0
-926 -529 -131 0
623 -315 -930 0
826 -455 -885 -235 0
510 -327 -160 0
185 -775 -79 -813 0
-174 -561 0
23 -917 -123 0
838 -276 -696 0
545 -614 0
156 -260 -416 -419 0
821 -513 0
580 -360 -508 -62 0
415 -337 0
925 -124 -182 0
576 -876 0
89 -523 0
141 -682 0
-558 -708 0
-560 -499 -749 -312 0
950 -687 -163 0
-999 -755 -848 0
648 -92 -128 -477 0
672 -132 -331 -416 0
628 -860 -67 -661 0
265 -379 -615 0
-447 -366 0
-315 -875 0
645 -459 -525 -916 0
763 -245 -563 -967 0
173 -259 -469 0
838 -202 0
302 -802 -984 -123 0
380 -629 0
140 -870 -368 -405 0
754 -782 0
459 -533 -106 0
-81 -118 0
82 -501 0
21 -970 0
855 -876 -480 -829 0
-160 -64 -316 0
58 -346 0
670 -859 -432 0
617 -774 -329 -555 0
432 -922 -55 -498 0
-622 -946 -664 0
601 -684 -9 -538 0
112 -394 -664 -345 0
38 -734 -179 0
243 -231 -610 0
690 -299 -234 -290 0
176 -810 -806 0
78 -954 0
933 -502 -170 -87 0
54 -279 -889 -369 0
320 -864 -842 0
407 -10 0
-419 -395 -939 -369 0
4 -571 -410 -401 0
-532 -783 -599 -979 0
477 -275 -148 -57 0
855 -942 -144 0
-861 -674 -673 -527 0
813 -36 -680 0
-628 -792 -620 -223 0
699 -724 -169 -464 0
-889 -349 -875 0
549 -451 -988 -820 0
938 -423 0
178 -800 -419 -108 0
-633 -768 -631 0
-361 -60 -677 0
583 -342 0
908 -461 -166 -876 0
872 -264 -249 0
276 -197 0
261 -286 -510 -255 0
181 -630 -639 0
220 -206 -487 0
606 -773 0
440 -693 -158 -607 0
-748 -501 -475 0
66 -29 -456 -932 0
94 -785 0
551 -861 0
44 -13 0
526 -156 -893 -920 0
695 -150 -537 0
521 -572 -322 0
-120 -950 -865 -166 0
822 -547 -566 -926 0
-241 -929 -721 -251 0
-365 -618 -467 0
692 -730 -521 -260 0
921 -566 0
-960 -636 -360 0
-959 -263 -892 -717 0
889 -60 0
-476 -719 -261 -729 0
-513 -628 -258 -756 0
128 -428 -645 -634 0
-18 -529 -127 0
-371 -370 -463 0
-483 -373 -106 -939 0
-361 -254 -725 -500 0
432 -686 -141 -695 0
-410 -111 0
-556 -622 -20 0
-24 -876 0
179 -475 -991 -733 0
761 -524 0
590 -433 -890 -692 0
277 -205 -179 0
-222 -40 0
-686 -496 -901 -1 0
230 -621 -643 -94 0
-885 -775 -656 0
-787 -194 -337 -65 0
-166 -225 0
776 -629 0
-740 -781 0
796 -611 -61 -172 0
-231 -685 0
-133 -624 -95 -492 0
633 -528 -754 0
908 -980 -261 -407 0
296 -726 -784 0
384 -453 -314 -603 0
803 -761 -859 0
-648 -473 0
-24 -588 -492 -497 0
739 -194 0
343 -538 -128 -479 0
346 -587 -876 -503 0
32 -12 -728 -15 0
995 -67 0
279 -31 0
77 -183 -405 0
976 -190 -133 0
838 -785 0
-858 -30 -850 0
842 -122 -44 0
93 -633 0
-14 -792 -209 -838 0
-387 -621 0
526 -156 0
952 -66 -456 -286 0
-484 -566 -296 0
793 -821 -383 -620 0
841 -848 -376 -293 0
794 -770 -362 -896 0
-112 -977 -193 0
867 -640 -663 -416 0
864 -280 -557 0
24 -716 -358 -997 0
111 -413 0
368 -271 -985 0
508 -124 -145 0
-461 -432 -70 0
735 -64 0
670 -557 -909 -150 0
-629 -16 -468 0
246 -669 -323 0
245 -748 -244 0
-315 -480 -925 -681 0
702 -103 -299 0
30 -675 -175 -242 0
231 -899 -578 -618 0
958 -490 -70 -922 0
-300 -357 -262 -325 0
500 -323 0
455 -296 -486 -244 0
638 -736 -823 -985 0
845 -47 -482 -952 0
624 -401 0
911 -146 -433 -820 0
854 -738 -847 -963 0
403 -142 -111 0
733 -880 0
-806 -944 -9 -630 0
844 -801 -236 0
425 -857 -222 0
751 -125 0
444 -668 -537 -805 0
-307 -53 0
-157 -634 0
217 -965 -813 0
241 -425 -757 -808 0
-853 -932 0
-812 -431 -183 0
847 -417 -199 -119 0
-111 -963 -359 0
329 -762 0
213 -140 -507 0
-386 -331 -940 0
-241 -313 -134 0
955 -167 0
201 -673 -261 0
223 -588 -868 0
552 -966 -624 0
-483 -393 0
802 -278 0
777 -24 0
459 -492 0
570 -388 -776 0
-932 -115 0
-626 -326 -800 -193 0
-563 -471 -661 0
536 -935 -801 -352 0
-116 -180 -822 -559 0
-123 -511 -329 0
737 -87 0
459 -253 -283 -40 0
493 -986 -556 0
536 -396 0
841 -562 -33 0
561 -974 0
-900 -635 0
25 -37 0
-615 -987 0
620 -204 -552 -526 0
690 -63 -553 -507 0
859 -706 0
903 -739 0
864 -899 -494 -109 0
85 -499 -615 -796 0
28 -122 -55 0
105 -626 -737 -28 0
256 -898 0
549 -103 -718 0
399 -601 0
-789 -795 0
-343 -493 -657 -582 0
-926 -562 0
534 -490 -485 0
-38 -525 -564 -729 0
515 -259 -579 0
463 -478 -339 -863 0
485 -876 0
-896 -238 -505 0
-33 -629 0
400 -996 -633 -651 0
-833 -414 -687 0
398 -569 -718 -46 0
606 -299 0
-770 -433 -191 0
913 -10 -102 -924 0
742 -220 -368 -706 0
410 -21 -581 0
-878 -857 0
849 -597 -326 -623 0
596 -996 -59 0
97 -701 -562 0
923 -806 -513 0
-493 -285 -846 -506 0
763 -324 -837 -851 0
692 -989 0
940 -855 -350 0
830 -791 -52 -662 0
499 -865 -457 0
30 -486 -941 0
774 -762 0
195 -53 -601 -289 0
-289 -35 -796 -661 0
-147 -537 -19 0
731 -679 -980 0
740 -553 -246 -702 0
290 -258 -502 -447 0
541 -366 -907 0
-807 -155 0
804 -67 0
814 -539 0
798 -880 0
167 -229 0
527 -13 0
332 -111 -677 0
317 -550 -542 -700 0
433 -659 0
69 -865 0
-209 -314 0
-420 -583 0
-680 -516 -865 0
383 -781 0
533 -933 -830 0
51 -813 -422 -680 0
-232 -788 -138 0
-889 -955 -520 -495 0
893 -503 -597 0
594 -87 0
189 -428 0
355 -69 -20 0
797 -925 0
915 -605 -976 -365 0
809 -642 -165 0
596 -787 -194 0
999 -404 -412 0
-966 -561 -237 -566 0
765 -215 -473 0
-457 -857 0
999 -373 -433 0
223 -917 -320 0
840 -738 0
396 -746 -107 0
634 -689 -124 0
351 -658 0
754 -951 0
811 -696 0
737 -253 -516 -909 0
-322 -499 0
895 -381 -920 0
395 -12 -753 -797 0
487 -145 0
400 -278 -671 0
528 -105 0
-522 -519 0
627 -957 -714 -961 0
567 -445 0
-82 -649 0
640 -150 -703 -95 0
772 -558 0
870 -86 0
824 -319 -255 0
532 -591 -518 0
618 -330 0
-107 -395 -840 -427 0
726 -849 -416 -710 0
881 -169 -880 -698 0
217 -100 -398 -550 0
-666 -22 -794 -16 0
-461 -691 -540 0
972 -463 -421 -800 0
834 -585 -368 -536 0
227 -263 -554 -168 0
855 -296 -967 -531 0
399 -754 -529 -952 0
-183 -487 -503 -918 0
854 -142 -305 -437 0
856 -756 -840 0
505 -542 -712 -741 0
-165 -658 -998 0
985 -13 -257 0
38 -823 0
-912 -698 -440 0
22 -551 0
-10 -570 0
-865 -918 -820 0
474 -153 -423 -872 0
771 -328 0
-14 -154 -386 -52 0
799 -288 0
524 -499 0
861 -75 0
123 -825 -786 0
130 -645 0
780 -762 -641 0
590 -92 -190 -522 0
372 -739 0
-34 -775 0
-659 -749 -568 0
610 -592 -355 -392 0
549 -841 0
-848 -465 0
134 -619 -405 0
-925 -990 -374 -106 0
-867 -210 -306 0
854 -209 -432 0
774 -823 -457 -2 0
524 -826 0
883 -76 -688 0
234 -617 -35 0
130 -368 -422 -881 0
-48 -673 -970 0
266 -833 0
81 -491 -505 0
419 -693 -697 -425 0
-154 -547 -520 -799 0
87 -628 0
-549 -547 0
661 -456 -325 0
372 -347 -21 0
686 -515 0
950 -925 0
296 -461 0
-410 -507 -774 0
714 -354 -862 -356 0
750 -754 -386 0
761 -392 -447 -586 0
858 -839 0
-477 -195 -117 -931 0
73 -558 -625 -183 0
-291 -956 -163 0
880 -809 -239 -172 0
416 -664 -824 -881 0
236 -552 0
864 -221 -496 -37 0
158 -424 -664 0
2 -662 0
-809 -764 -62 0
-324 -127 -300 0
-816 -904 0
977 -168 0
696 -250 -740 0
-714 -210 -49 0
90 -775 -221 -148 0
905 -544 -241 0
50 -223 0
-415 -69 -597 0
896 -382 -340 -208 0
444 -103 -141 -23 0
943 -338 -479 -987 0
716 -575 0
143 -887 0
-236 -532 -641 -343 0
580 -650 -585 -57 0
753 -184 -327 0
-937 -213 0
957 -837 0
368 -364 -314 -866 0
652 -267 -487 0
-24 -430 0
753 -82 0
702 -326 -164 0
617 -293 -463 0
892 -816 0
95 -492 -440 0
-673 -190 -586 0
-551 -837 -835 -295 0
539 -665 0
785 -922 -448 0
119 -248 -539 -574 0
787 -203 -285 0
-829 -63 -39 0
814 -625 -353 -16 0
-330 -928 0
-847 -731 0
923 -905 -559 0
315 -945 -938 0
573 -94 -945 0
201 -122 -474 0
-683 -897 -992 -15 0
-40 -203 -657 -473 0
92 -939 -126 -377 0
-813 -701 0
464 -775 -975 0
-348 -311 0
351 -196 -389 0
-599 -815 -275 -51 0
641 -829 -330 0
441 -983 0
871 -679 0
985 -124 -770 -579 0
-83 -622 0
-482 -533 -895 -656 0
807 -838 -983 -869 0
-875 -233 0
-308 -172 0
-18 -191 -147 0
266 -231 -721 0
793 -131 0
296 -770 0
-355 -893 -647 0
-833 -201 0
136 -259 -572 -1 0
297 -558 0
-750 -591 0
827 -184 -509 0
727 -194 0
347 -874 -263 0
982 -463 -368 0
413 -989 -633 -982 0
197 -828 -716 -807 0
402 -982 0
403 -946 0
929 -36 -327 0
513 -188 -882 -805 0
-534 -269 -244 0
229 -787 0
168 -556 -75 0
-237 -546 -430 0
29 -566 0
253 -327 -123 -940 0
-243 -309 -565 0
193 -972 -469 -754 0
198 -61 0
-588 -896 -745 -600 0
72 -783 -284 -698 0
568 -238 0
993 -431 -668 0
-465 -670 -574 0
-989 -293 -850 -133 0
2 -491 -975 -292 0
683 -225 -848 0
-981 -389 -525 0
687 -960 -760 -900 0
760 -919 -608 -846 0
-728 -546 0
410 -661 0
989 -639 -421 -966 0
21 -93 -146 0
67 -743 0
791 -258 -127 -801 0
651 -924 -352 0
-273 -672 -632 0
-987 -368 -938 -336 0
674 -811 -643 0
471 -461 -506 -711 0
-780 -652 0
514 -174 -577 -359 0
-375 -779 -670 -390 0
954 -166 0
-702 -706 -601 -743 0
-621 -781 -495 -410 0
566 -218 -564 -435 0
488 -143 -432 -578 0
406 -542 0
895 -869 -186 -150 0
174 -733 0
-810 -816 -789 0
-553 -390 -512 0
451 -101 -22 -121 0
-977 -324 -73 -970 0
-153 -874 -157 -413 0
82 -496 -87 0
534 -741 0
-107 -940 -301 0
112 -388 -460 0
890 -149 -238 0
200 -462 0
-231 -499 -234 0
-455 -757 -192 -336 0
964 -153 -573 0
985 -264 0
-704 -20 -188 0
-762 -215 -365 -944 0
887 -200 -393 0
134 -292 -901 0
785 -851 -208 -221 0
703 -72 0
474 -318 -917 0
979 -829 -729 0
507 -959 -313 0
617 -156 0
-980 -829 -461 0
317 -391 0
-129 -314 0
44 -931 -462 0
932 -977 0
-128 -808 -354 -339 0
-702 -149 -65 -22 0
576 -214 -877 0
753 -531 -678 -882 0
-42 -823 -810 0
732 -241 -109 0
446 -256 -317 0
480 -927 -120 0
424 -848 -500 -315 0
-278 -716 0
-317 -230 0
964 -541 0
-44 -732 -695 -395 0
662 -279 -835 0
-537 -501 -757 -533 0
-982 -915 0
-549 -462 -567 0
926 -704 0
934 -477 -536 -841 0
-866 -264 0
-99 -824 -63 0
282 -556 -699 0
69 -448 -55 0
605 -54 -960 -530 0
571 -398 0
151 -385 -143 0
467 -325 0
9 -911 -1 0
939 -476 -833 -91 0
20 -614 -766 0
854 -524 -843 0
11 -471 -788 -255 0
687 -882 0
-18 -259 -613 -818 0
780 -161 -872 0
304 -146 -521 0
-431 -888 0
462 -529 -503 0
18 -211 -897 0
304 -19 -470 -275 0
157 -931 -548 -663 0
-353 -542 0
392 -653 -749 -468 0
-410 -142 0
832 -447 -568 -237 0
694 -916 0
-845 -398 0
998 -563 -744 0
415 -37 0
705 -150 -182 -312 0
908 -338 -982 -34 0
492 -499 0
504 -676 -629 -746 0
784 -418 -417 -897 0
784 -243 -713 -420 0
670 -475 0
735 -531 -53 -549 0
-441 -812 0
965 -523 -137 0
133 -253 -31 -272 0
851 -483 0
421 -284 0
-508 -629 0
-24 -709 -451 0
921 -262 -567 0
460 -978 -767 -486 0
882 -121 0
936 -697 -348 -654 0
381 -418 0
147 -104 0
-610 -80 0
235 -549 0
63 -458 -525 -87 0
663 -287 0
162 -656 0
906 -901 -317 -306 0
458 -717 0
836 -798 -370 -357 0
-60 -941 -183 0
97 -814 0
700 -493 -200 -795 0
184 -320 0
57 -264 0
368 -35 0
451 -430 -937 0
60 -581 0
779 -493 -298 -687 0
-324 -946 0
891 -181 0
763 -981 -892 -206 0
518 -331 -113 0
-916 -282 0
272 -202 -492 0
-454 -750 -266 -865 0
265 -125 0
358 -344 -464 0
829 -756 -143 -609 0
174 -13 0
519 -100 -337 -368 0
889 -210 -484 0
-262 -731 -554 0
156 -600 -287 0
958 -455 0
-526 -243 0
-990 -292 -60 -880 0
-819 -356 -808 0
740 -999 -68 -606 0
-246 -497 0
537 -367 0
-309 -690 -288 -674 0
625 -994 0
-410 -505 0
865 -501 0
605 -457 -159 -63 0
968 -436 -309 0
13 -133 -474 -163 0
51 -397 0
-921 -476 0
806 -483 -872 -953 0
-286 -657 -962 0
641 -775 -656 -15 0
-224 -573 -616 0
-213 -480 -959 0
-620 -142 -426 0
82 -5 -447 0
-381 -367 -163 0
257 -335 -28 0
-334 -855 -278 -753 0
286 -659 0
872 -37 -771 0
53 -363 0
-23 -768 -681 0
245 -269 -378 -346 0
-572 -919 -885 -17 0
362 -319 -664 0
61 -713 -167 0
168 -434 0
-362 -195 -48 0
954 -33 -890 -298 0
-666 -982 0
-161 -506 0
-264 -975 -598 -858 0
-897 -458 0
-110 -212 -721 0
689 -133 -326 0
-405 -791 -573 0
-189 -584 0
-656 -775 -971 0
910 -351 0
568 -977 0
870 -782 -257 0
773 -446 -262 -437 0
-615 -471 -785 -544 0
919 -906 -269 0
149 -44 -370 -930 0
628 -57 -528 -553 0
807 -810 0
876 -31 -814 -222 0
451 -893 0
52 -686 0
445 -495 -347 0
-401 -446 -268 0
204 -783 -542 -626 0
931 -416 -994 -24 0
-869 -744 -816 0
777 -263 -743 0
-351 -698 -45 -877 0
33 -835 -240 -666 0
535 -418 -117 -849 0
107 -507 -530 -304 0
-20 -210 0
-406 -660 0
-818 -728 0
227 -881 0
-107 -934 -665 -560 0
-325 -730 0
3 -91 0
598 -259 -279 -519 0
-536 -892 -723 -569 0
-736 -952 0
123 -866 -294 -177 0
943 -521 0
349 -605 -825 -550 0
695 -491 -785 -795 0
612 -569 -716 0
787 -345 0
-606 -333 0
850 -705 -783 -196 0
746 -389 0
496 -86 -860 0
-778 -839 0
833 -613 0
651 -183 -228 -701 0
-500 -996 -576 0
-592 -887 -237 -281 0
270 -309 0
311 -937 -161 0
449 -8 0
46 -133 -951 0
969 -931 -1000 0
-230 -432 -60 -261 0
-481 -694 0
472 -660 0
665 -188 0
762 -267 -145 -947 0
84 -673 -164 -100 0
600 -163 -140 -68 0
834 -593 -796 -708 0
364 -265 -656 0
681 -980 -343 -992 0
944 -628 0
222 -626 -247 -55 0
182 -446 -442 0
669 -719 0
-936 -587 -880 -705 0
-189 -724 -329 -435 0
-479 -77 0
124 -498 0
-583 -492 0
562 -324 -669 0
-394 -737 -116 0
934 -11 0
123 -669 -308 -233 0
-967 -564 -540 0
907 -756 -847 0
994 -905 -188 0
21 -249 -3 -12 0
307 -617 -710 0
742 -2 -171 0
319 -490 -113 -199 0
628 -653 -758 -64 0
688 -153 -253 0
943 -556 -512 -804 0
27 -292 0
959 -568 0
841 -35 -735 -832 0
444 -333 -524 -498 0
-882 -761 -757 0
-442 -337 -449 -868 0
221 -890 0
318 -849 -556 -614 0
995 -246 0
371 -567 -793 0
-125 -427 -989 -292 0
766 -367 -83 -340 0
150 -599 -181 0
279 -914 0
-118 -860 -897 0
578 -20 0
339 -811 0
631 -357 -367 0
-961 -306 -522 -737 0
263 -997 0
921 -951 -889 0
-688 -802 -365 0
647 -267 0
114 -31 -846 0
-57 -642 -204 -902 0
799 -803 0
109 -60 0
161 -69 -90 -142 0
-109 -968 -417 -699 0
-543 -797 0
-159 -883 0
540 -329 -65 0
928 -651 -397 -936 0
-671 -718 0
89 -23 0
-820 -876 -254 0
-436 -651 -198 -698 0
127 -940 -686 -582 0
-799 -804 -410 -127 0
-789 -689 0
-131 -381 -726 -945 0
-659 -970 0
941 -677 -494 0
297 -822 -656 0
959 -551 -56 -3 0
-997 -670 0
141 -77 -166 0
-162 -746 -501 0
509 -49 -625 0
472 -296 -773 -465 0
987 -132 -391 -425 0
985 -612 -398 -699 0
580 -795 -985 0
-745 -100 0
500 -798 -346 -413 0
-376 -242 -311 -774 0
-670 -139 -691 -172 0
189 -167 -315 0
-54 -34 0
-10 -745 -937 -576 0
559 -614 0
-112 -408 0
706 -587 -540 -913 0
480 -923 -499 0
905 -907 -476 0
168 -184 0
-855 -938 -636 -540 0
97 -190 0
242 -752 -987 -923 0
334 -455 -14 0
995 -389 -409 0
832 -402 -32 -225 0
930 -895 0
335 -298 -332 -818 0
-693 -792 0
275 -182 0
735 -608 -37 0
-717 -764 -959 0
833 -55 -424 -480 0
88 -293 -224 0
955 -481 -811 0
860 -201 -382 0
195 -87 -250 0
821 -511 0
147 -101 -95 -613 0
386 -221 -179 -991 0
566 -865 -659 -283 0
-680 -923 -868 -402 0
321 -601 0
52 -839 -820 0
56 -383 -585 0
788 -719 0
-247 -861 -613 0
38 -102 -145 -321 0
871 -851 0
119 -426 0
170 -903 0
-589 -303 -499 -730 0
837 -928 0
219 -859 -349 0
583 -885 -519 -159 0
658 -983 0
408 -496 0
-120 -68 0
-302 -164 0
-774 -200 0
397 -737 -702 -680 0
805 -858 -505 -960 0
-295 -399 -537 -412 0
984 -401 0
-626 -807 0
-728 -658 0
643 -731 -868 0
218 -596 -671 -460 0
-846 -943 0
-112 -640 -432 -833 0
910 -606 0
164 -811 0
-739 -996 -447 -478 0
253 -690 0
-972 -899 -327 0
572 -986 -849 0
242 -656 -562 -352 0
75 -127 -739 -460 0
490 -782 0
-500 -116 0
450 -80 -419 0
605 -579 0
-192 -961 0
511 -16 -536 -251 0
504 -179 0
192 -546 -280 -869 0
467 -885 0
100 -804 -671 0
852 -256 0
-540 -746 -579 0
373 -326 0
535 -206 -166 -280 0
-123 -980 -635 0
471 -463 -550 -633 0
-363 -203 -660 -250 0
888 -549 -828 -291 0
451 -354 0
523 -541 0
-968 -403 -598 0
457 -716 0
847 -17 -129 0
-188 -427 -978 0
556 -977 0
362 -493 0
459 -562 -497 0
544 -701 -758 -930 0
-456 -494 -497 0
480 -981 -24 0
111 -680 -976 -189 0
-738 -897 -137 0
499 -782 -814 -772 0
640 -229 -990 0
341 -400 -836 0
383 -776 -716 -219 0
252 -618 0
350 -455 -447 -55 0
158 -295 -697 0
-297 -386 -645 0
248 -783 -858 0
134 -620 -605 -393 0
343 -968 -349 -123 0
820 -207 -794 -629 0
-843 -412 0
155 -945 -304 -508 0
-251 -471 -755 -714 0
-884 -887 -260 -807 0
873 -290 -807 0
-410 -829 -329 -260 0
439 -73 -666 -158 0
926 -718 -580 -862 0
936 -532 0
343 -522 -454 0
871 -417 -886 -253 0
759 -22 0
898 -369 -86 -219 0
-448 -269 -11 -121 0
371 -842 -931 -740 0
-212 -327 -138 -614 0
929 -55 -212 -473 0
-172 -411 -134 0
738 -651 -263 -740 0
888 -944 -759 -927 0
983 -98 -579 0
933 -179 -307 -952 0
872 -31 0
-379 -857 -361 -436 0
763 -715 -938 0
539 -971 -519 0
-378 -640 -513 0
335 -883 0
-151 -327 0
469 -234 -5 0
612 -436 -154 -556 0
578 -314 -453 0
858 -844 -842 0
650 -76 -566 -396 0
27 -626 -11 -879 0
47 -451 -900 -982 0
80 -265 -961 0
-973 -224 0
768 -841 -495 0
152 -375 -335 -80 0
870 -217 -756 0
176 -620 0
-271 -885 -928 0
429 -988 0
158 -716 0
-138 -355 0
822 -19 0
262 -974 -511 0
756 -542 -227 -174 0
999 -790 -439 0
27 -956 -262 -338 0
390 -202 -489 -569 0
478 -405 -588 0
-223 -678 -773 -888 0
-249 -37 0
33 -306 0
266 -56 -293 -64 0
484 -443 0
865 -911 0
-868 -86 0
-820 -159 -943 -709 0
86 -957 -259 0
-328 -43 0
-804 -29 -84 -980 0
36 -562 -184 0
325 -851 -814 0
366 -458 0
509 -72 -12 0
-234 -402 -520 -803 0
387 -206 -212 -816 0
21 -592 0
529 -172 -84 0
22 -347 0
6 -184 -874 -159 0
858 -954 -657 -466 0
-115 -715 -968 0
-758 -949 -547 0
203 -913 0
332 -339 -170 0
405 -106 -741 0
-496 -730 -572 0
962 -831 0
-326 -349 -956 0
-864 -418 -777 0
-215 -506 -126 0
-647 -222 0
-98 -654 -744 -621 0
230 -443 -948 -671 0
820 -494 -794 -547 0
791 -663 0
305 -752 -572 0
-770 -623 -243 -802 0
-612 -875 0
116 -494 -245 0
-728 -350 -610 0
455 -335 -374 0
-953 -160 -603 -907 0
-944 -505 -905 -529 0
360 -979 0
-242 -829 0
740 -513 -932 -94 0
709 -516 0
-822 -407 -823 0
-417 -157 -991 0
-807 -54 -11 -668 0
43 -177 -578 -742 0
474 -513 -190 0
-747 -514 -135 -728 0
-218 -332 0
-220 -518 -295 -380 0
-876 -244 -418 0
456 -577 -131 0
942 -453 0
-143 -333 -268 0
271 -67 -991 -84 0
239 -7 0
449 -907 -965 -592 0
405 -554 -882 0
624 -41 0
589 -434 -100 0
769 -32 -559 -203 0
-134 -290 -551 -932 0
345 -534 -234 -844 0
545 -436 0
188 -600 -544 0
641 -714 0
65 -801 -720 -870 0
62 -653 -265 0
-398 -887 0
-133 -548 -326 0
308 -157 0
115 -332 -279 0
699 -623 0
-999 -576 0
679 -606 0
443 -807 0
-601 -267 -977 0
210 -471 -429 0
183 -536 -99 -41 0
569 -247 -825 -162 0
-286 -577 0
304 -837 0
489 -101 -702 -426 0
83 -74 -306 -391 0
283 -356 -363 -761 0
766 -129 -625 0
157 -837 0
464 -498 0
715 -343 0
-884 -153 -281 -316 0
525 -475 -418 0
-267 -868 0
-379 -417 0
801 -773 -609 -511 0
861 -549 -76 -233 0
-929 -435 -168 -926 0
357 -49 0
279 -889 0
20 -893 0
313 -905 0
360 -964 -810 0
-54 -588 0
693 -112 -280 0
37 -486 -620 0
265 -538 0
333 -906 0
-739 -24 0
-431 -719 -157 -241 0
841 -677 -664 0
-616 -57 -587 -394 0
-160 -887 -830 -735 0
707 -63 0
640 -544 -238 0
511 -136 -964 0
191 -583 -13 0
-787 -984 -319 0
-296 -377 -768 -392 0
702 -576 0
-76 -909 -758 0
509 -714 -517 0
-409 -679 -68 -955 0
53 -133 -664 -399 0
-979 -590 -14 -534 0
-302 -413 -15 0
426 -436 0
99 -756 -163 0
859 -876 -1 -812 0
156 -147 -614 -501 0
409 -871 -830 0
577 -5 -971 -911 0
709 -103 -279 -250 0
72 -520 -777 -359 0
386 -402 -10 -740 0
524 -433 -345 -257 0
825 -942 -86 -862 0
148 -772 -821 0
-519 -950 0
-43 -50 -506 -693 0
-585 -215 -463 0
446 -73 -111 -801 0
559 -681 -393 0
458 -821 -442 0
594 -94 -631 -440 0
-664 -643 -220 0
-683 -288 -233 0
-709 -358 -605 0
-781 -307 -509 0
860 -449 0
-68 -236 0
-304 -300 0
110 -639 -725 0
924 -331 -373 -455 0
202 -863 -638 0
897 -523 -325 0
100 -570 -379 -981 0
-360 -82 0
199 -89 0
-574 -289 0
756 -766 0
211 -562 -315 0
188 -541 0
758 -254 0
873 -638 -358 0
34 -968 -365 -662 0
-597 -693 -108 0
875 -288 -630 0
-259 -447 -924 -381 0
857 -100 -279 0
4 -439 -427 -948 0
774 -107 0
-689 -53 -629 0
648 -141 0
-632 -348 0
92 -411 -5 -677 0
953 -805 -654 0
216 -287 -967 0
-907 -598 0
287 -683 -255 -628 0
-958 -454 -583 -155 0
268 -543 -230 -658 0
-237 -830 0
-920 -134 0
451 -826 -693 -440 0
-232 -511 -867 -914 0
372 -934 0
181 -49 0
647 -43 -33 -540 0
150 -934 -59 0
617 -261 0
418 -725 -521 -686 0
72 -416 -844 0
-349 -300 -465 0
69 -957 -648 0
958 -841 -917 0
-769 -117 -603 0
916 -206 -467 0
-488 -827 -641 -867 0
455 -451 -514 -984 0
737 -857 0
-233 -606 0
739 -528 0
-478 -145 -440 0
38 -492 -939 -74 0
152 -284 -693 -93 0
126 -340 -570 -181 0
46 -822 0
-54 -170 0
536 -620 0
-328 -572 -820 0
679 -64 -99 0
717 -893 -786 -953 0
28 -257 0
610 -313 -211 0
-886 -152 0
278 -487 -704 -288 0
785 -976 0
-472 -27 0
-692 -603 -130 0
853 -829 0
631 -603 0
-125 -236 0
-373 -834 0
-150 -996 0
-441 -453 0
757 -676 0
417 -453 -486 -390 0
757 -259 -788 0
59 -683 -792 -520 0
22 -288 0
889 -958 -119 -836 0
-404 -811 -786 0
9 -981 -10 -594 0
871 -736 0
415 -229 0
101 -61 -170 -936 0
140 -814 -742 0
-665 -690 0
-159 -45 0
941 -615 -701 0
319 -372 -816 0
932 -802 -346 -768 0
337 -900 -110 0
535 -396 -480 0
652 -695 -888 0
-761 -261 -694 0
-883 -184 -715 0
266 -663 -316 -666 0
10 -265 0
908 -998 -3 -787 0
934 -221 -926 0
-366 -523 -911 -605 0
-48 -843 -265 0
464 -314 -706 0
541 -456 0
921 -40 -813 -76 0
254 -27 0
444 -302 -731 0
190 -784 -618 -93 0
-272 -887 0
-478 -694 -131 -327 0
538 -908 -163 0
-512 -665 -483 -944 0
-141 -876 -148 0
817 -181 0
970 -145 -832 0
-624 -114 -718 0
-403 -581 -44 0
907 -499 0
515 -529 -100 -373 0
430 -136 0
829 -239 0
-4 -192 0
-206 -417 -612 -185 0
-475 -956 -806 -336 0
145 -242 -198 -805 0
26 -906 -578 0
-833 -274 -388 -222 0
-749 -134 0
76 -234 0
543 -730 0
183 -660 -562 -845 0
83 -988 0
855 -81 0
188 -437 0
578 -489 -191 0
469 -406 0
748 -536 -915 -402 0
184 -653 0
754 -125 -538 -290 0
202 -482 -445 0
27 -749 0
241 -792 -138 0
892 -690 -440 0
322 -146 0
-52 -240 -599 -562 0
758 -47 0
123 -455 -889 0
-872 -107 -73 0
802 -233 -13 0
343 -512 -742 0
229 -312 0
378 -525 0
885 -561 -992 -878 0
404 -560 0
370 -172 0
75 -526 0
1 -192 -187 0
377 -845 -120 -594 0
-507 -296 -744 0
-248 -885 0
33 -165 -372 -423 0
889 -174 -523 -978 0
898 -578 0
930 -298 0
-54 -125 0
915 -17 0
560 -728 -365 0
-764 -206 -771 0
-969 -412 -561 0
297 -472 -94 0
131 -930 -273 0
727 -704 -146 0
750 -76 0
672 -824 -927 -344 0
232 -996 -985 0
395 -855 0
483 -174 0
23 -548 0
921 -143 -685 -303 0
-510 -783 0
60 -397 0
148 -15 0
928 -695 -749 -579 0
-742 -912 0
-887 -883 -697 0
981 -833 -179 0
-535 -143 -442 0
515 -683 -499 0
263 -835 0
342 -720 -268 -276 0
133 -201 -252 -712 0
868 -142 -807 -839 0
-355 -840 0
180 -843 -320 -605 0
641 -708 0
595 -860 0
825 -727 -479 -760 0
881 -932 -551 -479 0
795 -510 -938 0
-751 -39 -357 0
834 -908 -243 0
349 -898 -304 -740 0
-364 -981 -511 0
571 -438 -444 0
679 -57 -328 -949 0
737 -769 -222 0
373 -768 -194 0
958 -68 -820 -762 0
-97 -838 -617 0
147 -975 -585 -183 0
234 -820 -69 0
737 -644 0
610 -495 0
324 -91 -81 0
-10 -172 0
183 -644 -409 -582 0
496 -510 -974 -825 0
-806 -796 -738 0
738 -719 0
-24 -724 -208 -899 0
891 -520 -943 -214 0
299 -734 0
842 -862 0
-529 -762 -200 0
875 -878 0
160 -195 -743 0
213 -730 -228 -251 0
443 -733 -512 -980 0
-464 -662 -642 0
290 -776 -969 0
793 -28 -902 -791 0
109 -541 0
-841 -232 0
85 -938 0
791 -495 -767 -427 0
-912 -350 -773 0
570 -332 -134 -990 0
539 -611 -832 -516 0
-981 -486 -701 -743 0
102 -247 -750 -954 0
654 -879 -525 0
-239 -318 -965 -830 0
-570 -629 -617 -874 0
206 -258 0
861 -434 -689 0
895 -1000 -157 0
396 -811 -381 -881 0
776 -208 -441 -424 0
730 -792 -821 0
137 -427 -71 -305 0
-979 -399 -244 0
87 -948 0
529 -465 -704 -506 0
-968 -601 0
-337 -394 -420 -487 0
273 -596 -685 0
-594 -828 0
-941 -681 -195 -198 0
591 -561 -903 -315 0
13 -267 -214 0
419 -79 -498 0
809 -974 -439 0
185 -517 -206 0
302 -458 -187 -382 0
644 -527 -462 -949 0
167 -634 -583 -543 0
954 -869 0
898 -770 -662 -475 0
-439 -710 -819 -775 0
425 -3 -983 -421 0
611 -177 0
891 -663 0
79 -791 0
-694 -92 -979 0
54 -373 -556 -516 0
75 -258 -658 0
183 -690 0
-61 -183 -891 0
-44 -71 -255 -935 0
-943 -154 -558 -861 0
633 -156 -367 -840 0
724 -709 -737 0
-915 -564 0
-560 -976 -443 0
476 -912 -638 -689 0
852 -268 -982 0
734 -516 0
633 -907 0
37 -544 0
186 -41 -860 0
185 -962 -660 -709 0
961 -162 0
-866 -907 0
349 -245 -665 -330 0
582 -790 -760 0
280 -420 0
994 -929 -430 -513 0
-968 -950 -150 0
-643 -935 -369 -808 0
779 -72 -795 0
960 -698 -175 -529 0
691 -244 0
549 -8 -748 -790 0
-82 -800 0
627 -603 -609 -166 0
237 -410 -316 0
-703 -373 -600 0
186 -776 -292 0
838 -597 0
-37 -312 0
693 -519 -64 -121 0
-546 -194 -452 -314 0
25 -312 -475 0
-685 -786 0
249 -412 -592 -443 0
-839 -479 -774 -492 0
593 -436 -166 0
-120 -403 -240 0
22 -321 -70 0
704 -577 0
82 -709 -561 0
188 -751 -592 -167 0
635 -554 -10 -200 0
478 -987 -78 0
993 -609 0
-778 -995 0
793 -134 -784 -15 0
661 -397 -427 0
-718 -423 -942 0
681 -474 0
370 -321 0
-229 -153 -933 0
438 -806 0
187 -320 -499 -758 0
327 -963 0
845 -626 0
512 -543 -346 0
392 -525 0
798 -733 -731 -67 0
487 -348 0
-635 -235 0
-596 -157 -40 0
-20 -833 0
811 -549 -218 -240 0
252 -475 -108 0
250 -157 -636 0
59 -71 -399 -752 0
1 -581 -325 -120 0
944 -156 -489 0
346 -184 0
745 -743 -463 0
1 -302 -653 -839 0
974 -735 -478 -61 0
837 -536 -647 -974 0
295 -444 0
-345 -617 -464 0
-98 -735 -597 0
-487 -894 -73 0
829 -430 -855 -240 0
994 -483 -143 -709 0
385 -177 -706 0
-509 -171 -302 0
542 -193 -282 0
412 -414 -767 0
533 -367 -891 0
127 -851 -571 0
474 -724 0
160 -342 0
-147 -710 -494 -419 0
680 -217 -962 -149 0
356 -229 0
333 -703 -846 -381 0
974 -939 -60 0
203 -412 -173 -459 0
970 -875 -630 -435 0
499 -898 -862 -955 0
695 -573 0
904 -172 0
973 -132 0
887 -784 -226 -283 0
930 -980 0
112 -368 -121 -700 0
-634 -96 -323 -270 0
779 -40 -79 -496 0
459 -557 -407 -766 0
847 -12 -577 -272 0
20 -690 -333 -975 0
77 -791 -943 0
865 -947 -226 0
151 -603 -937 -516 0
106 -393 -274 -563 0
-77 -508 -978 0
-567 -641 -126 -930 0
977 -106 -588 0
-599 -810 -445 0
928 -708 0
731 -19 -417 0
-187 -550 0
-914 -173 0
-303 -320 -778 0
788 -609 -607 0
895 -896 -544 -493 0
-920 -510 -778 0
-908 -487 0
570 -466 -707 0
-114 -295 0
73 -252 -897 -575 0
-346 -642 -753 0
490 -318 0
-343 -357 -646 0
578 -93 -548 -905 0
490 -156 -470 -832 0
976 -215 -589 0
735 -202 -976 0
920 -624 -835 0
569 -982 0
-321 -605 0
-123 -792 0
512 -434 -624 0
901 -671 -518 -915 0
517 -292 -787 0
848 -522 0
-364 -45 -289 -522 0
-15 -508 -339 -983 0
113 -3 -516 0
8 -955 -520 0
449 -389 -461 0
-105 -194 -346 -813 0
-646 -399 -817 -333 0
-801 -832 0
-841 -286 -531 -815 0
-768 -281 0
-4 -257 0
-760 -753 -283 -147 0
355 -407 -553 -69 0
550 -109 -630 0
426 -991 -452 -57 0
943 -665 -648 0
586 -353 -657 0
201 -849 -806 -642 0
317 -160 -529 -299 0
-494 -415 -700 0
576 -464 -270 -394 0
-930 -28 -753 -506 0
361 -27 -400 -791 0
540 -397 -317 0
744 -619 -358 -894 0
689 -536 -799 0
165 -245 -307 0
410 -824 0
526 -308 -666 -951 0
919 -237 0
-521 -602 0
585 -623 -65 -96 0
629 -516 0
-831 -540 0
664 -298 0
190 -159 -619 0
-268 -610 -347 -819 0
-840 -924 -909 0
-661 -517 -833 0
606 -117 0
420 -909 0
981 -349 -817 0
159 -926 0
-960 -233 -40 -143 0
851 -575 -52 -392 0
722 -379 0
257 -668 -507 0
352 -944 -667 0
909 -359 0
122 -18 -954 -9 0
82 -643 -879 0
-47 -210 -478 0
-147 -532 -206 0
-635 -697 -777 -942 0
503 -234 -701 0
86 -890 -506 -108 0
-768 -426 0
-147 -876 0
236 -209 -318 0
476 -225 0
776 -69 0
817 -234 -762 0
592 -600 -724 0
540 -850 -947 -927 0
445 -496 -607 -222 0
453 -239 -229 0
51 -736 -499 -939 0
-111 -522 -89 0
-634 -581 0
538 -180 0
-651 -245 -779 0
447 -945 -461 -135 0
214 -608 -697 0
454 -113 0
613 -276 -64 -352 0
-587 -204 -51 0
645 -341 -206 -360 0
-68 -332 0
176 -419 0
137 -442 -704 -170 0
-970 -894 -277 -983 0
-368 -989 -694 -191 0
822 -463 -655 -50 0
459 -505 -130 0
-312 -895 0
824 -512 0
589 -23 -5 -28 0
920 -731 0
-623 -356 -829 0
-238 -992 0
780 -254 0
838 -509 -336 0
-911 -811 -360 -95 0
817 -813 0
104 -454 -939 -238 0
713 -660 -86 0
642 -841 -274 -429 0
780 -483 -35 -691 0
293 -806 0
792 -497 0
-748 -932 0
395 -21 0
-922 -627 0
624 -72 -848 -263 0
240 -64 -616 -97 0
482 -423 0
-554 -291 0
-667 -758 -714 -673 0
571 -520 -859 -573 0
590 -487 0
-203 -671 -293 -871 0
666 -874 -221 -733 0
483 -696 0
828 -766 0
-764 -335 0
575 -160 -300 0
413 -42 -202 0
491 -607 -441 0
-616 -444 -574 0
457 -161 -148 -899 0
764 -124 -89 0
465 -748 0
286 -26 -682 -364 0
947 -930 -456 -737 0
667 -825 0
405 -716 -414 -442 0
-236 -793 -394 0
-620 -110 0
139 -334 0
-449 -400 -158 0
-652 -213 -58 0
-632 -154 -562 0
-701 -351 -149 0
438 -386 -431 -587 0
188 -778 0
921 -314 -121 0
330 -596 -64 0
927 -417 0
539 -97 -194 -652 0
738 -381 -138 -996 0
66 -487 -256 0
243 -773 -642 -98 0
233 -41 -617 0
212 -695 -511 -49 0
224 -927 -489 -208 0
-198 -767 -842 -779 0
600 -436 -197 0
76 -462 -39 -916 0
43 -107 0
256 -470 -106 0
-261 -944 0
599 -667 -544 0
-1 -784 -599 0
620 -535 -984 0
116 -56 -270 0
-770 -358 -611 0
579 -186 -42 0
95 -240 -363 -429 0
152 -937 0
-116 -724 -663 -872 0
330 -301 0
-26 -955 -93 -101 0
316 -543 -176 0
455 -873 -426 0
523 -293 -21 0
-578 -445 -238 -345 0
688 -319 -897 -193 0
-278 -571 0
867 -262 -613 -712 0
-789 -137 0
281 -161 0
337 -886 -899 0
457 -861 -56 0
392 -679 -428 -266 0
120 -324 -520 -8 0
745 -422 0
-874 -745 -459 0
-495 -740 -929 -752 0
634 -364 -760 0
-953 -498 -531 -732 0
-710 -513 -206 0
681 -540 0
-689 -299 -409 0
-214 -904 -666 -645 0
490 -753 -790 -716 0
-593 -389 0
659 -457 -578 0
852 -833 0
-665 -382 -186 -903 0
-851 -902 -800 0
772 -525 -246 -314 0
-898 -799 0
988 -357 0
695 -248 0
409 -775 0
882 -92 -680 0
231 -925 0
266 -945 -131 -831 0
278 -905 -382 0
534 -388 -42 -340 0
342 -45 -918 0
359 -948 -511 -163 0
-567 -945 -448 -413 0
555 -685 0
496 -669 0
-870 -768 -201 -148 0
71 -14 0
944 -71 -869 0
-124 -748 0
180 -523 -472 0
111 -688 -706 0
26 -170 -315 0
82 -323 -528 -48 0
147 -441 -314 -25 0
956 -630 -318 -887 0
-676 -293 -861 0
483 -784 -899 0
-537 -312 -240 -409 0
506 -883 0
-268 -136 0
759 -453 -921 -704 0
-703 -998 0
4 -177 -281 -287 0
461 -492 -55 0
46 -486 -37 0
-523 -870 -484 0
799 -127 -317 0
-212 -664 0
-310 -821 0
431 -454 -574 0
224 -454 -201 -989 0
773 -338 -482 0
303 -617 -145 -663 0
344 -843 0
497 -815 -383 -330 0
-251 -870 -647 0
-784 -348 -846 -858 0
603 -680 -433 -468 0
700 -553 -640 0
-64 -565 0
879 -75 -268 -991 0
626 -393 -479 0
175 -31 0
922 -986 0
-964 -205 0
-654 -415 0
700 -287 -391 -249 0
-405 -423 -634 0
-452 -629 -215 -737 0
330 -532 -77 -684 0
547 -258 -635 -344 0
-744 -236 -965 -540 0
963 -331 -623 0
-360 -107 -634 0
-379 -367 -494 0
-997 -898 -820 0
544 -864 -407 -424 0
288 -547 0
-833 -642 -453 -52 0
413 -804 -968 -676 0
-280 -505 0
-849 -699 0
270 -642 -70 -450 0
971 -594 0
186 -158 -150 0
321 -971 -986 -189 0
742 -465 -912 0
-744 -962 0
605 -413 -719 -720 0
44 -653 0
-436 -552 0
59 -904 -208 0
666 -6 -790 -440 0
369 -31 -190 -18 0
116 -538 -429 0
775 -806 0
-607 -2 -523 0
-355 -467 -21 -929 0
-84 -324 -306 -268 0
116 -624 -583 0
660 -998 -33 0
