c Horn formula (polynomial-time solvable)
c 2000 variables, 5000 clauses
p cnf 2000 5000
482 -529 -1694 -1118 0
-352 -832 -511 0
-389 -1493 -191 -1276 0
-804 -1727 -1481 -459 0
-1132 -1763 -377 -278 0
-1503 -251 0
-1885 -1270 -1362 0
813 -136 0
1288 -1769 0
-469 -1345 -834 -567 0
-588 -14 -732 -502 0
1468 -623 -1044 0
332 -1785 0
899 -1987 -379 0
-367 -874 -1976 0
-186 -11 0
909 -1945 -910 -1372 0
1650 -1914 -404 0
-1870 -1663 -1556 -1513 0
1725 -912 0
214 -290 -961 -1994 0
-1548 -642 -1721 0
1551 -1801 -498 0
-588 -96 0
620 -1982 -426 0
1624 -1080 0
314 -1237 -842 0
999 -664 -495 0
130 -493 -1532 0
-1907 -1664 -1072 0
1964 -1473 -1229 0
-857 -1040 -650 -1054 0
-662 -1521 -1969 0
-1006 -934 0
767 -1143 0
1168 -563 -1114 0
1930 -101 0
922 -1129 -621 -1314 0
-872 -1629 -1965 -272 0
-661 -73 -1102 -1710 0
1189 -1874 -1823 -1266 0
-1513 -410 -904 -451 0
-1922 -1937 -1589 -1508 0
575 -1011 -671 -1622 0
-1887 -276 0
-1108 -1278 -1566 -1858 0
593 -986 0
-1562 -127 0
-574 -443 0
763 -1425 0
1349 -23 -1009 -1798 0
186 -725 -960 0
1151 -842 -351 -1966 0
1811 -719 0
1141 -53 -186 0
1084 -524 0
101 -1070 -312 -627 0
1218 -966 -1037 0
-962 -1462 -1588 -284 0
-484 -551 -1840 -471 0
1081 -98 -1412 -1940 0
-1203 -1748 -522 -1866 0
22 -477 -738 -665 0
-858 -1926 -1664 0
860 -49 0
939 -801 -1382 0
1260 -114 -1005 0
890 -934 -248 0
-1560 -420 -480 0
1182 -490 0
589 -1551 0
1395 -544 0
-190 -1335 -1002 0
144 -650 -1397 0
-1909 -568 -1354 0
858 -74 0
-683 -430 0
806 -1171 -1559 0
-942 -1821 0
711 -1094 -1542 0
1275 -1117 -450 -280 0
-1978 -852 -510 0
923 -446 -1326 -919 0
-298 -1958 0
-483 -1713 -1488 0
-530 -1012 0
689 -725 -155 0
9 -1391 0
1379 -1872 -804 0
-367 -366 0
-1925 -855 0
853 -1855 0
-1326 -1216 -1003 0
316 -801 -1496 0
1732 -923 0
-320 -1984 0
-1790 -529 -1070 -1464 0
909 -294 0
1633 -1188 -841 -1954 0
86 -1511 -1969 0
-1304 -1762 -1271 0
451 -845 -1735 0
695 -210 -16 -1868 0
749 -1292 -620 0
1512 -31 0
892 -1804 0
-1652 -484 -1361 -325 0
35 -1087 -1880 -373 0
415 -333 -787 0
-1702 -451 -266 0
-338 -1788 -1885 -1352 0
75 -1173 0
-824 -1275 -435 0
-122 -1997 -1294 -1746 0
446 -108 -721 -1953 0
569 -647 0
-1438 -1499 0
1758 -1733 -124 0
1707 -1099 -449 0
-15 -1620 0
79 -277 -942 -1198 0
-1595 -1689 0
426 -1088 -1987 -1178 0
928 -251 -17 -1603 0
515 -901 -908 -582 0
1493 -1061 0
-588 -416 -1910 -680 0
355 -283 -1935 0
-987 -1098 -667 0
1139 -593 -1970 0
1031 -1651 -470 0
1728 -228 -942 0
48 -307 -1679 0
-785 -1080 -721 0
1989 -1165 -1996 0
1719 -314 0
-1316 -1595 -870 0
931 -464 -54 0
1048 -1705 0
336 -1580 -1671 -722 0
639 -1184 -756 -927 0
166 -1408 -1514 0
1250 -1055 -267 -1532 0
581 -1117 -1769 0
86 -1034 -636 0
1840 -1146 -1909 -635 0
1683 -1984 -768 0
-1478 -798 -248 -1276 0
414 -626 -749 -171 0
1867 -410 0
1974 -1186 0
567 -1224 -1834 0
1468 -886 -1343 -1966 0
1438 -1886 -1607 -1764 0
1861 -927 -21 0
871 -1478 -296 -960 0
-466 -1807 -359 -63 0
805 -1201 -1252 -519 0
-667 -145 -1623 0
1509 -160 0
-1391 -1256 -877 -1327 0
-701 -1238 0
-1516 -504 -1216 0
587 -1065 -910 -1820 0
790 -1732 -1209 0
-1237 -120 0
1055 -1410 -1675 -1031 0
1210 -779 0
1630 -1351 -367 0
1751 -1418 -874 -1334 0
1389 -1685 -1196 0
-468 -4 0
2000 -1361 -71 -1223 0
952 -1347 0
-999 -213 -153 -481 0
-360 -365 0
250 -579 -1957 0
-1540 -1333 0
-224 -1873 -1992 -352 0
1441 -654 -1899 -249 0
-355 -1609 -944 0
1388 -908 -1681 0
-1782 -1604 -477 0
1526 -1584 -1488 0
286 -43 -1406 -1182 0
488 -18 -885 0
1793 -1198 -1439 0
-1905 -654 -526 -471 0
467 -342 0
1522 -144 0
-293 -1398 0
669 -148 -314 -1101 0
110 -183 -1264 -1353 0
-1675 -216 -1490 -1312 0
798 -535 -449 0
1582 -1249 0
84 -1079 -1834 0
1659 -1556 0
-1667 -711 -1308 0
1164 -15 -1496 0
711 -1120 0
471 -1327 -138 -1191 0
-160 -37 0
-1795 -1901 0
1699 -202 -833 -1745 0
-317 -698 -111 0
1943 -1582 -872 -1888 0
-1978 -1747 0
1410 -1471 0
-1155 -1233 -1640 0
-1325 -1950 -149 0
542 -1017 -791 -426 0
-467 -1924 0
1115 -1341 -1064 -1591 0
677 -942 -727 -251 0
-1858 -241 -1706 -1558 0
1544 -923 0
-1873 -1174 0
1407 -449 0
-17 -1520 -384 -96 0
-500 -1799 0
-207 -826 -1443 0
564 -1292 0
1826 -8 0
-952 -1961 -173 -1720 0
1620 -50 -1783 0
893 -1659 -755 -1646 0
244 -296 0
-1197 -1787 -1032 -666 0
1180 -829 -1334 0
363 -1136 0
-1678 -742 0
942 -1511 -1392 0
462 -1717 -161 0
949 -485 -237 -1872 0
-857 -1277 -1852 -1825 0
351 -1606 -380 0
962 -189 0
1493 -1738 -210 0
-1813 -1032 0
1858 -565 -563 -1685 0
1961 -1858 0
741 -1361 0
1158 -169 0
1655 -976 -44 -917 0
-1578 -1824 -1876 -1926 0
530 -1461 -1849 -199 0
-829 -144 -723 -461 0
-1566 -1315 0
1941 -159 -1089 -584 0
-248 -875 0
1058 -1202 -1506 -1424 0
1229 -568 -1322 -1062 0
1745 -1139 -1540 -1225 0
1703 -1561 -1016 0
756 -1306 -82 0
658 -1788 0
748 -723 -555 -980 0
-1078 -1364 -1849 0
1294 -489 -1786 0
1475 -136 0
-1963 -1736 -1247 0
694 -1410 -1150 0
1707 -639 -675 0
1224 -1239 -1793 0
-163 -1030 -84 -1363 0
-1754 -524 -739 -1310 0
636 -1949 -1380 -1246 0
1494 -196 0
1217 -746 -592 0
-715 -53 -435 0
-1320 -1134 -448 0
1286 -992 0
-395 -852 -1001 0
841 -741 -1625 -206 0
1812 -1893 -1432 -1976 0
470 -952 -124 -291 0
161 -202 -1052 -1581 0
872 -1735 -283 0
1081 -997 -1493 0
1733 -1913 0
1610 -5 0
1841 -769 -1420 -556 0
294 -1108 -1088 0
157 -640 -845 -84 0
538 -1226 -260 0
1570 -1602 -1273 0
1911 -583 0
220 -423 -1653 -1544 0
503 -595 -1880 0
748 -828 0
574 -1662 -1823 0
1856 -609 -1532 0
-1687 -751 -226 0
-1072 -562 0
-1010 -159 -193 -1943 0
409 -683 -1320 -851 0
-1818 -531 -212 -1066 0
349 -358 0
-1757 -1101 -1382 0
971 -190 -1093 -519 0
41 -1806 -856 -1438 0
-1305 -112 -1806 0
1544 -976 -1561 0
-631 -368 0
640 -1151 -1632 0
1859 -1111 -1034 -1164 0
-1111 -1394 0
524 -809 -1966 -694 0
1250 -1033 0
868 -221 -859 0
1872 -225 -1191 0
1025 -1791 0
217 -1689 0
1592 -561 -1415 -1769 0
1760 -357 -108 0
452 -145 -1862 0
590 -18 0
1912 -1546 -1941 0
1075 -674 -1787 0
697 -91 0
278 -237 0
1340 -1129 -1484 0
1771 -913 0
1048 -652 0
654 -552 -1707 0
1996 -1675 -1876 0
743 -561 -1990 -487 0
-1762 -1704 0
1720 -1993 0
594 -314 -639 0
17 -811 0
-1713 -849 -1202 0
682 -409 -291 0
696 -37 -1273 0
-395 -864 -786 -1259 0
1340 -1141 -88 -822 0
406 -450 0
855 -1369 -1713 -149 0
1896 -1753 0
-1059 -590 0
-1037 -126 0
-1901 -1029 0
-336 -1918 0
1483 -1162 -238 -989 0
-1442 -366 0
-1225 -1483 -740 -1756 0
1724 -1599 0
1354 -556 0
58 -301 -1066 -1226 0
-1243 -298 -1920 -1002 0
48 -234 0
189 -1199 -323 -31 0
69 -1282 -500 0
-1451 -1207 -1517 0
1359 -1002 -952 -993 0
1241 -129 0
1933 -1375 -1661 0
1805 -822 0
-923 -1731 -960 0
208 -1470 -140 0
1294 -1473 -413 -682 0
20 -297 -393 0
1491 -687 -1399 0
84 -1427 0
1614 -278 0
477 -1445 -1311 0
133 -1390 -407 -330 0
499 -983 -637 -926 0
-785 -1696 -1637 -247 0
1886 -1589 -162 0
1107 -167 -1011 -669 0
1976 -907 -701 -1213 0
1228 -647 0
1106 -808 -1724 -1311 0
-1599 -374 0
626 -362 -670 0
1162 -594 -1358 0
1623 -1283 0
1888 -173 -864 -1895 0
562 -1014 -1541 -294 0
695 -879 -441 -1539 0
1695 -1849 -1485 0
-1296 -673 0
592 -1933 0
29 -883 -191 0
773 -1685 -47 0
176 -173 -1915 -601 0
-833 -1594 0
-214 -267 0
992 -1524 -211 0
376 -1032 0
1041 -706 -497 0
1215 -772 0
1606 -1273 -829 -1488 0
860 -1290 -1514 0
1801 -1950 0
1459 -1731 -549 0
699 -208 -1643 0
979 -271 -1933 -775 0
-165 -415 -545 0
467 -435 -1216 -1540 0
100 -148 0
-1129 -1345 0
1402 -410 0
-1175 -935 -986 0
260 -163 -796 0
-1894 -1052 -1108 -485 0
-932 -281 0
1246 -1863 -247 0
535 -1268 -1133 0
-1991 -916 -304 -1400 0
-1367 -613 0
-1604 -222 -1530 0
-1682 -1616 -1423 -528 0
-166 -20 0
1071 -1697 0
473 -496 -474 0
1097 -1021 -1635 0
1101 -355 -1133 0
934 -971 -1708 -321 0
-94 -830 -254 0
1150 -1687 -1247 -1823 0
-1945 -1897 -459 0
1452 -1691 -233 0
317 -1793 -837 -566 0
1204 -1987 0
1770 -1115 -1053 0
-389 -1644 -423 -595 0
348 -699 -1887 -24 0
-1809 -504 -768 -1588 0
1733 -1804 -1496 0
626 -902 -1805 -1951 0
627 -305 0
1610 -966 -800 -1920 0
633 -1843 -73 0
1115 -408 -1479 0
203 -789 0
5 -1690 -2 0
1812 -894 -32 -1496 0
1532 -1173 -637 0
-1476 -641 -1137 -688 0
1103 -1639 -79 -318 0
596 -727 -1456 0
-510 -192 -1395 0
-1979 -387 -1200 0
1600 -841 0
1009 -1956 -91 0
994 -1018 -1610 -250 0
1202 -1017 -778 -1894 0
1215 -426 0
726 -1912 -868 0
213 -1451 0
2 -1943 0
921 -1265 -352 0
1968 -543 -741 -1836 0
-372 -48 0
1346 -49 -1853 0
321 -370 -974 -560 0
-1011 -1431 -1727 0
1627 -1237 0
867 -14 -1944 -593 0
-280 -187 0
-1902 -1202 -96 -1309 0
350 -176 0
1261 -1151 0
1683 -1795 0
-777 -197 -778 -979 0
-1239 -12 0
-1789 -887 0
582 -1923 -460 0
1839 -1840 -882 0
350 -1571 -1397 -973 0
787 -777 -1233 0
697 -1287 -536 0
-941 -883 -1912 0
1659 -1862 0
-1736 -1452 -94 -1558 0
-1320 -952 -1416 -1819 0
1075 -1314 0
304 -1688 -628 -1730 0
193 -1284 0
-1231 -1581 -796 0
-369 -360 -1259 -45 0
1631 -1946 -1612 -1666 0
853 -884 -1881 0
613 -1818 0
332 -583 0
1401 -433 -444 0
1379 -283 -1047 -1243 0
429 -433 -1429 -1717 0
-1135 -141 -484 -1561 0
1759 -736 0
414 -986 0
-247 -1243 -646 -1801 0
-1181 -1150 -113 -758 0
1733 -1252 0
-1367 -21 -234 -1334 0
273 -1625 -1977 0
1550 -167 -745 -872 0
663 -1559 -279 0
729 -149 -1294 -647 0
-770 -37 -696 -1942 0
1020 -1535 0
713 -490 0
1950 -1507 -723 0
-1993 -927 -1933 -1365 0
-113 -1838 -1224 0
1961 -1432 -939 -83 0
823 -1182 0
399 -104 -1994 0
505 -1824 0
774 -1107 -1567 0
695 -874 -887 -353 0
-369 -975 -275 0
-1392 -7 -576 0
880 -405 -1402 0
-370 -1607 -1933 0
1342 -185 -354 -855 0
667 -116 -303 0
902 -1176 -1850 0
-642 -919 -841 0
658 -1170 -731 0
1071 -646 0
339 -1360 -346 -1677 0
582 -82 -275 -1635 0
519 -423 0
-1234 -711 -1420 0
-1741 -1625 -1965 -827 0
150 -126 -1768 0
819 -469 -1080 0
-425 -1096 -1819 -799 0
-250 -835 -355 -470 0
-1468 -1348 -1732 0
-1202 -786 -1873 0
176 -242 -224 0
-1329 -647 -1821 -1628 0
1074 -891 -915 0
860 -1859 0
817 -896 -845 0
-781 -587 0
476 -1071 0
-103 -1278 0
719 -577 -1944 -903 0
687 -579 -1049 -1570 0
1198 -1045 -970 -865 0
1717 -1173 0
384 -1355 -191 0
-1440 -1676 -1395 0
771 -327 -29 -749 0
745 -1902 -1947 -1754 0
557 -1571 0
761 -477 -94 0
-1428 -674 -523 0
-1706 -26 -699 -1209 0
1285 -1174 -1935 0
-315 -985 0
-1212 -494 -1463 -237 0
666 -1791 -1762 -1032 0
428 -1140 0
181 -1299 0
-1932 -422 0
1152 -1111 -344 0
1613 -88 -96 0
1529 -268 0
1903 -553 0
-1891 -1571 0
1582 -727 -80 -550 0
-1285 -1956 0
-1998 -1474 -1902 0
-1354 -525 -773 -613 0
-602 -656 -774 0
905 -1843 -1918 -1801 0
125 -1433 -321 0
-1678 -351 0
-768 -107 -948 0
1205 -1045 0
1894 -856 0
-1637 -1 -192 0
148 -1280 -256 -980 0
-887 -589 -1545 0
846 -1272 0
122 -175 0
1010 -774 0
-1105 -816 -1753 0
773 -1455 0
487 -1329 0
-1836 -228 -193 0
162 -216 -70 -1543 0
-1485 -564 0
1045 -520 -1628 -1385 0
182 -1283 -1674 0
-1578 -1007 -777 -1538 0
1885 -1555 -1048 -1115 0
272 -1059 -329 -1048 0
-442 -891 -948 0
325 -709 -1892 0
1009 -1765 -1740 0
-1307 -130 -1135 0
-1206 -191 -1705 0
1894 -1029 -1781 -102 0
136 -202 -1612 -903 0
972 -1485 -1754 -610 0
50 -1265 -1132 0
1021 -684 -928 -1562 0
1063 -1267 -247 0
704 -1388 -1802 -1488 0
-1810 -1705 -1717 0
-1023 -943 0
1795 -832 0
1278 -843 -342 0
-341 -814 0
1088 -1779 0
-1283 -1092 -1625 0
-388 -1894 0
-764 -1185 0
1961 -428 0
176 -636 -1898 0
-1729 -718 -550 -1524 0
-905 -722 0
-1431 -6 0
1552 -1839 -39 -971 0
47 -956 -943 0
-560 -920 -599 -1551 0
816 -735 -624 -317 0
69 -1970 -1741 -905 0
975 -209 0
1945 -1467 -1518 0
332 -1871 0
-430 -1632 -759 0
-518 -1247 -1592 0
140 -308 -1364 0
67 -1462 -173 -1736 0
1887 -826 -1350 -503 0
169 -1624 -1894 0
-1343 -1077 -1715 0
-786 -1867 -968 -754 0
848 -873 0
-732 -996 0
-799 -586 -1835 -1366 0
1642 -787 0
-1069 -260 -1082 0
933 -1898 0
-1034 -1391 -907 0
1328 -1242 -1875 -652 0
1897 -1567 -862 -954 0
1458 -1697 -929 0
439 -1401 0
124 -1487 -1196 -1313 0
-1534 -1473 -1085 0
-1901 -343 -106 0
-553 -794 -1848 0
-73 -400 -875 0
1848 -1211 0
1037 -1142 -241 -1292 0
18 -454 -1060 -1864 0
1072 -1360 -1121 0
1004 -162 -325 -383 0
177 -1723 -676 0
578 -762 -1415 -1006 0
997 -898 -1724 -1108 0
-107 -1013 -974 -1478 0
610 -1065 -1453 0
-1047 -348 -1748 0
1589 -948 -88 0
114 -1838 -1616 0
1382 -761 -1888 -261 0
1890 -1991 -894 -1008 0
-1405 -901 -1635 -19 0
326 -1775 -490 -215 0
209 -245 0
331 -1461 0
820 -995 -516 0
1651 -1368 -658 0
-1215 -1314 -601 -981 0
679 -1508 0
-643 -786 -1409 0
287 -281 0
284 -1878 -363 -1914 0
324 -1460 -1034 -1523 0
1912 -1396 -527 -1381 0
1859 -1535 -981 -8 0
1966 -607 -1202 0
-1481 -793 0
-318 -937 -509 -1065 0
-872 -796 0
-1459 -870 -219 0
183 -1608 -106 0
-428 -1682 -1714 -1001 0
1642 -198 -1988 0
1840 -1987 -1749 0
39 -1438 -1226 0
800 -1122 -83 0
1998 -1098 -166 0
725 -1704 0
177 -1917 -1102 0
309 -1042 -1956 -712 0
-796 -918 -1902 -1737 0
248 -1002 0
919 -53 0
-1702 -1463 -402 -1341 0
-81 -1273 0
-1673 -1587 0
1973 -505 -54 -1486 0
-651 -1051 -864 -1326 0
1104 -1594 0
-939 -961 -1736 0
516 -1385 -1000 0
1788 -1976 -697 -309 0
471 -1095 -1862 -1803 0
1294 -228 0
946 -1827 0
1829 -1942 -507 0
-610 -1723 -836 -1442 0
1542 -1136 -1763 0
349 -434 0
1277 -1464 -679 -1215 0
1404 -848 -1231 0
268 -375 0
-727 -861 0
1353 -411 -1426 -1387 0
893 -457 0
1422 -976 -1275 0
870 -10 -240 0
1328 -1909 -122 -674 0
-1460 -1553 -1797 -1173 0
1043 -1841 -1632 0
251 -1228 0
-1955 -1664 0
-799 -1424 -318 0
1094 -1310 0
1788 -1517 0
1058 -172 -1907 -981 0
582 -688 -1737 0
318 -986 -1764 -842 0
761 -1070 -1747 -361 0
810 -894 0
931 -1311 -847 0
1492 -1853 -1968 0
22 -1566 -765 0
349 -1837 0
499 -1693 -438 0
335 -1162 -839 0
1038 -634 0
338 -221 -955 -1101 0
-1343 -357 0
-344 -1138 0
-18 -498 0
1958 -6 0
1196 -96 -1882 -756 0
-1623 -1710 0
1949 -1646 -219 -1078 0
389 -1802 -791 0
-1912 -1281 -1575 -549 0
642 -589 -1449 -562 0
745 -1374 0
1684 -1661 0
-653 -748 -636 0
-319 -1012 -840 -530 0
-1325 -1377 0
337 -1992 0
1331 -595 -409 0
131 -37 -938 -977 0
372 -39 -1443 0
1139 -972 -275 -1866 0
-434 -1155 0
964 -480 0
883 -1216 -808 -341 0
739 -456 0
-1587 -1560 -1770 -519 0
830 -708 0
-732 -1225 0
-270 -578 -1726 0
-1487 -1323 -1819 0
-707 -755 0
-664 -1804 0
1143 -1979 -211 -275 0
1112 -1488 -975 0
1993 -1770 -338 0
1039 -1497 -1648 -1096 0
-457 -1304 0
507 -647 -927 -1380 0
-327 -1430 -1082 0
-1020 -843 -174 -551 0
-754 -1396 -867 0
1122 -425 -1893 -255 0
452 -368 -1021 0
759 -1006 -1500 0
37 -1014 -687 0
995 -1416 -276 0
-145 -251 -1344 -1036 0
1077 -924 -1109 0
41 -1061 0
-769 -1000 -1928 0
-1499 -1161 0
574 -1628 -916 -1648 0
-1228 -1449 -466 -330 0
1037 -745 0
1388 -1669 -1443 -1014 0
400 -254 -599 0
1700 -681 0
-1624 -1434 -1783 -1901 0
1661 -656 0
440 -1797 -1554 -1303 0
1846 -1278 0
1326 -1652 -5 0
1411 -1259 -70 0
89 -522 -1894 -460 0
1237 -1659 -1035 -1245 0
1449 -1619 -1854 -117 0
-1848 -1175 0
-1913 -504 0
1232 -240 -1927 0
696 -1818 -954 -395 0
-1527 -1294 -935 0
-607 -605 -1876 -661 0
1086 -803 0
-1987 -164 -437 0
-715 -961 -1097 0
687 -754 -609 0
-110 -510 -1303 -806 0
279 -1670 -1222 -670 0
1712 -1676 0
1136 -1917 -768 -660 0
-1375 -945 0
-1977 -473 -1010 -1146 0
539 -287 -1798 0
1606 -872 -1962 -1044 0
-112 -533 -62 -933 0
-1302 -1088 -505 0
747 -1786 -616 0
1057 -1740 -313 -333 0
1756 -1663 0
-1961 -67 -1900 -1260 0
1291 -1261 0
-1038 -1222 0
1612 -53 -1613 0
1408 -648 -699 0
-118 -950 -1352 0
1027 -817 -73 0
866 -1559 -554 -741 0
-860 -1058 -1249 0
190 -1224 -448 0
1705 -849 -1914 0
878 -138 0
-1321 -1377 0
1701 -444 0
1180 -887 0
-1047 -1531 -1925 -1633 0
1854 -1592 -1026 -1840 0
382 -476 -738 -249 0
388 -1596 -971 -1840 0
1968 -284 -1530 0
1297 -1834 -1728 -1700 0
775 -1773 -1754 0
-606 -1126 -1497 -438 0
943 -1552 0
1362 -1216 -82 -138 0
1190 -539 -401 0
613 -1916 0
-104 -1355 0
1266 -593 -725 0
419 -1663 0
1829 -1851 -1387 -660 0
-1345 -1260 -1396 0
222 -930 -1432 0
1611 -252 0
-1119 -1577 -1283 0
1784 -77 0
223 -19 0
1781 -229 0
-1787 -905 -1241 0
805 -72 -738 -146 0
1418 -768 -1139 -2000 0
989 -1623 -1215 0
-233 -593 -1926 0
12 -559 -1329 0
909 -1980 -1909 0
-590 -542 -983 0
144 -951 -110 0
587 -911 -29 -1878 0
-1888 -1947 0
-1876 -1728 -1904 0
284 -1904 0
-1799 -334 -1657 0
1759 -1158 -1391 -1972 0
-504 -1983 0
772 -1326 -1421 -414 0
-149 -1517 -1269 0
700 -11 0
1840 -724 -1335 0
531 -1589 -150 0
1150 -1209 -1233 0
-1653 -31 -72 -634 0
56 -1635 0
1267 -1790 0
-1522 -1333 0
69 -194 0
174 -680 -711 0
1167 -228 -330 0
265 -1045 -1905 0
-42 -498 -290 -308 0
1002 -1906 0
311 -331 -1565 -1613 0
120 -517 -163 0
1911 -1830 0
1032 -1708 -471 -1281 0
1920 -1512 -330 0
1160 -1179 -911 0
-1257 -1023 0
510 -1497 -1661 -1606 0
-1424 -726 0
1559 -1858 -1780 -172 0
238 -1330 -720 0
1519 -1464 -61 -370 0
-450 -1358 -242 0
1971 -1013 0
-1433 -626 -630 -1788 0
1352 -220 -346 0
1133 -1853 -270 -1732 0
1569 -363 -661 0
138 -1606 0
1294 -557 -1542 -1290 0
-967 -1803 -1566 0
1598 -863 -520 0
1130 -908 -810 0
-190 -4 0
-1590 -1453 -1255 -1216 0
559 -1726 -670 -998 0
-1075 -740 -1106 0
267 -12 -1992 0
697 -324 -499 -514 0
-339 -639 -1587 0
615 -1839 -712 -601 0
168 -47 -151 -76 0
-621 -745 -1676 0
-991 -667 -1437 -619 0
1901 -1717 -703 0
1989 -384 -876 0
-1982 -1115 -1883 -757 0
1951 -1120 -1504 0
559 -237 -409 0
-1477 -1137 0
1895 -144 0
1874 -1444 -406 0
-583 -458 -1642 0
765 -883 -77 0
1163 -328 -176 0
-576 -641 0
997 -687 -822 0
-848 -175 -638 -1583 0
-403 -19 0
1463 -1838 -524 -1632 0
597 -1844 0
138 -1896 -444 0
704 -1146 -555 -548 0
679 -1957 -1213 -250 0
1940 -1126 0
-1254 -107 -1889 0
-1312 -1336 -560 0
1398 -1512 -915 -415 0
-457 -1887 0
-1887 -1910 -348 0
-1940 -1090 -125 -1846 0
1484 -814 0
828 -1759 -1256 -1725 0
-628 -1308 0
1378 -1146 0
-114 -1431 -467 0
1014 -443 -678 0
-290 -1588 0
272 -1003 0
551 -925 -1509 0
-1439 -881 -850 -1090 0
1966 -893 0
700 -1475 0
495 -1634 0
-707 -1357 -480 -1952 0
13 -562 -283 -433 0
1594 -1574 0
999 -1529 -1215 0
1837 -775 -1491 -61 0
980 -1223 0
1507 -1752 -408 -1025 0
-80 -664 -69 0
138 -1302 -1280 0
-599 -866 0
1062 -1753 -29 0
941 -1729 0
1332 -1584 -1118 -203 0
543 -429 -691 -1856 0
1771 -1677 0
1826 -1908 0
1469 -1972 -1683 -1246 0
392 -1431 -1881 0
838 -876 -126 0
-505 -1707 -1468 -1149 0
1800 -1225 0
1103 -791 -1359 -1050 0
1284 -1070 -1024 0
1310 -1220 0
440 -1844 -1557 -1407 0
1073 -1275 0
1188 -1224 -282 0
133 -1688 -1751 0
675 -1860 0
59 -148 -1943 -865 0
1868 -560 0
-1077 -1187 0
926 -1587 0
1802 -282 -79 0
1653 -542 -1569 0
-977 -1703 -794 -585 0
900 -185 -1155 0
-461 -1693 0
880 -1826 0
1093 -198 -558 -1231 0
-1541 -683 -497 -328 0
-966 -211 0
1507 -175 0
537 -50 -592 -1142 0
-1781 -1217 0
-1960 -1319 -1416 -663 0
388 -64 -986 0
533 -1705 -1256 0
-311 -1575 -1070 0
1436 -621 -200 0
770 -1307 0
269 -794 -1908 0
-854 -201 0
-1835 -1539 -391 -1216 0
987 -578 -494 -1405 0
1750 -1694 -1403 -1220 0
1919 -76 -1271 -1582 0
1750 -1245 -541 -140 0
-1407 -1702 -441 -1551 0
-81 -673 0
-225 -434 -1866 -1345 0
-86 -243 -846 -1343 0
865 -535 -1244 0
-1477 -1080 0
330 -724 -1673 -1931 0
893 -93 -1736 0
1463 -862 -897 -511 0
1697 -1205 -171 -1181 0
1589 -927 -377 -197 0
1617 -1923 -856 0
-216 -1278 -280 0
433 -211 -132 -1986 0
59 -1674 -1847 -847 0
41 -251 -1847 0
1078 -1399 0
1468 -1814 -423 -552 0
225 -997 -806 0
-846 -370 0
1034 -1379 -947 -871 0
736 -1724 -280 0
1019 -90 -1378 0
1739 -1836 0
596 -348 -1460 -1329 0
-1994 -1743 -652 -1510 0
1858 -1237 -190 0
-1270 -759 -1939 0
1455 -1488 -433 -98 0
1701 -171 0
-1173 -1604 -1738 -1985 0
-883 -1997 0
-1358 -1830 0
488 -1549 -1629 -1806 0
91 -633 -453 0
-857 -74 -777 -1729 0
788 -1339 0
1058 -298 0
750 -919 -512 0
1603 -93 0
417 -1125 -261 -1963 0
246 -361 -1392 0
295 -827 -1881 0
-1922 -1848 -148 -1977 0
537 -786 -1739 -1716 0
1168 -1564 -450 0
-1591 -1994 0
1259 -1439 -1518 -1498 0
302 -774 -787 -1920 0
936 -1696 0
898 -1502 -1670 -285 0
-1720 -79 -1475 0
-309 -1188 -1704 0
-1911 -605 0
548 -1352 -103 0
1680 -860 -681 -1704 0
1361 -976 0
926 -1157 -1866 -1369 0
-954 -523 -286 -1655 0
1722 -1273 -657 -1713 0
1664 -319 -254 0
975 -68 0
60 -1090 0
707 -1718 -588 0
473 -1331 -1265 0
20 -933 0
353 -89 -803 -259 0
1346 -511 -275 -1030 0
744 -1803 0
677 -1679 0
241 -897 -1131 0
1872 -184 -813 0
806 -77 0
-230 -1268 0
-1081 -785 -673 0
1188 -219 -1409 0
934 -98 -1921 -1343 0
1426 -1846 0
1343 -1288 0
132 -807 0
-1254 -121 0
-1074 -1125 -1461 -1580 0
1761 -1252 -1675 -1448 0
451 -761 0
1574 -1601 0
1614 -578 0
-419 -1104 0
363 -1060 0
1388 -1874 0
66 -68 0
15 -1920 -1502 -1067 0
-984 -456 0
108 -1310 0
1246 -1704 -1018 -1969 0
1684 -514 -1268 -1990 0
-1445 -1835 -1367 -1409 0
-746 -914 0
366 -1734 -138 0
857 -200 0
1330 -1215 0
1551 -1683 -1718 0
-793 -653 -1002 -1910 0
173 -1595 -1971 -1028 0
-1304 -1096 -1067 -563 0
1458 -921 -1275 0
1345 -1094 -997 -499 0
1485 -319 -282 0
288 -1267 -1828 0
80 -1919 -1376 0
-1646 -242 0
471 -25 -1462 0
1667 -1730 -1369 -312 0
1271 -853 0
453 -40 -487 0
746 -1752 0
1743 -1310 0
-1618 -275 0
53 -1811 -798 0
-1732 -920 -408 0
1082 -1203 -1217 0
-1373 -5 -1917 -1915 0
1807 -242 -1232 0
1919 -1052 0
693 -1213 0
1284 -1583 0
1162 -1648 -1994 -1927 0
1939 -820 0
-523 -1549 -487 0
-596 -1727 -762 0
-1199 -1869 -355 -551 0
-1656 -1807 -1520 -1150 0
1173 -42 -965 -904 0
1896 -1880 -1870 -161 0
-1435 -1472 0
-474 -1485 0
732 -577 0
1555 -1524 -463 -1086 0
-667 -684 -1515 -31 0
1341 -563 -91 -1898 0
820 -1125 -761 0
-313 -122 0
388 -822 -1603 -1799 0
115 -713 0
1179 -1478 -925 0
-623 -161 -1437 -1492 0
433 -1064 -70 -362 0
-1157 -1466 0
762 -1241 -598 0
619 -1912 0
743 -16 -1339 -124 0
1462 -152 0
-574 -949 -1977 -1440 0
1460 -288 -366 0
-1549 -1194 0
1377 -1208 -296 0
787 -1533 0
677 -976 0
-830 -1392 -1879 0
38 -462 0
1739 -100 -1809 0
341 -699 -1899 0
-1789 -1905 -1083 0
1037 -1337 -1887 -1500 0
444 -753 0
-1648 -1623 0
-184 -1074 -625 0
415 -1328 -22 -57 0
676 -1899 0
1421 -739 -1411 0
-342 -638 0
-967 -189 -567 -623 0
-1079 -1681 0
182 -1508 -1471 0
1451 -211 0
1636 -1003 -1353 -1332 0
-1080 -1548 -384 -24 0
-1639 -220 -54 -1154 0
1659 -1960 -1993 -337 0
-743 -259 0
683 -1188 -1354 -720 0
-1741 -608 -1746 -285 0
1933 -698 0
-1486 -1365 -752 0
1154 -759 0
791 -349 -748 -1469 0
495 -567 -1541 0
322 -1429 -1962 0
1813 -525 -40 0
-26 -36 0
212 -1255 -1492 -1567 0
-1757 -1591 -382 0
678 -1740 -144 -585 0
309 -940 -1537 0
-46 -1266 -1628 -620 0
1495 -307 -785 -589 0
40 -1633 -1930 0
1493 -985 -1794 -296 0
1396 -1483 0
805 -1828 -1609 -278 0
960 -1181 -1816 0
1957 -1116 -1862 0
1052 -162 0
-732 -1684 -1768 0
1658 -974 0
-1204 -382 -164 -34 0
1095 -1458 0
973 -1240 -1905 0
123 -912 -517 0
580 -194 -1117 -1820 0
-129 -1218 0
1390 -454 -213 0
664 -1459 -204 -4 0
-1114 -1502 0
1143 -1651 -56 -230 0
1805 -1332 -1971 -488 0
836 -700 -741 -357 0
1441 -783 -1352 0
940 -1582 0
1279 -367 -955 -313 0
311 -1948 -228 0
-727 -1044 0
-424 -25 -783 0
1258 -1445 0
1599 -27 -945 -1926 0
-26 -1248 -1094 0
1495 -269 -1257 0
1341 -836 -108 -1629 0
1622 -991 -1295 -214 0
1644 -1907 -1090 0
-561 -637 0
-886 -1412 -1679 0
-1850 -733 0
588 -1305 -432 -743 0
-377 -1130 -1326 -1731 0
-1197 -711 -1544 0
-1843 -205 -1924 0
1970 -877 -1492 0
1601 -427 0
1047 -781 -953 0
872 -1008 0
-54 -747 0
-1349 -1205 -62 -21 0
-1163 -1918 0
-1313 -697 -1818 0
80 -1382 -1147 -544 0
-50 -1085 0
1878 -674 -404 -1840 0
1653 -593 -1624 0
1069 -1237 -1146 0
-1990 -1112 0
-486 -514 -1459 0
469 -1259 0
20 -525 -1569 -944 0
325 -74 -1773 -1703 0
1337 -122 0
401 -1666 -7 -662 0
-1695 -514 -198 0
-153 -1283 -1610 0
1488 -68 -1361 -844 0
-1449 -1711 0
-309 -441 0
1933 -287 0
103 -615 -1489 0
323 -803 -772 0
441 -130 -323 0
766 -555 0
1440 -965 0
1427 -1341 -1307 0
1353 -609 0
1707 -1601 -900 -211 0
-1672 -986 -1213 0
-1070 -1685 -1019 0
1539 -1082 -261 -799 0
633 -269 -275 0
-1195 -1668 -1764 -29 0
-1536 -1922 -1389 -1061 0
321 -845 -45 0
227 -1405 -509 0
-706 -403 -1675 0
-226 -1854 -1869 0
1732 -918 -156 0
1067 -1138 -497 0
51 -1095 0
1872 -1504 -1515 0
-239 -1409 -1167 0
890 -168 0
1586 -1915 0
832 -79 -1643 -443 0
91 -1510 0
-1778 -232 0
-643 -1296 -519 0
175 -913 -170 0
-1395 -1686 0
-1186 -254 -1763 -469 0
1764 -1127 -1956 -298 0
1666 -1650 -639 0
-1803 -124 0
-1513 -1877 -1526 0
1360 -419 0
837 -1016 0
1917 -355 0
1670 -1480 0
220 -1723 -1123 -83 0
1363 -1745 -458 -518 0
775 -1118 -1041 -1969 0
-1940 -1242 0
367 -1620 -1222 0
1958 -1162 -156 0
1826 -720 -117 -1580 0
1149 -739 -892 0
-93 -1833 -1443 -510 0
997 -204 -814 -13 0
274 -185 -1859 -1733 0
1945 -340 0
392 -1844 -659 0
1845 -185 0
1647 -787 -1505 0
109 -734 -1482 -381 0
1384 -1028 -770 0
753 -1492 0
282 -373 -1788 -603 0
1251 -803 0
705 -237 -878 -1464 0
1287 -300 -977 -1824 0
1977 -923 -188 0
-1010 -214 -48 -1004 0
811 -1447 -1820 -655 0
455 -1705 0
-471 -1211 -440 -383 0
1777 -835 -1770 -644 0
517 -1269 0
1234 -1623 0
273 -875 -452 0
57 -890 -1948 0
1260 -1914 -658 -1522 0
1406 -406 -1560 0
383 -880 0
833 -619 -1257 0
231 -1704 0
1696 -1505 0
-590 -1593 -68 0
-1064 -1089 -873 -1230 0
1506 -741 0
1084 -1405 -848 -296 0
1360 -159 -112 0
-96 -195 -1651 0
1214 -1976 -27 -139 0
1157 -782 0
791 -810 -58 0
1187 -116 -761 0
385 -731 -1218 0
1984 -1573 -365 -1183 0
15 -888 -247 0
1938 -921 -1302 -563 0
-714 -1254 0
522 -1813 0
-511 -822 0
-1939 -1499 0
389 -532 0
1386 -156 -1725 0
-274 -171 -1224 -890 0
1355 -362 -508 0
-852 -830 0
157 -531 -702 -1884 0
1799 -709 -502 -115 0
-1186 -734 0
1920 -289 -138 -1980 0
-1469 -1881 -964 0
803 -766 -1737 -1688 0
-958 -1385 0
176 -1933 0
315 -152 -1823 -1077 0
724 -393 -411 0
1686 -472 -1267 0
1207 -1666 -1058 0
-1265 -198 -1979 0
1347 -579 0
-683 -109 -1596 0
-1729 -1640 -1969 0
-587 -1698 -1581 0
1762 -485 0
-1148 -1798 -855 0
1790 -44 0
1602 -1850 0
1578 -1649 0
-922 -745 0
1771 -1436 -1874 0
-1757 -1544 -1814 -1908 0
114 -1327 -613 -824 0
-1641 -594 0
454 -1866 -1385 -811 0
-860 -272 -1585 -1639 0
1264 -1795 0
611 -599 0
1130 -5 -1309 0
1778 -29 -758 0
548 -1515 0
-944 -1089 -1220 0
1266 -1876 -1862 0
-1610 -1320 -1377 0
-1023 -952 -1758 0
1933 -570 0
-1648 -773 0
236 -1634 0
-161 -625 -1719 0
-521 -265 -1358 0
1212 -1573 -643 -1899 0
-1919 -885 0
-1249 -1927 -51 0
679 -114 -1223 -557 0
1452 -35 -1302 0
1592 -961 -867 0
909 -729 -700 -1937 0
493 -1471 -1350 0
-742 -464 -577 -1502 0
919 -1338 0
-1153 -65 -1994 0
248 -968 -203 0
-1207 -769 -1117 -1747 0
761 -1000 -508 -14 0
83 -991 0
203 -6 -1365 0
1412 -1721 -1685 -772 0
-1981 -1031 -27 -290 0
955 -36 0
780 -717 -270 0
321 -1982 -1351 -1090 0
-1171 -1466 0
1048 -1432 -546 -20 0
1014 -1661 -168 0
881 -524 0
854 -609 -1397 -1136 0
887 -301 0
954 -905 -1336 -605 0
-965 -845 0
950 -471 -1647 -1597 0
1190 -358 -843 0
352 -1320 -485 -1458 0
74 -1468 -1470 0
1459 -957 -711 -1225 0
1249 -1085 -510 0
-885 -923 0
1969 -1576 -1718 0
-1226 -1247 -1684 -1227 0
1991 -1747 -820 0
1058 -1787 0
1252 -554 0
429 -1040 -1663 0
1146 -1709 -1347 0
1329 -618 -316 0
-1055 -664 -1492 0
-550 -1853 -174 -755 0
770 -1408 -748 -794 0
1687 -777 -1951 -398 0
-1651 -1351 -367 -1109 0
148 -593 0
-600 -893 -552 -1085 0
1608 -823 -634 -1609 0
-1069 -573 0
-51 -1236 -1232 0
1146 -783 -776 0
470 -652 -1796 0
45 -395 0
1516 -1035 -525 -1337 0
187 -1761 -1285 0
-283 -1665 -532 -1227 0
1096 -785 -784 0
501 -1903 0
-38 -434 -1500 0
1302 -470 -919 -112 0
1634 -1866 0
-81 -1085 0
1852 -212 0
369 -196 0
-364 -1769 -236 0
-629 -1287 -1390 -1982 0
1345 -923 -1603 0
1003 -1679 0
-1902 -1942 0
1383 -1135 -1165 -1220 0
1366 -994 -168 -1604 0
1795 -1066 -704 0
-620 -388 0
1542 -1535 0
172 -787 0
1807 -1946 -425 -852 0
-83 -1269 0
381 -658 -277 -256 0
1359 -1899 0
-68 -1850 -308 0
1642 -683 0
1962 -828 0
-765 -68 -1321 0
847 -1810 0
526 -326 -1588 0
346 -521 0
-1786 -357 0
1948 -423 -711 -264 0
695 -801 -1890 -757 0
-1077 -1073 -896 -1845 0
278 -430 -689 -648 0
-1682 -878 -254 0
1993 -590 -3 -1887 0
670 -852 0
-959 -1807 -703 -5 0
347 -1924 -1257 0
595 -702 -877 0
-1677 -1500 -99 -1467 0
-1511 -167 -1484 0
687 -222 0
1485 -673 -1709 -1603 0
-1851 -370 0
250 -910 -462 -516 0
563 -1825 -1621 0
1991 -1803 -865 0
-372 -1028 0
-1104 -204 0
1241 -1725 -1078 0
1008 -133 -763 0
623 -958 0
218 -463 -545 -377 0
604 -1457 0
1634 -202 0
1788 -366 0
185 -191 0
-146 -85 -1549 -1583 0
-593 -323 -789 -1424 0
-279 -1317 -334 -1734 0
-284 -307 0
909 -665 0
1487 -1122 0
-1140 -13 -1579 0
536 -1308 -1429 -547 0
656 -448 -1816 0
603 -355 -1320 0
1568 -389 0
743 -991 -938 0
928 -908 -1134 0
108 -731 0
1952 -879 -863 -695 0
1761 -1542 0
287 -1377 -1979 -1654 0
1920 -1505 -571 -5 0
1407 -1674 -908 0
659 -1068 -246 0
-184 -1150 0
-1398 -1295 -53 -1452 0
1396 -1513 -1671 -886 0
1813 -81 -523 0
383 -1125 -1728 -1479 0
1500 -153 0
1911 -902 0
1677 -591 -1093 0
585 -141 -11 0
1391 -900 -187 0
59 -874 -1884 -44 0
1101 -553 -51 0
-1580 -907 -938 -1306 0
1005 -955 -1173 -533 0
-1543 -447 0
482 -604 0
278 -233 -1693 -1190 0
1149 -1124 -1995 -747 0
-142 -1288 0
1019 -1428 -151 0
-292 -1874 -338 0
926 -1401 0
1781 -383 0
-1880 -1437 -1402 0
257 -301 -1778 0
1400 -1950 -1168 -1612 0
-1799 -47 0
191 -310 -753 -6 0
1515 -1350 -1080 -1898 0
182 -301 0
1242 -853 -407 -109 0
-1462 -965 -1207 0
1150 -386 0
-420 -477 0
1512 -1927 -691 -1868 0
-416 -1188 -406 -1470 0
1155 -1599 -1701 0
1131 -894 0
161 -990 0
-687 -1309 0
1336 -1383 0
112 -492 -70 -640 0
1196 -14 -1130 -691 0
1590 -216 -1500 0
1015 -719 0
1746 -129 0
-283 -1684 -725 -1269 0
-1925 -1767 -115 -561 0
507 -1597 -183 -1907 0
-977 -776 -1049 -1588 0
1287 -1798 -1317 -1921 0
1076 -1491 0
-764 -315 -1880 -1868 0
926 -624 -1126 0
409 -687 0
426 -548 -959 -779 0
1482 -648 -297 0
-405 -1146 -717 0
-1807 -1324 -480 -1827 0
376 -1707 0
-1996 -1842 0
1644 -1992 0
625 -293 -830 0
-810 -1148 0
760 -1226 0
472 -1106 0
556 -1991 -1122 0
-850 -1681 -1495 -1664 0
1986 -1146 -1003 0
-1754 -623 -759 -1491 0
708 -415 -886 0
1510 -1621 -1027 -1882 0
871 -237 -1697 -494 0
1168 -1522 -1658 -1271 0
-1229 -984 -1274 0
348 -1577 0
1102 -1920 -459 0
589 -1247 0
636 -213 0
-1986 -549 -1027 -197 0
947 -1984 -1732 -629 0
1050 -534 -1927 0
207 -1925 -1447 -1116 0
1002 -62 0
-1990 -519 0
1859 -1888 -1206 -681 0
823 -1476 0
-1146 -1568 -1755 0
1394 -900 -1824 -420 0
-136 -1890 -1544 0
-639 -1106 0
-1712 -899 0
780 -633 -899 0
1698 -1703 -326 -623 0
286 -805 0
718 -983 0
1109 -356 0
1019 -1865 -1805 0
1101 -680 -856 -818 0
-17 -19 0
1270 -1188 0
200 -655 -659 -1301 0
-988 -828 -605 0
1623 -923 -892 0
17 -752 -717 -1843 0
-511 -115 -1152 0
-690 -517 -579 -1915 0
37 -536 0
747 -512 -580 -909 0
1784 -1975 -1457 -160 0
-1644 -1469 -1825 -919 0
1648 -1946 0
-451 -629 -141 0
1218 -1160 -636 -1220 0
1442 -522 -569 -187 0
-386 -759 -351 0
-287 -1700 -1227 -1315 0
109 -396 0
1182 -1505 -1970 0
-1162 -1237 -1192 -1302 0
1721 -564 0
-659 -815 0
431 -1089 -680 0
1933 -1469 -1011 0
679 -1768 -1484 -91 0
740 -1250 -275 -158 0
1125 -533 -900 -1867 0
1515 -1018 -1445 0
-1625 -277 -1622 0
158 -1605 -933 -448 0
372 -1508 0
-537 -636 0
906 -1739 -526 -748 0
1656 -269 0
760 -918 -520 0
67 -1971 0
1093 -1444 0
-1739 -980 -481 -565 0
266 -1663 -246 0
811 -210 0
1932 -1490 -614 -1008 0
-1579 -259 -854 -1995 0
-1796 -1051 -138 0
-714 -1485 -430 -1068 0
-753 -800 -821 0
811 -1494 0
1152 -168 0
983 -268 0
268 -759 -1396 0
963 -1020 -1070 -1185 0
824 -1082 0
954 -153 -529 0
986 -835 -9 -1856 0
60 -921 0
-1239 -1694 -583 -1886 0
-1576 -1134 -1605 0
-149 -591 0
-1836 -1306 0
603 -733 0
1945 -842 -605 -982 0
-1055 -1319 -1864 -78 0
52 -1081 0
-850 -1766 -671 -559 0
218 -1754 0
1150 -1498 -1402 0
1645 -204 -803 0
421 -1848 -149 0
-1602 -1035 0
-957 -111 0
1103 -487 0
852 -742 -346 -332 0
192 -174 -670 -626 0
1501 -1985 0
192 -15 -950 -1135 0
1892 -1832 -467 -903 0
1889 -870 0
-832 -190 -1023 -433 0
1068 -473 -703 -996 0
-2 -821 -535 -1350 0
-823 -740 -230 -1808 0
448 -891 -1195 -1201 0
1627 -354 0
345 -70 -925 -1863 0
1062 -1366 0
466 -1657 -1915 -1942 0
1212 -1466 -1998 0
-249 -1456 -1789 0
1044 -3 0
221 -85 -886 -1668 0
-66 -1644 0
776 -887 -643 -899 0
135 -1693 -1430 0
1896 -479 0
-689 -1712 -197 0
-1355 -620 -1976 0
347 -863 -1500 -782 0
553 -250 0
361 -1315 -1710 -704 0
1575 -1336 -1650 -1238 0
-1307 -1755 0
474 -1522 -872 -826 0
1528 -1587 -1956 0
1108 -1968 0
1518 -165 0
-207 -596 -1658 -1353 0
671 -1681 -13 0
-1551 -1430 -1668 -14 0
1648 -436 -475 -1854 0
1104 -450 -553 -694 0
1373 -1976 -984 -1622 0
1580 -1662 -1747 -1357 0
-1511 -836 -1210 -1261 0
1381 -1192 0
602 -1303 -630 0
1759 -1948 -1622 -495 0
1793 -1872 0
-1743 -1360 -1561 -1860 0
744 -1865 -528 0
-1963 -1740 0
479 -111 -321 -1852 0
1251 -1636 -1202 0
1088 -76 -1047 0
772 -1908 0
192 -276 0
1852 -946 -371 0
204 -1962 -1198 -1371 0
714 -1383 0
1381 -1489 -505 0
-1346 -1937 0
113 -154 -1518 0
540 -1154 0
1940 -1083 -864 -1176 0
-1781 -1238 -1896 -1693 0
430 -1213 -1455 -1316 0
693 -728 0
84 -494 -265 0
725 -80 -783 0
-817 -1402 -76 -1043 0
496 -1032 -1944 0
1145 -1346 -173 -763 0
113 -1917 0
361 -396 0
316 -1744 -1928 -1555 0
111 -670 -297 -1392 0
1283 -1187 -1938 0
1236 -1727 -1081 -805 0
692 -1889 -1503 0
362 -824 0
1557 -1181 -69 0
380 -1328 -786 -1764 0
227 -1235 -1692 0
840 -76 0
1747 -1202 -1427 0
1396 -118 0
-1867 -464 0
909 -211 -766 -22 0
685 -1069 -1575 0
-708 -1566 -1219 -1111 0
457 -754 0
-784 -1619 -1042 -355 0
-1071 -1924 -147 0
119 -1322 0
1842 -992 -1198 -1984 0
-1284 -13 0
246 -714 0
1988 -906 0
1685 -453 0
-1976 -678 -1273 -1208 0
-1101 -986 -1481 -1415 0
1775 -238 -1828 -66 0
756 -1129 -509 -916 0
1731 -1634 -1127 -1638 0
1127 -380 0
192 -1832 -52 0
1529 -1839 0
1939 -1991 -215 -38 0
858 -774 -1132 -1381 0
-43 -1703 -1155 0
-1546 -753 -1988 -730 0
-1735 -1191 -1843 -105 0
69 -4 -1325 -1143 0
-1372 -691 -467 -1257 0
709 -753 -925 0
501 -544 0
904 -762 -547 0
393 -908 -498 -58 0
-1438 -1800 -687 -982 0
-99 -93 -1808 0
260 -1443 -792 -1343 0
67 -663 -1779 -1686 0
1430 -535 -1037 -486 0
1791 -307 -766 -1282 0
1834 -268 -1687 0
-1228 -1473 0
1052 -1282 -802 -1819 0
1389 -1982 -461 -1535 0
-1225 -446 0
61 -253 0
488 -1049 -191 -1849 0
1738 -1819 -1556 -922 0
1601 -1754 -841 -595 0
812 -674 -865 -1876 0
-512 -625 -347 0
1595 -800 -1806 0
1316 -340 0
250 -1024 -798 -495 0
1703 -1528 -108 0
52 -1736 -1237 0
1265 -1439 -910 -111 0
1548 -21 -1229 0
907 -1896 0
-543 -1401 -699 0
-110 -1522 -251 0
1379 -349 -1295 0
366 -1863 -1190 0
388 -1584 -1959 -910 0
138 -602 -476 -1427 0
713 -222 -1390 0
-1860 -941 0
-270 -275 0
591 -1695 0
-635 -1368 -258 -630 0
148 -691 -534 0
-1997 -909 -65 -26 0
-687 -1607 -682 -1528 0
289 -823 -322 0
1366 -1487 -1799 -1010 0
1353 -1166 -746 0
-700 -1575 -1397 0
1906 -1778 -1051 0
60 -54 -724 -1813 0
1757 -1321 -656 0
1139 -493 -1181 0
543 -317 -525 0
733 -1404 -844 0
-1130 -318 -43 -1537 0
1065 -1547 0
1344 -779 -372 -344 0
1488 -1316 0
1552 -72 0
-1083 -287 -188 0
1665 -577 -297 -939 0
-1271 -245 -167 0
-1956 -216 -1261 -1650 0
-1064 -87 -227 -1181 0
766 -1233 -123 0
1449 -1135 0
768 -511 -1814 -1164 0
1836 -1056 0
826 -1910 -218 -1947 0
872 -1613 -1809 -202 0
-267 -1150 -1062 0
1197 -1607 0
760 -1515 0
1748 -517 -1234 0
37 -1277 0
1679 -1525 0
1963 -981 0
584 -1202 0
-1531 -1562 -524 0
243 -1692 -1096 0
580 -909 -729 -1792 0
-1172 -842 -1095 0
-1925 -404 -144 -1915 0
636 -1483 0
1321 -471 -1107 0
1732 -1670 0
373 -533 -1546 -1233 0
1936 -1170 0
1179 -565 -1369 0
-1150 -453 -1446 -721 0
-1740 -162 0
468 -1834 -1147 -1112 0
1285 -1719 -1356 -766 0
337 -271 -1071 -1951 0
-1684 -511 0
650 -1719 0
102 -1061 -492 0
1425 -1560 -788 0
415 -1927 0
397 -1510 0
280 -882 -1091 0
958 -195 -513 -280 0
292 -261 -1434 -976 0
401 -1811 0
-1145 -1441 -1018 0
-1484 -724 0
77 -800 0
1204 -702 -730 -1027 0
998 -1493 0
1750 -1595 0
1170 -110 -58 0
705 -1214 -1700 -1555 0
-708 -845 -1401 -36 0
487 -250 0
1920 -675 0
-1525 -800 -1279 0
687 -266 -767 0
242 -692 -86 -1082 0
1680 -1632 -466 0
-614 -501 -1523 -1397 0
136 -700 -1305 -134 0
962 -960 0
1377 -135 -445 -232 0
-685 -1093 -728 0
1113 -1189 -1988 -1199 0
124 -957 -1700 -1774 0
1837 -1691 -1223 0
890 -1701 0
114 -1904 -1422 -331 0
388 -899 -1834 -1034 0
-1469 -1132 0
1348 -1484 -43 -109 0
959 -1384 -1518 -1984 0
1726 -1052 0
-584 -1851 -1310 -378 0
-1215 -817 -85 0
-518 -324 -1893 0
1307 -1403 -1764 0
1448 -1500 -1904 0
-619 -1233 -572 0
288 -753 0
408 -481 -367 -932 0
1253 -1531 -692 -1179 0
931 -989 -1630 -1901 0
1439 -1008 -1009 -457 0
1337 -1156 -1591 0
992 -1747 0
1117 -1049 -1462 -1481 0
155 -1354 -1819 -1210 0
-1095 -93 -1374 -352 0
83 -1856 -449 -1366 0
6 -1120 0
1121 -1990 -405 0
350 -788 -1106 0
299 -1658 -49 0
-1621 -1043 0
-623 -515 -1453 -396 0
-201 -977 -1279 0
1466 -704 -216 -1142 0
-1300 -207 -1092 -1777 0
729 -1739 -390 0
-494 -974 -598 0
-1163 -1865 0
1969 -1558 -867 -1162 0
1176 -1357 -1191 0
1221 -333 -1097 0
1168 -199 -713 -1589 0
1049 -1195 -774 0
1574 -887 -1544 0
-1573 -1570 -1522 -1976 0
1031 -1903 0
194 -365 -762 -769 0
1510 -824 0
473 -1495 -1103 0
185 -494 -781 0
815 -64 -1520 -1150 0
-1241 -1222 -924 -998 0
1879 -618 -724 0
1162 -78 0
1523 -1704 0
1997 -1169 0
55 -376 -38 0
1308 -932 -1556 -114 0
-1633 -1291 -1804 -389 0
1243 -1691 0
622 -781 0
576 -481 -1073 -1460 0
345 -1051 -163 -608 0
502 -999 0
-284 -688 -1985 0
977 -1638 0
796 -1387 0
-114 -407 -295 -1232 0
1353 -1094 0
1610 -1173 0
145 -298 -1260 -619 0
965 -534 -1226 0
232 -1155 -1092 -1806 0
-823 -1394 0
-379 -905 0
1855 -484 -839 -1279 0
1469 -1073 -924 0
1379 -1536 0
1579 -389 -5 0
1210 -1048 0
957 -1911 -1203 -847 0
1358 -1209 0
1511 -1044 0
129 -1126 -497 -1388 0
524 -814 -101 0
955 -1251 -1447 -1273 0
749 -1117 0
-1994 -209 0
1833 -1931 -173 0
922 -1561 -1923 0
1005 -254 -639 -1336 0
253 -103 -661 0
1126 -301 -962 -386 0
608 -1790 -128 -1311 0
-267 -324 -1380 0
1421 -307 0
603 -530 -1550 -1013 0
1380 -1021 0
1934 -1886 0
948 -1751 -652 -388 0
609 -84 -1040 0
-1552 -174 -993 0
1022 -542 -1013 0
1748 -589 -1422 -826 0
-1575 -949 -1412 0
141 -938 0
-1125 -1333 -1309 0
129 -314 -144 0
1463 -1832 -1652 -796 0
-1933 -301 -27 0
351 -341 -1240 0
742 -1082 0
210 -1178 -1738 0
-1902 -242 -671 -1123 0
-333 -36 -1543 -907 0
710 -1554 -1601 0
1277 -170 -1346 -1868 0
-891 -662 -172 0
1324 -921 -639 0
1118 -908 0
940 -1233 -738 -1168 0
790 -160 -914 -194 0
-1277 -1022 -1331 0
-59 -1930 0
1961 -1400 -963 -647 0
-12 -1677 0
-474 -711 -1569 0
510 -500 -696 -1373 0
-881 -1493 -259 -75 0
1284 -1230 -907 0
1506 -1056 0
1294 -260 -813 -1448 0
1405 -347 -1491 -810 0
1100 -294 0
47 -703 0
1159 -1153 -1608 0
430 -824 -539 0
1983 -814 -1753 -1281 0
364 -319 -1194 -1128 0
1044 -1876 -1677 -1993 0
-1039 -1852 -1402 0
1419 -143 -1056 -998 0
829 -847 0
609 -304 0
-1347 -1760 -1372 -475 0
-1489 -909 0
1250 -1307 -585 0
1144 -609 -312 -1299 0
19 -983 -117 -1044 0
204 -691 -436 -513 0
1863 -1834 0
1562 -1133 0
-1105 -1476 -411 0
1916 -698 -912 -1086 0
1038 -1296 -1536 0
-114 -98 0
882 -1136 0
377 -945 0
814 -1551 -1803 0
1550 -1993 -890 -1015 0
-1845 -1716 -897 -867 0
-828 -1838 -1747 0
168 -1612 -515 -1034 0
-67 -1924 -355 -878 0
1433 -411 -1933 0
672 -1759 -1133 -1391 0
60 -951 -1882 -1543 0
-141 -489 -66 -632 0
131 -704 0
-518 -1596 -1918 -836 0
1359 -681 -1480 -1606 0
1119 -602 -1183 -69 0
656 -763 -517 0
705 -1348 0
-1596 -681 -1625 0
1371 -1058 -1656 -26 0
1874 -1556 -871 0
-122 -1656 -883 0
1733 -1056 -375 -234 0
1150 -184 -1457 0
-1280 -767 -233 -253 0
108 -1226 -739 -529 0
1387 -1828 -912 0
-1020 -308 -1753 -996 0
1928 -1960 0
512 -1480 -748 -475 0
1787 -1673 -1533 -1478 0
1959 -962 0
729 -80 -1407 -1170 0
-476 -1856 -390 -1763 0
839 -52 0
-1920 -1386 -1511 -1004 0
-789 -865 0
137 -1477 0
-457 -968 0
-1450 -408 -1182 0
-24 -1579 -1747 0
1965 -1984 0
1081 -1764 -961 -767 0
-1056 -581 0
528 -1271 -1230 0
1982 -419 -435 -1060 0
406 -1703 0
295 -1341 0
375 -1427 0
980 -1429 0
245 -1725 -1390 0
657 -1191 0
280 -137 -431 -1826 0
-1561 -1270 -1784 0
-868 -741 -658 -381 0
1606 -546 0
1796 -415 0
374 -1651 -1167 -1158 0
1718 -1474 -1638 -932 0
-303 -477 0
766 -1736 -1314 -1565 0
98 -923 -1328 0
-266 -127 -168 0
809 -856 -1139 0
1992 -1488 -1032 -1683 0
838 -1763 -72 0
1343 -1502 -35 0
94 -21 0
1137 -174 -1906 -71 0
871 -1902 -1419 -67 0
1572 -448 -523 -317 0
1077 -919 -278 0
235 -1721 -678 -1707 0
1553 -1334 0
1823 -426 -1212 -561 0
-613 -267 -285 -610 0
905 -1442 -8 -775 0
-1233 -1118 0
-99 -221 -617 -189 0
19 -1850 -429 0
-805 -1877 0
357 -75 0
1384 -960 0
-470 -1907 -871 0
-1349 -473 0
725 -649 0
-1885 -1239 -1031 -1168 0
1980 -176 0
-1738 -382 -316 -246 0
1398 -978 -937 -1342 0
1517 -955 -1350 0
1710 -105 -1379 -1427 0
1921 -461 0
637 -1526 -654 0
1239 -1593 -143 -1907 0
702 -716 -1397 0
1408 -1903 -1190 0
1521 -941 -1966 0
-1710 -1539 0
1533 -277 -1937 -347 0
-161 -136 -1669 -1089 0
-1012 -1001 -526 0
294 -1024 0
805 -1949 -59 0
1973 -1082 0
-1709 -1659 -1295 -1610 0
-1883 -63 0
-195 -496 0
-1842 -1155 -859 0
237 -883 0
1950 -1856 0
652 -806 -613 0
313 -1968 -400 0
-470 -89 -598 -1424 0
422 -820 0
758 -403 0
-409 -1016 -329 -1582 0
-1754 -566 -1047 0
-1667 -1903 -1550 0
1543 -271 -1920 -1910 0
1285 -284 0
-906 -1181 0
907 -70 0
-891 -150 -446 0
635 -1112 -872 -273 0
1206 -1546 -306 -251 0
1246 -1223 -1809 -572 0
1771 -24 0
1160 -487 0
1480 -892 -1089 -604 0
1914 -634 0
-1579 -539 -384 0
1898 -1209 -1449 0
-569 -450 -438 -398 0
1885 -1749 -792 0
257 -535 -1171 0
1985 -729 -1021 0
661 -337 -1286 0
-593 -1545 -1126 0
208 -1812 0
-734 -1658 0
1301 -1858 -590 -660 0
-1288 -1900 -1422 -1930 0
1377 -1884 -260 -560 0
-1514 -1220 -1176 0
1680 -908 0
582 -791 0
-1584 -183 -654 -1435 0
-1335 -1887 -1029 -968 0
1109 -319 -948 0
-1725 -165 -760 0
-1315 -36 0
255 -185 -229 -125 0
-993 -8 0
-137 -126 0
880 -1777 0
1749 -1000 -965 0
-290 -1885 -1848 -94 0
-1646 -1721 0
597 -1063 -1960 -1855 0
-402 -659 -553 0
363 -1376 -1944 -1219 0
629 -1626 -146 -1609 0
988 -1545 0
-1856 -1782 -410 -347 0
1546 -1790 -1645 -551 0
1252 -20 -17 0
-1830 -304 -767 -447 0
565 -1945 0
441 -1542 -562 0
-1627 -466 -1420 0
1065 -822 0
-236 -1470 0
-427 -901 -1915 0
57 -355 -383 -1063 0
-1288 -827 -1039 -1550 0
-583 -1376 -17 -1854 0
-1278 -217 -56 -181 0
650 -1201 0
-1973 -538 0
207 -837 -61 0
-1258 -219 0
271 -356 -1833 0
524 -348 -161 0
1426 -565 -890 0
-882 -674 -1474 0
1795 -1423 0
-1873 -1627 0
752 -1302 -1260 -136 0
600 -842 -1368 -797 0
-501 -1399 -1020 0
1508 -1834 -155 0
-952 -1404 0
749 -290 -331 -1683 0
-341 -105 0
1719 -655 -1 0
672 -1159 -289 0
1508 -1538 0
508 -668 -79 0
1923 -1250 -1665 0
527 -524 0
615 -779 -1333 0
873 -491 -859 -50 0
-846 -1278 0
981 -282 -370 -464 0
786 -167 -1212 -697 0
1050 -1687 -1083 -822 0
-1337 -1420 0
271 -92 0
-916 -1141 -530 -51 0
1075 -1357 -846 0
1609 -738 -1331 0
-1353 -609 -1383 0
855 -1940 -1098 -1873 0
942 -1980 -257 -1609 0
-759 -766 0
1668 -877 -1100 0
389 -1708 -1638 -296 0
385 -517 0
1004 -615 0
-1286 -1210 -364 -1498 0
-1673 -1019 -1826 0
-1225 -1251 -557 0
1451 -1469 -122 0
1638 -1965 -693 -1084 0
-204 -1958 0
-627 -1766 -1122 0
1132 -522 0
1885 -879 -677 -1436 0
-1247 -1588 -1812 0
683 -593 0
443 -1337 -495 0
1693 -923 -895 0
1392 -696 -334 0
875 -1064 -1874 -1765 0
569 -1787 0
609 -1662 -1721 -268 0
-2 -1420 -1739 -437 0
890 -1387 0
955 -1938 -1025 0
692 -1253 0
1420 -924 -1122 0
885 -1151 -364 0
1371 -1918 -554 -960 0
-1388 -606 -374 -1608 0
-1717 -1102 0
1181 -869 -1570 -1851 0
652 -363 0
-1504 -1361 -1934 -314 0
1049 -994 -1720 0
955 -775 -4 0
592 -1805 -63 -1531 0
-159 -1417 0
-567 -1339 -1790 -312 0
-666 -1803 -1527 -678 0
1089 -1708 0
110 -746 -753 0
-202 -157 0
1724 -1636 0
-462 -1849 -944 -1490 0
1457 -670 0
-1859 -1212 -1124 0
1410 -1608 0
-1772 -937 -817 -1641 0
914 -1896 -1871 -1722 0
-880 -1916 -1345 0
831 -1777 -1669 -344 0
-265 -988 -927 -1630 0
-654 -1457 0
-1491 -623 -646 0
-814 -458 -1149 0
1341 -1846 -1496 0
-1337 -554 -743 0
1610 -738 0
1231 -585 -11 -1455 0
-295 -724 0
1831 -345 -641 0
-1749 -1985 -1911 -901 0
1068 -1401 -871 0
-1157 -649 -529 -1673 0
392 -322 0
1646 -1589 -61 -810 0
-1522 -945 -426 0
516 -748 0
-795 -1043 0
1407 -1386 -1856 0
722 -545 -1282 0
1965 -639 -753 -1173 0
1769 -1668 0
-378 -1587 0
846 -1393 0
1613 -668 -787 -1816 0
1916 -118 0
-1455 -132 -1251 -451 0
-919 -702 -1604 0
723 -371 -1713 -1290 0
-968 -1608 -816 0
-919 -158 -76 0
1337 -83 -1230 0
1597 -334 0
1260 -1939 0
1164 -913 0
1942 -242 -1018 0
865 -1377 -162 0
-1054 -1978 -1820 -80 0
846 -525 -1447 0
998 -1336 -1078 -398 0
1171 -1456 -473 0
1781 -1836 0
1916 -1490 -615 0
615 -557 -1312 0
-1934 -706 0
1226 -744 0
-1901 -1034 0
1675 -1187 -1230 0
-1135 -424 -562 -1395 0
1447 -1820 -824 -274 0
649 -1646 0
800 -316 -1147 -1017 0
1364 -1293 0
-702 -821 -91 -355 0
1561 -331 -546 0
1605 -158 -1613 -883 0
587 -1062 -164 -1418 0
1466 -1415 -1744 0
821 -1242 0
-564 -1214 -656 -849 0
900 -578 -1982 -1321 0
1567 -378 -1323 -479 0
-532 -300 0
48 -1780 -1039 -377 0
-969 -415 -1546 0
-778 -287 -98 -1905 0
1520 -1481 -594 0
1395 -795 -510 -391 0
540 -612 -611 0
312 -774 0
-604 -1601 -791 0
568 -197 -205 -1725 0
552 -1631 -1861 0
-1053 -368 -1242 0
1341 -189 -1139 -1799 0
1322 -1179 -1368 -715 0
-56 -533 0
-655 -1070 -1858 0
815 -1841 -38 -462 0
-105 -1400 -262 -822 0
839 -19 0
1376 -930 -417 -1127 0
1186 -233 0
-1816 -1414 -1064 0
463 -1908 -1796 -561 0
1206 -1654 -829 -915 0
-951 -980 -705 0
467 -1281 -1153 0
156 -1312 0
-210 -1586 0
1108 -1446 -1359 -656 0
147 -101 0
27 -848 -1388 0
88 -183 -1719 -1816 0
-46 -591 -1770 -1815 0
1211 -1408 0
1476 -1268 0
-1718 -1134 -337 -1744 0
1813 -1708 -967 0
1162 -555 -1011 -625 0
-890 -856 -447 -760 0
579 -1693 -1060 0
109 -884 -1920 0
1836 -352 -1762 0
642 -579 -1235 -1856 0
-231 -1501 -480 0
134 -798 -496 -883 0
1170 -1055 -933 -145 0
1521 -568 -1000 0
667 -1698 -526 -558 0
860 -580 -1784 -649 0
1804 -404 -572 0
-591 -83 -1092 0
976 -797 -471 -1109 0
1466 -586 0
1055 -1194 -625 -1034 0
1310 -342 0
-507 -653 -628 0
769 -466 -1194 -1292 0
-450 -1264 0
1671 -991 0
1118 -1781 -1355 0
1429 -1973 0
461 -578 -406 0
707 -136 0
1081 -372 0
-465 -1180 0
1129 -1649 -875 -1251 0
-432 -1909 -1337 -60 0
277 -393 -883 0
1597 -1453 -721 0
188 -1919 -1361 -104 0
1914 -334 -393 -1938 0
91 -766 -1307 -1011 0
1985 -1142 -1443 0
384 -484 0
812 -617 -1531 0
-1471 -1257 -1208 -1701 0
962 -1719 -1077 0
-555 -339 -1996 0
-1744 -1617 0
194 -1721 -537 0
1780 -143 0
865 -417 -95 -1748 0
1474 -504 -802 -1844 0
940 -1385 -793 0
1110 -146 -1050 -1302 0
1852 -950 -1252 -1568 0
-1606 -1853 -234 -963 0
-1580 -238 -110 -1910 0
1281 -1469 0
530 -128 -549 0
1169 -1620 -1043 -939 0
1576 -228 -1625 -379 0
1499 -630 0
1188 -1600 -101 0
-104 -1276 -651 0
222 -1476 -203 -441 0
-501 -1361 -1765 0
1415 -1842 0
1812 -1364 -94 -1289 0
971 -1367 0
1457 -389 -1969 0
-1794 -1844 -239 0
881 -1923 0
514 -1647 -1136 -146 0
-786 -1884 0
1234 -1046 -298 -1345 0
849 -800 0
1705 -46 0
1347 -685 -1083 -1723 0
1992 -1647 -746 -1735 0
1263 -925 0
1707 -1323 -581 0
836 -1331 0
442 -777 -1417 0
191 -327 -926 -941 0
1003 -732 0
131 -167 -845 -815 0
1927 -1405 -320 -1310 0
174 -1952 0
1631 -1901 0
482 -1146 -1160 0
1016 -992 -306 -109 0
1063 -1456 -1819 0
1942 -1438 0
-1160 -842 -512 -1154 0
368 -1803 0
456 -943 -94 -1868 0
-476 -1262 -1689 0
1022 -135 -1861 0
1360 -188 -470 0
-1434 -351 -1818 -1815 0
1360 -1526 -722 0
-184 -309 -1835 0
185 -575 0
309 -1130 -113 0
1985 -777 0
61 -66 0
229 -100 -841 0
1796 -514 -31 -225 0
471 -1551 -434 -1645 0
-1192 -93 -1534 -1958 0
-1547 -1516 -1233 0
-399 -336 -1623 -1961 0
1491 -846 0
-1130 -609 -548 0
889 -463 -1206 0
1184 -52 0
-847 -685 -796 -183 0
-1487 -392 0
224 -1969 -941 -1342 0
1279 -1069 -1179 0
-1395 -931 -745 -1052 0
1202 -495 -480 -1799 0
-1216 -1951 0
663 -1672 -714 0
88 -960 0
1052 -959 -590 -232 0
1998 -58 -1282 -585 0
170 -1814 -1027 -36 0
742 -1841 -229 0
728 -1767 0
432 -1196 0
314 -1605 0
13 -343 -1942 -234 0
1290 -531 -733 0
1821 -1759 -1071 0
449 -1513 -872 -374 0
-1527 -1887 -1083 0
-760 -1920 -1120 -270 0
821 -462 -1276 -1541 0
1800 -1730 -306 0
-2 -216 -1014 0
1140 -1987 -1901 0
1186 -1866 -1906 0
1736 -1849 -460 0
131 -688 0
401 -1347 -1265 -852 0
769 -142 0
509 -1244 -24 0
51 -873 -1369 0
698 -871 -398 -876 0
1564 -1768 -1916 0
1070 -1789 -1233 -87 0
263 -93 -1095 0
678 -1332 -1612 -352 0
-1644 -1206 0
1411 -1427 -971 0
-1762 -131 -1578 -1954 0
-1721 -178 -1136 0
755 -1651 -512 0
1038 -1950 0
-1368 -469 -978 -318 0
-292 -1086 -52 0
-1619 -1968 -1597 -1582 0
64 -706 0
191 -451 0
1976 -634 -522 -1856 0
1157 -1906 0
1867 -906 -582 0
484 -228 0
1933 -1526 -176 0
1951 -529 0
-1079 -968 0
430 -253 -136 0
12 -1530 0
446 -1194 -246 0
360 -120 0
1808 -1778 -235 0
323 -1779 -856 0
1113 -93 0
1313 -433 0
259 -333 -1087 0
782 -651 -1449 0
-547 -1301 0
-387 -1077 -1237 -832 0
1223 -1381 -332 0
1203 -889 -865 -246 0
924 -1004 0
556 -1851 -1370 0
1698 -715 0
-1482 -1268 0
1187 -1171 -1271 -420 0
1012 -310 0
-824 -878 -556 -368 0
771 -1719 0
450 -1920 -684 0
-1685 -587 0
343 -1354 0
787 -596 -1273 -1033 0
1383 -928 0
-1041 -175 0
-1261 -1785 -261 0
1177 -1871 0
884 -219 -1569 -1989 0
1978 -305 -1199 -1181 0
1021 -323 -991 -64 0
1791 -1584 -114 0
786 -456 -1811 -1137 0
-927 -346 -471 -47 0
1435 -792 -343 0
-843 -1660 -1192 0
-1457 -551 -315 -1568 0
1767 -898 0
-669 -136 -1999 -1404 0
-1544 -1322 0
1965 -408 -1476 0
-772 -1615 -1686 0
1484 -747 0
586 -1671 -1523 0
-1138 -1135 -93 0
-686 -1064 -971 0
-1438 -1089 -1059 0
-135 -1878 -279 0
551 -472 -1624 -904 0
1918 -834 0
-1536 -1132 0
785 -1718 -1783 0
1700 -1986 -660 -52 0
668 -676 0
890 -637 -1931 -986 0
157 -680 0
636 -379 -240 -1087 0
395 -1204 -1225 0
293 -1766 -433 0
25 -1036 -1500 -700 0
839 -1398 -729 -670 0
761 -1400 -365 0
847 -1477 -350 -1627 0
-1905 -1690 0
-1107 -706 -966 0
1374 -623 -803 -283 0
1232 -318 -650 0
1484 -1572 0
-1910 -1571 -1429 -1503 0
1827 -606 -142 -1361 0
1803 -592 -838 -1877 0
-303 -1633 -341 0
-171 -543 -1241 0
440 -1927 -1598 -479 0
-624 -126 0
1577 -315 -768 -1061 0
-521 -949 0
461 -28 0
1040 -1291 -819 -40 0
-1839 -435 -1566 0
236 -446 0
-1656 -1438 -85 0
1994 -1957 -643 0
1730 -1082 0
1004 -815 -730 0
4 -1865 0
605 -1968 -995 -1838 0
1027 -1187 -1974 -1168 0
920 -16 -138 -1582 0
1353 -1786 -782 0
1877 -1633 0
952 -1711 -685 0
1728 -1566 -799 -865 0
-428 -1296 -1625 0
-490 -1700 0
151 -1231 -779 0
540 -15 0
1066 -468 0
898 -1506 -82 -1717 0
1780 -594 -669 -1064 0
116 -1416 0
-1497 -1597 0
1853 -1531 0
277 -1630 0
256 -333 -1915 0
203 -813 0
219 -537 -1355 -744 0
974 -1509 0
-368 -894 0
1475 -1639 -694 0
1453 -982 -1582 0
-247 -1115 -573 -1594 0
-327 -199 -1320 0
456 -558 0
834 -209 -909 0
-831 -1019 -965 -1362 0
306 -450 -1468 0
329 -1842 -1688 -409 0
1854 -290 0
329 -940 -1028 -877 0
1770 -1107 0
1478 -1125 -832 0
-1252 -274 -330 0
374 -191 -576 0
1093 -961 -1757 -1324 0
-172 -1898 0
-1163 -155 0
667 -375 -1391 0
1355 -1327 -1073 -504 0
-1899 -1824 -1457 -626 0
202 -1591 -530 -571 0
768 -292 -1728 0
254 -952 0
668 -1665 0
993 -1019 -351 0
283 -1547 -1698 -905 0
360 -1084 -705 -858 0
-690 -1360 -170 -494 0
468 -842 -467 -1275 0
-103 -739 -384 -128 0
1801 -1436 -607 0
1679 -760 -1854 -1724 0
-1736 -1424 0
-1158 -1994 -374 0
-329 -117 0
710 -979 0
1445 -1601 -1500 0
-1663 -457 -1356 -20 0
139 -1968 -1173 0
622 -1671 -1989 -206 0
1292 -360 -1283 -1656 0
1501 -1533 -1635 -270 0
352 -281 0
709 -234 0
376 -27 0
614 -1702 -158 0
1390 -1253 0
1598 -779 -1864 -1836 0
625 -719 -1441 0
-1357 -1128 0
-1004 -1914 0
-1667 -1337 -1909 0
-180 -1687 -770 -1269 0
876 -642 -1638 -303 0
1072 -488 0
-77 -1498 0
1553 -841 -811 -1446 0
846 -1883 0
1276 -569 -547 -961 0
1497 -1706 -531 -1840 0
1616 -649 -1074 -1215 0
-1205 -441 -519 0
1645 -565 0
1523 -17 0
1441 -231 -1377 -378 0
-104 -449 -597 0
1968 -484 -288 0
-554 -906 -646 -1428 0
1006 -1131 -1327 -1038 0
-261 -1012 -1917 -674 0
-1914 -263 0
1835 -1632 -337 0
597 -1819 -661 -620 0
533 -1136 0
1126 -260 -1507 0
-1157 -1097 0
719 -372 -81 0
1896 -1186 0
-1072 -977 -649 -1788 0
-1158 -608 -135 -198 0
-389 -1072 -1942 -1014 0
536 -1749 0
166 -264 -1906 0
1973 -329 -473 0
29 -1888 -1671 0
191 -1648 0
1305 -359 -1057 0
-241 -1116 -411 0
-899 -1355 0
1390 -736 0
413 -139 0
-920 -1163 -1233 0
1517 -1943 -549 0
-1347 -1077 -773 -1631 0
682 -349 0
1047 -1119 -479 0
1824 -1614 -93 -1764 0
564 -91 -552 -317 0
-1772 -546 -182 -912 0
1571 -1179 -286 0
878 -237 0
195 -1353 0
-469 -439 -819 0
1786 -1721 -465 -1943 0
1956 -540 0
282 -1429 0
1339 -845 -1540 0
1504 -829 0
851 -771 0
1984 -1066 -1129 0
242 -1958 -1308 -258 0
1899 -537 0
1716 -1175 0
112 -1979 -910 -78 0
1597 -733 -1361 -247 0
499 -1089 -277 -1796 0
644 -1829 -1784 0
664 -1583 -817 -1052 0
-1491 -1615 0
-1487 -756 -1010 -535 0
1817 -1922 0
-816 -574 0
-1593 -452 0
-694 -1797 -1728 -729 0
1429 -1770 0
1595 -858 -204 0
-31 -1030 -1696 0
1640 -223 -1375 0
1522 -1695 -607 -1904 0
-1170 -943 0
422 -1807 -1216 -39 0
165 -1948 -1475 -348 0
-1247 -109 0
1335 -1156 0
-644 -324 -1541 0
528 -1335 -948 -480 0
154 -420 -95 0
243 -1864 -716 -1749 0
788 -466 -650 -1016 0
-1496 -666 0
-1350 -394 -1611 -598 0
-1270 -1679 -263 -885 0
1282 -523 0
1943 -387 0
806 -1678 -1 0
447 -941 -1082 0
-1641 -887 -1155 0
236 -1885 -1110 -285 0
622 -1297 -1210 -127 0
1958 -767 -530 0
676 -895 -517 -1830 0
1316 -1983 -1809 0
1176 -338 0
35 -962 -1490 0
934 -1450 -114 -1421 0
190 -1199 -601 0
285 -1495 -682 -1983 0
1829 -714 -123 -574 0
1142 -1481 -1431 0
1481 -1996 -1863 0
281 -1576 -195 0
873 -1605 -63 -1334 0
1484 -1433 -1300 0
1981 -1845 0
1699 -1059 -853 -1224 0
-1206 -1910 -868 -1811 0
375 -498 -43 -140 0
-157 -1257 -1652 0
1309 -353 -863 -1566 0
1568 -486 -1855 0
1595 -1387 -551 -1828 0
523 -410 0
-1443 -146 -463 -1687 0
313 -815 -452 0
-176 -1118 0
521 -748 -1771 0
-535 -1679 -178 -847 0
1017 -855 -189 0
-461 -719 -2000 0
-747 -208 -595 -753 0
201 -408 -63 0
1530 -469 -1379 0
-1405 -1169 -1257 0
1791 -1736 0
1916 -1181 -1973 -1023 0
-1298 -1757 -856 -1803 0
1394 -1776 0
1734 -1831 0
-560 -1503 -112 -195 0
1347 -1916 0
800 -1932 -374 0
141 -663 -560 0
159 -1557 -436 0
46 -1973 0
1665 -5 0
-1157 -1378 -445 -1492 0
-753 -874 0
1182 -406 -1737 -952 0
1303 -1692 -1667 -356 0
399 -1172 -93 -1307 0
440 -1406 -996 0
1669 -932 -201 0
-812 -171 0
1152 -151 -232 -1220 0
1860 -626 -368 -388 0
241 -403 -668 0
1184 -1734 -1989 0
-1067 -1667 -1526 -1637 0
294 -1019 -468 0
1233 -363 -312 -1004 0
728 -1202 -1620 0
-1794 -861 -1957 -1415 0
1408 -385 0
814 -393 -1575 0
716 -1 0
1007 -1533 0
343 -1621 -781 0
389 -716 -523 0
227 -168 -686 0
1709 -1580 0
662 -1719 -1755 0
1214 -948 -1449 -593 0
1753 -1884 -1132 0
412 -1626 -1832 -381 0
50 -274 -1618 0
1523 -583 -352 0
812 -1208 0
-746 -1572 -447 0
1683 -374 -1542 0
-1287 -99 -797 -1529 0
1407 -1329 -577 0
-979 -895 -1140 0
1641 -1277 -1350 -1159 0
-1941 -584 -1806 0
623 -1642 -1868 -784 0
1644 -713 -1728 -1075 0
1117 -1281 -206 -1929 0
1801 -253 -1574 0
-1380 -1232 0
1172 -651 -764 0
1790 -457 0
608 -1215 -955 -1512 0
966 -1123 0
408 -1011 -1073 -420 0
17 -1766 -307 0
1353 -560 0
1160 -255 -165 0
425 -1127 0
781 -1454 -580 0
503 -177 -1873 0
1673 -135 -1794 0
1577 -411 -281 -1309 0
1506 -1333 -1540 -146 0
-489 -1503 -699 0
714 -769 0
-162 -88 -773 0
785 -339 -876 0
1746 -777 -1051 0
-160 -1263 -560 0
1381 -259 -501 0
1153 -115 -1968 0
-1265 -331 -141 0
-1909 -1703 -1324 -870 0
-1019 -762 0
1034 -1569 0
1329 -507 -668 -1310 0
1004 -953 0
1348 -224 -690 -348 0
519 -869 -174 -1295 0
-273 -1335 0
302 -1743 -737 -1986 0
1763 -1603 -1903 0
-1252 -932 -1037 -421 0
871 -234 -1832 -556 0
1463 -1646 -49 -215 0
1214 -889 0
-1950 -1748 0
-47 -866 0
1581 -883 -1233 0
1454 -1802 0
1799 -1167 -1483 0
194 -329 -747 -631 0
-1911 -683 -114 -438 0
-921 -702 -1520 0
817 -942 -673 0
-386 -1147 0
441 -1894 -528 -1781 0
-468 -535 -465 -1398 0
1649 -455 -1745 0
1985 -46 0
901 -1837 0
-773 -1280 -55 -1950 0
-459 -350 -19 -493 0
-1413 -1814 -385 -1457 0
89 -390 0
774 -326 -101 -1058 0
1196 -343 -1432 -1939 0
368 -1928 -1271 0
1421 -1528 0
1312 -744 0
108 -1801 0
1017 -1326 -489 0
263 -1772 -860 0
-785 -1214 0
710 -603 0
1884 -1917 -1686 0
1777 -536 -1841 0
690 -80 0
241 -1602 0
848 -1599 -250 0
1717 -1756 0
-1390 -1532 -1685 -1073 0
810 -679 -166 -908 0
-1081 -870 -1134 -1282 0
356 -1109 -1263 -842 0
133 -1048 -1032 -396 0
157 -1535 -606 -1426 0
1435 -218 -1473 -613 0
-413 -513 0
863 -1360 0
1621 -1842 -157 -1099 0
1028 -273 0
1161 -1618 0
1716 -314 0
-1386 -1634 -1313 0
265 -430 -1710 -1312 0
1693 -1468 -1291 -291 0
-1371 -1985 -1198 0
-1189 -662 -194 0
-1194 -330 0
-546 -141 -1991 -1 0
-1884 -584 -1722 -712 0
852 -782 -690 -561 0
991 -602 -1121 0
513 -1044 0
-1873 -74 -1384 0
-237 -1905 -641 -661 0
-1514 -639 0
104 -1753 -661 -128 0
1728 -1 -745 -1544 0
587 -1200 0
1221 -76 0
-160 -1577 -589 0
759 -1419 -1728 0
-1815 -333 -1503 -1497 0
-486 -1557 -1476 -1774 0
1133 -1307 -1849 -1255 0
1469 -274 -957 -1318 0
92 -145 -293 0
1708 -350 -905 -678 0
1666 -1689 0
1017 -636 -280 0
1128 -407 0
-1124 -1203 0
977 -1960 -1638 -712 0
1556 -946 -933 0
1339 -388 0
1770 -961 -738 -409 0
822 -1008 -790 0
1577 -662 -1272 0
-878 -562 -1676 0
275 -1493 0
1834 -927 -259 0
480 -695 0
1836 -1234 -622 0
-178 -1256 -303 0
642 -1206 -1893 0
558 -539 -68 -964 0
1353 -1309 0
1361 -1483 -1495 -1177 0
-732 -1951 -616 -1273 0
-1867 -1141 -1054 -1356 0
56 -106 0
-1090 -1946 -703 -774 0
1664 -201 -9 -1826 0
1667 -696 -1366 -985 0
930 -85 0
-312 -173 -556 -483 0
1370 -1202 0
928 -1543 0
399 -93 0
151 -1343 -1653 0
695 -1045 -163 -194 0
-1390 -1578 -240 0
565 -240 -972 -1311 0
88 -1579 0
258 -164 -1072 0
1524 -1639 0
-1405 -1879 -1368 0
122 -921 0
-754 -1 -1256 0
444 -213 -605 0
303 -991 -525 -700 0
-563 -472 -1022 -450 0
916 -973 -1771 -1517 0
1775 -460 -1948 -1395 0
378 -961 0
1768 -10 0
930 -86 0
1986 -1274 -1468 0
961 -1827 0
285 -1575 -964 0
-191 -1323 -1383 -155 0
654 -1973 0
1431 -358 0
895 -1254 -668 -1778 0
1792 -700 -1545 -5 0
657 -1554 -28 0
231 -1813 -1751 -647 0
-1188 -1131 0
1741 -997 0
1676 -582 0
1805 -666 -1954 -1709 0
-340 -943 -1727 -34 0
120 -716 -1242 0
995 -1689 -1931 0
863 -1432 -1323 0
-1253 -426 -768 0
824 -1899 0
1174 -1420 -1228 0
394 -1167 -713 -620 0
1263 -1563 -166 -1910 0
-431 -919 -1673 0
-1454 -61 0
846 -1341 -1270 0
380 -669 0
282 -859 -1617 0
-987 -490 -489 0
-1370 -513 -335 0
594 -898 -1139 -411 0
-416 -1849 -761 0
984 -893 -863 0
1735 -1284 -490 -1763 0
1145 -418 -1943 -907 0
825 -1326 0
-897 -772 0
455 -1678 0
594 -624 -659 -801 0
123 -1173 -689 -1455 0
1607 -1217 -14 -1555 0
121 -131 0
1909 -925 -1861 -705 0
45 -1314 -1024 -622 0
1472 -622 -1002 -724 0
1744 -159 -1875 -1442 0
1936 -464 -1032 0
612 -1462 -570 0
1819 -1011 -512 -699 0
1962 -490 -1575 -196 0
1955 -69 -736 0
985 -1075 -1531 0
-1305 -433 -1544 -402 0
465 -1750 -478 0
-861 -808 0
-1285 -1218 -822 -29 0
542 -784 -881 0
62 -555 0
978 -81 -952 -1436 0
1134 -1365 -16 -233 0
-1510 -1653 -1664 -362 0
-1565 -823 0
416 -357 -1009 -972 0
689 -773 -926 0
-1935 -1537 -1155 -21 0
-1855 -832 -1233 0
207 -490 -708 0
-327 -828 -1530 -258 0
879 -307 0
1227 -1288 -1303 0
123 -1226 0
-456 -1827 -245 -489 0
613 -864 -1764 -1121 0
1047 -1801 -579 0
103 -664 0
520 -205 -45 -1567 0
1487 -383 -1335 -30 0
-1250 -141 -831 0
1152 -1837 -1707 0
-439 -1803 -335 -1693 0
1055 -1597 0
-1322 -1652 -855 0
1733 -256 -1729 -221 0
604 -1267 0
-1622 -1322 0
64 -1460 -600 0
196 -1870 -397 0
960 -226 -1936 0
1999 -1561 0
-1126 -1725 0
1907 -1637 -1538 0
-736 -1703 -556 -1253 0
1715 -1536 -207 -42 0
797 -596 -1614 0
1082 -1395 -140 0
910 -1719 -166 -22 0
-450 -298 -13 -846 0
-1400 -1585 -1106 -1022 0
1937 -1429 0
-1801 -1655 0
930 -1275 -157 -664 0
1092 -1626 0
-1693 -1230 -920 -1553 0
-59 -781 0
835 -790 0
-1231 -1517 -327 0
1202 -1589 -389 -1316 0
-949 -635 -588 -1327 0
-858 -464 0
45 -132 0
-1599 -51 0
476 -135 -739 -266 0
674 -1788 -542 0
1931 -555 -1643 -282 0
169 -756 0
-75 -1665 -937 0
1886 -1659 -943 0
753 -854 -1580 0
-337 -1659 -1060 -1661 0
769 -1508 -871 0
1850 -719 0
522 -61 -667 0
-1285 -986 0
1580 -1738 -746 0
-445 -470 -662 -1859 0
1624 -1016 -1727 -229 0
3 -1868 -210 0
1749 -716 -338 -1475 0
1471 -1916 -424 0
1949 -864 -1645 -609 0
-548 -1642 0
517 -564 -1916 -1395 0
-1883 -1553 0
-445 -856 -1242 0
1911 -21 -1659 -718 0
1028 -879 -743 0
175 -1172 -419 -788 0
-449 -426 -471 -210 0
1349 -1700 -1599 0
1271 -1207 -443 -1053 0
1952 -1816 0
553 -876 -470 -1977 0
331 -398 -1815 0
104 -523 0
1768 -1125 -1997 0
-1613 -905 0
370 -50 -278 -1159 0
1673 -241 0
602 -51 0
235 -1403 -165 0
-599 -348 0
1100 -88 -314 -1530 0
851 -514 -1733 0
-1607 -1601 0
-51 -774 -1594 -477 0
183 -819 -1416 -200 0
1813 -1527 -684 0
119 -1895 -682 -1628 0
569 -513 -1580 0
465 -515 -1456 -682 0
1572 -445 -741 0
-1917 -411 -1643 0
1247 -1335 -348 -1629 0
153 -973 0
1272 -161 -196 -134 0
-755 -256 0
480 -1642 0
1449 -569 -1614 0
-158 -1402 -1260 0
1723 -1754 0
-1787 -988 -1706 0
254 -55 -442 -192 0
866 -1682 0
1910 -1484 0
1858 -175 0
1913 -845 -1899 -1661 0
476 -1785 0
1301 -87 0
-1971 -750 -187 -350 0
973 -233 -34 -519 0
-1678 -1406 0
1517 -146 -1310 0
963 -1242 -1006 0
763 -772 -554 -894 0
584 -1115 0
976 -1595 -1107 -1685 0
1543 -216 0
487 -339 -418 0
160 -489 -391 -679 0
1087 -812 -1196 -103 0
464 -294 -362 -371 0
-118 -900 0
111 -614 -1641 0
-1716 -1384 0
745 -41 -1391 0
-377 -1013 0
-1115 -163 -1436 -1845 0
1517 -1567 -846 0
732 -1374 0
1784 -1143 -1419 -973 0
-322 -472 -1064 -1710 0
-1148 -328 0
1528 -834 0
1256 -1081 -1876 -1695 0
-1879 -1769 -1878 -1307 0
595 -419 -122 -471 0
87 -746 -1017 0
176 -740 0
1802 -1818 -39 -1007 0
-1565 -695 0
244 -954 0
1158 -794 0
-647 -1329 0
-1605 -1134 0
823 -1962 -314 -1385 0
1639 -489 0
1196 -1069 -428 -398 0
-361 -107 0
335 -1329 -907 -1469 0
-290 -717 0
-878 -1326 -1749 -42 0
819 -780 0
1961 -863 -202 0
1235 -673 -1650 0
-529 -1740 -961 0
820 -1971 0
-447 -1731 0
358 -1339 0
1139 -276 0
498 -860 -1894 0
252 -968 -368 -1282 0
982 -598 -1926 -1174 0
1917 -467 0
427 -638 0
466 -235 -695 0
-1550 -821 -593 -1321 0
580 -1452 0
1479 -1083 -609 0
1872 -1405 0
614 -1996 -987 -1942 0
208 -102 -1249 -980 0
-1027 -695 -200 -869 0
1524 -1738 -289 0
1588 -1708 -271 -665 0
1873 -1668 -461 -56 0
909 -956 -1476 0
599 -915 -597 0
785 -96 -1942 0
1713 -748 -1842 -1127 0
996 -1225 0
79 -155 -24 0
1135 -1365 -737 -1498 0
-437 -38 -835 -735 0
202 -1592 -1406 -1081 0
-1800 -310 -868 0
-1383 -1351 -1176 0
-859 -515 -463 0
-1389 -172 -1373 -1671 0
1284 -1638 -1271 -447 0
530 -1911 0
-262 -1795 0
218 -362 0
154 -242 0
1725 -486 -725 -1953 0
918 -902 0
1682 -246 -922 -1460 0
908 -745 0
374 -72 0
88 -1708 -1786 0
399 -254 -518 -122 0
1763 -555 -691 -1667 0
-1059 -261 -156 0
623 -46 -1929 0
815 -1225 -1256 0
364 -1379 -1432 -992 0
1599 -435 -1441 -697 0
1791 -730 -1127 -233 0
1113 -1106 -723 0
898 -1586 -1770 -190 0
-1013 -1331 0
115 -945 -153 0
1803 -1814 -1405 -633 0
1159 -971 0
1512 -1683 -943 -1249 0
910 -1560 -1089 -762 0
872 -1981 -17 0
487 -407 0
1913 -1586 -1141 0
900 -1309 0
-535 -1279 -1594 0
1048 -112 0
1277 -831 -1844 -1412 0
1680 -1815 -923 -135 0
1152 -777 -942 0
-156 -901 -325 0
266 -1631 -1189 -1622 0
-675 -850 0
1288 -193 -1329 0
1655 -1810 -1183 0
158 -1856 0
273 -705 -1741 0
1 -372 -207 0
-822 -101 -361 -1998 0
718 -1171 0
1191 -207 0
1264 -1312 0
35 -736 -1114 0
-1497 -761 -196 -1792 0
126 -609 -487 0
1570 -170 -1990 -261 0
-752 -139 0
407 -94 -1053 0
797 -1606 -1890 -1109 0
680 -1892 0
-1311 -62 -275 0
1091 -26 -1557 0
-1031 -1334 -505 -906 0
1773 -830 0
-1559 -1575 -168 -1665 0
1846 -609 -1001 0
641 -981 -379 0
709 -591 0
965 -73 0
993 -1042 0
1189 -758 -1763 -1053 0
593 -1991 -686 0
-1823 -1066 0
-1129 -1221 0
-1540 -1927 -286 0
182 -183 -1603 -1806 0
127 -1430 -100 -421 0
1747 -1730 -1715 0
-505 -240 -629 0
1126 -1104 -125 0
477 -1072 -205 -854 0
291 -721 -145 0
295 -44 -283 0
561 -1930 0
1991 -171 -691 0
1816 -1074 0
-860 -1226 -296 -646 0
1613 -1159 0
646 -130 -1893 0
238 -335 0
38 -103 -1729 -1277 0
1124 -1276 0
-994 -454 -412 -1596 0
1112 -1111 -1809 0
1569 -1843 -100 0
767 -401 0
-1505 -1684 -895 -1891 0
482 -560 0
-696 -94 -1246 0
265 -1479 -703 -619 0
1884 -426 -955 -1850 0
1009 -1810 -805 0
-52 -821 0
958 -95 0
468 -368 0
1564 -1037 -1266 -278 0
1031 -85 -960 0
1925 -732 -1918 0
-1843 -694 -604 -502 0
427 -498 0
1621 -1299 -1368 0
-347 -427 -134 0
814 -1848 -522 0
1109 -1171 -1177 0
767 -515 -1858 -1749 0
-333 -521 -730 0
1238 -866 0
-174 -161 -1397 -1061 0
1029 -706 -1013 0
1208 -952 -1905 -1713 0
114 -766 -1482 0
-1490 -452 -61 0
-1328 -1311 0
35 -299 0
-706 -998 0
-1787 -1164 -1182 0
1202 -1660 -521 -466 0
1368 -1953 -184 -634 0
-1881 -1334 0
1483 -1741 0
427 -375 0
1219 -1403 0
-1078 -1053 -1512 0
530 -883 -1252 0
1915 -1017 0
1528 -786 -88 -559 0
120 -195 -1391 0
1640 -529 -1319 -1844 0
290 -474 0
-1705 -1121 -1123 0
268 -1183 -117 -413 0
723 -593 -1144 -1110 0
-644 -1459 -642 0
882 -1426 0
-13 -735 0
969 -946 -954 -1275 0
-1886 -1658 0
-1384 -1919 0
221 -1512 0
1091 -308 -653 0
1881 -951 -867 -1433 0
-1351 -1387 -959 0
1558 -1356 -1812 -803 0
66 -1729 0
319 -430 -192 0
-342 -1209 0
366 -191 -473 -399 0
396 -928 0
265 -414 -1482 -231 0
907 -224 -787 -913 0
1328 -610 -1291 0
920 -546 -974 0
-1527 -1166 0
15 -1520 0
-1377 -1358 0
696 -934 -1512 -1168 0
1444 -1209 0
577 -1586 0
-1450 -1108 -402 -68 0
783 -190 -1087 0
-688 -637 0
1557 -1872 0
1583 -199 -185 -1729 0
-302 -1638 0
1242 -973 -1708 0
817 -1588 -1877 0
898 -189 -1563 -881 0
1983 -554 0
-1262 -1769 -992 0
759 -1500 -1660 0
16 -695 -1407 0
-1750 -1702 -149 0
579 -485 -1076 0
366 -1794 -1632 -33 0
477 -1777 -53 -229 0
-1306 -1481 -1229 -1418 0
83 -1338 -867 0
-713 -1044 -147 -1775 0
98 -1641 0
721 -20 0
-1479 -795 -1624 -1753 0
26 -463 0
432 -436 -736 -1745 0
-1834 -1942 -980 -1061 0
-1119 -115 -268 -1003 0
1292 -1720 -852 -249 0
-333 -295 -1039 -1627 0
-1093 -1472 0
718 -387 -1149 -1065 0
905 -1502 0
-18 -1103 -861 -516 0
-1161 -1151 -1292 -1267 0
1956 -752 -1059 -1655 0
-1710 -869 -1351 0
-528 -1287 -1662 -16 0
-124 -1997 -576 0
1926 -1246 -1876 0
375 -11 -1091 -1740 0
1663 -1432 0
873 -535 -924 0
1997 -693 0
59 -680 -971 -25 0
-1930 -1918 -1714 0
188 -282 -1153 -1309 0
625 -1047 -1005 0
1794 -1658 -1895 0
-1572 -995 0
261 -744 -752 0
-1549 -1756 -530 -396 0
-618 -647 -778 0
-1978 -773 0
663 -1516 -1346 -35 0
1864 -736 -407 0
591 -413 0
423 -316 -73 -116 0
1671 -342 -1583 0
1137 -670 0
-1203 -1451 0
-684 -1497 0
479 -823 -1670 -1398 0
1390 -1201 -299 -985 0
1113 -1296 0
1979 -1520 -1822 0
6 -641 0
204 -1216 0
273 -1842 -1840 -555 0
445 -488 -1407 0
99 -1807 0
116 -1268 -1695 -1948 0
262 -1305 -1574 0
-148 -1047 -1148 -709 0
-1901 -1823 -507 0
-955 -1042 0
389 -1028 -109 -1689 0
1611 -1815 0
1499 -51 -1639 -213 0
577 -643 -301 0
1920 -1585 -1671 -1246 0
178 -1906 0
-1656 -1036 0
576 -932 0
1601 -216 -245 -510 0
604 -383 -290 0
-1923 -1015 -942 -1467 0
1521 -968 -1994 0
19 -1001 -975 -1373 0
1003 -1916 -722 -681 0
24 -1681 0
1142 -674 0
165 -516 -690 -902 0
306 -652 0
-1802 -1813 0
-1332 -949 -335 -100 0
1682 -1239 0
-790 -1787 0
465 -1691 -1818 0
967 -913 0
-1358 -1686 0
1617 -1726 -1996 -1483 0
1877 -1144 -761 -1744 0
1818 -785 -1088 -99 0
748 -916 -1435 -782 0
1253 -1788 -1473 -668 0
-1302 -1953 -753 0
638 -984 -1378 0
-188 -5 -886 -1052 0
-191 -1820 -696 -1110 0
1556 -1938 -743 -303 0
6 -358 -1158 -799 0
179 -1158 0
-473 -890 0
-1075 -1207 -1008 0
1353 -1969 -86 0
687 -332 0
228 -1085 -1303 0
1558 -1731 0
-1817 -1205 -254 -924 0
-687 -1186 -1531 -1752 0
1968 -1644 -1143 -912 0
299 -752 -1863 -1681 0
329 -58 0
1097 -71 0
-624 -316 -113 0
1558 -138 0
1729 -1168 -1562 -1505 0
145 -308 -1554 0
1986 -733 -606 0
-1932 -376 0
-1881 -548 0
-906 -317 0
1632 -265 -1364 0
109 -554 0
-87 -1332 -1830 0
1992 -1118 -1500 -1067 0
1986 -629 -229 0
-1638 -1629 -879 -1286 0
707 -552 -1009 -1120 0
-74 -1088 0
1618 -1429 0
258 -1120 0
-259 -1848 -522 0
1573 -1384 -1923 0
1501 -567 0
1875 -1164 -104 -624 0
1816 -422 -276 0
192 -581 -257 0
1941 -1160 -181 -1355 0
971 -158 -477 -227 0
1917 -432 0
1379 -181 -123 -808 0
46 -1350 -1900 0
1429 -303 0
1841 -141 -868 0
-1761 -484 0
337 -1412 -1710 -1839 0
1492 -1843 -1607 0
1759 -1224 -1603 0
1351 -814 0
1758 -62 -811 0
1380 -290 0
1459 -177 0
-978 -277 -1008 -388 0
1989 -1097 -909 -664 0
-7 -1293 -1697 -750 0
752 -1561 -343 0
1977 -419 0
601 -756 0
50 -1062 0
-1287 -163 0
-485 -1769 0
-1152 -953 -1792 -623 0
-786 -774 0
-1317 -260 -838 0
154 -1610 -894 -633 0
1592 -1820 -334 -666 0
12 -694 0
1691 -787 -65 -98 0
100 -317 -1631 0
1960 -318 0
-1615 -667 -216 -280 0
1813 -1837 -1324 -1680 0
29 -1954 -484 -1902 0
-1304 -841 0
23 -804 0
1269 -1112 -289 0
-1668 -1486 0
1564 -1447 -1238 -926 0
820 -1660 -1171 -1129 0
416 -1726 -133 -1926 0
12 -644 -1708 0
1646 -1293 0
253 -1385 -1501 -1754 0
-212 -16 -1387 -1013 0
-487 -1630 -1725 -1579 0
-1066 -1628 -215 -1229 0
1667 -919 -546 0
408 -1591 -933 0
359 -760 -653 -1713 0
1021 -1371 -164 0
1359 -430 -1103 0
695 -1225 -1197 0
1506 -684 -635 -1417 0
-1577 -1786 0
704 -91 0
1109 -802 -1803 0
-1843 -202 -382 -547 0
1820 -485 -1670 -56 0
-482 -1189 -1602 0
1375 -872 -1418 0
1966 -1954 -251 0
-658 -1817 0
740 -779 0
921 -661 0
1752 -1256 -484 0
-1536 -644 -1989 -1849 0
-640 -1433 -1963 0
1110 -187 -1303 -105 0
1067 -683 -1474 0
49 -182 -1231 -1724 0
1125 -448 0
-525 -1911 -1079 0
14 -365 -1210 -1095 0
1954 -809 0
69 -1791 -699 -880 0
-898 -1342 -958 -140 0
278 -1075 -1129 -1505 0
-526 -87 0
369 -922 -1711 0
1587 -1122 0
-1275 -471 -1200 0
-610 -853 -749 0
140 -1530 -1071 -650 0
1204 -1114 -929 0
-15 -1250 0
1459 -976 -1269 0
1893 -907 -1282 -154 0
-604 -1201 -587 -400 0
953 -1583 0
-1845 -1643 0
694 -1477 0
142 -1968 0
196 -431 -346 0
1588 -1813 0
255 -1854 -187 -701 0
-1382 -1486 -718 0
150 -993 -1439 -865 0
523 -1511 -554 -1503 0
-505 -1225 -1390 -1674 0
887 -1531 -1623 0
1113 -1769 -1233 -1872 0
1424 -1607 0
1339 -761 -1517 0
1382 -1645 -1181 0
1623 -403 -1954 0
1494 -1281 0
332 -598 -858 -1791 0
944 -1887 0
1432 -547 0
250 -1751 -1519 0
103 -421 -1819 -1199 0
-1622 -1264 0
-1360 -1677 -1597 -162 0
33 -904 -1639 0
1049 -1858 -1750 -1628 0
-385 -1043 0
1812 -1042 0
233 -180 -315 0
586 -1558 -1276 0
1365 -373 -1254 0
1097 -275 0
349 -1422 -1959 -242 0
127 -1124 0
831 -1297 0
-861 -484 -1687 0
1093 -895 0
-1801 -1358 -655 -818 0
492 -573 -270 0
-1011 -1216 0
-663 -1882 -814 -642 0
1408 -1859 0
1763 -1952 -1444 0
1791 -592 -1998 -282 0
-383 -432 -1875 0
-111 -100 -1785 -134 0
1070 -305 -549 0
-1040 -1610 -1674 0
244 -820 0
1374 -794 -634 -1076 0
1627 -1669 -1213 0
-255 -1827 -474 -1367 0
814 -1116 -1750 0
1090 -1598 0
-404 -738 0
-1316 -1642 -593 0
1939 -241 -1848 -826 0
1656 -142 -46 0
557 -800 0
792 -1746 -1925 0
684 -237 0
930 -522 -29 -212 0
-1909 -965 -98 -681 0
1474 -1242 0
-300 -1453 -1402 -1384 0
824 -1042 0
1429 -1663 0
961 -1088 -1738 0
-1765 -1822 -1780 -1327 0
1740 -199 -1155 -1436 0
1853 -635 -1729 0
-104 -213 0
1368 -1934 -1615 0
508 -402 -1253 0
270 -242 -794 -643 0
-256 -856 -1403 -133 0
282 -1758 -1076 -178 0
-1297 -372 -333 0
688 -154 -1928 -1848 0
1372 -393 0
280 -1849 -1875 -1772 0
865 -964 0
1268 -1982 -1970 -725 0
525 -1471 -1804 -1640 0
1581 -555 0
1442 -814 -335 -1715 0
1204 -567 -916 -1562 0
60 -1658 -1880 0
-1312 -1784 -228 0
142 -1625 -542 -1678 0
664 -1409 -1283 0
1787 -87 -1439 0
-1374 -1386 -917 -40 0
1374 -601 0
703 -408 -1116 -1894 0
223 -1334 -732 0
1921 -1139 0
513 -218 -1389 0
1191 -6 0
1146 -1992 -714 -446 0
261 -1811 -750 -951 0
946 -469 -151 -700 0
597 -466 -1044 0
1542 -1091 -1025 0
577 -538 0
418 -1137 -117 0
1687 -1416 -447 0
-775 -712 -207 0
1791 -1879 0
-1573 -336 -1023 0
328 -733 -790 0
-431 -668 -444 0
1749 -86 -606 0
1488 -93 -257 -903 0
254 -1615 -1871 0
1968 -127 0
458 -817 0
-884 -673 -1515 0
-81 -875 -854 0
643 -1002 -310 0
1836 -1477 -1498 -969 0
-1821 -1358 -393 -1432 0
991 -89 -1971 0
1524 -210 -832 0
-136 -1242 -661 0
185 -1292 -1793 0
1405 -1568 -1413 0
1107 -1593 -443 0
-284 -6 0
1100 -1126 -1251 0
-875 -544 -510 -291 0
915 -603 -533 -1624 0
1645 -5 -787 0
-1151 -1198 -1195 -1504 0
-1686 -1139 0
1300 -1341 -103 -211 0
963 -1892 -1830 0
1767 -1596 -1228 -40 0
1349 -1650 -1492 -660 0
202 -289 -1870 0
1744 -1538 0
731 -1666 -1355 0
247 -1401 -421 -283 0
217 -1539 -1962 0
137 -1512 -1420 -1144 0
-250 -1043 -726 -572 0
119 -1963 -1029 0
896 -755 -1477 -1724 0
287 -587 -1964 -834 0
456 -72 0
416 -1175 -1695 -1853 0
-865 -1481 -398 0
-363 -1912 -1440 -650 0
215 -907 -830 -304 0
1830 -1039 -144 0
-1405 -1676 -836 -738 0
-1674 -1472 0
530 -1266 -1059 -1523 0
545 -853 -761 -172 0
-89 -361 -468 0
1763 -1806 0
500 -97 -575 0
795 -333 -1217 0
-662 -167 -146 -1116 0
263 -883 -722 -894 0
-638 -1454 -904 0
-469 -621 -38 -678 0
275 -733 0
1491 -1410 -1266 0
-33 -281 -768 0
-249 -889 0
144 -283 -152 0
1332 -1053 -208 0
-922 -1549 0
-1234 -354 -691 -1719 0
303 -231 0
1377 -892 -1587 0
320 -159 -1267 -52 0
338 -1719 -664 -1346 0
1065 -44 -909 -43 0
895 -1813 0
735 -391 0
1620 -1583 -1346 -1811 0
362 -21 0
-934 -1079 -197 0
-378 -118 -1510 -28 0
1580 -1315 -1037 0
1981 -754 -809 -1197 0
-1255 -1654 0
299 -1834 -294 -1129 0
293 -1487 0
-1619 -1770 0
1907 -681 -1704 -29 0
1633 -159 -1759 -1821 0
565 -1832 0
-1031 -921 -1773 0
1192 -1121 0
1851 -1318 -408 0
-462 -1089 0
1120 -1928 -350 -1196 0
-1471 -1112 0
-335 -1463 0
1707 -437 -1536 0
1936 -581 -576 0
-66 -789 -1884 0
-208 -591 -1385 -1011 0
1339 -1497 -10 -752 0
105 -1375 -1326 0
1594 -1245 -298 0
969 -149 0
1477 -1559 -1635 -1871 0
1246 -238 0
806 -1997 0
-527 -783 -265 -1302 0
-1516 -643 0
341 -122 0
1207 -1589 0
-379 -1934 -1943 0
249 -1859 -1587 -1343 0
1006 -45 -306 -794 0
1767 -1134 -104 0
229 -1016 0
1825 -1467 -720 0
-789 -699 -1526 -1307 0
-1742 -1535 -490 -384 0
1479 -1654 -1377 0
-1598 -425 -1790 -837 0
-782 -893 -1113 0
-1481 -472 0
1478 -307 -433 0
741 -1024 -212 -692 0
-564 -327 -1084 0
18 -1999 0
1498 -901 0
-227 -434 0
1613 -787 0
10 -457 -792 -685 0
134 -1101 -1879 -546 0
577 -1057 -1308 -1980 0
100 -122 -1134 0
1598 -606 -1662 0
-1638 -1667 -1003 0
1529 -920 -1346 0
-558 -280 -1996 0
1006 -788 0
-1853 -1236 -897 0
-202 -1591 -726 -589 0
1143 -519 0
-594 -241 -1101 0
-789 -1975 -1571 -691 0
80 -998 -208 0
605 -2000 -1396 -117 0
498 -262 -1415 -27 0
-590 -522 -1075 0
-916 -1768 -861 -1997 0
438 -874 -1326 -1383 0
1408 -1011 -1120 -1423 0
478 -53 0
1693 -1467 -1003 -581 0
1075 -1421 -738 -677 0
343 -418 -1414 0
1922 -1010 -1492 0
810 -1947 0
-229 -1203 -820 -566 0
-1512 -897 -1898 0
1886 -346 0
1606 -1221 -382 0
1397 -1886 0
1955 -1701 -356 0
1982 -592 0
886 -1888 0
-836 -1840 -41 -1831 0
549 -1608 -1582 0
-41 -1139 -1033 -1214 0
83 -804 0
-1469 -1689 0
1522 -459 -324 0
-1766 -1616 -1843 -1009 0
731 -1607 0
159 -1585 0
-44 -509 0
855 -1256 -793 -915 0
1085 -1983 -579 -158 0
-1363 -1733 -1689 0
-344 -873 -182 0
1695 -1247 -1308 0
778 -1440 -4 -486 0
-7 -530 0
109 -1038 -501 0
929 -1785 0
212 -717 -1293 -429 0
1332 -1971 -23 0
12 -730 -330 0
1173 -145 -1191 0
1587 -1642 -1275 -999 0
-657 -279 -302 -1761 0
1007 -1396 0
57 -1948 -1894 0
-218 -1395 -457 0
919 -1793 -251 0
-1567 -250 -1189 -1101 0
-1105 -1953 0
-199 -899 -1405 -52 0
1663 -493 0
490 -359 0
1000 -1796 -1337 0
1052 -977 -1379 -1505 0
1432 -1360 -88 0
-1758 -1482 -1314 0
293 -1894 -1646 -1568 0
92 -939 -1256 0
-1950 -1641 -1010 0
-1849 -198 -183 -956 0
204 -54 -873 0
1468 -344 0
56 -244 -77 0
595 -346 -1121 -484 0
-1270 -1931 0
-374 -104 -461 0
-366 -1043 -252 -1228 0
1258 -303 -863 0
-697 -389 -211 0
810 -1955 0
492 -1729 -1575 -1512 0
-386 -357 0
237 -760 -1807 0
1306 -802 -175 0
-1430 -984 0
1714 -1210 -1078 -397 0
-776 -1469 -1445 -1854 0
-1804 -397 -400 -958 0
1167 -1474 -1267 -371 0
245 -23 -1182 -258 0
1400 -1467 0
-184 -1620 0
-789 -1794 0
1842 -431 -1455 0
-173 -1244 0
1141 -367 -1061 -1274 0
1032 -909 0
1636 -1450 -981 -116 0
-373 -1379 -1459 0
176 -958 0
-64 -1229 -1024 -1809 0
1127 -1365 0
-1270 -1127 -413 -1186 0
-574 -223 -923 0
-69 -1601 -1417 0
209 -1902 -485 0
1566 -412 -552 -1600 0
1035 -1228 0
9 -489 0
1390 -723 0
696 -469 -593 0
515 -1298 -374 0
1919 -1315 -352 -559 0
156 -874 0
-1888 -1619 -33 -744 0
1425 -1919 0
190 -843 0
514 -1696 -914 -1469 0
1443 -841 -877 -1630 0
-343 -23 -1011 0
279 -339 -103 0
1680 -652 0
1001 -606 -823 0
720 -1265 0
869 -983 0
822 -374 -1643 0
-1327 -380 -695 0
887 -1523 -481 -1894 0
319 -132 -874 -1186 0
900 -66 0
1759 -1181 -1175 -401 0
-1685 -584 0
1249 -1892 -105 0
952 -1712 0
1475 -1581 -1641 -1721 0
1546 -290 0
445 -536 -931 0
-1234 -1243 0
1337 -180 -1998 0
650 -122 -1720 0
629 -130 -445 -1184 0
349 -1198 -600 -1716 0
-663 -424 0
1177 -553 0
326 -440 0
-725 -1098 -519 0
-816 -1753 -976 -189 0
-985 -521 -1512 0
928 -321 0
-1593 -1938 -353 0
89 -1225 0
1864 -769 0
306 -1873 0
1257 -1395 -6 0
840 -311 -332 -423 0
734 -1174 -1175 -248 0
-1264 -1242 -1076 0
1233 -449 -1154 -508 0
-573 -964 0
1900 -1498 -1609 0
1105 -512 -342 0
1771 -1398 -377 -1330 0
-1606 -1107 -594 -1630 0
1077 -1663 -1354 0
536 -1536 0
342 -1218 0
-1673 -40 -1712 0
-440 -48 0
1173 -1733 -1494 0
115 -839 0
-1232 -1836 -718 0
-180 -1299 0
328 -1157 -934 0
-949 -1873 -679 0
810 -611 -550 -1444 0
370 -913 0
329 -948 -1068 -615 0
1930 -1877 -1226 0
1978 -1646 -704 0
-1691 -754 0
-1360 -634 -976 -134 0
1530 -944 0
872 -1345 -1272 -401 0
1388 -1841 -1981 -931 0
1644 -135 -156 0
1337 -796 0
-860 -1499 -382 -1855 0
-1928 -108 0
-410 -727 0
818 -735 -75 0
820 -1935 -1533 -785 0
95 -1020 -1000 0
-1122 -579 -1632 0
773 -700 0
511 -1088 -730 -1543 0
535 -305 -1673 0
1392 -1268 0
1193 -1364 -169 -727 0
-487 -1515 -1680 -1297 0
-1189 -1281 -1886 -1443 0
788 -1980 -938 -782 0
1109 -1115 0
1994 -143 -813 -225 0
918 -1033 -892 0
1322 -1918 -1892 0
672 -680 -1112 -510 0
1972 -839 0
1219 -803 0
1426 -1249 0
241 -845 -268 0
1369 -616 0
1380 -475 0
598 -1401 -1943 0
-1466 -207 0
483 -954 0
-1096 -1456 0
1064 -1946 0
1162 -402 0
570 -702 -844 0
1993 -1368 -170 -1480 0
-44 -1647 -915 0
1570 -96 -1006 -103 0
991 -1183 0
-97 -545 -309 0
1529 -1526 -1313 0
9 -871 0
-1705 -60 -125 0
45 -1984 0
-1038 -300 0
-1598 -204 0
-696 -1879 -1269 -1602 0
-1821 -1882 -478 -990 0
1237 -1860 -1694 0
959 -797 -1699 0
1774 -704 -1784 0
-1015 -800 -75 0
427 -1142 -1447 -1170 0
167 -493 -1569 -1323 0
1837 -834 -1086 0
492 -876 -851 -1570 0
255 -767 -685 -1501 0
338 -1291 -1514 -972 0
1281 -588 -1113 0
-62 -797 -360 0
623 -773 0
50 -1559 -1097 -537 0
1738 -1208 0
-1550 -1664 -989 0
1806 -729 0
790 -1508 0
-593 -1342 0
1848 -455 0
-556 -369 -1578 -1127 0
795 -1202 -1679 -1550 0
-1451 -379 -1218 0
932 -1986 -925 -575 0
531 -1671 -1239 -1024 0
1022 -628 0
-1299 -1347 0
1824 -953 0
1749 -641 -44 -1791 0
1976 -1720 0
1631 -633 0
1703 -681 -1036 0
1339 -1920 0
-1460 -1133 0
1867 -780 0
1850 -363 -341 0
-1432 -1497 -1631 0
1979 -159 0
123 -692 -48 0
293 -1150 -703 -219 0
1266 -1642 0
-138 -431 0
1657 -495 -1889 0
647 -1 0
-1360 -1527 0
1899 -1910 0
1963 -570 -993 0
-785 -859 0
1487 -390 -1941 -1944 0
-116 -1137 0
-763 -1746 0
942 -100 0
1588 -1658 -1898 0
1245 -504 -1066 -430 0
-462 -1799 -107 -601 0
179 -464 -1649 0
628 -99 -75 -321 0
1301 -1777 0
-455 -813 -896 -783 0
-266 -1614 -1018 0
-1623 -1871 -1757 -1156 0
903 -1414 -1561 0
-936 -1557 -1415 0
60 -1672 -180 0
1160 -1863 -1157 0
321 -154 0
1516 -1292 -1658 0
1435 -1642 -583 -1109 0
48 -453 -601 0
40 -1776 -1665 0
-290 -1558 -690 0
557 -320 -1759 0
1722 -1856 -1611 -432 0
842 -1589 -1239 -1748 0
516 -1874 -1787 -841 0
108 -1323 0
-1562 -748 0
-721 -1266 0
351 -158 -1691 -499 0
-684 -1939 -137 0
878 -1754 -342 -912 0
1842 -1813 -1847 0
384 -1157 -510 -1882 0
1797 -640 -769 0
-1285 -781 -515 0
1794 -1309 -845 -1413 0
1450 -794 0
1655 -524 -1917 0
1425 -53 0
-256 -1910 -1217 -1014 0
-380 -1475 -1586 -856 0
892 -579 -303 -1399 0
1720 -146 0
1864 -466 -1730 -431 0
122 -1160 -1860 -137 0
-109 -385 -182 -32 0
-1517 -1291 -1940 -1150 0
1297 -100 0
859 -1241 -725 -787 0
1270 -1187 -1762 0
1759 -1560 -528 -755 0
603 -268 -175 -173 0
946 -740 -477 -541 0
575 -315 -650 0
-1325 -1443 -1666 -1819 0
1658 -31 -1544 0
886 -1195 0
-92 -1166 -772 -1459 0
-508 -848 -520 -1982 0
1534 -741 -1685 0
1461 -1126 -1595 -1023 0
1645 -855 -1478 -990 0
228 -1166 0
-700 -1774 -1873 -1159 0
759 -1349 -460 -17 0
1298 -1449 -324 0
-1112 -253 -626 0
-649 -1668 -1891 0
-1230 -285 -1858 -1313 0
-656 -962 -1604 -1968 0
1358 -1000 -515 0
544 -1122 -1877 0
-820 -851 -600 -764 0
1072 -942 0
1268 -1535 -595 0
-1118 -1645 0
-1968 -1031 -622 -1948 0
-1251 -1027 -1680 0
-1449 -1439 -197 -681 0
71 -750 0
-208 -546 0
-15 -1932 -1573 -1547 0
-1141 -360 -735 -1591 0
-1445 -438 -672 -440 0
345 -1748 -926 0
1884 -1350 -1781 -1290 0
1809 -1327 -1133 -256 0
-1316 -1972 -1527 0
860 -1998 -1971 0
1133 -1091 -725 -172 0
-410 -104 -285 -947 0
1201 -1510 -1164 -512 0
1238 -393 0
-911 -500 0
950 -115 -704 0
892 -1909 0
1463 -1746 0
1094 -810 -1752 -1559 0
1296 -1279 -392 0
380 -1589 0
1798 -121 -652 -442 0
1197 -1806 -668 -928 0
-1756 -251 -1991 -373 0
941 -1521 0
85 -500 0
1578 -1175 0
1231 -750 -1716 0
528 -500 0
-524 -1513 -1627 0
-1424 -434 -1035 0
1068 -598 0
683 -674 0
-409 -262 -1212 -1 0
-1139 -200 -5 0
-637 -1789 -452 -381 0
336 -1830 -1790 -1862 0
612 -1782 0
696 -1116 -594 0
1406 -1579 -74 0
1022 -1106 -316 -315 0
917 -1948 0
1900 -1546 0
1952 -1570 0
-362 -1379 -1615 0
1570 -247 -1170 0
78 -635 0
-958 -1360 -1934 -1006 0
-893 -1073 0
-461 -253 -1861 0
1308 -1598 -490 -630 0
-1693 -173 -823 -907 0
-1607 -1769 0
-1010 -563 -1838 -651 0
1582 -1584 -999 -802 0
555 -667 0
-703 -991 0
-864 -1314 -142 0
312 -403 -640 -1886 0
-1854 -412 -1059 -10 0
-437 -1931 0
437 -106 0
1928 -1825 -977 -810 0
765 -88 0
1748 -326 -1825 0
748 -1418 -1768 0
1890 -1703 0
-842 -1268 0
701 -430 -170 0
1660 -1917 -1378 -1723 0
1464 -179 -1813 -571 0
1994 -727 -1565 -571 0
-442 -1525 0
1124 -1772 -378 0
1350 -795 -1667 -837 0
1657 -1989 0
1578 -1286 -1636 -474 0
-1421 -486 -1980 0
-1383 -207 -829 -1054 0
-435 -1460 -673 -943 0
-1517 -213 -1042 0
-1661 -722 -839 0
986 -1126 -1525 -1195 0
1281 -1901 -1912 -743 0
534 -1568 -777 0
1657 -1265 0
1061 -1150 -949 0
793 -376 -436 -916 0
851 -1212 -1393 0
1380 -285 -981 0
-1419 -519 -1239 0
1964 -1090 -234 -965 0
1617 -110 -1644 -444 0
-1983 -1544 -1304 -750 0
1201 -610 -713 0
-1674 -235 -1854 0
756 -1025 -1174 -1657 0
-953 -615 0
859 -1877 -870 0
-1471 -1840 0
1751 -1790 -1841 0
-1736 -249 -1703 0
-607 -1595 0
190 -216 -21 -1887 0
1638 -1785 -1514 0
1613 -723 -502 0
741 -1604 0
1388 -6 -850 -397 0
132 -877 -689 0
1849 -751 -233 0
-591 -819 0
1811 -1016 -1361 -412 0
-1319 -117 0
1146 -505 -1005 0
-647 -166 0
783 -1745 -948 0
-258 -878 -1652 -1002 0
646 -1283 -1256 -803 0
-158 -5 0
1608 -271 0
1107 -1182 -1365 0
1627 -802 -463 -883 0
1733 -1962 -1051 0
1683 -1399 0
-1702 -932 0
121 -571 0
82 -450 -1 -1995 0
1100 -1868 -956 0
309 -364 -1261 0
-247 -641 -757 -309 0
1564 -624 0
840 -731 0
-640 -58 -1333 0
767 -1075 -1365 -1976 0
-1187 -181 -790 -1894 0
986 -1821 -1188 0
785 -1650 -1354 -822 0
1026 -25 -1481 -384 0
755 -1436 -452 -65 0
56 -188 -485 0
1797 -1166 0
328 -1187 0
1974 -1424 -1942 0
-1559 -819 -599 -350 0
196 -419 -1918 -371 0
1190 -1158 -123 -1100 0
973 -1229 -1355 -1664 0
-881 -1555 -1686 0
1148 -1129 0
344 -623 0
1245 -1944 -1620 0
1797 -1038 -1635 0
-1470 -1580 -1542 -966 0
-632 -458 0
621 -594 -617 0
1888 -2 0
572 -1318 0
639 -1767 -383 -1485 0
464 -1969 -415 -1797 0
-1081 -1912 -304 0
340 -901 0
1200 -1025 -1476 -1277 0
-1694 -443 -1101 0
525 -12 -1344 -654 0
1621 -253 -122 -880 0
-1279 -752 -68 0
1472 -1751 0
1411 -969 -935 -875 0
19 -754 0
-1962 -215 -1037 -1005 0
831 -1797 -396 0
-1490 -1881 0
1944 -1440 -1130 0
-1312 -1096 -561 0
243 -459 -743 -1673 0
987 -253 0
1690 -652 -1958 -746 0
1738 -604 -362 -478 0
-1166 -1061 -501 0
1427 -1109 0
1418 -973 -177 0
-824 -27 0
812 -215 -1859 -133 0
945 -1714 -1766 0
1827 -413 0
-1351 -88 -1331 -536 0
1630 -1669 -1619 -512 0
1033 -1446 -953 0
-1892 -1759 0
472 -559 -1174 -490 0
506 -1496 -1533 -1672 0
1005 -150 0
631 -533 0
1160 -1733 -1379 0
383 -361 -1240 0
1125 -1726 0
758 -156 -292 -1556 0
594 -1052 -1310 0
1511 -1081 0
247 -445 -978 -1802 0
744 -817 0
-1038 -335 0
1498 -1921 -1019 0
-773 -302 0
-1423 -222 0
1432 -419 -14 0
-738 -1602 -1921 0
782 -291 -189 0
-846 -1220 0
1508 -272 -952 -1531 0
1163 -603 -1410 0
789 -92 -1474 -1929 0
1707 -1310 0
-1574 -728 -1064 0
293 -609 -579 0
1091 -42 -778 -1158 0
283 -604 -1620 -829 0
1048 -96 0
1125 -1329 0
1575 -1496 -1340 0
-1237 -1176 -1608 0
1804 -123 0
1597 -1154 -1750 0
321 -1635 -471 -1138 0
-1629 -890 0
1021 -467 0
1538 -347 -1458 -1781 0
920 -1040 -1043 -297 0
857 -716 -488 -1778 0
249 -514 0
1995 -1416 0
-1052 -1031 0
-901 -1223 -1774 -165 0
573 -74 -545 -1982 0
-303 -166 0
16 -919 -914 -1566 0
1538 -1458 -83 0
1658 -585 -796 0
1747 -1964 -63 0
-274 -1936 0
900 -385 -1641 0
306 -1892 -883 0
1608 -398 -1419 0
1819 -891 0
436 -1359 -709 -183 0
1113 -1624 -1574 0
-733 -1604 0
608 -210 0
1924 -1137 0
1026 -1679 -436 -1170 0
-1232 -1736 -1132 0
1766 -1294 0
4 -1038 -1247 0
364 -1065 0
-1031 -1447 -687 -529 0
1032 -204 -1183 -886 0
375 -786 -1272 -73 0
1929 -101 0
-651 -954 -771 -501 0
-375 -1914 -151 0
1228 -883 -266 -1678 0
-1753 -1078 -631 -1408 0
982 -1982 -742 -701 0
1411 -293 -1346 -106 0
422 -1968 -1203 0
556 -1699 -1818 0
1482 -1564 -315 0
634 -141 0
509 -148 0
-1572 -1378 -1285 0
980 -535 -386 -1937 0
1704 -1392 0
590 -76 -1412 -789 0
1426 -112 -1414 0
1730 -1665 -1264 -886 0
653 -652 -894 -875 0
483 -1695 0
-134 -900 0
678 -265 0
937 -55 0
1897 -1028 -314 0
133 -884 -703 -174 0
131 -867 0
73 -389 -1340 0
1605 -690 -1503 0
-553 -1852 0
1250 -1676 0
94 -1333 -1064 0
1722 -1648 -918 0
1903 -179 -85 0
-907 -1756 -320 0
778 -78 -230 0
-82 -299 0
997 -75 -1239 -1652 0
922 -1904 -1610 -1802 0
-1247 -125 -682 0
420 -585 -946 -1252 0
1163 -272 -1527 0
-1585 -485 -1835 -1984 0
1179 -744 -402 -1623 0
95 -586 -93 -922 0
426 -468 -676 -216 0
602 -1750 -1628 0
956 -1489 0
1871 -1164 -252 0
-1502 -1975 -121 0
-1833 -1555 -162 -37 0
92 -1362 -1481 0
165 -843 -73 0
-1545 -1804 -59 -649 0
882 -1256 0
980 -302 -1537 0
1777 -1745 -1533 -396 0
702 -1672 -5 0
341 -585 0
1617 -1023 0
415 -260 -1853 0
1276 -1797 -1023 -1554 0
549 -1393 -1753 -1099 0
1910 -254 0
-1611 -1593 -222 0
38 -597 0
290 -633 -115 -1860 0
402 -65 -1732 0
-1935 -279 0
118 -273 0
-673 -406 0
637 -1399 0
-469 -106 -233 -1809 0
1278 -119 0
-1422 -856 0
274 -925 0
1650 -869 -326 -1921 0
-890 -1796 0
1192 -1117 -1090 -1238 0
1393 -877 -1776 -1855 0
540 -1171 0
1582 -438 0
50 -2000 -945 -881 0
-542 -280 -554 0
-685 -162 -1997 0
913 -1303 -649 0
1158 -1322 -1757 -23 0
46 -1297 0
608 -1562 -222 -144 0
46 -1465 -690 -56 0
-1891 -327 -1197 0
1167 -1004 -785 0
361 -672 -1300 -829 0
680 -1606 -1831 0
-1994 -1592 -1865 -1118 0
924 -509 -807 0
1804 -1280 -1887 0
101 -1113 -6 -871 0
1253 -256 -1068 -1712 0
-613 -1334 -1038 0
-1285 -1276 -1241 -585 0
422 -923 0
1353 -852 0
1633 -1834 -1099 -1909 0
1825 -1516 0
1245 -957 -158 0
102 -903 0
1589 -1718 -179 0
835 -685 0
1140 -1656 -1270 0
-560 -1311 -684 0
-746 -1987 -549 0
-149 -115 -1641 0
925 -294 -1828 -35 0
814 -303 0
772 -1615 -1954 -1563 0
970 -1072 0
1409 -615 -947 -447 0
947 -1391 -302 -703 0
-795 -244 -906 0
1399 -84 -1730 -618 0
422 -802 -1940 -1671 0
-1218 -1571 -666 0
427 -255 -1529 0
1157 -19 -1781 0
-1697 -187 -667 0
599 -1017 0
1169 -427 0
860 -1624 -937 0
-1545 -1104 -1336 -859 0
-663 -1704 -1573 0
129 -83 -544 0
-737 -1983 0
1792 -1409 0
-1183 -10 -1296 0
890 -1176 -792 0
1619 -1949 -1873 0
1698 -752 -899 0
1008 -1410 -340 -1684 0
1057 -311 0
487 -1314 0
29 -827 0
-476 -1725 0
-895 -107 -626 0
-1263 -964 -103 -82 0
520 -430 -163 0
910 -1632 -131 0
1591 -466 -881 -1912 0
1286 -1831 -1588 0
1614 -1907 0
530 -783 -616 -1091 0
1255 -1295 0
1039 -854 0
798 -831 0
1936 -1013 0
-1359 -923 -1925 -1524 0
-60 -1408 0
1188 -409 -52 -217 0
1898 -1639 -1233 -1608 0
967 -1238 -552 -176 0
452 -316 -1921 0
208 -1650 -305 -334 0
-1296 -1517 -1963 -1057 0
1695 -793 -1631 0
208 -1047 -435 0
258 -1178 -1725 -188 0
72 -1502 -1602 -962 0
846 -893 -1384 0
-27 -1263 -1354 0
-1416 -599 -1543 0
193 -503 -1149 -283 0
1977 -1290 -545 -786 0
-819 -1090 0
-128 -263 0
1482 -286 0
-1399 -506 -1322 0
-1366 -843 -759 0
767 -201 -1082 -1176 0
291 -334 -1228 0
-1911 -153 -1187 -825 0
-1281 -656 -40 0
1171 -738 -189 0
1444 -933 -1443 -1296 0
777 -880 -1082 -430 0
-622 -1889 0
1340 -552 0
-57 -1216 -586 0
-731 -784 -225 0
-1378 -1818 -625 0
808 -633 0
485 -560 -45 0
-292 -1775 -1077 0
-862 -1760 0
1384 -596 -747 0
-23 -929 -55 -227 0
136 -1480 0
1798 -1394 -886 -1048 0
1078 -1237 0
426 -1025 -555 0
960 -241 0
342 -397 0
1956 -804 -395 0
-1579 -1729 -1321 -1244 0
433 -1374 -1414 0
1129 -1066 0
-350 -1116 -839 -1681 0
1617 -384 -1779 0
1496 -740 -1816 -605 0
1662 -569 -1578 0
-581 -723 -923 0
-154 -1204 -235 -1532 0
-1427 -777 -439 -1909 0
319 -396 -1836 0
-1331 -425 0
1933 -623 -805 -1963 0
1278 -780 0
-99 -216 -1415 -1314 0
-1197 -1587 -660 0
185 -1868 -699 0
731 -111 0
1916 -1056 0
635 -1250 -889 -665 0
143 -501 0
1858 -1166 0
668 -807 -1170 0
-474 -1924 0
-236 -942 -1466 0
1203 -1602 -471 -1103 0
-2000 -643 0
1340 -827 -1140 -1859 0
914 -1722 0
-1932 -989 -903 -38 0
212 -161 0
1168 -1498 0
1229 -1885 0
1263 -1929 0
783 -678 -1043 0
-870 -736 -485 0
-1558 -1890 -1299 -1592 0
601 -623 0
-260 -382 0
1757 -1706 -987 -81 0
-1882 -342 0
1788 -1051 -363 0
-751 -1306 0
1297 -981 -1849 -1803 0
948 -351 0
-462 -1092 -32 0
1758 -183 0
-648 -1945 -748 0
300 -1562 -1581 -623 0
1440 -58 -1396 -1929 0
354 -1752 -356 0
323 -1545 0
1597 -1274 0
676 -1007 -1768 0
398 -470 0
-1148 -1496 0
-148 -1816 -1503 0
1585 -942 -1941 0
-356 -1387 0
-1830 -1654 -1208 0
825 -508 -1265 -638 0
424 -1802 0
1261 -1034 0
-194 -573 -1580 0
-1949 -255 -1818 0
-616 -150 -481 -1322 0
737 -466 0
1891 -312 -14 0
-872 -287 0
-1757 -318 -800 0
-448 -436 -681 0
1287 -1250 -493 -889 0
-1020 -754 0
746 -264 -73 0
535 -515 -1658 0
1904 -1211 0
-1045 -930 -1840 -1043 0
-1511 -1499 -21 0
393 -71 -690 -306 0
80 -974 -1430 -1159 0
-304 -763 -1198 -1849 0
-1625 -1061 0
-1740 -1017 0
1420 -1686 -158 -1626 0
88 -1358 0
1686 -1513 -1144 -11 0
168 -1041 -598 0
-1530 -606 0
1760 -1086 -1839 0
383 -166 -236 0
424 -505 -1733 -1999 0
