c 4-SAT formula
c 500 variables, 2000 clauses, 4 literals per clause
p cnf 500 2000
105 119 398 -328 0
-135 106 -217 -140 0
-452 214 387 -27 0
-470 471 -86 -393 0
18 450 198 -62 0
-375 -175 -178 47 0
394 -54 -392 -178 0
11 356 -204 -62 0
-205 -138 -443 9 0
-105 48 251 261 0
442 488 -485 184 0
-285 -240 -395 372 0
-321 -387 -443 135 0
390 -364 334 125 0
-98 -75 220 -465 0
-158 -183 36 117 0
-469 457 -213 456 0
-105 122 -447 31 0
197 -412 380 255 0
136 -445 252 -93 0
-43 -378 -186 475 0
-419 -186 -354 407 0
492 389 279 -325 0
-276 282 433 -206 0
-74 -234 248 -473 0
-407 -351 413 171 0
-258 -42 -67 -359 0
384 388 -342 176 0
73 -25 -62 -34 0
-60 -150 93 230 0
-365 446 -418 447 0
-413 -453 -226 304 0
-55 496 202 -267 0
342 -325 266 170 0
276 -374 107 -482 0
437 365 241 -359 0
-357 -12 40 5 0
419 -14 -105 -287 0
96 -51 63 -324 0
-98 189 470 -454 0
395 151 -99 95 0
358 240 -17 -10 0
-128 -47 123 -179 0
-254 -173 -308 -352 0
-39 473 -387 406 0
-298 -46 32 -207 0
-446 69 -295 -279 0
-380 -155 -266 -476 0
-372 -21 -39 126 0
166 -41 -369 296 0
55 -167 283 -317 0
-373 -18 -79 -5 0
-378 73 190 -118 0
275 6 321 -12 0
142 -22 344 119 0
-185 -18 194 418 0
-68 -448 -85 -73 0
-374 65 -184 30 0
197 -161 84 218 0
204 467 393 -80 0
-100 -120 3 379 0
-51 445 249 -173 0
226 120 243 -139 0
-210 49 -196 127 0
-368 -239 -191 -268 0
251 -283 -261 65 0
-411 -207 496 57 0
67 -318 -234 74 0
-167 -215 82 -53 0
-490 -375 172 -63 0
392 -389 -237 -462 0
-331 -113 -340 485 0
-287 -158 343 -122 0
113 364 415 -471 0
-384 -56 -187 60 0
-371 140 -340 -328 0
-316 -259 223 124 0
-30 235 93 -431 0
102 288 50 -301 0
-76 -28 -338 -71 0
-388 -296 -17 -88 0
375 444 464 -485 0
-441 -142 476 322 0
424 94 348 321 0
-98 -40 114 215 0
99 429 -251 450 0
200 -8 192 -452 0
36 335 152 -392 0
213 -456 349 428 0
147 -328 -99 413 0
182 -337 -438 32 0
-235 -244 -301 -313 0
484 343 99 -371 0
342 -97 94 -167 0
76 -410 376 32 0
-82 -104 254 343 0
-489 204 34 302 0
-314 58 111 206 0
78 -132 85 53 0
-429 -269 316 210 0
-436 329 -153 393 0
-401 -436 -97 447 0
-390 334 196 476 0
-220 385 22 492 0
-65 -214 -132 130 0
-476 440 266 -499 0
-21 118 -116 332 0
-67 336 -95 135 0
-366 -31 296 -176 0
296 -33 287 417 0
20 -2 -459 -275 0
148 -411 -200 143 0
-333 -158 -122 201 0
-467 -302 -380 -242 0
-49 -41 -385 -428 0
-356 455 422 459 0
222 -177 289 -381 0
485 36 -317 194 0
-361 -435 407 189 0
-358 442 -334 458 0
87 -84 -205 -492 0
486 72 80 77 0
25 126 -268 -497 0
-285 310 -105 -216 0
324 -334 251 -286 0
-314 422 223 -64 0
143 -26 250 -100 0
-500 -312 -352 -240 0
387 -403 7 -181 0
-97 360 -279 32 0
308 200 -384 268 0
-243 -352 298 -192 0
-478 164 414 -143 0
-143 -175 260 235 0
-479 435 -227 255 0
277 -494 261 380 0
-245 373 51 329 0
-153 426 204 -205 0
-480 438 381 -22 0
-440 -412 -39 -389 0
-350 335 116 386 0
-327 405 477 -219 0
322 -121 -466 -3 0
283 -433 338 441 0
200 -301 430 -10 0
432 -368 -19 119 0
-202 179 -8 26 0
391 142 97 -387 0
444 -457 13 -196 0
-390 18 -108 123 0
-297 -181 -61 432 0
-48 401 81 263 0
174 -294 409 -264 0
-147 -338 -154 -112 0
-65 441 387 -24 0
-381 -434 324 97 0
80 54 72 233 0
-319 -400 435 -426 0
-175 -244 -243 -184 0
-137 -106 -386 -231 0
139 71 266 429 0
391 -339 473 -155 0
-318 481 363 -304 0
488 -419 -326 341 0
59 -314 -254 -88 0
-304 65 162 -203 0
-344 219 -195 450 0
165 -283 370 -448 0
155 -166 319 -458 0
281 -126 313 299 0
-180 -38 -35 -189 0
297 262 278 -452 0
-467 62 351 94 0
38 436 268 -447 0
-404 -353 35 443 0
-422 -148 -264 395 0
299 -109 -88 324 0
-19 117 494 196 0
27 147 17 -106 0
-421 -258 -194 -35 0
432 -476 450 -134 0
153 206 449 -365 0
238 -44 79 -419 0
-5 -347 196 -314 0
-133 446 -199 314 0
303 130 226 165 0
178 118 174 50 0
-466 387 290 265 0
78 -318 -349 -334 0
-487 180 35 147 0
-416 -261 489 -224 0
-389 353 110 154 0
-145 -197 -331 -147 0
-56 -52 165 -158 0
-404 -262 -127 267 0
430 436 -384 -347 0
-186 70 -269 -11 0
-229 234 110 -391 0
-254 108 -122 -218 0
258 78 -341 -27 0
-450 12 -318 -220 0
-73 60 -498 118 0
-335 -386 -302 -441 0
405 -169 325 -311 0
87 273 -369 296 0
-475 -235 -190 -58 0
463 -256 234 255 0
-491 386 -109 -138 0
215 -191 -166 99 0
-23 -282 468 -102 0
99 -231 -78 435 0
-127 410 -377 -200 0
-466 -195 422 165 0
61 304 -100 454 0
-220 140 -413 -204 0
438 399 -239 288 0
145 97 -282 25 0
-430 400 287 215 0
198 -401 493 317 0
-155 -2 454 255 0
270 -356 -355 84 0
-327 -64 348 -29 0
262 -37 -438 -394 0
-472 -212 -20 -454 0
31 -292 261 -253 0
-209 243 -201 239 0
290 143 -443 -475 0
453 94 18 -186 0
-133 459 -59 361 0
101 11 -99 -301 0
-285 308 -124 -248 0
-30 -364 191 -308 0
-293 -459 89 189 0
-271 -404 -256 191 0
-93 35 387 -330 0
351 -258 277 196 0
464 -272 -382 -306 0
160 233 330 344 0
359 -293 97 10 0
-259 -457 482 225 0
-43 -258 -145 419 0
-63 -140 337 -336 0
-161 -278 231 85 0
-156 -454 -174 -268 0
74 -52 188 -474 0
425 -478 413 124 0
169 36 312 349 0
117 -324 319 -406 0
165 -156 -85 -335 0
-197 30 228 -290 0
-457 -160 -243 -192 0
41 -308 -106 -140 0
25 393 267 449 0
-101 155 -221 374 0
-116 26 196 -230 0
-234 282 -19 288 0
92 -21 -192 40 0
-345 -158 -310 490 0
358 -354 -124 -479 0
-72 -124 289 96 0
421 -366 259 -356 0
-16 125 -373 210 0
432 -214 255 -222 0
-463 496 -348 103 0
-401 -121 -45 268 0
-490 -361 295 115 0
217 121 440 59 0
301 -121 47 -192 0
-321 -48 -410 243 0
137 -317 -230 113 0
344 -209 -410 -421 0
205 -290 104 -215 0
-288 -191 -363 -415 0
348 -444 147 394 0
390 187 -498 459 0
-161 68 459 -380 0
-308 -199 434 -9 0
392 171 -421 141 0
467 -386 -71 141 0
123 327 -307 -161 0
-419 359 200 -431 0
27 25 371 -75 0
14 -474 94 -341 0
-401 -89 25 442 0
-315 200 -320 -195 0
162 195 236 207 0
404 312 405 -382 0
302 493 -305 323 0
1 -167 -406 125 0
423 -284 -237 409 0
-414 -421 -493 -300 0
-167 -395 -500 -76 0
380 -309 95 -379 0
168 14 477 22 0
440 -36 399 -232 0
246 -434 -473 -15 0
-237 319 357 -419 0
70 143 -200 23 0
281 -243 235 -489 0
230 271 -345 111 0
427 -436 83 207 0
379 -314 -240 -482 0
258 -63 -410 -166 0
-110 258 404 -47 0
45 294 338 -101 0
40 349 96 -435 0
417 -80 257 -8 0
396 -86 -279 -405 0
-332 -262 -319 83 0
315 -317 222 283 0
456 11 -480 312 0
-117 -61 -391 333 0
-155 455 -489 10 0
291 -392 -305 -346 0
273 -130 -479 -87 0
-341 -468 -457 -60 0
497 222 353 143 0
-464 -209 -103 -378 0
469 -168 274 219 0
264 495 -451 153 0
-350 52 -411 -422 0
-153 -389 -137 290 0
331 -440 18 -52 0
364 -83 -470 294 0
351 366 386 431 0
-378 -181 -115 424 0
-112 -160 -179 -195 0
380 311 163 -87 0
490 -199 -31 112 0
-306 79 480 -199 0
129 -50 336 47 0
-51 -77 -439 426 0
206 400 353 -57 0
-31 -298 217 -485 0
36 -181 -22 -93 0
-40 -195 -13 -385 0
248 -340 -183 -406 0
155 -237 33 395 0
-342 11 -235 33 0
237 58 194 -453 0
196 248 4 -146 0
380 184 -270 -176 0
415 474 46 -131 0
278 380 464 -274 0
226 -151 197 154 0
154 -100 -369 -479 0
-402 -299 -229 255 0
355 476 -268 -3 0
449 -70 -428 155 0
-24 -209 -240 484 0
-318 213 -65 -185 0
110 -361 -125 74 0
-389 196 -212 -473 0
9 -410 46 208 0
-79 176 76 420 0
235 309 -49 109 0
-154 305 -192 -419 0
198 -356 375 -49 0
272 -351 168 -40 0
-153 -431 -151 154 0
-50 -22 -328 -169 0
-381 430 -428 247 0
-468 145 399 -491 0
-468 43 94 215 0
-95 55 -440 -248 0
182 -375 -195 132 0
-473 -187 -149 273 0
-10 -96 26 -346 0
417 -422 -174 396 0
-109 307 69 80 0
51 491 462 -488 0
393 23 -37 224 0
-17 -33 -166 7 0
-449 315 -355 232 0
-79 -258 -167 -141 0
-92 -398 249 435 0
-21 487 -383 238 0
-32 -187 -407 -394 0
441 -144 -287 -263 0
-318 451 -214 270 0
38 -440 -427 182 0
-214 282 -16 392 0
-383 62 79 132 0
-140 -235 295 79 0
488 32 181 261 0
324 -243 -110 -428 0
1 257 350 -285 0
240 -414 -427 213 0
-499 476 -53 258 0
-149 133 361 35 0
-456 -87 247 -243 0
-28 -304 365 456 0
108 133 -35 454 0
-44 131 -324 -19 0
457 -307 -284 383 0
-188 -305 248 -317 0
67 317 38 48 0
-273 319 -256 -66 0
-301 -375 -273 -289 0
297 82 225 -437 0
-7 208 -282 102 0
-416 -404 405 -402 0
463 462 -195 -461 0
-127 -395 97 90 0
88 -91 -73 -213 0
-96 -439 228 213 0
33 69 -10 456 0
-203 227 -345 -48 0
-367 -284 370 -49 0
336 72 447 -373 0
-135 133 367 26 0
-227 -225 -441 346 0
434 -296 -94 -14 0
-356 -496 321 39 0
-361 428 -394 -444 0
-230 278 381 -30 0
-493 -168 -28 364 0
-46 -366 -453 -494 0
272 131 331 -181 0
-193 470 -253 -317 0
-372 -284 -417 283 0
-62 -438 295 -74 0
361 194 132 233 0
-114 348 168 424 0
-93 271 462 346 0
-337 -250 14 -240 0
276 -364 175 335 0
13 -120 -217 308 0
-4 -44 -101 -20 0
336 -224 -30 -106 0
-150 -445 -121 161 0
-196 -312 -68 -114 0
-24 236 216 -406 0
188 204 -397 61 0
-387 218 -354 260 0
460 477 179 -467 0
130 -300 -328 -409 0
-366 336 92 -68 0
160 251 420 -405 0
-291 -120 3 87 0
-368 126 181 465 0
-295 239 -256 261 0
-373 376 377 212 0
242 -40 96 29 0
-249 -90 162 -179 0
239 414 432 419 0
312 385 362 -442 0
-252 -22 438 -341 0
-137 -479 -469 404 0
-293 -408 7 -295 0
-377 245 62 -30 0
261 -206 303 356 0
-356 -294 -103 -415 0
285 391 -174 -232 0
-336 -354 22 -426 0
90 74 218 491 0
301 -194 209 -418 0
-182 -144 -186 324 0
-475 -199 -163 410 0
-347 213 6 76 0
-103 83 -386 138 0
-452 412 222 198 0
40 363 -180 449 0
288 217 400 -88 0
-380 177 -28 -318 0
-129 435 -136 361 0
-487 -98 -257 -26 0
190 -269 -201 172 0
-279 17 312 -101 0
57 209 -448 -496 0
-35 -191 130 -37 0
437 297 221 242 0
258 50 376 -116 0
-316 -242 262 -276 0
-25 -271 -283 42 0
252 286 305 265 0
-330 301 -372 -232 0
-328 132 103 -265 0
-269 450 416 -25 0
-420 452 -215 42 0
185 -58 -152 -12 0
57 -224 -405 458 0
-266 305 325 409 0
-409 12 -500 63 0
-314 181 -165 -462 0
222 -435 -343 -104 0
472 -121 -79 -309 0
-192 -303 447 289 0
-22 142 140 451 0
-337 346 58 462 0
-417 -473 -353 -317 0
331 241 21 306 0
481 -443 323 55 0
163 -285 61 23 0
343 403 -368 464 0
-463 200 -153 469 0
-163 -470 137 253 0
-269 21 -373 -442 0
285 -44 -182 426 0
251 -192 379 73 0
-29 -392 390 271 0
-126 114 271 51 0
433 359 88 -342 0
43 498 467 -465 0
401 499 452 -442 0
195 -215 314 500 0
-121 -480 -207 397 0
198 -256 -130 -59 0
-89 211 295 88 0
410 365 -370 -497 0
-482 117 -418 -306 0
-372 -111 -342 181 0
50 59 -331 449 0
-432 50 267 -428 0
-239 -424 461 -410 0
373 -200 299 -325 0
51 355 -29 346 0
-157 -271 -78 129 0
44 123 370 179 0
-484 -289 97 -20 0
-225 468 -413 51 0
200 244 456 -21 0
139 -14 -384 263 0
337 181 340 84 0
322 -210 -81 -43 0
-415 -5 -218 343 0
-2 468 300 111 0
487 -440 -72 -463 0
229 80 -472 -405 0
441 -106 -433 -67 0
-71 394 -131 -311 0
-9 -139 417 -55 0
156 -51 -175 50 0
112 -370 198 -273 0
-266 346 31 -290 0
-217 59 35 -156 0
-245 -130 -311 87 0
429 372 -296 -129 0
89 -472 -34 -126 0
147 -67 9 43 0
330 395 -260 -146 0
-196 -192 165 -370 0
-302 239 120 -161 0
-377 -149 -321 487 0
449 -245 348 142 0
-123 327 -271 -166 0
422 99 315 309 0
-265 -201 -322 -210 0
-149 388 406 -380 0
202 170 30 480 0
131 -272 373 -218 0
311 -1 -281 -15 0
-149 152 -355 401 0
-108 -363 -330 -151 0
-404 482 435 393 0
-392 -492 192 -197 0
259 487 332 154 0
206 233 136 4 0
54 23 -33 133 0
-98 -229 379 439 0
-316 373 -18 155 0
147 37 -428 -300 0
-79 -225 435 179 0
-370 -290 263 -407 0
-453 -9 374 -203 0
-121 -414 262 384 0
-135 -46 -140 54 0
-478 198 -152 -123 0
-448 -407 18 -243 0
39 199 28 244 0
-219 -471 52 -261 0
29 79 -16 7 0
-423 -197 -252 -369 0
366 470 468 -356 0
4 -88 239 310 0
436 402 322 -9 0
-308 113 -210 325 0
71 -405 324 -92 0
14 378 493 292 0
-149 -272 468 -158 0
450 -316 -80 22 0
365 -2 4 307 0
-239 -426 -336 -15 0
-233 156 -153 -242 0
-368 -455 -393 144 0
-10 -412 -245 -494 0
429 -490 383 -255 0
402 -76 -180 -302 0
-8 -472 -134 99 0
-427 352 -328 -1 0
159 -35 339 -402 0
-142 -155 127 99 0
-88 -471 -437 299 0
34 -409 -284 190 0
-365 354 124 -353 0
-447 198 82 399 0
-430 -383 -152 -88 0
173 434 480 -268 0
245 -84 260 -228 0
-481 309 392 398 0
-96 400 -223 304 0
402 -211 371 496 0
390 282 410 -487 0
-314 483 72 466 0
280 199 129 14 0
-201 -493 -297 -461 0
448 464 431 161 0
-312 262 500 467 0
104 461 -235 377 0
-30 -181 -275 353 0
-68 -194 326 307 0
-96 132 -15 246 0
-87 470 19 -199 0
457 385 -249 -118 0
-494 115 379 -69 0
-414 196 58 465 0
373 -441 338 -382 0
319 -115 290 -156 0
-396 -477 -6 -271 0
-249 199 -235 128 0
-30 -6 415 53 0
47 -152 160 312 0
-245 -439 74 -10 0
246 -323 417 -103 0
-161 -409 328 495 0
-415 344 407 299 0
-252 -230 -247 -282 0
74 316 328 295 0
-332 -2 27 -350 0
373 378 -203 -463 0
139 335 25 143 0
221 -101 -379 -144 0
-211 -185 490 332 0
148 -241 -151 342 0
-363 -480 -84 -209 0
451 75 -399 -190 0
473 57 -294 286 0
412 310 -201 101 0
384 -353 415 195 0
-281 -402 -48 339 0
274 391 287 -453 0
180 149 -271 -393 0
-260 166 209 -198 0
-162 400 -222 26 0
134 -242 344 -202 0
242 418 89 -444 0
-334 440 -71 115 0
-190 38 462 387 0
477 345 63 -134 0
397 181 -171 -492 0
268 364 226 -125 0
-437 -429 304 -385 0
-219 232 396 -434 0
-500 -20 298 231 0
-355 -325 218 193 0
-92 57 -346 202 0
124 -245 292 -169 0
325 382 73 148 0
117 -215 -132 -149 0
442 348 -346 185 0
-244 -111 -449 206 0
417 14 -16 265 0
-90 175 -377 -500 0
120 365 422 -394 0
-387 -196 11 -348 0
491 -309 85 -208 0
325 255 117 -279 0
-272 35 127 262 0
-271 -129 -126 216 0
248 -186 241 483 0
53 -441 -453 -136 0
-395 62 177 -359 0
-96 9 -32 492 0
-145 194 485 133 0
-425 438 -131 -448 0
266 19 -206 194 0
-208 259 -437 74 0
38 491 -361 -169 0
-364 101 -453 487 0
-119 -122 -175 -442 0
331 -288 -84 213 0
212 297 -118 -311 0
-377 -397 396 357 0
210 -258 -448 -329 0
-263 112 421 -499 0
-8 65 449 -11 0
291 42 -6 398 0
-150 -78 364 -56 0
-192 384 -444 -16 0
246 -199 212 498 0
-67 123 401 -245 0
298 487 -275 5 0
-160 -241 -376 -224 0
-294 50 13 -285 0
465 103 -454 455 0
285 237 -474 165 0
252 -446 -217 -385 0
103 79 -296 143 0
341 152 -446 406 0
181 -15 191 336 0
-227 -224 -97 416 0
-158 -388 -196 492 0
45 -300 438 59 0
-469 365 -48 26 0
264 -399 139 -219 0
481 -76 249 -416 0
-310 -89 -378 74 0
-170 -359 -64 -147 0
233 -154 -103 -39 0
-222 -112 -377 -461 0
250 -319 -194 -252 0
283 -395 -19 485 0
411 254 -491 485 0
15 -329 294 340 0
-335 -368 -141 460 0
385 -26 -241 306 0
365 471 136 13 0
315 383 -138 95 0
-336 -342 -429 -71 0
421 -183 -258 409 0
-114 489 -414 -334 0
413 193 321 379 0
215 -435 197 -375 0
72 213 121 144 0
-127 320 407 -130 0
-256 -442 324 99 0
435 -155 470 127 0
-47 -493 -211 431 0
190 398 -149 415 0
251 460 369 -5 0
-15 52 411 -412 0
494 -88 -355 150 0
-54 -474 492 -183 0
211 -297 194 132 0
96 -194 -131 336 0
159 -86 -323 448 0
130 249 454 172 0
-272 -304 -287 172 0
-37 72 -346 472 0
-220 -157 -354 112 0
115 -66 92 -100 0
-337 250 -146 364 0
-106 170 140 -258 0
16 -53 -237 86 0
146 371 -236 375 0
-32 308 -189 -79 0
317 -477 443 -454 0
262 29 166 -17 0
255 -110 49 -123 0
201 245 -457 -125 0
238 -390 -93 215 0
137 -131 -262 -413 0
-381 208 233 -71 0
344 -275 362 -106 0
343 47 498 -229 0
-424 -60 219 -148 0
-398 -231 351 -276 0
160 -302 -170 -215 0
-83 203 396 -294 0
227 -332 427 374 0
461 82 -428 -234 0
419 -154 233 64 0
-128 -494 -154 416 0
299 -316 -392 -317 0
493 334 -122 449 0
349 -11 -72 -425 0
404 273 230 -261 0
-68 409 134 138 0
403 -134 391 -95 0
10 -349 276 -267 0
-211 -158 346 -348 0
353 21 320 -361 0
490 -449 -113 -132 0
122 177 434 -61 0
-21 -318 -268 -348 0
-2 464 -220 -164 0
-162 322 193 224 0
-68 78 446 -203 0
-53 127 -21 -152 0
93 -377 421 -122 0
54 -225 323 -394 0
-117 78 -204 202 0
67 -386 495 248 0
-348 247 498 -27 0
171 -238 -173 217 0
29 413 57 394 0
-262 -313 304 147 0
250 -438 111 163 0
-315 202 444 51 0
484 -318 -114 304 0
-343 156 15 -59 0
-88 469 451 -60 0
-322 363 250 -147 0
395 -244 -356 -427 0
71 -500 464 17 0
81 227 339 -43 0
-336 -116 126 -255 0
-354 346 -498 193 0
212 159 259 381 0
287 -48 124 -230 0
63 414 213 139 0
-423 -402 -376 -31 0
-341 -19 385 482 0
384 318 200 -73 0
-124 -429 33 342 0
-160 373 -297 -103 0
-369 89 179 273 0
349 268 -98 -128 0
-195 -72 -228 -344 0
414 202 189 328 0
-339 -403 325 -418 0
-288 207 371 -123 0
-301 -253 232 234 0
240 -426 45 -433 0
-232 -490 -187 -312 0
129 -214 -333 -275 0
-358 324 362 255 0
239 242 -424 -302 0
434 155 338 -50 0
-114 -472 272 -162 0
448 346 -314 172 0
-480 426 -63 -79 0
277 -261 61 83 0
378 42 -94 -190 0
38 -244 -308 -39 0
469 -96 -351 -235 0
-393 -174 -180 -470 0
-317 497 -275 358 0
123 -158 -169 -133 0
-401 74 18 490 0
-268 -195 -305 -183 0
377 -293 16 -330 0
-397 69 371 -337 0
-9 40 124 84 0
482 264 -395 234 0
-180 390 16 -393 0
100 -48 -404 264 0
-160 -176 500 -399 0
-350 289 199 405 0
-371 -465 -87 54 0
-435 486 86 48 0
-249 -345 25 -376 0
66 6 124 184 0
211 -483 432 495 0
-72 107 -317 -120 0
-487 183 -204 -243 0
-26 176 286 57 0
-111 386 -286 75 0
-206 385 278 -471 0
-304 495 161 -317 0
-300 -162 194 -63 0
-296 293 68 -352 0
-492 -74 -121 482 0
45 -449 480 -486 0
241 294 -136 -351 0
152 129 -50 -228 0
-404 -135 479 -341 0
-481 -390 296 226 0
78 -483 33 222 0
-394 -276 -208 -446 0
-313 -249 -131 -267 0
-491 -279 -32 157 0
77 91 17 -390 0
383 202 -494 -150 0
-407 418 223 -452 0
-38 132 -427 -98 0
-500 -198 -402 24 0
-9 -67 -264 383 0
491 -159 -143 -37 0
121 -289 -385 -409 0
200 -241 178 -141 0
-423 -375 -357 4 0
-430 38 45 -301 0
-234 -429 339 -416 0
162 259 322 59 0
-173 21 -109 -132 0
-490 457 -35 -282 0
-275 354 248 -134 0
121 405 -489 26 0
-16 -79 185 -281 0
446 442 97 -468 0
2 290 422 -396 0
269 -213 456 316 0
-28 423 -454 -420 0
-442 -356 -334 56 0
-376 125 -185 483 0
474 -89 426 440 0
-403 480 222 428 0
-393 -286 -238 -327 0
-92 40 -1 207 0
116 300 384 -446 0
102 2 -66 -125 0
272 -449 484 11 0
-261 288 99 160 0
-11 -392 476 -179 0
255 325 -396 497 0
117 -412 33 -146 0
308 387 -315 -346 0
-211 -408 -407 -48 0
294 428 282 -134 0
466 -138 402 -85 0
419 -112 163 -382 0
-174 425 -245 -369 0
256 -266 406 216 0
30 113 -1 83 0
-339 -306 -245 -209 0
-176 50 -249 -347 0
379 -267 214 -162 0
393 464 238 -179 0
-46 -402 296 -73 0
-204 344 52 365 0
-394 402 108 -7 0
398 -419 -352 -345 0
454 -48 -242 -179 0
-55 -250 -451 -208 0
491 -229 -247 -398 0
-359 70 -135 237 0
315 12 -163 -455 0
-154 212 165 164 0
364 -177 -128 -183 0
-30 -190 -300 240 0
-282 -109 -476 -301 0
207 165 -161 267 0
-229 -432 -123 -326 0
257 283 47 73 0
16 -316 -168 231 0
409 -96 -86 238 0
233 330 497 -227 0
255 -110 -218 489 0
168 -493 -89 306 0
297 364 -339 33 0
293 -129 -204 410 0
-227 71 -432 12 0
-144 -66 284 -431 0
462 -292 -27 -285 0
165 403 -162 480 0
-95 -419 480 -186 0
163 -213 -294 -99 0
275 -304 373 -15 0
407 -454 -105 -286 0
405 -232 -161 -403 0
53 107 -139 -42 0
484 -200 -125 119 0
-277 427 -142 402 0
-402 205 -160 -12 0
-361 -290 -385 -181 0
385 305 80 -374 0
80 -462 -489 -184 0
34 -330 -140 315 0
-99 426 239 106 0
-332 132 234 54 0
212 258 276 -394 0
99 123 437 -70 0
198 -272 96 -116 0
-247 119 423 -212 0
-55 438 167 109 0
-306 42 -6 -346 0
329 198 -437 -152 0
-3 -275 233 -199 0
-130 -343 -113 -202 0
335 17 -112 -402 0
349 488 496 322 0
-161 -277 495 -391 0
-225 -346 -196 -76 0
-400 444 158 437 0
-75 -275 66 -309 0
51 425 -265 -468 0
203 -465 -319 -393 0
-41 -51 -204 -322 0
346 297 -287 39 0
-11 153 -264 139 0
7 -49 136 343 0
-408 2 -20 -431 0
188 -362 -300 81 0
10 319 -491 -178 0
14 -189 -177 -408 0
-44 461 70 316 0
-486 -116 -395 73 0
-410 -47 13 454 0
-290 -120 -101 287 0
-216 435 178 -105 0
199 376 -39 -357 0
-105 156 -486 -247 0
319 121 241 278 0
-406 -47 28 -167 0
386 115 44 500 0
283 -95 -133 288 0
-155 80 387 -17 0
118 -45 -31 261 0
-450 -98 -212 -391 0
-26 422 70 494 0
249 418 422 330 0
-413 166 -58 460 0
391 434 269 115 0
-390 96 443 -232 0
418 -188 217 282 0
21 -52 -135 381 0
487 -301 296 -359 0
284 -185 460 -120 0
-68 233 -428 10 0
-481 -437 -354 -433 0
-45 -259 -477 -196 0
-16 -406 114 357 0
-359 374 150 -339 0
-332 -359 -205 183 0
416 -313 251 61 0
-251 -13 16 -304 0
-123 196 238 -457 0
-284 104 349 -322 0
211 261 -397 94 0
-226 136 -200 210 0
-349 -480 -271 -320 0
-338 396 -259 -298 0
-57 -414 -248 471 0
-363 412 -280 321 0
-366 -462 106 -288 0
-18 491 461 223 0
-359 446 361 -261 0
85 165 -347 -309 0
-466 -73 338 103 0
487 466 50 7 0
-390 -57 -242 -76 0
-171 -193 -487 430 0
91 195 -179 341 0
-407 320 -318 -327 0
488 -469 358 292 0
-7 -39 -299 -398 0
-55 449 -290 25 0
-130 50 -391 320 0
-6 -138 -382 99 0
259 -20 -98 -241 0
-488 -388 382 -400 0
338 -45 303 -388 0
175 242 -142 371 0
214 430 380 -269 0
-440 374 -484 400 0
-55 -367 -356 297 0
458 -316 -35 -72 0
202 -3 -280 -360 0
-434 54 159 -220 0
-259 384 -64 -153 0
95 -441 49 55 0
409 376 -444 221 0
115 214 -242 56 0
349 234 -194 386 0
424 87 77 -205 0
126 -472 -173 -37 0
95 345 -495 -265 0
168 -13 -500 -188 0
270 -370 110 -458 0
-320 -97 44 -113 0
-394 376 135 -301 0
119 266 -486 -487 0
-415 150 35 424 0
-140 322 -160 469 0
471 -241 -251 372 0
379 -203 -117 191 0
358 357 -312 -121 0
-32 -213 -179 -406 0
-43 -38 278 253 0
-207 409 220 -339 0
103 -306 47 70 0
-344 430 -45 321 0
415 261 -234 -193 0
-407 -463 452 -105 0
301 10 2 -209 0
-372 198 348 262 0
163 -454 98 -295 0
408 34 -180 400 0
-2 -451 -305 20 0
-199 -238 -440 381 0
355 221 98 -135 0
-273 422 69 220 0
-411 399 291 -257 0
89 297 106 -409 0
-354 160 -234 -441 0
-118 -389 299 -82 0
126 -215 136 348 0
338 -154 -49 -161 0
-411 6 156 -323 0
-365 -293 -42 460 0
-94 214 50 26 0
-267 206 343 -435 0
-458 260 284 -499 0
-116 -401 -14 -161 0
-5 -325 -484 274 0
257 403 -302 -96 0
-50 -384 436 161 0
-490 395 491 304 0
273 306 -116 69 0
-327 -470 -253 -343 0
-447 -389 218 -385 0
-312 50 86 105 0
-38 -331 -88 435 0
92 -286 314 -281 0
-383 321 150 445 0
-346 158 -473 -133 0
-49 403 44 112 0
-32 155 244 483 0
-401 149 -321 155 0
-177 398 -304 112 0
239 -218 -356 -280 0
-414 116 392 -145 0
-141 67 -96 119 0
363 -351 207 175 0
240 433 -327 260 0
424 -289 -145 79 0
215 -305 -325 -1 0
-281 294 -304 -243 0
427 -291 193 442 0
-55 198 -356 430 0
363 -223 333 447 0
-227 247 -322 -226 0
-331 -17 305 -460 0
264 145 373 -240 0
-213 -358 -452 188 0
-308 -166 438 -413 0
374 -176 -280 390 0
-295 88 121 -173 0
-281 -11 -418 378 0
452 474 127 392 0
26 -50 -386 -134 0
-260 -31 -211 71 0
-268 -397 -226 46 0
-452 351 -170 -374 0
453 -99 -256 -208 0
343 125 134 -222 0
14 -455 -121 118 0
-312 430 434 -245 0
458 460 -216 344 0
-81 -373 241 -203 0
472 423 115 -348 0
-319 255 -224 297 0
133 -261 -445 -317 0
123 -143 276 -250 0
-147 -458 292 452 0
320 166 499 424 0
-51 437 391 110 0
323 114 470 126 0
179 433 279 -16 0
-282 330 -293 -157 0
-211 -345 162 149 0
-338 415 152 472 0
-88 -95 474 203 0
-314 202 229 -426 0
126 -30 -372 -20 0
-151 341 -364 -76 0
-376 -460 22 473 0
282 289 460 33 0
-97 91 129 353 0
-77 -403 246 -205 0
108 -388 334 411 0
-77 342 6 -340 0
-331 -10 177 -308 0
-370 395 -394 -352 0
85 308 -465 -11 0
-206 130 183 -89 0
-233 489 496 246 0
13 102 -244 257 0
-237 -465 -2 76 0
182 -136 382 90 0
178 -396 493 102 0
320 -372 109 476 0
-259 -73 -98 169 0
20 183 449 489 0
-462 188 -251 -22 0
298 -121 -135 202 0
376 476 248 -160 0
-89 -460 299 389 0
-301 -210 43 -156 0
235 -105 -430 -432 0
26 -245 -92 85 0
-148 -448 267 -439 0
225 119 -270 -461 0
4 261 -410 75 0
-14 -185 16 481 0
-199 314 -491 -143 0
-445 402 317 -126 0
214 -462 -246 296 0
-91 -97 217 -190 0
128 275 -387 351 0
329 -313 -57 -481 0
-425 -78 58 -418 0
466 106 -242 439 0
-277 292 399 -36 0
-368 60 -311 -50 0
-134 -186 -76 323 0
-312 -373 138 172 0
360 446 277 11 0
494 52 11 473 0
427 -379 -171 71 0
-481 -280 -41 -132 0
456 394 133 356 0
490 -428 -464 176 0
327 72 -392 200 0
-444 -400 406 -182 0
383 -164 -147 484 0
-255 -4 -440 -414 0
282 159 28 357 0
58 279 -275 -366 0
-479 -137 132 463 0
-63 -251 -259 -134 0
67 -91 127 347 0
324 457 460 -413 0
85 263 -430 -419 0
-294 188 229 119 0
-32 419 -94 -158 0
-166 352 61 -311 0
-70 89 431 -233 0
428 355 265 -399 0
-140 -162 -206 -388 0
336 32 440 -69 0
329 -333 -70 -15 0
-140 -279 251 -49 0
-460 23 -273 -109 0
-186 -300 414 120 0
-86 78 -98 113 0
366 -103 -326 141 0
445 -313 7 429 0
412 277 287 -35 0
-76 461 289 103 0
230 -194 -358 465 0
439 184 495 -68 0
-186 191 211 148 0
167 -353 18 -488 0
123 -192 22 303 0
-438 393 -472 -30 0
463 243 87 267 0
417 187 98 -386 0
432 108 297 17 0
296 267 -316 450 0
344 -453 -330 -242 0
299 113 -416 -89 0
466 -107 325 427 0
-212 -157 -82 428 0
-298 -154 -375 288 0
-446 215 -39 -106 0
-259 -329 -31 -271 0
277 422 -306 26 0
-1 223 -112 246 0
-493 -278 189 -3 0
-48 147 73 -194 0
-204 475 -191 6 0
-66 255 -112 -346 0
367 -486 -141 -25 0
127 -199 375 370 0
-393 -118 -281 -376 0
-151 -50 -236 158 0
-309 321 -498 -150 0
49 -423 -25 22 0
246 -356 -118 163 0
419 -390 -458 -188 0
-309 115 75 -53 0
-370 -407 -437 -128 0
-88 226 -311 -224 0
346 -256 -331 385 0
55 264 -4 -46 0
-398 -393 313 9 0
-373 -466 -280 256 0
411 -214 -451 -141 0
-169 -248 295 -22 0
-322 95 394 -246 0
-410 317 -17 -272 0
129 26 439 100 0
-369 -225 -35 -162 0
285 32 213 407 0
-25 339 2 -269 0
346 311 28 220 0
-241 128 -36 424 0
-367 -436 292 -449 0
-93 362 209 -390 0
-335 -311 378 -211 0
-172 239 -454 -240 0
172 165 -446 31 0
-189 -475 443 405 0
89 202 -169 156 0
411 489 -426 440 0
382 -150 -184 328 0
418 424 -194 -149 0
184 470 316 437 0
187 -464 158 80 0
428 -157 -159 341 0
-461 204 120 -200 0
161 -460 -110 -260 0
142 42 483 280 0
47 -290 -492 -238 0
344 -478 -40 -154 0
-153 425 -96 324 0
-308 -319 -251 126 0
38 133 -65 -169 0
-316 463 352 260 0
329 -385 407 -114 0
-348 171 -366 -137 0
93 258 412 435 0
-437 226 -143 -25 0
400 -161 294 -134 0
-364 267 143 127 0
343 463 155 327 0
87 -163 -99 252 0
-306 30 39 -297 0
-1 -183 -405 229 0
-315 -409 -313 4 0
-173 439 -403 -320 0
202 7 12 -113 0
-175 -88 391 441 0
89 261 204 29 0
-285 481 70 -391 0
30 78 214 -335 0
-389 -141 -97 -402 0
12 188 15 393 0
247 -152 217 118 0
495 -62 -105 -342 0
154 299 -474 134 0
-435 366 -178 -278 0
292 -433 12 218 0
-24 -34 -16 163 0
-249 210 -337 299 0
-374 -300 213 -53 0
-276 -57 -454 -243 0
-471 -261 -32 468 0
-381 17 -184 20 0
-485 -249 171 117 0
357 -498 403 440 0
-401 -291 205 389 0
12 -500 -161 -443 0
136 -452 100 227 0
-276 414 44 210 0
-181 157 426 119 0
97 48 -216 -49 0
-135 -277 -398 423 0
-43 -18 467 111 0
-317 -90 -336 -457 0
51 -198 330 373 0
-428 477 49 -251 0
110 -353 347 -136 0
374 44 -24 -40 0
300 -446 174 371 0
-70 -240 -163 441 0
-482 203 -438 294 0
440 -108 109 -134 0
197 277 209 286 0
64 299 -412 -46 0
122 132 40 473 0
-310 -351 140 9 0
204 49 -101 40 0
-418 -118 -34 -127 0
216 171 370 275 0
-181 -54 -442 57 0
-230 -495 -140 -334 0
-391 -485 334 -466 0
-107 407 -6 -159 0
431 -455 73 -228 0
292 -362 -333 -416 0
408 167 148 -490 0
-345 376 -66 377 0
-306 420 -406 156 0
487 -472 22 358 0
51 -207 411 -330 0
186 461 73 147 0
-291 66 334 62 0
40 -400 -158 -220 0
29 434 -272 178 0
190 -366 75 -210 0
84 351 -180 335 0
-499 -58 -85 -346 0
-83 -438 -195 -263 0
117 133 158 -310 0
-338 75 104 6 0
270 -163 351 -33 0
-303 -390 -430 129 0
311 -471 428 306 0
-55 -82 103 -350 0
-254 -301 -10 446 0
-466 -326 -239 -238 0
321 319 -317 74 0
468 -120 -145 -480 0
257 -308 416 -152 0
291 -444 491 259 0
-89 309 83 499 0
285 51 -373 385 0
-127 -326 -89 -72 0
-294 369 475 58 0
62 -41 -40 389 0
-486 -463 479 20 0
309 -20 163 201 0
-272 98 -465 -112 0
484 -365 264 404 0
-264 378 186 230 0
106 -241 389 178 0
-434 243 -258 -492 0
-484 407 21 -301 0
-47 63 -417 150 0
-79 4 -158 309 0
95 318 -137 -16 0
-217 -451 133 55 0
-280 191 -202 -468 0
22 -290 -43 -413 0
-174 1 -411 -498 0
-350 -399 360 242 0
-131 -336 82 -386 0
163 252 260 -175 0
26 444 335 58 0
-114 395 329 -116 0
299 -274 -142 -199 0
-378 -259 368 175 0
-466 328 178 471 0
473 -113 194 -13 0
-395 -402 240 -408 0
-128 254 -300 435 0
289 -29 395 255 0
17 -398 -288 113 0
428 -217 -383 295 0
96 -313 374 162 0
383 305 249 -243 0
170 192 430 -291 0
-197 -454 -356 -406 0
-395 276 -452 315 0
18 -3 -100 490 0
425 97 -250 -333 0
-347 263 107 -385 0
295 -240 -459 400 0
4 -24 200 136 0
-69 -467 -118 241 0
499 100 -8 -333 0
86 17 -272 -166 0
292 -135 -414 -220 0
25 397 82 -500 0
216 -85 136 124 0
193 -310 -215 -418 0
-393 147 452 -171 0
490 -10 197 292 0
-12 -91 -404 -76 0
419 15 282 -483 0
114 -212 -424 69 0
168 489 110 -25 0
-23 304 -446 93 0
-4 41 246 -242 0
-334 -99 -214 -348 0
-43 -334 -144 -207 0
-60 -163 -127 22 0
-412 -80 243 -175 0
211 -466 -38 -76 0
-188 465 389 198 0
300 60 459 -214 0
-481 447 197 240 0
-180 270 -153 -23 0
21 -350 155 -291 0
454 363 168 -48 0
451 -102 -447 -8 0
153 134 479 -104 0
-253 364 -472 -370 0
94 101 145 218 0
437 292 255 166 0
-175 -117 233 402 0
119 -49 -302 229 0
248 63 392 214 0
137 265 -134 31 0
103 -383 192 -413 0
-437 244 126 375 0
209 289 -461 47 0
-406 104 -465 -157 0
258 -492 254 -438 0
234 55 -330 207 0
-17 498 -406 -24 0
-416 67 -22 481 0
-333 364 131 18 0
362 -173 456 -161 0
-374 372 44 -239 0
113 -393 322 7 0
184 394 464 243 0
32 -415 -18 -256 0
41 470 -95 -302 0
-454 403 444 352 0
191 -187 183 -225 0
374 124 387 286 0
369 368 -339 -46 0
-140 -264 -308 -112 0
496 -258 -138 484 0
317 174 456 20 0
240 253 403 -255 0
-401 212 435 306 0
410 464 -193 -311 0
-500 -319 452 -63 0
-350 77 53 -462 0
-175 -330 -181 -109 0
287 409 33 51 0
350 326 395 -273 0
-20 -198 401 -334 0
-189 224 262 341 0
-314 -348 100 353 0
4 308 -395 -215 0
396 -272 429 -332 0
-83 32 -342 -437 0
20 197 -246 83 0
-23 210 311 464 0
286 -346 -227 432 0
148 -282 -47 -53 0
185 178 -165 -57 0
-198 438 -299 125 0
-335 -97 142 214 0
111 -269 -445 16 0
63 -153 111 6 0
493 -430 -452 -64 0
-68 -280 -257 -187 0
-437 -347 101 -85 0
-423 233 -259 285 0
439 -423 -143 23 0
-290 330 -178 -79 0
461 -433 253 443 0
-386 -146 327 238 0
301 124 -282 -190 0
-258 -7 -228 70 0
-266 119 491 -301 0
-456 142 -200 235 0
136 340 -297 87 0
-440 -319 -290 348 0
-187 104 355 -338 0
-169 21 -392 -423 0
19 370 128 -156 0
-343 -341 190 -321 0
359 -495 -434 275 0
-106 45 291 -368 0
373 -415 271 319 0
336 253 -490 450 0
-451 -309 -30 -419 0
141 76 466 376 0
14 27 245 264 0
224 455 -187 479 0
-385 345 381 451 0
87 -328 -306 -31 0
410 426 388 -442 0
96 -188 -172 -128 0
79 -41 -334 196 0
-186 -390 -142 399 0
258 37 40 -232 0
-3 -337 411 -207 0
-434 -135 -75 -299 0
-348 51 -94 175 0
225 497 126 164 0
425 82 363 380 0
-223 -347 450 -482 0
322 -147 339 252 0
-222 -381 123 -14 0
112 -72 122 -487 0
-313 78 171 -152 0
-207 100 -77 59 0
155 -63 476 221 0
-204 460 -50 -294 0
98 339 -138 497 0
-163 382 213 460 0
-226 311 158 444 0
-307 -256 358 247 0
82 -447 324 -392 0
392 306 -386 -427 0
-199 -156 -99 -59 0
157 337 58 127 0
134 427 280 -334 0
-291 -239 349 249 0
-5 -117 376 -176 0
214 -177 -64 -421 0
-208 -445 258 -4 0
-129 226 390 222 0
81 157 494 -55 0
-243 182 -92 166 0
59 -452 46 35 0
-300 172 -456 -7 0
-157 -25 -325 268 0
484 -190 338 45 0
108 378 323 93 0
-287 176 -181 -475 0
89 111 -406 489 0
185 269 324 -248 0
241 -490 -97 -146 0
171 480 -233 93 0
-11 385 479 484 0
-54 -355 -488 -281 0
113 -221 40 72 0
499 398 -11 31 0
-260 -101 -100 -21 0
-176 -78 177 195 0
289 32 -346 -74 0
-28 16 241 -377 0
167 -358 454 -23 0
34 -396 436 -345 0
-116 266 -207 -416 0
-408 -274 487 -392 0
-222 43 -33 402 0
-220 367 -305 334 0
-488 -241 -299 -56 0
-339 -254 -420 309 0
315 -167 -325 419 0
-202 231 22 -388 0
-460 -436 358 281 0
-55 356 -89 298 0
368 -343 360 237 0
-155 484 165 -138 0
46 189 -463 261 0
-470 42 356 -49 0
112 133 107 65 0
64 480 19 204 0
-313 289 34 -48 0
74 -453 98 65 0
-348 243 -500 12 0
398 -450 -461 237 0
-465 257 -418 136 0
-278 -296 187 -209 0
-435 -204 166 -361 0
476 111 -299 -217 0
-60 64 -38 341 0
477 25 -408 -471 0
-276 -32 -149 315 0
126 -79 -96 -54 0
269 -236 2 -162 0
-222 156 406 223 0
483 367 -29 -469 0
-469 -163 35 -201 0
307 473 -183 -133 0
-447 -196 -243 135 0
-348 -90 377 463 0
-280 27 262 -413 0
447 294 -434 -257 0
357 -18 -292 312 0
161 325 -437 -60 0
-436 -368 97 -248 0
-242 68 -2 -413 0
-304 75 -63 340 0
-203 251 -384 266 0
-269 275 -164 408 0
-126 290 -209 -391 0
-160 430 236 -208 0
-135 229 -228 326 0
255 -314 179 68 0
54 -38 244 339 0
263 -222 464 376 0
440 -409 416 -252 0
-442 -189 248 220 0
-394 85 -283 -122 0
328 33 220 -260 0
83 -183 -330 202 0
55 128 -409 -473 0
283 -192 -266 149 0
-144 -315 486 334 0
364 -386 100 -497 0
-139 -466 -163 349 0
-355 95 -341 -79 0
-201 -251 393 -279 0
200 -14 -206 -55 0
-310 -429 231 -88 0
-65 -336 -445 466 0
50 100 -209 -87 0
-86 13 167 496 0
358 273 -151 70 0
189 367 -385 -105 0
-274 -136 289 -422 0
92 390 -351 475 0
195 -196 -111 -263 0
-20 191 280 -193 0
-308 423 301 -434 0
-195 -106 -215 288 0
224 260 123 133 0
-414 352 34 152 0
-420 -91 287 -238 0
105 476 -466 289 0
32 77 -217 103 0
482 341 -67 33 0
-381 -19 -383 -316 0
258 -228 136 -52 0
-131 -232 -355 191 0
-115 -293 413 -60 0
327 -149 87 462 0
184 44 -493 -80 0
145 403 178 -172 0
204 179 476 214 0
-84 -316 -259 459 0
-331 341 -441 296 0
354 228 -35 218 0
464 203 204 -87 0
35 221 218 235 0
279 -113 128 61 0
-3 87 -413 -477 0
415 -338 -127 -90 0
-331 225 372 451 0
-349 -431 -248 92 0
295 317 409 16 0
-211 89 -153 -252 0
-185 79 -82 298 0
-298 -413 -323 189 0
-168 212 -175 -70 0
-412 -397 -470 74 0
-30 -495 -302 313 0
21 -53 -52 -279 0
-296 410 -297 -346 0
-493 456 191 325 0
-35 155 475 -65 0
369 414 -432 -389 0
-445 353 496 -294 0
-93 241 -46 30 0
226 -269 390 149 0
131 -408 -228 343 0
192 -18 -195 113 0
123 67 66 450 0
61 363 344 181 0
389 -460 40 408 0
230 437 100 203 0
-288 -65 -290 124 0
308 68 -463 204 0
106 -202 419 114 0
199 -82 377 -179 0
-410 168 -162 457 0
-12 -9 221 -213 0
-19 98 -167 30 0
-490 -332 461 -481 0
500 -307 -411 -138 0
-184 -333 300 347 0
-432 126 -186 -485 0
195 -204 335 134 0
-1 -156 -432 -50 0
-202 409 438 -387 0
233 -99 -308 -461 0
-30 491 -39 -24 0
-152 -268 92 -83 0
-398 445 432 211 0
297 363 374 337 0
107 -298 237 140 0
-102 -106 497 201 0
331 421 -281 -181 0
97 77 192 482 0
-56 -379 156 -37 0
464 -283 102 -56 0
76 197 149 -43 0
2 -249 -311 -338 0
-289 -370 399 9 0
324 258 -438 -128 0
-33 -6 158 -128 0
-245 -382 -458 334 0
-238 276 -284 -80 0
-103 267 237 166 0
-74 399 -137 -267 0
297 461 -313 331 0
401 -95 -165 -485 0
354 262 162 -344 0
401 -438 -104 344 0
-144 -155 305 -217 0
-44 -273 -429 -291 0
124 -265 33 263 0
-110 122 -272 174 0
-351 -410 13 320 0
233 347 145 263 0
19 -62 -399 -37 0
-253 -140 343 -380 0
260 -484 310 -327 0
82 390 -395 -267 0
-278 -144 -375 283 0
128 -295 218 -413 0
424 162 -326 467 0
-431 203 384 139 0
262 -133 129 453 0
104 -360 1 -70 0
30 12 -443 170 0
-402 -141 -275 401 0
-412 -250 227 374 0
278 223 -249 317 0
141 -444 428 -481 0
393 54 -396 -228 0
211 179 45 499 0
-489 121 57 -395 0
-437 399 428 -381 0
363 128 -45 480 0
35 -433 480 -9 0
112 257 -223 358 0
147 -7 105 118 0
-331 -225 -384 -22 0
286 -126 203 218 0
37 75 124 434 0
-481 58 -100 -241 0
-287 433 -190 312 0
13 -244 28 428 0
-334 -367 212 -91 0
319 205 436 413 0
-113 -327 355 179 0
-138 350 312 -371 0
-336 26 176 -454 0
-166 303 -299 -118 0
-314 -8 63 -50 0
-203 417 -286 -400 0
-391 326 -39 -33 0
127 161 138 -22 0
144 -60 319 360 0
332 -303 478 -221 0
-113 -198 201 -29 0
399 -21 -453 475 0
-435 320 -73 -147 0
124 -459 382 391 0
79 -84 482 465 0
3 -435 -30 -144 0
-494 -73 -272 296 0
428 424 133 -358 0
-426 25 -214 491 0
-8 496 459 -333 0
-63 231 -112 -366 0
376 -247 -457 -483 0
319 107 -155 416 0
-183 -225 321 -464 0
369 -475 -150 257 0
134 221 -219 -272 0
-33 163 107 17 0
-466 416 27 -470 0
-379 335 -260 -188 0
141 -394 17 447 0
-52 -187 -434 -160 0
-200 -377 -493 -313 0
-324 135 -109 -342 0
-478 -428 98 497 0
-347 -171 77 -252 0
262 164 359 -382 0
353 -454 -299 390 0
425 -124 381 390 0
203 17 23 47 0
142 -86 393 375 0
195 -152 -21 498 0
237 -280 -461 -447 0
-328 147 -421 -367 0
-456 -140 55 -51 0
39 -2 229 337 0
-462 89 -295 113 0
-427 -161 323 -390 0
-408 98 -50 448 0
255 213 496 356 0
485 -478 -188 411 0
-498 -52 3 -48 0
-173 -91 -335 60 0
-209 55 -37 -296 0
370 -269 152 -141 0
-66 -133 292 -328 0
-43 346 -95 -298 0
91 180 -115 -79 0
-311 -115 67 71 0
-251 79 -280 399 0
33 285 31 -252 0
411 -252 -290 436 0
156 -403 -471 467 0
84 -192 -29 -151 0
27 332 -266 210 0
490 97 10 -135 0
-89 139 -114 88 0
494 -325 161 -15 0
-314 109 -459 -199 0
-195 197 217 253 0
-372 491 55 415 0
-388 269 -397 147 0
-38 -348 223 -398 0
168 -356 -46 -366 0
-280 397 442 -269 0
322 232 312 79 0
217 337 -278 -180 0
29 -28 -430 -396 0
-479 -437 205 71 0
457 -480 89 50 0
-123 447 -102 -81 0
-177 80 -156 82 0
-238 392 -120 -413 0
339 63 33 -485 0
-95 366 218 122 0
422 70 -136 -209 0
405 -154 94 158 0
295 -41 497 -424 0
240 401 22 -142 0
-244 -318 -436 88 0
-159 52 202 -222 0
-180 223 -314 -82 0
444 -252 -273 -345 0
263 305 -394 244 0
276 -277 -466 21 0
-148 -399 204 35 0
-282 172 171 361 0
403 303 94 56 0
430 270 399 -469 0
200 -409 -375 -170 0
-327 345 -181 415 0
-24 304 14 275 0
-121 -212 410 -54 0
-236 338 223 -55 0
-235 382 282 339 0
305 -256 37 347 0
-103 153 330 65 0
328 210 172 -292 0
102 500 -5 -310 0
-340 -32 -358 56 0
-368 -370 309 -357 0
225 -373 -304 311 0
-401 -88 219 -202 0
-341 357 -165 -361 0
276 -45 -195 137 0
-355 41 -334 -99 0
-94 -316 -332 -128 0
-35 -254 -293 281 0
-46 342 436 -461 0
-91 -396 46 222 0
230 -104 -316 146 0
-25 -440 -254 480 0
-384 -33 -174 -300 0
-124 275 360 -122 0
-98 -26 254 -21 0
-436 11 -69 -165 0
219 -263 294 -307 0
82 -176 -236 164 0
283 -395 -67 373 0
-469 -162 -252 -383 0
-238 -162 -445 -268 0
299 -353 -251 395 0
449 332 -355 352 0
378 182 156 162 0
-15 -335 -157 -78 0
129 -273 -107 179 0
351 355 -467 -34 0
-150 -218 -211 -196 0
211 365 20 182 0
-391 -38 184 62 0
189 -250 39 202 0
333 393 -355 249 0
-292 496 317 -278 0
-456 -103 180 -149 0
229 -297 -6 162 0
192 431 -394 -228 0
-127 398 -9 245 0
-333 -110 -21 74 0
-451 482 284 -356 0
326 -110 336 -208 0
-336 84 379 313 0
-178 -192 197 -184 0
110 -151 -440 266 0
-485 -152 -327 -464 0
2 352 142 -60 0
271 -71 330 -126 0
242 175 -155 49 0
134 80 193 365 0
262 348 -97 -323 0
-191 -489 374 423 0
-149 25 159 -378 0
-447 -403 -491 -483 0
-397 -10 -141 -246 0
339 481 -39 368 0
10 -243 -264 144 0
-90 -164 -46 -218 0
-136 -311 -51 358 0
-230 -98 -108 -30 0
-173 331 -371 68 0
-87 179 182 427 0
317 42 -370 170 0
-227 9 101 416 0
-424 -152 88 190 0
-114 12 -16 -407 0
-38 94 -171 397 0
337 381 27 -251 0
481 2 53 153 0
-278 -11 432 -188 0
113 96 -282 224 0
-129 -489 -436 112 0
-334 158 232 -258 0
10 -344 279 449 0
306 -12 -274 27 0
-145 -122 -98 -387 0
118 -441 74 180 0
398 234 -318 -3 0
-114 -403 194 371 0
-127 -241 492 25 0
388 68 382 55 0
396 -153 425 435 0
-442 191 -79 179 0
-91 -30 421 126 0
467 -144 -318 -146 0
-370 -345 171 4 0
-365 238 107 -166 0
-215 12 -420 3 0
-160 446 430 294 0
89 -128 300 205 0
-224 111 -379 390 0
411 422 175 440 0
-255 -8 186 41 0
409 -497 37 335 0
-85 -33 236 8 0
491 -457 -475 -414 0
-500 -154 -467 438 0
-275 248 -476 451 0
-493 178 -52 489 0
-58 123 -185 304 0
-127 -38 307 438 0
-335 272 463 125 0
287 417 97 -242 0
254 91 296 -7 0
-371 37 -160 -340 0
62 120 -464 -81 0
468 105 -167 176 0
310 -198 128 26 0
-407 47 -182 -375 0
-156 408 -478 -13 0
-462 -158 200 259 0
497 175 -79 -350 0
170 108 -474 -280 0
1 -273 -131 335 0
