c 5-SAT formula
c 1000 variables, 4000 clauses, 5 literals per clause
p cnf 1000 4000
52 491 -513 -828 -576 0
-537 339 42 -632 -832 0
-80 -864 -486 803 614 0
843 -88 -963 872 -694 0
-344 808 930 -605 -774 0
-62 -515 792 -787 852 0
451 791 44 -140 281 0
-43 -13 -479 29 -272 0
813 674 631 -843 649 0
-102 -801 -183 -81 397 0
28 -505 911 -974 -4 0
-210 -554 -365 697 -616 0
-359 437 -849 -721 130 0
-371 -610 435 -868 -170 0
42 212 -138 975 646 0
-267 -841 685 331 -755 0
-737 -295 795 -114 610 0
-64 -153 991 4 54 0
-496 -494 -655 -617 332 0
695 943 -904 234 -246 0
724 761 -593 760 640 0
-593 763 -858 -39 -211 0
687 -657 9 -970 -581 0
768 -553 -180 79 267 0
486 -852 801 724 -379 0
-401 427 -58 340 -138 0
-701 237 -200 175 498 0
-25 -254 48 -890 690 0
622 802 -599 -534 -283 0
-998 -947 385 922 -33 0
-83 691 -582 7 101 0
-442 503 126 -640 871 0
323 232 -749 100 -837 0
-173 -592 365 434 -403 0
-134 -844 -595 -497 -941 0
-731 749 -838 -81 -346 0
-558 -434 953 788 -776 0
-236 -648 827 453 -6 0
-837 258 -87 931 33 0
730 789 233 870 -511 0
679 657 54 675 778 0
-78 740 -313 -418 -494 0
-389 382 -602 29 -925 0
729 -642 -343 724 -540 0
80 230 -908 808 -351 0
-803 314 422 698 -531 0
-216 686 -260 -284 901 0
-483 477 889 344 332 0
796 145 -55 -874 -255 0
-573 -415 838 75 -960 0
-902 -585 87 998 -702 0
-162 -111 961 545 -873 0
-919 558 641 -311 204 0
729 191 -551 486 210 0
949 -184 -191 -957 -801 0
-362 563 -410 -706 -976 0
448 -109 790 207 -5 0
-686 -769 548 -491 -4 0
65 -557 -303 435 -138 0
-3 753 -27 973 -147 0
-840 -778 726 -897 -262 0
-676 -841 176 -280 -828 0
923 946 -683 -454 480 0
-327 126 -163 419 -975 0
-435 -543 -258 -44 -681 0
913 -183 26 79 401 0
-957 825 892 538 515 0
758 522 886 -156 -355 0
949 -161 -568 -25 -582 0
669 -983 50 212 -101 0
-418 128 363 403 247 0
179 -878 -155 -395 370 0
-324 732 298 -683 26 0
-964 378 157 591 228 0
-393 -193 -462 452 231 0
-800 413 -553 -369 -313 0
-884 -51 79 105 -789 0
-976 254 423 -11 -399 0
964 -895 174 -410 96 0
-669 -760 -188 17 65 0
278 -63 187 -693 -141 0
142 -474 469 211 176 0
703 -234 716 124 434 0
-606 174 -963 -273 -974 0
638 339 -239 -67 701 0
989 -800 -206 -378 266 0
917 939 376 -762 -620 0
630 922 907 -525 -132 0
705 494 -665 -948 -584 0
263 -639 -515 162 619 0
861 809 -288 438 -814 0
-443 132 -886 -355 -508 0
42 825 561 529 926 0
830 198 -281 -405 -912 0
939 -386 680 786 410 0
-617 596 620 -93 462 0
-993 323 935 700 91 0
-227 419 138 570 -403 0
123 -599 639 -332 -437 0
-987 -734 327 683 -402 0
-546 -226 -837 -220 -339 0
487 -177 399 -521 -935 0
355 -247 307 358 -935 0
700 117 -103 666 878 0
-805 -191 133 -916 -923 0
-843 -512 29 815 114 0
-987 72 -936 -188 688 0
730 840 -79 426 27 0
558 -435 954 90 429 0
585 565 501 -381 694 0
-591 633 464 -107 602 0
-126 24 847 188 971 0
107 -342 767 -58 -324 0
982 444 -530 -248 -453 0
-478 -660 -102 -895 -847 0
278 777 764 246 -598 0
870 585 799 574 -644 0
367 361 -777 -597 -541 0
640 768 297 469 408 0
572 -170 107 556 8 0
-661 -675 759 590 -717 0
322 614 -447 -242 -116 0
-165 605 -866 -87 339 0
114 604 -813 958 253 0
-69 -247 -644 125 488 0
-688 596 -963 496 866 0
432 -84 696 17 -704 0
513 54 354 924 658 0
-324 -850 816 97 -175 0
-205 879 720 869 513 0
-912 582 -104 -626 579 0
-643 69 393 808 807 0
-77 717 28 -664 123 0
-101 259 -776 396 -356 0
71 828 914 -165 -996 0
-221 723 -296 618 -721 0
714 -883 -968 383 511 0
-391 417 -66 797 -885 0
-255 -485 -87 -115 -655 0
64 689 -517 898 -690 0
-263 611 100 402 387 0
931 567 -540 221 894 0
527 53 -771 -548 -123 0
538 213 -641 584 -907 0
-809 257 452 -369 993 0
-605 895 -189 404 -654 0
426 574 -299 -831 233 0
-637 518 850 217 231 0
343 130 -701 618 608 0
133 248 875 405 -522 0
540 -152 81 -789 780 0
-47 463 535 -339 663 0
983 83 -481 562 -594 0
-244 -791 976 -716 -466 0
946 881 160 -252 776 0
388 876 49 180 443 0
-929 -541 -357 301 153 0
-678 -30 -432 -326 -769 0
992 347 842 -337 192 0
892 -337 625 636 -48 0
-976 637 -339 -500 -900 0
-918 724 285 -484 -492 0
27 820 -785 304 554 0
260 -635 -116 882 587 0
474 -920 -126 -734 -867 0
-421 -50 545 -251 550 0
-487 -241 512 455 312 0
-157 -380 283 -20 167 0
-430 439 725 -792 715 0
-882 851 -152 209 -185 0
186 352 13 783 1 0
849 -280 -89 -580 -574 0
552 -338 258 32 659 0
-581 187 -934 248 265 0
-780 690 661 -923 -22 0
-749 410 442 624 -389 0
-624 -423 -389 -353 -844 0
-82 -937 -987 -622 642 0
435 -335 256 255 -305 0
-243 415 -585 -946 -755 0
107 -492 -179 -394 141 0
-135 751 528 -910 171 0
-669 -701 966 531 -74 0
-418 -921 294 -449 -172 0
714 -861 -647 248 698 0
-223 -114 -952 492 -168 0
-310 -51 343 -211 501 0
-991 38 621 -891 392 0
320 -309 374 702 -904 0
98 920 -586 -988 -272 0
-398 585 805 231 917 0
725 718 272 551 646 0
-266 154 -932 354 -394 0
299 -457 525 532 -275 0
-591 172 242 -815 -411 0
395 -83 869 323 199 0
424 243 -444 831 436 0
-44 -394 -351 507 810 0
-512 147 -931 -326 164 0
106 241 -476 153 602 0
745 -993 572 -973 250 0
-913 825 -770 55 -865 0
-431 892 -132 86 299 0
501 526 994 943 357 0
-233 -650 -117 -51 196 0
-465 -717 811 -308 404 0
-769 158 -671 -425 147 0
191 -792 -96 -692 -710 0
545 -621 788 850 688 0
-775 466 -304 716 -938 0
872 355 15 741 429 0
907 -364 -293 339 -480 0
-387 495 -399 786 556 0
-286 -71 -542 188 232 0
929 -188 904 13 587 0
-779 -443 631 -15 180 0
-424 -600 -639 -835 -692 0
215 -753 310 374 -756 0
-809 915 -591 657 386 0
168 -412 444 381 765 0
-774 -562 -95 890 -558 0
748 -550 172 704 341 0
-577 447 970 586 -242 0
612 -655 -120 370 -372 0
-517 106 -823 -332 935 0
-88 679 500 667 841 0
-749 505 488 -468 876 0
384 362 -582 819 -895 0
-1 -416 846 515 310 0
-238 625 804 278 -838 0
210 -811 606 595 -682 0
717 663 -705 -316 -486 0
203 -958 -118 751 358 0
937 864 180 -818 452 0
505 -41 -639 85 760 0
-631 725 -629 851 -545 0
187 -10 296 537 -592 0
-147 850 750 1000 -536 0
995 944 -171 551 808 0
383 618 -744 649 -370 0
-274 -814 522 -756 -57 0
-919 -490 158 -154 -14 0
-217 -145 799 -388 925 0
43 688 -64 201 -604 0
171 307 64 660 -835 0
-77 -98 -265 11 -294 0
-895 674 329 -298 693 0
831 428 866 496 699 0
-691 -1000 -268 -545 -306 0
866 502 583 838 -546 0
-75 426 -457 808 -222 0
-334 -317 -481 -349 977 0
16 705 -70 -981 777 0
504 414 -669 453 767 0
835 -808 -183 879 -983 0
-737 -915 -366 -900 55 0
512 488 354 369 -34 0
729 -633 556 631 919 0
-735 998 -303 372 271 0
671 -840 308 763 311 0
330 635 -666 937 259 0
159 -73 -876 149 252 0
244 110 -877 809 80 0
-297 -134 -651 -955 -39 0
-22 862 -123 -428 -556 0
-931 376 826 -700 501 0
240 656 127 -430 -900 0
767 531 542 175 -313 0
362 -446 -336 -964 426 0
-238 -863 -316 761 -455 0
-165 -855 -115 -466 -508 0
632 -35 -491 -455 456 0
256 267 -915 807 -999 0
275 -411 -272 -363 237 0
461 386 -591 141 948 0
-855 -835 598 -891 272 0
-810 -718 -285 -336 -430 0
156 301 -601 402 602 0
218 448 -726 859 -249 0
101 -290 -848 704 168 0
-352 965 365 885 955 0
730 338 426 544 102 0
-201 565 341 328 743 0
81 -919 934 -940 -949 0
-940 -343 451 142 -788 0
-916 -149 305 719 -864 0
724 728 145 -981 -278 0
-202 320 893 29 -590 0
259 -958 -903 -521 725 0
-717 -411 -253 935 637 0
-116 640 693 775 -270 0
512 656 -970 567 606 0
-508 163 -873 -468 555 0
-685 434 -109 11 -819 0
314 816 -140 524 92 0
48 334 96 -320 47 0
-519 -914 633 860 111 0
-576 394 85 267 -632 0
789 649 202 332 424 0
308 -641 -363 -203 620 0
-7 695 26 -319 -239 0
-371 510 -64 -676 698 0
751 641 844 75 -993 0
-22 -630 -548 -311 336 0
167 -752 57 599 98 0
202 -300 -387 -92 749 0
-879 -983 -251 969 857 0
-384 -120 -529 223 -285 0
489 -360 -812 -477 -841 0
-386 426 672 584 95 0
-25 -93 739 -208 352 0
449 789 275 53 248 0
604 919 448 113 699 0
607 -854 -650 -901 -756 0
-398 395 -226 663 985 0
-793 828 -533 221 -334 0
153 57 13 160 -401 0
216 7 712 1 -486 0
-730 -459 -709 772 -424 0
-167 -650 214 -440 971 0
-42 -757 129 935 524 0
138 -732 -196 475 -17 0
456 -479 -385 -374 -510 0
-163 -434 804 -432 528 0
-28 -752 364 -930 -494 0
942 766 469 -145 688 0
696 -354 801 -397 -247 0
-896 871 -19 -565 -950 0
-73 655 762 -946 -93 0
-628 657 164 -606 -664 0
-700 431 -65 263 959 0
260 590 461 870 -816 0
552 32 952 37 -111 0
660 224 -711 -933 -609 0
-46 762 232 560 -641 0
-696 504 948 -452 645 0
-390 -539 565 428 843 0
-382 -191 985 -928 -99 0
-178 163 -760 -977 535 0
584 -122 -872 -463 -711 0
184 800 638 610 -221 0
-876 642 -212 837 -360 0
-828 158 654 354 617 0
296 839 275 492 -25 0
955 356 -940 -251 751 0
-523 604 344 816 147 0
-248 571 52 187 514 0
476 -684 531 298 -742 0
577 -918 636 -488 670 0
668 513 -720 168 762 0
351 -628 712 112 -838 0
-816 -43 -26 -745 948 0
341 -790 -48 -389 -414 0
102 471 635 930 -547 0
172 216 -754 626 -230 0
408 377 -107 -465 966 0
-353 -650 -122 -970 -289 0
885 908 134 736 960 0
208 -960 538 -658 -66 0
236 414 356 -561 -965 0
-326 421 989 253 42 0
-523 770 -989 -462 -921 0
-573 176 -133 -982 974 0
-866 -623 587 526 -143 0
893 -922 371 110 743 0
-612 -388 -522 654 -393 0
-668 296 371 -227 -97 0
228 878 930 -944 -245 0
-72 -611 -923 -852 8 0
-835 -905 645 -380 457 0
-772 817 10 154 559 0
979 34 -423 710 740 0
859 -480 -979 -75 -237 0
207 -556 -397 935 823 0
968 -239 380 722 -706 0
638 -439 420 339 -421 0
480 133 -238 -372 360 0
-880 -126 -642 -151 587 0
-828 846 -61 218 44 0
649 -745 742 414 -464 0
175 460 -601 674 843 0
-714 -870 -377 -362 653 0
980 -618 -433 -736 689 0
-165 974 644 565 758 0
162 511 239 665 -605 0
-21 69 -297 904 958 0
317 866 -653 172 513 0
-916 -339 -763 697 593 0
825 42 198 -842 -974 0
-828 415 607 -290 -309 0
258 -701 762 992 -769 0
711 -906 564 -339 -122 0
-457 -669 71 975 469 0
-712 748 -433 -662 -198 0
-661 -330 542 375 -812 0
-692 -526 -572 -550 -293 0
-526 118 464 -590 23 0
-130 -708 762 654 294 0
-707 470 555 733 277 0
468 564 -683 -486 38 0
-406 -273 -304 -843 -344 0
216 -189 325 -338 912 0
-751 -786 -799 -430 -560 0
-13 586 681 860 589 0
763 593 657 -255 -582 0
-826 415 -124 716 -879 0
-797 -353 -768 126 429 0
-681 551 76 -449 -746 0
68 150 -553 -737 -127 0
-909 77 -202 687 186 0
-626 841 -135 -687 181 0
975 549 467 821 -919 0
-935 91 650 -217 -608 0
-402 -668 -943 399 -13 0
-693 556 882 -910 -472 0
-538 359 -94 -789 -349 0
545 726 611 -652 -764 0
-427 -101 -140 902 927 0
671 832 950 598 -846 0
-290 134 -192 -80 -612 0
-213 -529 -616 984 994 0
-629 623 -314 839 -205 0
158 580 389 -301 -102 0
-680 76 -938 -489 205 0
827 -915 -221 -290 -729 0
721 -934 -724 -292 -748 0
467 415 -71 -104 -194 0
-200 -371 -265 -637 734 0
-428 -72 -956 384 -122 0
-299 -787 287 -205 -965 0
474 -496 824 348 -864 0
-354 288 -651 -679 859 0
556 478 989 900 326 0
-200 -818 86 -719 281 0
-63 497 965 -748 776 0
-973 651 104 -70 462 0
519 -540 493 360 -741 0
859 -871 868 222 549 0
249 -1 -373 967 742 0
-614 -896 98 -963 -299 0
-949 660 -975 395 138 0
444 492 -719 -299 -13 0
-894 -879 -551 199 -660 0
191 724 621 182 179 0
500 -606 -693 -523 -754 0
-895 812 -38 81 303 0
44 252 821 817 -79 0
297 137 -140 75 568 0
-210 -43 104 -566 -601 0
606 811 589 -569 420 0
-642 304 -927 -633 -496 0
-449 -248 679 799 563 0
187 -894 701 32 597 0
754 -784 507 190 779 0
-526 3 747 742 -668 0
273 785 972 -204 715 0
708 211 -828 -50 511 0
210 286 -979 699 -578 0
-40 -406 848 -306 746 0
-801 -997 -939 -246 689 0
-295 811 -821 -990 239 0
-889 908 550 -874 -119 0
443 -144 832 -747 -383 0
878 -897 -597 643 -352 0
-911 -380 -135 -285 -330 0
385 -414 -625 779 826 0
329 674 199 407 -426 0
777 343 136 -910 980 0
873 -144 600 938 520 0
-864 -55 824 -371 144 0
-597 -196 -92 -787 -890 0
-681 733 815 -201 249 0
-352 -568 729 526 125 0
166 -256 -712 -17 199 0
-159 438 -5 -612 -841 0
-882 15 -913 526 560 0
398 303 -709 443 -28 0
178 903 -637 808 -125 0
760 -44 -33 -262 43 0
229 -813 -178 457 -78 0
931 -7 -810 586 -693 0
34 215 -40 971 -164 0
273 238 763 -891 637 0
812 -130 -312 426 283 0
586 -462 296 751 -399 0
-366 180 -441 -492 -626 0
-453 -314 436 -325 -674 0
763 17 932 168 658 0
-631 834 727 220 -999 0
-772 -494 426 -258 246 0
315 598 -865 124 -470 0
948 -386 650 -952 919 0
21 642 234 560 -512 0
-26 853 -525 56 -540 0
-23 -639 -655 -613 472 0
278 538 -833 -493 138 0
793 194 -538 -342 -97 0
-765 39 -389 -458 -217 0
-773 -963 116 140 -810 0
596 620 -859 841 936 0
353 272 -14 -577 -434 0
-108 754 -334 362 -337 0
-925 -967 738 410 -176 0
-142 558 604 -653 -245 0
-930 -972 735 -439 -82 0
279 833 238 -565 -70 0
-335 527 564 -138 -603 0
-78 -166 496 168 -703 0
145 -879 -205 -302 589 0
960 -733 638 -179 -193 0
748 587 -109 -891 -789 0
-948 -644 753 -707 -155 0
-592 -902 -109 -463 -987 0
654 -978 599 -199 -1 0
603 -371 -865 -444 932 0
-667 843 -30 919 229 0
802 841 804 -865 587 0
295 -214 514 914 -506 0
857 427 527 -914 -904 0
998 379 936 591 -343 0
470 205 840 -375 151 0
289 -534 982 343 129 0
-457 237 -422 -467 343 0
306 -609 861 459 -980 0
321 -65 193 365 933 0
327 -213 241 926 423 0
428 -622 814 -945 -536 0
585 -76 318 -282 750 0
-34 462 602 970 -162 0
-475 672 -172 -946 504 0
-687 -531 -455 -97 175 0
-665 831 144 -729 -832 0
-754 961 -383 267 -661 0
-230 327 -656 106 -557 0
750 835 641 904 -532 0
-905 813 638 -405 -664 0
-27 103 -460 -932 -243 0
-74 261 566 -800 29 0
-198 -922 816 273 -496 0
346 -486 32 -506 553 0
211 611 -456 -589 96 0
76 -656 790 -230 698 0
-157 -653 73 289 -520 0
-609 -480 -928 -728 113 0
-42 -123 -992 -350 -602 0
-981 -939 646 -148 -711 0
-309 -162 -566 144 87 0
-140 336 100 831 665 0
-12 433 766 -850 -577 0
-764 986 730 -962 -306 0
-750 -56 -5 -689 546 0
172 52 752 786 549 0
-417 -490 -982 641 695 0
-527 -93 244 650 691 0
-701 526 -474 -549 893 0
284 -243 -559 780 482 0
-568 561 -666 60 -782 0
784 -145 -188 801 640 0
-312 537 861 592 -414 0
662 -595 -396 862 -422 0
-908 194 -286 -463 -330 0
-602 -699 581 738 -831 0
452 947 432 463 -706 0
-11 -232 755 -933 536 0
939 248 28 241 476 0
96 -236 910 -516 229 0
980 892 828 764 -478 0
-700 -96 299 -988 948 0
-550 322 -199 -181 360 0
868 -229 -185 -36 49 0
692 672 -501 101 -147 0
318 -615 -733 106 834 0
-451 86 527 987 -46 0
794 -247 549 -520 -914 0
-680 846 -672 368 -531 0
160 566 589 -770 394 0
667 -28 106 -726 342 0
648 -199 -20 637 584 0
-151 -626 477 806 885 0
-803 -485 506 366 102 0
776 -17 684 29 -260 0
167 -164 -654 479 -162 0
508 -830 116 779 -575 0
-542 585 808 812 -992 0
207 -541 907 -117 682 0
-662 786 -993 305 -959 0
-317 -503 -79 -509 -836 0
457 -229 -708 -411 -534 0
239 790 747 360 825 0
-672 -197 -185 525 891 0
-466 415 -849 173 593 0
-231 -524 -223 193 -298 0
529 -554 -742 128 -56 0
326 -877 631 -212 191 0
-215 -100 -15 -582 217 0
984 -3 386 597 490 0
640 -801 957 -199 -12 0
353 66 -762 -61 803 0
125 -327 -893 483 -184 0
-961 -921 -717 592 -920 0
587 -373 52 -312 297 0
-89 920 -699 -437 494 0
-112 -425 -984 -177 -92 0
-206 962 286 779 -997 0
-21 659 -150 -101 808 0
421 590 241 -663 229 0
-563 -714 -132 918 888 0
-485 298 -882 166 -79 0
-595 -971 244 948 -128 0
895 -11 1000 -194 -314 0
-323 966 -707 -933 -919 0
554 -717 -716 -573 -312 0
202 -579 341 479 -964 0
-118 946 427 -424 -661 0
436 930 -480 978 543 0
-832 -583 566 762 -781 0
-852 -726 -236 -6 -935 0
5 -489 537 -768 221 0
453 -573 -454 749 -571 0
921 825 -372 422 248 0
420 375 -98 -926 140 0
252 684 604 987 -239 0
-795 272 1000 230 -748 0
857 -507 390 -411 881 0
-575 -570 -333 349 -818 0
-786 508 -29 779 -254 0
-155 -728 156 -926 -685 0
-263 -382 -716 745 -375 0
287 162 -172 695 -234 0
-4 -167 -476 -740 -119 0
587 -611 -877 -298 71 0
-505 853 469 294 -839 0
-614 -423 925 982 438 0
-987 555 200 -289 625 0
98 198 777 -264 973 0
210 -155 996 622 186 0
-431 939 -764 155 772 0
-723 886 31 -373 370 0
-26 726 236 -682 896 0
579 81 890 823 -664 0
-984 206 878 610 -978 0
-498 686 -825 -606 129 0
483 932 489 718 156 0
147 -511 566 826 -619 0
991 629 -164 -493 -68 0
-902 94 535 785 -547 0
-601 -123 25 193 -308 0
201 -54 801 -988 928 0
128 -542 576 -209 -650 0
56 590 -118 -899 -892 0
301 -484 353 -397 -692 0
774 563 -848 995 -451 0
909 878 -313 38 337 0
51 -948 246 -93 -814 0
247 284 -434 752 -343 0
-489 851 -110 77 294 0
-2 -27 20 192 -401 0
-624 810 577 428 153 0
868 250 -544 402 -849 0
-6 383 -138 -83 627 0
-24 544 410 215 -722 0
-534 -147 585 -267 -122 0
-494 -76 -850 38 935 0
-861 391 -524 612 -569 0
682 -722 -517 -821 -333 0
-831 873 535 974 -351 0
-180 -506 -955 50 360 0
-696 692 -503 -459 833 0
-286 398 342 504 933 0
-151 -955 167 631 -109 0
-555 -941 615 884 183 0
591 734 -467 -254 375 0
-506 182 308 359 298 0
781 -320 453 -6 -330 0
318 -23 382 -514 -385 0
-175 -741 -161 -364 858 0
783 733 486 -562 143 0
647 42 -267 -470 832 0
-282 938 910 452 -872 0
-70 207 768 441 781 0
367 -343 696 896 875 0
-685 -976 24 299 470 0
-552 -781 710 -75 -568 0
141 436 -809 -793 -421 0
-269 971 299 636 -803 0
-557 122 486 885 -42 0
-993 -206 746 703 -960 0
-149 -663 925 347 -338 0
918 -554 228 -689 -144 0
-489 -485 -524 -469 86 0
-193 975 495 953 531 0
-790 350 346 -667 180 0
889 956 -504 872 1000 0
547 846 791 563 226 0
453 749 627 -428 -564 0
-609 -105 732 -520 -381 0
29 606 344 640 721 0
-924 -497 521 -929 879 0
429 627 267 -460 -889 0
356 779 -425 -623 242 0
387 -965 -504 742 461 0
557 813 -5 -946 44 0
967 -84 -661 -930 864 0
-748 -741 773 892 -923 0
52 -303 313 -6 -914 0
-41 -18 -318 918 479 0
345 -737 139 -429 73 0
-993 792 645 251 -335 0
-152 -821 -931 244 119 0
-518 321 -602 245 -244 0
-292 630 -184 -149 123 0
142 17 -185 1 279 0
985 222 -330 -584 995 0
7 605 361 -746 518 0
642 -193 147 467 507 0
-738 764 -212 22 -340 0
-409 2 -882 -229 -22 0
-801 -506 843 254 -423 0
554 -52 16 -924 994 0
332 -800 -590 -266 -579 0
-340 562 491 -998 495 0
712 60 886 877 383 0
64 375 689 -981 -295 0
-88 -541 -565 -554 530 0
-910 844 551 658 620 0
-683 409 277 -694 689 0
-434 -196 703 141 -743 0
645 -66 -320 670 -475 0
-199 761 487 994 -141 0
471 486 -667 666 -126 0
-389 838 -816 -352 -652 0
320 -45 -739 -909 -142 0
724 431 124 380 -222 0
-854 -276 424 -884 479 0
944 -829 325 331 130 0
-214 -771 -427 638 987 0
262 -913 -204 708 568 0
439 681 481 -261 722 0
-457 -229 313 -496 -338 0
-474 155 -522 -885 -604 0
-555 -155 843 964 -137 0
-307 -842 -601 -86 428 0
-586 383 623 863 -322 0
-127 -852 -330 -338 690 0
668 -490 -701 925 -638 0
-59 -485 726 148 79 0
-965 663 294 -938 -250 0
-318 -445 73 824 -489 0
-929 319 518 -26 -755 0
118 -152 -582 -776 155 0
738 898 -167 -316 -420 0
659 512 -198 127 -643 0
-523 154 -349 519 577 0
-278 817 904 -10 939 0
-943 -971 -822 365 796 0
768 -813 -607 -87 -431 0
385 -689 -733 224 -337 0
-144 310 171 573 -299 0
368 -925 -129 520 580 0
-867 -71 695 -592 703 0
-22 170 341 400 166 0
869 604 631 -879 -687 0
157 -96 935 -801 354 0
-926 701 -936 229 -922 0
768 -121 -741 -351 -24 0
-295 860 -697 -662 -219 0
489 88 679 638 951 0
505 623 -892 -855 -291 0
944 -184 189 507 449 0
-80 225 989 114 595 0
883 -754 -867 278 386 0
137 508 701 949 -23 0
61 -434 424 423 321 0
-310 -79 32 -212 388 0
591 359 -229 -874 -92 0
-644 496 103 391 -458 0
327 -150 -466 -771 630 0
770 399 512 -120 -115 0
-727 -196 -667 -849 897 0
449 -98 -841 69 726 0
918 505 -394 372 85 0
-44 379 62 649 -650 0
792 705 -709 -464 -916 0
453 -280 -541 657 -164 0
104 874 462 -616 -492 0
-908 -233 84 342 240 0
-774 700 540 871 -772 0
-931 -16 93 -980 -817 0
-595 162 132 326 -645 0
-595 -603 562 26 751 0
-801 -980 499 -267 -296 0
98 -558 935 277 -714 0
-217 849 -571 741 989 0
-662 168 498 -327 105 0
-711 567 -795 760 876 0
-820 129 422 -303 921 0
-797 572 -321 582 -899 0
-977 -269 360 -730 -691 0
-288 994 609 514 -363 0
-547 658 -839 -637 803 0
-350 902 528 36 938 0
786 -359 297 -758 48 0
-818 401 212 876 975 0
984 -857 -242 -937 797 0
-780 -163 -964 721 -486 0
-464 233 958 -821 -487 0
-552 -973 -429 -752 576 0
-903 161 -716 -48 -589 0
-263 903 -77 -804 503 0
324 777 -56 177 731 0
697 -510 409 360 -698 0
-950 -336 968 -975 -124 0
-863 749 -343 276 481 0
-528 -65 639 404 665 0
-105 -671 -946 -1 860 0
748 -29 621 733 457 0
-143 -474 -996 -494 626 0
-415 -825 -243 -289 -776 0
382 -534 181 357 -344 0
-229 260 -925 478 92 0
250 -420 912 -947 -316 0
-787 -938 710 170 835 0
730 -510 -440 412 -422 0
157 363 121 137 -877 0
245 159 -711 -943 -962 0
307 -726 129 -553 -838 0
80 -330 -848 980 127 0
-435 -325 -813 -917 -820 0
855 8 -436 181 -877 0
-43 900 -999 890 -914 0
338 302 -604 -124 846 0
-332 -854 857 321 450 0
845 302 60 347 -686 0
-508 616 -474 111 -657 0
601 -448 23 389 -337 0
-815 458 575 -2 736 0
505 -617 562 -969 773 0
-886 620 92 73 580 0
794 471 192 -956 -151 0
930 -250 -526 -907 -968 0
-157 415 515 372 460 0
-988 -635 -601 783 172 0
-990 848 -243 588 738 0
-624 -304 450 -309 541 0
65 -116 505 614 -638 0
-633 717 277 -690 -91 0
775 -518 -722 832 939 0
502 461 -498 -869 -133 0
-481 -592 -466 -3 -141 0
814 -962 -767 484 -384 0
-166 -346 433 984 548 0
338 -362 248 347 619 0
-229 -338 968 -309 726 0
-744 812 111 -361 413 0
461 655 625 997 634 0
-789 -233 723 581 -427 0
-781 -825 -511 -15 877 0
-67 725 -842 -274 -32 0
-42 -680 318 -726 338 0
121 297 -623 374 851 0
593 -104 -252 -541 -769 0
193 949 971 845 30 0
-194 -917 -572 -457 823 0
174 437 52 370 -465 0
103 -44 -448 440 618 0
480 567 304 -260 -278 0
-200 -927 -577 -230 -561 0
730 729 -691 759 -832 0
-682 117 593 -223 610 0
992 -27 -806 -448 535 0
-323 -513 -277 890 -363 0
531 -684 134 705 -546 0
-671 700 -707 396 -757 0
-169 -605 -866 -66 -253 0
523 396 659 295 -303 0
753 425 -947 444 -87 0
102 -428 666 -930 963 0
-811 464 186 647 -98 0
-793 -994 -435 -367 -689 0
-229 -257 207 644 -154 0
-665 89 -738 949 -101 0
739 771 -267 341 753 0
617 934 313 -693 750 0
398 -412 731 -390 583 0
802 369 -294 502 -987 0
246 207 -15 -425 -298 0
427 589 -240 -288 897 0
-14 -872 232 -633 -102 0
-1 -225 -648 146 617 0
198 316 -825 -839 -468 0
-556 330 -637 813 874 0
802 -481 -99 515 599 0
809 994 -254 240 547 0
-264 994 136 -189 670 0
-251 596 120 -360 259 0
-207 936 -262 391 699 0
965 868 306 -889 -548 0
-40 829 35 70 -968 0
223 -594 772 -737 -342 0
759 -777 278 -233 -383 0
-667 509 -476 727 541 0
-576 -727 28 997 -870 0
-174 -967 688 -715 337 0
-175 420 142 -143 -785 0
-734 -551 413 725 371 0
354 482 -762 -333 825 0
-363 203 -866 692 34 0
-10 665 422 94 -510 0
-801 -860 -870 -111 -630 0
-147 817 -911 -805 943 0
512 -690 330 -453 624 0
612 -292 -203 -729 -443 0
169 925 198 -421 -854 0
-548 471 -171 -329 -213 0
-6 208 -673 -582 815 0
-104 393 793 -362 150 0
583 839 -905 578 312 0
284 46 -628 -578 -584 0
-559 376 -493 -351 7 0
618 768 -731 422 855 0
-104 -887 -611 142 -775 0
-350 -650 -93 -849 -997 0
-888 -89 296 129 318 0
967 356 -947 -806 70 0
721 -395 278 225 -403 0
248 -581 575 898 -160 0
522 -448 -62 311 970 0
-133 -614 -302 605 708 0
-692 75 -439 -672 387 0
40 922 -609 516 250 0
-713 80 854 957 -664 0
-274 63 -360 -570 703 0
-972 24 923 -908 -152 0
-838 -213 587 374 -5 0
185 64 -68 775 -173 0
830 -750 -171 875 936 0
-191 13 -710 -922 -841 0
688 883 -767 551 -262 0
-487 70 -693 189 863 0
-500 -997 -169 -64 -910 0
-307 67 -850 -924 -540 0
927 517 -725 -183 181 0
-266 85 -137 -672 -537 0
977 -637 804 889 688 0
852 -415 -952 -17 374 0
905 -853 455 268 395 0
144 979 -74 -261 -93 0
356 625 -581 -374 254 0
750 -889 -237 937 -494 0
-929 -386 676 395 13 0
-87 -717 -46 -891 -713 0
396 -273 -338 764 -847 0
830 -668 -310 -561 -842 0
-545 943 -234 -188 735 0
329 -640 -466 900 969 0
-992 -911 -802 -844 -247 0
-823 761 876 -698 983 0
-640 -633 708 831 -314 0
-391 537 -250 593 984 0
-681 560 467 -464 -682 0
600 137 643 406 830 0
-284 -403 -28 102 300 0
65 -27 -725 5 887 0
-424 -987 214 -378 331 0
-808 694 -575 -925 840 0
51 -296 106 73 -966 0
766 -834 784 27 582 0
745 688 550 -96 -250 0
22 -373 -951 501 -262 0
-844 916 189 -618 -395 0
109 -566 -947 685 -219 0
-505 441 -633 90 235 0
200 121 -87 -710 207 0
842 70 -620 196 -353 0
-785 -661 396 -764 189 0
-74 592 -749 -454 816 0
20 -434 -244 -706 180 0
-280 -251 -350 278 -552 0
-160 -493 860 -410 -12 0
289 809 22 684 545 0
-84 243 259 638 -312 0
866 -89 153 820 555 0
-560 -425 830 722 -202 0
630 -409 -852 1000 886 0
371 695 418 333 752 0
499 456 -257 901 99 0
-336 502 -818 -543 -991 0
631 970 -828 489 -518 0
-425 -85 -664 -500 203 0
952 187 -767 -793 -640 0
427 887 550 683 872 0
83 168 650 808 -443 0
-865 278 70 -452 780 0
585 -176 -532 -152 943 0
47 -850 -325 -78 295 0
-595 794 630 48 -533 0
965 -299 679 67 813 0
-707 -559 -636 -753 824 0
-538 -636 83 660 -563 0
689 57 -208 624 -551 0
570 762 -897 -545 24 0
-191 -921 -505 -7 -396 0
229 -149 -326 -761 -861 0
572 -809 92 -413 474 0
320 -97 492 115 172 0
-311 -117 153 -644 96 0
254 840 524 -688 -394 0
-880 -765 -305 -324 163 0
-696 -641 738 -627 -853 0
151 684 -685 -358 -576 0
823 435 -553 881 190 0
-2 -344 675 372 134 0
-618 -218 -231 -292 -832 0
-480 742 -73 -248 538 0
-841 -151 -14 519 -983 0
-369 214 922 -372 -809 0
-573 756 -478 79 -167 0
-22 282 849 -183 154 0
94 -321 -752 528 -891 0
-790 -780 356 192 -672 0
-977 -1 541 209 -838 0
169 149 -413 -445 213 0
92 215 -795 189 -175 0
-992 514 690 567 -417 0
7 48 -440 297 96 0
491 -553 -199 749 638 0
442 -105 650 -339 708 0
324 611 -297 110 981 0
190 -855 325 694 -157 0
-356 687 -771 -103 -329 0
971 916 -255 634 -257 0
-834 -8 499 -660 -295 0
-53 473 -334 771 307 0
-730 -758 -944 10 340 0
107 509 425 -533 183 0
-242 316 -347 663 718 0
644 -74 -747 593 694 0
-636 682 618 820 -920 0
826 -247 223 686 80 0
221 -95 -143 -107 784 0
-801 -434 832 -684 818 0
-521 -518 -285 934 -176 0
118 794 369 -17 692 0
249 848 121 294 169 0
559 -565 234 -227 794 0
-708 -905 -771 -805 543 0
-415 368 -488 -616 402 0
-563 481 323 -238 -650 0
-340 -758 -877 845 536 0
769 395 850 -597 546 0
397 788 587 -724 -774 0
817 -7 224 532 -878 0
-26 484 555 774 134 0
-768 -561 -582 -270 -300 0
-362 -424 -366 -783 -326 0
382 313 -581 248 -982 0
234 -424 -596 168 -73 0
-522 361 880 719 264 0
745 39 -559 296 -708 0
734 -192 442 364 844 0
477 -927 202 160 942 0
203 987 85 -914 522 0
99 412 71 135 200 0
381 -221 -80 878 749 0
-325 -515 -100 -874 557 0
124 -462 405 108 -153 0
881 552 155 267 -288 0
-349 550 813 -664 -431 0
-953 -991 -233 -76 724 0
501 616 187 513 -236 0
-432 -295 562 973 865 0
-892 -878 -234 286 235 0
-731 7 894 14 992 0
-154 357 9 92 -129 0
46 -11 728 -443 167 0
350 774 -955 678 690 0
121 -848 -826 -667 917 0
-523 -824 454 864 200 0
-624 911 -425 879 251 0
968 62 175 -424 277 0
617 -623 866 -296 -714 0
342 944 -180 504 71 0
-90 -735 -47 63 -846 0
-806 -301 902 -492 -57 0
575 318 948 394 -349 0
-948 974 -905 985 -78 0
-269 340 -317 -600 -418 0
434 769 -927 -439 -246 0
-615 828 254 -48 -874 0
828 242 986 626 -454 0
500 -866 -392 377 -782 0
224 960 482 389 691 0
-209 63 804 -851 -673 0
838 790 -40 -302 -797 0
-129 915 -283 -631 -934 0
230 -919 941 -387 133 0
-963 -17 -386 -700 823 0
39 -260 970 755 -518 0
-814 413 -601 448 276 0
-195 -568 679 903 477 0
5 -801 579 17 43 0
1 -973 712 664 292 0
-954 706 -918 488 242 0
423 -562 -653 965 101 0
-210 65 -95 -313 911 0
25 -341 -110 -140 788 0
483 -522 -33 -516 460 0
322 -510 -256 995 24 0
-235 908 886 -622 630 0
-94 270 -798 638 -687 0
387 640 526 -276 -560 0
550 -693 -646 852 -962 0
-699 905 171 561 931 0
-903 -233 623 890 -383 0
729 682 -755 -103 -250 0
-448 109 -691 597 -992 0
-268 -522 -765 950 -477 0
-940 371 -149 -118 -580 0
981 -652 161 -316 17 0
-981 475 -419 810 -201 0
463 183 -108 145 -599 0
-995 456 -766 646 -226 0
-77 519 -840 606 -897 0
734 -724 945 229 312 0
879 30 208 360 -253 0
-604 -17 -44 890 432 0
503 424 551 -562 -633 0
-403 299 624 827 753 0
161 787 915 108 392 0
-59 -114 -281 332 141 0
152 650 -216 245 1 0
490 -137 260 301 -312 0
-275 -726 840 -750 920 0
-61 -466 169 962 330 0
-721 -672 -736 360 780 0
984 -309 282 -324 -172 0
858 944 104 236 647 0
-719 993 801 -763 -214 0
-395 393 739 -220 -347 0
184 -731 -482 -225 -5 0
-453 472 -368 307 -195 0
-18 -920 -737 202 -928 0
212 -281 -828 625 399 0
784 929 -904 77 713 0
-216 278 525 985 990 0
689 801 94 -364 368 0
509 748 358 225 -550 0
23 920 886 -322 340 0
-41 -963 -133 -191 -220 0
-56 -612 114 321 151 0
-932 -423 742 -779 410 0
152 407 -589 -177 -456 0
489 -356 130 -828 -352 0
-449 683 -385 796 116 0
-228 712 612 -41 140 0
61 172 799 -70 -724 0
-693 516 -223 684 -961 0
322 -177 -849 506 965 0
685 -282 939 752 622 0
-658 -704 -416 999 78 0
446 -411 423 -281 -751 0
536 -737 -865 -515 410 0
525 -946 -252 606 -457 0
-926 172 -140 916 -222 0
-533 -598 698 105 -784 0
-746 -402 -399 -12 -159 0
-211 151 -752 480 384 0
196 349 -364 588 -987 0
-568 -135 -170 392 -119 0
-854 -255 648 -107 642 0
21 -327 702 -189 -967 0
-942 -318 -745 782 -751 0
-337 63 865 6 324 0
761 -552 -746 -566 -551 0
-923 -473 -201 750 -208 0
42 283 455 -368 -64 0
-739 994 -502 927 873 0
-791 602 -898 -824 -227 0
576 643 -607 -120 877 0
776 -250 -314 461 503 0
974 -271 -874 -284 371 0
-872 -539 -963 -365 982 0
959 461 -130 634 884 0
-975 450 149 182 233 0
-782 -789 -31 -251 -46 0
625 -388 73 866 86 0
140 -914 226 -220 -898 0
-376 312 799 -988 452 0
894 -752 845 721 -880 0
-891 213 897 -807 330 0
-449 -201 670 -439 -207 0
265 195 -961 -712 904 0
-402 -290 23 546 -530 0
963 -391 484 967 138 0
-195 -491 139 655 937 0
-872 770 627 -249 -174 0
455 658 438 -908 -808 0
643 -148 -124 147 749 0
-493 411 406 785 -695 0
179 939 178 413 -569 0
-860 339 531 -149 486 0
-659 746 -981 954 600 0
-291 -206 205 -3 52 0
402 392 58 -878 -365 0
-705 975 -699 -924 212 0
-9 -185 -193 -988 -520 0
-958 158 -807 277 580 0
-492 252 278 -142 -109 0
-738 -757 -440 359 720 0
-919 -622 752 262 -883 0
739 213 -171 160 810 0
-973 -623 -784 838 817 0
685 -294 348 632 198 0
507 -598 680 365 255 0
-833 765 274 552 -781 0
711 -287 931 410 222 0
587 216 801 -273 -739 0
718 -530 -76 22 346 0
-930 -888 -881 215 403 0
-913 -15 -506 -737 -565 0
934 -618 301 366 -205 0
-944 878 -468 443 805 0
-225 643 -922 -777 307 0
-430 -971 919 998 -45 0
-362 918 303 -71 -744 0
668 -579 -829 967 647 0
819 -431 981 -975 542 0
-514 -687 -888 -996 -166 0
-549 442 -669 359 39 0
730 -55 522 -268 -573 0
943 -4 243 541 -923 0
-342 -667 -766 -960 -530 0
-580 432 -810 926 -739 0
-326 -701 452 -985 851 0
907 -801 542 -853 55 0
-40 -449 919 -2 -143 0
838 78 965 931 -356 0
556 110 345 -754 -549 0
790 949 -254 757 246 0
649 248 252 793 764 0
-757 -33 -108 659 -406 0
-336 -35 724 -598 -331 0
-988 -161 -933 998 -72 0
-628 -225 122 -89 684 0
266 502 -797 -47 315 0
-633 -627 -972 807 -684 0
-439 -672 -569 823 899 0
-969 -159 304 -176 776 0
-968 47 -587 879 -445 0
844 71 -672 329 -914 0
-197 460 710 742 -784 0
-946 526 -927 -211 -757 0
-607 -543 -561 -508 -846 0
-58 -295 683 154 39 0
232 517 -129 -869 473 0
-291 576 327 23 714 0
982 733 -716 -267 -560 0
710 -613 431 -263 -844 0
564 186 -119 -826 -798 0
-398 461 -424 892 487 0
-660 -145 401 865 -123 0
-111 893 -62 -550 701 0
731 -399 -665 -856 582 0
-849 -977 -464 530 -326 0
873 260 601 -901 198 0
-891 -595 993 -433 184 0
-658 118 -151 909 -734 0
536 515 671 694 814 0
-642 -935 -602 -750 -141 0
-741 -513 -439 795 311 0
959 -989 -579 566 458 0
-136 -516 -416 202 -863 0
296 836 740 380 -248 0
938 -956 36 -963 -206 0
473 206 823 431 492 0
-775 637 580 149 -770 0
71 541 672 483 632 0
-634 447 378 9 -976 0
-293 -157 -343 -103 805 0
594 -935 -71 256 -276 0
-801 925 954 -735 -877 0
796 -751 527 -775 -390 0
-210 -611 -330 423 365 0
876 -910 735 117 523 0
-603 587 56 19 190 0
710 531 731 691 724 0
380 -60 -673 -551 -992 0
998 -371 -240 478 251 0
-250 833 876 -541 736 0
432 943 -869 -671 627 0
693 978 -240 573 856 0
-268 -662 -792 -233 172 0
39 564 256 -810 -392 0
999 902 -724 445 768 0
-535 369 837 -56 760 0
550 -920 260 150 -899 0
155 -828 500 -941 -342 0
307 -403 888 913 -549 0
745 787 -184 381 -161 0
24 -893 -624 169 682 0
745 -186 492 308 -44 0
168 -128 974 150 -672 0
-51 241 -360 -178 -14 0
-444 475 350 154 889 0
246 -238 347 924 336 0
152 -790 -174 -65 692 0
-23 -919 677 -268 -811 0
-915 382 -64 -890 -218 0
-511 14 -63 593 -642 0
616 604 -463 808 -328 0
74 -625 241 -466 -399 0
950 -294 -336 -90 834 0
902 373 743 -143 -433 0
-721 527 612 272 442 0
-663 141 -738 -705 -178 0
154 -144 695 -570 678 0
125 102 -249 767 -41 0
-609 691 683 889 154 0
-240 -114 349 978 267 0
975 -215 -657 -950 936 0
-210 -33 -864 -874 -849 0
-173 -757 -383 806 790 0
673 888 -375 11 80 0
-272 -93 -40 16 605 0
-183 -247 -813 -171 -95 0
-901 -178 -866 -689 231 0
243 -807 -521 576 72 0
-723 752 145 -248 -471 0
-417 -327 -625 -991 905 0
-178 -344 257 604 -568 0
-244 753 -622 724 -584 0
-899 -235 -467 -993 -609 0
-841 22 -908 231 846 0
-393 -806 959 421 -340 0
717 -425 805 50 -124 0
-836 15 93 855 895 0
-940 -209 -887 -398 416 0
327 -202 -284 881 -638 0
967 -238 534 378 165 0
-934 497 -424 -905 -38 0
-210 315 -168 62 -827 0
649 311 -383 -542 -839 0
839 940 331 214 25 0
846 315 384 -195 -940 0
840 530 210 -247 -28 0
-531 -515 -808 -732 -976 0
-947 983 860 -523 -195 0
986 -512 -263 -592 422 0
793 692 484 -508 933 0
-876 -818 422 -799 336 0
-487 900 -123 738 631 0
841 525 -49 -754 615 0
42 129 -835 -856 -303 0
920 886 -590 549 164 0
-948 -365 403 373 808 0
-3 -460 -51 131 -531 0
-913 -129 158 -660 -852 0
340 219 357 -84 849 0
-589 787 370 324 -127 0
541 -484 147 -606 -608 0
393 455 127 11 50 0
-936 -676 -524 -606 -999 0
626 -31 -627 698 143 0
-789 806 -718 -64 24 0
216 854 241 618 -920 0
-940 198 -952 108 -822 0
-53 930 -946 449 648 0
-60 -115 145 -351 656 0
968 455 -241 301 43 0
-72 728 -629 -35 -294 0
-283 678 23 -580 417 0
-888 -499 -756 -221 54 0
139 803 -340 -195 -156 0
-420 670 845 967 -282 0
-284 -261 654 -132 128 0
906 637 579 445 304 0
-155 131 -990 339 -918 0
-815 528 -586 -117 8 0
620 -566 -893 -486 920 0
462 170 920 193 492 0
436 -149 -498 -321 345 0
-709 -934 -818 -292 476 0
-100 -136 -112 142 -934 0
-797 403 -836 -732 516 0
-350 -823 -792 -69 625 0
25 -313 880 640 864 0
-666 -642 -197 -837 740 0
-781 531 -71 892 600 0
953 -507 729 458 366 0
-734 297 700 -482 974 0
-183 -434 -779 298 352 0
553 72 -395 34 -537 0
684 -196 654 250 -547 0
-861 347 125 292 -293 0
572 -424 995 -978 -615 0
-258 -210 -609 -889 -486 0
-357 434 -253 849 -856 0
-885 752 -726 -250 682 0
-173 460 480 -201 123 0
-826 -71 432 407 119 0
-420 991 -351 -702 -102 0
-435 402 550 -501 -199 0
-512 -216 16 172 -427 0
-271 -368 -656 242 -546 0
-805 -400 -732 -617 -577 0
442 289 -618 332 53 0
462 877 741 -25 -461 0
-886 -979 -840 250 707 0
968 61 -265 -907 306 0
-662 153 -7 -815 -592 0
463 143 714 -137 -748 0
-207 -266 644 -614 -543 0
-893 -60 -358 -884 -426 0
-187 -704 184 394 -475 0
792 -396 -240 510 266 0
329 -862 -125 -737 -248 0
-393 349 -274 21 266 0
-184 -652 179 -54 -894 0
425 -12 263 -809 -914 0
249 826 574 -763 -701 0
-763 -98 721 -766 -935 0
-267 -753 924 772 -295 0
-946 786 392 698 -160 0
761 -312 -322 689 -525 0
-806 516 544 897 686 0
337 -985 -499 447 -493 0
91 -777 -766 18 879 0
467 -283 -389 922 -388 0
6 600 981 -379 7 0
-320 -367 -360 713 172 0
-423 -550 -588 -361 590 0
-274 695 181 -823 -252 0
670 -474 956 285 732 0
695 -273 372 -877 -16 0
21 -843 618 525 904 0
-338 -20 528 -612 -695 0
-986 971 978 -331 -120 0
551 692 698 -592 -839 0
-251 671 125 162 857 0
-933 -61 -895 -878 -847 0
906 -198 -593 555 -976 0
-67 -284 415 770 886 0
-666 440 -350 386 -849 0
930 635 -524 897 -142 0
-788 -187 -926 641 438 0
369 -656 730 -865 622 0
512 -399 -518 774 510 0
155 -540 -641 -931 -712 0
300 625 269 624 884 0
-390 328 -985 -474 -408 0
-761 48 -157 -795 -183 0
205 339 341 -763 -677 0
652 982 380 -716 -913 0
385 550 -607 -117 582 0
357 217 814 -200 -435 0
-790 -620 940 894 724 0
739 -412 -835 -557 -178 0
-413 -119 -196 568 462 0
195 246 -731 -408 -28 0
291 -627 -970 -546 894 0
-454 477 900 36 145 0
66 -630 757 5 250 0
-77 -158 545 -854 740 0
285 -96 -875 -156 619 0
-788 854 -595 27 -869 0
-323 534 709 585 -468 0
-396 -872 -233 -661 -140 0
-823 -209 -384 63 -269 0
-519 105 177 341 -210 0
-800 -697 762 -845 423 0
-421 384 48 269 581 0
-343 -300 -501 -984 290 0
-891 256 -764 -220 171 0
-606 401 -524 -406 211 0
458 538 61 -107 460 0
706 -382 807 -368 -409 0
-652 -917 -504 820 321 0
84 116 618 -286 -704 0
-628 -536 -403 -696 -377 0
907 -515 -821 -464 932 0
201 488 -784 -929 328 0
617 453 263 -535 -547 0
-831 178 -425 -98 70 0
613 -89 -943 -282 -118 0
-761 699 952 953 806 0
17 -873 -786 209 281 0
572 -564 500 5 396 0
509 -206 556 -372 272 0
-851 -308 274 22 -465 0
-83 -942 -362 -797 -575 0
-402 -398 903 453 -389 0
226 453 264 396 181 0
-117 494 23 446 -791 0
223 -516 939 -112 -990 0
875 -669 416 778 -239 0
16 -259 -838 -912 -60 0
183 344 -359 -704 -708 0
958 432 -214 204 -213 0
970 -539 334 -813 653 0
-85 197 997 -460 -593 0
867 -121 137 -561 217 0
-214 613 -167 -366 -66 0
-254 342 -656 951 158 0
696 -425 -397 673 573 0
864 -928 -454 65 61 0
284 -390 -897 -244 18 0
39 -449 706 -919 -862 0
861 -919 -60 -372 -604 0
204 424 530 951 458 0
184 -408 972 -624 504 0
-612 965 -724 -512 610 0
-698 -708 -411 -54 504 0
964 310 774 534 -189 0
668 -758 669 752 961 0
584 144 264 -239 -911 0
-177 163 -771 -937 -77 0
18 923 -800 -801 -699 0
-320 793 397 640 812 0
949 3 -727 724 757 0
-975 625 363 734 -93 0
657 -587 -978 -302 354 0
622 746 614 264 -53 0
385 258 -308 952 784 0
-678 809 837 147 -70 0
-623 609 -2 -123 -474 0
-275 723 -289 568 -27 0
-378 74 283 -614 -852 0
757 517 432 759 -337 0
-309 356 648 -743 285 0
14 81 -223 894 264 0
977 622 94 -410 -324 0
-136 -686 -431 215 -878 0
510 -386 458 43 -273 0
447 -76 -407 871 725 0
445 986 316 -623 -37 0
678 388 875 291 -426 0
-552 -459 -789 997 991 0
-857 -209 423 -782 492 0
-857 163 -445 -603 -103 0
372 -339 -684 -943 745 0
597 -747 -53 986 -426 0
-349 252 846 -781 884 0
-530 7 -551 365 361 0
516 197 446 -139 -20 0
823 -571 -116 -92 160 0
167 -185 460 -635 -410 0
-271 554 -371 -667 -724 0
-436 671 -123 -322 30 0
131 -39 -620 -303 933 0
-609 579 133 462 -430 0
315 545 -988 -384 380 0
-845 738 -602 416 868 0
896 274 569 718 -252 0
356 781 220 -107 613 0
320 185 -350 361 -565 0
152 -11 -523 -210 -628 0
-174 560 466 585 528 0
476 -974 432 84 -767 0
-460 -386 -182 914 777 0
-213 -364 86 336 943 0
-718 396 -486 640 -416 0
-195 385 -174 473 727 0
400 444 988 201 -930 0
-752 -599 12 791 -411 0
483 -329 -546 -377 -191 0
-587 454 -824 977 -492 0
760 766 295 445 -158 0
-383 673 -118 -457 305 0
468 -24 218 404 913 0
627 -233 9 218 68 0
939 837 470 132 825 0
689 -94 25 857 635 0
330 -107 112 49 913 0
-915 788 -302 459 -587 0
416 480 396 84 -40 0
-398 -777 586 -814 -202 0
865 -339 -803 485 870 0
-458 -242 -543 -666 419 0
323 -188 -360 -268 437 0
490 -749 -716 373 266 0
101 953 261 -200 495 0
-262 -969 -555 -697 399 0
641 -172 -352 -755 922 0
-874 476 -45 -631 374 0
-360 762 996 -236 624 0
212 -380 536 -729 -532 0
233 -735 -307 -251 -370 0
-74 -207 -375 -13 -562 0
-986 -780 -645 -790 109 0
853 -55 156 -606 874 0
-958 782 -374 -2 243 0
271 -584 177 780 716 0
-828 -274 -953 -730 876 0
651 -414 -746 -608 -581 0
371 408 912 -806 -260 0
-101 -516 261 907 384 0
-983 411 477 204 -727 0
158 -806 -735 823 -539 0
-646 -787 -161 -618 971 0
198 122 953 -629 606 0
641 487 776 714 -221 0
-738 123 515 156 286 0
-291 571 -398 980 855 0
509 -114 -438 840 -142 0
825 -83 255 359 -208 0
-956 281 435 463 134 0
-770 933 -437 -692 924 0
419 -967 -650 948 -162 0
-355 -98 65 877 11 0
116 772 -593 322 829 0
-546 831 248 850 -853 0
-15 941 -734 -842 -5 0
173 820 -87 -8 328 0
-450 -128 175 -344 -492 0
859 -763 -272 255 -864 0
344 -435 705 621 -41 0
-183 463 -286 650 671 0
-978 697 -470 -174 -607 0
202 473 -539 452 295 0
-760 -468 -527 941 -679 0
834 -991 -756 619 957 0
-389 745 -974 177 705 0
556 243 235 90 573 0
-561 -188 366 161 717 0
-774 -199 -879 -908 -318 0
-108 447 22 -737 962 0
62 -756 110 -188 -884 0
152 990 -225 540 -980 0
958 -468 996 -713 -124 0
723 983 -405 -149 710 0
263 -192 -697 -427 625 0
402 -648 -149 327 -812 0
135 -315 -313 -336 -837 0
305 451 768 -477 979 0
-203 -269 580 171 -819 0
-177 429 -134 516 -841 0
488 -608 98 -586 -301 0
-295 774 -780 -515 320 0
120 171 -301 789 343 0
858 930 -664 -949 -107 0
-445 944 946 -727 190 0
-130 -947 -90 -180 985 0
924 277 318 628 -860 0
-35 -883 583 -268 -988 0
-614 -424 64 722 -508 0
-83 -485 -214 592 60 0
222 331 478 -279 71 0
-380 940 -110 404 -592 0
-913 -419 33 -917 267 0
821 394 353 446 120 0
-750 588 -34 -935 19 0
961 -964 -549 -81 247 0
-546 17 -613 -442 175 0
-266 -502 159 219 -386 0
250 -608 -349 -662 525 0
602 26 -33 -808 -64 0
-474 -963 -136 -70 -336 0
254 745 -787 -436 797 0
-701 -296 103 -32 -723 0
474 332 -163 -767 520 0
-323 922 756 344 220 0
-733 -370 404 -907 343 0
789 896 -484 342 986 0
412 206 -497 -141 -967 0
680 -588 -687 757 -572 0
818 -596 -850 -31 859 0
-491 -476 611 -382 -262 0
785 153 514 92 270 0
-385 527 -435 -663 973 0
145 -147 -666 -834 -788 0
-949 -820 332 -450 -389 0
293 -105 -831 -595 294 0
-709 924 -164 -622 -333 0
130 964 254 886 623 0
489 250 -609 -457 -226 0
-48 -871 -317 -849 126 0
411 665 254 -363 545 0
770 136 -196 -241 526 0
-228 -142 617 -891 570 0
-832 -769 -338 563 854 0
65 -604 134 -822 -24 0
580 -762 -70 -404 771 0
-495 421 572 32 844 0
438 969 -759 -725 -768 0
-311 -561 361 736 778 0
-478 131 551 -424 -803 0
842 -581 732 -551 806 0
-407 400 663 62 816 0
52 -891 -764 997 -964 0
833 -205 -9 -696 -339 0
990 -649 983 -196 623 0
-885 840 233 696 303 0
-842 -899 423 881 -811 0
-371 32 580 -899 926 0
-790 -785 -713 -938 936 0
652 259 -739 398 93 0
246 -295 840 -437 249 0
860 -453 -856 -999 -731 0
-342 14 552 743 -252 0
882 -437 371 249 245 0
-137 -326 576 550 -881 0
-776 265 503 -436 -882 0
-278 484 -713 -518 854 0
341 841 -573 615 339 0
-713 -409 691 -220 42 0
120 -741 976 -726 618 0
-470 836 -329 -995 571 0
-328 66 773 -794 -70 0
905 772 964 670 -578 0
403 -50 -22 -429 139 0
-753 -91 203 260 870 0
-277 -970 435 134 290 0
989 -23 -32 -430 -167 0
-11 245 609 575 -220 0
-112 -544 -597 282 810 0
38 -625 14 811 -814 0
-573 -125 856 357 -89 0
631 948 -965 -545 -978 0
-622 204 -986 -493 735 0
-243 -661 -705 408 -904 0
645 -224 -761 -367 -713 0
729 77 447 558 919 0
-868 296 -731 -257 2 0
864 -204 193 124 339 0
-506 -255 -964 532 -220 0
334 147 311 -326 822 0
86 -428 -862 699 948 0
105 47 -262 -599 -744 0
-321 -502 -112 675 -486 0
484 -892 928 -242 -381 0
131 -891 47 -290 -425 0
799 720 149 738 -973 0
944 889 293 -262 -619 0
-452 -104 694 974 -621 0
915 -724 -951 938 286 0
496 519 -633 -795 -774 0
-347 198 543 156 -515 0
372 978 944 -214 919 0
-959 587 324 -890 52 0
-146 -942 905 -817 462 0
416 520 -834 -762 -647 0
388 928 -134 562 775 0
-462 -278 910 565 -515 0
225 682 527 390 617 0
716 905 -620 403 -509 0
-666 908 -156 500 336 0
-714 -962 -550 -913 126 0
898 -14 -464 660 695 0
196 -136 -521 416 -247 0
397 617 -209 219 431 0
-637 988 -384 -584 359 0
-783 -99 -287 84 265 0
-629 870 -144 -43 -843 0
138 -398 129 397 700 0
-615 -400 95 456 568 0
566 -506 693 -344 -448 0
476 -185 -412 -100 -176 0
-357 282 844 183 -503 0
230 -502 -617 963 860 0
-279 -236 131 -421 -760 0
411 -401 489 999 -355 0
172 -152 -165 336 -595 0
997 284 371 851 -714 0
748 -154 -342 -465 -729 0
573 638 -749 -395 253 0
-357 694 793 703 -170 0
237 743 990 -169 -851 0
470 -369 -617 725 538 0
980 -569 229 599 -492 0
-495 96 540 -914 -392 0
-29 -104 560 -818 557 0
-583 -487 737 501 606 0
-806 896 -64 200 175 0
410 28 647 -643 504 0
546 -605 -838 -87 -251 0
-97 -3 -870 -542 -195 0
-790 935 -722 668 717 0
290 -375 936 898 44 0
-563 586 25 536 364 0
-203 776 526 319 359 0
228 58 -820 -577 -81 0
-23 -357 652 -232 913 0
-428 641 -736 643 137 0
634 -981 408 887 -127 0
-394 864 923 860 210 0
-865 -593 -417 564 -616 0
18 -939 471 -840 797 0
610 -566 -853 -710 407 0
-814 -774 385 290 -423 0
-401 381 -315 -352 -828 0
-189 -504 -450 381 183 0
-841 967 81 -596 -609 0
28 -338 -656 -273 -636 0
-879 110 321 -258 598 0
483 342 634 503 -884 0
-732 -504 632 850 -897 0
-437 -559 114 132 338 0
228 -193 -630 253 -905 0
748 219 172 -418 -358 0
254 858 262 -346 398 0
-714 682 -880 627 -903 0
-789 -805 483 231 -110 0
762 616 40 -694 757 0
-64 -684 680 31 659 0
437 451 391 258 217 0
-330 -895 11 -158 453 0
-2 878 933 499 -444 0
-94 799 957 -214 -753 0
646 147 -614 -296 -834 0
-551 613 -681 -408 732 0
-662 -750 529 -875 858 0
-650 327 710 -534 -429 0
282 866 198 -922 -958 0
-42 436 516 418 797 0
-491 -267 -958 -750 -208 0
-877 562 -130 761 -631 0
389 -997 -253 -57 -759 0
-568 -778 -317 105 -194 0
-459 -123 -337 -809 -452 0
-243 -221 245 633 -664 0
-192 -689 -804 500 901 0
309 -12 557 -746 -988 0
184 -61 678 -397 829 0
-63 373 -252 207 -27 0
417 493 428 974 -657 0
-269 426 -600 548 547 0
-75 -286 812 -912 108 0
849 623 752 -511 225 0
220 -179 90 547 131 0
-109 -633 -161 -533 -496 0
813 830 65 -432 -869 0
-394 857 -769 915 482 0
-549 580 475 936 624 0
-421 -835 645 -346 -797 0
24 -28 -526 995 438 0
-79 816 909 665 241 0
28 631 -733 366 963 0
-579 808 -618 858 -860 0
-633 -621 278 565 -152 0
36 -837 7 144 325 0
612 547 407 168 899 0
727 855 -699 -263 -581 0
-261 414 -603 90 421 0
413 -813 -354 -988 -304 0
619 -618 -730 -705 336 0
46 367 -203 472 275 0
-603 959 223 -192 -634 0
-827 580 708 -103 -412 0
-336 527 -506 481 360 0
-150 -21 657 -494 368 0
-379 259 -154 452 275 0
167 -972 15 334 -117 0
60 -479 621 -964 -136 0
-903 736 314 275 641 0
-969 -297 -650 -154 -499 0
-22 680 588 136 656 0
-412 -17 -834 -695 -93 0
-577 47 973 521 -970 0
-806 739 -112 -96 -342 0
606 -381 470 -904 -324 0
403 638 3 214 349 0
-740 61 -521 412 898 0
-350 -483 144 -935 -196 0
477 -643 -113 -638 -73 0
-567 -236 285 827 868 0
-776 806 -885 389 482 0
601 -362 -266 663 -52 0
-976 410 -554 -497 -197 0
-652 -606 505 528 -4 0
705 -743 -23 -721 938 0
304 -61 -650 -801 -75 0
786 643 680 71 319 0
-60 772 66 219 -642 0
-268 -414 -367 -507 116 0
163 990 -238 -887 553 0
-39 -538 362 56 27 0
-233 -764 384 72 174 0
82 518 585 -27 -991 0
352 -554 978 -344 11 0
545 -828 827 793 576 0
567 -443 -518 173 780 0
683 654 738 500 996 0
-405 -305 -875 711 468 0
-294 -781 -712 -709 -138 0
-678 -148 -185 804 -839 0
-537 4 388 165 18 0
-104 394 -546 -815 -835 0
82 -923 668 894 -242 0
149 528 544 597 24 0
-110 117 -866 -693 -954 0
118 942 -423 310 601 0
-626 -179 -828 508 410 0
-147 -609 973 -287 -369 0
-391 628 -380 989 413 0
342 918 816 277 735 0
131 -207 -165 -400 231 0
997 894 -390 45 66 0
-63 859 748 291 84 0
168 882 -619 -210 788 0
594 -741 441 253 274 0
-681 -380 -682 324 -597 0
543 -472 992 -403 -249 0
-454 866 -897 -928 932 0
862 -222 636 148 -898 0
-90 -670 -974 139 -232 0
-312 -775 -788 -205 -564 0
-882 -452 -674 567 427 0
730 663 -462 983 -794 0
-722 -82 420 92 776 0
-493 -604 -18 -382 639 0
261 -728 702 -921 96 0
-341 -825 632 -948 386 0
-816 549 198 295 -119 0
664 -91 -549 405 209 0
-52 409 -959 -973 -46 0
-643 575 250 28 -808 0
-725 -680 232 -47 -513 0
-168 -144 33 -494 -201 0
-620 494 -89 -649 802 0
-900 268 -600 -85 -384 0
515 -881 380 473 -949 0
942 -514 -265 24 -705 0
-221 808 193 -328 -446 0
470 539 928 -802 607 0
885 -148 -584 -570 -22 0
110 560 360 288 -801 0
120 689 -43 -534 461 0
-836 933 842 -442 -150 0
-984 -229 91 -989 106 0
962 -670 968 -166 -639 0
-998 -806 27 314 -339 0
-518 589 575 -338 628 0
-383 -781 750 -706 -610 0
-349 -890 -991 -730 -884 0
16 -143 -328 -420 -569 0
-197 704 588 -356 972 0
-440 169 159 -48 -347 0
-974 16 -939 -777 560 0
771 -572 -91 583 982 0
-714 -946 -858 133 -958 0
-871 343 -680 -988 -692 0
536 -204 -196 967 -669 0
223 553 970 -508 957 0
19 -624 -466 485 539 0
-51 376 -595 163 -672 0
-983 -492 -926 227 303 0
237 -481 120 194 925 0
-356 -179 540 -273 636 0
-508 89 947 927 318 0
-407 426 -216 529 -671 0
376 709 27 697 176 0
6 -483 905 155 -117 0
-563 -650 198 992 808 0
-266 -63 -570 305 -433 0
262 -218 -192 836 -80 0
-128 617 726 -832 786 0
430 305 -46 -500 -670 0
978 -878 589 80 724 0
-691 115 -485 -209 840 0
476 753 -443 17 -340 0
-353 -304 569 949 -975 0
928 275 -534 -196 892 0
-152 -710 392 -809 606 0
61 995 -546 437 289 0
-403 195 930 527 248 0
-764 604 -663 -61 829 0
223 -606 109 1000 -407 0
-74 -88 -827 -35 -771 0
-98 881 92 -318 874 0
176 -811 995 131 -890 0
-675 612 -195 528 838 0
265 65 951 829 657 0
32 284 -78 458 435 0
82 -69 453 -110 -258 0
-117 71 -477 -291 -517 0
-86 -368 -470 -155 113 0
-711 -909 -233 600 934 0
957 -901 -991 -912 556 0
767 568 -709 -641 394 0
-139 -804 261 571 926 0
-913 946 124 -257 893 0
8 389 35 -54 -723 0
-670 166 -749 81 971 0
744 398 -247 993 -299 0
56 925 -21 -63 -492 0
-59 -509 317 -863 587 0
438 -159 -992 -933 648 0
-828 -321 -226 548 -989 0
-724 -310 874 -284 945 0
342 377 677 124 -51 0
500 -390 -261 723 77 0
-543 -918 25 -356 -64 0
924 -550 -87 34 -270 0
683 -578 641 314 -92 0
544 -421 725 915 -855 0
-359 211 -780 36 203 0
678 -366 -190 -545 -873 0
-744 705 -636 -987 -612 0
-637 589 381 -44 -491 0
948 518 -923 -241 699 0
966 -361 -543 958 241 0
205 -7 -785 827 391 0
-75 996 203 304 244 0
615 439 390 -972 424 0
147 669 279 461 625 0
603 509 -396 -11 -985 0
270 291 618 951 7 0
120 -488 829 471 807 0
23 47 253 955 -990 0
131 -743 239 -805 -524 0
980 -752 209 -413 819 0
-494 -724 946 423 -829 0
-713 664 -862 -818 -515 0
55 -359 -685 -890 530 0
-749 -851 -123 -841 382 0
-58 352 433 -165 943 0
817 -676 935 -180 193 0
-505 575 -345 -750 629 0
-856 -869 38 452 918 0
-757 -440 -836 984 528 0
711 -958 891 835 886 0
629 -314 -885 627 -346 0
-543 -132 169 19 -418 0
-294 601 -786 -65 289 0
342 561 -591 100 398 0
-135 318 -203 -937 -72 0
33 17 784 129 -538 0
176 749 -599 -891 907 0
-514 -818 -18 355 -780 0
411 472 590 589 384 0
-125 296 841 -463 993 0
373 955 -54 -341 742 0
300 -89 439 152 869 0
-248 971 -135 -473 668 0
-102 56 982 -146 -189 0
217 318 -551 619 -113 0
-988 -368 -273 -719 294 0
283 -582 587 -207 83 0
-671 48 -766 96 352 0
645 891 -720 -735 -665 0
-492 -9 -193 -333 849 0
63 -408 342 843 -489 0
170 -122 -919 246 369 0
-932 783 489 -884 658 0
-26 76 -944 -592 893 0
-606 847 740 -587 797 0
-774 789 -385 -521 236 0
-757 409 356 464 803 0
986 105 390 583 480 0
-821 -793 -461 -370 373 0
-482 232 439 -24 270 0
-995 494 128 971 777 0
859 -397 -768 -600 -11 0
-211 686 -472 -456 -324 0
230 831 -821 -224 -395 0
712 -584 833 -422 216 0
790 -314 -794 441 329 0
558 964 879 -494 -743 0
-242 -729 67 211 488 0
193 388 89 -347 -434 0
-390 255 404 -360 -358 0
-920 787 733 577 -548 0
228 -894 617 653 186 0
-903 588 -513 643 479 0
-149 622 -675 -86 58 0
56 -280 416 -630 891 0
-238 432 -172 982 -815 0
-994 -944 -205 192 200 0
-955 752 914 960 785 0
860 592 362 583 800 0
-140 998 -41 915 -524 0
920 476 331 882 -40 0
964 233 329 331 -756 0
53 -161 822 -780 -539 0
-18 -826 671 505 -707 0
-355 551 673 320 -402 0
-86 882 249 677 -263 0
593 115 491 587 -727 0
645 -915 -342 501 -658 0
-448 264 -731 -289 -676 0
-144 527 106 751 -43 0
-686 -836 -821 -546 812 0
-724 526 -202 -792 777 0
506 -98 -355 530 622 0
-787 -790 -705 645 -814 0
-97 909 -980 112 953 0
-541 -792 490 -282 576 0
775 796 777 -653 207 0
-859 -190 760 -56 66 0
-835 522 262 174 -601 0
385 595 821 -349 383 0
-465 -668 -146 -131 -336 0
-297 445 -698 -697 -633 0
677 -46 -324 890 -416 0
-266 707 -489 812 746 0
-890 -943 409 -523 -437 0
641 -742 -984 770 425 0
511 394 -374 -146 -862 0
-240 -441 592 -118 -541 0
433 -930 649 116 -562 0
914 -577 -946 -999 827 0
185 923 251 588 365 0
279 -715 -648 919 898 0
730 -65 -420 -581 480 0
613 -902 -136 846 46 0
-375 313 756 -735 379 0
-492 570 817 -59 -323 0
386 532 -27 845 -868 0
474 118 323 607 228 0
606 -264 472 54 654 0
-361 -191 -519 125 730 0
959 -823 -271 -214 -881 0
554 632 -815 462 -666 0
206 409 -342 -482 373 0
-42 -236 -546 86 360 0
462 395 639 990 -787 0
-126 -147 711 894 -984 0
-496 447 -383 43 193 0
542 401 167 885 661 0
-811 -373 844 399 -211 0
538 -343 874 -938 -651 0
346 -592 926 507 351 0
-294 -710 -758 39 -349 0
465 -83 901 158 -987 0
-930 -738 460 829 654 0
614 -401 93 149 -992 0
224 -784 873 400 825 0
686 -374 611 -552 28 0
-694 282 -900 -668 -781 0
-895 -906 644 -941 -129 0
-229 -243 -492 374 -349 0
245 -475 37 968 540 0
-911 971 397 615 6 0
-759 -853 23 94 276 0
73 -353 307 -981 859 0
291 -723 -720 -563 568 0
-377 -694 -287 525 350 0
827 -178 43 -80 348 0
545 875 534 -907 -116 0
-566 -876 733 -302 533 0
251 -648 -699 174 -828 0
859 -461 623 -57 995 0
556 224 576 672 546 0
-627 -187 71 -744 499 0
898 455 -127 -420 -26 0
358 -407 -703 459 476 0
870 110 509 -712 386 0
923 -827 908 479 -818 0
989 880 -233 -140 216 0
959 132 -342 -586 703 0
-8 288 -578 351 -698 0
882 -39 106 -466 -606 0
-799 -371 -594 -761 152 0
440 -773 -785 -252 -451 0
194 -404 -637 -230 897 0
112 225 390 922 970 0
793 78 -932 -885 754 0
201 671 -823 -191 861 0
-677 982 -940 -100 807 0
358 705 -870 -225 337 0
178 723 584 -874 -100 0
-646 -706 538 -495 -23 0
-874 -475 557 -160 -822 0
-91 -378 632 10 741 0
772 251 -10 617 -383 0
758 -804 739 306 -156 0
-864 409 10 1000 -329 0
165 -92 -630 -567 -64 0
678 -882 592 766 -391 0
-997 -468 996 412 827 0
612 -698 242 -890 554 0
683 156 -752 237 840 0
-862 433 115 306 642 0
608 837 -297 -761 456 0
-570 -372 -391 -125 -47 0
711 -747 -781 356 287 0
909 295 -155 -953 -3 0
541 342 -796 928 -3 0
868 189 -322 -820 757 0
-365 714 121 -410 526 0
233 180 -138 -936 -563 0
-328 287 627 162 -472 0
-737 979 -854 327 370 0
835 624 -977 -350 -547 0
150 239 -376 759 261 0
777 984 -543 286 175 0
-744 903 365 874 -624 0
-182 18 586 -782 307 0
870 765 -805 -27 -758 0
-5 -211 -55 -429 703 0
905 585 802 1000 310 0
957 338 229 -44 -352 0
848 384 -845 -996 755 0
-61 -354 678 69 -340 0
576 -181 360 125 -991 0
-926 356 -312 851 728 0
734 -88 566 -752 -131 0
-852 170 88 479 -595 0
-1 -361 -678 -645 711 0
-165 693 -294 -117 780 0
-799 200 577 -85 173 0
-308 -830 -671 290 -538 0
352 922 315 828 -785 0
-83 28 -724 -509 -849 0
489 825 803 877 916 0
81 9 -869 -51 751 0
-407 -607 -79 -441 -401 0
-308 67 280 -255 170 0
-505 504 214 -648 -936 0
-961 793 143 308 -618 0
-17 -400 -624 -681 -326 0
-478 -254 220 -246 600 0
213 532 -517 -555 -641 0
729 642 923 802 -66 0
550 -180 162 19 876 0
-959 -202 -98 -900 876 0
881 509 27 -744 -724 0
-553 745 -515 -590 -579 0
-314 53 45 476 341 0
-125 904 -819 -621 514 0
-342 -594 997 -135 278 0
-802 -792 -578 74 180 0
835 340 218 -201 730 0
-837 -984 -143 154 -244 0
339 204 -864 292 357 0
-132 56 276 -538 -71 0
392 -773 162 -940 280 0
-81 290 -322 982 -355 0
111 116 169 -376 503 0
797 -912 983 400 -305 0
40 945 14 585 -271 0
-261 911 78 -865 -135 0
-262 754 240 726 -960 0
-974 -910 818 -361 717 0
-653 931 779 874 411 0
-640 778 818 -403 670 0
-544 -933 981 -12 -191 0
-370 -543 550 791 -549 0
-561 886 853 621 625 0
-728 -390 -600 548 -141 0
634 962 -513 -924 -109 0
-71 127 -397 -673 -862 0
-897 549 859 -854 -328 0
900 462 -363 970 -570 0
-667 307 -241 517 139 0
622 -182 -584 -43 223 0
28 -201 247 -780 -826 0
661 286 618 952 429 0
161 -45 -422 413 -369 0
875 207 994 384 -999 0
-675 -531 231 -927 266 0
-523 -179 -678 -763 215 0
473 -200 488 778 842 0
-612 216 -501 429 815 0
246 405 -971 670 -823 0
-589 795 708 -613 210 0
-806 -810 562 629 -893 0
-815 53 -35 601 -974 0
794 -361 966 -956 -712 0
32 -628 -471 -328 800 0
721 -61 918 876 -132 0
10 241 322 639 743 0
718 505 974 528 -364 0
140 965 -236 -939 116 0
-529 -643 810 613 37 0
-704 728 -381 -952 -218 0
-903 303 360 306 -852 0
407 282 -902 -16 552 0
152 -138 359 516 108 0
422 -321 325 -970 -228 0
462 950 -963 -43 -615 0
443 572 278 -775 -730 0
202 -884 -199 -401 -465 0
951 506 584 -186 25 0
89 277 979 527 -88 0
447 624 348 -653 520 0
464 149 913 -249 559 0
-114 -212 -140 -497 985 0
794 959 -701 263 -700 0
299 -813 -949 -761 -359 0
-413 827 -4 696 846 0
46 297 65 368 -632 0
-626 952 -672 676 -446 0
-528 -115 -211 862 80 0
225 356 -50 447 -224 0
504 680 906 -203 -593 0
-479 652 -600 -748 -419 0
230 924 -731 590 522 0
-908 319 -614 -435 -694 0
-783 -166 699 143 -145 0
-365 422 851 -967 837 0
-684 807 -923 -508 -299 0
-427 -881 -836 -805 -825 0
182 370 812 -224 108 0
456 -275 -357 -678 -289 0
750 -118 876 -254 456 0
906 -342 488 757 138 0
49 -525 300 440 295 0
241 782 -11 900 686 0
210 -692 961 -902 -923 0
-301 -230 -532 601 171 0
-163 -984 210 981 570 0
-65 896 -947 -340 -516 0
47 640 -183 981 -355 0
-298 -670 -434 115 826 0
910 -450 246 386 259 0
34 -470 530 793 -393 0
104 562 812 367 135 0
-589 -58 518 -615 646 0
-443 -287 528 -714 -44 0
-719 -332 -116 -564 667 0
-149 -759 169 724 304 0
89 173 532 -807 736 0
256 -237 -751 202 596 0
-56 329 41 938 246 0
450 194 -558 251 82 0
-153 467 -63 614 315 0
464 -846 -810 -605 417 0
-249 -529 370 456 -492 0
961 308 933 100 -505 0
-628 -45 204 -906 697 0
794 959 -887 309 -615 0
372 -796 -458 696 794 0
-29 272 67 651 630 0
712 -589 -486 -165 998 0
988 512 936 -127 -461 0
-125 -449 383 -888 981 0
320 564 669 936 930 0
981 -934 503 -923 -56 0
275 -256 -834 49 -552 0
-537 331 -267 333 -522 0
-673 932 -204 908 848 0
476 -938 386 -597 -224 0
300 -453 -197 842 73 0
61 286 -829 149 -390 0
701 -811 619 -141 783 0
294 -543 693 178 917 0
357 -48 -265 17 769 0
987 -306 -574 -803 -879 0
-880 -6 -812 784 637 0
-810 60 -174 -969 -219 0
-148 580 -610 582 -770 0
-757 655 -447 -290 47 0
-722 201 223 371 -785 0
-699 -94 -536 490 -372 0
164 -500 -366 -228 185 0
-759 340 -302 -188 -558 0
819 -84 -520 -672 706 0
782 -435 329 -766 816 0
483 -496 206 -349 -163 0
-322 21 -152 373 -3 0
-225 -553 -639 591 -739 0
-669 210 -343 409 46 0
-78 109 -48 -174 804 0
-225 -113 -783 -816 209 0
711 -451 -361 119 -400 0
-455 211 445 -358 -264 0
-68 -163 975 927 -561 0
210 -104 950 751 896 0
-515 -565 -836 -748 33 0
-159 -436 -927 125 463 0
-457 -49 -7 93 212 0
-323 190 -543 -819 -931 0
-863 -812 401 477 -933 0
-24 181 916 -907 -757 0
371 813 998 -742 458 0
957 -851 -541 -981 826 0
299 624 -598 113 -992 0
-137 494 231 864 906 0
-569 780 732 -100 -679 0
143 -339 -753 -787 -450 0
-962 291 112 826 -259 0
655 203 -271 696 -405 0
781 196 -641 -128 478 0
-5 -229 -213 -587 -329 0
-56 795 -806 780 -122 0
-12 -984 -596 -615 998 0
11 -558 -484 478 -477 0
439 -293 -808 -95 96 0
666 401 742 -354 152 0
824 385 179 851 -100 0
-9 724 672 722 -436 0
-706 -327 684 -321 210 0
-323 722 -208 211 29 0
778 -954 161 -732 -978 0
-713 -967 -695 353 940 0
-839 44 56 525 -321 0
928 -844 675 519 111 0
-834 -491 949 -43 -561 0
-744 855 353 41 752 0
768 -498 636 -295 -199 0
-801 -196 345 870 -960 0
-602 -700 919 555 -397 0
641 -428 721 -22 -217 0
166 37 -659 390 -869 0
-153 672 399 -586 -270 0
389 -772 316 -614 -209 0
-788 423 308 -649 447 0
-369 938 491 463 -238 0
-516 -574 -957 -938 352 0
920 466 -197 16 969 0
391 -407 -701 -199 -235 0
-72 856 -395 -944 -828 0
-65 683 -100 631 995 0
-10 -313 443 -31 -897 0
454 -337 -385 294 -865 0
7 -304 197 82 -970 0
-370 577 -820 -131 831 0
302 806 -502 69 -131 0
-379 -676 365 -747 840 0
957 -91 991 197 288 0
-889 667 -838 501 286 0
-432 -933 -666 -302 -728 0
100 -96 139 -461 270 0
909 -72 647 558 -132 0
-643 585 -929 12 -272 0
599 -436 -683 524 900 0
870 790 919 -386 733 0
-446 -562 -742 232 119 0
-193 879 -310 -373 -509 0
-373 -473 690 889 -792 0
776 2 -825 -971 998 0
-751 929 -559 783 65 0
-117 -633 -709 -380 -463 0
-768 306 725 -420 -311 0
103 329 413 -274 -339 0
-142 -815 -573 -419 -231 0
-325 -462 -468 -92 283 0
604 -624 -38 -141 898 0
-268 424 -127 581 540 0
832 175 733 -715 -413 0
464 656 -729 -688 641 0
199 -27 180 -367 833 0
347 148 -858 869 -775 0
-703 -909 -891 -709 302 0
993 305 101 -279 482 0
762 570 -250 429 500 0
798 607 989 -889 -308 0
-361 -792 -716 -159 56 0
-362 450 809 -400 601 0
-106 -151 -913 807 298 0
-663 -150 675 -144 -929 0
-858 -663 -861 29 -309 0
-535 -99 -41 -362 892 0
-646 690 508 629 263 0
-241 -264 664 -792 -206 0
756 -794 969 101 975 0
342 -420 -368 167 171 0
-692 219 87 -987 898 0
556 96 -995 398 -655 0
-481 -275 479 239 -964 0
-113 459 415 -827 838 0
241 -666 -105 291 -9 0
-372 -302 364 501 155 0
-799 827 -824 -483 509 0
-529 -567 -218 509 -611 0
-878 150 579 709 -144 0
877 -92 -249 687 646 0
-946 -62 919 -907 544 0
-629 101 182 -645 -737 0
-963 -389 -769 -200 317 0
-252 337 -782 243 -355 0
-221 -212 873 361 554 0
-993 983 -192 139 -537 0
-42 -900 -413 116 -164 0
-679 641 477 398 78 0
-580 428 349 -942 569 0
215 21 -650 952 296 0
-160 -645 341 34 916 0
235 -557 633 -532 -421 0
484 957 389 704 16 0
19 -679 -999 68 -538 0
-798 -8 311 840 -952 0
-459 -231 565 -715 -701 0
-928 -291 190 398 -136 0
552 212 -172 -887 464 0
710 168 221 461 17 0
548 -37 -527 867 860 0
587 -234 -180 82 432 0
439 -92 271 535 -206 0
-846 336 -613 -668 728 0
-545 416 228 -300 -937 0
-610 -570 -300 5 -153 0
974 737 663 705 32 0
-625 -128 497 -118 -750 0
501 587 -461 531 -124 0
666 57 584 629 -515 0
771 -551 -392 174 -206 0
628 -45 373 593 -559 0
-947 560 889 -843 923 0
108 -134 555 325 833 0
-772 -165 -934 506 393 0
-430 -357 216 758 -454 0
105 -494 319 -279 351 0
170 -399 -334 -398 796 0
509 72 382 -351 -80 0
542 -785 339 -527 879 0
828 518 -745 128 -160 0
-385 857 -533 -808 -489 0
307 -33 1000 -17 82 0
487 504 -666 -760 405 0
-404 -833 -261 -359 466 0
-283 -170 -422 960 -3 0
-614 -196 -842 170 -920 0
931 -542 578 5 855 0
404 911 135 -671 235 0
797 -617 965 680 833 0
-977 311 526 -403 -312 0
-470 -545 832 -818 734 0
-885 -239 464 -675 8 0
-448 612 186 50 551 0
781 343 675 185 -233 0
-840 130 562 -789 -218 0
341 753 697 784 -70 0
-778 968 43 789 620 0
416 902 -490 -476 -839 0
881 640 -710 949 568 0
-751 407 -927 573 82 0
-496 -743 -382 500 -449 0
-293 805 -985 23 -91 0
-956 79 64 -426 -639 0
143 -555 -320 -500 607 0
22 -221 12 -216 -776 0
777 -812 -815 677 -446 0
750 384 -690 671 95 0
794 -132 637 -367 189 0
236 -445 112 768 467 0
444 795 -68 -82 963 0
423 -639 -356 319 173 0
-630 924 -257 -673 540 0
377 -467 -998 267 -720 0
381 -783 265 -388 -634 0
-487 -853 -959 -639 716 0
-482 80 46 977 547 0
810 94 80 -618 152 0
998 -114 92 -258 153 0
-755 -48 -231 -514 887 0
507 -953 449 886 -973 0
-620 -16 -742 137 -175 0
-894 36 -286 704 866 0
-125 415 27 705 -322 0
705 -998 489 808 769 0
-483 -918 -426 177 139 0
925 736 83 231 -549 0
608 31 520 -634 236 0
618 -375 113 -260 -683 0
402 -388 878 492 587 0
125 -178 185 -309 812 0
-803 428 -697 370 -242 0
-185 609 -108 -553 -693 0
155 -271 -697 221 110 0
658 -81 960 471 654 0
-246 -536 975 525 540 0
-570 973 -828 463 817 0
-626 420 -289 -68 923 0
-769 -277 52 213 -790 0
15 -360 -122 -419 -125 0
-973 -895 -507 -271 -173 0
-455 -834 638 -298 40 0
271 237 361 -129 -210 0
-864 537 -211 -309 -291 0
124 -107 -788 572 546 0
-13 744 399 -252 -536 0
-704 867 966 -760 978 0
915 -544 -862 -453 216 0
-986 -861 -531 -105 839 0
51 360 7 168 403 0
-249 114 -714 671 -155 0
-986 76 998 583 715 0
487 -229 -618 -181 -85 0
82 785 713 590 -705 0
-121 192 -488 472 -747 0
-286 -260 -191 421 299 0
-605 -303 -118 277 -378 0
688 544 693 749 -456 0
-123 -566 403 -828 376 0
-177 807 -458 -613 321 0
-230 -329 649 770 -741 0
391 862 701 -274 578 0
-229 -365 385 -443 836 0
-271 -618 -838 -161 -542 0
-255 -41 -423 -828 -259 0
-198 -240 -137 216 752 0
41 98 -617 42 4 0
-109 830 -121 -381 40 0
-897 550 976 -934 533 0
-301 -602 963 -895 935 0
231 -266 192 919 323 0
-573 156 -203 -804 -579 0
-920 380 -156 -300 174 0
-215 -355 -425 860 -474 0
419 490 710 353 918 0
311 -529 -818 438 -633 0
779 -877 13 -295 324 0
-571 523 319 -895 944 0
950 648 293 -998 258 0
-10 116 -649 -15 -719 0
-402 28 -76 504 -238 0
806 -782 -183 -327 153 0
-419 -775 -942 549 867 0
28 236 -72 171 -21 0
305 -698 153 491 926 0
595 574 78 -330 316 0
274 175 -291 -161 707 0
-861 -444 -858 321 -587 0
-575 857 324 -6 -348 0
-214 -688 830 826 224 0
931 -622 -1000 341 -1 0
904 -547 319 210 -275 0
855 -773 -353 -873 430 0
653 259 -916 -395 -95 0
936 -714 -881 854 353 0
91 823 7 112 731 0
-481 -396 700 -213 154 0
-179 -673 991 692 293 0
-388 -492 924 -41 -282 0
-387 -948 -7 852 -700 0
-899 -826 866 -146 -62 0
255 632 -151 -757 833 0
-864 -330 -249 275 -418 0
482 7 -848 360 -162 0
91 -841 762 -859 -36 0
-589 719 100 605 -96 0
843 447 399 214 907 0
-963 612 -913 269 375 0
767 -660 -185 358 -681 0
549 39 203 97 -29 0
-342 697 776 -44 413 0
213 964 629 -997 125 0
-343 -316 -1 -786 841 0
-208 93 -110 -294 -937 0
752 291 -302 572 526 0
-316 -102 -5 420 -974 0
-543 753 79 -774 -246 0
-938 607 -745 -18 -701 0
-1 -868 204 -738 304 0
-303 -74 -856 -654 -393 0
293 -99 -193 -714 -136 0
498 802 -986 -446 -515 0
-949 50 859 -346 888 0
7 570 -73 -718 465 0
401 -204 -135 961 -706 0
438 -966 -252 305 92 0
-777 467 -311 915 -207 0
-106 388 655 -441 -144 0
781 -775 -866 -185 -335 0
-131 -322 -164 31 -751 0
-974 -418 964 63 954 0
614 -310 -901 -410 -354 0
-543 -164 153 307 -520 0
551 310 666 -29 -472 0
-656 -88 572 252 138 0
-807 -341 572 -663 228 0
-149 -863 -712 245 -719 0
-549 711 -925 974 -265 0
-253 255 685 291 52 0
7 -797 -497 -181 562 0
-447 -520 -788 319 -469 0
-242 -333 115 772 -780 0
-72 -186 -158 -898 413 0
461 -46 -425 624 958 0
-795 -796 -407 -922 291 0
13 519 -978 -894 -245 0
166 960 938 -992 -457 0
134 719 -227 109 205 0
-86 -253 950 532 908 0
-781 -76 126 854 -907 0
808 587 359 -573 395 0
-380 560 -911 208 -548 0
609 608 668 614 -444 0
-557 -897 -749 345 -197 0
-896 -136 -271 -812 -627 0
-781 -412 283 -621 -459 0
815 -761 124 -710 -462 0
-153 -634 -942 -852 -505 0
-386 -265 -87 407 356 0
-573 -378 -150 -85 342 0
232 -186 -353 72 -357 0
-625 865 623 -97 505 0
495 -706 -23 710 921 0
-445 -542 829 618 -284 0
-373 40 3 69 -982 0
689 303 -215 795 265 0
-499 64 -448 630 700 0
-111 -714 879 511 639 0
-115 -706 601 -991 -388 0
482 -284 -232 678 -443 0
-846 -636 -7 -274 -676 0
-196 225 544 -861 -445 0
-433 -782 -712 -392 -228 0
-156 -741 255 -208 -752 0
-480 -143 -38 985 280 0
-84 -110 671 547 -968 0
296 -427 917 -95 470 0
-540 441 -136 210 418 0
701 914 453 -920 -913 0
-939 247 -906 -176 864 0
-1 568 580 369 -84 0
-582 144 843 -181 982 0
908 260 -919 328 -523 0
-173 -374 -256 -357 -385 0
915 330 989 40 -745 0
717 726 -226 -333 784 0
980 -313 53 603 1000 0
-506 -908 492 916 405 0
-401 -254 128 -302 770 0
789 -739 799 502 -923 0
-461 763 -874 -989 -942 0
574 475 781 867 188 0
689 485 119 -719 817 0
-923 -827 -47 -590 -397 0
-86 -436 -25 -64 794 0
-660 -407 -512 -738 590 0
622 -198 667 900 570 0
793 379 803 849 -120 0
139 671 -494 143 -862 0
-82 -406 -724 -116 394 0
824 724 -64 60 51 0
-603 -944 -100 582 442 0
-462 367 -291 931 154 0
-636 162 118 740 523 0
956 -685 -753 731 -778 0
640 -417 -807 291 233 0
-433 -341 573 -826 -835 0
618 873 377 896 282 0
-202 56 -624 -564 520 0
-539 -816 -400 -270 -253 0
140 825 -587 -556 857 0
773 -621 -593 -99 8 0
-441 -218 -631 994 -813 0
-521 131 560 -180 -89 0
-489 -255 223 -469 558 0
-643 35 -201 426 168 0
679 -383 -240 -254 205 0
-828 -181 785 739 -25 0
-201 478 -452 -19 -664 0
-255 931 -120 -301 854 0
252 -350 -76 182 -972 0
-349 801 712 605 731 0
-142 -21 -261 356 926 0
565 -547 132 526 -27 0
99 -456 14 -995 -93 0
477 872 114 67 -927 0
240 206 -832 -743 -426 0
20 24 595 -98 -548 0
-155 557 524 505 713 0
803 614 142 435 782 0
-344 207 866 -615 -946 0
401 487 -378 -37 -954 0
-846 -353 -102 417 -256 0
-149 699 -212 -205 -542 0
-255 975 -240 -999 -141 0
141 458 -550 -931 14 0
-856 -233 984 306 904 0
366 979 719 937 160 0
849 -24 -589 -988 -67 0
-358 405 -767 -843 -305 0
-917 -678 -294 390 776 0
49 465 69 -541 183 0
-599 -266 -382 -817 573 0
-633 -560 835 384 -653 0
563 26 -524 165 511 0
-352 815 746 856 900 0
580 754 -699 -45 183 0
217 638 502 -423 168 0
-829 478 -413 -649 853 0
572 -240 982 -339 -581 0
858 378 -42 437 35 0
450 -129 745 636 529 0
-766 537 -111 -982 810 0
367 193 -325 904 656 0
730 -56 144 -471 -215 0
27 923 -706 -733 -888 0
412 -524 -861 -887 571 0
-796 -152 -278 -727 -913 0
-754 -848 525 357 -476 0
174 -592 -675 869 -774 0
840 248 -484 536 472 0
-944 -770 -504 -57 -234 0
993 725 45 -772 -464 0
466 -463 -947 -810 678 0
518 294 -17 -264 -73 0
578 639 -179 -359 -921 0
648 11 -844 -604 449 0
689 588 535 -721 -559 0
464 917 714 -717 147 0
-877 514 -24 -982 -675 0
-963 -929 148 -84 -781 0
188 2 877 -65 -224 0
182 99 -699 -404 -756 0
427 -716 -618 255 -158 0
-512 -745 799 -789 635 0
430 657 -926 166 -426 0
33 458 -49 146 79 0
-750 713 558 764 -690 0
383 911 -965 263 -1000 0
771 -666 -135 863 179 0
393 892 -381 -279 -828 0
57 537 82 503 53 0
821 680 785 409 -894 0
122 -31 945 835 284 0
-143 -773 585 70 -619 0
620 842 600 -918 -952 0
-436 163 285 -861 736 0
994 286 -807 -114 -202 0
-735 97 479 70 -842 0
782 -712 336 -364 849 0
-357 -641 -812 -445 583 0
830 322 184 -802 311 0
-61 971 982 698 -523 0
432 -576 -317 465 462 0
791 -329 71 -390 377 0
-524 910 -699 -420 256 0
431 -436 -167 419 -667 0
-314 996 847 -203 -339 0
134 87 -328 202 426 0
-843 579 -237 -869 786 0
767 -314 98 43 -206 0
-766 489 -706 928 -422 0
-436 29 415 222 854 0
824 891 -698 -735 586 0
387 495 669 -618 965 0
868 585 -924 792 -414 0
730 -769 -846 -718 550 0
-128 288 -526 358 -137 0
392 -918 195 239 884 0
140 -169 325 562 -124 0
341 100 -676 -735 870 0
-858 -135 -651 -78 -463 0
-716 -766 -868 715 711 0
112 -148 -972 -686 650 0
613 854 48 -703 236 0
-527 -102 890 -35 -814 0
461 -171 -857 -355 -805 0
-617 889 699 259 -934 0
-153 -339 657 635 -219 0
-135 -400 -849 -83 -372 0
-9 659 328 319 -757 0
-98 784 -328 -639 -747 0
455 -31 -112 155 -913 0
303 -31 257 -790 -782 0
-424 996 77 -754 186 0
-365 435 -600 555 -630 0
-471 -311 742 -874 336 0
-855 -506 101 191 -875 0
-21 -936 -744 194 421 0
-1000 146 803 347 -468 0
-610 343 -708 -956 450 0
18 106 613 -629 995 0
993 -633 573 -14 157 0
-24 -991 -167 -454 -263 0
-799 716 -704 18 820 0
-404 29 -352 938 -319 0
670 689 701 -135 685 0
-861 152 189 757 -662 0
-883 737 -304 535 951 0
-777 -755 -664 -676 -914 0
-939 477 -388 -340 744 0
725 403 710 665 460 0
877 148 -3 -99 -338 0
680 223 -78 353 257 0
189 948 986 -163 -593 0
596 561 -916 -148 -450 0
530 438 -109 -452 143 0
-347 -769 471 -23 -57 0
500 -81 161 125 -877 0
-178 -787 -771 88 -28 0
151 498 559 421 734 0
299 895 -305 507 841 0
-994 814 373 -454 -1 0
735 275 638 515 -510 0
-790 584 612 491 -259 0
-578 -6 569 -530 -920 0
117 -432 623 -483 542 0
667 745 -575 605 -211 0
216 853 -324 849 -596 0
-640 -490 105 -803 31 0
-595 502 -881 -68 757 0
-305 -988 -525 732 474 0
-401 -183 -63 894 -15 0
814 927 -840 -381 -623 0
-153 -150 782 83 55 0
-996 757 -278 433 -280 0
-981 305 323 -839 245 0
-723 -859 794 619 -913 0
961 -934 70 -708 -730 0
-562 -633 -581 -600 -630 0
-926 342 -269 -804 454 0
864 888 401 63 -354 0
-527 -150 -129 877 -762 0
-218 922 -991 -849 328 0
-724 536 -154 -564 83 0
-317 913 -85 792 246 0
298 -664 489 -897 598 0
-273 384 -329 -944 -532 0
626 -206 -296 -374 856 0
-898 652 -234 -998 488 0
181 -981 4 -309 -575 0
-686 -36 -422 -149 -374 0
-207 560 263 -612 -930 0
521 341 -17 -441 -560 0
929 -992 -259 -455 -23 0
-945 -543 718 -989 144 0
28 781 -252 79 198 0
906 684 201 -474 719 0
414 314 -426 153 679 0
-916 749 -7 -544 -759 0
-194 278 456 -228 -629 0
-187 246 658 -410 703 0
349 224 648 558 556 0
-329 855 735 986 -377 0
-122 450 353 10 -509 0
-660 -452 223 80 93 0
185 116 -853 -237 79 0
279 688 -700 866 989 0
89 -71 144 -400 349 0
233 -719 -975 283 -41 0
16 -318 180 408 271 0
513 141 -596 -212 225 0
-946 -637 -828 -573 327 0
-82 153 799 199 -311 0
877 -152 -649 60 342 0
-110 -874 972 -497 -686 0
-941 102 607 -85 -67 0
238 608 -593 888 674 0
109 -699 823 996 -599 0
-861 -749 609 509 570 0
-905 91 -25 -733 -527 0
-48 -817 -929 -108 180 0
606 -804 220 946 -373 0
330 -795 -708 -557 241 0
-505 -580 972 -582 671 0
881 -853 -921 -550 416 0
-33 -55 998 -496 -594 0
448 -721 583 371 846 0
655 -82 344 -427 -308 0
-31 -346 -233 655 660 0
-918 -213 440 -758 897 0
854 -645 -344 -626 -935 0
620 1 -875 248 79 0
512 15 -312 -186 518 0
214 -353 -943 874 -645 0
-554 362 -401 965 -576 0
85 -703 644 -763 -230 0
926 417 735 488 -662 0
-572 251 366 750 834 0
256 561 -229 15 -400 0
678 -64 755 -709 7 0
228 -551 -95 197 -354 0
734 -290 145 -242 -778 0
329 106 -912 639 -121 0
641 93 -127 530 36 0
909 -899 80 228 114 0
-266 -795 -308 106 -733 0
-472 -953 132 -213 945 0
495 -395 -205 421 -310 0
-561 400 512 46 586 0
-344 -362 -15 -688 -194 0
-759 907 -776 278 351 0
-49 84 -735 -613 -330 0
452 -395 -700 -806 939 0
315 406 381 -577 -201 0
441 407 -216 -986 29 0
-527 -576 -380 -595 -749 0
-695 -801 423 -934 72 0
133 -24 996 -695 -514 0
-759 689 -39 57 867 0
-577 390 -993 191 278 0
384 -845 -722 133 -486 0
360 -517 -930 88 457 0
577 -157 617 -118 687 0
426 222 78 553 907 0
555 943 -801 -314 685 0
-624 -957 -576 568 836 0
-187 531 -532 -714 -605 0
406 128 240 -278 -469 0
818 -437 -173 513 979 0
-57 382 -716 -856 678 0
-170 -9 793 -174 233 0
872 -245 -637 -124 -251 0
361 954 -46 39 917 0
-545 -638 464 467 157 0
-673 -591 -792 -32 595 0
-5 -484 -405 619 -644 0
-566 981 -273 -307 -774 0
281 56 485 655 -547 0
-820 144 987 -704 -117 0
-275 464 -838 175 339 0
424 -492 -195 193 929 0
133 977 97 786 866 0
965 -148 517 692 706 0
384 471 -946 175 -468 0
993 671 233 -950 -932 0
-700 989 477 880 10 0
-364 131 -791 236 -935 0
622 -692 940 31 671 0
-287 377 -48 -5 503 0
-909 -145 -322 142 -609 0
226 200 -452 281 -576 0
5 -884 205 364 962 0
-347 565 932 422 909 0
-312 51 -174 -891 -486 0
-426 100 24 -922 868 0
246 -547 -792 830 252 0
-296 361 -166 -990 554 0
759 90 380 679 573 0
-176 132 -291 341 755 0
-42 -91 -639 426 253 0
-606 -344 778 -159 644 0
136 -276 -990 323 -512 0
261 -617 -265 -90 -558 0
-558 650 -795 -42 515 0
377 -220 951 -936 -740 0
349 103 296 -788 -31 0
-291 133 -511 -727 -550 0
463 620 194 840 -626 0
-158 891 278 445 100 0
-545 -966 430 -213 737 0
-487 -473 979 -617 434 0
767 47 522 175 647 0
-303 -435 918 226 -549 0
-836 -89 628 759 65 0
586 804 -317 704 652 0
328 -165 366 -504 250 0
950 -939 217 452 -340 0
-898 -786 950 -403 140 0
-749 -415 298 -325 -454 0
-407 954 -231 479 459 0
892 -95 753 -846 -703 0
-11 -21 61 816 548 0
-766 -931 -318 408 719 0
-606 -976 126 -610 311 0
-318 -385 -905 -870 631 0
-928 -110 -399 -728 633 0
31 -5 901 36 -941 0
-49 571 -127 721 723 0
321 -337 -908 30 -466 0
8 -437 825 -295 637 0
411 -176 213 172 304 0
-326 600 593 -112 -297 0
-252 -435 -11 -773 831 0
-614 786 627 212 310 0
-39 -806 -199 236 851 0
-737 -760 239 185 -952 0
392 764 -98 -880 582 0
-264 -113 -41 -447 -440 0
848 -866 788 -628 442 0
60 -77 -380 -947 -151 0
-700 694 870 306 285 0
326 -575 -753 -868 -988 0
-866 -621 740 166 923 0
-562 -748 135 808 -138 0
142 80 713 902 -673 0
988 299 365 274 207 0
-206 591 499 878 151 0
-290 621 81 112 991 0
186 -30 845 -782 -206 0
-43 382 923 548 -356 0
-252 138 -533 900 -15 0
-724 -976 325 -147 -228 0
-406 279 503 896 204 0
-661 430 120 129 -210 0
112 -903 -496 386 512 0
820 551 372 235 -690 0
989 67 58 302 -134 0
160 162 143 946 -525 0
297 973 375 157 348 0
399 991 -250 889 -868 0
68 738 32 -972 459 0
-207 274 662 -864 -536 0
963 -961 -632 418 -563 0
-431 -868 943 -83 713 0
-864 383 -1 728 992 0
797 403 81 277 752 0
5 395 649 511 -163 0
855 -90 975 -566 -880 0
534 505 250 -451 91 0
270 484 948 652 133 0
-873 42 -418 134 -178 0
-49 -719 -778 911 140 0
-121 -909 507 -923 687 0
-714 -224 -715 -596 -363 0
-805 -696 917 -388 928 0
156 -251 -102 -853 759 0
-488 296 469 -499 -752 0
717 -243 563 -362 894 0
-65 896 -784 -141 -465 0
-179 708 -461 318 352 0
-440 -697 -307 -862 -218 0
924 -903 -213 901 342 0
-539 -237 -507 195 -822 0
-710 654 -269 -969 749 0
120 579 -943 256 -669 0
-95 -84 779 -990 798 0
416 -223 695 181 320 0
31 934 563 -97 -107 0
-871 207 731 -48 179 0
550 484 -831 794 914 0
-358 847 581 282 -735 0
-105 663 -269 193 -48 0
643 190 100 253 -273 0
-568 829 675 -186 145 0
811 -35 -586 -676 -787 0
-979 -918 196 -784 970 0
-32 411 627 -633 -343 0
-501 -944 526 -791 -547 0
-12 321 216 313 -168 0
422 -254 970 835 992 0
-163 -946 -758 59 -580 0
-498 -162 -323 -32 839 0
975 929 -226 -553 913 0
-167 940 -320 -520 -343 0
173 -454 -762 256 537 0
773 -662 926 861 157 0
-896 650 -952 -994 -5 0
772 869 -381 428 765 0
-713 -531 504 -957 760 0
484 474 422 -821 -645 0
754 768 252 -241 -757 0
-783 -266 155 67 -373 0
77 -306 -983 -754 -863 0
-956 582 -448 241 -555 0
732 582 -960 600 490 0
602 546 -23 -85 -56 0
215 -430 -413 5 -59 0
-823 -623 929 752 -286 0
917 -769 980 923 -886 0
578 584 85 -439 84 0
-212 -196 174 135 -96 0
-549 525 -151 -587 511 0
-70 349 689 640 -690 0
176 -390 506 -650 -950 0
-570 575 224 502 844 0
-877 -156 154 -26 44 0
190 -818 -197 787 -277 0
894 347 -127 -698 520 0
-794 -529 747 -201 -8 0
365 -713 396 309 -646 0
774 -289 -28 -910 -225 0
877 -348 876 -445 -549 0
-527 -788 -27 338 -760 0
892 -436 356 -51 -560 0
-183 -341 -424 -735 -299 0
353 752 -655 -678 -897 0
-915 405 -182 329 60 0
803 827 960 751 -389 0
-315 -682 83 335 277 0
-185 -985 -828 -135 -766 0
139 -753 85 817 -952 0
-13 217 -714 -184 534 0
6 554 432 921 -919 0
944 618 -368 423 -80 0
527 -536 -767 366 457 0
-169 -621 -797 983 142 0
-441 522 -833 -478 -826 0
-719 -803 -599 -991 497 0
-883 631 355 277 -688 0
43 205 745 -951 413 0
-967 -440 -320 327 122 0
-423 -142 199 -442 761 0
459 77 291 784 438 0
519 -726 278 324 839 0
179 700 -323 -672 257 0
661 -872 -302 -522 408 0
-478 -39 -349 -525 659 0
-727 -211 -814 -129 3 0
-172 -779 569 -693 -349 0
849 134 -296 912 213 0
230 -574 -284 -157 597 0
949 -312 -536 -924 648 0
-365 -824 -100 159 802 0
-595 -357 -429 -533 -606 0
-73 -16 -301 700 -826 0
-227 270 617 -373 -457 0
258 -586 -92 190 512 0
-860 290 492 -638 101 0
452 569 -900 24 -311 0
127 94 -257 -445 121 0
-862 126 598 719 -269 0
976 -484 92 509 -220 0
-847 -801 559 -876 903 0
630 316 857 -358 -205 0
-737 380 -318 -99 -149 0
19 309 240 -431 652 0
-503 -245 -513 -482 -400 0
886 -473 -299 252 -983 0
41 545 -581 -719 -466 0
288 -430 -757 -574 -986 0
-477 445 954 -688 -476 0
856 376 -603 61 -142 0
-905 305 -91 56 682 0
150 178 502 -976 28 0
623 241 475 477 -220 0
-323 -141 138 -867 267 0
785 -880 230 964 253 0
894 -109 884 -145 165 0
-768 634 964 82 -30 0
506 185 73 82 -159 0
-42 570 98 84 -281 0
393 -156 -168 -290 258 0
930 404 -936 -796 -237 0
-612 332 646 427 -789 0
797 336 481 754 306 0
278 -140 -361 -321 -897 0
308 -46 -495 -550 -231 0
-278 193 68 -575 -875 0
417 -508 -189 -604 438 0
-681 992 205 159 253 0
-590 58 -816 632 -716 0
-611 -676 349 253 -602 0
540 80 7 -629 345 0
-117 -679 -426 -910 333 0
477 -44 -192 180 -138 0
-604 -855 820 170 -146 0
174 983 244 -589 111 0
893 373 -922 45 -320 0
-280 -231 -564 -816 709 0
-125 -597 870 -153 85 0
73 -3 350 839 836 0
979 -959 -309 491 -253 0
689 155 894 -776 968 0
895 -815 -289 333 -502 0
-528 339 -258 -728 604 0
739 234 -532 -470 -673 0
534 527 -752 -764 887 0
-705 -307 314 -332 -583 0
-501 946 523 129 -454 0
584 -47 239 -804 432 0
-891 290 -765 794 -936 0
815 -58 345 736 629 0
131 902 844 -633 356 0
-604 -507 838 -668 499 0
340 -747 -999 -787 869 0
43 -841 331 256 -204 0
-857 -742 -351 130 853 0
-905 -131 -606 688 359 0
-616 949 554 724 -754 0
491 -657 741 917 153 0
-490 858 -173 -404 -684 0
-37 -634 206 -998 -138 0
-208 929 414 542 851 0
-514 -60 449 -604 -466 0
-431 493 -223 -782 918 0
-263 -730 -586 615 470 0
-402 -461 951 154 -899 0
276 926 554 419 799 0
-186 963 -472 321 -440 0
-12 -685 404 -223 344 0
512 -321 608 742 961 0
566 588 233 -412 -727 0
-144 530 -653 435 106 0
291 910 -653 594 -593 0
-345 -842 -873 209 -635 0
-117 950 807 20 823 0
920 794 -490 -837 151 0
396 -898 -563 606 -794 0
847 -258 -626 755 293 0
-254 -958 806 879 -721 0
335 343 631 492 -170 0
-950 925 990 858 -394 0
593 -832 778 -157 79 0
-877 636 -775 923 258 0
95 -919 -438 780 199 0
-247 -996 228 445 287 0
-956 926 -352 558 -555 0
469 -615 368 485 263 0
490 -799 132 864 -113 0
661 -466 214 526 205 0
774 368 -203 -962 440 0
-838 495 605 -839 285 0
-177 -302 995 168 -685 0
203 -84 -535 568 -839 0
23 723 663 812 -395 0
558 -328 -853 774 -744 0
564 655 -894 -275 221 0
-840 442 966 -445 86 0
726 -105 -642 -996 -34 0
476 -707 97 339 -461 0
-670 -633 -369 -168 -377 0
470 -111 440 596 -754 0
56 165 -825 -48 196 0
-763 634 -879 48 674 0
-148 10 -449 -373 -519 0
-159 -82 -13 520 99 0
974 893 -256 428 199 0
-505 768 610 489 805 0
-859 274 636 -287 -419 0
692 996 -107 154 -411 0
411 963 568 -276 562 0
-788 721 -855 404 -266 0
-49 -2 -775 -669 -442 0
-478 -22 -582 854 -920 0
396 -547 -481 -980 492 0
-41 856 896 -589 -457 0
417 102 82 -162 -675 0
770 -942 779 -717 166 0
-601 50 901 292 657 0
-324 169 846 -265 445 0
-214 747 -503 243 441 0
955 -630 -485 -427 325 0
70 724 292 -800 -777 0
-789 852 374 102 -901 0
-391 957 -837 -636 -140 0
-804 -558 830 754 425 0
-323 -675 -721 -478 -895 0
-683 -488 -515 659 -567 0
650 249 638 500 -472 0
-765 -715 -305 507 -652 0
653 -516 317 -758 -753 0
-873 618 326 -718 223 0
277 -817 421 -68 400 0
-756 599 -607 239 -225 0
324 -272 118 -850 547 0
390 588 -907 265 -100 0
-875 580 717 -472 558 0
604 -315 138 698 -918 0
-6 992 917 -482 -706 0
-714 -959 476 -676 -637 0
-739 -287 25 257 391 0
-236 480 -308 -773 31 0
-536 867 -291 523 209 0
495 542 -245 -892 747 0
-304 377 -356 -787 968 0
-708 -552 -925 622 770 0
855 -827 448 725 -464 0
474 -829 358 -688 113 0
-310 744 -892 923 208 0
-12 -732 378 -575 -761 0
-599 -294 -87 395 -548 0
-790 831 590 -411 812 0
-906 -416 836 -14 -985 0
-295 182 -777 494 -740 0
33 -322 559 94 194 0
714 132 641 -115 792 0
250 421 925 -945 -671 0
888 240 -443 395 750 0
-495 127 725 660 -952 0
-641 106 -916 235 -34 0
-567 41 265 -546 527 0
-41 546 -527 -550 -685 0
-191 235 80 -400 -318 0
-194 805 -715 219 360 0
407 56 -474 412 247 0
176 777 277 -237 -524 0
192 -988 333 -644 -139 0
-540 -924 120 -576 579 0
-518 652 -805 26 -621 0
889 375 188 -65 582 0
-650 -92 -621 793 163 0
252 -216 658 335 650 0
94 773 -754 475 171 0
513 263 389 586 707 0
946 967 -624 -498 -711 0
-133 -151 -619 267 409 0
427 881 345 -865 830 0
367 615 670 -656 484 0
-684 -442 -167 -501 384 0
150 -134 978 -591 -683 0
-132 -980 101 -410 965 0
-14 -981 -163 261 -418 0
120 -46 -216 237 138 0
-715 971 734 -444 -12 0
-383 545 432 398 -66 0
560 352 922 275 -933 0
-527 540 332 -282 -902 0
787 797 -970 -958 61 0
-787 -740 910 162 -441 0
-922 475 537 -902 -671 0
340 525 983 469 776 0
139 -440 433 -429 827 0
710 -14 201 199 619 0
246 999 158 764 -421 0
409 340 -905 -232 -936 0
426 -725 938 505 -962 0
716 102 -844 827 328 0
531 577 -154 544 -54 0
-448 906 -187 -442 -661 0
214 -631 -409 -951 559 0
68 -729 -66 283 -320 0
468 -439 513 128 271 0
46 -226 126 -37 533 0
-603 447 364 -766 -771 0
960 -322 -872 182 -460 0
-505 -406 -197 -991 53 0
-688 -356 13 557 615 0
-205 -533 604 -529 -365 0
-473 231 776 855 -289 0
-435 222 23 641 -134 0
-761 -373 -713 356 -234 0
-350 -32 465 -430 -800 0
-642 -189 691 100 751 0
-250 -35 -742 119 -973 0
180 506 -691 -107 -4 0
533 773 892 -782 6 0
-581 210 37 366 44 0
472 -122 749 446 533 0
-366 790 562 236 577 0
-759 -679 -90 853 632 0
-207 -428 989 -573 -366 0
-289 553 731 -557 645 0
131 -889 434 -477 277 0
-832 124 222 186 621 0
406 761 780 -38 -461 0
-814 -406 -202 668 -67 0
-736 -555 511 -843 628 0
-691 -293 267 739 415 0
643 835 -56 968 -142 0
815 959 -817 84 388 0
837 867 -923 -240 -749 0
497 338 502 -133 871 0
311 -384 579 975 -472 0
-165 261 -699 -292 -901 0
-705 145 -437 686 478 0
-504 386 -952 -316 648 0
609 117 -129 -125 -859 0
986 -939 -358 -440 -930 0
242 -597 558 -534 -906 0
108 -666 -668 740 -547 0
158 55 -919 -379 -108 0
405 -411 111 757 619 0
-571 970 207 891 293 0
456 242 -899 554 -180 0
-218 -587 389 -788 -503 0
-490 558 827 -181 -367 0
71 -917 -963 -90 307 0
352 -831 -756 632 -388 0
-455 -688 440 -141 744 0
-300 450 443 187 647 0
733 128 365 857 648 0
773 -367 -770 -602 832 0
658 376 3 929 305 0
-95 755 -356 380 -938 0
315 136 -258 744 -659 0
-867 472 760 -289 -857 0
-441 692 10 -273 235 0
-862 -146 106 -748 218 0
-247 -810 -250 -277 868 0
-898 957 -76 126 273 0
730 -43 666 -12 537 0
445 617 -331 245 -212 0
514 787 76 -111 -136 0
-822 -503 -216 -347 -870 0
-960 -653 299 -405 115 0
204 257 -994 319 -642 0
805 223 -33 -646 783 0
912 456 -761 -119 467 0
-389 554 -20 -446 571 0
-645 -106 -555 -206 -114 0
937 -712 -248 482 893 0
407 -408 418 194 65 0
-14 -400 -593 239 -479 0
142 -985 131 -224 -935 0
862 258 126 131 763 0
-616 -829 -839 -439 -955 0
119 815 -990 841 -488 0
-196 -800 142 855 559 0
49 -231 -773 522 -224 0
-888 -452 472 297 477 0
266 6 888 -28 -125 0
10 40 640 357 -600 0
-22 -272 300 -339 459 0
215 -708 959 474 437 0
460 -147 -535 481 -675 0
386 998 498 -591 -734 0
41 916 -20 -156 221 0
18 33 246 953 70 0
-617 243 -516 191 -842 0
977 871 -945 536 897 0
-719 -67 -424 -803 -100 0
-434 -138 758 929 572 0
-683 -981 -65 -833 882 0
-814 10 -643 -137 86 0
546 -200 -295 240 194 0
-810 -297 -157 135 956 0
-898 -112 887 -500 -458 0
-286 409 903 -233 -261 0
-816 629 477 182 6 0
-628 -881 256 -805 -366 0
973 -450 -665 532 470 0
-455 789 -497 249 167 0
-393 -470 -358 -395 650 0
376 853 235 363 -702 0
-479 -361 881 948 412 0
532 -689 -361 -282 350 0
-664 861 -43 896 901 0
882 671 -912 916 -725 0
336 953 -795 798 -412 0
708 88 -690 -748 -401 0
206 939 -831 -464 -97 0
-972 -133 -211 -834 830 0
520 111 800 -871 169 0
556 827 192 233 802 0
-287 43 576 959 453 0
-588 510 -33 625 160 0
254 -1000 -599 635 -292 0
-54 -495 -720 -752 -805 0
-895 -408 898 -504 -446 0
621 467 472 -166 -709 0
-784 99 315 -813 -854 0
541 715 -704 649 263 0
738 895 -62 -521 -407 0
-342 222 882 94 317 0
321 -989 400 354 -618 0
215 555 396 -693 -885 0
-482 -46 -726 24 -610 0
94 545 -26 548 -888 0
-240 -816 772 434 201 0
-288 669 -938 226 -17 0
856 748 -457 316 325 0
752 801 202 644 98 0
-105 -420 -797 -918 -507 0
-883 92 923 -329 -875 0
-238 -178 -318 -549 754 0
-967 -213 -769 139 -677 0
-861 665 391 403 350 0
765 212 -397 108 -842 0
-209 -422 154 39 742 0
-332 -268 422 -445 -518 0
-415 712 -455 141 878 0
494 245 -879 439 153 0
974 805 498 960 -774 0
916 -665 190 -939 -456 0
-927 494 195 831 740 0
-883 872 397 -806 -460 0
-44 244 14 490 -858 0
-7 298 348 173 548 0
646 174 348 -56 555 0
-837 303 421 700 849 0
-920 -815 -793 767 319 0
817 -492 286 159 755 0
-308 -178 989 552 -278 0
-954 -365 -789 -917 -956 0
557 430 355 -995 -503 0
-423 369 902 637 852 0
145 988 518 -516 791 0
645 -426 763 766 320 0
-38 -953 -52 -818 -801 0
136 871 801 -572 -705 0
-580 687 78 -637 -412 0
-969 -142 129 -643 -569 0
-160 217 232 -313 -54 0
290 162 -774 -334 246 0
805 -736 -294 651 -413 0
319 -377 -262 307 390 0
-535 218 488 837 -123 0
-420 -16 454 -833 -830 0
-54 172 899 -232 -52 0
-75 940 -377 698 -58 0
-984 -161 -31 -957 -601 0
-809 -807 -589 888 -966 0
83 -321 47 -901 540 0
292 98 -222 -892 312 0
347 70 -958 -398 282 0
216 176 946 -258 -618 0
692 148 43 -638 361 0
323 352 411 -911 679 0
367 541 78 252 -452 0
-253 948 -822 879 683 0
-791 -956 -357 -894 953 0
-355 -214 190 -524 724 0
641 628 -216 -73 -425 0
898 -620 -890 652 -200 0
129 269 -552 -799 -77 0
-863 647 961 -475 398 0
442 -125 557 -580 -379 0
-925 792 800 -16 122 0
-625 -697 886 -616 -303 0
-349 878 -829 -203 52 0
-860 -90 677 417 833 0
520 270 221 608 80 0
223 508 -761 295 856 0
544 -920 675 239 -123 0
812 885 -571 -583 358 0
795 375 996 284 699 0
589 -37 678 -292 898 0
-894 -462 -838 629 1000 0
-95 -936 -309 210 429 0
913 160 -553 -173 -400 0
-147 -832 -889 999 -179 0
-77 967 794 -437 -693 0
-212 -491 -672 373 984 0
563 586 537 -835 903 0
-731 -474 -869 -977 -727 0
-443 -267 -841 -753 -870 0
861 416 134 -759 806 0
-134 -32 -764 528 777 0
608 -102 -250 945 -893 0
-905 -720 866 -799 435 0
783 402 278 -83 -917 0
712 -421 -886 -215 -986 0
-387 546 25 863 -392 0
580 -917 452 473 864 0
294 -916 625 849 727 0
420 443 -305 361 737 0
539 -607 -907 566 -294 0
-641 509 469 406 753 0
781 -567 -275 -246 280 0
-61 108 -350 -820 313 0
54 452 -238 350 723 0
-493 -846 133 726 521 0
-711 739 776 -599 847 0
674 286 714 -507 -104 0
427 52 -842 -352 -638 0
-789 798 332 -77 75 0
-280 372 693 913 -310 0
243 -192 3 -910 -400 0
459 475 185 392 372 0
-399 575 743 -296 420 0
998 966 526 -218 -923 0
-389 785 -486 570 20 0
-848 624 622 268 582 0
120 135 456 -763 641 0
913 -508 663 725 460 0
-454 -311 -282 -862 -557 0
718 -947 4 53 -854 0
-11 -221 893 715 -244 0
695 -215 309 951 612 0
945 592 235 -390 47 0
759 -209 -362 897 -80 0
676 -299 958 445 579 0
-96 -514 183 434 959 0
-715 60 515 -521 -762 0
945 -196 -747 -468 327 0
294 -374 -317 -440 -499 0
-67 214 -462 937 -33 0
-168 417 -13 340 460 0
702 -850 779 969 961 0
886 -503 245 290 -752 0
-30 -579 785 -604 547 0
653 -577 154 -111 831 0
68 -284 -982 -849 879 0
589 495 -611 64 677 0
-699 -96 895 -437 32 0
-606 -642 -763 743 353 0
140 -766 640 -568 -172 0
-204 70 -429 -736 561 0
-183 -299 527 -380 -959 0
901 360 987 -6 -265 0
-622 -550 799 -779 683 0
-87 -803 184 590 608 0
440 -986 -674 302 861 0
-859 -894 -947 -531 763 0
-993 -257 194 933 -541 0
76 -129 -124 867 -101 0
293 787 -703 -857 -62 0
64 -803 -834 37 986 0
771 -154 506 -510 -317 0
-604 -791 -246 -291 -614 0
-830 657 -778 438 -916 0
594 757 605 774 926 0
540 -124 -944 729 -163 0
-314 -96 -61 -326 -916 0
-930 586 653 -913 390 0
-740 -247 -107 206 -671 0
-664 118 -270 -906 -936 0
-909 -727 -565 -184 -196 0
507 975 111 -819 843 0
783 869 -520 314 925 0
-166 -604 -259 -445 666 0
-201 780 840 -904 -654 0
437 -886 -9 -753 606 0
-945 -975 -195 -770 -139 0
-385 670 -3 700 -727 0
712 -905 -946 -502 -965 0
-112 -15 -878 -894 444 0
-449 970 279 -631 64 0
335 -794 -447 912 -904 0
-542 -70 -864 -314 490 0
-549 254 857 48 -211 0
237 -182 550 63 287 0
-509 -795 237 2 200 0
559 428 -627 -77 -164 0
-409 593 -851 19 -802 0
-84 532 -345 -598 -912 0
852 595 126 336 881 0
177 -521 -89 204 -925 0
531 -599 809 640 -854 0
-245 -152 393 55 581 0
954 25 -387 704 906 0
343 -130 772 256 -455 0
405 -388 978 957 -657 0
681 748 -481 -714 45 0
355 -170 -191 708 -412 0
-550 -86 -701 -228 138 0
944 -314 50 403 -378 0
393 45 -794 -335 -798 0
-912 -677 -636 104 -298 0
-526 -334 52 -673 -330 0
492 -489 -389 690 -341 0
-523 -379 640 909 -957 0
974 -599 -888 991 738 0
394 -886 -222 -517 -303 0
696 -796 -821 70 -94 0
718 -420 -472 490 -573 0
970 974 872 324 -807 0
-700 -975 -651 -897 -510 0
-465 116 651 450 473 0
-972 227 307 -313 296 0
12 72 -115 132 951 0
-92 -475 90 529 -306 0
718 -805 775 -795 -687 0
-571 845 -25 -810 797 0
289 -478 -509 -500 -528 0
-692 -237 89 848 523 0
816 -365 -513 678 -687 0
-622 -428 -398 460 59 0
186 24 -353 -591 -539 0
349 108 -147 954 127 0
-481 -476 163 902 -735 0
279 449 -97 982 764 0
243 -442 262 -954 -9 0
797 -23 792 252 -554 0
234 -843 704 321 -618 0
-377 -285 20 -661 -852 0
313 -788 -217 65 145 0
-232 -218 -709 -120 497 0
241 -771 -552 -922 130 0
-970 -539 58 -226 -784 0
-815 902 -681 547 827 0
477 138 452 -663 -642 0
513 487 470 342 814 0
573 271 -534 454 715 0
988 627 -207 -830 -83 0
-774 546 576 -272 -47 0
-785 152 383 14 -943 0
-343 577 -795 -175 327 0
253 -609 -135 467 231 0
-151 944 892 348 164 0
340 -429 140 -783 500 0
-251 861 -154 -656 -612 0
-454 -702 -964 -904 -469 0
159 395 9 317 126 0
725 -996 -397 -993 -1000 0
991 337 73 -89 301 0
229 111 -82 814 446 0
45 -189 -340 -666 -810 0
217 10 462 473 587 0
-194 -625 -996 -710 753 0
-778 -657 -416 802 741 0
-562 -747 -126 253 499 0
-545 498 -119 427 -843 0
-624 -325 -991 192 -616 0
111 -601 -717 -837 -114 0
799 -158 151 160 133 0
-108 746 620 419 328 0
981 238 -759 186 -914 0
-491 -79 921 -10 -889 0
772 -543 450 865 849 0
399 379 -875 220 -745 0
494 -176 -489 -966 744 0
-795 -755 134 131 811 0
-866 -711 -705 -72 267 0
784 126 662 595 22 0
-596 -600 98 -700 -157 0
776 -129 -608 -439 543 0
-379 832 -713 -613 589 0
-638 294 954 947 448 0
-235 -917 325 -822 977 0
681 988 904 398 727 0
697 -407 655 -572 -287 0
992 -254 -413 373 178 0
-447 -713 957 -438 363 0
-943 -328 105 -35 -292 0
-950 -823 -509 953 -710 0
974 -364 496 -916 222 0
-579 655 -355 329 208 0
597 773 -423 -953 -753 0
742 -545 -362 753 748 0
-108 159 -521 497 -800 0
240 -736 56 -355 142 0
-578 -585 510 156 -547 0
-588 682 317 136 348 0
772 542 -358 369 -549 0
187 -495 -124 -983 952 0
252 437 -153 -176 -467 0
355 -498 327 -309 -645 0
-341 950 -836 574 -303 0
87 -521 -490 638 -410 0
-838 -484 7 946 776 0
-491 -410 268 -713 238 0
607 -803 -373 -63 -2 0
632 -893 -668 526 914 0
-889 158 -871 -848 -654 0
-919 -348 -290 897 -791 0
-234 471 -43 -461 818 0
595 -356 -886 969 238 0
685 587 841 -88 730 0
6 -426 -840 264 655 0
695 526 881 555 -609 0
-167 -929 -17 -902 -986 0
-36 219 -845 237 605 0
547 81 600 -781 100 0
-967 604 886 -893 -265 0
-324 712 404 885 -857 0
-623 289 774 -472 250 0
843 949 662 -609 -735 0
779 -789 902 870 -761 0
-537 -233 91 -179 -78 0
964 561 -725 -289 -611 0
-175 -469 991 266 655 0
-771 -651 354 247 72 0
590 -441 -631 968 -930 0
491 -946 -142 15 -978 0
-177 -395 553 454 -231 0
558 -761 -286 146 -990 0
995 -384 -69 263 206 0
248 -507 269 -147 726 0
330 497 108 875 735 0
-120 -570 603 896 -186 0
715 -845 448 876 -31 0
240 546 -857 -600 -681 0
456 -280 244 -659 86 0
26 792 -39 -528 551 0
119 -853 776 342 862 0
-435 567 -654 546 -972 0
-631 95 -197 524 -358 0
-994 95 -467 124 354 0
-400 611 93 304 427 0
-358 -79 -261 -22 205 0
468 -299 -221 -193 349 0
-355 927 -456 -595 323 0
62 629 -718 931 615 0
413 918 522 -193 -173 0
-445 -14 157 853 918 0
-741 662 850 100 26 0
-290 164 729 -617 987 0
776 -110 267 321 -328 0
100 -848 756 522 -82 0
-961 -720 -625 -608 -388 0
127 455 576 -146 351 0
909 829 452 -790 -897 0
-465 -459 628 -363 -625 0
884 610 38 -186 826 0
-492 -680 529 -597 -729 0
-756 64 175 927 -882 0
-358 912 -93 -692 437 0
204 1000 456 -795 512 0
737 -374 6 -75 -692 0
-450 -711 -656 730 -45 0
-496 -784 925 -935 -675 0
-987 -145 -844 -282 929 0
208 790 -435 -942 506 0
510 -795 668 -730 439 0
431 -430 -568 -445 328 0
313 855 -504 -559 195 0
-525 813 -857 807 -896 0
-622 -836 -386 151 147 0
154 550 483 -882 -895 0
-812 -784 -695 -331 -458 0
344 -543 196 981 162 0
-60 -926 913 303 324 0
925 -96 -625 -447 890 0
375 -941 -390 -756 -259 0
679 -508 -136 -525 34 0
834 685 890 521 852 0
85 -898 -257 -416 741 0
673 -896 -36 170 -268 0
-596 -527 408 -82 939 0
49 -290 -590 647 -174 0
606 824 -278 536 -700 0
466 828 147 786 -291 0
245 -618 195 -580 -219 0
39 739 -872 -410 -486 0
-184 -286 -974 402 -891 0
-668 808 -628 -193 404 0
-340 435 68 722 875 0
-233 -420 -868 688 -22 0
889 -238 971 -63 541 0
-840 215 490 627 837 0
745 685 -41 -13 963 0
626 -358 -751 -935 -185 0
712 -629 42 -847 377 0
211 -780 777 -370 761 0
71 39 335 -661 600 0
-680 249 23 226 -428 0
101 -546 679 -738 273 0
273 51 998 -40 589 0
-992 -121 667 954 -744 0
-951 159 698 -828 -294 0
885 128 -558 206 -99 0
736 -758 -257 -785 -667 0
98 598 -388 543 306 0
868 -612 -448 739 -196 0
-640 796 167 646 -225 0
765 -67 176 312 308 0
-713 950 -10 337 491 0
-245 916 403 -901 -632 0
380 937 443 925 86 0
735 -967 260 -763 706 0
-891 -2 206 -812 -522 0
-288 307 434 -774 375 0
-545 472 718 -303 -260 0
719 -679 910 941 -224 0
82 361 -754 -190 -578 0
-852 32 385 -150 772 0
-479 17 -404 -866 363 0
821 936 -636 -924 -790 0
-711 -964 154 -2 669 0
-237 -513 -91 -294 521 0
-514 174 405 -458 649 0
496 23 -192 -111 231 0
-692 22 -135 -798 344 0
349 780 -743 -826 636 0
-405 64 -302 728 -153 0
867 363 530 368 -720 0
-466 113 -238 -912 -262 0
-991 -973 297 -953 -209 0
51 -212 352 486 -602 0
-136 -810 316 355 120 0
-514 -988 -441 815 -296 0
478 97 682 -835 -722 0
8 -87 -811 714 74 0
888 952 -455 -560 -180 0
300 -1 216 265 -233 0
-679 904 -553 804 362 0
789 694 715 -990 -802 0
229 -176 56 -372 703 0
508 165 -142 -80 681 0
291 -115 -759 -668 896 0
134 64 -688 744 588 0
14 -101 307 -731 -784 0
716 130 774 -267 -154 0
684 434 958 -188 902 0
745 -163 518 -993 821 0
-563 643 -724 118 -560 0
586 325 -564 926 -574 0
-278 -968 -198 -9 -73 0
-728 -271 -260 811 -302 0
-800 128 711 -928 535 0
-859 676 23 -856 589 0
-940 -390 159 -70 955 0
706 -393 -643 -217 966 0
563 -263 691 312 -452 0
784 686 -499 -461 116 0
668 -955 199 983 -531 0
971 92 -79 -974 -129 0
54 405 -991 416 607 0
567 690 -293 -882 -610 0
903 -580 934 668 -845 0
505 -45 -710 -877 750 0
485 -138 416 652 -448 0
-999 -546 387 -63 -118 0
-671 600 -516 -88 1000 0
-815 182 -823 738 -143 0
865 -485 -306 -812 -431 0
-972 697 932 983 -902 0
-234 475 -561 -197 400 0
-769 266 59 284 -861 0
-672 -761 69 -238 -790 0
242 855 511 14 -556 0
-118 -44 -868 -120 -310 0
136 -566 -636 738 144 0
510 -371 -209 -623 690 0
139 191 639 334 -381 0
-230 -712 -26 225 -979 0
230 438 362 -55 -715 0
-494 623 882 401 315 0
883 -379 -368 725 599 0
235 -979 719 -453 282 0
-350 -36 884 -713 -626 0
957 -416 429 -997 736 0
-991 -862 -622 -638 851 0
-359 835 -929 353 -147 0
44 251 -895 95 -886 0
-449 90 -785 665 514 0
-179 -270 -952 -543 -578 0
-875 -110 -105 -548 104 0
835 183 114 -625 -181 0
853 620 448 -663 -608 0
574 918 -39 313 732 0
255 604 -790 515 -42 0
540 -479 -696 854 -322 0
920 -599 881 -369 -755 0
-538 619 -894 611 857 0
626 764 225 -893 104 0
-734 -365 384 148 532 0
-379 797 780 763 -466 0
-633 -43 -638 -63 272 0
-626 199 -547 616 772 0
-190 -745 558 -214 -709 0
115 802 -600 287 529 0
89 355 -31 -675 -482 0
122 188 250 248 251 0
-94 -449 -870 -73 113 0
975 -169 497 938 581 0
480 7 58 781 -247 0
-158 -204 -685 -535 -88 0
880 699 -1 838 14 0
-608 432 -918 -795 594 0
-389 39 185 449 644 0
-316 994 -280 -406 -542 0
-395 -721 -27 -259 -947 0
381 -628 923 -535 191 0
-113 332 426 129 19 0
855 222 359 316 671 0
684 -595 872 604 -215 0
726 -935 83 87 247 0
562 778 -810 -404 -756 0
-512 624 204 725 664 0
533 -94 -453 107 563 0
