c 5-SAT formula
c 1000 variables, 4000 clauses, 5 literals per clause
p cnf 1000 4000
983 947 996 -894 -611 0
346 -835 -304 -55 -120 0
952 347 657 221 434 0
454 740 -209 210 560 0
-711 32 -431 233 88 0
-995 -982 -849 -57 531 0
744 -416 -36 -402 52 0
-130 622 421 -27 390 0
-366 -949 -591 997 279 0
-496 -47 -442 -615 594 0
691 -616 432 -726 -298 0
-823 -885 -983 3 -813 0
665 683 642 426 219 0
738 250 -754 -687 -979 0
-135 689 -817 840 -124 0
228 132 730 316 169 0
600 950 -814 17 -708 0
-292 453 -994 893 -863 0
590 -445 -301 -388 -702 0
908 785 588 -542 -771 0
-525 660 73 -391 664 0
442 -163 423 189 646 0
680 -900 -493 -894 -239 0
634 378 -47 883 808 0
864 -164 -657 932 -406 0
508 -649 515 64 161 0
807 146 900 -223 -802 0
50 988 291 137 531 0
-945 94 575 -710 529 0
604 -761 -267 791 -478 0
571 884 134 -490 930 0
904 -749 -823 592 360 0
916 -506 965 -731 112 0
-591 717 -549 -779 419 0
32 151 -999 -805 271 0
960 -709 -192 18 89 0
680 301 -553 106 282 0
759 537 428 722 -473 0
-248 -567 988 -757 161 0
879 -109 -131 75 868 0
-258 -81 -945 -33 -116 0
-237 -733 977 -498 4 0
-621 376 140 -77 954 0
327 -401 688 795 -719 0
-702 600 -47 -9 -742 0
-549 -147 334 946 890 0
319 -740 -289 91 185 0
-569 -981 -412 -545 692 0
498 675 991 -327 204 0
974 455 985 707 163 0
-893 4 -387 -883 142 0
-581 -263 412 -506 -874 0
631 -223 -597 216 937 0
378 -211 -834 463 708 0
-351 -669 956 -962 421 0
-828 -999 -567 -484 216 0
473 -390 83 522 389 0
499 -488 -171 693 727 0
510 246 -116 28 665 0
-873 916 -251 285 505 0
-467 300 -989 -69 846 0
964 533 965 -487 -313 0
645 217 -632 959 979 0
-973 -899 980 -836 751 0
-440 660 -524 -973 729 0
219 319 344 -669 818 0
706 216 296 769 -847 0
-176 973 -63 215 -429 0
-441 212 -408 659 649 0
877 941 800 385 147 0
-889 -612 -851 624 384 0
145 -816 -706 -109 471 0
-644 -303 -668 -694 316 0
410 -44 478 752 -1 0
115 668 -735 114 896 0
137 -260 -545 -149 667 0
-899 -207 707 -814 -9 0
856 -277 939 -937 -995 0
293 -767 416 -655 159 0
-388 428 676 -583 149 0
-426 982 -795 266 -993 0
304 -11 877 970 350 0
730 -103 216 -332 -620 0
186 876 -461 -591 -768 0
835 -931 2 -194 106 0
-196 71 271 696 -605 0
742 -44 331 -350 75 0
842 908 -12 797 705 0
-885 252 -962 -881 281 0
-252 -995 149 -860 26 0
67 267 -558 -995 636 0
663 900 -915 641 -149 0
721 295 972 205 -276 0
541 -799 -249 -782 -18 0
-465 -60 -768 979 657 0
845 129 570 359 376 0
-347 308 118 152 467 0
-67 54 -930 337 -38 0
-815 -970 -269 292 497 0
-899 91 221 667 -513 0
-404 25 -805 218 433 0
-134 -447 146 891 181 0
-679 185 -544 831 -495 0
-257 -322 832 185 602 0
-45 -93 -668 -445 590 0
-690 -495 772 -251 -476 0
-691 -70 -410 -821 775 0
-354 -835 737 -435 574 0
623 -232 377 -282 -553 0
-402 -260 603 933 -340 0
1 -889 -253 559 605 0
835 -107 -54 603 897 0
-238 308 782 69 -197 0
798 204 -320 -561 -182 0
909 323 583 -957 -496 0
733 -163 563 -682 -849 0
-823 966 -442 435 -104 0
234 -57 -561 338 -896 0
-943 802 47 147 -721 0
620 -416 -742 -450 498 0
-266 44 106 -963 93 0
-776 445 436 325 27 0
183 -921 -768 851 800 0
-785 80 -282 155 416 0
999 920 -949 -112 -810 0
-658 404 -550 459 754 0
109 285 -266 864 992 0
-783 -136 -28 57 -331 0
-816 -115 935 838 -319 0
-124 865 171 226 -506 0
-465 883 5 129 -354 0
242 250 635 17 521 0
-851 942 638 645 -388 0
-686 -835 -497 131 -438 0
725 -455 64 -588 -139 0
322 -384 -785 -487 -187 0
420 882 542 676 528 0
-39 533 -888 688 791 0
-856 785 643 897 921 0
646 -419 472 -744 559 0
-843 -214 -540 489 -304 0
93 -441 -488 -638 119 0
523 -803 -798 666 -142 0
112 -161 -44 -229 -186 0
68 -150 674 659 19 0
281 -212 315 583 570 0
815 62 -537 672 -377 0
899 107 43 366 239 0
628 173 -188 368 955 0
-24 -389 758 451 -63 0
-396 -34 -278 -974 -384 0
-743 -564 715 -864 250 0
-241 35 -326 -815 779 0
-285 -951 609 864 -277 0
-620 908 -818 -216 -352 0
188 589 665 -239 -666 0
-3 86 458 -190 -364 0
-99 -191 667 409 175 0
668 173 -527 139 748 0
703 -90 894 505 904 0
958 -952 283 449 520 0
453 361 800 264 339 0
865 454 -771 -640 -616 0
-830 -903 -677 -898 -834 0
-668 -978 132 -809 -770 0
-519 -314 129 -287 230 0
892 -284 -499 -906 61 0
894 -692 -582 915 547 0
874 -993 -561 395 -476 0
52 154 -285 -934 165 0
165 269 -554 -760 -482 0
-220 199 -579 -899 -700 0
-22 400 -764 -996 -849 0
-965 -515 805 -66 -307 0
492 -745 175 -674 419 0
902 -682 -840 -419 -911 0
-686 930 -296 580 -806 0
217 396 -693 93 -531 0
786 510 545 987 -857 0
583 380 391 389 -129 0
918 859 -647 18 -721 0
-260 -479 929 204 820 0
726 -780 -730 -745 702 0
323 339 64 -520 -484 0
-187 -553 -616 835 566 0
115 -789 -756 -881 -106 0
-637 464 -284 -242 825 0
-123 234 870 -655 164 0
-234 -159 721 -442 862 0
-530 -110 -262 969 808 0
701 -12 422 -450 856 0
-31 127 927 996 217 0
37 -30 359 -277 -491 0
287 621 -265 767 799 0
-771 861 768 -315 -353 0
531 -390 498 -462 -731 0
934 295 -109 168 875 0
156 392 -754 658 650 0
-530 -546 -661 247 -676 0
-936 800 -574 174 -280 0
-887 -82 960 169 478 0
618 -294 -28 -189 -745 0
-385 -742 -294 -360 131 0
29 384 952 350 193 0
-313 -803 -768 -98 762 0
708 591 -66 -419 496 0
263 -949 670 -201 -935 0
-234 597 661 -622 859 0
-567 -802 938 340 -59 0
487 -453 -478 -875 732 0
655 -438 -874 -1000 525 0
-649 -199 -999 271 575 0
-903 492 165 -758 -963 0
661 782 -908 539 922 0
-544 -653 516 -712 -193 0
-916 729 -812 -688 -37 0
-619 748 -874 -84 -25 0
908 649 94 -275 -954 0
910 -621 -401 305 518 0
-482 -789 -360 876 -212 0
-139 -437 -442 -132 -409 0
129 -730 -700 -50 -822 0
482 304 136 572 897 0
-516 326 264 88 -571 0
-413 844 193 -37 822 0
-481 847 -145 697 -239 0
78 -992 839 859 -587 0
-833 -457 709 797 -253 0
-419 362 875 -689 752 0
-979 636 -692 -132 575 0
-352 39 416 -793 465 0
837 -291 551 100 664 0
-805 -435 199 -929 408 0
-77 312 837 103 180 0
-558 338 226 -81 551 0
915 -220 -66 -550 286 0
-348 90 -357 151 -488 0
-533 557 184 425 -961 0
157 -189 658 -883 -690 0
16 8 609 957 -328 0
-540 228 -773 523 -88 0
-866 -196 266 45 -649 0
-575 -853 -334 -740 72 0
-925 -296 -457 -92 783 0
812 -614 415 5 -833 0
974 7 769 -637 -367 0
-831 248 -30 477 518 0
-789 -356 719 -660 -436 0
9 -540 40 907 758 0
-688 -89 517 429 -739 0
230 833 -486 -777 600 0
106 68 207 -252 -915 0
805 -466 -490 -94 -915 0
-952 -990 229 -162 603 0
495 110 3 -295 691 0
326 -961 692 -468 565 0
-422 -936 -538 -382 452 0
545 662 -835 322 -171 0
680 -227 418 -573 -597 0
-874 339 756 -208 -159 0
-430 403 91 754 -847 0
233 -832 653 399 849 0
-215 -780 137 -444 -409 0
-6 960 586 450 397 0
19 -129 -449 222 685 0
930 294 -897 177 296 0
-321 -568 -391 616 -13 0
603 -989 -170 533 -280 0
993 137 -980 749 -736 0
46 -189 628 -980 -551 0
-2 -520 361 -714 -84 0
-67 -941 586 831 724 0
-2 -399 -383 -832 -667 0
263 -357 912 249 849 0
12 -712 -244 -300 566 0
317 90 -879 15 19 0
644 -426 507 373 -239 0
-321 -450 331 996 109 0
504 247 -186 61 -94 0
-14 -752 -561 304 -764 0
88 288 -258 -302 -11 0
-228 -161 594 470 -603 0
-55 354 -807 -586 -924 0
-131 641 788 -348 -661 0
255 9 -437 470 156 0
794 -333 992 733 840 0
300 24 833 -975 -325 0
-572 183 -203 886 -595 0
945 -381 -299 -321 222 0
-90 42 997 -677 999 0
-672 411 249 146 818 0
-235 -306 325 453 -641 0
439 -440 -293 700 -49 0
-329 894 -522 158 69 0
-41 721 -344 584 -138 0
-476 -536 -460 -114 848 0
554 -961 -156 -78 717 0
-339 496 -194 668 849 0
829 238 -917 -239 22 0
-668 9 175 703 806 0
162 271 253 90 -948 0
849 -369 -347 -326 544 0
480 -835 -193 -55 948 0
-566 -636 -773 638 210 0
439 -223 64 929 -311 0
-150 -927 -868 -947 -283 0
909 491 427 -837 -583 0
-842 394 -185 -355 919 0
760 -718 -97 -694 -800 0
99 932 -803 -383 919 0
276 284 534 741 820 0
442 91 334 127 162 0
-207 -236 27 884 304 0
-972 -849 917 -410 459 0
-506 -130 6 -259 -798 0
844 423 -280 487 -197 0
-919 798 389 -153 -539 0
499 596 698 -259 248 0
472 406 370 231 884 0
628 414 505 580 -760 0
584 -598 389 -245 -45 0
461 -465 575 65 836 0
389 942 -817 798 -846 0
163 -161 848 -583 -22 0
-473 10 -68 -632 685 0
-545 -113 -810 -849 -319 0
-249 -329 -962 973 -684 0
22 146 -448 596 294 0
-401 203 -695 -156 -387 0
703 66 -902 -996 -202 0
819 343 -755 640 743 0
411 589 760 163 -783 0
451 -979 520 561 21 0
401 451 543 -517 -777 0
-388 -840 -284 810 925 0
92 -625 466 -129 -81 0
366 347 -336 -359 460 0
629 -777 -711 790 395 0
-1 -243 493 -993 934 0
-417 946 -563 521 974 0
-992 75 -585 944 545 0
-932 -946 -264 77 118 0
-440 -394 70 616 -166 0
-600 15 413 -356 -603 0
762 -521 -419 -879 869 0
-208 537 -684 -53 -572 0
305 -91 -986 -303 -929 0
497 378 748 409 -315 0
-893 -318 -780 -453 330 0
334 -768 -738 -42 -673 0
439 363 677 -30 771 0
-878 20 -955 826 -660 0
975 -923 459 -625 586 0
943 -781 737 -462 327 0
124 866 -935 830 -355 0
-735 111 -65 346 -998 0
379 826 915 -380 959 0
75 -277 792 646 -588 0
403 463 -758 -650 444 0
401 332 -653 301 947 0
-292 -548 -301 -545 916 0
457 846 315 427 70 0
519 687 693 633 649 0
172 309 -441 -768 -689 0
908 -54 112 -261 174 0
906 335 -198 -499 741 0
660 718 -267 541 630 0
-836 603 577 113 -227 0
912 830 869 436 393 0
-406 -748 -119 145 783 0
804 -3 931 720 914 0
483 -450 -834 486 -371 0
856 978 778 -513 336 0
-161 22 -422 -523 -513 0
732 79 669 -89 -521 0
-271 907 -115 825 872 0
-174 -957 763 314 -272 0
-971 779 710 143 349 0
923 -293 -369 76 284 0
-78 34 802 -683 -291 0
-95 311 -519 921 260 0
-45 -102 542 -935 -571 0
805 -542 972 623 -355 0
92 -137 522 -944 -833 0
423 370 952 -119 -957 0
-81 -501 15 657 -527 0
485 -246 -536 -703 -604 0
946 307 798 -73 -89 0
23 354 870 -316 68 0
-182 481 -834 368 598 0
-141 -302 438 -127 996 0
22 136 -350 814 -149 0
413 -31 270 -292 90 0
720 186 -279 -825 429 0
-973 647 -637 -341 -849 0
-499 33 615 379 400 0
-971 -73 -580 475 124 0
-256 918 202 -614 -622 0
691 611 972 168 -991 0
-434 801 901 -650 960 0
551 531 934 132 672 0
-968 -143 586 -124 -335 0
149 755 852 -957 643 0
277 195 -915 154 -765 0
118 931 -40 -920 -360 0
-469 598 -741 -900 865 0
-884 -636 -38 312 653 0
-648 -868 -207 -193 552 0
594 668 -499 847 217 0
-721 -515 273 -42 966 0
881 -255 -6 163 -335 0
446 -629 -645 -194 -144 0
-611 -657 952 545 365 0
-327 822 556 -551 734 0
858 147 -955 -774 -707 0
491 -444 739 -305 -958 0
-890 989 -350 -259 -361 0
75 280 303 -363 -811 0
-726 -871 -501 900 843 0
-655 840 408 462 -36 0
14 854 -575 931 -455 0
-176 -903 -984 -379 -457 0
-96 -584 -78 -557 961 0
-98 -389 95 170 149 0
27 635 -462 -240 -222 0
205 -801 -956 794 -659 0
-99 203 867 755 -775 0
774 -293 -29 -509 723 0
-594 34 -276 -127 631 0
931 855 456 -583 836 0
333 -290 -754 853 780 0
-796 496 -726 -349 -220 0
-81 654 808 -874 589 0
-160 354 617 -968 -288 0
976 -91 -419 -383 34 0
357 -66 526 337 771 0
-841 -6 390 -742 825 0
-308 343 354 -538 439 0
342 -612 64 143 -491 0
502 781 758 444 242 0
-453 878 778 312 489 0
-270 -504 -738 -172 -312 0
-976 35 -6 529 -366 0
-205 177 -804 -499 83 0
806 903 915 -853 -797 0
-438 652 -501 -213 -17 0
-395 -46 959 646 -321 0
-807 -118 711 -402 -305 0
-937 631 222 -716 588 0
529 74 -795 412 -420 0
269 987 -370 697 221 0
428 -925 490 -936 795 0
-540 556 -180 -371 -181 0
-66 -385 851 -574 159 0
-365 213 271 827 139 0
-179 981 -736 112 -246 0
-383 -112 -867 -104 990 0
-593 136 791 50 -711 0
668 662 -491 120 -618 0
712 -588 -548 -313 755 0
-827 936 186 884 478 0
-325 690 236 -872 628 0
306 506 -175 639 -521 0
-994 41 484 -735 -209 0
674 -404 -874 -97 914 0
439 144 -670 -427 -591 0
-929 660 -344 -627 102 0
682 991 573 -118 159 0
278 703 493 497 951 0
853 -59 -778 -336 -255 0
594 -468 41 193 -925 0
-523 901 844 -996 824 0
308 96 482 -486 540 0
-354 -242 -962 -617 946 0
-833 257 818 142 695 0
659 -823 963 125 -362 0
-834 -248 923 -387 419 0
-923 515 864 404 -228 0
399 -324 45 -880 -938 0
798 -181 -447 302 -249 0
497 400 -784 917 543 0
-419 -288 -242 682 327 0
439 -864 628 -630 383 0
-702 -249 679 -853 -540 0
302 -602 -871 707 907 0
-647 -83 -792 728 -761 0
-760 -50 473 -601 -647 0
243 484 172 210 -11 0
190 18 583 -880 -198 0
-196 -487 -509 485 -688 0
-352 75 -836 -943 381 0
907 758 524 157 -917 0
686 827 159 271 758 0
-67 399 -592 554 -988 0
391 321 -806 522 766 0
-714 692 -100 544 -958 0
885 -45 423 814 942 0
836 -19 -788 -413 576 0
357 -32 -754 -592 -610 0
-431 21 -416 -33 552 0
-497 -6 247 -455 50 0
261 -996 11 -993 9 0
978 -645 198 396 -167 0
322 -149 -798 -509 994 0
880 355 -59 884 964 0
-982 -463 841 -372 580 0
57 572 -544 -712 532 0
70 -92 -369 -258 304 0
762 -150 66 -721 -460 0
-838 -879 -939 -299 770 0
-910 385 -652 -936 537 0
112 202 -744 -424 -840 0
-526 72 916 567 302 0
-238 289 -615 -497 -711 0
675 55 202 771 578 0
766 -634 999 -912 -577 0
-44 -515 -822 951 -136 0
391 -254 51 39 78 0
-499 444 231 316 599 0
807 93 319 -554 915 0
-773 734 -340 -905 655 0
-816 -51 863 101 740 0
330 -996 871 -514 -534 0
159 660 975 -353 880 0
-706 963 -19 503 -690 0
118 -621 818 578 -506 0
191 265 355 308 532 0
529 -660 691 -773 557 0
617 892 -6 107 640 0
-296 -547 808 813 698 0
238 377 -568 706 -946 0
689 -8 408 389 -306 0
-370 -372 -143 -567 -354 0
404 -567 548 981 575 0
809 -492 348 -716 812 0
502 179 214 350 -458 0
-509 -566 -650 -926 201 0
-339 440 -193 -753 950 0
-528 -735 892 763 420 0
-212 804 982 -362 767 0
610 654 -717 -65 760 0
-953 -6 976 410 -202 0
637 474 525 -273 832 0
-310 -796 -644 -626 -948 0
-373 -565 249 3 -544 0
-937 956 929 465 -192 0
-108 -117 -92 284 -500 0
-797 -786 47 -807 -579 0
-145 -300 748 425 725 0
863 -156 817 72 -751 0
535 -994 653 -473 -433 0
-421 -542 -372 -140 334 0
-588 512 -900 -916 -673 0
-150 698 -756 858 -269 0
-808 339 540 144 -755 0
-595 214 880 89 421 0
522 -20 342 -931 -515 0
-725 65 335 310 250 0
856 -80 -614 817 -749 0
29 -269 996 -126 -72 0
-182 292 820 608 475 0
963 -206 462 -700 276 0
233 894 221 110 168 0
-884 83 -72 345 -996 0
880 826 -397 -417 -735 0
741 779 15 6 282 0
-365 937 -229 182 114 0
-487 -418 821 -287 -820 0
175 61 597 738 243 0
501 -92 -684 -931 552 0
199 585 450 -790 -20 0
-737 -561 289 254 333 0
757 -976 350 579 -580 0
929 21 -949 141 521 0
-628 -872 -668 865 -248 0
-285 333 474 -817 249 0
520 161 -780 -334 -424 0
-667 -336 -524 -66 558 0
-572 -607 -710 663 -412 0
715 207 92 621 832 0
-744 -558 -348 -820 -602 0
290 125 865 -359 -768 0
736 472 689 -264 636 0
-776 -249 -318 945 235 0
289 824 -660 725 -91 0
-866 -790 -822 -997 -374 0
-514 -27 380 699 933 0
-775 652 -8 247 791 0
989 909 107 599 -135 0
975 478 -444 -119 578 0
718 285 -391 947 961 0
-238 218 -920 -57 323 0
149 -896 282 535 -943 0
299 -441 763 -938 -690 0
425 -337 610 822 -174 0
-353 -937 545 -868 -935 0
-873 -66 -750 -414 889 0
-531 -631 -983 766 -73 0
-699 642 231 67 308 0
-603 353 -865 86 668 0
-804 696 678 -474 -452 0
-740 -334 872 -891 327 0
-794 -118 532 -806 -545 0
646 495 -171 479 51 0
-921 615 -635 323 838 0
-660 640 368 834 -233 0
-247 -391 -286 -358 257 0
834 869 221 -655 264 0
-317 696 792 784 698 0
457 253 -657 -708 895 0
-184 -767 580 801 210 0
-450 -878 -52 -944 404 0
-761 -688 897 114 -849 0
-584 -586 607 361 355 0
-363 -364 -540 634 -27 0
195 264 919 -659 976 0
-176 -133 995 495 561 0
516 -712 421 929 66 0
-747 865 -587 867 82 0
-219 476 -84 -962 724 0
143 -763 949 -909 -246 0
-557 103 85 275 -955 0
-423 -215 -472 50 -941 0
-234 -930 115 887 826 0
459 537 523 120 -197 0
781 -538 -593 -672 -628 0
-910 -221 -981 476 177 0
708 909 538 -774 -640 0
957 -58 -71 484 -50 0
723 893 -780 -126 -778 0
16 -240 -782 -952 930 0
302 -766 -569 -265 209 0
597 -737 -614 400 520 0
-9 -79 912 429 376 0
-643 -852 726 -485 -450 0
-679 25 825 -38 638 0
632 61 -138 529 496 0
-993 -910 330 73 -279 0
505 -442 -613 504 -106 0
-662 783 -867 -221 144 0
-795 -468 -796 990 -527 0
604 -32 -651 388 -592 0
-84 706 -634 -1 -246 0
-776 -23 -833 -298 579 0
826 484 -430 -923 -646 0
467 775 889 -262 74 0
-565 -516 -330 328 885 0
352 -401 -596 -574 827 0
584 -357 -726 30 -503 0
-417 608 -261 658 -980 0
-666 -529 -530 -52 -379 0
358 -542 -757 178 143 0
715 880 -102 -477 -443 0
-469 -297 670 -63 755 0
915 -191 -457 785 256 0
789 -908 431 877 360 0
-724 -346 -612 -820 -614 0
675 438 718 506 -531 0
625 434 -805 4 916 0
864 300 -452 465 340 0
909 -767 -495 -980 -507 0
-771 16 342 9 449 0
-167 766 -207 -664 68 0
-702 689 -436 -662 -129 0
733 543 767 -204 122 0
-61 594 223 -319 -890 0
82 19 -764 -132 695 0
-892 180 229 -984 -99 0
-171 -139 -191 543 999 0
-807 750 975 793 -824 0
98 -495 318 911 76 0
-513 784 -305 -1000 -90 0
711 -436 524 -752 -30 0
329 551 364 -904 -999 0
294 557 354 303 892 0
-552 -105 -852 92 274 0
606 -551 -49 -532 -334 0
-128 370 -56 851 -933 0
845 185 -993 620 429 0
415 -184 -211 -234 137 0
150 165 -966 595 368 0
-1 6 -694 -113 437 0
-635 27 797 -670 -133 0
-820 -179 890 -745 70 0
582 660 -765 -732 533 0
-426 -928 -501 -894 75 0
878 96 -554 104 -914 0
689 188 881 -327 -353 0
852 -111 298 968 157 0
561 -741 -405 -830 -930 0
864 -457 545 890 195 0
-530 21 648 -64 743 0
57 -197 -148 409 -137 0
694 898 306 -63 171 0
77 609 284 -382 192 0
-125 -793 -382 -389 7 0
514 225 -359 -470 151 0
809 690 832 424 -894 0
-312 -834 795 -356 270 0
812 -426 666 43 483 0
-470 -719 644 -45 249 0
408 291 -451 -600 614 0
-59 -76 -794 -809 -758 0
-357 867 144 -323 59 0
-950 -895 -295 -589 -755 0
-471 -832 -533 -782 -970 0
946 -2 560 -581 -91 0
-689 -208 -160 -908 -352 0
338 -214 -589 715 -635 0
985 -965 561 942 -6 0
972 -498 894 155 831 0
-855 -906 -170 327 -834 0
-523 -518 776 83 954 0
606 -532 629 617 27 0
475 672 -972 -443 -766 0
-50 630 -744 -669 441 0
738 372 -418 322 -79 0
805 977 -688 -895 -613 0
-12 664 -680 270 -274 0
-722 108 873 312 557 0
373 705 979 587 -211 0
-296 921 542 486 103 0
-10 -226 -357 101 -3 0
652 -746 411 773 -483 0
-406 974 182 339 -813 0
919 636 556 27 663 0
-318 -134 -722 -127 -164 0
295 991 829 788 -571 0
463 -988 -345 286 -550 0
565 898 -305 -421 810 0
-162 984 -363 608 373 0
698 -718 -900 134 -882 0
-361 175 331 -169 362 0
-854 -984 -958 -529 303 0
-614 -140 -641 423 -103 0
363 247 46 801 792 0
871 -594 504 -797 843 0
-146 -894 -270 -500 588 0
468 170 -105 761 471 0
489 -105 -43 -833 -118 0
-838 968 -107 129 535 0
982 387 244 638 803 0
980 -382 -350 -845 440 0
-851 632 -771 -396 859 0
326 -174 -267 7 -620 0
-441 473 92 448 -745 0
-337 -985 724 -570 346 0
-14 -279 -11 966 -873 0
230 -954 -359 -815 12 0
-230 858 -852 -736 -171 0
-220 -284 -774 266 -802 0
-914 -4 244 391 -39 0
91 545 -480 966 85 0
-788 235 308 715 -550 0
-760 804 687 -578 499 0
326 -238 211 582 -661 0
-668 -216 -43 742 204 0
-444 -782 -669 340 49 0
906 -157 493 -541 -156 0
-555 -518 412 219 -34 0
-947 885 -359 -549 -645 0
249 -493 -314 909 -117 0
-89 -672 962 690 109 0
-796 -473 351 972 252 0
-585 -195 -812 -190 641 0
896 326 -440 -477 89 0
186 -984 -158 -247 793 0
-600 967 -240 960 -80 0
708 -973 374 -719 26 0
-631 -129 -176 797 -578 0
-736 96 182 -46 598 0
-371 507 986 818 546 0
-975 291 58 422 -874 0
550 181 -424 593 -589 0
362 600 -398 910 -417 0
131 -141 -45 775 834 0
-20 27 144 -936 510 0
-837 -212 391 127 -507 0
-437 175 78 -324 478 0
986 977 944 728 -427 0
802 401 486 782 913 0
-80 995 871 716 -479 0
801 491 -620 -82 53 0
316 143 -750 81 -292 0
603 313 860 -88 97 0
619 190 -759 150 -570 0
-662 -806 854 597 310 0
709 260 857 87 -401 0
546 603 -870 -178 -798 0
-444 -95 939 94 590 0
-195 -715 -928 51 376 0
475 200 -256 417 915 0
-639 -193 84 -863 -344 0
-785 -700 -204 665 709 0
-45 198 -902 832 -193 0
19 113 112 -229 -300 0
-146 -5 -556 -623 -421 0
588 -243 371 565 72 0
112 617 794 -825 217 0
995 -434 540 568 -270 0
460 72 -287 -484 728 0
829 -345 -34 -467 750 0
-239 969 -276 573 -856 0
-415 -602 302 -869 186 0
-107 83 -310 -9 118 0
-752 -739 421 459 229 0
-600 910 -532 837 -659 0
267 885 -983 -45 -438 0
-487 345 -648 -435 180 0
50 834 -478 -336 -363 0
-757 368 624 161 -168 0
-44 650 -678 -326 338 0
-556 -829 -209 557 611 0
653 -69 901 692 945 0
-468 936 -753 -949 166 0
-559 -713 213 -640 706 0
-816 519 -722 -11 720 0
-588 594 592 -48 -326 0
961 362 -122 842 8 0
60 -826 -479 -635 311 0
-935 353 646 758 -220 0
-742 -420 579 -565 -177 0
-942 758 390 803 -227 0
341 14 -671 -490 951 0
866 -790 -872 445 -857 0
542 -598 -658 -46 423 0
462 648 -160 539 979 0
540 -165 485 483 555 0
-201 906 -98 747 -521 0
80 193 -70 -43 -907 0
-875 982 301 342 106 0
-998 610 659 924 -144 0
-842 -681 -290 -825 -361 0
-992 -931 -227 426 78 0
-253 -507 -228 -360 479 0
-478 678 695 887 505 0
-576 443 -917 568 75 0
-60 931 77 544 -447 0
670 758 139 -408 851 0
-768 -608 -374 -560 359 0
867 673 -815 -360 933 0
180 -35 650 65 -808 0
118 -202 798 -63 -978 0
980 262 923 422 595 0
-442 -777 -771 -421 -479 0
-945 235 288 -365 86 0
177 -292 115 710 982 0
857 188 -253 433 -51 0
239 -269 428 134 -232 0
296 -862 -792 522 -907 0
994 950 784 -995 -547 0
888 -937 92 -27 842 0
619 92 195 -107 -246 0
-352 -811 -878 -399 -990 0
-745 -453 562 -696 -776 0
-370 670 260 -541 62 0
843 -252 -321 -816 754 0
937 -949 -584 971 317 0
485 462 741 -199 -178 0
443 447 712 -784 -247 0
843 270 -963 -765 275 0
-890 796 -380 -894 819 0
-55 -701 962 57 808 0
208 409 -721 133 677 0
472 345 -170 -602 -196 0
652 -334 857 -92 588 0
-897 658 26 -737 243 0
-280 -964 946 -343 551 0
-221 -978 -591 768 -125 0
-698 152 605 -589 379 0
2 -462 293 -224 -716 0
-131 -119 -32 778 498 0
121 67 -59 -535 196 0
-345 -231 -75 422 677 0
-59 -926 784 266 -457 0
710 232 -725 -71 115 0
-411 290 816 -839 -691 0
503 781 -439 -794 295 0
120 91 996 732 431 0
-216 -159 613 -211 -748 0
-489 982 -229 -452 -799 0
691 -958 232 -256 -867 0
158 -382 -9 -938 817 0
-475 133 522 -585 -696 0
-615 -96 -923 -78 495 0
-869 -735 -174 -118 521 0
307 -221 -636 -677 326 0
-986 328 -703 540 -617 0
865 518 -811 -664 -776 0
99 667 952 433 -859 0
-305 743 865 -733 527 0
244 953 -343 -462 -657 0
-968 518 -561 918 209 0
694 -191 -209 704 959 0
94 111 610 382 -936 0
763 -636 947 277 -354 0
412 -897 170 -85 774 0
-202 -932 632 832 -347 0
-595 456 756 107 -453 0
-79 999 450 -644 -502 0
703 -823 519 -195 -155 0
223 943 -576 409 -909 0
270 185 261 -515 -761 0
905 198 356 17 -863 0
-923 351 314 842 -836 0
-332 258 933 -600 563 0
626 -298 33 -415 527 0
62 -943 -84 977 -357 0
133 -443 -559 716 120 0
99 541 -318 590 368 0
108 -4 -467 537 -952 0
-535 -901 -552 680 -57 0
788 445 934 -211 117 0
-294 477 -386 -853 -99 0
-364 -994 -686 -495 -965 0
-877 709 151 -257 -52 0
951 443 268 871 -847 0
-7 -195 -10 -345 112 0
396 -952 -597 -119 428 0
839 993 -808 -161 -853 0
533 986 157 -608 918 0
143 -419 129 806 -279 0
827 30 649 -661 279 0
850 428 -19 -765 954 0
-275 -858 -705 -228 73 0
-676 -394 501 -93 27 0
123 65 342 231 362 0
-607 -680 931 -28 -207 0
-5 -42 -933 716 -810 0
-826 474 549 -390 -176 0
874 226 -643 -851 791 0
-261 -465 446 211 -163 0
-320 886 -73 -34 741 0
-29 878 940 -108 -751 0
110 -25 792 -111 -169 0
-315 -724 -349 -637 -326 0
930 -887 -11 -299 -64 0
-258 -131 428 263 -721 0
408 777 624 -698 -335 0
-687 583 953 -550 -569 0
-699 264 -799 -989 -185 0
786 -804 -56 913 -579 0
482 922 -916 -960 840 0
824 -366 404 -777 286 0
794 -805 -494 -127 533 0
327 607 -307 772 155 0
274 -199 -379 -248 -299 0
564 990 -831 676 -182 0
618 388 -447 -47 13 0
899 513 -670 494 -807 0
-317 892 -550 -38 816 0
484 520 476 -599 993 0
24 334 422 709 -921 0
-339 -826 -796 986 98 0
-654 -289 197 -685 -674 0
355 -86 -784 -22 -315 0
-212 -953 -201 915 316 0
822 929 -949 767 939 0
-923 886 159 528 204 0
183 -298 -155 783 -695 0
825 -946 -219 -65 -444 0
-907 -374 646 297 -407 0
-240 375 84 150 709 0
-425 570 594 -596 -191 0
572 -220 -602 -929 836 0
-984 910 -213 873 -629 0
498 -169 -807 127 -100 0
138 -851 -750 187 -698 0
215 -426 -399 237 596 0
993 -663 22 -308 837 0
502 -747 -723 252 -864 0
861 123 -387 -287 -763 0
-328 -698 -560 296 459 0
-132 -901 -294 -774 -521 0
299 -379 815 -394 -995 0
612 510 -688 -237 291 0
387 -45 62 -524 -115 0
292 487 831 -169 918 0
949 -137 575 564 -713 0
-812 610 -724 -703 -794 0
-259 -269 789 506 68 0
-665 147 -344 676 -220 0
542 -105 569 -817 791 0
202 -831 628 799 -723 0
657 -580 419 -505 -892 0
688 -78 103 -543 752 0
61 187 -449 228 -567 0
-157 602 -174 -209 -868 0
333 -679 763 620 143 0
-684 -720 547 958 346 0
162 -912 -773 700 -273 0
-567 -545 -381 -454 403 0
-917 -367 162 707 334 0
-568 -380 -684 -655 453 0
-259 196 -263 -791 -852 0
-86 -271 313 897 894 0
-871 93 353 -573 -201 0
726 123 -260 -366 -261 0
-145 213 208 712 203 0
676 607 -33 750 -437 0
-218 -261 -949 738 798 0
-146 453 -418 231 24 0
481 641 -325 558 -665 0
-540 -279 -928 741 76 0
-506 -65 -213 238 -83 0
-632 935 37 551 -691 0
566 -987 596 271 -705 0
671 958 171 -122 -533 0
-394 867 262 511 757 0
103 -315 436 -912 84 0
-443 -864 -444 816 -881 0
-129 -808 949 643 -942 0
-469 440 -618 239 203 0
426 129 -145 -152 607 0
-218 31 -650 -190 -873 0
-96 941 -609 -431 626 0
927 907 596 1000 -268 0
956 -853 836 -850 -776 0
675 -571 203 411 867 0
11 -221 -710 100 -15 0
-158 -345 208 85 665 0
-599 -665 108 590 445 0
-620 750 -709 -385 -907 0
865 148 400 -316 555 0
-819 -453 973 -974 -17 0
428 721 485 -950 -672 0
-107 911 -309 -885 278 0
-649 238 754 341 662 0
572 -463 -241 -237 -988 0
-966 -727 -316 964 143 0
-915 812 695 397 451 0
-901 -511 -372 -263 -18 0
-291 -820 -224 -643 218 0
571 -785 -288 -918 975 0
-233 -499 5 -708 -936 0
-687 842 -605 -828 651 0
673 -896 -753 362 427 0
-863 437 125 -839 136 0
247 499 -551 529 -599 0
-138 101 586 816 -887 0
679 71 -123 784 576 0
-432 -597 -902 894 607 0
-422 -758 317 39 -823 0
968 966 803 379 -444 0
280 -621 -956 829 616 0
231 -476 79 -110 896 0
-772 730 -344 954 -169 0
383 306 873 -442 -163 0
-189 626 836 637 -398 0
-919 -466 721 -485 -964 0
351 -956 -431 -461 -296 0
536 316 -768 21 941 0
-288 -945 -115 808 897 0
-816 -208 -982 3 56 0
51 -98 560 -523 -449 0
-723 -926 -50 648 432 0
-328 524 -498 -332 -869 0
536 -140 -722 -576 395 0
-531 81 569 -935 724 0
-400 -660 736 -56 643 0
-355 -589 -482 -473 -165 0
-666 -57 -409 -755 -333 0
-97 159 517 -856 -135 0
-181 93 -303 568 -136 0
-610 140 -791 218 -416 0
543 -474 437 33 -176 0
266 399 305 29 556 0
-748 -131 -655 631 456 0
322 272 582 859 73 0
49 231 -204 -147 121 0
-965 -56 811 271 272 0
276 123 493 -910 -118 0
869 -571 52 461 671 0
86 -347 -745 -554 222 0
-101 -741 263 851 317 0
-812 -23 960 411 -65 0
-880 243 -1 455 -557 0
-356 658 -533 -538 613 0
598 194 -401 501 656 0
-65 -599 -509 131 195 0
-879 -693 746 829 865 0
-428 -410 908 706 664 0
507 -141 517 766 837 0
55 -385 851 131 331 0
986 740 31 211 -605 0
-809 -747 -823 43 292 0
-925 -368 -698 707 -549 0
-513 -968 -377 681 -680 0
649 -149 -958 -738 948 0
-653 141 -408 -74 94 0
999 -767 -11 -938 -152 0
-503 839 811 420 824 0
757 434 534 44 -643 0
-512 -268 599 250 -912 0
-777 -605 192 60 905 0
-44 -817 93 -332 -431 0
353 303 -598 770 487 0
763 946 572 189 798 0
-988 12 -218 -347 231 0
-96 562 794 -333 -366 0
-148 562 -420 -96 66 0
333 -511 497 -896 -151 0
-732 468 -955 856 -448 0
-406 918 -308 359 -424 0
-3 -263 170 86 998 0
-353 923 -977 -856 -171 0
-909 -931 -997 -187 -819 0
88 -439 -132 492 325 0
819 -840 68 254 -458 0
-652 529 453 -792 469 0
-249 111 -467 415 567 0
493 472 103 3 127 0
306 212 -506 398 672 0
827 264 -375 867 143 0
960 257 -908 -545 199 0
662 232 -125 282 -465 0
-969 -355 -966 973 -207 0
-689 919 263 599 414 0
713 -80 -902 492 55 0
283 696 947 581 74 0
-733 -464 927 368 624 0
363 -172 977 149 -918 0
-840 -660 -610 -212 -606 0
-387 485 723 553 208 0
760 -900 205 105 -724 0
-141 307 416 682 -65 0
36 42 28 66 590 0
291 -653 872 784 -104 0
-903 -931 313 -697 206 0
720 -891 402 -337 -763 0
145 102 68 861 650 0
389 707 -775 -541 862 0
82 152 -945 194 863 0
-539 50 -932 -771 -274 0
686 411 -636 -514 -946 0
113 -586 309 -656 -525 0
-410 -420 16 427 -236 0
712 840 152 -622 -760 0
-474 -148 894 355 325 0
140 -839 -513 -731 801 0
-949 -460 110 167 692 0
-863 998 162 -212 -696 0
351 -397 906 859 479 0
656 -246 876 901 -838 0
501 -590 -943 734 657 0
-308 569 423 650 -431 0
-897 83 974 364 525 0
9 757 271 -499 -685 0
-506 -447 -993 -772 -936 0
-857 547 637 41 905 0
-911 -735 -354 519 343 0
-645 -745 922 -168 398 0
-620 -658 102 -656 -492 0
-847 977 758 497 -347 0
598 -330 -461 -133 93 0
-891 840 -241 55 229 0
-784 -378 858 -862 73 0
202 -657 933 801 645 0
-661 -89 -739 746 -670 0
842 -14 622 545 -676 0
504 533 -725 -686 -670 0
797 -665 63 465 149 0
-681 406 -427 861 -578 0
141 -434 49 901 638 0
436 -87 343 875 -962 0
286 131 461 -621 -327 0
-285 -623 -720 -723 -847 0
-356 -737 -761 -81 -418 0
-529 585 -842 304 -289 0
-455 303 32 589 -585 0
-298 185 183 912 840 0
697 338 -500 499 -472 0
309 871 278 -768 920 0
-871 772 -313 791 -289 0
-234 -362 3 -912 -99 0
476 -276 -704 396 -848 0
262 -523 -685 -441 -294 0
217 -29 -372 665 945 0
-811 -870 887 352 251 0
399 282 -314 393 -10 0
-138 -70 954 646 -666 0
952 -378 323 -817 -230 0
795 446 -479 859 -205 0
-171 504 512 643 28 0
-766 -832 -830 605 -852 0
-324 -624 -986 -925 196 0
155 731 -792 -62 -596 0
106 380 78 -594 -890 0
-839 -148 168 -82 92 0
-853 -158 50 -556 -307 0
-785 -184 991 153 -177 0
953 255 498 -179 -993 0
18 528 -684 751 -16 0
-560 -273 532 -333 -670 0
101 -637 -504 641 212 0
301 -714 659 -899 -300 0
552 -349 27 -342 479 0
396 713 36 115 -62 0
-92 -950 -52 45 -574 0
872 118 -333 -412 -174 0
173 -681 -126 46 -88 0
763 -297 -993 -40 -920 0
728 -96 348 415 439 0
31 609 -183 29 -947 0
293 -385 -638 720 198 0
-591 711 374 80 -286 0
724 -809 78 657 -614 0
768 -666 -685 824 701 0
-796 526 -146 617 -753 0
-64 243 -506 315 -170 0
-539 -425 659 696 293 0
-678 -374 499 933 -139 0
-937 -115 467 -208 -420 0
334 573 385 -288 312 0
-309 522 -680 -75 27 0
-530 -979 453 146 -235 0
374 -66 -318 95 432 0
369 108 -176 498 -315 0
663 -263 -737 269 -510 0
-250 169 320 -427 437 0
964 -746 977 583 281 0
-477 -1000 -620 -426 191 0
812 -94 639 -165 530 0
-762 620 -242 -749 756 0
-74 832 153 -319 944 0
-141 -907 -57 551 -522 0
-276 606 -336 141 891 0
929 503 -376 -134 -203 0
637 815 289 140 922 0
-52 -142 529 -929 -378 0
732 -299 564 36 320 0
-189 281 799 788 -164 0
702 -821 -837 -179 992 0
373 -704 787 -634 616 0
-887 -140 926 -992 501 0
915 -17 268 132 183 0
86 52 933 -651 884 0
540 831 -502 -342 -164 0
-565 -380 -950 532 718 0
834 -860 -892 183 -26 0
-228 -368 567 -859 699 0
-787 -554 482 -679 -744 0
734 -153 945 -508 710 0
-755 -40 -700 -546 -739 0
-489 896 808 -423 312 0
-260 -250 -979 751 -245 0
-320 -383 -970 87 -113 0
756 -911 947 -513 -165 0
-34 170 -535 377 -580 0
810 -833 849 6 523 0
712 -526 976 638 -631 0
-499 -172 -925 -200 666 0
142 959 283 202 -167 0
866 745 350 -970 -698 0
996 -61 -637 -87 583 0
-238 651 -338 -601 777 0
-892 519 -127 -478 802 0
429 996 -920 768 -134 0
129 -754 -802 239 -662 0
68 690 187 954 479 0
635 145 -769 991 327 0
-707 700 -682 462 299 0
-664 909 275 104 -863 0
775 104 943 -844 130 0
360 -438 92 -530 -356 0
536 -782 281 565 -105 0
820 181 736 -103 -903 0
281 -239 -625 -925 -118 0
-675 99 -986 -660 531 0
-974 76 25 -981 -360 0
515 -857 -133 -447 -783 0
867 920 -758 371 -721 0
-514 -24 650 -689 976 0
776 -940 -780 590 180 0
-371 18 749 692 -768 0
630 -782 -577 -807 -538 0
-461 416 157 -816 637 0
-106 905 -303 605 294 0
854 -133 388 595 -430 0
-115 -208 260 -756 42 0
-520 -350 -798 19 -65 0
-660 210 -993 80 148 0
-953 -343 507 255 -811 0
421 926 76 54 -435 0
558 -835 562 -642 -248 0
-875 608 946 835 -877 0
-189 -667 286 -224 -291 0
-240 535 -82 259 -20 0
-6 -168 424 616 530 0
352 955 -524 -511 -441 0
298 -441 -848 -339 742 0
-31 -133 137 6 -46 0
-924 467 240 151 693 0
-925 -872 -547 97 -272 0
-739 821 -706 -931 -285 0
960 569 868 989 -348 0
-632 753 580 675 822 0
-565 -199 902 26 203 0
-992 -706 -514 882 -268 0
-622 74 -772 -838 -103 0
511 -508 238 -792 961 0
-20 -639 -481 44 804 0
498 697 -168 -337 -991 0
521 698 -847 143 325 0
409 -209 -373 -556 787 0
-302 944 957 -734 368 0
21 730 372 -936 627 0
-185 142 -398 806 801 0
984 583 461 240 -718 0
286 977 753 560 160 0
426 72 596 -275 -464 0
-928 1 418 3 -830 0
10 894 240 -826 470 0
-502 302 781 -321 9 0
-384 951 618 -781 607 0
-844 -565 -944 -250 -877 0
812 56 -816 -390 946 0
337 164 -996 687 -120 0
321 -559 931 666 -860 0
-352 977 230 -755 989 0
250 189 15 338 526 0
-855 171 559 -786 906 0
-464 -224 362 909 -335 0
-468 389 -92 -346 323 0
152 505 43 764 401 0
-505 -25 -933 90 -332 0
28 762 727 738 -930 0
847 -987 491 -414 -988 0
-179 818 -913 -902 544 0
656 919 679 -539 909 0
397 -140 -960 248 906 0
-916 578 754 979 -821 0
759 -604 -119 113 -176 0
-890 -218 -780 197 -888 0
-217 -924 -241 408 666 0
-898 580 -499 175 -750 0
300 33 203 218 99 0
-376 892 821 177 -109 0
-682 -324 482 621 -720 0
-180 222 225 -603 210 0
748 77 309 -157 -46 0
767 -171 184 466 572 0
406 -241 572 173 -69 0
86 937 -302 231 523 0
874 -615 -325 176 -3 0
124 -700 -558 588 -250 0
185 -539 709 65 -40 0
629 -409 -460 337 758 0
-715 -562 269 -930 -934 0
656 139 -359 -764 -819 0
295 965 734 -480 308 0
928 -841 -527 645 -257 0
-126 -288 -305 753 -517 0
415 -877 -834 -176 -982 0
361 -341 835 318 -206 0
272 255 -685 923 634 0
223 172 729 737 384 0
573 131 76 668 -613 0
-707 387 -381 64 -631 0
-505 -232 599 646 419 0
874 -367 487 28 562 0
407 955 264 -777 -757 0
-62 476 316 -706 -676 0
530 -700 959 -40 -228 0
-219 237 -628 -987 525 0
337 678 -190 -421 97 0
-889 -583 -177 -165 163 0
646 -376 -168 649 923 0
-305 39 -1 -544 91 0
126 365 -280 -202 206 0
728 -597 -484 -163 -870 0
287 241 -811 261 977 0
-435 878 610 732 521 0
-995 109 337 -60 89 0
233 989 -431 601 22 0
-69 -751 -696 -126 228 0
375 657 -70 -703 182 0
942 -488 -938 -213 535 0
222 -229 476 858 -653 0
-420 749 923 -148 -995 0
-591 -396 555 -662 -382 0
164 89 488 515 -812 0
-889 -778 -476 -865 -47 0
335 -21 -542 -597 246 0
457 -688 -547 296 -414 0
-308 -477 -277 -35 91 0
-233 888 -726 107 -205 0
-982 -472 -639 236 110 0
-118 979 -631 203 -348 0
-363 453 -835 -436 -474 0
801 963 -794 331 439 0
506 488 -443 -357 -809 0
-520 -717 -433 -932 -285 0
-901 212 -814 773 733 0
-353 869 453 768 -576 0
-987 -574 35 585 -622 0
-366 120 3 -59 694 0
776 920 73 215 576 0
106 -898 -434 -381 -938 0
149 405 -715 -247 54 0
638 592 669 -832 786 0
747 110 877 981 767 0
649 755 -756 707 994 0
713 -686 -837 528 -182 0
-560 -470 -575 -894 981 0
650 664 475 -561 -826 0
598 245 685 917 -309 0
939 299 -942 -7 220 0
132 558 -451 185 275 0
-686 -207 -819 -285 -407 0
-583 -922 -747 995 229 0
-418 -921 -58 -34 -162 0
198 -530 205 292 376 0
-951 -502 308 -629 205 0
-889 -780 981 -302 422 0
-525 -196 631 711 900 0
230 -131 476 894 -419 0
240 -832 445 670 -788 0
-469 420 890 127 -773 0
-100 -619 -700 516 -225 0
-73 -65 -567 551 -701 0
-7 491 279 4 -654 0
114 -535 60 -43 -39 0
354 -820 -737 -633 -678 0
641 -156 -251 -143 -91 0
-175 907 -502 -260 455 0
-583 -758 -148 -144 731 0
-793 -381 -317 -27 196 0
647 -287 -86 767 223 0
-484 -245 437 496 116 0
-163 250 -560 -775 902 0
926 -948 -8 473 920 0
953 856 -14 172 -138 0
203 -582 -506 802 215 0
-25 775 -109 904 469 0
-513 -136 -906 832 875 0
-572 623 -450 -940 479 0
-943 43 708 139 -537 0
141 93 489 -576 -976 0
-554 -783 -278 836 307 0
781 -377 -910 -457 645 0
161 -693 298 -219 -710 0
-654 767 -167 187 749 0
496 108 -929 856 -214 0
747 -831 -510 -630 758 0
830 -551 -271 -537 -169 0
905 -226 733 517 566 0
-613 592 761 424 -308 0
942 -44 -439 -525 -403 0
778 -915 576 -538 -833 0
538 827 -906 442 -915 0
-804 162 431 -58 -992 0
853 335 -510 -236 -377 0
-914 -749 399 864 -991 0
298 -265 -994 -962 782 0
-355 -387 832 516 481 0
-614 -572 233 99 667 0
508 503 -372 78 -927 0
350 911 893 684 532 0
-443 381 -270 298 438 0
97 -778 -221 793 662 0
-973 940 -238 -387 795 0
319 730 -134 18 -233 0
149 680 -242 231 554 0
406 997 -633 899 -768 0
-826 -103 -573 823 266 0
-577 -302 -928 453 -624 0
-879 -561 230 11 610 0
622 -894 762 -841 -542 0
116 299 713 -78 -410 0
565 -100 740 -338 -818 0
741 367 -648 755 335 0
-976 114 -662 -158 -327 0
991 -417 529 632 119 0
573 -693 978 -324 -796 0
435 -365 788 194 -818 0
-370 -526 106 650 509 0
732 831 951 -514 945 0
-75 750 -957 948 937 0
914 -736 998 -55 -874 0
-113 634 -380 749 685 0
378 569 942 168 559 0
-685 244 700 -986 196 0
-649 -83 329 -793 420 0
-977 -526 447 -945 -305 0
-809 -409 -691 -906 -530 0
-199 73 -552 -829 164 0
-972 67 848 200 481 0
-305 -788 639 940 -50 0
297 115 -233 203 -472 0
673 -883 269 615 -613 0
-88 -812 -890 -173 -788 0
411 -83 -576 520 -189 0
411 143 -282 227 50 0
437 605 -104 281 -983 0
975 679 706 -356 316 0
558 -344 -349 -966 -790 0
-57 616 -222 -497 -123 0
-578 -572 869 -36 708 0
610 -522 889 47 545 0
206 -689 -26 -199 -586 0
813 224 -923 -860 -726 0
-724 -324 218 237 -861 0
-200 -191 -950 -842 -65 0
-726 741 -480 -802 -198 0
593 -539 -953 197 -302 0
-983 909 874 664 -752 0
509 149 -67 -304 987 0
650 -315 486 -546 -281 0
-934 471 632 -545 -588 0
311 -650 871 -866 836 0
-729 788 916 -370 522 0
275 -946 11 -515 -671 0
-856 127 -238 63 -130 0
-734 -195 -759 -502 -803 0
519 -974 588 362 253 0
300 512 297 239 427 0
-852 -589 -630 -853 -636 0
356 925 52 -320 48 0
245 419 -692 499 783 0
-976 799 -679 -378 19 0
-884 213 -946 -22 917 0
-849 -62 44 197 704 0
365 780 -84 375 664 0
-119 279 316 -123 -130 0
690 314 694 -67 226 0
270 -899 -219 -458 7 0
-54 862 468 64 -432 0
115 -901 366 -15 355 0
-715 -172 757 -331 486 0
994 -203 -27 512 104 0
-587 -548 -5 -204 72 0
-386 -310 -866 -666 -814 0
-822 880 -396 315 7 0
-453 -713 -210 -101 740 0
19 450 -436 -856 -717 0
-901 650 -506 576 850 0
-911 535 -747 -703 884 0
-334 -299 -914 -729 673 0
220 -119 570 20 -210 0
-671 548 -5 725 -603 0
-26 504 475 -827 -95 0
78 690 584 691 -145 0
-422 408 -301 -541 -716 0
-98 -681 -407 -940 -957 0
337 484 883 -226 573 0
-43 580 920 723 -145 0
-339 471 -284 -868 251 0
579 -250 -261 -140 156 0
29 -263 -92 232 985 0
-180 -879 732 -167 112 0
-678 -902 -511 -313 -419 0
642 -138 -605 -996 -795 0
774 -317 -746 -214 -953 0
-273 -885 6 815 48 0
877 72 540 650 -567 0
-60 -572 106 271 -563 0
714 -535 836 934 884 0
230 -852 540 671 -5 0
-2 -874 -339 -41 -432 0
-9 -871 345 -894 715 0
-418 -834 -239 845 639 0
936 -164 257 292 -27 0
-930 610 374 -115 918 0
-777 683 910 602 387 0
-43 -321 -850 823 -861 0
-666 72 48 -782 -562 0
-800 413 -923 -457 -687 0
-748 25 484 975 942 0
21 -748 -84 490 -647 0
538 946 148 434 820 0
-686 -572 255 387 635 0
823 211 661 523 -401 0
524 -343 12 -195 102 0
623 -571 36 130 -934 0
657 589 -96 -807 -77 0
-116 48 913 377 -118 0
-580 -558 409 -316 561 0
107 -561 -189 -202 469 0
-298 867 519 -151 767 0
-970 219 -94 705 123 0
-63 -440 770 -940 601 0
490 -247 660 268 205 0
-366 -156 703 -192 -937 0
-756 -585 -710 -272 -881 0
-216 833 576 -622 -959 0
534 -468 -573 501 -444 0
937 791 -574 107 -305 0
74 -350 -582 268 -572 0
857 -320 -586 -359 798 0
-966 -49 298 169 -244 0
747 -653 -741 164 -818 0
744 -467 101 496 967 0
-38 -939 -892 440 195 0
351 858 966 910 411 0
-838 436 -770 -54 128 0
762 529 13 -948 -753 0
-432 242 -914 89 -224 0
243 -873 233 781 -161 0
-852 -381 312 266 -290 0
611 -212 806 125 -609 0
782 -63 -727 54 -91 0
98 944 -435 -909 398 0
160 -561 302 -520 496 0
929 11 -547 -6 446 0
224 881 617 -673 840 0
-136 -349 -297 400 667 0
-68 -992 389 -27 935 0
363 -369 -539 850 -943 0
-577 594 -465 -160 -306 0
-623 788 -862 -220 354 0
-298 -462 812 444 834 0
-875 -204 -768 -824 -55 0
-831 -407 -70 553 559 0
9 824 228 426 -961 0
-192 -147 389 98 969 0
285 -725 -500 -672 969 0
-146 647 -366 987 459 0
449 680 699 650 -346 0
-397 177 618 -912 24 0
182 492 864 957 749 0
121 -569 434 -456 861 0
956 -186 -283 472 -839 0
-906 894 -172 -955 -696 0
-834 -979 187 -482 272 0
-607 108 943 -485 555 0
634 980 524 647 -665 0
382 117 -829 306 235 0
242 -821 -965 117 521 0
-327 852 247 -84 485 0
828 412 -437 -131 792 0
250 -717 557 498 -643 0
-954 428 -475 -124 562 0
-233 735 -45 830 256 0
-329 830 780 -709 -315 0
319 -247 637 -250 -566 0
212 -11 435 676 -524 0
-556 101 79 905 -279 0
300 -21 -527 795 -431 0
722 -284 533 881 847 0
429 -861 -221 734 -399 0
-86 111 773 11 823 0
328 -945 -89 31 -259 0
694 928 -502 -478 -75 0
-577 332 330 -553 135 0
-409 639 890 -221 211 0
-469 454 833 696 896 0
546 -252 614 -1 -363 0
-780 -203 -130 -644 245 0
740 803 -515 -473 -324 0
441 -626 49 -634 57 0
-77 273 -230 235 825 0
-207 434 -614 -136 -342 0
-973 442 -652 -603 24 0
-900 -133 -960 -231 -398 0
-664 -925 45 -120 449 0
264 752 577 257 -598 0
156 -603 -626 29 131 0
628 539 -229 345 73 0
968 380 810 -704 -741 0
293 -71 771 234 -396 0
-80 490 -850 -909 105 0
-145 -342 555 -479 -315 0
956 -232 152 -918 -698 0
-316 -408 -634 -817 623 0
169 173 517 521 -529 0
96 -648 856 -333 -417 0
799 -876 -47 -121 -725 0
961 670 821 673 924 0
433 -552 -948 67 -373 0
-472 635 -454 -166 567 0
235 745 -52 -224 825 0
-597 -940 328 265 -701 0
622 -241 -324 -548 -703 0
-445 551 -753 342 451 0
-433 -858 -979 975 701 0
956 187 -122 682 559 0
-532 658 979 967 -996 0
-26 888 955 -405 651 0
-379 550 -764 -687 -979 0
51 -750 -690 414 742 0
-261 529 303 495 -175 0
208 -314 174 -93 635 0
270 -538 -552 -248 -446 0
-951 601 597 -478 915 0
434 457 821 395 817 0
328 101 -33 232 -868 0
759 346 -682 70 -382 0
-976 902 -570 -959 -419 0
-545 -100 336 733 775 0
107 -604 335 -575 -41 0
-472 135 -260 -113 -352 0
682 583 376 -226 -409 0
-108 -6 -395 564 677 0
15 287 -230 -609 -487 0
-427 -202 -515 159 538 0
-436 -182 -337 -823 -961 0
-439 -353 610 933 712 0
250 -602 139 -96 -996 0
-851 947 -32 -509 -202 0
-739 -648 782 -675 -825 0
-209 516 -583 792 181 0
-862 30 -385 107 -745 0
-473 372 -18 427 -165 0
-835 30 -758 -509 441 0
-529 -754 191 -704 -313 0
908 -291 33 396 -352 0
923 -204 255 -508 124 0
694 869 986 230 -380 0
967 -138 119 -97 723 0
858 -811 -155 -716 279 0
402 968 -885 -913 52 0
79 270 776 -729 977 0
-225 -304 517 338 -879 0
-995 -652 45 -788 -179 0
-697 724 386 -412 -549 0
840 -409 -890 955 58 0
-805 -844 508 -69 -826 0
706 263 178 -927 -491 0
23 -986 -162 -562 741 0
-784 -425 -755 -200 -182 0
885 -765 274 -301 448 0
-52 162 620 -139 395 0
613 214 944 -129 706 0
-323 -233 -646 -662 -503 0
39 -717 -600 -443 470 0
-228 -726 149 729 263 0
-442 -99 436 -899 90 0
833 580 409 -146 602 0
-265 -744 -65 -608 615 0
500 -566 498 -691 757 0
-508 229 61 -710 918 0
666 -724 127 79 558 0
145 -957 -695 -937 883 0
656 910 384 418 524 0
-723 119 -364 -826 140 0
-53 301 462 964 -657 0
-253 -925 335 -67 574 0
-484 -520 -171 355 558 0
-237 34 -767 153 548 0
-829 153 312 231 -315 0
600 972 -807 176 935 0
-377 326 756 285 635 0
324 -177 -691 261 131 0
858 -200 513 -570 156 0
-888 682 -626 -783 625 0
35 -67 -548 -606 -867 0
-78 415 595 -45 -282 0
-877 241 -473 -940 943 0
-491 -354 171 562 553 0
-157 -705 -109 612 -976 0
-675 -899 -997 -281 -577 0
-214 122 514 638 655 0
977 710 -914 -324 -210 0
-736 525 -625 845 946 0
-627 -239 -776 -81 -468 0
1 -342 894 288 -264 0
-991 356 -109 83 -734 0
462 864 634 -147 339 0
464 -338 547 557 16 0
-874 554 -559 -255 696 0
-487 -989 404 210 65 0
-663 783 119 523 -197 0
-157 -221 236 69 8 0
23 -192 478 505 -426 0
-714 -130 -53 899 663 0
130 219 560 349 529 0
955 192 85 -404 -486 0
360 491 508 827 -105 0
894 846 -868 582 -922 0
-4 26 178 -774 623 0
243 -360 669 -754 -938 0
-568 268 719 -980 165 0
273 320 -13 52 -834 0
338 685 97 -150 -13 0
-580 -61 576 98 935 0
-105 -88 -570 -638 -748 0
-574 480 -795 137 -391 0
-28 401 -672 169 -654 0
636 -30 -799 933 -269 0
921 -367 298 80 -522 0
-986 -282 484 -871 -779 0
-610 -828 83 901 -23 0
-137 240 -740 -512 423 0
906 -297 886 604 335 0
-940 289 29 -601 -971 0
376 -359 -45 -146 772 0
999 242 -708 -155 965 0
547 391 703 315 -523 0
-756 154 838 160 -308 0
-300 -749 348 -846 -593 0
-760 -439 -860 -831 571 0
67 -821 232 -149 510 0
925 -10 389 866 497 0
-435 -199 512 748 -175 0
345 520 -920 -111 163 0
-894 -326 -954 -449 -501 0
333 -848 -779 -697 548 0
608 202 787 -580 -330 0
598 -317 835 -554 -562 0
909 500 -448 -868 598 0
-170 -997 -704 260 516 0
-823 -142 -931 -812 514 0
-965 700 179 -533 -185 0
859 -285 -629 -702 -377 0
-37 -334 -685 479 763 0
698 28 -605 949 -35 0
978 687 928 -670 193 0
212 -656 -453 402 -327 0
655 721 -886 174 586 0
613 -872 -561 150 -998 0
472 -925 183 682 376 0
247 -511 883 596 1 0
-310 -715 -153 644 -468 0
-331 -916 -16 431 255 0
-464 -657 -150 -794 -843 0
780 -158 -601 -643 785 0
-984 -45 135 198 -678 0
206 354 -65 -757 -962 0
462 -120 -801 -571 -601 0
571 -930 -585 679 546 0
-718 963 -712 226 -587 0
975 683 960 -145 -999 0
-680 -827 412 -112 -154 0
544 -697 -896 -961 8 0
509 -601 -461 -292 -900 0
-775 335 -134 7 -152 0
439 -295 328 -26 163 0
311 663 -379 -563 24 0
-183 -435 789 522 915 0
129 -766 -251 -648 -310 0
726 183 -728 -384 -553 0
473 711 376 121 -411 0
846 470 -462 310 784 0
513 -909 -969 -440 867 0
941 -264 -534 218 -116 0
-456 -624 873 -113 -608 0
562 387 -922 676 955 0
-353 978 -862 -291 567 0
-366 477 591 327 432 0
-63 -974 -551 -234 963 0
-102 886 947 768 -344 0
-604 -42 772 763 -703 0
-11 -319 265 -78 -638 0
362 -231 -698 -253 211 0
-131 -763 -747 915 893 0
247 -719 165 311 -624 0
107 -350 -779 128 -175 0
-329 430 -170 -882 627 0
573 -638 625 -771 983 0
554 -819 -834 -959 -409 0
-311 598 348 -590 938 0
-174 -278 820 -268 131 0
4 -931 -976 260 728 0
816 -709 -91 -692 -854 0
590 -514 40 364 492 0
-353 -15 971 -684 296 0
-167 911 -826 1000 679 0
-789 758 738 917 269 0
333 503 -780 967 817 0
-195 -269 415 357 615 0
-375 426 -949 514 -671 0
524 -521 361 -28 864 0
-811 375 396 360 654 0
-640 705 -174 -971 747 0
-426 -516 612 613 94 0
-705 514 93 380 -11 0
-815 446 248 987 145 0
788 732 -477 -412 754 0
-15 -914 141 -849 -559 0
-793 876 4 558 -263 0
229 -38 -545 -791 -679 0
-138 -952 126 -346 505 0
860 -607 -563 -478 345 0
-554 -942 -467 -39 675 0
-355 102 208 -120 604 0
-836 880 173 352 -662 0
-376 -79 -366 819 833 0
-345 125 -88 103 133 0
352 743 -170 528 45 0
244 624 -179 948 -133 0
661 -819 226 -531 793 0
748 -413 -874 629 297 0
330 325 -825 -81 314 0
-489 9 -459 927 809 0
620 -553 -52 -831 491 0
231 -735 291 -378 -582 0
415 -86 145 234 529 0
-686 -388 917 901 -827 0
42 779 -453 -335 -421 0
540 97 94 -514 -600 0
-668 -773 -219 281 -24 0
-865 -396 -262 839 555 0
-118 426 476 -984 -336 0
527 -382 710 -149 74 0
-352 -873 -971 415 -437 0
-537 604 -657 -946 -110 0
-953 416 -178 -574 735 0
-737 -28 -224 -643 414 0
928 113 24 -437 -455 0
-819 375 -376 -373 -579 0
-941 -836 361 -28 477 0
900 -695 -124 568 676 0
507 116 794 -721 -75 0
-160 -638 -322 -109 371 0
-690 -389 700 224 -487 0
931 -942 751 -488 -997 0
949 -823 415 95 -200 0
-725 271 743 585 -165 0
-166 -738 -371 -488 -362 0
164 644 -599 -180 -362 0
64 -370 81 -151 -753 0
-896 -388 613 -140 -523 0
266 -994 881 521 644 0
325 -148 -188 959 -836 0
-555 -92 -788 888 -751 0
-47 249 960 404 202 0
-195 -891 -923 -861 270 0
736 -630 -840 -849 444 0
-977 -851 -405 -65 -242 0
698 6 88 -757 17 0
498 -440 618 187 -629 0
933 994 347 -286 835 0
345 -487 308 945 -685 0
-935 -185 -765 -885 -81 0
752 362 -998 -439 -839 0
-306 252 -11 368 -748 0
9 -787 -434 -662 502 0
216 -71 -426 -469 858 0
55 918 -191 15 -73 0
-662 -478 -302 -392 485 0
-899 -566 758 295 -907 0
705 -718 396 626 119 0
-953 893 462 69 732 0
-430 613 -32 -254 241 0
342 -691 954 943 423 0
449 -422 -610 423 -271 0
-789 345 -191 672 491 0
-983 -704 -54 775 453 0
493 908 -323 2 -508 0
-136 -418 383 518 -994 0
-703 142 409 -873 -421 0
724 991 42 -317 769 0
-444 162 470 -952 283 0
-550 128 807 -607 -569 0
-592 -845 -137 573 -526 0
490 244 632 949 -938 0
-490 -188 124 720 -477 0
694 -832 563 851 -483 0
-117 -909 -80 646 842 0
374 837 691 -434 -414 0
758 498 573 700 -560 0
-810 163 -52 378 87 0
613 470 -923 167 443 0
526 335 -655 -311 788 0
881 338 971 534 84 0
841 -481 -542 -905 -692 0
-912 -96 234 521 -211 0
725 -500 411 652 710 0
734 -441 -818 -456 565 0
-519 875 829 -884 -615 0
-217 -134 650 -969 -796 0
-734 760 -498 -70 895 0
912 945 -832 234 -65 0
-202 -735 790 -756 -306 0
-821 689 -166 -57 164 0
633 -533 -160 257 -46 0
883 -843 193 21 -948 0
-609 779 869 -417 -303 0
766 328 460 245 -199 0
203 314 838 -955 612 0
-919 -562 905 380 -657 0
-542 -148 -202 -356 -368 0
-259 -971 -575 -159 -749 0
176 -59 -297 -321 -429 0
887 541 -428 -434 -69 0
-583 901 453 622 331 0
-844 781 897 653 284 0
-98 -3 -83 654 -845 0
349 862 626 -151 -450 0
43 1000 872 145 -245 0
-645 -371 339 170 -282 0
-598 -843 704 656 -702 0
987 868 -66 435 935 0
593 370 871 443 -378 0
-958 -488 -531 -559 -122 0
-332 -801 626 -691 49 0
38 -950 153 -699 -165 0
351 -838 -130 31 642 0
267 -828 -369 -803 -366 0
-698 421 -87 -550 -932 0
96 239 -311 612 400 0
416 9 850 -510 132 0
165 365 33 699 845 0
-685 901 304 -677 -689 0
-756 -673 -785 573 -281 0
-720 361 -862 90 480 0
-409 -194 865 615 -473 0
358 -463 -819 -567 913 0
201 -624 -907 -437 -54 0
-268 -814 507 -139 392 0
277 341 -375 327 883 0
862 439 422 -15 -106 0
327 442 -428 -618 -625 0
-854 -966 -501 810 -168 0
-382 902 294 -347 -875 0
-86 -322 589 521 841 0
-411 789 225 -861 629 0
-355 -500 -835 -19 -111 0
-420 -872 852 -970 -898 0
704 740 726 565 -747 0
-961 -983 -195 -962 231 0
-447 322 805 672 944 0
33 -178 168 934 -803 0
-419 295 541 -394 413 0
857 -490 106 -627 -861 0
-890 856 4 -549 -363 0
-825 167 258 -232 558 0
889 602 892 -469 298 0
525 194 313 982 -188 0
-869 190 700 719 -932 0
-442 -290 864 733 494 0
-272 843 -550 -460 53 0
751 -395 -257 -988 -32 0
-352 -273 -470 921 901 0
-189 248 770 859 674 0
837 475 815 -580 510 0
-633 676 -855 36 -819 0
465 -205 882 691 188 0
954 987 -805 -616 -54 0
-151 -715 -810 199 -896 0
809 -420 760 337 -635 0
739 -606 862 -63 -918 0
-574 185 545 658 -795 0
-639 588 -210 832 657 0
80 294 43 -727 -5 0
-407 285 -876 -755 -9 0
-88 429 998 372 -509 0
-226 -718 -396 350 414 0
996 339 275 -759 -622 0
299 678 -156 -507 941 0
-68 933 -48 45 -671 0
903 -371 -914 -151 -145 0
-158 695 744 -261 784 0
351 931 125 -296 162 0
-86 -892 239 482 888 0
833 150 -816 577 -180 0
247 -444 464 -428 -859 0
767 -975 -652 418 -450 0
-335 384 -352 323 -29 0
643 -82 -617 -950 -860 0
631 -906 -995 660 -66 0
625 162 146 -216 -127 0
-231 53 599 607 446 0
-848 -323 32 -875 -801 0
300 -860 593 -697 126 0
559 13 407 220 -621 0
-996 -835 -798 -145 872 0
921 -951 518 842 138 0
701 918 -361 598 323 0
-695 -608 457 631 -512 0
-542 -108 -621 -317 -370 0
244 403 159 243 335 0
567 -368 -351 421 523 0
296 -679 67 -460 -715 0
-29 455 358 515 -817 0
363 357 478 -229 426 0
-550 -213 -292 -294 312 0
-801 -476 731 -848 -624 0
-842 -553 -995 984 33 0
727 813 34 709 -606 0
-473 278 -128 -196 -330 0
850 -294 955 -4 724 0
-28 -511 1 474 121 0
-151 761 867 287 586 0
673 125 86 161 162 0
1 503 -269 -720 -854 0
542 777 261 -6 571 0
-164 -553 -642 -676 786 0
256 635 -548 -295 820 0
670 33 817 360 -645 0
770 829 -352 522 -709 0
-128 -971 49 -798 981 0
776 -11 658 -420 633 0
998 -291 12 -372 380 0
793 -348 944 186 257 0
111 724 127 -98 981 0
132 -163 -840 376 187 0
624 -911 -692 -575 914 0
-530 175 100 -389 -624 0
-444 -339 -791 897 686 0
-497 -300 -167 -952 66 0
-892 742 709 865 -203 0
-468 -610 -892 507 179 0
62 151 268 -748 -695 0
-76 -257 691 661 -258 0
-522 54 -45 -660 891 0
-735 -322 161 182 -870 0
-478 381 -137 -750 56 0
-90 990 58 405 -911 0
639 -348 908 704 -514 0
212 179 -931 568 -660 0
-537 -249 629 -144 762 0
-449 447 543 818 709 0
-19 34 -605 -75 -358 0
-49 530 279 -523 116 0
7 -823 -269 668 563 0
-580 -277 -701 -338 -793 0
-377 529 -241 -220 -894 0
-921 -233 640 390 -712 0
-304 -178 -144 454 -522 0
64 -664 724 -771 697 0
990 711 557 -42 -304 0
374 -650 -985 243 -365 0
247 228 5 192 -905 0
-856 -559 -756 -313 7 0
-619 -249 953 623 153 0
-263 -128 211 -170 36 0
-399 -311 501 958 -69 0
19 416 206 17 599 0
913 234 -892 -470 505 0
-421 201 441 -315 -233 0
488 865 -688 -971 859 0
777 550 762 875 927 0
-165 209 520 288 815 0
-207 783 -269 229 603 0
-356 787 50 -273 190 0
-994 -532 564 -6 -923 0
315 -753 -356 275 -606 0
645 397 923 -819 -489 0
-671 -919 893 120 -46 0
-669 329 778 -878 -840 0
971 -296 -829 -750 -301 0
-182 156 -904 -360 115 0
288 -73 155 790 -991 0
504 457 -793 -740 -323 0
-194 -189 129 -63 -351 0
-439 904 499 265 469 0
-612 -189 -881 259 -629 0
-146 -615 808 30 685 0
-52 17 542 -129 799 0
-412 928 540 -166 -286 0
-696 -529 116 -11 -695 0
-70 -132 -498 -81 -584 0
33 -708 -192 398 935 0
-1 981 -23 502 606 0
-554 729 395 -519 592 0
-392 -445 24 726 -852 0
-404 -710 701 -512 -225 0
-407 675 -582 -507 854 0
243 885 -902 -835 718 0
629 -151 -672 -169 -43 0
-315 982 795 221 227 0
581 560 -404 -994 518 0
-373 -916 300 715 -302 0
304 940 -356 -444 779 0
-744 768 -511 270 -142 0
943 -641 -128 -465 650 0
777 -251 35 -961 -358 0
671 -499 755 95 -693 0
429 974 -762 98 -931 0
-343 -531 257 -979 -943 0
368 395 318 -535 201 0
-606 -570 -343 -187 366 0
837 153 123 764 -50 0
-816 958 563 695 607 0
228 78 -271 516 -57 0
-494 464 -192 906 -498 0
-403 49 -840 -678 428 0
575 -247 404 -540 72 0
761 -633 499 -51 115 0
250 77 595 110 345 0
831 -193 -155 288 250 0
633 -700 82 -445 206 0
-717 212 -628 -240 286 0
-299 734 -341 797 945 0
-487 -99 -84 646 -675 0
293 718 -834 695 179 0
990 -800 989 130 420 0
-741 -473 644 4 -654 0
466 421 229 181 906 0
877 766 -520 -593 -105 0
683 -954 641 858 -83 0
-722 -68 -386 297 355 0
-366 272 -814 -821 -811 0
551 215 886 953 32 0
-873 -877 811 12 -849 0
-3 899 -263 -112 515 0
399 548 47 -568 -500 0
-59 -229 469 745 -480 0
94 794 88 231 -146 0
-452 -922 -298 437 -755 0
723 -981 -745 -720 422 0
252 80 -775 -625 755 0
-103 -865 664 108 -164 0
541 136 428 -513 -397 0
72 -272 -58 -921 561 0
459 495 136 -562 -289 0
-831 -990 306 -434 -908 0
727 11 449 579 -395 0
-649 -791 -313 753 -766 0
-592 -81 -448 -16 454 0
235 41 -508 993 -68 0
22 -891 219 -823 524 0
-328 880 492 -164 713 0
536 -785 203 488 874 0
646 914 517 -124 867 0
-820 960 240 -720 175 0
-278 -611 -121 138 -247 0
-341 -515 -505 -896 -179 0
-779 -381 -499 453 -693 0
-301 -22 497 706 -28 0
839 -160 -817 34 -144 0
-203 207 121 959 -994 0
691 298 682 -40 337 0
-757 130 344 -508 -108 0
994 753 -144 442 876 0
667 -605 595 -927 594 0
338 832 -104 -220 -336 0
-849 -60 308 731 -937 0
-542 79 138 -632 -375 0
-714 918 -267 -700 -619 0
649 383 839 597 -678 0
-334 -203 -101 -688 -78 0
313 -829 -814 107 394 0
-639 -8 745 862 102 0
469 761 -941 822 -569 0
-80 684 -413 -954 92 0
-770 645 -483 -921 -143 0
156 -267 -80 935 -888 0
760 -423 951 260 869 0
-959 661 832 -437 469 0
-133 -254 -10 -935 -201 0
156 984 -122 417 -647 0
-593 747 -433 358 -123 0
-230 87 344 749 575 0
648 479 -518 724 -327 0
-573 875 -759 802 719 0
747 -781 -289 986 730 0
219 904 129 -201 991 0
905 255 -183 703 755 0
905 389 100 -147 -39 0
481 -754 882 531 250 0
-992 -770 -513 -828 892 0
-359 -245 -11 970 -48 0
237 -872 939 -787 407 0
671 652 747 -635 -624 0
45 896 320 518 -927 0
-61 -727 773 -620 -184 0
-692 -333 -880 55 26 0
275 -34 784 -433 332 0
-349 -234 826 -945 186 0
-406 -904 -696 -397 153 0
-551 -624 890 -613 558 0
-869 669 383 417 -119 0
301 197 610 552 905 0
-918 -341 -343 -644 -979 0
825 151 805 897 -475 0
864 -991 994 932 -590 0
-230 -351 814 -235 -853 0
-182 -100 -247 -726 -655 0
384 -596 982 14 42 0
-856 -485 -498 -5 841 0
762 -620 180 1 2 0
-151 160 178 177 -568 0
-455 981 909 439 599 0
-105 798 -691 -310 818 0
815 -895 -341 -689 -241 0
-521 122 140 300 491 0
295 44 88 207 837 0
871 -231 -914 213 130 0
-120 -678 -640 -160 694 0
-942 656 462 -507 -491 0
382 -82 386 15 -654 0
-33 -363 693 157 -274 0
951 378 -3 -986 -733 0
229 -474 -681 214 -133 0
113 -349 -933 756 766 0
298 579 -927 667 -426 0
-269 883 -932 -27 724 0
-755 753 -600 980 644 0
296 643 572 902 655 0
54 -591 -88 213 785 0
-116 97 473 648 493 0
-321 76 490 -182 645 0
-870 -555 -437 -239 -132 0
-459 605 -624 -784 -701 0
-494 493 11 924 322 0
-104 733 -617 -218 -945 0
-698 -193 -427 308 -905 0
-636 -792 -603 -547 -354 0
135 -82 -289 358 800 0
-146 496 -711 902 335 0
-770 922 -106 -779 666 0
-302 802 185 -101 -516 0
879 248 216 638 -428 0
271 118 196 798 903 0
555 -329 -234 853 585 0
634 475 100 221 34 0
-252 953 710 -437 186 0
148 55 -66 379 -631 0
919 -145 -227 951 781 0
793 981 -858 -229 451 0
727 277 575 -172 -720 0
-276 -309 485 -978 -289 0
-488 -573 -520 -771 701 0
-435 -827 -543 157 -761 0
206 972 -187 838 47 0
841 299 -529 -339 231 0
649 -291 -716 41 -916 0
865 -484 415 630 746 0
772 17 576 909 -673 0
-448 -686 -758 671 263 0
935 604 -692 -262 666 0
-833 996 -219 991 947 0
-794 721 -319 255 798 0
-184 -981 650 703 -610 0
126 -862 937 -712 -404 0
381 195 -110 686 -186 0
-465 -729 -837 412 -6 0
-548 -755 -448 -639 -440 0
-88 -320 390 -705 -485 0
6 247 661 34 480 0
-693 442 197 282 -936 0
-466 -262 776 -524 300 0
944 -781 435 -75 149 0
-387 229 941 605 814 0
668 -6 95 -660 27 0
306 -903 872 -918 639 0
625 365 246 515 826 0
-700 -330 -261 -942 -159 0
820 540 -103 155 857 0
-33 -868 921 693 327 0
-512 682 -297 -879 131 0
-102 230 534 -644 902 0
166 444 -550 963 -647 0
540 -391 -987 59 -941 0
-373 -758 -457 983 -349 0
-190 798 -71 -988 589 0
-412 9 12 83 -234 0
-916 637 -292 -110 199 0
825 516 304 -167 751 0
405 -983 -100 -277 -483 0
967 629 -47 193 641 0
495 -184 326 78 328 0
-906 409 883 387 -43 0
376 -124 -189 -939 -225 0
96 -330 -58 -735 3 0
-27 817 594 -176 891 0
-714 -287 512 202 -495 0
-45 -125 -133 -216 778 0
351 -764 -705 555 -910 0
-7 -808 126 -275 -827 0
-48 775 -849 -251 13 0
-542 -419 -115 358 -569 0
-192 254 555 360 953 0
-325 260 -418 666 924 0
400 -474 -120 317 -705 0
187 -118 692 315 -459 0
439 -354 -820 863 -122 0
-713 -908 961 919 282 0
924 600 438 422 256 0
238 -810 -396 -340 24 0
-705 -615 871 -849 -123 0
-399 -172 309 466 -205 0
-464 460 -699 -833 -408 0
891 -573 264 -486 -369 0
439 410 279 -491 932 0
-43 487 -345 781 -492 0
-627 -709 -631 774 -73 0
-575 631 -805 926 -346 0
93 11 269 903 -41 0
42 -144 -663 -266 225 0
-637 -395 735 363 465 0
80 765 -311 -7 -170 0
-81 -744 -760 842 626 0
-279 -39 415 -610 168 0
506 -770 -746 859 387 0
809 -811 867 -344 -386 0
-672 -285 677 -404 828 0
-235 948 -923 804 -180 0
-644 -784 521 -171 830 0
909 388 -422 -486 -270 0
-729 -969 156 -775 -424 0
809 -772 66 -557 -191 0
188 -719 -599 -565 217 0
95 -342 -213 -47 814 0
-873 304 855 -650 -480 0
-793 446 659 501 -657 0
-908 -384 -841 -156 -45 0
280 667 61 -77 -121 0
329 451 711 -756 -763 0
958 530 -698 277 92 0
804 -591 641 666 -447 0
-702 171 -450 107 -48 0
210 953 -409 -26 289 0
-163 -106 -188 -145 -114 0
-109 454 285 93 -790 0
-458 -17 -173 859 -662 0
257 -964 816 -252 -604 0
696 448 -202 687 -505 0
-216 729 488 -321 585 0
291 -238 27 321 -692 0
-31 -649 469 918 731 0
944 558 -1 609 -672 0
-485 -997 -290 96 -297 0
-724 -137 -730 581 608 0
177 -82 -901 471 -858 0
289 -812 -167 765 365 0
384 -972 597 346 168 0
-999 809 -845 117 -272 0
260 800 -39 -383 198 0
794 -700 -540 588 -559 0
788 -443 -754 -394 -929 0
-978 -579 -36 368 523 0
-253 -569 451 716 -88 0
25 -686 759 71 492 0
350 -501 -462 -88 861 0
648 496 743 -528 54 0
911 829 -186 -991 -435 0
445 -878 -467 955 -699 0
-96 312 861 -953 -105 0
554 -835 382 -132 699 0
880 -808 1000 630 188 0
-280 843 -253 -496 -141 0
212 157 -437 252 410 0
-225 -913 -243 515 158 0
43 -690 -989 730 -959 0
634 -905 -884 -970 -514 0
-318 532 -645 364 -970 0
-221 240 -317 275 -837 0
-89 -101 1000 309 -845 0
299 -879 582 -317 -266 0
335 -195 890 862 -857 0
804 -736 -318 -510 -95 0
765 -159 255 834 -459 0
-446 -430 562 537 -97 0
-288 482 -790 -267 428 0
489 899 -430 444 -394 0
985 696 -458 177 178 0
-954 -382 -947 352 725 0
743 -301 319 55 539 0
157 124 -644 493 -546 0
-837 437 422 330 700 0
-899 529 -959 259 697 0
-2 481 135 155 748 0
534 -617 -34 -170 -490 0
171 -69 195 -654 -84 0
881 86 -367 444 732 0
416 971 182 -284 580 0
-844 362 -473 -570 846 0
-875 583 618 638 -728 0
-936 865 -284 303 -60 0
959 -188 -677 501 -318 0
-594 -278 779 -484 -717 0
498 -380 233 150 368 0
-972 198 -383 -628 671 0
-966 -730 -281 743 815 0
-523 252 486 -970 808 0
886 -619 -232 -604 -706 0
408 -589 630 -142 278 0
-383 548 -882 -869 -224 0
-469 247 -237 776 -319 0
281 -392 -132 194 -704 0
470 -244 156 665 505 0
946 -894 -830 156 -184 0
-819 -48 783 591 563 0
-285 -949 333 665 -322 0
847 49 779 560 887 0
-541 322 -759 864 -921 0
-468 217 -338 294 52 0
-89 683 870 582 -562 0
797 -405 -576 546 -198 0
632 941 -565 942 -304 0
-533 416 674 -178 555 0
885 -721 58 427 370 0
-29 -73 -120 -146 -390 0
-358 -962 291 229 606 0
-871 734 -392 -106 -242 0
-271 -58 -372 112 227 0
-605 393 776 -17 242 0
-373 -260 -670 -423 -314 0
417 231 237 -588 76 0
875 -589 806 -826 847 0
9 -521 -637 459 -62 0
-378 -752 -227 -698 625 0
275 829 685 845 362 0
-164 -431 -345 -915 80 0
193 -199 -943 631 346 0
-688 -632 -505 -474 271 0
612 1000 -788 774 -317 0
520 833 574 364 -138 0
678 -85 975 -764 -129 0
-345 139 -918 826 -779 0
-992 932 738 -981 799 0
339 856 55 162 427 0
948 -509 -471 -257 -417 0
50 -648 943 -813 53 0
-368 -265 186 432 655 0
-424 432 771 -392 141 0
825 -1000 -16 334 89 0
-708 862 -789 80 66 0
492 -956 40 -736 -708 0
172 171 609 169 43 0
-561 553 557 462 -674 0
-8 -789 376 525 47 0
831 384 528 -523 353 0
594 174 -57 640 310 0
-791 950 -944 31 530 0
661 -639 -572 54 -916 0
-850 73 -951 897 -439 0
-197 -347 751 31 935 0
-165 60 -854 917 861 0
535 -788 -962 135 243 0
82 603 -129 -445 -343 0
977 610 -853 -419 205 0
721 -884 555 -914 160 0
705 -979 -658 -269 -392 0
337 597 -360 643 -161 0
-877 -558 -443 -818 -701 0
611 496 -100 -123 223 0
257 543 862 -861 -841 0
679 250 -448 -426 -841 0
-29 894 519 -544 -864 0
-627 644 -314 414 526 0
898 -834 -605 634 -299 0
94 798 882 901 954 0
733 -886 -494 -253 -498 0
-599 -864 -694 -477 349 0
763 984 -95 -302 -353 0
-466 308 -209 -720 444 0
-748 77 124 922 -758 0
-285 -848 374 -293 396 0
470 -44 11 176 986 0
94 405 567 937 -761 0
231 -212 625 400 -802 0
-25 -893 581 810 673 0
833 -229 614 802 631 0
587 786 69 756 -681 0
872 -434 952 900 849 0
136 -334 -846 -24 -165 0
-754 -576 -624 219 871 0
-616 357 -152 582 -383 0
-233 60 -600 -886 533 0
-472 -100 782 -193 878 0
204 984 -472 946 6 0
-324 486 404 434 -677 0
496 872 -486 927 487 0
120 -298 -549 60 406 0
-559 -469 -450 -256 155 0
-538 -558 424 -665 905 0
291 -564 796 368 -404 0
753 -411 328 -804 43 0
38 -345 344 -681 287 0
-475 113 887 966 -848 0
-873 957 415 964 -397 0
276 466 -218 -394 61 0
-531 739 -195 -690 602 0
103 972 9 -811 -788 0
-2 582 -987 -505 -381 0
853 116 -728 23 -513 0
-221 -500 -180 -79 -647 0
-92 49 -426 -475 683 0
-271 -371 -207 566 290 0
-330 490 -149 -535 -148 0
231 375 -548 317 -214 0
-817 -101 83 -481 166 0
-876 790 -943 -678 915 0
268 -295 -963 -117 -852 0
616 578 -218 -41 -240 0
286 -747 526 -345 902 0
654 -71 -752 984 -813 0
-666 501 925 -785 -596 0
-744 -455 -705 -559 -318 0
-858 951 -741 -553 582 0
-296 759 327 -567 -692 0
998 -120 177 -380 876 0
-250 -249 771 311 -48 0
-49 691 917 670 515 0
-869 329 908 161 95 0
887 616 -472 428 467 0
758 988 580 3 -25 0
482 737 -17 -313 988 0
414 -187 889 211 -279 0
-958 162 824 803 -661 0
-904 694 -839 556 617 0
-55 801 748 -251 463 0
-51 -502 -254 545 -76 0
774 258 -660 361 616 0
639 586 -387 771 -120 0
-177 378 -820 -86 -485 0
24 439 -829 -773 -608 0
715 -615 -42 -828 -540 0
533 -708 903 480 -401 0
966 908 -524 -718 -617 0
-78 11 874 167 -268 0
965 619 426 -961 607 0
374 987 -61 -407 -639 0
686 362 -47 869 683 0
783 -164 -677 525 -127 0
823 33 -970 -505 -496 0
-910 -741 801 -91 953 0
-681 12 -547 8 -305 0
204 -931 351 52 -856 0
-320 -638 -821 -940 864 0
-900 -674 -675 416 -828 0
821 216 -743 -975 419 0
-290 753 610 151 602 0
-153 -159 -347 -961 847 0
-304 785 -873 839 50 0
-496 142 -546 -490 -689 0
-359 -388 -486 -674 -294 0
-510 799 -99 -668 321 0
-456 -783 31 -509 -296 0
-766 80 -128 379 456 0
-501 -417 -956 -19 767 0
-76 512 -987 820 -465 0
-451 -234 261 848 105 0
561 368 -695 -381 384 0
968 -102 782 417 -185 0
185 816 -940 -245 -259 0
268 -934 827 650 36 0
-193 45 721 -708 -168 0
-38 -103 -208 -877 -820 0
158 629 346 834 -65 0
639 864 436 -604 13 0
332 349 -306 89 371 0
914 399 -371 192 567 0
-559 -272 -583 103 -257 0
-822 -75 -199 -252 -697 0
-672 -774 -607 -11 -935 0
-211 -428 710 -846 915 0
704 -821 -15 427 -701 0
471 -553 -22 -126 -31 0
-313 7 182 -546 -10 0
32 385 54 18 440 0
-208 612 -507 728 197 0
11 -915 -368 978 -584 0
604 -891 -894 859 -274 0
-563 856 -51 170 -302 0
-924 401 132 -786 -782 0
853 408 -532 -683 -269 0
-910 -848 569 -612 396 0
-836 902 931 940 949 0
326 269 358 -758 458 0
914 -484 -196 267 721 0
828 -110 -896 -180 -127 0
-673 -752 -986 945 96 0
757 -875 843 825 -909 0
-241 508 839 -960 767 0
184 -867 737 -316 -570 0
-726 912 -735 177 317 0
-411 23 38 -694 -146 0
406 -190 636 -25 645 0
-150 7 719 -558 -138 0
-340 -673 -984 -81 -265 0
126 337 -307 -477 662 0
-283 174 385 -841 -987 0
-992 5 68 -289 -987 0
175 520 870 -450 -25 0
41 -506 -62 537 404 0
722 593 789 -206 933 0
-427 486 413 682 -227 0
-477 -521 -728 803 -778 0
-955 161 -985 891 43 0
471 -932 -659 -608 -587 0
850 -92 307 -465 723 0
-366 -213 866 363 35 0
507 230 315 845 729 0
412 344 -438 -73 332 0
278 736 296 313 -329 0
723 -494 -603 945 736 0
-22 520 789 -438 242 0
656 -780 769 123 -708 0
663 572 -896 356 728 0
-70 166 -393 510 -372 0
994 866 -803 263 83 0
-946 -216 -772 836 -254 0
-264 -389 576 -632 598 0
-120 -259 -395 -141 -82 0
418 539 640 920 -468 0
794 -578 977 -671 915 0
331 -575 80 -816 -90 0
-217 703 -690 120 516 0
-582 -725 -962 924 492 0
252 303 -105 -301 -176 0
-153 201 377 -933 613 0
104 -366 -874 511 621 0
342 -966 -643 632 -469 0
916 -925 328 868 161 0
-132 -104 97 -760 801 0
108 -621 -53 -785 27 0
483 610 675 -631 127 0
158 -190 303 -515 609 0
-114 -73 -399 661 804 0
-231 761 -644 521 -750 0
-820 -370 148 732 956 0
-36 800 -769 -748 -177 0
705 399 -180 19 310 0
-685 85 134 530 324 0
471 -91 -470 -816 283 0
-270 580 -575 -843 306 0
-435 -478 352 613 996 0
27 370 513 609 183 0
-649 -224 348 -894 522 0
608 -165 -963 -49 472 0
-443 151 762 36 -294 0
-316 790 -10 628 -425 0
-996 654 989 -856 976 0
490 286 -684 816 -583 0
392 -72 110 -592 -502 0
-381 -712 -573 -74 -805 0
669 979 -184 665 325 0
653 -565 852 39 778 0
900 -150 -368 -854 -820 0
161 -616 -206 -310 -65 0
-427 850 -231 605 -827 0
-528 114 -611 -743 -549 0
-427 46 137 317 949 0
876 -193 -666 706 -31 0
637 -751 547 -636 -746 0
952 -438 603 355 641 0
-417 -71 355 -242 233 0
262 654 -689 734 310 0
-438 -346 956 -49 -802 0
-836 -552 818 -746 739 0
-235 517 395 -457 939 0
58 539 -890 735 387 0
-810 -975 752 396 -367 0
520 601 -552 898 450 0
-317 194 -426 945 185 0
71 704 871 669 -551 0
-55 601 998 -263 233 0
8 212 -428 -605 260 0
448 928 502 -900 145 0
-235 548 599 -761 -927 0
418 127 -131 -459 -720 0
-679 -906 737 82 797 0
71 412 457 629 465 0
-752 -592 -74 -406 792 0
179 -372 691 -998 564 0
-640 -244 450 -922 -573 0
-1000 -677 957 90 728 0
252 -692 422 -469 161 0
663 -686 -444 681 202 0
-278 302 939 -351 -650 0
476 -234 212 -403 546 0
-316 -452 705 432 220 0
-95 -371 -854 -138 -204 0
-378 -865 -827 -32 594 0
4 913 736 -635 -324 0
-469 477 704 -359 -108 0
812 -521 -799 974 -199 0
771 -124 -649 -234 851 0
-943 -832 -912 -993 748 0
-230 -949 830 536 -594 0
907 811 -581 -412 -862 0
-319 -879 -257 478 802 0
-893 101 -353 82 977 0
-852 -287 -76 458 388 0
-836 -498 -78 672 142 0
673 -360 -120 825 466 0
457 -442 15 94 106 0
861 -395 420 845 -291 0
-357 -17 805 -934 -214 0
-116 -153 -626 -944 -853 0
-611 439 -107 477 -353 0
768 764 -584 89 -22 0
874 -91 -95 378 338 0
173 -40 527 -188 20 0
184 -560 -391 -965 -485 0
-873 -876 -835 -809 -313 0
-986 -671 -782 -77 -695 0
757 314 975 -556 -954 0
-744 712 -700 554 -827 0
-144 -505 -589 166 -626 0
224 -278 510 -75 101 0
-456 54 238 864 -780 0
820 -443 -878 -160 990 0
979 736 109 347 -607 0
147 211 962 406 964 0
-740 650 -724 -499 954 0
789 407 -860 -149 724 0
448 4 -522 943 9 0
-684 -774 155 477 605 0
-992 416 -409 -325 -990 0
-34 289 234 -919 653 0
-403 349 -310 797 471 0
725 -192 -125 -641 -687 0
349 664 -376 -127 -168 0
-984 354 615 665 126 0
-650 103 497 -489 -106 0
-664 384 511 392 515 0
-62 825 -967 369 820 0
-294 910 -672 667 -364 0
-785 -37 -299 31 -682 0
204 597 -914 818 -51 0
679 561 482 478 901 0
-499 108 181 -89 -406 0
-266 714 -894 429 -807 0
668 -162 -45 822 377 0
-892 539 -122 -117 -227 0
618 -588 -810 652 -297 0
-864 937 -592 -924 -948 0
177 -183 -675 251 -791 0
-964 -519 49 -86 -911 0
-874 -180 625 241 -444 0
-412 -905 749 575 70 0
768 878 80 276 -387 0
761 -929 552 287 -36 0
-520 479 952 -254 -329 0
358 -901 886 -69 186 0
-326 -121 -52 -499 764 0
81 729 -602 -879 -343 0
312 248 -153 959 275 0
480 -48 427 -686 747 0
96 725 -431 537 58 0
-403 194 294 -481 358 0
496 -922 99 796 326 0
248 -113 -358 474 663 0
93 -613 832 298 488 0
518 871 537 -535 497 0
-948 -27 -198 549 -300 0
-226 -91 903 792 282 0
-630 739 -47 752 -904 0
35 623 120 300 -355 0
61 -716 -777 453 -359 0
371 -250 323 -146 -762 0
-824 24 94 847 89 0
211 60 933 -521 -694 0
745 -590 575 -706 909 0
558 -694 870 631 485 0
-137 939 329 912 426 0
-40 -636 -681 -65 -88 0
-324 -920 -702 107 497 0
251 932 596 140 750 0
-139 671 456 -726 851 0
452 -65 280 -286 -811 0
172 480 -291 625 914 0
755 520 -664 891 -515 0
-322 -961 -927 128 -144 0
734 520 -867 -463 935 0
70 143 -491 678 -120 0
-37 737 -304 351 -369 0
457 -551 709 -326 859 0
-98 -618 731 84 -198 0
-961 -998 -718 637 70 0
-136 895 513 186 383 0
-874 -77 -162 -690 990 0
-386 -146 -366 790 -886 0
-296 -363 901 -314 685 0
857 -98 -794 -84 -4 0
-438 82 -86 -511 426 0
148 -69 186 -290 243 0
-395 -98 145 -601 -810 0
-372 151 72 80 -904 0
213 571 -731 495 657 0
-317 -511 -53 470 -537 0
-555 784 -608 -407 86 0
104 406 -861 -628 -883 0
155 -858 -535 -350 880 0
185 -139 64 -802 -270 0
-27 -861 180 -741 -491 0
-501 -221 -234 613 -701 0
-994 68 743 838 -207 0
480 -756 390 185 -597 0
226 334 195 -752 -583 0
-905 -138 -895 -650 811 0
870 -978 -805 -851 -362 0
176 449 -577 -279 -355 0
296 137 -910 -587 -468 0
-103 438 -276 -410 -936 0
209 30 443 -296 874 0
-856 -955 67 -490 476 0
-714 -770 786 669 -321 0
74 -855 -402 -783 496 0
-984 570 -192 -234 76 0
-205 967 -833 185 -246 0
369 -554 -1000 598 958 0
-17 18 -138 -300 511 0
819 169 -53 -79 533 0
-711 425 265 -90 -274 0
-28 727 -366 -885 858 0
-621 -438 -423 -313 -808 0
-866 663 407 987 491 0
377 -823 584 -36 -935 0
210 -588 -859 -938 779 0
-791 748 -14 362 -949 0
-628 -846 206 -105 621 0
652 -505 -388 123 325 0
-661 716 101 520 -228 0
-732 -752 427 -483 -369 0
-706 507 -425 -627 548 0
-937 955 844 501 -804 0
-137 577 641 -18 -622 0
-946 789 210 976 515 0
783 885 65 -334 -952 0
-736 360 712 145 799 0
-110 555 646 594 899 0
556 784 -78 640 632 0
484 -296 880 -623 -904 0
252 -968 -751 -973 -860 0
-677 -917 -265 580 -949 0
-929 -507 -177 -678 -273 0
445 -982 773 897 -574 0
-229 -639 -387 129 47 0
-904 380 551 357 -579 0
485 591 -273 -836 805 0
999 -597 590 -187 299 0
153 364 -496 -412 -888 0
374 856 784 -995 646 0
210 -484 -129 275 -822 0
464 269 941 689 -873 0
-494 -713 180 -444 -135 0
-13 79 -426 -96 -558 0
-240 855 54 911 -80 0
-530 997 -274 930 -742 0
-31 -162 -98 -553 -586 0
-822 795 458 -336 158 0
59 -240 80 606 737 0
731 -499 -391 392 79 0
-203 807 -976 -574 -213 0
-621 508 -732 143 676 0
599 371 874 255 712 0
179 -93 477 -769 556 0
-824 -504 526 -674 -561 0
757 -955 229 -14 407 0
52 65 -539 11 199 0
-159 765 757 -176 171 0
246 636 486 820 701 0
-657 472 829 139 43 0
-27 -233 133 784 491 0
886 316 452 448 -449 0
-915 552 495 968 -150 0
132 -759 -233 225 826 0
-471 440 -976 707 -314 0
-610 761 -338 722 112 0
-265 174 -453 779 -326 0
-35 -762 800 483 198 0
110 526 -553 -192 818 0
437 27 295 456 960 0
990 -519 367 -191 -58 0
-842 108 -723 -831 397 0
603 809 -812 -732 -147 0
-124 871 751 799 30 0
637 171 440 -54 -279 0
78 315 -597 853 909 0
521 605 -976 -196 -509 0
-558 306 -752 -754 -855 0
680 -255 177 -880 892 0
970 -227 668 -406 774 0
-317 114 161 145 -438 0
-750 992 -218 337 751 0
832 -823 -873 -9 384 0
907 260 808 478 -89 0
562 -370 206 597 -339 0
263 -215 144 -909 386 0
280 -720 -840 687 532 0
-327 -606 -72 196 626 0
87 646 -90 974 -787 0
-688 847 -928 -119 528 0
5 -494 541 -261 -727 0
-30 -487 891 -29 -297 0
-129 -201 -929 148 341 0
-446 376 -13 -702 -617 0
-796 320 -185 -195 -182 0
-721 -796 580 855 337 0
-556 124 -701 213 99 0
-828 -689 -894 -435 665 0
171 916 -67 16 906 0
-554 352 74 498 -756 0
393 -385 -278 -731 345 0
257 120 285 -75 616 0
208 259 -16 -129 -615 0
371 396 -12 315 405 0
569 -98 -671 813 -901 0
627 -936 709 -132 880 0
-806 -669 -198 -331 905 0
355 -831 612 463 60 0
483 779 -430 -118 -465 0
288 -56 888 -258 -503 0
217 972 84 -897 342 0
597 -352 -119 -142 13 0
-636 -992 -426 -824 253 0
164 755 432 878 801 0
-835 -194 -234 -36 636 0
-510 85 -932 903 -360 0
571 821 354 -622 231 0
-466 -674 -747 280 60 0
-859 -245 -654 175 -702 0
566 321 581 714 -395 0
163 158 -751 160 362 0
-344 -461 -185 862 900 0
-745 -887 -536 -473 -188 0
-99 782 197 -974 -786 0
-756 675 -549 654 -571 0
-11 -773 453 -614 -840 0
166 758 -975 -4 149 0
-872 953 -8 -781 387 0
-579 936 -998 -143 267 0
-982 418 -143 -859 -611 0
79 -740 -659 -759 991 0
245 108 391 -298 -671 0
-969 -689 690 -3 814 0
521 580 -628 107 -995 0
-272 -229 -912 21 478 0
-418 144 -703 -665 -161 0
791 -338 832 844 327 0
110 -724 -119 -232 534 0
-775 -431 -790 9 -266 0
843 435 189 -698 510 0
-967 -566 636 80 -345 0
-840 -734 -879 -58 33 0
696 -835 -258 -682 452 0
202 -120 -518 -932 -464 0
-466 890 -26 208 744 0
51 816 -659 384 -172 0
468 486 897 -306 -749 0
-381 93 570 188 774 0
300 -213 233 557 425 0
-959 783 -168 -507 -69 0
-836 571 -903 -75 247 0
91 -323 86 95 -504 0
580 454 208 -312 764 0
-836 -974 -838 5 637 0
-194 695 894 284 537 0
-348 65 -708 787 392 0
-846 -189 298 461 -948 0
314 -943 -468 -376 -989 0
46 -562 961 239 -618 0
905 82 564 -744 917 0
589 -985 -800 361 925 0
-724 722 936 -421 -706 0
-100 -787 -457 -53 -287 0
999 -652 -131 -641 -461 0
785 436 -593 958 18 0
-67 675 -366 -111 -970 0
910 490 98 -470 427 0
135 -813 560 944 -558 0
485 930 -242 677 -62 0
-346 -220 744 -584 525 0
-855 554 -208 79 -41 0
-612 363 462 -73 -941 0
-891 382 -950 391 -707 0
-869 740 516 255 651 0
-738 272 818 -160 104 0
968 489 -18 127 671 0
883 720 874 -104 -845 0
-203 852 -223 86 520 0
-330 831 376 -260 -780 0
-781 -623 -481 606 -532 0
-885 -319 -378 796 -615 0
-716 827 325 618 -641 0
957 871 447 -190 273 0
-899 -655 -378 160 -773 0
-36 239 -28 871 88 0
497 421 85 -343 444 0
458 -253 -60 445 255 0
146 891 -523 181 485 0
492 -530 -401 213 -446 0
-237 95 -617 176 15 0
-548 419 370 -349 -948 0
348 263 33 816 -872 0
542 -161 30 285 -754 0
-615 43 -869 735 -441 0
400 87 972 531 595 0
-558 -902 882 605 -707 0
-158 -139 -20 -609 -399 0
-515 326 -8 -736 -914 0
-344 689 47 -980 -482 0
-963 769 701 171 110 0
412 -191 -130 -593 293 0
361 -98 768 576 -111 0
-833 -387 -437 707 -436 0
-854 -588 706 -27 674 0
-343 102 784 -448 -931 0
-647 -341 177 538 -769 0
-809 -294 179 -164 -674 0
495 -85 487 -922 844 0
901 -319 232 -993 -234 0
300 -59 181 -295 -862 0
-347 837 663 875 -486 0
-554 386 424 737 61 0
-701 -460 990 247 -519 0
706 -603 -512 334 72 0
-636 -5 778 288 198 0
345 114 -990 250 -497 0
-524 152 537 657 -910 0
26 -963 -140 -29 -746 0
814 -279 249 447 308 0
340 570 131 -636 806 0
-758 -862 570 870 188 0
-186 -819 -34 315 -686 0
-347 602 -374 204 -642 0
748 11 -144 -293 -959 0
-640 40 991 -106 664 0
626 672 -130 91 -862 0
-188 146 485 -680 382 0
509 -926 -451 478 636 0
24 107 895 311 -344 0
-261 205 -385 280 714 0
473 800 432 323 -656 0
203 147 -108 28 -707 0
-243 602 -884 591 -649 0
-949 221 650 -9 -303 0
87 226 -637 52 611 0
178 -43 -400 -859 917 0
-809 -114 143 -887 -697 0
354 -869 365 -384 -729 0
-662 272 29 160 108 0
-244 -251 -138 62 -343 0
-76 -172 184 -436 160 0
-205 597 33 -732 -595 0
-67 910 844 -22 301 0
-776 841 992 -416 -126 0
-863 -357 -216 380 971 0
61 745 -415 -229 -335 0
-695 -290 294 -519 415 0
948 299 958 763 345 0
837 168 -512 -310 857 0
-955 356 839 210 -873 0
58 -715 -603 -216 941 0
-944 965 688 -88 867 0
511 -278 998 -100 -27 0
-743 -993 -885 -978 -720 0
-71 270 346 116 859 0
-112 -437 103 117 395 0
162 964 205 570 762 0
-527 379 -926 89 114 0
317 -596 -311 839 -53 0
484 22 817 134 -385 0
366 414 -363 -487 -698 0
469 -551 -618 844 762 0
5 -698 -747 -419 -439 0
943 -841 -177 -450 -949 0
-211 619 -475 -991 541 0
574 -390 396 -835 -197 0
707 -555 -636 -460 516 0
-375 643 69 826 230 0
654 -910 -794 89 -273 0
750 -755 243 -614 679 0
240 -980 -93 -728 -601 0
320 -476 -283 -853 -531 0
-387 -383 915 77 -338 0
897 -650 721 696 -323 0
620 -349 903 195 -332 0
-713 -779 -177 390 361 0
-44 -43 78 89 580 0
558 -523 -841 177 -277 0
519 533 433 362 -155 0
456 -144 -239 -42 35 0
-567 -156 -933 -307 -578 0
249 375 -912 162 133 0
-228 697 838 -645 298 0
888 871 -53 -134 533 0
-814 838 -947 -45 -620 0
-525 -232 -977 -539 798 0
-815 -6 -826 760 701 0
505 360 617 157 311 0
735 803 390 -477 301 0
737 -368 -86 -493 883 0
618 -712 -533 625 -807 0
-171 -858 -320 -318 -319 0
-1 354 321 833 508 0
-801 961 629 -624 854 0
-375 -474 929 -545 -419 0
-466 -400 932 631 267 0
408 936 525 687 -700 0
203 25 -529 246 933 0
-374 310 261 -510 -1 0
-996 917 389 -226 754 0
-693 602 -392 900 1 0
-142 -405 -615 584 -527 0
225 892 -151 -682 133 0
757 282 128 -719 -310 0
334 -952 -285 -206 372 0
-826 6 -431 707 454 0
-957 375 876 697 221 0
169 467 63 662 -626 0
389 -188 580 -304 -129 0
-105 353 -357 -122 822 0
-665 -685 -305 212 -122 0
-12 -455 940 661 191 0
-372 678 974 -361 -615 0
-120 -505 -613 -31 292 0
223 -395 936 -120 563 0
66 -323 470 -461 110 0
114 848 -482 -820 -615 0
619 -822 -942 -576 171 0
237 -837 754 -278 -335 0
-246 -349 -625 439 -801 0
302 771 -954 102 383 0
-198 -414 622 -342 504 0
251 338 -790 617 900 0
-23 845 831 -679 -499 0
-926 986 -292 -708 608 0
-789 767 611 232 -1000 0
29 -330 -157 -569 820 0
68 812 47 -738 419 0
50 -163 -611 -813 399 0
208 -748 302 614 -990 0
-339 999 -828 896 103 0
-392 990 -189 988 -382 0
-589 551 -105 -388 126 0
830 807 -920 40 906 0
985 192 -980 673 -429 0
-192 -63 -241 -282 -171 0
897 -878 446 184 949 0
-286 619 132 499 729 0
409 760 623 295 230 0
62 -307 -827 802 -102 0
560 -445 452 -669 -793 0
-400 820 -615 432 19 0
256 392 308 900 -279 0
-957 -351 -565 -582 91 0
987 478 21 -485 680 0
-692 -11 -711 52 935 0
257 -615 434 -774 218 0
-767 433 -642 -121 449 0
311 -886 460 261 301 0
812 -781 -811 -932 765 0
-170 -412 -264 634 46 0
796 -87 -872 35 -333 0
-193 493 -441 -78 -792 0
-642 -382 -804 851 230 0
524 587 -526 -254 -409 0
-63 -951 651 709 796 0
-579 -963 -336 -399 8 0
-982 -246 -160 -311 -933 0
-9 -878 -103 -158 717 0
432 238 -824 438 -918 0
466 -693 -201 -961 903 0
597 34 444 319 -687 0
219 808 761 -433 37 0
-828 -562 75 -612 -530 0
181 943 -84 -109 675 0
-369 -782 773 44 -990 0
277 -812 698 327 767 0
-500 878 -920 613 -554 0
263 -239 -462 947 372 0
-47 184 -144 -882 275 0
671 -426 817 -833 225 0
381 -380 363 -922 137 0
189 -210 641 -877 931 0
324 -758 514 -234 -253 0
417 508 -436 -593 -270 0
-32 274 253 -792 -760 0
169 322 -124 -898 814 0
-352 337 859 183 357 0
865 -564 929 -447 -660 0
-953 636 -791 -708 181 0
426 -908 794 -615 -635 0
-388 944 283 233 338 0
-47 747 -100 17 -68 0
514 716 -536 434 596 0
-85 821 -969 23 -972 0
-486 972 -797 317 759 0
578 167 -919 -499 -840 0
697 -514 598 639 199 0
563 608 -766 818 451 0
347 907 -386 26 -464 0
872 -69 -120 20 81 0
985 -590 879 91 -78 0
125 704 -583 971 -134 0
53 924 285 -805 -906 0
-666 -7 -636 458 463 0
381 -39 395 402 -2 0
-118 386 -913 738 -623 0
195 -32 -280 716 296 0
-10 -106 -706 694 186 0
889 342 620 -755 -793 0
-112 282 892 857 101 0
-786 837 373 284 686 0
430 870 -405 307 -191 0
-166 -762 -344 -947 -421 0
-719 -107 442 872 -852 0
-789 -464 553 -560 -822 0
951 -143 232 868 -74 0
28 -814 -358 -82 -131 0
807 -434 770 -538 418 0
392 -586 -701 -715 -864 0
882 -913 -497 883 425 0
-13 190 975 -719 -932 0
997 -787 -249 -675 -157 0
-910 704 -429 -965 692 0
-40 -615 361 342 -830 0
-661 -828 695 -753 659 0
324 80 -872 -793 -101 0
-893 268 70 277 -325 0
855 810 305 -731 -737 0
49 -231 32 874 -794 0
-553 107 152 922 267 0
378 327 969 267 -282 0
82 313 -104 -633 -154 0
-774 -636 -866 -574 -933 0
855 -615 -971 272 828 0
-404 -654 -686 -334 642 0
-292 659 -761 -876 -813 0
902 -676 -272 61 539 0
946 760 -199 -467 28 0
580 -797 -246 -60 -241 0
-42 466 205 -983 297 0
149 842 25 414 849 0
-613 354 196 -31 203 0
54 -579 -734 -372 657 0
9 -152 311 -611 -505 0
92 -499 547 -268 -30 0
-283 637 293 -172 298 0
502 -333 483 750 -789 0
609 -691 -103 295 303 0
-127 -204 -859 -132 -689 0
270 -413 -441 -56 -119 0
-846 -465 644 577 718 0
328 -578 -448 -41 568 0
-600 160 362 -571 142 0
-511 -909 790 -303 146 0
-805 592 388 -698 636 0
-376 353 811 -952 -964 0
-220 -984 416 368 883 0
-561 275 -28 -236 206 0
-839 -521 8 63 -178 0
427 -741 364 840 882 0
88 -689 -571 109 403 0
-161 33 -791 774 689 0
-657 -370 759 113 481 0
978 404 -311 -907 -965 0
-299 -543 -807 470 -772 0
-290 -222 578 -823 768 0
323 42 -725 676 161 0
-11 478 601 -181 146 0
949 -928 -158 271 593 0
167 -426 279 -598 692 0
243 -905 267 814 566 0
-143 198 94 -670 -655 0
-969 -709 332 994 -901 0
516 753 383 -932 967 0
-291 -596 -342 -978 267 0
-168 219 -604 246 614 0
-119 -333 545 706 542 0
-108 -528 -551 47 -67 0
-415 -154 -750 393 508 0
-374 18 305 -462 -284 0
-790 -473 -748 489 -262 0
697 223 99 98 701 0
-945 589 313 453 -214 0
-731 462 -244 -116 390 0
388 851 -70 916 -52 0
652 -441 -155 -823 -27 0
-681 -344 264 -639 458 0
804 199 693 320 675 0
483 357 61 -366 987 0
-392 376 -66 587 425 0
170 -984 -482 -79 444 0
669 -75 -253 121 -391 0
-491 799 -911 -770 -443 0
-84 675 -683 -533 299 0
-645 -685 758 -539 195 0
-317 -621 663 -863 953 0
797 608 -979 -16 -152 0
660 513 -69 63 991 0
934 401 -241 349 -734 0
817 158 -822 -523 148 0
440 451 65 272 62 0
-948 -952 381 511 -680 0
810 173 840 209 -714 0
-528 167 617 -245 614 0
-603 -960 -685 -949 673 0
-946 768 -232 518 -484 0
992 370 -472 -47 805 0
-958 -498 596 -15 -112 0
564 -899 -434 -74 -218 0
301 596 765 219 -986 0
788 330 -161 -679 687 0
884 -311 163 78 -822 0
-652 -753 903 -277 -287 0
-574 -618 988 626 -599 0
261 629 247 -905 -550 0
617 722 915 333 886 0
-995 448 968 -611 -259 0
-736 -910 -760 -886 -302 0
355 -926 -528 -342 -684 0
-997 987 619 -670 -748 0
-23 258 69 823 409 0
-564 -997 -483 989 -315 0
210 719 -571 -809 -813 0
-374 239 49 70 778 0
369 841 128 -94 781 0
-226 311 -825 927 442 0
733 -905 -676 -854 -351 0
402 907 379 313 57 0
-830 -343 -382 -760 -252 0
527 206 385 -220 -190 0
836 324 390 -650 -759 0
265 -911 -289 -733 -837 0
861 -546 -930 751 -348 0
-198 -241 -702 515 531 0
756 -156 631 366 486 0
-981 414 521 -825 -545 0
140 224 516 -343 -205 0
399 -921 335 784 -988 0
230 -539 -48 -516 118 0
-416 -308 -271 -342 154 0
-189 -606 -176 -566 -857 0
433 -530 -888 -459 276 0
-145 -425 167 -134 -31 0
561 -5 346 599 -441 0
-44 -186 229 -378 955 0
-40 204 -868 624 241 0
630 -933 570 -485 -802 0
-886 489 899 -971 -660 0
495 372 253 -427 -871 0
-954 -911 259 -554 -483 0
536 620 -907 960 731 0
-217 -167 958 -647 250 0
397 587 -115 -432 106 0
-135 -72 -958 -583 -122 0
-974 123 140 586 -714 0
279 948 939 -246 96 0
288 -559 -711 636 609 0
94 672 824 -917 -607 0
-694 -68 625 516 53 0
-234 794 81 -628 -977 0
-869 112 -423 -287 761 0
-254 111 -541 -189 -387 0
-394 -174 609 734 540 0
802 -405 810 344 -274 0
759 251 -713 391 625 0
-319 996 123 610 680 0
746 506 468 137 -579 0
7 -82 -52 -382 748 0
557 -326 -192 485 -622 0
-319 -925 -258 278 243 0
323 -447 125 933 267 0
275 519 -9 -184 552 0
269 904 -753 -877 350 0
801 -106 68 487 -440 0
-837 -938 385 951 489 0
-271 462 -987 -743 540 0
124 197 663 608 343 0
66 -304 -160 430 563 0
-333 -24 991 -924 693 0
253 -44 653 -859 -432 0
-924 -732 223 27 254 0
-522 -396 309 804 -77 0
-583 -502 -970 -841 968 0
107 -216 236 756 -564 0
-823 -679 46 96 -567 0
-662 -852 -525 -984 286 0
804 418 -517 -276 944 0
-505 236 -806 220 145 0
584 -764 837 -318 -864 0
-9 -763 -981 230 -409 0
-341 819 -801 95 255 0
-864 -812 -793 -74 -985 0
140 375 -356 946 -64 0
436 760 979 -613 425 0
-608 5 -999 -618 -689 0
-518 -649 109 -531 287 0
-838 587 243 653 -177 0
163 718 -344 338 -325 0
-450 746 -870 -827 -969 0
-867 215 242 456 124 0
-801 -943 -670 285 -926 0
-728 215 -760 -796 -703 0
96 -743 -544 456 93 0
-71 432 -834 -960 381 0
940 -790 547 -393 602 0
333 913 -937 -358 181 0
-317 975 661 516 -581 0
951 471 13 -868 457 0
-796 543 430 -569 -546 0
558 -637 -976 561 -586 0
862 675 -238 -413 908 0
255 786 710 491 -709 0
272 790 -467 -679 603 0
263 -216 641 933 -597 0
895 377 194 -914 657 0
650 860 -240 976 -931 0
-867 230 -37 -366 598 0
-536 -439 818 -664 758 0
-395 -107 238 -80 989 0
52 502 -29 -489 64 0
-102 -777 776 -420 890 0
103 554 74 868 -248 0
997 -297 -447 53 -59 0
-590 212 895 578 692 0
-887 -56 -201 308 -912 0
401 651 562 -283 513 0
96 701 -939 363 240 0
134 -865 -620 -100 521 0
-556 448 -826 -939 -542 0
407 -532 696 -923 -630 0
-378 -177 -201 -421 -659 0
404 83 -572 587 235 0
472 -445 -930 -407 831 0
-449 310 756 -547 192 0
-51 -492 -678 -713 -110 0
-440 -708 -152 -869 950 0
-162 249 567 -112 357 0
-343 735 643 412 359 0
-634 -985 321 -803 -613 0
191 -612 116 329 -436 0
-962 -119 753 349 -390 0
-120 -814 -254 -182 464 0
228 374 610 -792 7 0
115 339 -605 172 411 0
549 -565 -19 374 655 0
47 94 118 -111 16 0
563 662 696 963 475 0
-695 -127 -467 523 226 0
863 -990 150 724 -919 0
-696 -336 151 -630 -55 0
215 -717 468 255 837 0
-654 71 785 615 -119 0
930 406 41 -731 604 0
40 861 470 -118 -412 0
-434 -307 30 971 -39 0
246 36 726 -389 -782 0
763 -449 811 -268 819 0
855 -419 431 -227 -540 0
416 -999 896 -699 654 0
146 -943 959 -620 662 0
88 -311 -932 901 -488 0
962 563 627 483 -677 0
-518 223 922 766 -755 0
-820 573 220 -925 357 0
908 -181 -928 -764 -610 0
-83 -562 450 781 352 0
87 -404 79 216 -956 0
679 23 -839 -262 430 0
-83 -469 792 -590 433 0
835 -669 898 717 975 0
863 427 816 417 -772 0
-876 -247 -335 124 -891 0
-921 -506 810 -979 798 0
-611 -329 513 186 -907 0
397 507 214 32 -709 0
68 -50 530 311 -511 0
-329 -883 764 -839 866 0
156 518 -655 567 602 0
-17 990 -803 40 277 0
75 563 696 291 826 0
-300 -48 673 988 -590 0
-358 -690 330 361 -629 0
-216 681 68 855 835 0
943 125 739 411 -849 0
782 139 -489 -153 -365 0
-588 578 -396 257 -962 0
-346 -850 708 -722 -80 0
-491 444 108 -344 506 0
-368 -571 -850 -699 405 0
-638 251 -179 -742 -716 0
-849 207 388 972 243 0
-531 467 32 693 -793 0
938 -626 724 538 463 0
387 -934 -903 178 -365 0
22 320 -35 313 -808 0
-118 873 -608 354 396 0
-515 -262 3 -306 -649 0
28 888 473 459 149 0
936 907 199 457 89 0
-932 -971 -665 465 -200 0
-624 -388 68 294 -548 0
-570 917 -754 282 45 0
-450 -753 61 -368 -984 0
94 -182 915 33 358 0
-702 -779 991 -360 110 0
113 632 996 613 895 0
379 336 698 934 617 0
567 980 84 111 -186 0
-695 -871 -347 168 -726 0
821 -1000 -848 -584 -532 0
-567 -607 222 835 611 0
417 -50 12 464 -903 0
102 387 787 230 38 0
528 -122 -177 740 -462 0
2 642 42 423 800 0
-206 -849 50 -491 -571 0
-596 982 670 -229 -519 0
-546 556 339 -781 122 0
725 -970 227 -633 176 0
-414 -998 -417 -761 479 0
-853 -265 82 -385 -793 0
-84 -327 365 -368 981 0
-939 973 926 -243 -736 0
-944 -709 -610 -34 -772 0
39 439 398 -123 1000 0
8 901 676 -36 -894 0
-892 -564 -22 -56 -511 0
-353 504 448 -849 193 0
595 910 898 -210 -175 0
-246 -587 -68 -167 376 0
-57 -226 438 944 -941 0
-967 436 -506 -673 920 0
47 422 -561 883 -737 0
105 -663 -939 464 298 0
-86 -854 629 -152 384 0
80 280 356 68 708 0
675 -716 -751 288 -947 0
-276 914 262 820 700 0
-438 -471 -231 806 -45 0
-409 133 945 925 -192 0
-360 -777 653 193 -383 0
879 -37 -582 165 -130 0
-589 45 -302 855 184 0
-700 -862 -494 -440 -238 0
-429 -844 -222 -823 -493 0
332 203 -687 195 -680 0
-26 565 -29 -74 -464 0
-685 -248 947 -400 -271 0
-592 -808 119 -693 774 0
-962 -319 738 836 -358 0
-543 -95 -595 -433 -629 0
182 -24 722 371 345 0
578 802 -916 532 154 0
-89 -14 311 714 -506 0
-630 -914 -788 879 -902 0
272 -561 604 188 -997 0
-336 -454 110 677 931 0
-862 -232 -281 -405 -879 0
745 732 12 -21 -445 0
-687 -698 526 740 557 0
523 477 -633 -808 -227 0
-927 -582 -787 -40 -265 0
-217 -882 148 562 -299 0
631 -266 -211 624 -917 0
555 52 -515 828 -155 0
-187 -382 -182 291 -160 0
-515 -462 868 834 -91 0
-141 502 876 112 505 0
340 -85 395 -904 -774 0
453 26 -59 -312 -70 0
667 380 -590 391 422 0
51 535 993 16 694 0
197 899 -726 125 -663 0
892 -816 -821 -57 217 0
567 33 -300 57 -793 0
492 -526 -708 397 -565 0
36 -472 -70 728 -225 0
247 829 646 -35 950 0
-336 232 -36 571 -681 0
544 -173 128 555 205 0
338 -245 953 -283 776 0
-555 -139 733 857 917 0
-276 90 -156 457 919 0
499 -914 -472 259 314 0
559 -874 -116 -335 140 0
-755 39 -962 -831 320 0
497 455 675 -904 -755 0
-521 334 -759 667 -824 0
108 966 615 -749 137 0
-335 -6 86 616 -845 0
16 -524 669 152 -825 0
249 -969 -930 875 -755 0
-39 -82 184 228 -825 0
-683 814 727 -155 91 0
581 932 814 -533 -317 0
414 923 -945 -609 533 0
492 -18 -616 -539 -958 0
433 628 -41 387 -509 0
-872 136 799 679 -3 0
-796 658 -505 620 238 0
-411 803 -89 864 954 0
969 371 -905 30 409 0
-223 -474 -742 539 -950 0
819 40 426 -409 -597 0
-52 40 -469 524 110 0
-472 43 609 -896 -374 0
-897 939 275 -65 78 0
41 190 -486 708 792 0
419 -455 -61 416 221 0
133 402 -292 87 15 0
191 181 314 -510 -266 0
-968 -606 942 740 555 0
-972 -617 539 448 263 0
135 826 508 -269 158 0
821 882 -328 -130 -648 0
-93 -488 303 312 -114 0
687 512 846 -52 319 0
-107 -332 -110 -623 -779 0
451 -305 -408 -77 -883 0
173 -583 770 -828 842 0
505 -618 891 408 69 0
-483 435 -6 -457 -418 0
-986 747 -383 586 398 0
-508 -314 898 -183 -772 0
924 -466 164 -384 -768 0
-450 994 -558 -785 158 0
-82 -580 -985 -497 -2 0
646 -743 -677 -2 -199 0
540 699 160 908 764 0
736 -719 -601 589 121 0
553 -466 -893 -150 932 0
493 -194 -402 547 998 0
833 582 -82 925 -762 0
-396 519 -978 -100 812 0
-596 -739 -237 81 284 0
-439 -454 -459 -9 8 0
-809 -641 179 777 -357 0
543 547 452 699 615 0
921 893 722 584 246 0
-111 -620 368 235 492 0
659 -3 842 52 -356 0
545 870 -343 -863 -426 0
-314 787 371 -452 -286 0
-153 -12 -990 -145 294 0
813 -138 -306 -422 715 0
152 -525 426 805 817 0
-978 453 173 -202 783 0
342 -330 399 734 335 0
-921 661 -683 -638 740 0
344 -148 -649 554 622 0
-548 235 389 -504 -754 0
-801 793 -784 -166 295 0
-499 -123 -166 -841 733 0
-370 -473 -350 -696 -899 0
-636 93 500 -316 947 0
995 736 134 766 -599 0
-858 647 -927 998 -780 0
-698 -254 -420 -21 -963 0
-562 -134 -352 293 -1 0
529 605 472 286 590 0
-635 244 855 -377 491 0
148 634 -443 -690 -223 0
-435 761 151 -928 -462 0
791 -354 -564 -705 862 0
-407 -321 -724 228 -48 0
419 300 6 330 -855 0
-886 174 525 142 -802 0
-441 -919 551 550 -627 0
54 407 -685 -791 106 0
-259 -208 319 790 -87 0
-302 -882 470 387 -1 0
562 -39 133 261 739 0
535 893 -441 105 -648 0
478 -76 -793 510 422 0
384 -206 -197 16 -803 0
76 503 793 604 -412 0
625 981 -101 -460 81 0
-652 -756 -735 860 221 0
751 -460 570 613 -621 0
-986 -469 -776 467 557 0
506 -470 -439 -880 -271 0
-297 799 854 -215 -137 0
-475 76 -955 -642 231 0
-663 -122 -999 -184 -972 0
-398 -599 -28 -109 -346 0
287 -634 535 -471 453 0
-592 542 497 -819 732 0
866 229 593 491 774 0
-252 783 39 -903 799 0
-715 131 -836 820 -613 0
-445 469 97 263 60 0
569 -591 452 993 -663 0
340 -938 974 964 163 0
68 -498 344 333 -815 0
-460 31 -973 -495 952 0
219 -410 -178 760 68 0
-308 -63 772 -352 -305 0
-20 -582 963 -100 -269 0
380 -466 893 976 -166 0
494 686 681 715 -91 0
943 -63 -298 144 284 0
963 -244 617 914 168 0
-842 660 134 -387 -157 0
814 632 260 -90 41 0
280 884 -154 300 -661 0
444 -674 -964 -996 -898 0
915 -443 -546 -376 -801 0
311 282 91 -294 972 0
-917 148 -508 633 -709 0
722 -107 -286 784 934 0
-97 -319 -514 863 -436 0
-74 562 -756 -127 -431 0
50 855 -219 -553 -472 0
-606 569 66 -469 -552 0
425 583 774 610 390 0
-725 -708 193 994 243 0
976 -67 -908 -550 13 0
964 -339 -27 64 514 0
360 -257 -653 950 -970 0
387 -465 -461 171 13 0
380 835 -107 -259 285 0
920 831 -192 -513 -223 0
-533 -42 -509 -548 246 0
-525 -317 -211 267 -659 0
278 976 567 387 597 0
868 621 918 165 999 0
616 107 -759 -254 -410 0
644 -842 -622 -213 -9 0
224 43 -568 496 -146 0
707 -193 -69 -299 -519 0
-287 -46 -937 -303 -547 0
338 -991 -464 -95 27 0
-264 936 -618 -577 -358 0
-738 -992 428 -252 -490 0
84 -942 537 -171 287 0
-537 -790 -147 -697 -936 0
-278 -677 8 -704 363 0
-37 32 -745 448 -75 0
-234 -235 -42 700 -745 0
-414 872 59 -422 562 0
-233 -143 -522 285 371 0
-718 -715 14 818 195 0
91 -698 -848 -576 521 0
-148 544 -29 -301 -919 0
-586 499 125 50 -570 0
-70 735 -712 103 330 0
975 -776 -552 724 -648 0
942 -27 -63 -581 -45 0
924 929 -125 283 795 0
79 -715 323 647 -787 0
949 780 66 179 800 0
934 317 -309 83 530 0
563 -100 994 -595 -270 0
-307 -873 406 18 -460 0
155 -77 382 97 467 0
-337 -684 -939 132 -443 0
662 -39 470 -125 -719 0
58 -984 -121 -875 -870 0
472 277 -701 859 288 0
414 205 175 -211 430 0
-339 880 210 104 -512 0
-758 -246 -850 288 519 0
-983 -408 722 565 -873 0
-657 -466 451 242 -40 0
-663 650 52 -645 839 0
95 -949 249 760 115 0
833 -789 119 -768 -586 0
784 -387 44 890 958 0
861 -170 15 -707 -146 0
-358 953 451 -799 123 0
-696 -325 -279 884 -357 0
853 198 903 -959 153 0
897 75 -414 641 -848 0
-727 323 817 832 -902 0
-238 213 -41 -279 -160 0
357 449 -73 561 -695 0
157 -150 419 744 -680 0
-907 -239 294 -141 -934 0
-992 755 402 -132 -890 0
-984 875 -554 -631 -537 0
895 890 138 -673 -416 0
-785 -657 -6 761 -869 0
-725 -636 -109 564 -946 0
753 -164 -880 84 -534 0
-399 486 606 -849 -595 0
468 -315 -742 -974 168 0
445 -432 613 901 -425 0
745 -357 329 -510 53 0
-31 -946 834 -222 -707 0
508 -142 780 997 569 0
-276 661 -539 308 -684 0
-113 638 943 -621 597 0
105 176 -527 -401 331 0
-944 -319 361 -256 350 0
-990 -170 -878 -985 850 0
-795 336 615 857 -637 0
-590 292 -251 276 -619 0
470 -63 416 241 -879 0
808 611 425 190 63 0
695 -272 -159 -854 -793 0
518 -237 933 984 963 0
378 769 -489 229 863 0
-212 452 231 614 -279 0
779 630 667 -988 -442 0
505 45 630 259 222 0
-55 614 512 804 442 0
-84 -57 -691 878 952 0
430 -219 571 -94 103 0
-628 -516 962 707 731 0
-802 -712 -998 -969 -502 0
530 -320 743 -290 434 0
-499 221 -513 1000 -319 0
-706 913 -931 134 -94 0
-131 212 -481 -955 502 0
-599 -229 -732 -404 -235 0
943 763 862 859 -220 0
-618 -7 -397 936 103 0
-789 199 402 -412 906 0
666 -837 -130 -167 138 0
551 624 -84 -489 347 0
509 -728 -357 759 159 0
787 -125 496 -483 1000 0
713 -106 707 -991 -647 0
621 -362 -486 622 583 0
-609 -916 -761 22 760 0
-372 -468 -317 -580 -704 0
-423 863 248 183 -883 0
282 -574 3 573 -128 0
935 271 401 716 -120 0
-694 476 87 49 414 0
396 635 475 991 -530 0
-621 -452 120 928 -563 0
-893 622 791 -293 -323 0
-153 22 906 -856 169 0
812 259 -908 -385 -845 0
-546 -835 358 -154 616 0
101 -832 -479 -990 755 0
-418 519 -961 -837 -57 0
-678 -50 -163 -781 75 0
861 -509 -302 117 530 0
280 2 -227 847 -85 0
859 350 -521 -88 524 0
-885 -410 -846 919 655 0
705 -163 -323 574 93 0
915 -624 832 469 818 0
21 871 -366 923 635 0
666 535 -500 518 -957 0
725 -852 -800 445 30 0
796 95 -309 -893 -545 0
-387 -758 -335 -57 -167 0
-729 451 804 482 -355 0
246 -533 6 351 -655 0
193 380 -219 861 -609 0
-215 929 -629 -297 -454 0
135 597 903 326 437 0
-779 -873 -115 357 810 0
-154 -748 -187 -745 -631 0
652 -419 38 139 -452 0
-827 945 -861 127 -181 0
714 -597 249 158 314 0
585 967 861 472 153 0
-486 756 -235 -378 858 0
-888 590 751 -357 -990 0
-460 -979 380 439 495 0
-613 -848 -410 -627 68 0
-368 -470 974 91 699 0
533 890 -940 80 101 0
-638 -563 495 -602 884 0
-820 201 221 -734 -629 0
88 -631 -948 781 -980 0
-165 -888 412 418 544 0
-207 -374 724 313 -739 0
561 -310 904 -122 269 0
-141 -571 583 209 -883 0
-953 560 252 460 917 0
209 532 -646 984 173 0
-252 -554 379 -438 77 0
738 191 -75 -102 -36 0
-240 -101 976 -438 266 0
98 -411 -502 981 -760 0
606 -449 425 -630 170 0
-82 375 -447 542 10 0
-512 266 833 -8 -62 0
420 498 -736 944 539 0
-272 -228 529 -723 741 0
862 -329 824 78 -48 0
-573 362 446 -754 -204 0
251 757 -990 682 40 0
678 -1000 602 -221 -122 0
784 539 -793 289 692 0
130 -180 991 715 880 0
244 -770 -439 -7 384 0
702 -219 337 74 353 0
961 -141 -396 -745 -390 0
-528 202 982 446 764 0
-140 -614 919 606 -533 0
-787 448 830 246 -766 0
-47 157 -664 -285 -272 0
-17 802 -264 -588 -637 0
-325 520 -662 -775 -938 0
986 -734 892 -976 -909 0
900 -908 599 -582 805 0
-492 803 502 592 182 0
120 641 539 -128 199 0
166 -918 -717 -609 954 0
-692 -711 -269 -227 57 0
-230 -370 802 244 741 0
-360 710 315 -417 -305 0
-715 205 77 267 -709 0
973 371 -198 -865 -592 0
178 -321 294 231 639 0
976 53 459 -980 -382 0
944 663 28 549 -479 0
-659 -853 216 718 -344 0
-215 796 350 240 -336 0
161 -476 952 -133 -74 0
-92 97 -289 616 -261 0
172 323 -454 711 -348 0
-899 -560 663 -516 440 0
-810 -514 -202 298 44 0
-503 -734 371 723 576 0
836 -714 -366 -817 -206 0
126 724 950 -931 -747 0
-977 702 -474 911 299 0
-280 148 782 888 875 0
-830 -688 -799 -736 233 0
844 763 30 -857 800 0
450 590 -260 -146 885 0
253 -195 689 -587 28 0
-497 555 640 -453 -825 0
946 -822 -867 633 557 0
-105 959 -429 87 133 0
-939 -541 301 -111 -701 0
864 -485 -857 443 18 0
907 -883 -748 -940 -573 0
276 -509 179 89 394 0
438 664 916 137 -448 0
-882 -915 65 547 -746 0
