c 4-SAT formula
c 500 variables, 2000 clauses, 4 literals per clause
p cnf 500 2000
-496 288 204 -442 0
-204 170 -32 76 0
-449 340 -426 -339 0
424 357 -364 -459 0
-338 -276 468 -238 0
-200 412 229 187 0
232 -31 49 -147 0
-213 -98 -116 436 0
321 -31 32 -52 0
116 -45 93 -456 0
62 49 375 -147 0
-256 -297 -458 -473 0
-27 384 218 336 0
54 5 -340 -85 0
47 170 -381 -460 0
-123 52 -190 -427 0
-321 118 462 -48 0
232 -369 497 -82 0
230 -171 47 -265 0
316 -88 408 -492 0
-14 219 -221 -439 0
242 -296 301 -305 0
-274 -466 -67 -434 0
-352 261 -26 126 0
348 -215 -477 -474 0
60 -449 370 -244 0
34 362 384 -499 0
360 -190 90 -348 0
-379 -257 -110 -56 0
250 -422 403 -301 0
-350 454 140 -222 0
-49 -114 156 257 0
-485 21 115 326 0
-166 -191 -16 -5 0
-261 418 206 -382 0
-87 118 -448 -442 0
-141 40 -305 -271 0
-220 -180 444 214 0
62 -199 136 483 0
-170 228 197 -318 0
-392 451 -487 241 0
-25 117 -183 -227 0
-470 94 360 -197 0
-71 -45 194 258 0
429 270 455 344 0
-373 83 491 479 0
-21 236 84 -50 0
170 223 359 -10 0
-391 -395 410 -105 0
106 62 -217 380 0
-12 -323 20 394 0
-218 -60 123 196 0
-13 216 469 332 0
-496 345 -82 444 0
3 -174 -180 -493 0
143 441 -254 403 0
-273 462 245 -34 0
-315 412 457 -176 0
-417 335 1 33 0
29 -192 100 -388 0
-226 343 497 474 0
146 281 -173 -23 0
446 191 -192 -96 0
223 184 283 -137 0
498 -169 416 -335 0
-288 421 -17 -275 0
367 -267 -166 -243 0
-173 -135 -254 -229 0
404 143 294 -361 0
371 -196 15 -16 0
-214 -220 381 -422 0
-32 -295 418 197 0
-475 265 430 -88 0
-368 -341 203 256 0
64 485 340 -165 0
-204 220 439 497 0
208 -236 -394 -201 0
-416 231 -471 292 0
464 -250 156 -162 0
138 -261 249 313 0
-427 -252 -309 165 0
-292 280 -187 -417 0
-484 212 93 -124 0
225 435 -394 180 0
246 500 -142 199 0
-98 181 -374 212 0
-99 146 -310 -356 0
370 -273 -190 -382 0
-444 216 -286 -464 0
167 -140 -334 -231 0
-324 484 -495 -262 0
-326 -45 271 -252 0
359 -39 155 -30 0
54 -238 -364 315 0
4 -191 443 -95 0
220 3 246 131 0
-190 -45 432 245 0
277 381 240 211 0
253 -96 -156 104 0
-213 -80 270 493 0
105 -198 481 -57 0
450 -474 499 230 0
48 -290 316 489 0
-182 69 -103 -370 0
-354 300 -150 203 0
-337 -237 -217 -264 0
-465 124 225 -37 0
73 -241 355 -336 0
-357 -420 60 -161 0
-118 178 451 478 0
24 382 237 -97 0
495 -264 -315 184 0
197 -241 -422 -282 0
493 99 134 -462 0
-336 472 -110 318 0
-270 -417 185 269 0
2 -51 -19 384 0
139 204 -20 311 0
-290 -51 448 475 0
-352 -223 8 -235 0
370 -237 -349 20 0
290 250 -133 -36 0
63 350 -220 116 0
-261 -305 2 200 0
-262 -353 -105 -5 0
-254 143 251 -77 0
-13 467 -459 465 0
263 -76 -495 -312 0
496 -481 472 267 0
217 476 1 -381 0
222 -278 309 85 0
-374 -22 279 -354 0
-48 435 78 18 0
-384 -15 -206 -371 0
-51 260 -57 331 0
303 -292 -80 -428 0
374 -300 444 -339 0
-319 -449 495 -373 0
16 -133 -96 399 0
13 293 -178 381 0
106 -331 -304 164 0
-287 -88 -331 -251 0
215 361 426 -470 0
-121 318 227 124 0
479 -106 -6 -277 0
273 -387 5 42 0
-258 -212 -166 428 0
-268 -255 423 -73 0
151 223 -119 210 0
-347 -182 -94 -165 0
-455 -244 268 -17 0
128 310 -134 -353 0
288 375 47 -406 0
-235 26 37 262 0
206 -140 259 228 0
136 189 -220 -370 0
188 -175 -55 434 0
51 -498 -134 -14 0
367 -491 -237 -167 0
-468 341 92 -50 0
-145 -76 -350 -70 0
151 -302 318 -391 0
-393 257 387 -196 0
200 374 -321 188 0
-37 33 19 -329 0
-248 323 255 -263 0
244 -151 -460 -331 0
451 -427 -77 -164 0
440 306 87 -374 0
-227 -45 -302 411 0
-147 61 -65 446 0
226 -87 359 -59 0
-294 64 -118 97 0
-94 144 357 -104 0
-473 418 61 29 0
-203 214 132 -380 0
208 426 335 19 0
-408 -228 -196 -182 0
-392 -165 249 -393 0
273 163 210 394 0
426 125 -86 -11 0
-5 405 -6 -9 0
473 -284 -87 301 0
164 29 -6 289 0
279 25 49 186 0
298 500 221 -281 0
-92 498 -444 -116 0
-238 4 -293 -482 0
84 56 -319 278 0
58 -10 446 -325 0
-33 -275 -10 -386 0
82 -359 -366 433 0
108 88 -352 -239 0
17 473 233 224 0
456 19 285 -352 0
-450 382 125 155 0
-32 -155 -40 -292 0
-193 449 -264 455 0
254 -64 -84 -15 0
312 142 160 -154 0
154 -454 -137 -359 0
-250 138 382 461 0
404 334 -393 308 0
-343 318 241 142 0
-403 -360 -2 146 0
-473 -242 437 139 0
280 362 220 -370 0
8 410 -159 -490 0
-303 -255 -457 -466 0
329 -350 -467 65 0
-307 89 275 480 0
-48 272 160 -294 0
377 -188 -456 -465 0
-489 85 53 1 0
497 -127 478 241 0
-440 -124 437 392 0
-174 -420 -428 -80 0
283 157 302 -224 0
72 45 -264 129 0
-132 478 72 69 0
-391 255 439 -429 0
-422 -204 -414 -301 0
182 -213 -356 -326 0
-447 222 -27 305 0
-155 382 -288 341 0
11 94 -149 -382 0
-442 -466 -483 -309 0
210 352 314 -232 0
-331 -272 -76 466 0
15 -11 -281 2 0
250 -425 187 320 0
49 -61 -119 310 0
225 -367 -244 181 0
-448 109 -10 -500 0
401 339 258 289 0
447 464 -309 253 0
203 401 -434 471 0
-56 -202 -376 26 0
407 -206 -153 -152 0
257 495 -424 292 0
466 92 357 -5 0
-221 114 18 -288 0
-74 -380 229 43 0
23 446 108 394 0
490 -381 -226 252 0
-416 113 -170 439 0
-113 -263 -203 -122 0
365 46 295 -392 0
109 -243 375 -153 0
304 -431 -98 171 0
105 55 43 -471 0
-203 282 -83 223 0
-38 14 39 -75 0
178 187 2 -36 0
332 -17 202 -192 0
-413 282 -418 436 0
354 140 492 255 0
-350 290 334 -309 0
-280 -132 -122 209 0
-168 371 -249 -309 0
99 -405 -126 -227 0
299 293 146 -196 0
-482 260 178 438 0
94 -236 -159 281 0
-269 -198 190 312 0
-1 372 254 -107 0
85 475 369 -213 0
-189 -204 -102 7 0
-494 12 -358 -323 0
-200 -52 -273 136 0
-444 329 -134 -285 0
75 -80 -218 354 0
419 421 -481 -457 0
-229 309 -65 -365 0
121 -33 -494 51 0
424 380 -284 262 0
-244 321 -488 276 0
-321 126 450 92 0
488 -158 272 408 0
-483 34 396 448 0
-189 -449 -175 -53 0
-321 170 -202 -50 0
165 288 484 -343 0
-408 -217 261 -248 0
147 -377 167 -219 0
-236 158 -159 -81 0
487 -59 353 -292 0
-71 406 231 243 0
479 -460 -248 -218 0
402 176 -241 135 0
418 -65 323 -189 0
73 -57 195 -131 0
-456 366 -315 183 0
179 -61 -266 81 0
135 -210 45 -463 0
453 -348 -52 228 0
-316 415 -365 -327 0
423 -496 -458 -401 0
-61 25 -146 497 0
-91 -32 -204 -62 0
-366 -381 -229 -98 0
251 404 278 323 0
-267 397 -149 343 0
348 -426 480 -16 0
-347 154 -263 466 0
-488 -211 -430 77 0
444 -267 18 57 0
-208 378 154 -158 0
-150 -311 -35 296 0
71 393 21 213 0
-376 -142 -210 -252 0
339 486 86 201 0
-337 492 314 -318 0
62 51 -472 -348 0
429 452 18 483 0
411 -70 -491 -33 0
-269 -240 -379 -165 0
-494 -405 85 41 0
466 -411 464 -8 0
-180 187 265 331 0
80 397 422 -360 0
83 215 289 -76 0
-155 50 -103 137 0
104 292 191 -449 0
-273 328 -433 27 0
-277 -477 -346 178 0
-165 -233 -348 280 0
193 430 -139 94 0
-222 -143 114 -400 0
120 -177 -160 162 0
-497 -368 -236 498 0
182 -463 -413 480 0
404 -78 185 -98 0
179 99 291 58 0
236 -178 -175 -453 0
-75 -432 419 -435 0
-176 -101 -30 -402 0
-175 -351 404 -35 0
-403 -337 326 -98 0
-330 -486 -445 -307 0
-374 -85 92 294 0
-98 -57 -40 390 0
-331 -361 -179 297 0
-233 265 423 389 0
410 165 -7 456 0
-493 -59 -247 13 0
-190 -325 -216 -29 0
-205 -237 -146 165 0
-229 -233 -379 -187 0
370 389 405 136 0
-314 380 122 -330 0
313 -334 -141 -215 0
-483 -359 294 172 0
-469 291 451 409 0
2 -411 47 -120 0
-210 -437 410 216 0
237 473 89 -465 0
181 -184 384 -172 0
-355 -118 -160 295 0
-181 -391 455 -425 0
-464 -143 -467 -190 0
-389 -71 115 -500 0
392 -308 -84 244 0
115 213 -339 -128 0
292 278 308 63 0
303 492 54 494 0
211 -272 -90 -413 0
-146 203 -27 342 0
-461 399 -23 -75 0
-179 -39 106 196 0
-173 329 14 -440 0
206 252 -109 -143 0
-362 384 28 402 0
-319 -382 155 21 0
110 380 -416 33 0
166 462 -330 128 0
-320 415 -474 66 0
39 -104 220 235 0
-203 -64 -250 -117 0
-121 -25 19 -143 0
-244 -78 -24 79 0
-151 276 -30 382 0
-439 -357 -476 -47 0
-440 -60 -442 -69 0
-198 -40 224 89 0
-469 -412 -80 -476 0
-176 205 -325 142 0
-233 -262 -107 -108 0
288 -119 -66 153 0
68 -267 362 -97 0
183 -198 -392 -332 0
467 330 357 345 0
153 -446 -149 -85 0
304 24 -496 17 0
-182 -33 -47 -432 0
124 21 -466 481 0
-436 41 442 -329 0
152 -497 315 389 0
133 304 47 410 0
182 38 -199 -209 0
295 330 108 381 0
114 -243 -113 149 0
-240 -36 -328 451 0
285 88 15 -33 0
-305 -312 -167 83 0
456 466 182 -323 0
-33 -336 180 -483 0
-227 -245 -460 -156 0
64 370 -62 350 0
85 -345 415 -124 0
3 -174 -62 -500 0
-195 456 68 -281 0
159 371 299 -343 0
-274 203 -230 -473 0
445 258 333 396 0
-43 -295 -281 283 0
384 -279 -378 -120 0
95 -94 283 -464 0
305 -28 376 -308 0
472 240 -181 136 0
214 -410 -395 492 0
443 -196 354 499 0
445 -209 -300 437 0
316 -350 237 41 0
387 205 -320 311 0
324 478 41 213 0
203 -41 424 -190 0
-62 57 365 -282 0
-452 135 -419 38 0
-32 -348 65 464 0
66 162 -240 403 0
-383 485 154 -450 0
442 -261 305 -133 0
155 68 35 348 0
-231 -446 -174 -371 0
239 -424 369 -243 0
91 -137 324 -197 0
480 -58 -271 496 0
140 -492 37 300 0
420 -29 405 439 0
308 -48 49 27 0
-263 76 201 -276 0
287 -231 -162 -228 0
-40 255 -256 -207 0
259 -38 -477 310 0
201 30 -419 -166 0
102 -22 254 248 0
465 500 -103 364 0
261 434 462 445 0
493 -336 9 107 0
-465 -294 -27 -456 0
392 193 -189 214 0
360 -402 114 -342 0
127 -429 -57 336 0
345 207 463 -50 0
102 -281 476 -429 0
-195 -232 272 -340 0
174 -33 338 104 0
143 -402 238 -232 0
-155 -237 72 -168 0
184 -359 -300 7 0
258 42 20 251 0
105 15 327 159 0
-77 -355 103 -242 0
228 -443 308 189 0
-450 354 -440 73 0
-298 -5 249 495 0
-209 53 143 97 0
60 407 -260 430 0
288 396 -10 -120 0
332 128 208 301 0
417 -128 -52 -263 0
-355 408 28 393 0
-257 -207 -429 405 0
109 -404 -5 366 0
20 -41 63 -172 0
24 -460 -255 -37 0
-259 36 208 -102 0
175 -152 486 -118 0
-254 -63 -97 -368 0
61 480 -346 231 0
-428 -342 193 297 0
393 426 79 -252 0
177 183 79 82 0
-162 -357 -246 -107 0
179 28 252 393 0
-260 282 -356 -50 0
-166 411 -186 202 0
399 -174 -453 444 0
-3 57 74 303 0
119 -22 -327 -50 0
-385 -90 110 197 0
328 -99 20 -280 0
152 328 436 151 0
-76 -291 -423 334 0
-102 -163 27 -314 0
-81 -424 -126 261 0
304 -109 -157 49 0
411 -312 332 -200 0
-453 161 -297 432 0
-96 -283 -381 92 0
-395 308 -42 10 0
447 319 -288 -65 0
-18 -174 20 -24 0
-96 -362 -361 475 0
-278 177 463 47 0
223 139 375 -137 0
264 -52 -276 -254 0
-373 58 -283 230 0
-157 -463 382 -221 0
419 143 -89 -148 0
-101 108 -343 -21 0
-376 482 -249 -204 0
-273 42 450 182 0
-290 -17 142 -264 0
421 -27 -382 32 0
129 43 430 241 0
395 306 146 338 0
432 427 327 13 0
241 369 -316 299 0
226 411 86 -18 0
-141 -496 -43 361 0
-280 -289 187 -407 0
-409 177 402 -389 0
468 373 -317 156 0
228 27 -253 120 0
285 -319 382 322 0
-78 -92 382 -268 0
-154 -40 -474 -462 0
492 -462 -315 -404 0
-140 -220 -453 223 0
-365 -412 -495 301 0
290 -365 -382 37 0
-136 362 -438 -294 0
136 -227 380 -207 0
-431 482 379 -3 0
416 161 160 -337 0
-249 -469 22 -251 0
153 -186 -490 313 0
305 -341 389 370 0
-377 -140 143 411 0
-312 354 273 -398 0
315 345 -380 191 0
-170 193 -322 -104 0
56 -329 453 253 0
-339 -184 493 -341 0
-269 -163 -12 79 0
68 106 -41 -134 0
-345 -324 326 -233 0
-349 -137 30 -475 0
-113 375 193 -229 0
489 174 99 326 0
-332 -101 163 63 0
-90 32 -408 108 0
-449 171 103 -176 0
44 -159 52 -354 0
-137 117 375 380 0
-390 63 -199 466 0
205 189 259 -311 0
282 -171 -59 -77 0
211 -185 228 -77 0
28 76 -327 187 0
445 -103 38 -439 0
-224 85 355 31 0
425 -201 216 86 0
-418 174 314 93 0
408 -462 477 -60 0
-339 423 479 153 0
-373 6 -183 -358 0
-487 -457 -116 -186 0
-363 -429 -499 446 0
288 364 132 397 0
467 -295 -292 -223 0
29 191 -180 402 0
-54 -385 156 -368 0
-399 181 168 -78 0
376 -306 347 346 0
-229 -145 337 -59 0
-181 296 -165 -173 0
443 -210 310 -367 0
-146 39 457 -139 0
-289 72 -353 -233 0
-34 -321 209 134 0
52 497 -381 346 0
239 408 -281 -266 0
42 418 16 -427 0
-154 271 -357 -479 0
12 -27 -273 301 0
-335 -230 -457 -3 0
78 450 -385 157 0
419 179 -426 -199 0
295 288 -224 302 0
39 283 -196 -242 0
30 -267 -411 -494 0
-98 -56 395 -168 0
-417 370 -210 331 0
-122 -85 383 -303 0
308 -492 -384 -234 0
33 -500 -412 -452 0
363 486 9 381 0
8 153 231 302 0
94 -224 37 416 0
-10 137 -106 -498 0
103 4 -460 150 0
-331 325 344 -415 0
276 221 49 167 0
-148 -362 -363 337 0
417 -339 367 373 0
470 -259 -216 84 0
-381 -7 123 -247 0
389 37 -306 281 0
-382 -185 156 499 0
93 337 66 -37 0
-105 -10 -65 -315 0
225 -306 145 -228 0
231 -216 492 -289 0
217 -41 401 -219 0
-442 -90 -355 -414 0
-16 -245 -370 -1 0
-270 -337 -123 83 0
41 -184 -446 405 0
-421 80 380 492 0
181 401 161 -477 0
146 358 1 -89 0
185 -454 312 141 0
173 -108 52 321 0
311 366 88 355 0
-469 -171 362 233 0
-301 -406 -303 80 0
408 -397 142 -164 0
-4 303 -399 67 0
-92 -246 -460 -252 0
-188 392 -226 136 0
-299 192 415 119 0
-92 335 239 -255 0
47 -246 170 394 0
-99 275 348 338 0
-363 -401 -457 168 0
422 -428 204 314 0
484 -140 -283 -133 0
-337 -384 31 -193 0
-141 36 -215 399 0
138 -354 279 179 0
290 -326 494 252 0
-71 67 -40 94 0
-442 -106 183 356 0
144 223 -350 164 0
194 -276 155 434 0
173 -3 172 494 0
-452 297 -380 -119 0
72 298 456 365 0
248 30 -96 467 0
-494 -398 215 92 0
438 197 273 -113 0
91 -319 40 72 0
226 104 276 -210 0
238 325 -254 -88 0
-484 -415 -134 164 0
-264 -483 -200 281 0
336 -71 295 -438 0
-111 403 198 -416 0
341 -84 38 486 0
-362 214 99 210 0
473 -240 -214 -423 0
307 -278 483 -55 0
428 80 -244 -499 0
-425 -135 52 -168 0
-92 463 497 69 0
-377 -31 476 276 0
-365 181 -204 476 0
69 278 -87 88 0
265 -73 193 -213 0
-413 304 22 219 0
209 55 -210 -471 0
-181 -220 364 244 0
255 417 -122 260 0
-498 492 -91 101 0
261 -124 17 -336 0
452 -472 268 -90 0
425 -290 -460 -432 0
259 -149 21 -160 0
70 319 444 425 0
18 186 39 205 0
278 -420 444 121 0
384 360 12 -398 0
245 134 52 220 0
390 237 -167 -255 0
-324 -210 -460 -255 0
25 390 76 211 0
-426 15 -161 -20 0
379 -350 -76 -198 0
358 -5 -291 -455 0
-446 85 -217 -404 0
391 -263 30 498 0
-348 413 -498 157 0
-30 -333 256 -6 0
474 -376 -214 456 0
143 -47 349 394 0
-305 26 422 -195 0
-379 235 145 129 0
-431 -347 -330 -464 0
390 82 -500 228 0
-429 -348 85 -270 0
-131 -57 282 -213 0
423 -33 16 323 0
267 438 257 -184 0
-83 496 249 -55 0
32 207 -458 309 0
192 -228 -385 -434 0
23 95 106 216 0
272 334 71 -35 0
-155 -74 -123 -42 0
489 -78 169 253 0
-211 338 -240 260 0
-110 -115 419 -171 0
-412 422 9 -136 0
96 67 234 283 0
-77 63 204 -318 0
-228 -35 -185 -407 0
124 151 417 48 0
134 152 -491 -22 0
373 -423 -250 37 0
-230 -23 -376 305 0
-454 251 223 -220 0
-485 145 69 260 0
-213 -13 34 -246 0
-45 -99 -428 400 0
-188 -136 157 -22 0
20 -318 299 -84 0
182 -118 324 471 0
-363 144 333 275 0
-162 -207 -358 -331 0
468 264 413 29 0
110 -373 205 73 0
298 -366 -222 334 0
-48 -114 -451 -463 0
300 -145 30 -252 0
-110 370 168 -242 0
261 -201 -365 249 0
139 120 374 -317 0
266 299 354 412 0
228 55 -324 412 0
-328 355 -486 -403 0
-168 36 -357 -203 0
-383 395 174 -101 0
287 40 -380 483 0
-139 491 -231 305 0
-453 -5 -392 -493 0
-324 -278 322 260 0
-284 286 438 -391 0
-391 337 -418 -140 0
75 -122 91 -63 0
-6 -255 124 -170 0
310 -33 125 -409 0
478 -380 -119 -264 0
358 -333 -277 199 0
-269 -420 -309 417 0
484 -1 -281 236 0
-433 87 476 40 0
-280 -418 106 103 0
261 -22 -325 -244 0
-265 245 -237 16 0
-347 481 336 -311 0
272 -425 214 -353 0
321 -188 -347 196 0
-75 43 209 -319 0
-209 -410 -407 9 0
132 -114 -455 498 0
1 270 93 -496 0
-75 -171 -243 -352 0
-391 231 -441 -221 0
-111 308 403 25 0
-392 -268 -325 289 0
-266 157 -406 126 0
-300 -474 114 13 0
-291 -383 479 -11 0
-346 -48 -185 124 0
171 390 193 398 0
-67 117 380 -489 0
-251 489 175 -13 0
-177 -73 307 -360 0
-496 500 -149 413 0
-369 106 262 -199 0
-258 -94 180 473 0
441 191 -190 -26 0
-171 105 294 36 0
296 40 212 352 0
67 368 252 183 0
110 408 -380 -197 0
109 413 295 -71 0
-494 401 364 -11 0
-100 328 -156 297 0
-180 362 -348 -84 0
-36 -12 -161 -500 0
200 -249 162 -30 0
-301 189 -22 -7 0
-133 406 -24 37 0
219 7 -165 434 0
-282 104 391 484 0
239 -394 248 79 0
-118 213 191 -147 0
-240 -96 -194 170 0
492 -163 -432 -481 0
270 493 -357 492 0
463 -219 -415 -443 0
-294 -423 -419 -442 0
253 448 -370 89 0
367 -269 -289 -107 0
106 123 -130 278 0
237 83 -370 271 0
80 -358 378 -98 0
471 390 -189 439 0
203 249 -471 53 0
-456 -461 477 -31 0
-69 462 -11 -415 0
-240 320 -405 489 0
-462 -146 56 143 0
179 -68 344 -310 0
-439 324 -453 -499 0
25 396 -353 412 0
355 -430 -455 233 0
-444 161 204 -419 0
391 -205 -392 254 0
52 50 107 -139 0
356 -187 162 -174 0
-268 -378 -355 450 0
36 -303 56 -483 0
92 -410 -284 -169 0
228 76 329 -11 0
-53 -285 368 34 0
-338 -475 -132 477 0
460 -29 87 -307 0
101 -432 91 40 0
-203 271 15 -229 0
-31 267 466 -355 0
394 -342 226 156 0
-96 267 261 344 0
-453 -486 295 -375 0
162 159 -416 -79 0
154 231 -83 -367 0
-457 -21 -390 303 0
-200 133 -477 174 0
439 476 96 -53 0
-400 -487 -119 -318 0
403 226 -253 -52 0
-51 68 467 -93 0
106 144 -168 74 0
-109 9 -205 -455 0
-6 408 -330 -169 0
445 -452 -68 170 0
165 116 162 -476 0
-177 -102 -332 112 0
44 -137 -304 191 0
-455 357 -499 312 0
356 -120 -128 -427 0
-343 391 -340 43 0
55 315 137 376 0
119 -493 41 -392 0
225 303 378 160 0
310 276 -198 -105 0
-416 444 -462 378 0
-160 452 304 -55 0
-408 391 -264 406 0
-228 -82 58 -453 0
-363 -33 -428 414 0
225 49 -9 323 0
-420 417 223 -280 0
-377 -197 -80 -370 0
-382 -421 368 86 0
-5 101 444 -120 0
441 468 -458 -473 0
-258 21 157 -495 0
221 425 -55 -443 0
-198 -311 455 431 0
34 245 -46 -300 0
-394 348 389 355 0
-91 -160 -391 -76 0
-20 -104 -13 -321 0
294 431 -450 -328 0
-157 -105 -416 309 0
-357 -411 -470 -233 0
-257 405 -428 -459 0
-276 305 -166 -140 0
33 227 326 169 0
-426 -141 -165 158 0
321 103 -236 24 0
305 -218 359 -475 0
244 -101 257 -8 0
-349 44 12 327 0
-316 432 -36 128 0
166 204 -148 398 0
-363 -327 -379 -225 0
-329 394 -176 -319 0
-292 -334 462 -421 0
-27 -397 -490 -65 0
70 75 -259 92 0
476 -128 -249 -237 0
69 -170 -455 -453 0
75 -4 199 -108 0
-160 447 220 -390 0
-495 -463 27 -478 0
-183 437 -357 282 0
-188 244 300 79 0
191 -111 217 -495 0
-58 362 235 -247 0
51 -393 394 159 0
-298 -8 -404 184 0
320 312 -473 115 0
365 -111 246 -169 0
484 -9 -183 226 0
477 -426 -300 -250 0
-439 226 -160 34 0
109 442 273 -63 0
-227 -447 389 -92 0
23 127 460 -65 0
-3 367 69 -352 0
-138 -214 313 -390 0
328 15 -411 -330 0
278 -269 -438 -304 0
191 -359 -176 -255 0
404 457 136 -247 0
-210 -344 15 132 0
-231 -235 447 -57 0
473 -466 42 -449 0
197 -181 5 -18 0
-222 -126 176 -43 0
125 -420 -305 -33 0
437 -495 370 488 0
-164 248 -438 -186 0
-430 -176 -219 -261 0
-409 224 -247 342 0
-102 -56 44 -358 0
-396 -14 13 -212 0
51 328 -336 231 0
485 -219 83 -33 0
-478 350 -468 473 0
-235 -77 105 264 0
-235 -254 -456 7 0
-322 121 -145 193 0
-468 53 -491 -235 0
-354 306 -92 -393 0
50 -266 -153 -423 0
-375 -79 -482 257 0
494 117 384 418 0
-50 -20 308 474 0
274 110 -49 -191 0
-26 169 449 456 0
-250 -413 -175 -146 0
-288 -336 -298 -84 0
372 197 -324 100 0
289 307 -132 204 0
-368 386 208 -350 0
404 347 -225 308 0
77 310 -68 347 0
-195 224 -487 -76 0
-410 497 193 423 0
-210 57 70 35 0
-45 -116 367 264 0
123 -263 103 360 0
-55 -348 11 -83 0
-230 122 -499 -48 0
-262 368 9 132 0
-357 229 -83 17 0
-172 -290 -64 -101 0
-67 -128 -18 -399 0
-187 104 -114 -141 0
452 16 -65 -67 0
-417 327 -190 -1 0
-176 -20 -495 363 0
-343 148 362 153 0
309 -457 140 -390 0
434 402 105 86 0
4 347 135 8 0
-262 86 370 73 0
-137 416 -366 -172 0
-224 -429 -237 -350 0
-372 -392 -15 -167 0
118 374 -53 -164 0
-283 -463 -406 442 0
443 -441 -235 62 0
434 -316 -125 429 0
-159 184 117 -477 0
50 -329 -376 -184 0
174 -480 23 -170 0
482 -430 362 -81 0
311 157 -365 -316 0
-252 52 -191 -112 0
-469 -367 -426 -379 0
218 -442 -100 159 0
-465 395 14 -451 0
12 -419 281 -226 0
398 -304 -173 348 0
160 -123 -214 21 0
-286 141 47 -15 0
192 -119 376 -237 0
48 238 -215 160 0
-64 432 -130 3 0
-50 -283 434 -119 0
-53 385 -60 -255 0
433 -296 -131 -170 0
83 52 -105 228 0
295 -202 486 404 0
-253 -270 74 -182 0
-322 -287 -425 473 0
189 -435 124 77 0
-324 -391 -375 50 0
-230 224 211 112 0
89 342 307 72 0
-223 431 141 363 0
-437 136 -129 -447 0
-488 433 464 -431 0
101 -14 -79 469 0
-20 -58 -408 -161 0
234 242 -478 -492 0
-185 -183 466 -242 0
-463 -42 -218 -370 0
-64 -324 113 270 0
-78 18 -71 -439 0
363 321 -139 -307 0
-378 -333 -375 204 0
204 52 -346 295 0
311 -198 -164 292 0
-85 482 225 112 0
20 -249 -83 -285 0
-299 217 360 -414 0
-116 63 -470 191 0
365 -287 383 -369 0
443 460 266 370 0
-318 73 -380 -13 0
454 9 287 380 0
442 -20 171 86 0
86 405 479 175 0
96 288 137 -394 0
-460 337 178 79 0
265 -328 -402 -361 0
-422 -328 171 -488 0
-101 245 354 -252 0
-118 -177 -498 321 0
412 235 -346 -174 0
-409 -67 394 103 0
209 -107 -384 100 0
49 287 -405 323 0
138 -72 -79 -408 0
50 -226 -131 383 0
-10 -138 394 -343 0
444 -382 294 260 0
74 23 13 206 0
-394 -316 183 -358 0
-59 419 -124 -427 0
50 -158 -375 -216 0
-104 177 -318 -6 0
-493 169 -479 489 0
450 -182 -26 98 0
-36 -70 -357 -118 0
-151 -93 301 -267 0
429 -329 270 136 0
-205 -358 -1 30 0
473 279 139 438 0
395 -56 -90 -325 0
-206 422 -457 -31 0
-82 -474 449 239 0
98 -208 402 -489 0
-415 -168 431 -221 0
307 -338 -199 -306 0
-466 179 -330 359 0
-140 -173 -207 -414 0
-421 174 -172 -27 0
483 463 -385 -117 0
-3 -255 286 -412 0
-436 -2 -450 410 0
5 -74 -46 361 0
-71 -308 -487 438 0
-5 -435 -453 -83 0
-373 305 255 236 0
-16 420 96 -347 0
-77 89 -11 107 0
-324 -101 -350 223 0
380 427 -224 -420 0
123 164 61 454 0
-99 440 418 -374 0
-7 489 -285 -236 0
-349 108 -463 -293 0
465 29 312 171 0
-322 218 120 163 0
-264 403 331 451 0
399 252 -123 -217 0
82 207 113 255 0
-487 375 -201 -50 0
183 381 -403 105 0
210 281 234 428 0
-343 114 -242 471 0
-351 -146 -3 -179 0
333 464 -143 12 0
416 105 178 182 0
-329 -85 -310 -234 0
142 399 -348 -221 0
-390 -11 422 -345 0
116 -130 -427 222 0
-316 -8 72 159 0
-152 -286 496 -314 0
-227 118 361 -472 0
-490 449 -99 -238 0
-94 -211 -264 -59 0
187 42 -238 -114 0
-153 214 469 -59 0
82 -481 -466 -19 0
-389 -215 39 184 0
-428 -59 -10 -372 0
18 -476 160 475 0
-494 -447 122 325 0
-279 264 391 250 0
109 62 84 -284 0
-324 -46 67 302 0
317 396 397 -81 0
192 386 -116 223 0
-5 88 -466 130 0
-479 -344 245 43 0
263 478 394 -418 0
465 -240 -345 -333 0
145 -247 -100 -232 0
-69 441 -302 -212 0
95 336 -103 -211 0
-222 -40 314 252 0
284 -335 -278 388 0
-240 61 280 473 0
-40 -355 -334 403 0
285 489 199 -498 0
395 455 109 42 0
-309 484 398 -123 0
-349 -213 -15 -496 0
-200 -360 436 399 0
452 -122 -157 -472 0
-178 471 98 -18 0
150 125 -240 -428 0
363 -285 -173 -397 0
303 67 -200 -499 0
-364 -386 463 121 0
-435 -414 157 -410 0
89 -180 36 59 0
318 203 -195 -12 0
-196 491 337 -53 0
182 115 85 -312 0
216 -300 439 -1 0
462 108 -1 -419 0
489 -313 -422 99 0
334 179 -447 72 0
-210 186 -326 -191 0
-130 -168 -374 -127 0
-78 -408 472 -272 0
-457 379 -469 -208 0
297 -428 418 263 0
334 -23 -211 496 0
328 -430 431 -270 0
34 -495 246 -153 0
103 -415 444 -38 0
-445 234 -393 180 0
-335 -177 465 392 0
-474 -422 430 -4 0
-323 375 -47 -7 0
-155 -295 72 380 0
-318 -287 -86 241 0
47 -383 -33 -320 0
-426 -49 -220 291 0
367 -242 -52 -353 0
-414 493 -262 -466 0
-220 89 -195 -389 0
-315 146 -207 75 0
-130 196 74 -44 0
463 253 312 -196 0
-6 249 -483 -437 0
80 121 418 -60 0
-441 -30 -394 -70 0
497 -51 103 100 0
-155 -452 45 116 0
404 481 97 379 0
456 186 -478 241 0
404 446 -400 -231 0
-11 409 323 415 0
245 -211 -274 113 0
-219 -264 423 223 0
245 -252 262 477 0
-316 345 -129 -250 0
-81 -484 -103 -414 0
-489 -261 -414 -366 0
-79 150 -480 -496 0
-352 -363 338 -466 0
367 356 -73 337 0
-127 179 -434 -203 0
-160 -107 -171 422 0
72 -152 498 255 0
305 473 294 -496 0
-254 228 -222 -245 0
-115 134 -76 20 0
-459 247 -439 -404 0
-144 -397 -330 30 0
-212 99 103 28 0
28 -277 -441 19 0
-379 348 47 271 0
-182 -470 136 -144 0
-260 32 -92 -281 0
-143 375 440 -126 0
-123 -103 154 -299 0
-166 -459 -229 357 0
-343 -5 -492 381 0
122 374 -107 294 0
-197 -495 392 -274 0
374 228 156 63 0
461 219 456 -394 0
-466 377 69 130 0
-238 -59 -295 256 0
-117 306 482 -186 0
-250 162 89 300 0
-288 -378 -261 -154 0
-11 284 -338 -207 0
-156 -372 352 -42 0
-441 280 -324 -225 0
465 26 316 490 0
389 61 309 -431 0
-488 352 209 384 0
182 235 121 -368 0
-348 472 165 167 0
372 -181 232 124 0
334 345 -229 -125 0
433 -429 -327 299 0
-15 -262 -329 316 0
-470 -461 -235 -35 0
-443 -7 177 6 0
-367 406 -217 -246 0
-227 -219 270 -41 0
119 223 433 77 0
-129 387 -398 -158 0
-360 -473 29 411 0
144 426 -285 -482 0
-108 -281 -162 -466 0
271 -219 25 225 0
-349 211 447 385 0
23 -77 -481 -62 0
165 -439 -170 -493 0
-453 34 296 -163 0
68 -330 424 51 0
-377 -17 272 339 0
185 425 314 -152 0
384 -165 404 486 0
359 -141 -347 -283 0
-161 301 457 81 0
375 -68 410 -451 0
217 -293 358 -498 0
-300 -71 139 -350 0
-447 264 5 -211 0
471 282 224 448 0
-128 225 61 191 0
-473 -337 -386 95 0
40 254 -465 392 0
472 -149 481 312 0
421 -400 -285 441 0
-243 -48 -437 -278 0
231 -48 -329 -457 0
190 -188 -2 -298 0
305 -459 301 -261 0
210 -376 467 -453 0
344 107 307 -384 0
45 -497 -119 -164 0
-240 259 214 -4 0
-156 -230 -329 -22 0
224 -423 214 229 0
309 437 108 -157 0
-276 500 319 -61 0
454 396 -229 476 0
456 432 -25 -333 0
51 17 -12 -13 0
135 -223 -70 -445 0
372 366 111 -314 0
-425 481 -361 -289 0
-254 -136 -351 -220 0
-7 -199 -325 -283 0
278 45 -319 -270 0
-321 -88 -163 -134 0
138 94 -87 203 0
-209 -421 -74 114 0
365 -499 -356 -498 0
-267 -441 -430 252 0
-44 -117 -305 -412 0
-269 77 -412 468 0
373 -31 -19 212 0
-148 -199 227 -28 0
-475 200 408 -165 0
444 -477 401 -271 0
402 -288 294 55 0
-20 364 192 -213 0
155 301 -255 -237 0
-452 -488 388 28 0
-284 -203 -105 -31 0
106 294 52 111 0
102 -91 -498 167 0
-450 -100 -490 -20 0
339 261 433 402 0
267 -340 -306 46 0
-89 -382 -282 136 0
-395 -184 -112 -199 0
-91 87 452 465 0
284 -57 -30 -131 0
43 238 -277 -216 0
497 367 -370 317 0
-37 -264 285 205 0
-479 46 -135 -475 0
223 -296 -153 308 0
-183 -69 76 -144 0
71 -229 416 486 0
427 61 71 445 0
172 311 115 -388 0
-465 500 -359 -333 0
47 -268 -256 -239 0
-39 399 -387 121 0
-343 241 437 226 0
-185 357 -375 430 0
-108 63 -193 -204 0
-445 215 155 339 0
-422 317 76 282 0
-33 -488 -136 -349 0
-465 146 422 250 0
-396 -436 -428 -343 0
-241 499 -489 -134 0
-3 84 371 438 0
456 -52 276 -392 0
-414 -469 229 -251 0
-404 -148 -94 152 0
73 -222 355 -276 0
-110 63 -54 473 0
-280 -360 -495 190 0
197 -152 -76 -264 0
130 -128 -303 -67 0
51 400 91 -168 0
64 -222 -366 -197 0
490 -373 -108 157 0
-23 119 137 -96 0
-248 343 456 179 0
149 200 277 499 0
-147 456 227 -343 0
-491 -388 -61 466 0
1 499 407 473 0
-402 -351 -341 442 0
354 -466 263 -319 0
-376 395 103 -71 0
-374 -368 -104 438 0
171 468 -80 497 0
242 377 408 497 0
-231 278 -301 194 0
391 293 -69 235 0
-311 -22 -497 -235 0
54 -286 444 36 0
178 306 147 112 0
88 169 -84 -361 0
-322 -342 249 44 0
127 -172 -238 123 0
182 -346 -223 -58 0
172 228 223 472 0
-65 -207 399 -356 0
-31 352 -6 81 0
-235 -6 -263 -223 0
-464 264 -392 -258 0
76 -224 -155 325 0
-345 -75 386 -307 0
482 -133 171 -485 0
90 400 252 -159 0
-361 -5 184 191 0
250 -462 -500 -206 0
325 278 358 -13 0
139 134 42 282 0
322 -489 465 253 0
-402 -240 191 -73 0
-141 73 230 155 0
-119 -151 204 -344 0
-486 278 316 369 0
-226 -133 -313 254 0
-370 -233 -453 156 0
-157 -498 473 257 0
-52 333 -357 -103 0
446 -291 -373 48 0
-213 383 -126 -177 0
-315 405 163 -168 0
-182 242 193 66 0
-231 -296 -119 19 0
34 322 281 151 0
248 489 26 -128 0
-394 -8 449 -3 0
-309 -394 -408 -155 0
426 -103 12 437 0
-18 -87 35 173 0
-116 236 51 210 0
-228 -198 -111 318 0
-195 -477 -280 126 0
93 486 -5 352 0
170 -53 -10 181 0
301 148 150 490 0
-133 -399 -172 -393 0
-178 204 -136 158 0
232 331 361 -151 0
-201 365 -326 143 0
-376 394 64 165 0
-162 -62 244 -77 0
-89 -230 193 -442 0
242 -348 45 245 0
246 -391 -472 382 0
-450 -71 -66 394 0
-20 211 -427 393 0
-217 -65 -452 -107 0
86 230 367 386 0
-485 337 86 275 0
-162 -312 -331 -236 0
-225 439 50 -110 0
-104 -223 -87 304 0
258 -161 57 -210 0
-270 127 -289 -248 0
322 135 -147 -244 0
125 412 476 -490 0
260 -70 67 -163 0
466 412 -18 163 0
169 -135 -122 -478 0
-314 274 -148 -384 0
-156 6 -223 -369 0
475 199 -425 -111 0
480 -30 -256 330 0
-253 134 217 293 0
-214 326 -266 -135 0
-349 -344 -170 -500 0
-317 150 308 204 0
451 -109 -78 -79 0
431 -50 296 -437 0
375 430 413 -210 0
37 -189 -17 390 0
-44 -274 424 435 0
61 446 -224 40 0
99 -255 -363 -230 0
-402 -327 182 -219 0
266 -494 -80 -454 0
422 -417 263 440 0
385 205 174 -497 0
9 490 -433 -271 0
349 381 -324 -177 0
-185 -17 450 300 0
-316 409 130 31 0
-496 -211 -319 279 0
384 -428 -279 -92 0
-54 481 91 21 0
35 -166 -279 120 0
-450 243 205 469 0
-247 16 424 332 0
-296 267 93 446 0
-45 345 348 232 0
-486 285 130 -256 0
424 350 -144 -331 0
73 -218 14 202 0
-141 82 190 248 0
466 -246 37 232 0
-134 380 -393 -386 0
-264 -222 -112 250 0
-442 50 382 -203 0
345 -184 21 106 0
158 462 172 161 0
282 -204 -371 317 0
-141 -175 298 202 0
65 -315 4 436 0
-477 237 9 -317 0
483 -277 184 58 0
-81 384 -151 77 0
50 -273 -102 -58 0
-71 -38 -487 415 0
464 -169 -420 253 0
276 69 -417 115 0
-6 -92 -360 264 0
-13 -369 -423 -404 0
129 -408 -399 248 0
-63 -242 208 -59 0
-345 -492 -42 -223 0
-10 298 -453 -231 0
179 -216 -34 -158 0
467 -353 230 -93 0
18 -70 -188 106 0
-295 -54 -322 -414 0
-115 -14 39 -319 0
281 124 268 96 0
120 -425 -110 -258 0
-245 -325 -390 70 0
-269 401 -8 366 0
-253 -390 63 150 0
-25 -313 435 -126 0
-194 114 -474 -487 0
202 134 456 43 0
76 294 -128 -105 0
-170 146 -282 290 0
295 -75 338 -389 0
-456 6 -110 -306 0
-492 -25 397 -179 0
474 365 169 47 0
-463 -157 -10 -56 0
-193 365 444 -313 0
-233 -356 72 -61 0
85 -263 370 391 0
372 229 -53 -261 0
199 -30 -439 -413 0
371 -117 -395 -249 0
387 90 -84 -342 0
447 -393 410 -388 0
259 482 -81 -476 0
-188 -481 392 456 0
288 -295 -266 -167 0
88 99 -264 275 0
237 212 138 -394 0
-236 225 326 494 0
314 -331 -275 433 0
333 65 82 -274 0
387 352 162 136 0
-111 -12 -205 326 0
-258 245 -14 333 0
-219 22 207 -376 0
-370 111 487 385 0
-398 10 496 -86 0
421 -206 304 -255 0
298 -336 142 395 0
213 -326 136 299 0
-242 484 -43 -497 0
-378 402 -97 -427 0
431 -332 -198 491 0
418 -217 -482 468 0
-71 -328 21 -36 0
273 -141 406 -1 0
-206 67 117 4 0
80 -23 -32 458 0
-74 -52 11 -411 0
101 -137 -144 -85 0
-181 -98 223 188 0
341 -417 362 358 0
108 -419 63 93 0
-178 -327 281 -323 0
-48 -149 119 -49 0
-354 -75 -263 -271 0
37 -183 250 167 0
41 465 -412 -244 0
382 478 -465 128 0
104 -467 -113 140 0
357 -125 261 -317 0
-216 199 -111 -454 0
225 -57 -254 -347 0
384 279 -351 -265 0
-10 243 196 -211 0
-322 32 -386 457 0
-435 285 363 59 0
76 130 355 101 0
405 -438 -256 -131 0
44 355 -340 192 0
-42 195 -179 331 0
215 -58 -101 259 0
-33 -106 323 365 0
-347 -246 3 413 0
203 243 443 -134 0
15 415 350 158 0
99 295 -306 294 0
-223 229 421 -180 0
-470 -194 412 -163 0
249 323 229 391 0
-73 -343 5 -145 0
289 207 -181 291 0
263 -493 -25 21 0
484 369 -330 351 0
-493 -129 15 -120 0
383 -452 272 230 0
-201 -302 -81 -461 0
-336 -273 182 -158 0
-356 323 -477 -411 0
-272 371 -359 159 0
425 -270 -283 -460 0
-247 481 310 283 0
182 -67 -499 -195 0
-397 -130 170 -353 0
-313 86 470 -101 0
284 -156 176 -293 0
-194 -295 -192 380 0
62 -33 -116 258 0
34 -428 -95 -118 0
56 252 -432 -321 0
-267 -411 440 439 0
-248 -476 157 -29 0
185 153 -351 -209 0
53 405 -61 -494 0
-90 -324 -211 -298 0
246 112 -329 -349 0
170 -280 -294 499 0
-391 -194 -255 -328 0
351 361 75 315 0
-198 416 374 372 0
329 150 207 -379 0
-51 301 -457 465 0
311 178 -170 235 0
-184 314 -211 363 0
-146 254 62 498 0
-33 326 -188 -271 0
-112 258 230 -6 0
487 47 -452 -119 0
430 -151 -368 -353 0
-465 -124 -299 14 0
-473 -459 -27 -109 0
-110 415 31 379 0
223 -32 -42 110 0
248 450 -353 256 0
357 73 -128 -452 0
257 -476 437 -319 0
-77 -117 343 -3 0
-479 -416 -110 419 0
467 -126 194 267 0
-281 -150 129 472 0
-44 -165 -74 488 0
-38 339 -155 424 0
-285 -239 -264 -60 0
400 200 391 -497 0
-183 -123 -251 -213 0
-483 28 -189 15 0
-452 -493 479 235 0
216 316 76 -448 0
-226 167 319 204 0
213 -445 20 -106 0
-159 363 43 324 0
90 -79 -406 382 0
494 214 -108 172 0
373 -483 184 367 0
61 -210 420 104 0
187 -484 -159 -4 0
-58 296 309 346 0
361 246 498 -172 0
-89 -53 -204 262 0
54 261 459 216 0
244 -273 -486 -381 0
294 -43 -486 261 0
-323 35 437 417 0
-386 180 147 18 0
447 -250 172 -462 0
27 -396 272 -489 0
-482 -1 -376 -220 0
156 -487 -26 318 0
4 -331 -275 -277 0
-210 -173 222 482 0
119 427 268 -459 0
-34 211 -246 -464 0
36 358 -290 185 0
-319 -346 243 -51 0
472 -337 -356 369 0
386 -398 -433 -411 0
-323 204 -272 -498 0
223 209 -392 -401 0
438 178 -212 -86 0
-416 373 -253 -17 0
249 261 -45 46 0
347 287 398 179 0
-298 154 232 -405 0
40 -500 -430 9 0
318 186 394 -356 0
-488 -354 110 102 0
-270 -410 453 -352 0
6 -419 -179 148 0
-161 7 277 329 0
-289 -67 -281 -480 0
-8 368 364 152 0
112 414 -387 111 0
181 -93 1 272 0
-416 339 -270 25 0
362 -94 141 -168 0
-171 -474 228 298 0
-358 -3 87 -233 0
276 298 127 301 0
-175 -357 225 22 0
-500 257 -141 356 0
-37 228 -423 -208 0
-132 -138 -485 -141 0
-212 -498 -12 18 0
93 188 -364 15 0
348 -490 437 271 0
242 -18 341 -114 0
173 462 -217 -323 0
363 -206 -175 -59 0
492 126 -155 411 0
334 490 153 -88 0
192 252 -263 -335 0
447 -272 268 -269 0
60 129 329 -80 0
-463 400 -145 209 0
-121 267 -162 311 0
223 292 461 -386 0
412 487 57 -209 0
62 -206 -126 387 0
-176 42 404 -104 0
-218 156 -119 206 0
66 -307 364 366 0
-70 -208 211 147 0
-458 307 492 -129 0
343 8 -351 -403 0
317 230 62 -49 0
346 195 -482 -65 0
119 306 -3 -258 0
-140 391 -403 -291 0
-163 -89 -387 -19 0
265 -292 -89 -73 0
-179 -483 214 321 0
-454 164 287 432 0
-230 -280 475 369 0
103 181 352 -434 0
-293 351 -179 -69 0
237 229 246 -321 0
-318 229 47 243 0
-27 -308 -353 -383 0
339 -485 -307 -283 0
-85 -8 -466 -347 0
90 -468 -327 -424 0
274 -293 -11 216 0
140 105 -164 -343 0
-8 -17 -480 -149 0
346 225 -269 -129 0
48 -77 -301 -71 0
-68 -25 -289 -340 0
164 277 -212 -490 0
-265 232 229 -484 0
-84 -281 249 204 0
309 -254 -311 133 0
269 -246 -32 250 0
160 267 -459 -256 0
-50 -447 191 -483 0
105 42 80 -279 0
-237 34 161 -72 0
-76 -102 -213 355 0
-225 265 344 -400 0
223 331 110 -456 0
-314 -357 -199 -396 0
410 -17 459 214 0
-89 -400 239 491 0
130 -404 345 227 0
-307 204 396 -3 0
421 264 247 -379 0
-94 -386 -13 119 0
-229 -295 -56 -253 0
496 421 -393 366 0
195 -22 -399 427 0
373 176 456 -272 0
449 92 -99 274 0
9 39 464 458 0
18 487 -71 145 0
370 -229 -291 -57 0
-213 -206 -67 -79 0
375 -156 -189 -298 0
-330 419 -37 385 0
186 -297 -199 17 0
149 -161 69 325 0
185 -89 -173 198 0
-10 -100 -261 -310 0
204 -114 263 413 0
346 -110 456 101 0
418 -52 287 420 0
149 -287 312 144 0
-25 -283 28 -127 0
-20 -50 -449 -499 0
342 -142 101 -477 0
128 25 -244 -411 0
466 393 5 -153 0
-334 364 -473 103 0
467 -47 100 410 0
-191 235 -280 -393 0
2 -264 -165 -265 0
-150 476 384 -312 0
431 -330 109 -213 0
-251 161 -488 63 0
211 3 110 183 0
68 298 151 95 0
280 -463 -404 69 0
-382 -206 215 -338 0
487 -4 -264 125 0
-27 -97 -86 -11 0
177 421 -162 -304 0
256 -330 -180 14 0
-372 -393 -440 221 0
-79 278 -52 -209 0
-458 -429 -20 75 0
159 -247 -168 -63 0
154 36 382 230 0
322 100 -316 63 0
450 142 -216 -182 0
-224 459 428 -275 0
-69 -94 359 40 0
230 -62 10 -148 0
-85 -492 -379 -259 0
-378 -304 -167 476 0
48 222 40 -343 0
151 -9 46 61 0
276 -28 -182 43 0
-211 -411 380 -87 0
39 -256 10 -325 0
312 -242 -211 -106 0
-197 -71 -100 490 0
6 259 310 -322 0
198 -436 -290 265 0
-121 -187 384 170 0
-235 -245 298 385 0
-37 279 451 -326 0
361 292 -236 170 0
222 -200 258 -15 0
93 173 24 460 0
324 172 341 -480 0
372 177 204 458 0
-108 123 276 -369 0
46 -311 -204 355 0
-209 218 -55 -282 0
292 -69 -329 305 0
-237 459 -266 -431 0
244 -489 307 -284 0
-128 -183 -302 -7 0
-22 -73 207 55 0
471 185 -378 -474 0
-109 -150 -343 16 0
-450 185 -494 59 0
-132 -340 80 56 0
-271 -140 -18 351 0
-494 -276 223 -254 0
171 428 -490 147 0
128 -126 -19 -282 0
286 284 437 455 0
105 466 -252 -392 0
242 -31 -69 -99 0
-174 318 379 -97 0
326 308 277 429 0
-11 215 -327 308 0
-66 -226 -64 313 0
149 -482 -407 25 0
80 -227 -384 385 0
190 -104 161 205 0
-457 104 -381 -411 0
-414 -264 470 145 0
-461 -222 20 -466 0
-68 -38 -449 268 0
189 -45 -130 72 0
85 32 244 66 0
-392 -49 345 -195 0
-242 -96 347 -405 0
-295 287 -138 -79 0
287 28 -6 52 0
81 352 468 -346 0
285 -215 -118 -43 0
118 95 -355 224 0
-275 -487 -397 -384 0
-9 -57 -490 -74 0
56 -365 -302 232 0
-239 379 -491 246 0
-394 72 32 300 0
194 -69 218 230 0
333 -500 -143 375 0
-57 421 152 385 0
452 81 322 -229 0
-22 -75 341 5 0
336 51 -439 -216 0
-142 -171 -113 -407 0
379 177 -256 50 0
12 149 -444 -437 0
219 423 -297 56 0
259 485 127 -52 0
474 438 -493 302 0
-76 -422 -472 31 0
-322 -372 281 -439 0
-378 364 -331 -4 0
-59 -253 351 244 0
154 177 -245 -122 0
-411 322 416 344 0
324 -408 -78 -171 0
-307 -184 -373 -469 0
-432 -204 302 253 0
-29 326 111 443 0
-335 438 -272 291 0
-313 348 340 143 0
285 6 -245 485 0
-348 -116 -444 -381 0
-118 482 -186 -154 0
331 307 -14 -255 0
-108 -207 -431 -409 0
381 -125 106 339 0
-236 -209 95 204 0
-446 -289 352 231 0
-332 475 80 163 0
97 -403 -295 -363 0
19 500 -186 -34 0
-217 -340 457 300 0
300 -194 -438 398 0
-216 -262 -465 -241 0
38 74 -471 -253 0
478 286 3 414 0
219 18 196 293 0
-473 -129 -88 -71 0
-317 -171 65 -14 0
-322 352 -236 -348 0
195 -185 493 202 0
-455 92 -36 136 0
-303 -76 137 169 0
-457 -374 296 -464 0
-133 289 252 -58 0
263 424 -165 379 0
21 -66 -378 215 0
-44 -432 266 37 0
-290 43 378 -213 0
168 -490 -359 17 0
-451 -320 341 -413 0
198 -461 11 -242 0
147 -296 35 -445 0
222 -350 18 -358 0
232 -479 346 261 0
-398 -226 -412 -361 0
-145 11 -244 -298 0
-121 264 367 252 0
-83 295 -464 -439 0
156 367 186 236 0
-199 44 -54 -23 0
-39 355 -329 -396 0
-261 -22 -428 -94 0
-130 -204 441 240 0
430 -218 -475 88 0
-125 -31 -273 -433 0
413 -391 -210 219 0
-437 478 407 -304 0
-404 137 -33 -210 0
228 423 -462 -439 0
-365 -160 22 183 0
171 306 -169 -401 0
462 324 441 30 0
494 123 -500 491 0
-49 -393 221 214 0
471 -248 141 438 0
187 491 435 -51 0
482 -446 297 -174 0
392 -311 434 -367 0
358 287 299 -237 0
301 -386 275 -220 0
-93 424 289 -50 0
-145 -100 -423 -375 0
-268 -365 -325 344 0
207 -364 452 286 0
-108 364 32 298 0
-51 -24 229 -272 0
473 -217 -275 91 0
81 410 239 438 0
-65 -122 250 -184 0
-195 47 -156 273 0
391 414 373 -483 0
294 249 57 467 0
272 201 343 -182 0
142 298 239 5 0
-396 130 196 216 0
-474 423 -104 -391 0
373 -128 -281 122 0
-85 313 432 486 0
-204 -364 481 349 0
-25 -102 -406 -293 0
31 -433 -17 272 0
150 -323 282 -346 0
381 -420 435 360 0
-8 317 111 -380 0
-43 147 -221 -166 0
319 203 -19 499 0
140 317 -193 -370 0
-65 275 91 168 0
329 485 371 110 0
-369 123 414 -210 0
-98 -170 199 -36 0
-100 65 203 38 0
78 -363 -424 -372 0
254 -491 378 -196 0
350 -494 439 405 0
-445 135 -459 -381 0
-59 -148 420 177 0
-360 113 423 -71 0
-64 350 -484 -298 0
-191 -121 -340 382 0
224 431 -345 -344 0
-371 305 188 425 0
385 -117 -142 333 0
469 -244 146 -17 0
-398 -38 493 -463 0
432 -335 354 -441 0
-77 -380 -248 -482 0
-218 14 -426 -478 0
-120 -149 15 -301 0
-39 -420 254 186 0
-379 312 64 31 0
446 -319 -139 154 0
343 189 240 86 0
-41 272 55 161 0
-14 180 -361 -18 0
224 476 152 261 0
155 -181 30 179 0
-498 252 -93 -153 0
-134 -417 -133 165 0
376 139 -367 -317 0
-141 -78 -442 -362 0
172 -222 122 417 0
-446 -39 325 -136 0
-14 -379 -444 -421 0
4 -207 -137 -464 0
380 199 317 -137 0
-384 369 -445 -244 0
