c 4-SAT formula
c 500 variables, 2000 clauses, 4 literals per clause
p cnf 500 2000
-444 234 12 -411 0
199 -492 82 330 0
258 499 266 113 0
404 236 15 195 0
391 -217 -450 -372 0
385 106 -405 -237 0
-23 246 5 -269 0
477 236 248 56 0
-22 -370 198 -457 0
179 -247 -161 -324 0
363 158 -416 129 0
-417 -125 327 157 0
32 119 -212 -356 0
-159 196 146 393 0
-238 65 449 -55 0
-167 -164 281 -433 0
-85 -114 -192 341 0
263 -67 335 174 0
-350 -443 238 132 0
451 386 16 397 0
430 -79 187 -323 0
55 220 153 334 0
92 3 454 263 0
-343 414 246 -13 0
109 225 433 -406 0
-392 160 -381 -163 0
12 -194 -151 68 0
82 110 -273 -241 0
21 -489 461 436 0
107 94 -296 114 0
245 223 -61 -64 0
-251 244 -38 -34 0
289 -288 58 -3 0
20 313 -258 71 0
78 -143 -370 -464 0
118 90 -322 -305 0
-48 467 -158 184 0
-169 179 381 210 0
-314 245 -339 -12 0
447 -471 415 67 0
316 93 -157 -324 0
135 -262 -54 -450 0
-96 297 -435 54 0
-13 276 366 -270 0
469 15 -67 -68 0
335 -445 -14 -379 0
-22 -208 -274 21 0
-254 307 -143 65 0
-145 125 -401 -430 0
441 -331 -223 191 0
-222 -427 66 316 0
-300 332 359 401 0
-19 -42 464 -210 0
405 -312 -27 474 0
267 -385 42 106 0
-228 -377 276 259 0
137 364 -422 31 0
154 -103 253 -273 0
47 -271 185 150 0
167 68 -369 -360 0
313 -204 140 -160 0
-483 -188 296 303 0
104 -427 210 26 0
-365 -320 375 -350 0
-107 264 320 186 0
-45 118 268 -160 0
241 248 360 222 0
112 -77 398 -125 0
-489 218 4 -94 0
416 321 -216 166 0
-321 -128 -169 497 0
219 202 177 -379 0
376 240 238 -391 0
123 -71 -129 -230 0
256 165 208 317 0
343 104 -134 -230 0
-213 231 482 287 0
137 126 -153 -170 0
423 -64 354 -471 0
-63 84 -499 419 0
-197 1 483 -165 0
59 -211 228 -16 0
290 9 -28 -70 0
-116 -21 -177 -256 0
317 -441 185 -374 0
405 246 454 -346 0
-159 283 168 -164 0
-401 -298 454 406 0
-446 22 -368 -97 0
-44 -33 301 -355 0
412 131 170 232 0
-69 223 367 115 0
186 191 -417 -294 0
-224 284 -436 484 0
191 -367 483 51 0
-283 -105 64 468 0
72 6 -495 158 0
-147 393 14 274 0
91 71 -150 368 0
61 -166 466 -232 0
13 -362 240 86 0
484 344 466 -176 0
-120 262 282 -156 0
-230 148 94 -272 0
376 244 -83 45 0
201 -211 -9 -499 0
-234 349 -100 -9 0
182 119 -487 192 0
46 -28 45 50 0
-130 52 -434 -451 0
-334 -20 -210 -489 0
301 453 349 -115 0
-130 -46 -217 -406 0
373 -311 13 485 0
23 -327 101 -180 0
46 -280 88 16 0
-257 140 -263 -171 0
342 -193 163 499 0
447 322 338 -143 0
-18 -129 -435 382 0
-1 391 340 -89 0
188 146 -431 -301 0
239 -166 439 -337 0
-248 132 -306 -479 0
-163 115 -51 -99 0
-242 -460 -46 47 0
-291 13 469 -269 0
76 -264 -377 338 0
-62 -455 3 -55 0
243 453 -321 226 0
-314 -464 -228 -68 0
-241 51 -270 -473 0
-265 66 231 -76 0
-331 -49 -492 402 0
-358 -493 443 -409 0
-141 -86 -148 -290 0
37 121 144 251 0
174 -424 -76 389 0
499 15 162 -392 0
326 9 -272 -156 0
-11 -46 -313 -79 0
102 -38 25 366 0
16 133 -408 453 0
83 -338 388 -492 0
333 -479 -289 -180 0
-354 -339 -369 260 0
337 -450 362 -357 0
-255 -407 317 464 0
313 -255 -312 -244 0
-188 455 -302 -39 0
-346 141 9 -456 0
-265 434 -202 473 0
-28 -449 233 -215 0
392 336 -320 -38 0
10 264 79 -268 0
-95 432 493 -191 0
-167 3 82 442 0
-426 52 -192 361 0
164 272 388 -295 0
-29 -30 83 -383 0
-396 236 215 66 0
328 -13 74 67 0
394 335 -112 451 0
-143 -487 -404 25 0
-267 261 188 -32 0
65 -431 -139 118 0
-78 459 477 328 0
128 -37 332 436 0
-263 353 -228 167 0
113 428 283 -205 0
-70 -436 -406 304 0
-401 234 400 -45 0
285 80 103 -234 0
235 -283 124 -146 0
407 -38 -81 -464 0
240 247 495 -1 0
-477 -498 -171 101 0
498 -393 -150 -450 0
485 -195 335 -259 0
299 -361 -40 17 0
192 -208 -454 -1 0
-133 -33 -345 -296 0
12 -359 46 -61 0
495 -96 -336 480 0
-59 -249 -93 -14 0
230 -117 -265 -313 0
46 -36 -109 -338 0
440 131 416 47 0
-420 -170 -209 98 0
-324 -19 10 -184 0
-380 271 -42 -155 0
-178 52 364 -360 0
183 19 21 -180 0
252 -339 160 111 0
272 -277 391 -351 0
-160 -312 -69 279 0
-450 442 173 400 0
-41 -152 483 277 0
-122 -81 -346 78 0
90 268 146 -461 0
-71 411 346 -391 0
-353 -380 9 -333 0
278 383 -324 -77 0
184 -219 282 499 0
161 -448 -64 370 0
243 281 -329 373 0
29 -58 191 167 0
469 -203 457 2 0
-193 -8 27 149 0
-64 -68 127 378 0
-196 19 433 36 0
-183 344 -220 279 0
-255 -475 -217 -203 0
489 449 -427 -124 0
301 264 -496 -43 0
295 62 475 255 0
250 198 191 149 0
-90 58 -112 262 0
183 -397 205 119 0
419 178 -393 -342 0
462 -159 427 -261 0
352 -238 -317 -267 0
157 44 12 -96 0
-476 195 308 -80 0
477 140 275 -107 0
98 -436 -337 138 0
75 223 17 -194 0
-270 -73 246 -38 0
27 247 -59 444 0
-346 -305 479 459 0
139 -194 -480 -95 0
-215 311 50 -323 0
70 324 -179 366 0
186 219 441 99 0
-66 -329 208 -338 0
-338 -335 133 167 0
-105 287 317 30 0
202 61 -150 -13 0
183 337 -159 33 0
29 -361 491 -306 0
475 479 265 -470 0
-384 -206 -303 -154 0
430 -344 32 345 0
338 402 -408 472 0
321 -379 -55 -391 0
84 -45 118 -367 0
479 -129 -378 -241 0
80 324 297 -79 0
-454 -74 291 435 0
-67 -359 -207 -154 0
110 334 412 -388 0
-129 180 -461 -224 0
-91 491 -171 -122 0
-158 72 278 185 0
67 427 213 -321 0
-412 -368 435 -121 0
-406 -195 -211 148 0
107 300 -352 414 0
172 183 -264 90 0
-190 171 -220 371 0
464 387 -195 -351 0
-194 136 25 311 0
-160 355 -201 375 0
-390 61 -87 -72 0
-237 56 268 -195 0
398 -288 -45 -298 0
-149 -222 -126 254 0
467 286 1 -306 0
52 -300 -54 -355 0
-344 469 231 269 0
-102 493 112 -463 0
321 -363 264 469 0
-52 -71 -183 354 0
-110 132 68 63 0
-468 404 -13 -25 0
-8 162 83 -451 0
-204 -88 452 -291 0
-12 -248 408 262 0
270 -317 11 -25 0
91 -331 483 472 0
137 -210 254 -58 0
-242 -319 -331 361 0
384 90 -472 198 0
113 442 76 181 0
-155 324 190 -27 0
101 -86 -55 406 0
-234 -202 353 59 0
159 -237 -226 -124 0
-464 400 -207 54 0
-359 -120 47 -437 0
-365 393 23 63 0
19 -499 -61 -493 0
-344 367 350 191 0
-365 274 -242 267 0
448 242 344 196 0
248 232 -227 -228 0
-313 -282 374 -190 0
-272 205 111 99 0
-366 284 174 236 0
-323 -243 341 -418 0
238 -426 -453 468 0
-476 -398 425 471 0
348 -70 347 -330 0
141 340 -313 280 0
31 -333 203 293 0
414 86 -463 -273 0
337 -262 -272 -346 0
14 312 259 -244 0
-35 396 397 7 0
440 335 -310 -283 0
106 -111 314 208 0
363 177 248 264 0
455 254 184 390 0
151 -236 87 -28 0
-493 299 55 -482 0
-43 366 425 172 0
-12 -326 118 266 0
-275 -345 -89 -166 0
-385 -2 344 293 0
290 -193 -36 390 0
-55 197 298 -72 0
468 -339 103 -81 0
-218 283 -93 -239 0
310 -224 -16 307 0
-362 4 -270 429 0
-64 -68 485 309 0
347 367 -359 212 0
-354 -222 55 236 0
-435 -85 56 -196 0
-227 294 -63 98 0
-463 182 225 -333 0
-158 -48 327 325 0
72 266 375 285 0
-191 -207 429 472 0
-378 2 440 -316 0
445 468 -282 89 0
-307 -496 228 219 0
296 -353 301 255 0
313 389 281 -358 0
-350 -351 -226 315 0
212 117 369 29 0
-160 -230 472 131 0
301 -442 491 -293 0
425 316 -500 -69 0
70 330 39 50 0
-325 471 152 -259 0
-236 -172 288 -413 0
-197 -106 -306 -329 0
494 -71 146 -23 0
330 478 -312 -413 0
-298 120 -62 -479 0
25 5 -115 458 0
376 -378 166 53 0
368 -450 342 379 0
-485 -293 -368 -23 0
38 119 80 479 0
414 -299 -150 -355 0
314 -95 -28 405 0
292 -368 -396 -61 0
236 -108 432 -349 0
390 270 -471 222 0
347 499 394 12 0
-94 435 193 -283 0
187 -485 56 -408 0
17 190 336 -50 0
-491 -288 452 67 0
-369 -383 167 -362 0
-2 -243 364 310 0
-455 190 -104 -197 0
-296 -230 34 -107 0
-264 -268 -371 387 0
-216 -327 53 -190 0
264 -188 -99 335 0
-452 467 407 302 0
-140 340 -397 -311 0
398 75 85 -347 0
-15 32 469 153 0
-54 77 368 82 0
-263 368 -411 192 0
307 496 -453 113 0
104 -345 -492 -152 0
267 -438 123 88 0
489 -454 389 500 0
142 -219 -163 -450 0
254 234 257 -175 0
-297 -282 -341 286 0
-385 252 356 -468 0
-185 -447 -386 216 0
436 440 9 -434 0
248 355 54 -337 0
24 -218 -348 356 0
-259 285 -12 -13 0
-482 439 -356 -281 0
59 -73 -56 186 0
-130 -149 54 -336 0
152 -317 397 308 0
-498 -34 -50 -332 0
-347 498 -35 -290 0
-96 -225 -380 -395 0
-161 285 -22 288 0
229 58 214 166 0
-45 56 303 -353 0
-115 -210 -472 292 0
-335 -189 -156 3 0
-326 260 -417 456 0
358 -396 441 213 0
-255 60 298 -132 0
351 -95 146 158 0
21 -121 -293 61 0
478 -311 7 153 0
299 -276 418 -285 0
-267 -59 -273 -175 0
-303 -157 -288 -249 0
-42 -266 48 431 0
354 210 -245 445 0
371 -480 62 -437 0
70 -374 15 -442 0
367 -243 -420 -447 0
-452 425 -395 -374 0
-434 -233 388 -11 0
-16 276 48 -243 0
300 -152 -370 335 0
-14 -484 59 279 0
-218 40 114 89 0
-109 498 -376 -259 0
102 63 121 65 0
-193 160 204 -171 0
237 -68 -309 -51 0
-290 223 -108 -277 0
102 -264 431 -161 0
-346 -12 -424 220 0
-256 -294 499 41 0
-419 201 234 90 0
327 -256 -121 287 0
-259 155 -42 90 0
-154 453 223 253 0
318 -221 317 365 0
-64 -282 -495 484 0
390 -311 398 319 0
10 134 301 -330 0
-270 -491 -232 -60 0
43 -156 -286 -403 0
255 484 180 152 0
-221 66 429 -152 0
-240 458 175 475 0
-225 442 -246 361 0
-390 -487 -224 -358 0
26 -448 463 -45 0
-325 226 -2 -30 0
-66 -235 -478 -118 0
12 207 -406 62 0
-183 245 -394 -466 0
-14 260 294 -177 0
-116 194 340 146 0
-486 197 49 -367 0
431 -382 -353 452 0
-12 307 437 81 0
-344 -346 276 405 0
100 -449 -291 160 0
-430 -230 -472 -266 0
-94 95 362 182 0
-291 236 67 -474 0
-154 228 86 265 0
-227 454 353 215 0
-158 359 266 -13 0
154 -52 -398 -2 0
-285 233 141 -387 0
129 32 -184 136 0
160 420 -242 425 0
422 -25 272 258 0
-87 276 72 45 0
-274 57 -235 -483 0
353 -236 -136 187 0
467 -362 -456 -488 0
-20 -166 -206 267 0
246 42 421 125 0
118 -233 342 -322 0
278 291 -122 -215 0
-356 -440 -218 -54 0
-472 -240 -168 244 0
249 -332 -21 -14 0
-326 270 127 -395 0
465 265 485 -77 0
-476 -407 256 1 0
385 -173 62 166 0
-105 -164 -245 -86 0
-449 -201 -426 -185 0
-359 193 222 373 0
139 382 -348 -227 0
-181 -471 -124 -100 0
-143 -148 -56 -47 0
344 -489 250 203 0
-31 45 -492 403 0
-284 -53 -140 -431 0
-185 -220 -479 -235 0
-232 64 227 445 0
430 -426 -227 355 0
-361 -498 -235 439 0
101 99 357 -33 0
-131 -186 284 -97 0
42 -425 460 134 0
-128 -139 -148 355 0
-366 120 -228 -249 0
229 -272 -301 -334 0
390 -387 -87 21 0
143 -183 497 -297 0
297 -340 466 -394 0
-318 111 322 480 0
91 331 240 375 0
-255 488 214 299 0
269 -388 103 -197 0
-460 -453 -48 -377 0
30 147 131 116 0
79 324 -163 491 0
268 -444 128 272 0
450 -44 82 302 0
128 -165 323 359 0
88 -126 394 -403 0
163 -470 -387 441 0
-34 431 375 -235 0
53 -39 38 -154 0
295 -59 -104 224 0
21 130 -338 264 0
224 332 -440 -450 0
-431 285 256 92 0
-434 344 -462 -122 0
-179 308 298 -196 0
-305 347 30 -480 0
-22 -417 282 151 0
357 -222 -397 281 0
152 -37 -358 -410 0
-418 24 -62 61 0
-369 -194 331 68 0
-163 -233 -63 -178 0
-81 311 158 317 0
-84 -199 -221 -67 0
-360 119 -216 -347 0
147 170 418 296 0
353 -382 -39 -412 0
261 37 -82 -166 0
-353 199 -380 468 0
142 272 54 -134 0
-202 478 242 -468 0
-495 189 253 313 0
-188 194 -327 262 0
398 -90 149 194 0
-104 71 -197 241 0
14 -473 -390 307 0
-322 203 315 -482 0
-418 276 -1 -396 0
-53 -498 298 146 0
-136 411 82 471 0
-70 -198 -303 257 0
142 -499 -323 -265 0
125 -316 30 435 0
-157 13 264 167 0
493 -128 402 376 0
195 52 -35 -209 0
423 32 -418 -158 0
-374 491 94 -310 0
85 -333 173 207 0
113 226 63 22 0
-288 -312 -387 -10 0
397 -149 -152 17 0
-385 3 344 298 0
-177 -167 -102 422 0
-353 235 -38 147 0
-490 -404 256 135 0
-302 -59 -101 137 0
-106 -237 -12 313 0
-137 106 422 -79 0
468 129 259 31 0
478 -381 -277 183 0
-54 481 324 -444 0
-106 -47 -305 -82 0
-24 -221 421 -229 0
215 -343 269 496 0
-387 -183 96 -34 0
121 -201 -164 -494 0
-258 -166 -307 -83 0
-31 349 382 -252 0
-68 445 -489 224 0
265 286 384 372 0
-476 233 -351 131 0
207 379 194 -53 0
-223 -145 111 131 0
-412 233 -376 238 0
446 -249 -98 -382 0
-347 52 -456 -111 0
-291 234 -231 -416 0
359 415 433 -199 0
-233 -393 17 315 0
-13 269 43 -128 0
-480 -321 466 1 0
496 148 -175 -367 0
352 -231 -378 -210 0
323 -474 -284 445 0
465 497 321 -199 0
256 168 -347 76 0
77 43 -147 19 0
-138 427 359 279 0
-95 457 -378 -74 0
-452 -277 84 -230 0
182 -106 154 -340 0
216 260 269 -117 0
202 -211 284 -427 0
-419 -175 -462 416 0
-112 238 176 -326 0
-150 294 32 477 0
-346 -254 -245 -278 0
-28 78 -246 -85 0
-55 46 412 63 0
-155 184 249 354 0
348 5 -428 51 0
-190 176 -232 6 0
-303 57 255 -271 0
-365 227 -54 358 0
113 -346 481 -152 0
237 415 -369 442 0
119 379 362 48 0
-217 -360 -135 341 0
-435 126 140 167 0
-376 -332 -98 135 0
319 292 214 -472 0
-11 -80 -73 402 0
-315 222 -216 15 0
135 -481 -436 116 0
-33 492 -321 46 0
-258 -443 -47 -154 0
323 -359 335 -481 0
-276 154 280 -91 0
499 250 -437 -458 0
-79 -463 132 -34 0
-389 -172 8 33 0
416 -314 458 -466 0
3 -488 337 -421 0
-481 -21 -396 174 0
295 -77 -76 304 0
341 467 -65 -313 0
-217 497 477 -416 0
471 279 326 -140 0
-313 -419 418 191 0
134 -108 -233 -102 0
-452 -372 -225 -331 0
6 198 264 97 0
-414 -429 39 -206 0
-225 168 321 -177 0
285 -343 342 420 0
-145 289 399 446 0
425 -177 -359 -153 0
144 368 -83 -358 0
-182 301 -241 -373 0
452 -275 244 242 0
-301 103 294 -120 0
379 -476 -296 -132 0
-41 -54 -462 -7 0
-130 328 -305 284 0
340 418 -389 289 0
51 492 -201 247 0
-153 -28 497 -175 0
-393 -483 272 77 0
-125 46 42 -496 0
428 274 -219 -316 0
-484 -98 365 -353 0
85 -353 -114 -176 0
-101 263 45 135 0
-23 -425 -34 267 0
414 -88 -285 186 0
-270 492 420 -298 0
-66 170 -123 380 0
401 -432 20 298 0
274 -438 231 -100 0
465 478 324 227 0
421 372 98 301 0
-150 -395 367 -338 0
-213 -9 -15 -103 0
-183 -346 -106 478 0
126 59 -500 415 0
175 196 443 -432 0
304 -217 -325 485 0
496 -33 100 -96 0
-489 -180 267 120 0
-364 -338 150 -286 0
250 423 -149 -24 0
-89 79 -214 305 0
50 -426 243 -187 0
-231 421 -154 219 0
58 -395 -83 255 0
-45 -374 -252 192 0
68 -153 49 383 0
-415 -378 260 388 0
308 -192 -417 -18 0
-219 492 -165 369 0
-77 231 -291 59 0
268 72 -336 330 0
482 -149 120 -266 0
-445 196 280 -441 0
-475 -17 139 469 0
-221 -21 -459 113 0
-363 101 7 -343 0
13 338 -274 176 0
202 -283 219 -413 0
-149 -318 73 482 0
88 -75 -122 167 0
-163 160 334 347 0
359 -387 -369 57 0
-489 187 -438 -368 0
318 239 -452 -314 0
212 449 -322 -79 0
-408 -54 217 360 0
-457 337 271 -52 0
105 179 -312 433 0
-113 446 263 -482 0
149 -498 165 302 0
412 -269 -1 -313 0
-271 -56 -255 225 0
-58 214 -345 368 0
-97 -411 -113 -219 0
-451 -45 95 319 0
-333 180 -401 127 0
-36 372 231 105 0
454 -68 88 -421 0
289 43 130 152 0
6 -346 -121 -325 0
-273 412 58 346 0
-477 489 444 -271 0
-490 -77 220 -238 0
-244 60 -486 -1 0
-495 465 428 330 0
202 435 32 479 0
-86 113 -213 72 0
-83 -374 209 -302 0
491 -143 370 -245 0
327 412 -462 263 0
165 436 142 -230 0
133 -333 -7 414 0
-55 -225 -100 -203 0
-81 328 34 -228 0
416 -69 318 -171 0
322 90 249 -25 0
-420 249 -427 -326 0
-212 297 146 186 0
418 -98 -328 -189 0
-213 -74 -244 -142 0
372 -185 -470 -106 0
272 121 -306 48 0
261 -498 -464 475 0
312 -446 293 -232 0
-113 -142 -171 386 0
292 -372 89 -398 0
-256 259 290 54 0
446 -58 -365 -152 0
316 184 -307 -287 0
-91 39 -160 395 0
484 -411 -71 16 0
-70 -245 -497 355 0
-54 34 -139 288 0
-129 -230 149 403 0
295 90 -157 -125 0
308 350 306 -141 0
172 -296 -96 302 0
-93 8 177 -480 0
303 392 -131 -491 0
368 199 -374 -377 0
380 190 18 -358 0
-17 239 477 -181 0
-423 -117 -161 -13 0
-313 331 16 328 0
71 299 292 451 0
171 414 47 483 0
-25 225 102 -455 0
-463 -295 -107 204 0
314 466 -353 492 0
-393 -334 151 -222 0
-34 -348 -111 -287 0
495 -40 -270 433 0
150 417 209 185 0
338 98 450 -433 0
343 -444 -256 -266 0
-241 -494 -450 -497 0
284 -286 -356 47 0
44 -267 -138 -308 0
-396 -109 -201 -280 0
-142 208 -497 410 0
378 -52 469 326 0
-461 -242 238 -427 0
-263 404 -245 -22 0
10 2 173 332 0
110 21 3 127 0
-165 403 -180 -17 0
309 -466 -40 -368 0
278 495 -36 -159 0
-210 455 119 -398 0
51 43 -354 -321 0
44 -332 16 156 0
278 79 -250 -318 0
-18 410 239 26 0
171 150 321 -282 0
-43 -102 -173 273 0
340 409 408 -122 0
150 -318 92 438 0
333 317 335 -361 0
-249 -488 -371 -27 0
430 -457 -93 -68 0
-130 -481 489 343 0
109 57 87 -207 0
-295 242 197 24 0
379 -434 -76 -37 0
373 23 -110 269 0
-354 -364 -53 -367 0
469 136 -477 -75 0
251 365 470 -223 0
-284 -109 418 225 0
-115 -20 -299 201 0
65 -152 156 444 0
169 -367 283 -204 0
-80 -148 -20 -104 0
-267 44 -66 344 0
210 -319 -219 -70 0
-360 -71 -388 2 0
-81 -413 374 242 0
463 175 -185 225 0
-236 266 -284 -204 0
-135 404 319 263 0
371 -403 -471 479 0
306 257 -217 44 0
-499 58 39 -150 0
311 308 -54 483 0
408 -175 -50 -26 0
315 299 483 -31 0
-99 -467 -300 -470 0
-354 149 -289 262 0
247 191 -445 -26 0
-98 -407 -91 291 0
172 33 139 -144 0
381 430 31 -47 0
94 -141 -362 -50 0
412 -184 -474 131 0
450 154 -319 233 0
29 -488 -262 -103 0
-458 128 179 -101 0
-225 57 -328 348 0
-417 -248 399 -348 0
359 14 -498 283 0
-331 136 -499 452 0
344 -122 -4 -427 0
16 -233 -31 5 0
-354 451 -118 -315 0
114 470 -349 -266 0
-269 -95 -200 287 0
48 453 118 163 0
-119 -330 -490 108 0
88 458 443 -79 0
463 -498 70 -22 0
-208 212 265 -489 0
484 -341 335 -372 0
-378 246 356 119 0
164 -268 395 -259 0
37 -55 -157 387 0
484 146 -75 -252 0
7 -260 313 -243 0
471 87 461 129 0
-228 -235 413 -209 0
211 -443 -7 36 0
54 248 -151 239 0
-351 -486 288 -444 0
-435 152 -44 308 0
231 -125 329 105 0
-413 -398 198 275 0
-57 219 -172 -153 0
225 -226 -160 -6 0
26 409 452 78 0
403 156 -442 159 0
207 -300 -49 2 0
9 87 -84 444 0
417 258 -151 -234 0
-54 175 -251 -78 0
-493 -407 -34 -161 0
-402 -274 419 26 0
-401 127 287 -314 0
383 -451 -128 424 0
-281 411 252 2 0
470 -292 -456 -153 0
412 -441 88 -179 0
398 479 -496 73 0
314 -84 99 11 0
-347 -68 -420 -423 0
158 53 -337 474 0
-282 -364 -5 -340 0
219 -287 -67 129 0
-79 -381 -311 -267 0
-187 -32 236 387 0
-171 -414 52 -334 0
-278 -284 109 397 0
252 -62 3 -379 0
25 -393 22 251 0
199 309 -264 -80 0
484 167 365 -154 0
-325 196 -66 28 0
-112 -86 417 155 0
-16 -89 49 135 0
-317 -183 495 197 0
206 84 -283 267 0
401 281 -308 -200 0
-192 -327 -476 -333 0
339 -453 -251 -163 0
244 -181 -100 307 0
-132 -223 420 -315 0
-237 185 -354 -184 0
144 473 -460 -332 0
231 -226 167 -329 0
-213 258 91 -154 0
402 57 -368 -475 0
360 3 -51 -460 0
395 -99 263 -112 0
217 340 -139 -301 0
408 342 -322 215 0
-51 -207 191 378 0
246 -72 169 -374 0
399 181 -426 -384 0
299 350 117 389 0
-373 224 -469 451 0
168 349 151 271 0
426 -321 -158 430 0
-413 242 174 -487 0
339 158 50 117 0
-148 -42 32 -218 0
299 213 248 -401 0
109 -245 203 94 0
288 488 -168 473 0
398 -359 461 -453 0
-424 -62 195 -215 0
-292 -284 -225 88 0
-6 346 -225 -50 0
-368 106 228 109 0
-214 -377 366 -359 0
-76 -187 -424 218 0
225 53 -185 360 0
-97 -234 18 -273 0
103 -276 360 287 0
-207 -206 -84 -86 0
177 -191 -356 172 0
-169 -388 -418 -409 0
353 391 -300 368 0
386 495 -116 361 0
-289 -270 -114 -143 0
-190 -459 494 486 0
-333 16 352 14 0
362 110 -387 377 0
-418 238 301 273 0
200 -260 -452 181 0
-428 -358 -500 -331 0
420 -187 346 -366 0
-216 168 -279 3 0
-291 106 487 -219 0
461 -137 -290 -186 0
-313 -8 75 -451 0
116 310 141 -66 0
302 373 333 395 0
317 -253 -279 -267 0
40 -215 -14 307 0
-204 -496 89 -231 0
123 -387 -128 -90 0
-472 34 -156 25 0
143 -85 229 30 0
162 236 145 143 0
178 -305 -456 418 0
-43 96 109 413 0
329 267 324 -164 0
378 -367 -202 402 0
59 421 449 -25 0
-354 382 178 -500 0
-496 172 44 -241 0
-24 387 40 119 0
-448 232 53 419 0
-484 328 320 -4 0
147 95 332 299 0
-258 377 -472 104 0
-204 287 200 60 0
493 236 300 62 0
154 381 -380 263 0
-244 313 -147 189 0
374 -228 -389 23 0
-302 -165 274 400 0
-179 -229 170 -26 0
296 -134 -190 -368 0
-388 -379 -468 -101 0
-86 488 -472 208 0
-242 32 9 271 0
428 -307 306 285 0
-287 -318 20 221 0
-215 118 -426 10 0
15 213 -241 409 0
73 -102 -482 -182 0
-47 243 320 -16 0
373 421 -268 254 0
388 -372 -410 -330 0
-448 431 -205 -253 0
129 -500 300 167 0
-211 -314 -252 262 0
-179 -197 366 -145 0
425 -113 369 2 0
312 171 66 -343 0
244 -262 -270 95 0
38 -282 113 99 0
47 -383 -326 -86 0
-90 -77 66 -223 0
300 477 320 147 0
453 85 4 -479 0
377 -272 22 -488 0
279 444 -371 58 0
-24 -267 445 184 0
-280 363 -227 -418 0
-271 -207 456 73 0
-22 142 -365 -414 0
-26 233 -361 -354 0
343 -439 334 14 0
-86 42 89 -337 0
107 317 -430 -286 0
-334 -179 223 93 0
298 183 -62 30 0
37 450 -31 -14 0
361 259 -343 -152 0
-178 31 -115 213 0
-446 -240 23 -110 0
469 -410 292 -29 0
-119 -174 35 297 0
-381 316 391 181 0
-36 375 -481 -470 0
-161 222 -153 -341 0
-453 -236 -353 488 0
135 9 83 -327 0
239 406 21 -3 0
-473 -254 94 -442 0
-155 -190 -287 -330 0
-279 269 -253 -488 0
-419 425 -84 107 0
-1 -287 -149 41 0
72 208 336 484 0
53 -143 20 -364 0
-417 29 -118 46 0
50 -331 60 79 0
-306 76 344 146 0
85 -470 -86 -255 0
-471 -384 -354 -31 0
438 218 -493 -422 0
-61 -446 300 306 0
-431 127 -192 485 0
168 266 -136 375 0
-79 158 -283 -467 0
-498 -311 320 276 0
-485 17 -163 -494 0
122 252 11 -51 0
-318 220 433 -34 0
-482 250 -367 -205 0
454 36 214 378 0
420 400 -378 405 0
400 -438 -193 -24 0
198 139 426 448 0
392 -216 286 363 0
193 -179 -18 -326 0
209 -71 193 392 0
-355 -344 264 -381 0
302 78 500 -42 0
306 66 -78 49 0
-399 238 35 -382 0
-231 95 -475 109 0
396 -418 75 90 0
29 379 173 -446 0
-318 90 43 -131 0
175 -108 -217 146 0
-219 -358 26 133 0
261 252 -135 -21 0
114 -305 -111 377 0
186 207 128 -292 0
457 327 -402 -257 0
-239 439 415 -92 0
451 28 66 474 0
39 -104 -293 486 0
-500 55 334 107 0
-378 -83 272 447 0
232 -38 229 -481 0
-400 -402 214 244 0
339 -296 -143 429 0
18 216 -277 -111 0
-171 -236 8 -37 0
-298 -455 290 169 0
404 -11 286 -14 0
-284 -286 426 -350 0
-433 -498 267 -285 0
241 -382 487 -129 0
-249 -320 -1 -142 0
424 -102 -94 -278 0
-206 -331 145 -370 0
-405 213 39 -49 0
498 -327 477 475 0
400 360 208 -280 0
-277 169 -399 97 0
468 -409 156 -27 0
329 -152 78 -389 0
-241 -131 -77 365 0
-359 460 -365 302 0
-240 -488 105 -77 0
291 -321 -196 -49 0
-373 424 -255 267 0
308 213 -84 -358 0
198 5 4 -23 0
-429 93 -120 448 0
-271 -405 438 499 0
-150 97 65 -154 0
75 398 184 451 0
307 -232 -37 464 0
152 148 -39 38 0
-389 -399 -252 464 0
-250 -447 55 488 0
403 334 -449 362 0
228 344 225 -424 0
442 155 219 -151 0
348 301 324 60 0
404 136 -346 124 0
328 467 -365 337 0
-296 -88 297 178 0
-367 -3 38 402 0
-45 480 430 -426 0
429 421 -153 341 0
-399 -118 418 -314 0
-35 66 405 245 0
-65 -365 -199 -62 0
-178 -340 493 346 0
246 -220 -177 315 0
68 -116 -490 214 0
-113 -403 -471 -466 0
-190 461 -408 -30 0
6 457 -245 -472 0
-217 85 -437 -34 0
229 393 -157 -16 0
-238 278 -133 -357 0
365 -7 282 460 0
32 174 -207 8 0
441 215 -463 -98 0
340 259 272 -131 0
421 58 52 -468 0
141 59 -461 368 0
-343 -230 444 -197 0
431 -61 -303 -438 0
180 -6 -42 -361 0
-233 369 310 -92 0
307 -63 -460 375 0
69 426 -378 208 0
-89 402 -118 -306 0
67 -249 438 -352 0
-263 -336 -362 198 0
137 -445 152 -201 0
371 114 336 -32 0
-416 -224 147 -63 0
-213 221 182 -77 0
-407 -470 -437 -401 0
-464 -456 338 478 0
316 -10 288 461 0
489 161 198 -165 0
-87 63 -458 -302 0
93 -389 497 92 0
-250 324 12 -483 0
483 -17 -57 -132 0
-450 268 -122 232 0
54 -483 -65 402 0
-138 115 -319 129 0
349 -269 410 -426 0
-62 98 -417 21 0
-100 -358 166 -261 0
-27 455 -318 500 0
310 -52 273 -12 0
-178 161 -407 489 0
-13 -277 -66 -218 0
263 -76 114 493 0
1 419 348 418 0
-184 117 272 -59 0
365 350 -50 -69 0
-364 471 -365 288 0
-456 -413 280 -478 0
237 432 -314 312 0
29 -25 210 -372 0
397 -369 -192 409 0
128 487 242 175 0
-269 183 366 91 0
20 -492 275 -297 0
-284 -84 -14 278 0
445 -194 -258 -107 0
-52 -297 100 -350 0
134 -247 257 256 0
-276 414 50 -20 0
-380 -369 -150 225 0
-92 65 -23 296 0
-314 -179 -124 -427 0
-80 70 -255 -165 0
-313 -262 274 -194 0
466 273 457 -329 0
424 -300 278 146 0
-69 -39 -343 -42 0
-419 256 210 -488 0
166 -324 -69 267 0
455 -144 437 75 0
464 245 137 207 0
98 164 242 -376 0
-312 -444 98 -325 0
442 295 11 428 0
-93 265 -416 -126 0
-288 149 218 -425 0
-159 161 133 421 0
-455 134 -55 316 0
119 422 -78 -136 0
31 -327 -162 -377 0
199 -84 70 -33 0
-497 -40 -358 203 0
36 -390 -499 -492 0
-2 276 297 476 0
-226 -480 -34 -375 0
330 345 -384 485 0
-273 229 327 -439 0
39 15 77 337 0
-409 -177 321 247 0
-251 -122 373 482 0
-294 -124 491 414 0
255 -94 -121 -43 0
-172 283 142 143 0
209 -184 -275 52 0
-131 464 -348 205 0
486 17 186 492 0
-333 334 347 -366 0
420 231 301 96 0
94 104 87 -51 0
129 331 -137 -94 0
-198 -115 -157 180 0
-330 -190 230 -229 0
425 -391 198 162 0
375 -230 35 56 0
-353 431 430 -9 0
383 -356 -23 217 0
-196 -82 -476 -386 0
280 487 151 -97 0
283 -68 15 -95 0
324 -260 -96 190 0
165 -445 -198 341 0
-440 -354 142 272 0
-1 415 97 257 0
184 187 150 395 0
-218 328 -422 402 0
411 437 70 -180 0
231 9 107 -439 0
301 134 -438 -201 0
-181 490 -381 443 0
-324 -79 373 482 0
-425 474 307 -224 0
-312 85 424 147 0
-421 -310 -155 396 0
134 50 113 -430 0
-243 57 -112 69 0
-189 -113 -289 -212 0
-219 88 77 409 0
220 -369 152 448 0
265 313 412 -493 0
281 -497 1 -231 0
-87 -225 -316 451 0
286 -405 -292 -202 0
-322 -254 414 278 0
-433 -394 -199 -440 0
-442 285 308 139 0
-12 402 464 -159 0
-42 170 481 -244 0
461 -41 -378 297 0
101 220 -11 -12 0
186 -404 -483 -21 0
431 -410 205 -18 0
-288 200 184 130 0
-422 216 -196 -178 0
-471 288 267 242 0
393 300 26 71 0
-154 -237 373 -399 0
136 -12 396 257 0
392 144 350 194 0
337 431 -305 418 0
-190 111 -300 168 0
251 152 -189 -85 0
-377 230 184 84 0
-238 201 360 -422 0
-92 -336 342 119 0
-302 93 -199 136 0
163 -460 359 -81 0
-171 439 302 138 0
251 290 245 -296 0
-142 -127 -137 -1 0
-375 106 -315 306 0
-429 -116 -384 -92 0
-313 -342 257 -464 0
276 342 -245 -141 0
148 -151 306 -52 0
57 -141 -142 -273 0
-450 -483 -87 238 0
-62 -264 -246 361 0
-58 -338 -333 146 0
-144 -457 372 -184 0
-335 -293 -493 343 0
438 -396 451 -26 0
242 375 207 -83 0
322 114 336 223 0
210 -24 -140 246 0
113 223 -73 414 0
132 98 4 -324 0
-418 446 -300 -279 0
-103 -470 258 499 0
14 65 373 -219 0
-117 -418 5 246 0
298 305 144 -213 0
2 -181 183 84 0
-259 -412 -176 -272 0
299 291 -203 328 0
376 -162 -469 -225 0
-259 462 -272 -136 0
407 -134 -320 400 0
-368 -220 378 89 0
-403 480 -376 -436 0
-5 -276 -454 -20 0
-287 366 -178 -329 0
390 -214 421 430 0
-419 -270 88 -358 0
-339 -475 96 -161 0
-13 184 -352 201 0
174 -17 -366 -159 0
490 -72 -366 25 0
-63 493 -343 316 0
-2 18 52 70 0
158 412 335 -278 0
-222 411 -50 454 0
-451 -95 405 391 0
-84 5 -386 24 0
167 -147 -231 361 0
-481 496 -40 406 0
-203 -415 417 248 0
-153 37 395 388 0
273 -358 292 -452 0
2 78 128 -12 0
-31 307 205 -359 0
-32 -436 450 -91 0
426 -457 -164 65 0
461 107 -147 -223 0
418 -227 -339 169 0
-487 70 35 -250 0
183 -1 397 -151 0
433 -1 82 451 0
382 -383 -430 392 0
65 394 422 -136 0
19 -185 353 -8 0
432 85 11 36 0
93 344 -142 436 0
-498 -372 174 -368 0
-272 293 -490 410 0
20 -469 -46 289 0
440 173 146 -443 0
-436 -89 213 -361 0
400 398 470 -143 0
-330 -18 267 -471 0
-116 36 -337 199 0
-137 170 -403 -252 0
-1 -375 37 -214 0
68 -413 60 420 0
97 276 -121 -487 0
107 443 133 -120 0
-111 -333 -257 407 0
303 420 14 -11 0
-365 -322 446 -497 0
-499 274 198 -141 0
-264 321 -499 -149 0
-66 -487 -367 102 0
138 307 17 -50 0
43 -492 -428 327 0
-452 -182 -126 -62 0
-265 468 -110 -445 0
-268 -107 191 -325 0
234 -304 479 415 0
-438 178 -151 -5 0
62 -290 332 409 0
-372 46 -483 84 0
309 349 311 -477 0
-232 -230 -325 20 0
-274 -286 -496 -39 0
-287 396 210 309 0
1 76 -219 236 0
-376 149 -449 -474 0
174 341 462 -90 0
-163 -30 -463 176 0
419 -446 -60 -330 0
-471 200 -195 -165 0
-170 -263 -392 240 0
482 -331 286 -2 0
436 -350 370 327 0
-72 216 182 185 0
150 413 434 -110 0
-133 -17 -432 394 0
182 -349 -124 449 0
-483 -372 471 469 0
-230 248 -89 368 0
-352 -79 215 -446 0
-156 268 28 -320 0
338 -136 -246 244 0
-424 -319 411 468 0
-168 382 -241 -312 0
74 -182 -450 313 0
-102 153 489 -479 0
-298 404 -381 400 0
-352 -481 276 -483 0
-286 184 -308 -54 0
350 -268 -62 -218 0
-369 312 396 419 0
176 -413 -350 -92 0
-403 -133 62 272 0
-44 -6 311 -152 0
453 -260 498 -370 0
115 78 194 285 0
133 -235 43 -370 0
122 369 -203 -498 0
187 -142 -137 -155 0
-215 158 -33 -19 0
425 173 179 -414 0
-419 155 -453 149 0
195 -62 313 409 0
-253 -476 -23 347 0
475 374 186 -416 0
-441 -156 165 -268 0
67 353 -270 120 0
-304 427 346 -324 0
-172 468 218 331 0
256 28 -253 438 0
312 -147 332 -15 0
-306 -59 400 316 0
177 350 362 43 0
240 -319 -446 -316 0
372 -374 -48 -108 0
-113 -303 399 382 0
292 398 -220 465 0
238 -226 455 483 0
-227 29 343 338 0
362 -468 324 52 0
214 -92 -248 -117 0
-197 52 -423 181 0
-488 463 284 466 0
468 1 401 -164 0
-382 -32 -197 -292 0
-462 455 190 -51 0
363 412 377 -135 0
64 406 391 437 0
161 388 -244 -148 0
284 -403 -175 -245 0
-386 160 346 413 0
-170 -136 -110 193 0
174 293 409 211 0
126 420 -78 -287 0
435 65 -426 -112 0
212 -62 -90 74 0
-284 -228 -330 103 0
385 42 295 418 0
63 283 -301 464 0
-382 458 -344 -127 0
156 -379 458 -380 0
220 -2 -308 140 0
274 232 357 -476 0
23 236 -497 335 0
469 -15 -214 197 0
141 435 -253 15 0
-442 -303 258 -82 0
-436 -285 400 335 0
-143 192 -300 61 0
-230 124 -425 -251 0
-32 -217 417 -102 0
122 -66 -95 -294 0
-151 478 183 5 0
96 17 270 237 0
125 -7 160 -305 0
-126 266 439 -283 0
-117 -7 -320 251 0
-79 271 234 484 0
241 120 -267 188 0
157 122 370 283 0
-301 -105 -474 -360 0
117 -500 -335 -20 0
-133 -252 -95 333 0
21 136 -45 60 0
-152 -433 -15 -381 0
252 269 -182 -294 0
86 58 -354 140 0
-428 -380 121 479 0
-46 275 56 -302 0
323 174 -275 349 0
-428 -56 336 -446 0
53 425 -83 275 0
-199 -23 -469 171 0
268 443 -396 197 0
151 -497 -456 58 0
483 387 60 254 0
-25 -393 -33 335 0
-434 -28 -67 -483 0
-18 -54 99 113 0
-339 -426 -333 -50 0
188 320 187 -230 0
313 206 186 497 0
-146 -310 116 -101 0
285 -336 -304 -126 0
-39 -198 255 -286 0
-474 -118 348 226 0
67 -222 -120 477 0
-386 26 -210 332 0
-173 169 -242 142 0
233 -210 -37 -309 0
-139 335 -239 -250 0
-91 181 -481 54 0
-327 -443 471 186 0
26 150 -411 -112 0
-418 -30 -315 -136 0
248 10 71 109 0
316 -375 484 -218 0
229 145 418 55 0
-347 -204 -53 -493 0
-370 373 -5 -318 0
-11 57 -24 -280 0
115 -344 -149 496 0
-323 236 -58 -241 0
-217 117 -498 280 0
-385 -408 -451 477 0
338 -170 -324 -52 0
73 -255 -206 486 0
335 -98 -318 -466 0
-55 -207 96 -491 0
-369 458 228 -329 0
318 -311 -357 370 0
409 -418 -157 -43 0
-490 -26 -475 -476 0
293 182 -252 328 0
89 -420 -110 -63 0
-90 290 -282 -204 0
451 -174 3 320 0
264 -314 245 -112 0
-139 -456 392 -68 0
404 495 496 255 0
-138 -144 -49 222 0
-21 -411 129 -454 0
-233 376 -445 -39 0
-486 -401 -221 31 0
-335 236 -494 -290 0
48 -351 459 -363 0
164 59 -400 -481 0
-329 100 183 471 0
85 155 59 170 0
-133 110 -250 357 0
111 -80 182 439 0
-136 -448 398 -263 0
-178 -123 -310 -154 0
-268 171 -466 49 0
-139 -388 475 481 0
-166 -39 -247 382 0
-338 155 193 -425 0
95 -184 -111 293 0
-12 278 -94 -187 0
-125 -148 312 415 0
-409 429 -419 413 0
-328 -71 -306 49 0
242 293 21 -264 0
-31 172 1 206 0
-98 -437 300 133 0
-251 88 -486 -77 0
-447 -155 263 -183 0
-140 138 386 83 0
100 108 391 -120 0
-475 -4 -316 -435 0
-333 -177 -198 155 0
-130 213 367 281 0
38 373 131 79 0
-217 -209 188 165 0
-475 39 247 -314 0
-341 -464 -351 -114 0
-351 -180 465 -418 0
64 294 -189 362 0
409 261 -100 160 0
-75 -177 389 -293 0
25 -184 468 -3 0
416 478 22 -447 0
500 -267 -176 -272 0
-187 -304 -19 -456 0
-326 -69 248 -497 0
402 274 -316 -43 0
-120 148 -345 -2 0
368 33 196 261 0
-307 -455 15 332 0
160 37 -48 -138 0
-114 133 264 -25 0
-370 438 303 -229 0
-148 86 281 -318 0
-368 97 -114 -431 0
-217 474 -34 314 0
232 -434 -264 229 0
300 85 -255 -45 0
365 -108 189 305 0
-101 21 -264 -62 0
-32 216 230 -127 0
-475 246 235 -61 0
35 54 170 105 0
291 -405 -60 348 0
28 -168 -46 226 0
-293 283 361 -453 0
91 -115 -398 310 0
475 -133 99 -300 0
294 -27 -422 52 0
248 -78 53 94 0
216 -159 -129 308 0
-292 432 484 110 0
-404 412 175 160 0
314 8 -121 120 0
233 -367 222 -202 0
175 -167 -438 -473 0
-475 253 290 -250 0
293 494 -498 -180 0
-140 -405 -185 -22 0
-424 -114 -297 321 0
41 33 136 164 0
-24 167 150 -456 0
142 -135 -323 33 0
365 261 391 -100 0
325 -92 245 183 0
247 103 59 342 0
235 445 70 -399 0
227 -92 -203 331 0
-158 391 254 -83 0
258 -380 -443 76 0
-31 -28 -220 -393 0
-343 181 -418 371 0
402 218 -125 343 0
34 121 -223 416 0
304 367 -103 -430 0
67 -345 190 -218 0
176 -80 302 -448 0
-179 -480 -254 243 0
418 -254 -479 -111 0
410 -206 -34 387 0
376 494 -464 -436 0
121 165 -81 144 0
-405 -458 97 487 0
103 170 421 76 0
214 386 -98 -432 0
-359 121 209 -435 0
-446 400 -214 129 0
423 -155 -386 83 0
-340 420 -324 190 0
44 -155 -464 -278 0
365 103 344 -405 0
-379 -473 368 14 0
50 -260 -46 352 0
-335 237 297 -314 0
147 -360 287 -133 0
97 -395 141 -450 0
-490 238 76 256 0
-345 245 174 407 0
217 122 -287 -493 0
171 -423 -288 396 0
276 106 -29 -279 0
-490 375 353 -180 0
158 271 -185 -455 0
249 255 393 55 0
-343 315 -254 190 0
-162 378 500 -445 0
174 464 487 -264 0
399 -34 145 190 0
274 121 -417 84 0
394 -393 -428 -101 0
149 -209 326 -444 0
-336 335 -380 287 0
-45 -423 144 -252 0
-9 -129 -254 387 0
-293 -41 251 -106 0
-119 -240 132 -13 0
72 -438 353 205 0
209 -185 456 256 0
-203 351 180 -57 0
-240 482 -283 -156 0
202 415 274 246 0
-341 -155 -23 -321 0
-337 -101 -203 -135 0
-221 -24 -293 38 0
-94 -117 -247 -386 0
-422 -428 -39 26 0
318 -411 -441 -409 0
-134 192 148 -230 0
-473 -352 -124 -107 0
486 -116 303 479 0
150 390 -151 -274 0
108 382 -312 -39 0
-159 252 -391 -74 0
-438 91 -79 401 0
-343 -185 220 255 0
-391 -326 334 -35 0
471 272 495 -160 0
-196 241 -445 -407 0
252 -75 -99 391 0
305 456 39 325 0
131 267 -37 -444 0
-12 -403 -214 159 0
365 322 -393 352 0
390 -370 -263 -122 0
401 -170 335 129 0
493 257 441 224 0
-155 247 364 -91 0
238 463 202 225 0
-392 408 -284 148 0
-9 354 122 15 0
13 42 -461 -209 0
-221 131 -450 -156 0
-55 -475 244 277 0
-484 -258 -413 338 0
137 -192 -227 -42 0
-210 -20 263 374 0
91 313 -40 -18 0
-440 355 -140 -352 0
-292 -259 73 178 0
-14 -313 -407 180 0
433 -76 -7 366 0
-252 -388 -92 -379 0
-296 340 -274 -467 0
256 407 482 115 0
-228 299 260 -178 0
476 201 89 -165 0
425 335 303 336 0
463 -323 -19 -223 0
235 257 317 362 0
-291 113 144 9 0
168 -440 320 -82 0
-91 -283 183 -87 0
-346 -117 66 -259 0
-137 178 -115 308 0
-297 -108 -444 -472 0
449 -175 -332 -415 0
-192 90 -488 -264 0
211 -398 -453 311 0
-234 -304 -71 -452 0
21 187 -441 -182 0
304 -424 415 45 0
-317 -84 399 -325 0
-319 265 38 -354 0
65 309 -156 28 0
-200 -14 300 374 0
238 -45 -12 -167 0
-348 -372 296 368 0
447 10 263 -241 0
-440 -102 -37 -271 0
-357 109 496 414 0
367 101 -170 391 0
-275 387 340 117 0
-153 470 295 -398 0
352 373 199 332 0
-443 175 -378 206 0
-331 323 -312 8 0
439 -435 -485 -312 0
-352 -454 -231 -473 0
-388 -459 -362 -171 0
24 -434 -71 218 0
-133 -381 -242 -54 0
192 -85 337 60 0
401 -290 -63 217 0
-404 169 7 5 0
77 139 -140 424 0
51 135 10 -430 0
-317 429 235 398 0
336 34 280 173 0
-392 333 -480 -59 0
-377 -358 -49 -90 0
29 -332 -150 -141 0
-72 -216 -215 48 0
74 95 -396 398 0
-492 5 -101 -22 0
-231 -225 17 -492 0
-346 -200 104 -287 0
264 -82 -372 150 0
454 428 86 371 0
138 382 464 240 0
411 -414 -393 268 0
-396 -295 270 -307 0
27 222 37 -356 0
347 457 249 -3 0
-408 -243 -404 476 0
-392 36 446 -267 0
-127 404 378 483 0
120 36 -25 -289 0
46 229 360 497 0
266 467 420 -267 0
186 170 -211 -485 0
-114 -289 260 419 0
-168 312 -447 -500 0
-160 -54 335 -296 0
218 -499 -352 224 0
473 -480 -305 226 0
-152 436 -146 411 0
-83 -373 -153 -14 0
-116 -407 181 358 0
-166 458 36 212 0
-105 400 -165 -246 0
460 488 -408 197 0
-329 -396 -425 157 0
259 -317 107 -117 0
-498 -64 -279 382 0
341 -376 -274 -114 0
-496 -252 227 465 0
183 445 255 120 0
-323 -391 -466 -331 0
205 266 -155 301 0
-340 202 -476 -304 0
-360 -149 454 -321 0
-142 434 320 350 0
444 -3 -110 -282 0
281 -339 346 -253 0
-379 204 445 495 0
-17 33 109 192 0
-80 361 -385 168 0
497 97 354 -104 0
155 -486 -4 189 0
-376 284 -312 -311 0
-98 310 301 92 0
262 -39 91 312 0
-84 -450 -133 -387 0
349 -476 432 21 0
-301 -115 -381 454 0
285 278 -476 -55 0
-97 325 483 -442 0
-210 129 204 -359 0
98 391 176 -260 0
-277 377 165 315 0
-144 -209 84 38 0
-473 -475 -31 99 0
-286 -67 81 -469 0
159 -355 379 314 0
319 -486 401 -141 0
-15 498 -99 -97 0
306 350 -496 333 0
-120 -258 357 400 0
55 -495 139 -372 0
78 466 -135 -133 0
245 105 338 -217 0
132 -457 -350 -48 0
-302 206 -61 -255 0
-203 -117 -375 -217 0
321 170 -215 -40 0
-121 -312 182 -76 0
313 42 164 -440 0
-442 -18 123 -478 0
239 -37 494 -363 0
219 474 -163 -173 0
-35 -213 -75 -364 0
-360 152 -238 169 0
-270 -185 152 -490 0
-286 29 424 -203 0
-313 24 -87 370 0
-345 -322 -285 7 0
-375 245 -81 -165 0
346 57 -243 327 0
286 -247 -208 272 0
429 -2 -381 -220 0
-491 -489 338 -254 0
-229 -149 -489 -330 0
-72 138 172 91 0
-300 259 -407 11 0
425 169 -396 -384 0
282 376 134 109 0
-7 218 199 152 0
281 -311 19 336 0
-98 20 196 -79 0
234 -370 -471 -85 0
483 -281 58 -169 0
-64 479 -375 -231 0
172 -74 -178 9 0
466 110 -280 -398 0
-400 -435 -7 -164 0
-366 -87 -101 -114 0
266 -329 -48 13 0
25 469 247 226 0
-22 258 410 40 0
-266 6 -60 -370 0
-94 273 -283 499 0
-493 285 -21 466 0
-102 147 -116 151 0
-297 396 461 -311 0
183 -319 422 -18 0
500 -268 -152 470 0
-490 431 -246 341 0
-388 276 -156 -21 0
189 -32 -111 251 0
410 -453 370 -338 0
-346 218 -6 -426 0
-91 407 -360 403 0
287 -112 -406 -138 0
-13 416 265 244 0
-175 380 -208 -352 0
384 223 -82 283 0
290 172 388 148 0
301 -384 -459 29 0
-470 -7 -468 297 0
-113 36 -9 275 0
-89 -146 -174 -343 0
361 469 40 23 0
84 22 492 -180 0
-37 120 26 -163 0
-246 109 421 -150 0
235 1 491 299 0
-71 270 -458 143 0
149 252 359 262 0
-448 153 67 256 0
368 -399 -114 -164 0
-56 -157 320 -177 0
-105 -79 471 238 0
-281 -334 -467 -294 0
83 248 183 -68 0
11 -239 -168 -222 0
481 211 412 -403 0
166 223 469 -108 0
438 213 -237 418 0
320 194 466 207 0
-63 -75 -381 305 0
-366 75 -82 167 0
-2 -332 18 468 0
223 59 -414 -88 0
258 23 243 -73 0
-320 -199 -365 -275 0
-315 -476 230 -417 0
211 -358 459 68 0
-10 -208 -211 -63 0
294 -39 263 -229 0
-157 -446 -130 476 0
168 446 250 455 0
-315 220 482 261 0
-214 -266 56 -474 0
49 -114 447 299 0
-103 211 -22 -421 0
-354 233 230 -433 0
-434 -491 250 396 0
-482 -115 -322 -198 0
469 163 -459 -370 0
-482 131 106 -451 0
138 492 -272 147 0
-173 -145 -216 81 0
-318 -353 458 34 0
-91 236 239 -10 0
-227 496 -207 -456 0
-89 -498 -500 -235 0
317 269 273 -247 0
16 -119 169 196 0
-463 -478 -477 -126 0
488 -162 -368 240 0
388 203 -48 -335 0
-129 -441 -166 275 0
-7 469 -431 -500 0
10 181 201 -89 0
432 444 7 -350 0
12 130 303 -179 0
-266 -198 -3 38 0
-419 -143 -18 -385 0
238 261 13 108 0
132 282 94 -119 0
436 77 104 -133 0
-189 446 159 231 0
211 278 -405 -299 0
475 131 200 457 0
-116 -91 490 72 0
-420 -463 327 -17 0
4 115 -85 292 0
461 -7 102 -232 0
-80 375 237 20 0
120 403 390 149 0
480 -109 327 248 0
-308 336 -277 126 0
-465 -367 -319 388 0
450 -221 118 -314 0
-175 -188 -385 401 0
206 298 -378 299 0
309 -227 167 -383 0
-137 -239 248 -15 0
356 384 262 -244 0
429 -91 -317 -436 0
-351 74 487 -102 0
488 154 190 393 0
-412 429 230 -282 0
-33 -468 -390 -432 0
57 258 151 318 0
-380 317 -332 -220 0
123 97 378 -483 0
-88 18 -457 -238 0
230 451 431 -465 0
-408 341 255 47 0
315 128 -163 -471 0
448 330 -422 74 0
469 497 -300 -90 0
-5 -133 -66 12 0
422 -435 427 -424 0
-315 -376 -191 -293 0
380 341 77 -440 0
160 -491 -57 -296 0
237 -170 321 214 0
