c 4-SAT formula
c 500 variables, 2000 clauses, 4 literals per clause
p cnf 500 2000
-181 -499 77 138 0
217 444 227 439 0
442 -257 353 -102 0
-458 -460 323 185 0
-13 -327 41 166 0
-376 481 204 -241 0
-156 -139 241 -224 0
63 99 -248 219 0
-52 205 -426 282 0
334 419 -323 -80 0
-203 -344 -446 -244 0
101 313 47 169 0
-177 -186 439 113 0
476 309 66 -499 0
-434 -42 -411 -295 0
429 -361 268 287 0
61 -94 -85 367 0
424 10 81 427 0
-423 -131 295 476 0
156 213 -210 445 0
234 394 -118 -9 0
-159 163 -100 -38 0
324 -264 -470 -186 0
-61 -333 106 453 0
418 -94 349 -30 0
-212 154 -426 -278 0
-158 6 298 212 0
391 312 310 178 0
-481 -335 -399 -48 0
-451 -85 467 -72 0
-402 164 144 -295 0
455 -66 -100 -188 0
-426 471 -457 450 0
322 -278 -227 393 0
244 162 -496 493 0
-453 -73 -246 66 0
-14 -312 145 -41 0
-30 312 450 12 0
-493 -485 -317 310 0
-467 422 -53 -3 0
447 -484 30 186 0
491 234 -405 -109 0
-93 207 402 -37 0
-24 429 -205 -279 0
363 282 286 374 0
224 394 335 328 0
-269 -168 -69 -255 0
-155 -492 180 357 0
173 -311 463 -95 0
451 -126 -486 13 0
-15 -366 101 468 0
-208 261 93 407 0
-202 449 447 -92 0
-54 378 294 -186 0
34 323 267 -325 0
162 -168 -49 365 0
485 -500 388 436 0
-405 -98 465 -213 0
269 -446 -83 190 0
375 273 -319 233 0
237 472 491 282 0
-258 481 164 -274 0
455 -24 180 -303 0
-391 -345 -430 151 0
-55 -156 -29 353 0
177 -355 219 -326 0
185 -388 163 -405 0
276 -358 431 273 0
-413 77 458 -385 0
186 -185 137 384 0
155 144 -419 -219 0
321 -113 466 272 0
193 445 -181 -284 0
-363 -350 -77 -243 0
-253 -475 -470 -142 0
439 -175 465 494 0
93 -283 478 -473 0
6 474 73 -398 0
-302 182 198 135 0
407 -205 -386 -496 0
135 125 -60 383 0
150 -323 -212 -20 0
324 319 -222 -305 0
163 40 85 200 0
21 -331 145 -278 0
-114 220 -365 -272 0
9 44 294 256 0
40 153 -119 -466 0
-486 -131 410 -480 0
388 69 221 -367 0
-414 356 -448 -39 0
36 173 238 -249 0
-116 -81 302 73 0
-310 392 98 457 0
-121 143 -427 -33 0
248 105 246 386 0
-26 323 -472 326 0
486 415 78 -401 0
441 248 -108 -101 0
-225 -163 -437 297 0
125 480 -346 -486 0
494 -262 -290 -191 0
-84 487 -287 100 0
66 428 -481 292 0
-39 -70 -126 -495 0
296 -281 -168 297 0
237 33 -372 -14 0
453 -156 89 120 0
-223 58 188 -1 0
-408 72 -178 438 0
-275 260 -186 -292 0
376 -223 162 294 0
-321 366 226 -44 0
-36 -120 484 228 0
189 79 436 -342 0
14 296 -389 321 0
-138 -273 -347 -147 0
18 -278 43 456 0
-308 332 -167 212 0
348 474 288 301 0
-86 -436 -498 -248 0
200 474 -123 453 0
-275 285 -466 -243 0
374 -130 226 -364 0
499 -119 283 263 0
-318 -460 466 163 0
-114 -198 -399 -455 0
-404 378 173 137 0
39 -377 23 385 0
164 -364 185 -26 0
-397 -362 -457 -460 0
-98 393 -211 -31 0
136 -325 -148 227 0
-85 31 -474 323 0
284 75 121 -142 0
-127 -261 112 349 0
-183 71 -459 -255 0
-453 -367 -187 -272 0
-52 -140 -172 -425 0
238 -368 -356 -178 0
-195 39 70 -1 0
-219 416 -205 -466 0
-400 -374 -160 -344 0
341 388 39 428 0
-373 -72 -44 -290 0
-125 436 398 364 0
-265 -61 255 455 0
-213 490 -468 297 0
295 340 -326 311 0
70 -316 267 108 0
349 -234 45 296 0
160 -271 65 219 0
263 67 -220 -335 0
66 -136 -335 130 0
-331 410 122 -469 0
246 -116 385 -10 0
424 19 206 -184 0
54 -194 98 284 0
487 -124 -127 425 0
-104 243 162 427 0
-291 420 -182 -305 0
-77 -247 472 308 0
113 55 405 328 0
488 335 23 -83 0
-106 420 -72 -405 0
376 370 -240 -277 0
498 413 -72 469 0
-151 160 -30 -238 0
-395 -108 -152 -373 0
379 311 -204 150 0
-194 -125 23 -159 0
-108 -22 -500 -314 0
259 345 397 -15 0
-13 150 433 -289 0
-206 275 -27 -119 0
-121 -218 396 -59 0
-72 -335 156 -356 0
326 -456 280 36 0
-381 -250 -360 422 0
133 348 77 381 0
-177 -111 163 -112 0
125 286 96 -63 0
454 -36 482 217 0
-275 -388 326 441 0
-175 474 4 -123 0
417 -391 456 -102 0
-426 -242 175 -408 0
319 -199 142 -117 0
358 268 -246 -364 0
109 -464 -406 -267 0
-52 -344 -140 88 0
103 -162 -152 357 0
149 -117 -289 -412 0
141 244 340 -94 0
-297 320 117 44 0
-349 -36 45 -384 0
-481 -19 157 -347 0
-301 -289 85 365 0
-169 -491 -315 -202 0
-147 427 -20 -356 0
299 -207 379 -96 0
377 268 224 -176 0
-25 -255 496 212 0
-142 248 454 114 0
-439 -117 -16 -404 0
-170 364 32 -426 0
322 410 117 442 0
231 85 -193 -229 0
-368 125 293 274 0
453 -368 -415 -318 0
66 -225 105 -383 0
416 40 471 -447 0
-207 -82 -59 -461 0
-246 -273 123 428 0
293 398 209 130 0
-287 -397 -331 119 0
-179 -329 -215 438 0
-113 420 226 -223 0
-77 83 -258 -115 0
-303 335 134 106 0
142 -52 -355 358 0
-313 -326 -207 -486 0
147 500 -456 -79 0
154 -350 116 65 0
442 23 -43 116 0
-72 451 -172 -301 0
152 169 64 -272 0
-174 -235 62 -426 0
-75 -221 201 190 0
-394 301 221 486 0
403 401 161 -119 0
-178 -448 -250 399 0
359 445 -388 -320 0
15 457 5 -263 0
291 189 320 348 0
417 190 194 -77 0
251 -473 84 -303 0
71 -288 172 -363 0
-95 -318 185 -121 0
382 379 398 -131 0
-489 321 -232 -40 0
-256 -274 -343 97 0
350 -117 -257 -332 0
469 -251 497 141 0
-383 -252 57 432 0
-159 -227 -416 -356 0
-3 462 453 181 0
-401 324 414 75 0
-210 -348 -459 279 0
122 -366 -265 417 0
262 -498 -347 405 0
443 -355 -450 -285 0
-224 459 -273 -195 0
-126 -260 -89 163 0
138 394 -197 -341 0
459 -329 -422 419 0
-254 386 25 -135 0
33 -235 174 404 0
-325 -241 276 -209 0
395 -340 -436 334 0
479 -145 -213 -223 0
-222 -83 208 137 0
129 286 325 -137 0
396 -139 -16 137 0
-407 219 461 -487 0
313 356 472 378 0
-215 -188 -44 109 0
-63 409 -386 11 0
181 145 -434 -486 0
376 388 -496 -473 0
-45 -150 469 297 0
248 -485 78 459 0
-445 431 61 -287 0
101 -496 -443 389 0
108 -355 421 383 0
-167 184 -269 290 0
304 95 -325 -346 0
243 -3 -234 62 0
5 182 -323 218 0
208 222 187 -236 0
466 130 -455 -489 0
-57 -467 484 -113 0
-453 -185 36 217 0
-240 -492 -306 -500 0
166 389 95 -1 0
-343 27 453 308 0
94 497 -4 -85 0
-235 -32 270 213 0
-418 275 443 293 0
173 283 377 -490 0
-262 184 309 -324 0
452 398 -204 -212 0
-308 -222 224 57 0
-434 406 -272 10 0
-245 -11 -475 160 0
373 213 209 -55 0
-74 -426 209 205 0
196 -445 -227 93 0
-291 -70 -485 -193 0
-41 -385 457 265 0
324 -106 -485 -179 0
-493 -72 303 358 0
330 -142 136 132 0
-35 384 -233 -129 0
220 -416 -415 302 0
-246 -441 -451 98 0
-59 27 382 117 0
100 192 -267 157 0
54 -236 416 285 0
260 -479 -245 117 0
-411 212 -53 -206 0
-256 264 65 443 0
375 -3 -478 495 0
-316 18 329 146 0
-268 -76 244 -156 0
429 -495 -352 309 0
-375 212 -68 8 0
378 282 324 -234 0
302 -93 -261 -128 0
-132 -117 131 499 0
419 -320 347 481 0
484 -319 -425 -17 0
-325 -131 -12 264 0
25 469 -277 -177 0
237 383 459 -494 0
-138 -205 -280 198 0
-336 109 -43 -455 0
390 156 -254 -285 0
-203 177 30 261 0
6 -400 -315 383 0
42 -211 495 328 0
-359 -449 133 77 0
140 -433 89 -42 0
228 -102 61 488 0
60 -161 66 324 0
-220 102 -495 124 0
-317 472 12 -413 0
-140 -16 -178 -346 0
-12 -166 -225 445 0
-342 -111 -228 -119 0
-386 -484 403 164 0
17 328 360 -145 0
-99 321 107 433 0
-88 15 -267 -173 0
438 326 -473 202 0
-52 97 171 104 0
-351 470 267 62 0
-114 174 -391 -220 0
-360 361 402 340 0
460 -296 371 -348 0
-367 339 -120 -389 0
-53 -356 -133 -290 0
-414 -130 -214 273 0
-99 -38 405 -117 0
200 -230 -270 -58 0
-226 268 290 197 0
468 -203 -364 105 0
-47 -234 26 221 0
22 -146 -463 -237 0
54 -269 -436 53 0
-130 -446 -75 -52 0
150 278 -250 -295 0
423 -392 -316 -233 0
282 -284 285 336 0
149 462 -51 263 0
153 -393 -354 150 0
481 250 196 223 0
103 -83 451 -493 0
157 102 337 -428 0
46 -444 -316 -339 0
-414 70 -474 166 0
269 309 438 124 0
-108 -51 275 -450 0
-134 -255 -429 410 0
-222 110 277 447 0
497 -66 474 -178 0
349 147 95 -323 0
60 20 8 488 0
396 50 78 -489 0
-282 -432 215 -96 0
-6 155 352 444 0
249 -217 -324 -384 0
212 380 -369 341 0
107 101 -99 -203 0
-243 -25 348 70 0
-471 -173 -425 -103 0
332 354 209 -250 0
487 454 -368 -36 0
252 -264 -276 309 0
-248 -332 -201 -468 0
-316 261 -305 441 0
151 -426 -168 -418 0
192 181 -106 -107 0
-493 479 -309 227 0
-29 242 36 -138 0
143 97 425 279 0
-201 -202 37 -92 0
90 23 -407 -419 0
261 378 -133 -15 0
430 150 97 -437 0
-162 -74 282 -136 0
367 -62 -221 213 0
165 -177 -341 92 0
-428 61 185 144 0
-155 -366 93 188 0
250 437 -460 382 0
144 37 174 -462 0
76 168 -459 -447 0
408 326 -232 -287 0
-94 326 -315 -154 0
-342 478 -396 -481 0
12 -223 -252 41 0
410 -277 -117 165 0
-231 491 32 201 0
495 197 -305 -280 0
135 429 406 359 0
402 -421 41 -222 0
-50 361 280 420 0
-480 276 -299 -426 0
457 -36 292 127 0
-251 354 -331 385 0
318 500 -149 -134 0
-173 -386 225 67 0
86 193 -39 -387 0
-442 416 -489 218 0
-373 -372 -42 -39 0
405 85 387 362 0
195 -246 -36 -208 0
-494 33 206 -298 0
476 -256 110 -85 0
-93 357 -246 -465 0
454 463 -135 86 0
156 437 -427 386 0
417 -397 386 419 0
385 435 148 46 0
400 -299 -157 -302 0
-254 329 -227 21 0
285 84 450 44 0
-238 -478 133 212 0
26 14 293 -120 0
480 146 -354 -439 0
-256 -458 -116 -49 0
381 450 -221 466 0
-301 200 -96 295 0
-19 -176 -381 -411 0
493 -207 269 -371 0
440 -279 52 424 0
152 -72 -84 180 0
-74 404 7 -270 0
-161 -293 445 -79 0
-85 342 269 33 0
23 402 274 -359 0
-500 313 300 105 0
402 174 -407 436 0
-477 -153 -186 -269 0
-463 115 301 170 0
215 118 -373 -100 0
-428 240 -281 -394 0
-12 435 -444 197 0
39 -256 -366 487 0
-160 -241 60 -418 0
-354 247 -76 -192 0
-84 -12 -105 -224 0
-46 287 -332 284 0
28 -463 -69 -284 0
196 150 339 -315 0
340 -110 155 -369 0
229 -104 -459 279 0
-47 15 -425 387 0
423 -473 -275 -50 0
-409 25 133 372 0
-150 66 -454 -193 0
-460 230 -477 -122 0
58 57 188 300 0
-319 202 83 346 0
-129 -368 -353 37 0
-191 51 -448 -79 0
-275 -438 -218 -30 0
-355 300 -18 -194 0
200 -49 -160 -436 0
-192 -421 -307 244 0
222 -469 455 172 0
450 -393 410 365 0
-491 -119 -260 -142 0
-336 73 475 213 0
61 -14 1 -146 0
-409 140 -247 24 0
67 326 99 -425 0
-428 79 103 435 0
387 -134 -452 96 0
433 -122 443 220 0
294 353 -308 -298 0
421 -238 -347 -452 0
54 -226 -435 -399 0
320 411 145 140 0
-337 105 3 -388 0
-109 -39 -108 -125 0
-318 191 322 -137 0
-173 -254 409 -81 0
-479 -194 -446 491 0
-177 152 128 289 0
-116 297 -124 -129 0
182 467 -248 -246 0
-449 -144 212 495 0
-378 -303 -115 -174 0
318 -150 -262 19 0
256 145 -37 422 0
-81 263 -451 -88 0
-186 -342 -259 37 0
-120 -238 127 -277 0
-90 -245 288 40 0
6 133 -113 -230 0
-1 -269 344 -131 0
223 -330 -304 293 0
-305 366 328 295 0
266 20 441 -54 0
442 120 448 371 0
-201 -364 -17 436 0
-309 382 -143 -358 0
163 144 481 169 0
-288 -483 -482 202 0
-403 -345 -266 284 0
12 222 288 -124 0
347 174 -479 -371 0
384 -7 -51 496 0
-359 160 -185 -194 0
-136 -101 84 220 0
-393 278 -368 97 0
-379 -113 -295 30 0
-301 394 60 -482 0
369 -427 203 -151 0
-175 -23 322 376 0
475 -10 192 58 0
104 -272 -98 431 0
-132 157 298 141 0
383 -240 313 -302 0
21 -472 -14 270 0
407 224 156 287 0
434 366 374 -138 0
284 -71 -428 4 0
-168 6 -305 -51 0
84 -128 312 288 0
-345 200 380 289 0
378 -216 -16 180 0
383 -72 -320 270 0
-313 437 -37 18 0
-116 341 20 422 0
-420 425 279 325 0
339 -223 -424 38 0
170 -84 -287 257 0
209 -152 467 348 0
2 340 227 -113 0
-25 -123 297 -149 0
-196 -22 291 390 0
-410 -83 288 464 0
225 217 -320 -398 0
95 -49 -21 132 0
-482 139 -248 -165 0
-327 -123 461 205 0
-220 176 309 -354 0
-416 200 490 107 0
-77 462 -309 484 0
169 -464 280 160 0
291 -125 370 -40 0
-84 202 -177 -311 0
-2 365 -229 199 0
387 239 378 376 0
335 -286 186 352 0
-75 258 -116 -61 0
323 -432 -79 -396 0
36 130 -183 282 0
121 -146 172 -93 0
-196 111 -3 -176 0
-387 449 -454 7 0
324 -275 439 -263 0
-354 117 19 341 0
-80 34 -347 481 0
348 208 427 468 0
-483 -281 241 -125 0
-207 -44 -179 -492 0
285 266 488 -36 0
-378 346 -398 -481 0
428 5 -97 -468 0
-347 -493 106 -322 0
-43 339 -323 -195 0
-395 -372 57 -205 0
91 -214 -106 -288 0
-168 485 30 -317 0
173 24 485 -35 0
-412 242 426 -334 0
319 -458 -329 -313 0
-104 401 114 50 0
338 39 -496 -325 0
-26 114 -237 366 0
201 -101 -421 238 0
263 -331 -9 -276 0
-182 -411 299 -124 0
493 9 440 264 0
-77 -205 -223 -418 0
-101 -497 -281 245 0
-213 337 -496 352 0
465 -375 147 -110 0
227 228 -320 299 0
-411 -236 209 -405 0
232 267 -385 47 0
-65 -315 26 -42 0
46 419 -123 -150 0
130 -77 122 23 0
227 -407 287 -335 0
433 -195 315 430 0
210 486 408 -149 0
-164 452 -70 -51 0
-159 -381 -203 234 0
-133 60 22 201 0
153 -420 -338 -14 0
-449 -175 347 22 0
-188 -91 -68 -414 0
68 -383 -28 357 0
72 -200 452 279 0
-206 -171 325 254 0
-310 75 -29 363 0
-415 260 -267 21 0
154 141 278 350 0
-92 -393 -400 358 0
281 -248 445 416 0
-318 105 304 237 0
-25 -358 116 -223 0
-342 466 -37 456 0
-407 441 306 454 0
-291 500 20 -146 0
-477 498 180 -279 0
-39 -282 -373 -198 0
-107 449 -138 -337 0
-34 -194 341 367 0
255 210 62 -305 0
292 -214 1 135 0
-118 -368 -362 -244 0
32 -191 64 375 0
-19 -161 220 381 0
222 -165 135 276 0
-206 -399 131 286 0
185 -1 166 8 0
314 -171 -176 -96 0
-79 -192 -272 -141 0
-10 -223 235 17 0
425 121 431 -449 0
383 144 -5 300 0
-224 448 413 245 0
-464 -487 121 -101 0
138 32 -465 -2 0
134 -355 -388 -373 0
-343 10 -421 -471 0
-440 83 193 -404 0
-382 287 370 334 0
214 74 288 -112 0
-353 -220 -1 -23 0
-396 316 -229 494 0
-50 -334 -475 -356 0
-411 -257 221 -223 0
83 -466 -179 -46 0
-472 134 -491 -410 0
-214 350 157 -318 0
142 -419 327 397 0
421 -222 491 -251 0
67 -425 3 397 0
-17 380 -368 67 0
386 -424 -498 228 0
453 -292 37 89 0
-477 330 233 13 0
305 -95 216 -427 0
-18 174 354 -462 0
192 -435 -62 451 0
-55 373 -104 -89 0
349 -425 181 -226 0
-383 -277 235 35 0
-411 -476 155 -449 0
65 -93 459 -112 0
133 331 -490 13 0
-200 -391 -398 431 0
-37 -404 -440 -275 0
-117 324 241 198 0
264 363 72 -12 0
-271 -72 -158 -192 0
355 323 -386 -27 0
387 -334 -448 -72 0
-3 -127 -221 -84 0
472 330 34 395 0
-145 -308 455 -416 0
-50 287 21 -442 0
-393 -382 -68 272 0
117 -9 293 -47 0
476 202 -327 -238 0
441 119 265 -319 0
452 43 -120 299 0
-463 297 178 23 0
20 419 283 -220 0
-134 -9 -288 169 0
-124 381 -208 155 0
154 -368 231 -191 0
-498 99 -437 -491 0
-65 -293 -54 422 0
-340 427 -200 -34 0
396 145 104 -275 0
462 127 138 -215 0
-276 -88 98 -405 0
-96 178 234 158 0
-437 244 308 -63 0
-186 -276 -87 -168 0
-138 -284 460 146 0
283 27 90 17 0
19 441 334 -132 0
221 346 282 -497 0
121 -116 215 59 0
-41 381 460 -5 0
174 295 -34 -117 0
200 281 -53 245 0
-5 -455 98 -108 0
-457 197 303 345 0
482 334 53 -437 0
-373 302 372 80 0
-171 193 -405 222 0
-394 -105 -391 101 0
236 487 269 299 0
394 290 89 416 0
-7 -418 -257 -63 0
169 180 473 -170 0
1 -112 281 174 0
-312 243 226 -453 0
-488 406 82 -351 0
-176 -55 384 404 0
-230 -267 -276 322 0
374 -234 -150 70 0
163 10 284 86 0
-11 -494 -268 394 0
-161 -232 351 -122 0
405 -251 137 431 0
185 215 -319 146 0
467 68 242 -60 0
-405 -454 -248 -398 0
-477 -318 -180 -32 0
491 -116 -216 199 0
-473 -418 416 -432 0
494 -470 -328 -133 0
250 27 212 25 0
-177 33 234 109 0
52 498 -362 207 0
-236 -267 217 -250 0
-471 -369 350 51 0
324 -350 455 -32 0
35 -3 323 -163 0
26 -76 392 58 0
484 -25 7 -221 0
371 -213 -98 -226 0
141 12 82 -462 0
269 417 490 445 0
177 407 -349 307 0
478 -43 -459 410 0
70 -139 491 -94 0
-146 -269 -209 284 0
310 -489 345 -329 0
270 200 314 41 0
-184 -28 -398 -35 0
82 80 8 476 0
-400 363 -190 116 0
305 -70 44 468 0
-430 -48 -107 10 0
-423 230 274 -251 0
-305 -176 -491 187 0
191 203 -233 -324 0
-309 329 -403 118 0
273 378 451 489 0
399 278 331 179 0
498 -74 22 451 0
-59 -399 392 -336 0
388 120 -54 -63 0
327 426 471 -264 0
-286 90 -189 -403 0
406 484 -386 -401 0
-300 -119 -196 -198 0
-312 -481 -466 267 0
-487 -121 135 -109 0
-187 428 170 -240 0
189 -303 336 -252 0
300 -292 475 -308 0
-134 65 158 -307 0
7 466 11 74 0
481 165 -378 440 0
43 148 -282 -121 0
221 106 -207 76 0
-347 -10 -419 -223 0
136 -1 457 407 0
318 -304 391 419 0
203 -354 283 61 0
-56 -484 -54 -247 0
-120 -32 459 423 0
125 271 -486 359 0
250 -332 24 419 0
339 381 -377 337 0
-214 -494 318 -151 0
-310 -115 -373 324 0
320 441 350 -142 0
375 -419 139 -471 0
444 -389 224 128 0
-377 -424 180 147 0
-218 -261 -349 68 0
-268 302 -355 -347 0
19 458 77 -174 0
420 53 -362 163 0
275 -207 464 245 0
270 -193 403 201 0
41 -160 -129 196 0
-17 -187 -435 -123 0
-410 -164 -406 -365 0
-315 404 382 -428 0
-438 311 -393 425 0
378 -309 -428 311 0
207 223 316 294 0
477 314 -261 282 0
-346 -140 -411 -90 0
-384 304 429 -88 0
-436 -102 -63 118 0
77 9 464 -465 0
329 99 -223 468 0
-258 54 -363 72 0
-421 3 -371 -106 0
252 -247 -147 180 0
494 -2 -6 -289 0
497 -299 303 493 0
-490 -175 171 133 0
151 499 456 97 0
448 -389 21 -198 0
-466 -357 249 -41 0
-49 137 165 354 0
-479 -195 249 -212 0
-277 278 159 -52 0
-383 -227 -137 -77 0
-494 -80 224 411 0
-393 399 220 423 0
-463 434 -321 -118 0
204 -56 207 91 0
46 -190 101 -125 0
129 9 -352 370 0
178 -184 -48 -49 0
-423 277 328 -38 0
-315 447 100 434 0
-1 -7 252 18 0
-276 272 -149 278 0
286 -289 -29 469 0
-235 68 -329 -374 0
126 -156 -305 -414 0
-94 209 -297 202 0
499 292 488 393 0
454 135 -460 146 0
-352 470 -344 459 0
-303 83 -116 406 0
398 -158 49 -120 0
158 38 67 -183 0
341 -110 -342 204 0
-353 -73 24 126 0
-75 -387 462 -406 0
48 80 475 284 0
-432 -66 139 -221 0
-466 162 389 -468 0
72 -474 -296 421 0
299 448 -184 109 0
-376 8 -118 287 0
-425 -95 -208 -91 0
-371 17 230 459 0
498 -192 286 229 0
281 123 196 305 0
-229 -136 -355 -405 0
-347 215 269 437 0
-354 449 208 314 0
-421 174 134 276 0
-92 391 374 457 0
136 -192 -262 -22 0
388 212 418 -180 0
-231 -237 -381 -273 0
-428 -351 -380 -193 0
-379 -294 245 -474 0
451 327 28 -480 0
-230 -376 -45 -241 0
395 -44 436 -53 0
404 128 -135 -215 0
440 -160 -353 -360 0
353 126 432 -444 0
-262 -437 -433 432 0
-409 -67 -372 -17 0
94 -36 246 220 0
43 -304 140 122 0
454 -54 151 184 0
-59 -308 -325 -113 0
484 -213 -311 209 0
64 140 19 441 0
204 342 142 -333 0
441 -484 85 -289 0
489 364 224 374 0
471 447 -238 475 0
11 -54 -202 247 0
248 430 440 181 0
224 209 -120 -359 0
-224 20 164 -420 0
-177 -344 41 49 0
184 -75 -297 36 0
-239 329 9 -421 0
-290 -106 -157 414 0
-25 343 -121 484 0
-136 -124 88 -14 0
58 428 413 7 0
5 463 -53 405 0
390 343 -204 490 0
-65 -313 61 -64 0
354 -21 -260 -307 0
-81 71 -383 -428 0
-464 480 -1 -28 0
-193 -381 -354 -331 0
-469 213 33 -455 0
-32 194 308 392 0
46 -332 96 408 0
-329 -473 -336 439 0
315 6 288 -107 0
483 226 -465 84 0
254 171 -200 39 0
391 288 -218 -491 0
-266 -145 71 -212 0
-176 430 -79 -446 0
300 25 242 442 0
-340 -327 401 271 0
-463 117 -19 -241 0
322 -26 -42 20 0
215 370 417 -4 0
-385 168 -230 -54 0
11 221 237 -308 0
280 454 416 205 0
-203 -155 38 -153 0
438 -253 -173 337 0
378 -436 217 -160 0
194 107 -369 125 0
348 -46 215 364 0
-277 107 -80 18 0
-343 -440 229 -274 0
-310 321 331 -195 0
-102 -335 436 -201 0
212 74 303 265 0
360 129 -374 -240 0
-331 207 -288 -3 0
-416 -178 -330 -34 0
430 273 -362 467 0
-141 208 396 209 0
34 343 -330 -290 0
-318 -305 -443 60 0
234 262 -389 22 0
-214 -323 -353 -198 0
390 -382 -408 -147 0
445 -427 -221 -171 0
-224 -353 27 371 0
-467 -286 201 173 0
300 -294 163 -494 0
230 93 77 -224 0
-421 -384 344 -166 0
186 256 -118 253 0
68 499 37 -404 0
-279 55 408 -244 0
166 -133 374 471 0
102 396 264 -317 0
279 56 -492 -179 0
156 435 -127 -247 0
308 -246 134 -499 0
-344 463 146 25 0
-406 112 -359 -80 0
229 214 362 492 0
57 195 -416 -439 0
194 -288 158 -425 0
218 -177 -87 388 0
236 51 -445 -223 0
-406 49 -493 -29 0
-248 -291 270 -14 0
380 373 -399 393 0
292 126 -220 398 0
-342 218 286 474 0
-196 -138 -295 500 0
19 61 -251 143 0
-324 274 -4 -411 0
-52 -209 -365 219 0
-168 194 247 -444 0
-484 9 216 268 0
-138 -55 23 215 0
-147 -297 124 448 0
422 -9 -238 -433 0
-69 -48 -342 -222 0
206 265 480 283 0
78 -245 47 68 0
96 43 380 -285 0
171 -272 403 335 0
114 -244 -125 280 0
422 -146 -456 341 0
-466 14 -121 170 0
40 323 491 13 0
-394 256 -10 -45 0
328 -310 129 99 0
66 199 -149 490 0
291 439 -218 255 0
494 426 -23 -188 0
-321 -219 -357 223 0
497 98 -342 -325 0
47 354 156 -493 0
133 -318 -400 201 0
-364 -15 4 107 0
-299 347 -473 291 0
446 83 -367 -184 0
373 153 -29 454 0
-479 -300 -364 313 0
-243 127 443 397 0
442 311 -155 306 0
-221 -263 -136 -460 0
-149 -188 243 -464 0
65 7 214 409 0
-205 -26 -101 464 0
293 -140 -410 171 0
-65 -425 114 -434 0
492 107 55 -78 0
158 323 324 314 0
-424 456 168 -345 0
317 393 20 -22 0
451 -15 219 350 0
458 -330 123 241 0
-14 361 -341 409 0
399 489 -363 47 0
322 473 410 -439 0
-166 -67 376 -228 0
193 -267 397 -179 0
80 315 20 134 0
-209 298 113 276 0
-368 -236 -78 -404 0
-326 -304 -23 392 0
120 224 414 -200 0
-11 -331 15 -205 0
-43 -36 -385 476 0
407 156 97 479 0
245 326 61 440 0
284 -422 449 396 0
-448 134 -262 195 0
-386 -387 -168 -32 0
-234 104 -212 352 0
-459 245 36 372 0
172 -403 -411 445 0
-287 -263 431 390 0
360 46 361 120 0
460 -356 421 419 0
369 -497 438 -69 0
171 -497 -190 -55 0
234 -460 266 -432 0
297 -130 231 38 0
-197 -316 59 44 0
-339 -88 -261 418 0
76 417 -192 210 0
-144 -298 484 -310 0
457 -471 485 -393 0
-463 -418 303 -470 0
-251 -159 -188 191 0
133 73 -90 310 0
70 -243 -498 139 0
-29 41 -426 -470 0
-323 -480 349 -56 0
-183 -130 -325 97 0
145 -131 -299 -89 0
-88 -435 196 9 0
-62 99 -409 140 0
224 94 45 -168 0
474 245 177 -288 0
-47 -121 95 -479 0
22 -350 -111 -487 0
-267 144 151 -260 0
263 -189 -419 -352 0
-111 73 -219 249 0
356 -271 222 -338 0
-63 225 458 -231 0
85 -222 -345 -499 0
167 -342 -449 -232 0
-288 356 284 333 0
73 293 -197 475 0
110 -181 -425 3 0
-125 42 132 19 0
78 280 -1 -84 0
149 -9 -110 38 0
211 366 292 64 0
38 -128 160 -211 0
-317 329 274 -123 0
-486 400 250 -344 0
-317 -483 259 -154 0
460 110 124 -67 0
-14 -109 -155 -262 0
293 230 120 -112 0
-301 393 -88 342 0
165 18 131 196 0
-129 414 381 269 0
9 -181 163 -350 0
-215 328 32 242 0
-169 -390 -288 406 0
163 421 -275 -330 0
344 -307 -433 -341 0
-339 -362 -343 445 0
-391 -78 381 323 0
453 -344 485 38 0
-174 83 94 -54 0
-109 -241 -250 317 0
-346 -43 66 28 0
-425 -293 -142 -323 0
-272 -493 348 28 0
-109 -193 191 -224 0
191 272 -268 -214 0
474 -497 -385 -456 0
-52 -298 356 448 0
-393 464 410 -283 0
-20 -334 -46 -8 0
-306 -54 -298 34 0
-480 260 -245 84 0
18 -463 -291 78 0
-234 -410 -195 -466 0
231 -27 -129 -69 0
324 35 241 83 0
-229 180 493 487 0
-31 128 388 -161 0
152 486 -383 -133 0
332 406 155 -411 0
70 -104 -481 441 0
-380 69 499 275 0
-28 -13 34 6 0
-374 204 -253 -381 0
-361 -39 -138 237 0
-129 82 256 199 0
-147 110 -172 -128 0
322 -197 435 17 0
294 460 461 -440 0
334 188 -22 412 0
22 -30 372 287 0
-94 -426 241 492 0
-118 -268 275 330 0
-395 163 79 213 0
253 -285 -402 -486 0
-383 -71 -168 445 0
123 188 53 399 0
206 336 270 216 0
-437 140 217 -274 0
404 -230 -337 458 0
-373 -106 -387 145 0
-38 130 -168 -493 0
-62 -303 -50 -270 0
77 461 182 442 0
409 370 -181 72 0
-333 262 -102 258 0
422 -71 53 -420 0
-355 151 263 -419 0
9 111 20 -153 0
36 -161 227 475 0
-341 384 151 252 0
123 -290 -193 115 0
387 327 353 -412 0
-36 76 194 -294 0
-107 91 208 -220 0
316 324 -226 166 0
96 -375 -59 -435 0
-195 -65 207 -366 0
-411 300 -489 -495 0
-140 67 459 396 0
-415 -391 395 -402 0
201 225 -318 26 0
438 -311 39 -451 0
-56 285 -342 -422 0
-308 -445 328 -380 0
-206 231 -373 69 0
-333 -133 -377 -280 0
-323 -318 402 -368 0
459 315 430 -56 0
-499 10 36 -152 0
-413 354 77 -301 0
472 162 486 -133 0
-189 483 -492 -193 0
-176 -399 245 159 0
328 -72 -390 248 0
300 -170 -389 -200 0
192 -79 356 5 0
-127 369 -286 164 0
-34 39 207 -11 0
422 363 -164 -207 0
481 -336 419 166 0
-328 -467 -447 91 0
64 147 -428 -326 0
486 132 -257 38 0
280 112 433 173 0
-273 -302 -156 410 0
-487 185 216 -144 0
335 -177 52 482 0
287 -466 -374 -232 0
290 180 456 124 0
256 -210 -475 173 0
-107 -119 -422 -38 0
419 -297 239 404 0
-235 -265 248 -278 0
-308 206 -394 -190 0
484 57 -139 39 0
266 166 424 -356 0
-127 -264 270 148 0
447 -282 -370 -42 0
259 -291 342 -200 0
56 -393 -153 -151 0
98 128 433 -461 0
445 -212 338 -246 0
-156 171 -477 -5 0
313 341 250 -268 0
-191 -415 -120 -399 0
155 -390 -478 156 0
-61 341 -342 -287 0
-111 152 -432 321 0
-302 -447 -102 15 0
278 164 -260 248 0
235 -65 -450 147 0
147 296 -326 -54 0
130 153 -228 476 0
-487 -386 -394 319 0
370 65 288 77 0
-213 257 70 495 0
-327 -258 -429 499 0
-299 -360 -381 387 0
380 -493 275 -267 0
-454 249 -248 -455 0
363 500 -15 -151 0
37 350 270 -419 0
-265 220 -94 49 0
135 8 -377 116 0
416 346 -109 129 0
-180 191 -388 240 0
-401 -144 -387 230 0
321 -52 460 -278 0
335 -49 -409 146 0
-386 -476 59 -418 0
223 259 -222 230 0
341 351 324 -233 0
-489 46 -456 -233 0
-26 -255 328 3 0
-320 -40 214 93 0
65 171 117 -448 0
395 -28 -189 379 0
-271 -251 119 193 0
-431 389 53 -454 0
-485 -297 4 153 0
-82 -259 -264 -467 0
-91 -207 447 -456 0
-485 439 -175 -343 0
-293 361 -47 291 0
-488 -483 345 44 0
-227 134 -238 499 0
198 371 -480 173 0
-459 -236 -260 229 0
33 236 447 -19 0
-483 171 -83 -344 0
278 -349 350 -166 0
384 -107 -103 136 0
484 -491 -218 145 0
53 347 424 -437 0
66 103 -268 -294 0
-334 221 -158 -3 0
433 -189 467 52 0
361 105 -180 -376 0
103 -10 97 -327 0
253 -449 -170 79 0
-100 -197 56 -187 0
150 56 -433 145 0
-463 -305 417 -68 0
154 -203 -143 -322 0
-397 -210 433 -466 0
28 -385 -497 -155 0
-41 64 379 221 0
-316 154 -89 414 0
198 -168 187 362 0
-338 -488 289 337 0
260 100 -20 12 0
-67 388 186 242 0
-205 6 253 -268 0
-461 -163 -443 -447 0
-334 -443 30 21 0
227 122 -396 318 0
99 436 -368 -126 0
-497 352 -95 -198 0
197 271 498 86 0
-226 271 357 -222 0
171 -234 89 103 0
493 -356 227 -468 0
345 -375 -61 -320 0
-408 95 397 -399 0
-104 -236 119 -321 0
471 -134 204 147 0
392 -226 -468 14 0
142 -453 243 97 0
-439 155 305 -340 0
428 -497 -437 -256 0
-338 86 -85 -46 0
232 335 -234 -380 0
-384 -403 -22 385 0
284 207 -241 128 0
496 -399 -350 491 0
-276 -236 -257 -357 0
-37 2 -364 -45 0
-357 46 -152 465 0
-203 -396 -304 -163 0
-183 -297 224 265 0
153 482 165 329 0
5 268 303 454 0
-201 -415 -448 -341 0
-27 -125 316 -415 0
468 -459 -197 292 0
23 219 -480 -340 0
489 224 -99 -193 0
-328 -491 422 60 0
327 277 349 -65 0
3 248 492 89 0
-449 204 139 -327 0
436 147 -2 213 0
-412 -227 61 -165 0
390 -262 93 -383 0
325 -139 -299 -146 0
-388 -96 -53 -449 0
-371 71 -30 -171 0
-157 -82 176 199 0
282 -286 59 -84 0
168 138 -232 -88 0
112 208 -419 407 0
-379 122 -348 -475 0
272 362 -450 -131 0
156 -65 476 250 0
361 -170 4 -422 0
446 -392 462 211 0
-248 -392 188 -353 0
-454 -197 198 -392 0
294 6 188 -467 0
227 -307 -15 -470 0
477 206 247 268 0
-386 -348 424 440 0
-399 -86 378 -79 0
-2 -27 216 29 0
-365 391 146 -362 0
-304 -493 -92 -163 0
36 417 -450 -486 0
-312 113 65 -5 0
-157 -211 -275 -59 0
-475 -379 -251 362 0
338 425 -149 -174 0
-284 -158 152 -477 0
211 -187 -123 -315 0
-165 416 373 362 0
-243 344 496 236 0
227 -430 -40 -201 0
-246 -235 -249 311 0
41 -161 -149 410 0
-127 39 -264 -7 0
270 -211 149 301 0
-481 -5 161 316 0
-162 227 331 146 0
190 140 288 100 0
-306 -288 -408 41 0
-257 340 185 -357 0
-12 367 284 308 0
429 -106 52 -110 0
314 262 -156 -317 0
198 -420 25 -143 0
104 51 -146 -419 0
78 -286 306 -388 0
334 403 171 489 0
-139 -4 -92 -65 0
-262 158 -211 -279 0
-122 -312 380 294 0
-250 -236 189 222 0
-419 -40 -53 313 0
-184 -26 -39 419 0
253 357 228 160 0
96 115 307 327 0
-449 -283 -344 279 0
-452 -147 -24 -462 0
-425 -239 251 -327 0
136 332 -417 456 0
439 231 426 452 0
485 474 -376 -134 0
-372 -125 -77 457 0
4 -60 324 342 0
236 -346 264 372 0
-452 -326 -1 -216 0
145 236 -124 235 0
466 -86 145 -490 0
-322 -451 93 194 0
479 -46 -214 149 0
70 265 233 -348 0
-185 -51 301 -3 0
-209 -135 319 5 0
221 338 -289 310 0
-445 423 -403 254 0
429 376 -290 -172 0
-318 186 307 -301 0
-71 72 -359 190 0
-215 -389 187 -7 0
361 106 -98 -265 0
363 317 81 426 0
-259 161 392 183 0
284 -232 437 169 0
234 265 -251 -25 0
431 487 466 430 0
191 130 -118 -120 0
-260 283 429 -238 0
399 -70 135 -436 0
145 -52 232 333 0
495 -355 -44 277 0
-496 -398 -315 390 0
-267 290 -106 -74 0
279 -41 44 428 0
223 -419 235 20 0
233 334 -200 -269 0
-247 -489 90 14 0
239 450 -426 318 0
254 289 414 -402 0
43 -388 -399 57 0
359 22 372 195 0
-309 -282 37 49 0
432 235 337 248 0
-497 -208 190 -434 0
-84 -33 226 -341 0
299 194 311 482 0
118 -372 446 310 0
222 325 314 301 0
374 451 417 37 0
254 318 412 250 0
-473 204 32 -242 0
-34 158 -439 -477 0
425 -241 286 -109 0
238 -252 -195 -276 0
-148 190 21 180 0
353 395 -269 -145 0
-55 -38 435 90 0
236 -271 -264 -159 0
322 -7 -259 -191 0
366 145 -125 -136 0
-127 56 -106 -414 0
-172 -453 -490 250 0
-385 21 -405 -119 0
-97 445 -179 152 0
-3 -316 -132 -74 0
-347 304 47 -352 0
-442 -407 -160 302 0
-63 -204 322 198 0
-479 -476 119 -375 0
-213 171 -26 -94 0
-392 263 -480 -142 0
249 -311 -393 286 0
-436 -182 345 -488 0
417 -52 -420 67 0
449 285 437 -434 0
142 11 21 332 0
496 323 -382 101 0
-363 254 195 97 0
331 237 -186 438 0
53 -380 339 115 0
144 42 74 -13 0
426 -284 122 183 0
270 215 87 12 0
-66 42 -105 496 0
255 -57 179 298 0
-58 224 -476 -32 0
-17 -195 -137 440 0
-135 -171 324 -316 0
251 246 -390 164 0
-470 284 155 -103 0
84 -45 433 -36 0
129 -338 353 199 0
488 487 -341 -469 0
428 306 -292 -221 0
-34 157 -488 -321 0
222 374 -101 -370 0
163 -361 -324 307 0
78 -105 356 153 0
293 -296 -380 16 0
212 -215 262 498 0
159 310 -137 254 0
-482 408 -498 -194 0
-396 68 -66 -255 0
-483 -313 -395 263 0
-483 -39 401 -298 0
424 405 -41 -261 0
273 -322 -325 102 0
119 -489 -95 -364 0
-326 145 -3 27 0
-120 411 -278 -6 0
-245 -203 58 -37 0
52 -17 -377 -58 0
336 -363 -220 -189 0
-490 128 -81 -276 0
394 -56 -411 -12 0
-391 247 -35 -86 0
85 193 -240 -338 0
322 256 445 282 0
-431 -385 382 94 0
-16 20 229 381 0
204 184 -92 -76 0
72 214 -455 -85 0
-145 58 494 -358 0
90 -214 281 -163 0
376 55 65 20 0
420 -374 93 492 0
-31 103 -253 -101 0
-421 -112 183 242 0
210 400 177 -119 0
-231 89 464 257 0
473 48 -491 82 0
-373 382 203 351 0
74 -292 430 -60 0
232 329 472 -473 0
-477 -449 456 337 0
-232 -497 495 -145 0
266 -138 232 327 0
-230 204 117 261 0
-325 -40 493 -331 0
-438 -199 -219 -159 0
-102 -467 379 -209 0
-316 216 -440 -347 0
38 65 -45 -42 0
291 367 -221 126 0
-435 18 -260 -325 0
-463 -43 -191 -205 0
-355 -353 -148 435 0
-297 -453 -150 417 0
235 -87 342 140 0
257 280 -209 -260 0
392 -32 231 304 0
-79 272 -152 -29 0
-246 55 -287 -193 0
-57 -317 23 490 0
-43 423 147 267 0
123 189 419 -173 0
-200 -96 -229 -99 0
-154 -22 -292 -217 0
9 -282 -441 251 0
-494 382 -89 193 0
447 -239 -264 -119 0
97 -341 -140 -108 0
463 119 -81 -335 0
-208 -48 -265 -311 0
116 -448 -373 408 0
173 295 370 376 0
347 -477 -292 -401 0
124 476 -387 340 0
-377 374 -259 -421 0
-345 -425 -405 -152 0
113 -235 383 266 0
-230 210 196 151 0
-9 -288 -156 -300 0
391 366 93 98 0
26 389 343 242 0
-261 -108 -13 371 0
-8 234 380 -217 0
174 455 101 -338 0
-63 -439 -482 375 0
149 422 -437 -50 0
-163 -165 -102 -150 0
397 -474 188 232 0
-182 377 199 244 0
117 -369 -11 15 0
465 346 -66 -344 0
293 142 -331 -403 0
-459 418 27 -415 0
417 160 -399 344 0
103 1 -180 52 0
-61 340 273 106 0
472 -88 -41 -44 0
-482 -34 -210 441 0
-264 -34 1 107 0
255 67 -164 -323 0
260 461 420 -234 0
256 -383 103 29 0
-311 -24 -68 -274 0
158 -292 -113 -13 0
-495 -413 -376 455 0
9 -351 -23 161 0
-477 3 -4 476 0
-351 410 44 -258 0
401 -472 -406 278 0
-53 314 281 3 0
-462 -154 147 -318 0
-239 -138 39 302 0
473 -106 175 -177 0
240 451 294 -2 0
66 441 474 437 0
-291 -43 361 346 0
-457 320 95 66 0
-426 138 -319 284 0
291 477 -63 -327 0
227 -488 -10 299 0
-179 -408 -54 258 0
-107 466 -302 405 0
293 314 251 -348 0
455 268 421 -53 0
-259 -197 309 -103 0
-163 345 433 -332 0
202 144 244 53 0
465 -416 -362 272 0
58 -100 -59 -426 0
-96 86 -29 61 0
-215 316 -182 -195 0
242 8 -297 178 0
362 -104 -141 -166 0
322 305 116 -349 0
-293 125 -102 421 0
-171 -8 265 190 0
411 -310 -179 385 0
39 -418 324 60 0
305 224 17 470 0
295 326 394 115 0
-191 277 168 420 0
273 323 -368 -432 0
-80 331 -465 -225 0
-210 -488 61 189 0
251 -422 -7 -341 0
385 177 284 492 0
-213 -85 159 -36 0
-327 6 -14 457 0
383 -319 215 131 0
-198 -310 -105 183 0
95 150 -195 -385 0
-9 -171 184 -20 0
330 -282 -393 254 0
80 -453 122 426 0
-37 -256 -369 -48 0
-238 -218 -418 91 0
190 -275 -109 127 0
275 46 -7 -145 0
-34 463 275 -478 0
341 -167 37 494 0
-400 185 -174 158 0
-254 -341 -89 -436 0
-329 148 -238 -438 0
-368 34 44 -121 0
-319 -416 59 185 0
6 -365 -46 75 0
36 -283 95 39 0
-485 -302 -396 320 0
-129 -431 -188 -450 0
-149 256 -423 -268 0
108 295 -305 -6 0
14 376 -323 -288 0
-237 -339 -158 -365 0
-447 19 351 -467 0
497 469 399 -24 0
231 -448 461 -210 0
-129 455 395 463 0
-491 -357 394 70 0
477 262 -463 -69 0
-453 -53 500 -414 0
361 -320 302 27 0
-418 -468 -275 -453 0
-329 34 429 17 0
-203 287 208 -211 0
97 -116 -19 -308 0
98 181 -215 302 0
12 79 -243 331 0
-238 -469 481 340 0
-204 -408 381 -267 0
-233 137 -295 226 0
-121 -101 159 -429 0
110 410 -69 306 0
300 -496 304 8 0
171 190 -308 103 0
130 -435 221 136 0
-74 293 404 208 0
409 408 264 -413 0
-15 37 197 -301 0
279 -191 432 332 0
387 110 54 -116 0
-470 -336 -243 -422 0
409 297 -40 185 0
24 -397 -483 225 0
-12 232 -392 -213 0
65 -41 238 -218 0
-30 335 -109 -361 0
323 491 413 128 0
-369 156 -377 149 0
-320 -124 -104 -177 0
235 406 -38 -112 0
-489 431 -37 224 0
-70 -417 -481 156 0
56 -72 484 -334 0
302 151 474 442 0
-55 243 -175 209 0
32 413 -356 -104 0
-440 -462 -371 -441 0
-339 12 -345 413 0
59 -353 -465 61 0
-96 306 -271 -280 0
122 -259 -252 209 0
306 -39 -498 -287 0
-226 -137 -115 76 0
466 123 -295 -468 0
189 -140 -73 128 0
-313 92 432 367 0
-341 -371 443 164 0
-155 -180 -121 417 0
-469 293 103 -315 0
155 -69 202 141 0
-12 -472 -426 -236 0
-417 409 215 67 0
355 -151 -309 -220 0
-275 158 63 -312 0
45 -262 -416 -351 0
-369 400 -500 -209 0
-321 -92 -449 -174 0
-192 424 -487 -161 0
-3 -202 -448 180 0
-232 -252 221 -327 0
497 -272 217 244 0
-36 -460 -103 470 0
286 418 148 -301 0
59 8 -332 -150 0
-225 479 -474 -424 0
346 -496 313 -257 0
-493 472 -243 -75 0
-115 -458 -180 -245 0
-233 308 348 -365 0
-310 444 484 130 0
-271 492 -26 -431 0
38 -311 -161 23 0
-363 -456 -169 -149 0
-397 -202 -334 -375 0
443 80 360 -160 0
197 63 19 -62 0
-250 195 -107 -335 0
-233 -311 -423 -443 0
90 -133 475 135 0
124 436 193 -276 0
-190 -423 -128 53 0
-320 -397 -151 -101 0
284 -299 233 246 0
-236 420 294 284 0
309 482 190 238 0
87 -364 -1 -23 0
401 -96 272 -447 0
-469 -201 -485 33 0
-316 -229 290 199 0
390 -455 130 13 0
-321 347 208 419 0
1 276 -253 -110 0
-183 189 159 485 0
-458 -118 -145 192 0
393 -378 73 -283 0
-244 171 309 -322 0
178 97 249 123 0
327 -405 -434 2 0
-269 373 403 -249 0
103 78 439 -359 0
-297 428 326 232 0
163 -45 443 -26 0
-487 409 -253 311 0
-157 329 -404 -433 0
82 -105 -467 -43 0
-75 -289 281 -211 0
-9 -216 -469 187 0
409 162 -290 55 0
203 181 255 259 0
-214 -100 -409 352 0
-233 143 -16 -483 0
393 -123 480 -194 0
302 -297 -45 355 0
-413 -329 92 -124 0
42 164 48 -425 0
-471 406 110 -385 0
-459 -202 -332 454 0
-59 448 -184 -495 0
-401 157 -37 213 0
-128 331 -277 484 0
445 -112 -28 -13 0
156 463 238 453 0
56 -238 237 -11 0
-439 406 -464 -466 0
161 -83 233 378 0
116 35 -404 -12 0
159 118 285 115 0
244 182 259 5 0
-266 175 247 338 0
-401 376 16 -252 0
66 -434 -333 -347 0
56 -140 441 -336 0
426 -377 -438 -111 0
158 -261 363 -485 0
-376 -174 125 53 0
-135 -131 -75 27 0
283 403 -377 -489 0
225 -315 71 -295 0
193 -10 483 416 0
277 242 -47 -410 0
97 -163 -176 88 0
-230 -104 -296 436 0
-276 -443 361 359 0
-135 385 340 79 0
-456 120 169 -375 0
-362 -260 9 49 0
282 -133 404 96 0
-209 -389 -305 -431 0
-448 358 362 228 0
449 -134 -308 52 0
-103 118 -388 203 0
-275 -38 90 -439 0
459 398 -305 230 0
-135 -136 -495 204 0
-398 -34 -459 357 0
141 214 245 269 0
-414 453 51 130 0
293 -393 -449 2 0
-412 171 249 -318 0
-368 -19 -181 498 0
72 -47 -245 -451 0
-16 297 32 -372 0
407 85 -290 291 0
442 -424 409 -67 0
231 232 -461 -243 0
-347 -10 -473 -80 0
-407 -388 -69 196 0
95 390 451 434 0
-312 52 16 -188 0
272 233 6 -157 0
-59 -482 -361 306 0
-272 52 257 -237 0
-142 102 -85 -482 0
5 37 -185 330 0
280 -91 87 305 0
37 -5 -456 178 0
66 150 25 356 0
-125 -476 -58 -11 0
279 -25 373 441 0
226 -80 -457 -405 0
143 498 -382 463 0
-238 -440 464 492 0
12 -18 -36 -195 0
-67 200 -294 -324 0
403 -79 -490 420 0
56 242 45 -395 0
7 -393 -440 -171 0
-214 -154 -232 471 0
-285 254 -398 -409 0
469 -64 351 400 0
-182 -124 -377 415 0
-176 41 -140 -196 0
-189 -363 223 -236 0
-416 305 -372 215 0
-228 123 -296 82 0
37 -308 95 -418 0
361 -137 430 -261 0
412 410 -476 -27 0
458 -461 -444 -283 0
-492 -80 -280 41 0
260 254 -293 102 0
336 -104 476 363 0
-155 99 76 -184 0
256 -402 -414 -480 0
-461 -194 384 -400 0
244 -175 266 230 0
323 -46 -346 230 0
398 102 -364 -424 0
107 358 171 463 0
-372 287 -428 -499 0
-180 4 -266 -309 0
158 150 -47 -336 0
-66 -428 -444 -208 0
378 235 212 -468 0
-127 -78 287 -497 0
-152 -241 10 485 0
320 -461 -13 318 0
-21 -182 168 353 0
375 453 -253 285 0
333 -473 -270 3 0
-445 -403 -85 -370 0
-221 393 -426 -488 0
496 203 434 -375 0
-283 400 -315 161 0
443 -279 -255 -264 0
-442 -118 -485 280 0
19 174 -276 398 0
428 -263 401 352 0
196 -490 228 -313 0
-429 19 -5 240 0
200 298 -197 464 0
-378 -47 -380 -14 0
177 322 -220 -180 0
-223 -457 120 443 0
-399 -155 -256 -146 0
-44 306 125 20 0
-21 248 218 -384 0
436 383 400 347 0
-392 -97 426 224 0
264 18 389 -369 0
365 -291 -322 454 0
206 -103 451 158 0
-272 36 39 -219 0
409 -127 -163 -372 0
-347 159 86 -107 0
-248 -459 36 -254 0
-14 -74 -361 -138 0
-382 -236 224 -258 0
367 46 -315 -348 0
142 141 484 -474 0
299 398 203 -120 0
-7 461 -114 393 0
274 165 -25 122 0
336 104 -468 -485 0
-479 -405 436 -97 0
-187 -430 400 -329 0
239 343 -381 -1 0
-279 383 -356 334 0
341 280 312 -1 0
-292 -237 -173 -238 0
-68 63 322 474 0
-441 -123 -379 -220 0
164 -360 29 -54 0
-195 402 31 -173 0
-72 319 359 -331 0
428 -471 -147 205 0
220 198 473 -486 0
146 238 336 110 0
-89 26 -68 282 0
-28 -419 -123 -321 0
126 -463 -420 -466 0
-451 -355 258 -357 0
-397 -76 49 -245 0
-349 -152 201 329 0
290 -209 -278 408 0
270 188 250 78 0
38 139 413 134 0
24 101 141 -458 0
-452 -120 -17 -97 0
-374 -209 316 143 0
255 -312 196 418 0
-411 -420 219 -261 0
228 -429 148 390 0
15 -24 384 464 0
127 434 282 497 0
39 342 84 325 0
-480 -225 -313 -232 0
219 -326 52 -141 0
-259 261 -492 273 0
-398 -482 -356 -192 0
174 -397 -85 -61 0
32 -363 -290 -1 0
94 -237 -66 -29 0
295 -67 -214 271 0
-387 -391 -434 -366 0
400 131 39 -380 0
-205 429 472 299 0
239 314 -402 153 0
128 461 -191 84 0
276 -361 -185 -340 0
469 -129 184 224 0
248 -28 280 -391 0
-240 -183 379 345 0
276 187 -92 -449 0
111 358 33 258 0
126 -92 35 -483 0
-81 -305 -198 -429 0
335 15 73 -78 0
113 -277 -323 -58 0
104 291 -478 469 0
92 175 -58 186 0
-131 1 -233 -210 0
237 -407 -121 146 0
-154 444 452 269 0
-224 -398 -449 -201 0
-221 -100 437 411 0
-207 -68 173 -165 0
-188 -445 -282 279 0
487 239 -22 -369 0
2 449 -64 339 0
-289 -272 -327 156 0
-48 -457 81 -412 0
-470 -143 230 314 0
-176 -270 4 -129 0
-496 -33 -140 480 0
415 409 284 447 0
-302 -429 321 -238 0
-212 228 -425 474 0
-23 5 -176 -21 0
49 -97 -196 460 0
-10 266 136 -91 0
-352 115 217 -142 0
-171 209 -132 -462 0
-101 264 238 -442 0
-492 197 293 323 0
-435 -113 -270 -176 0
184 -196 283 -120 0
-319 -173 -372 -190 0
413 -433 251 255 0
160 308 -449 -471 0
-185 322 146 -184 0
-201 -354 -394 225 0
252 -442 425 418 0
-283 -319 360 208 0
-71 260 -407 -437 0
290 266 -415 -404 0
-376 -272 129 31 0
