c Large 3-SAT formula for GPU testing
c 1000 variables, 4300 clauses (ratio: 4.3)
p cnf 1000 4300
159 -953 9 0
-113 97 -861 0
683 920 -101 0
501 320 467 0
59 442 599 0
-723 784 826 0
50 -657 462 0
341 -588 771 0
-686 -404 -581 0
563 -260 -741 0
-630 -977 281 0
624 407 -318 0
-847 402 830 0
-826 -537 -780 0
798 668 -909 0
-426 -817 -338 0
259 847 -138 0
794 587 -653 0
196 193 -800 0
-13 766 -283 0
839 -133 162 0
-728 -276 250 0
-145 -938 936 0
743 141 338 0
-177 -872 496 0
-837 581 -862 0
203 -97 -501 0
-842 -306 -773 0
-559 -455 -956 0
997 -6 -907 0
-727 -221 630 0
700 854 891 0
-519 730 -403 0
657 -583 825 0
-28 -262 -476 0
231 387 -244 0
-116 -842 -802 0
-358 784 -167 0
-832 460 589 0
-756 -849 -488 0
-935 909 -524 0
868 -823 -650 0
-16 782 934 0
725 421 543 0
946 -614 -126 0
-748 832 -199 0
423 -647 -348 0
-316 -106 677 0
693 708 701 0
-968 625 651 0
310 602 509 0
-705 -928 -162 0
627 15 470 0
-833 352 654 0
703 -474 -104 0
-762 285 54 0
710 967 995 0
963 -811 140 0
405 -131 321 0
651 -288 445 0
-352 783 625 0
833 -856 802 0
-630 -692 207 0
391 -442 646 0
607 -793 -668 0
-838 557 629 0
14 936 935 0
-184 691 779 0
170 -182 -815 0
808 833 491 0
564 -125 -944 0
440 33 -129 0
664 659 -123 0
-176 986 56 0
353 810 289 0
757 -505 -207 0
237 677 233 0
866 986 850 0
227 852 -381 0
-406 -323 105 0
417 867 -208 0
298 283 191 0
955 -423 118 0
-320 -269 -962 0
20 942 887 0
591 -389 -17 0
-4 -422 822 0
8 154 -871 0
-266 938 -191 0
252 -316 -302 0
-991 -889 134 0
-899 -829 840 0
-148 -485 -202 0
475 160 -27 0
959 359 -790 0
49 959 -681 0
579 -363 -749 0
89 -344 21 0
-625 110 891 0
-739 222 736 0
425 456 689 0
495 962 -188 0
672 -492 -964 0
-443 -60 -736 0
860 -637 -242 0
472 438 -172 0
-775 -842 324 0
-442 -283 295 0
-439 916 556 0
955 608 -153 0
146 848 -340 0
-835 890 494 0
173 -391 -282 0
772 867 -711 0
-377 26 -709 0
751 762 410 0
-898 -514 314 0
412 560 487 0
-542 863 -702 0
-840 -987 -346 0
-910 419 -657 0
-250 -767 -383 0
-212 121 -113 0
554 184 -720 0
-642 -75 -348 0
-595 -13 424 0
-955 -469 -47 0
286 559 630 0
503 762 798 0
-140 -735 785 0
336 531 992 0
-76 -80 16 0
685 543 -9 0
-537 924 -454 0
-6 974 525 0
13 365 642 0
-585 57 -667 0
238 264 938 0
979 -410 -43 0
-652 791 -344 0
131 -487 313 0
-535 -427 616 0
107 634 -967 0
540 -985 725 0
981 -615 -421 0
-980 124 648 0
-645 437 130 0
-222 203 -553 0
-496 761 289 0
-177 -524 622 0
532 113 -535 0
852 905 682 0
-930 832 -434 0
-920 290 90 0
334 -390 752 0
432 245 -254 0
-248 -941 -645 0
395 22 -888 0
-683 -355 40 0
-971 278 336 0
-357 -320 -229 0
-128 552 -379 0
-899 530 -892 0
30 -757 -233 0
-210 -367 470 0
305 -865 951 0
625 -768 -384 0
-963 846 -893 0
-707 -676 -86 0
-243 -556 -58 0
-967 -860 426 0
664 -583 -322 0
-275 -749 -646 0
853 299 820 0
132 -72 -146 0
-886 -399 90 0
-577 -521 251 0
817 512 921 0
365 -423 730 0
-959 -486 245 0
-769 -590 -594 0
618 409 -126 0
-289 -413 559 0
971 614 -470 0
367 -3 -98 0
451 350 692 0
620 294 -999 0
-531 61 561 0
-253 641 -743 0
227 700 -60 0
426 -146 -520 0
493 359 -936 0
-234 124 232 0
-662 -637 -218 0
477 -581 726 0
913 -891 -525 0
-7 369 723 0
396 -868 92 0
471 -708 -788 0
-57 -202 901 0
-431 892 672 0
844 10 -759 0
416 -629 721 0
381 549 438 0
-507 744 -938 0
130 -905 -719 0
-734 654 -314 0
435 -646 -538 0
766 12 103 0
852 224 287 0
-120 922 -237 0
-68 -890 214 0
842 912 -310 0
-137 -980 948 0
910 -735 730 0
582 -497 424 0
683 979 73 0
-772 -121 243 0
481 -719 688 0
468 -292 286 0
133 961 -688 0
-409 747 -495 0
-187 408 949 0
227 -444 -549 0
-559 -260 84 0
338 789 825 0
788 977 233 0
99 -306 997 0
319 -604 -49 0
-97 -390 718 0
910 122 -407 0
-749 424 403 0
829 860 -373 0
-962 -188 -456 0
878 -918 -987 0
946 -892 769 0
-263 -449 -754 0
745 725 25 0
766 575 -422 0
74 821 -761 0
377 670 -101 0
-443 809 -129 0
-540 192 405 0
836 860 -941 0
-6 5 -997 0
919 -758 -737 0
79 -677 292 0
-878 -19 273 0
-461 547 358 0
225 -436 -773 0
104 -438 536 0
-691 -748 380 0
650 450 557 0
639 63 -168 0
-219 43 -169 0
-338 -461 -390 0
-556 -669 -667 0
-749 173 -260 0
-170 -442 -746 0
-6 -766 -839 0
-480 531 -413 0
105 969 -299 0
53 -290 -236 0
-700 -890 725 0
-348 -448 442 0
-974 -682 -78 0
-13 927 15 0
-616 752 343 0
-500 -114 308 0
446 451 -178 0
955 447 167 0
825 -984 84 0
221 41 893 0
189 -624 311 0
-225 350 -40 0
840 -19 -334 0
553 158 159 0
847 -468 -414 0
-599 -502 -613 0
-203 616 378 0
-895 -420 652 0
487 417 -736 0
179 455 -413 0
-639 537 -668 0
-776 815 57 0
-261 231 -474 0
231 985 -517 0
990 -457 933 0
-860 186 462 0
-17 -122 -77 0
-83 12 -512 0
878 -676 -693 0
196 -248 -572 0
-347 -442 -88 0
657 -697 70 0
-853 693 400 0
710 -650 -836 0
625 401 -887 0
-94 -601 -141 0
867 -773 -405 0
804 522 59 0
-244 814 462 0
962 -245 -634 0
-42 -349 604 0
480 -398 -164 0
-502 -361 447 0
979 985 797 0
-378 -696 449 0
-855 767 880 0
264 -719 724 0
-805 944 -17 0
-431 467 219 0
719 -286 -213 0
371 -696 -625 0
-840 865 -205 0
905 188 479 0
-324 347 -91 0
786 55 463 0
345 -92 950 0
82 695 -289 0
307 349 205 0
577 -435 688 0
-524 176 760 0
977 301 -311 0
-477 877 121 0
148 -758 -897 0
-256 375 451 0
-678 -893 -577 0
105 -314 185 0
729 765 -927 0
-26 -236 -610 0
794 -24 92 0
457 -317 817 0
-657 154 -231 0
190 257 -301 0
-676 849 -546 0
-912 -781 854 0
-477 -602 -96 0
-486 494 276 0
-843 -415 -862 0
724 934 -245 0
614 164 -985 0
-179 782 120 0
31 -352 -586 0
-696 743 157 0
-338 -389 -615 0
-996 721 -389 0
18 689 68 0
146 -345 -268 0
10 101 -254 0
590 -768 937 0
-847 -777 -910 0
63 548 -703 0
-336 -795 49 0
719 438 566 0
793 -439 -984 0
813 178 -415 0
-154 415 861 0
-464 -952 428 0
154 -944 -278 0
968 863 -509 0
-654 803 -115 0
-488 -878 -187 0
-641 253 475 0
148 408 -100 0
-698 -795 932 0
-227 -670 -942 0
-791 -716 -934 0
-36 397 325 0
-298 -683 473 0
-224 -998 -911 0
744 545 40 0
-888 -918 128 0
969 569 -970 0
-340 -696 19 0
261 -706 309 0
-12 655 -259 0
642 853 -526 0
-822 459 -790 0
-906 -694 -196 0
782 176 -55 0
-249 -383 -599 0
-390 -292 586 0
-834 183 90 0
182 -918 322 0
-155 -145 911 0
-114 412 792 0
712 -327 -339 0
-726 592 132 0
-951 176 556 0
-197 1000 476 0
73 -233 227 0
-423 -328 -733 0
551 -264 679 0
725 42 596 0
778 -207 -636 0
-824 145 -793 0
221 313 67 0
803 -797 -806 0
-401 380 343 0
675 -540 -821 0
481 -659 -176 0
-431 -505 -412 0
144 985 833 0
-428 -680 -323 0
71 244 -896 0
106 830 -229 0
479 201 -126 0
-685 -397 -60 0
605 -236 -658 0
670 -377 -145 0
-741 -259 -898 0
699 -569 -90 0
-402 -547 966 0
-194 -783 212 0
-75 -26 780 0
-123 38 157 0
-966 331 21 0
-168 -560 -771 0
-996 962 285 0
-817 819 661 0
866 -110 589 0
-582 -471 396 0
824 469 821 0
-110 -825 -943 0
144 -347 -166 0
107 -351 -286 0
-989 -743 281 0
-857 -452 933 0
547 317 187 0
259 26 -766 0
-814 311 666 0
-466 -358 636 0
568 151 783 0
-74 -879 -428 0
976 -701 937 0
640 594 -111 0
-578 455 -9 0
884 42 -723 0
492 803 -782 0
388 -360 981 0
554 -337 392 0
-479 809 -900 0
-385 530 478 0
-844 611 -209 0
-194 -959 497 0
-983 -571 625 0
-206 230 -617 0
-4 327 972 0
703 -353 -830 0
-137 -539 -79 0
-782 -263 512 0
-964 -885 807 0
412 478 383 0
-415 347 -290 0
572 -92 715 0
635 422 151 0
-228 -739 -204 0
276 -34 -728 0
786 -982 139 0
-701 -345 -316 0
709 791 -9 0
-3 -799 -415 0
67 511 -820 0
-440 47 -552 0
-831 543 626 0
873 771 108 0
13 723 58 0
-511 889 780 0
-82 -891 112 0
100 163 -411 0
-209 -48 427 0
879 -156 -87 0
-339 -193 249 0
-700 951 -242 0
-99 -679 -793 0
50 -901 851 0
-58 53 187 0
-314 872 918 0
556 130 -978 0
-507 481 289 0
-372 -877 23 0
-492 104 -167 0
-927 -254 817 0
-324 509 196 0
214 234 744 0
-124 -61 -888 0
166 82 -121 0
-893 268 821 0
-704 118 607 0
-605 595 -365 0
856 715 55 0
-493 707 750 0
51 659 756 0
122 -275 -218 0
708 554 164 0
164 -667 -222 0
13 -697 248 0
-648 767 983 0
-376 381 421 0
351 -734 -999 0
-706 -635 640 0
-824 -706 431 0
-246 -913 429 0
14 630 -965 0
-960 -304 641 0
329 -937 408 0
959 -142 -664 0
-418 -636 -414 0
821 -704 873 0
-793 -756 -277 0
214 -44 235 0
607 -321 945 0
380 530 729 0
937 -182 -364 0
-253 -407 -327 0
-814 -295 968 0
471 839 -824 0
719 -735 -790 0
687 -519 721 0
-977 -848 -748 0
725 -388 4 0
181 548 -776 0
-554 793 58 0
-254 170 -646 0
711 184 289 0
-643 -555 609 0
-150 -410 -394 0
697 -531 39 0
-880 80 -773 0
-879 429 -813 0
-846 875 387 0
815 732 270 0
42 203 908 0
652 -678 -379 0
50 -394 363 0
-422 -799 -359 0
929 804 -209 0
681 651 -910 0
823 -25 -916 0
91 -435 923 0
-755 580 588 0
-621 819 69 0
-290 203 558 0
834 488 182 0
723 900 871 0
-695 -981 812 0
-19 -697 -96 0
527 -305 -264 0
-515 793 511 0
839 28 -220 0
267 697 760 0
-197 278 968 0
568 823 -791 0
-173 149 136 0
-479 880 561 0
-532 271 -755 0
-480 102 -486 0
-565 934 -391 0
994 -632 -437 0
-550 22 -349 0
-26 -653 279 0
785 393 -239 0
503 -161 16 0
71 -563 124 0
439 238 -212 0
49 -712 103 0
-829 -607 478 0
918 200 -83 0
263 251 -292 0
760 129 224 0
-713 9 -917 0
983 -699 -373 0
-603 -592 -246 0
-512 735 369 0
936 393 783 0
521 14 -1000 0
213 -65 -303 0
495 723 -289 0
-50 819 383 0
23 -476 859 0
-596 424 -56 0
594 -33 183 0
-542 686 -177 0
-995 -907 636 0
583 -54 -836 0
-741 -426 -707 0
-895 336 -151 0
643 525 -788 0
-418 253 -701 0
706 -460 865 0
-265 304 -759 0
-945 -156 50 0
154 -365 -704 0
434 -532 -920 0
-610 -624 859 0
176 -304 122 0
-241 488 -959 0
308 -139 -947 0
-575 360 544 0
-289 -379 655 0
382 641 503 0
-705 -584 272 0
375 -949 742 0
627 282 389 0
994 14 790 0
361 -859 993 0
429 805 -507 0
-900 613 471 0
-533 124 -809 0
-397 -477 -396 0
954 -52 772 0
-416 989 219 0
351 281 -462 0
-623 391 681 0
-341 681 77 0
-781 -290 737 0
25 -45 -976 0
-34 701 -230 0
-86 233 256 0
170 -132 915 0
185 138 439 0
-273 -512 822 0
890 39 -863 0
991 509 -6 0
-795 -607 -522 0
719 919 374 0
-599 -313 403 0
-36 873 859 0
-509 405 967 0
-656 561 347 0
-166 -889 17 0
-40 -823 348 0
-201 -352 798 0
-531 -456 130 0
-320 -34 -14 0
-284 881 291 0
-798 -917 -75 0
302 866 979 0
23 -501 825 0
-155 476 -890 0
76 738 773 0
-696 -167 864 0
-477 -408 -273 0
122 -706 921 0
-462 -445 -888 0
884 -410 -733 0
774 674 -450 0
111 -348 594 0
-358 -161 -812 0
825 326 80 0
529 545 -13 0
-366 725 886 0
-197 -139 -907 0
930 683 -156 0
168 23 181 0
-255 -588 257 0
-668 -122 -322 0
-133 -743 -979 0
-168 -841 -959 0
876 967 -399 0
-549 454 467 0
73 -146 831 0
793 641 -118 0
-952 -133 -300 0
-152 -356 -90 0
-481 -336 416 0
147 -86 264 0
-705 184 24 0
-133 629 73 0
-525 -566 -626 0
827 -616 575 0
92 -654 -165 0
979 650 -948 0
658 -718 464 0
943 -204 -334 0
109 541 895 0
641 -852 -808 0
-961 -838 -313 0
713 -556 -881 0
48 -756 655 0
60 480 327 0
-780 879 -542 0
497 -177 -168 0
-171 -506 -755 0
-299 78 -866 0
228 -52 892 0
-678 -760 -566 0
-102 724 -565 0
838 -781 978 0
743 141 -373 0
-380 -49 -902 0
894 699 -446 0
580 494 622 0
-149 -318 -46 0
-130 26 172 0
-156 -943 -236 0
447 -746 467 0
870 131 747 0
-862 -284 -895 0
-721 657 324 0
-261 -890 -103 0
811 -216 -966 0
303 164 -169 0
-339 -707 932 0
148 -267 391 0
825 -636 -903 0
164 -706 426 0
145 -737 -954 0
-191 573 -705 0
-311 128 -202 0
-998 -983 456 0
419 -261 -269 0
632 99 -550 0
-678 206 -699 0
-255 -125 728 0
-882 830 794 0
801 543 -701 0
598 398 912 0
-694 135 -187 0
-866 -510 491 0
132 68 -862 0
476 -576 905 0
-937 59 -824 0
494 427 202 0
493 546 -87 0
954 173 -724 0
438 812 -737 0
-7 -106 784 0
926 -202 -474 0
214 -39 915 0
-117 296 -40 0
458 -936 810 0
942 -745 125 0
-77 -660 -632 0
-47 -908 -573 0
362 673 -465 0
-828 -739 849 0
-78 800 603 0
913 -561 530 0
719 362 464 0
-877 -41 -553 0
-670 929 -849 0
816 -807 233 0
-589 782 24 0
416 162 -61 0
76 -766 -57 0
517 -887 -825 0
-346 500 787 0
-390 -349 -232 0
444 -733 -894 0
-697 329 873 0
-622 340 421 0
-431 -707 -46 0
-499 636 -319 0
-303 467 253 0
-779 -390 -322 0
-668 -834 870 0
-399 -49 80 0
-108 298 294 0
906 -182 -967 0
-787 808 524 0
103 519 715 0
-240 -857 -778 0
740 917 -156 0
57 -362 269 0
990 -438 -116 0
-995 -493 -81 0
705 -841 -377 0
-610 361 292 0
473 534 111 0
-283 98 -128 0
-483 -836 492 0
533 -151 497 0
-935 -952 872 0
327 -522 -91 0
-523 -849 597 0
-605 419 -547 0
551 446 934 0
-67 -969 -139 0
783 680 -170 0
275 -321 -753 0
905 984 891 0
662 -126 450 0
-80 477 10 0
344 924 -540 0
464 893 587 0
58 22 750 0
843 -847 -228 0
507 -339 112 0
-990 -309 902 0
-413 -427 -759 0
-791 -237 133 0
-662 243 830 0
-500 -843 662 0
-283 614 573 0
-849 -246 327 0
227 -701 -166 0
-565 -825 786 0
-702 632 -144 0
263 -66 -35 0
248 -962 -436 0
-142 229 -370 0
-506 440 256 0
-802 -882 548 0
855 -841 167 0
725 -573 959 0
-459 -169 -60 0
458 -530 210 0
723 397 -284 0
-909 966 -648 0
-907 996 -552 0
-878 -853 831 0
164 -859 -781 0
621 -629 -269 0
-999 -928 545 0
-725 137 -109 0
886 750 465 0
-894 307 -794 0
-185 -410 390 0
-761 961 838 0
43 68 996 0
534 -500 666 0
326 -532 -632 0
224 125 289 0
-428 795 626 0
267 689 498 0
515 -588 -818 0
671 -900 253 0
-507 -287 -895 0
529 -766 551 0
442 385 -538 0
-649 -124 -456 0
-501 -380 657 0
437 -983 639 0
154 411 -144 0
-274 603 108 0
-231 683 -366 0
93 817 -717 0
-761 -701 -593 0
-416 858 704 0
-516 -735 924 0
-879 -378 927 0
848 -90 -169 0
44 -859 -591 0
-834 541 875 0
-997 -888 855 0
-969 -574 -847 0
135 -350 885 0
927 747 741 0
770 846 -383 0
-158 477 -737 0
943 -913 706 0
-154 -64 -588 0
616 -929 742 0
-448 92 312 0
-46 -835 321 0
889 -396 -955 0
871 -510 176 0
-835 235 -118 0
135 869 -380 0
582 508 481 0
568 -256 595 0
933 -46 739 0
917 231 84 0
680 175 -246 0
848 -722 182 0
418 -811 406 0
-977 -196 -483 0
427 -120 -593 0
424 -278 502 0
-638 394 -235 0
-172 443 280 0
162 813 860 0
680 -522 531 0
750 710 500 0
-119 -64 -341 0
188 518 967 0
732 198 -186 0
-44 -677 -996 0
-547 -771 -749 0
778 -332 -531 0
-330 -76 105 0
-494 743 -492 0
-406 -60 -749 0
482 -963 138 0
479 697 360 0
-903 612 249 0
-844 -5 -287 0
633 559 153 0
90 -34 -252 0
131 -975 -481 0
165 948 -860 0
-394 879 363 0
-11 -255 905 0
213 -894 609 0
202 -622 -145 0
973 254 234 0
878 867 57 0
-317 -712 -934 0
-757 -865 -673 0
931 -311 77 0
987 -636 -945 0
-63 173 690 0
247 -44 -673 0
842 -314 664 0
-31 -164 -71 0
-759 490 -828 0
568 -785 719 0
-462 768 943 0
714 559 -437 0
-644 292 -759 0
255 548 -123 0
-996 -616 610 0
895 -31 262 0
-856 -500 884 0
290 -412 577 0
-868 -313 -283 0
142 -451 704 0
199 458 -680 0
132 913 -196 0
-430 -797 -133 0
-338 281 155 0
-404 -877 -275 0
-480 -843 -345 0
730 -753 255 0
-106 -831 -832 0
614 -303 -444 0
360 -767 812 0
-488 -393 479 0
537 -582 736 0
-756 359 -664 0
970 -606 -276 0
531 -122 -717 0
314 -73 288 0
50 -356 -949 0
-544 143 -748 0
-923 504 -935 0
-560 713 -934 0
137 -90 -754 0
-357 -366 -13 0
727 -313 782 0
-506 280 501 0
737 471 -359 0
-192 671 520 0
123 734 -505 0
246 686 372 0
598 -915 -883 0
867 699 247 0
-223 -278 -249 0
-527 427 576 0
-35 -550 549 0
597 249 658 0
608 -958 714 0
695 338 -819 0
-395 -7 974 0
-131 -511 738 0
-697 -806 -258 0
151 737 -76 0
-462 14 -6 0
689 -106 -61 0
-916 6 865 0
-595 -476 -594 0
231 310 -314 0
999 509 -170 0
-935 416 493 0
18 -453 454 0
-868 587 -583 0
307 929 -340 0
126 677 -411 0
327 -694 -634 0
-417 673 398 0
-750 -582 541 0
856 717 -390 0
-716 -407 337 0
-784 -270 934 0
214 107 197 0
406 893 -562 0
339 -620 295 0
-120 756 649 0
6 984 -645 0
-274 946 -827 0
44 532 -416 0
342 -870 702 0
-758 740 62 0
837 -268 -98 0
985 -242 840 0
-677 578 399 0
473 -535 580 0
128 249 -483 0
784 289 360 0
-418 -859 721 0
-118 880 349 0
73 -986 163 0
459 705 -957 0
-246 277 52 0
863 496 -88 0
516 -486 948 0
-577 538 -424 0
79 593 597 0
-113 437 -796 0
-736 -332 149 0
797 538 65 0
474 -2 -969 0
-817 706 117 0
818 575 -705 0
957 -886 665 0
202 -402 -39 0
827 -70 366 0
392 -353 649 0
769 -774 692 0
378 -235 -446 0
100 55 -813 0
158 64 -708 0
544 728 631 0
239 -334 -617 0
688 -878 291 0
-448 188 -611 0
-587 392 76 0
558 727 -429 0
530 408 -325 0
-781 793 109 0
163 423 -301 0
-666 849 -419 0
-389 -958 -42 0
864 -146 -99 0
-398 -751 977 0
603 946 -611 0
-255 -924 960 0
-342 -771 465 0
-377 805 122 0
-566 -175 677 0
-220 -2 -541 0
716 -117 161 0
-585 970 -509 0
413 -712 245 0
213 800 350 0
933 370 257 0
-111 654 -246 0
327 -494 -404 0
434 877 -934 0
176 -607 158 0
110 -334 -616 0
59 -32 125 0
-473 859 -132 0
851 533 -932 0
-978 177 127 0
-837 356 -316 0
97 270 252 0
263 -825 478 0
-537 -790 -915 0
60 553 -164 0
-817 958 382 0
-804 -688 -701 0
443 78 -134 0
81 -7 868 0
895 -747 -667 0
346 591 203 0
162 597 127 0
-489 443 24 0
893 -351 379 0
702 -708 -307 0
968 499 -418 0
193 -923 -517 0
918 150 -373 0
249 -614 -11 0
-807 321 39 0
225 -932 -370 0
650 569 -664 0
-474 -759 455 0
745 470 958 0
787 529 -347 0
681 474 693 0
940 337 858 0
518 170 476 0
-4 296 -413 0
222 -494 -721 0
-582 197 -107 0
-996 363 241 0
694 634 827 0
-732 542 770 0
-76 -628 447 0
-360 922 -58 0
-121 676 -655 0
-111 -921 -551 0
856 -857 -528 0
-449 -594 823 0
25 -930 601 0
104 234 -909 0
-349 292 566 0
-632 968 781 0
-71 108 -825 0
524 692 -477 0
-411 273 -716 0
153 837 -217 0
740 102 151 0
89 -134 -556 0
378 738 -62 0
440 -799 15 0
-111 -175 -542 0
362 -279 -329 0
-386 29 737 0
-566 779 -688 0
607 116 915 0
533 443 310 0
995 -191 660 0
-684 -937 167 0
-218 301 -985 0
164 368 548 0
867 -440 -342 0
-178 620 -473 0
-94 -259 162 0
-115 361 40 0
937 902 852 0
-375 210 700 0
751 -76 -284 0
-11 -982 -824 0
-299 856 -269 0
357 -241 938 0
594 -835 928 0
-786 507 419 0
897 -875 913 0
-885 57 874 0
580 490 -271 0
903 529 337 0
321 82 -142 0
-442 907 -91 0
274 -508 -244 0
942 -758 -267 0
261 338 -813 0
410 -36 237 0
550 -15 -319 0
-121 446 470 0
-616 -824 -232 0
-645 315 -17 0
-887 422 766 0
-61 218 544 0
-39 822 982 0
659 -535 857 0
-860 -444 -157 0
-662 -279 -621 0
572 747 850 0
-627 594 765 0
686 -917 42 0
-652 534 -422 0
361 364 100 0
-86 -362 -565 0
-642 54 236 0
515 -949 417 0
293 -283 -189 0
-388 -523 -578 0
-891 -440 -574 0
-139 369 -681 0
-71 -600 -583 0
-491 -534 114 0
549 -548 373 0
-529 -619 -42 0
684 -610 950 0
364 -826 -45 0
-372 -358 -513 0
101 103 -532 0
-267 -416 -552 0
-785 -739 100 0
-480 -221 915 0
-246 626 -677 0
426 -563 -110 0
196 424 -878 0
-198 -63 860 0
-521 886 -788 0
-377 759 491 0
-110 34 718 0
943 -551 -314 0
218 568 240 0
893 542 -68 0
-297 277 64 0
-597 53 -495 0
781 385 572 0
-357 -66 -5 0
634 -549 -947 0
-950 111 -972 0
-710 532 -885 0
212 50 -675 0
-517 817 7 0
-104 -988 -334 0
-283 976 -82 0
441 904 -150 0
-654 34 913 0
-995 -443 77 0
184 -551 208 0
-71 -752 87 0
699 834 -131 0
-208 -256 -556 0
-940 815 -282 0
-21 716 -24 0
201 -239 -825 0
-935 163 -101 0
462 -960 -173 0
49 -551 -622 0
-585 877 -144 0
496 -278 47 0
661 367 560 0
-708 728 -429 0
787 -587 280 0
333 752 863 0
516 -383 586 0
882 -712 549 0
155 -679 279 0
-349 -335 57 0
-65 555 256 0
-233 -326 -792 0
5 -717 242 0
-906 355 -824 0
-93 413 209 0
-999 718 -353 0
-854 -820 5 0
-711 443 -167 0
15 -211 252 0
-869 -252 -384 0
-236 -837 597 0
854 395 888 0
-647 531 851 0
-274 266 -421 0
-409 722 508 0
-283 -119 512 0
132 -483 998 0
36 -149 -564 0
-103 -200 -928 0
397 336 167 0
-923 -404 157 0
-714 -80 -829 0
907 -293 -778 0
-895 916 676 0
717 -900 -135 0
-304 92 227 0
650 596 713 0
682 -755 65 0
-837 -81 464 0
-706 -216 -905 0
239 605 889 0
931 407 -556 0
359 -673 341 0
-4 496 -920 0
392 -354 761 0
573 -691 933 0
725 -826 232 0
-44 519 -740 0
985 -658 24 0
110 -566 -191 0
-332 -361 476 0
-779 911 -618 0
681 -591 -827 0
-428 -761 -621 0
-187 241 752 0
-716 849 -259 0
-19 -342 -643 0
894 292 629 0
-276 445 -889 0
671 470 891 0
-408 -969 554 0
64 -839 -344 0
-63 597 -83 0
-956 -543 472 0
680 608 -230 0
-955 829 963 0
-17 -22 901 0
-927 -714 185 0
512 24 228 0
-262 47 519 0
970 563 -667 0
850 489 253 0
-284 34 898 0
345 75 199 0
-267 68 457 0
282 -557 326 0
632 -583 -777 0
656 917 268 0
-931 602 -692 0
-671 -776 784 0
163 -857 -129 0
266 -25 -467 0
-605 228 -448 0
-942 -238 91 0
145 -283 -768 0
93 771 807 0
346 -750 -447 0
989 91 -82 0
389 986 -395 0
-401 154 -479 0
638 -38 -32 0
839 341 -278 0
998 -843 -943 0
-858 -65 187 0
-790 628 -852 0
312 283 118 0
-557 -930 307 0
-97 -600 -589 0
-54 445 925 0
-618 707 179 0
-642 -870 918 0
355 -697 -585 0
213 -885 -481 0
-124 -710 56 0
626 -870 42 0
-873 -428 -848 0
430 -781 -540 0
273 559 518 0
-608 -931 -935 0
-817 170 -914 0
-829 976 155 0
781 -718 104 0
-992 605 382 0
-829 -399 612 0
381 -396 -359 0
600 61 -818 0
-157 137 -958 0
-144 384 61 0
-251 320 852 0
-190 786 114 0
940 -818 -197 0
-899 918 -571 0
-500 -944 207 0
-614 513 -456 0
-363 364 694 0
400 -270 223 0
-482 -114 -48 0
-708 976 894 0
458 -786 556 0
-854 -693 -724 0
903 -583 886 0
992 189 -873 0
-241 345 49 0
484 -730 83 0
875 -529 785 0
-570 -771 -936 0
-316 198 503 0
34 619 249 0
91 -330 979 0
996 -882 -970 0
162 470 -620 0
90 248 -644 0
954 430 562 0
-315 306 -178 0
414 -639 415 0
172 -561 173 0
48 -961 219 0
-349 -266 881 0
-374 -352 19 0
417 -896 -343 0
-145 206 -617 0
647 -335 -772 0
-939 -783 -181 0
-740 -171 973 0
127 -875 15 0
786 407 -647 0
766 -17 -92 0
-867 -681 475 0
419 -292 -183 0
835 -9 196 0
-776 -922 654 0
478 708 83 0
138 -962 859 0
131 749 466 0
736 -127 -325 0
-437 556 -130 0
-402 415 998 0
229 -125 40 0
-354 936 873 0
-884 -369 16 0
-263 314 39 0
501 212 170 0
-281 34 -415 0
646 -584 91 0
-623 608 -221 0
-935 218 -34 0
-993 449 -624 0
338 -823 -105 0
-63 -519 -870 0
-687 -402 138 0
-980 -683 371 0
507 765 -206 0
-487 122 40 0
570 -611 -40 0
-296 -123 590 0
768 -77 727 0
-982 -8 349 0
-592 3 88 0
623 -120 251 0
-647 327 366 0
921 320 816 0
-194 -848 -109 0
-720 -719 222 0
-347 527 -875 0
202 439 -207 0
-486 -56 -342 0
831 -843 156 0
-883 785 -632 0
-307 -961 -83 0
-567 -243 -710 0
-279 846 -81 0
638 -138 -156 0
-845 380 -616 0
314 -831 86 0
-395 -342 112 0
218 -738 -918 0
895 -408 -480 0
-491 788 -152 0
804 -855 -109 0
9 -578 38 0
59 -35 -625 0
-988 644 966 0
-594 389 -946 0
631 77 -72 0
-130 481 -96 0
567 -849 -789 0
2 -548 280 0
46 -16 487 0
-779 325 911 0
-774 47 269 0
85 352 -762 0
454 -533 -496 0
-191 691 -21 0
-62 -973 280 0
646 -36 -380 0
426 667 -919 0
-518 -557 -589 0
-256 -531 196 0
198 230 -910 0
365 -634 995 0
878 572 637 0
74 384 1 0
139 -505 266 0
945 260 842 0
-563 -269 381 0
-670 -697 456 0
196 -477 -804 0
375 676 -352 0
-26 -83 -877 0
600 632 -181 0
412 -530 484 0
508 174 -302 0
-755 -950 978 0
-237 844 950 0
400 641 776 0
-423 236 -654 0
-525 118 -271 0
-916 902 -471 0
685 -797 942 0
785 -647 889 0
-468 603 332 0
348 -224 796 0
470 482 289 0
525 31 805 0
-344 399 299 0
368 1 506 0
-387 514 -423 0
947 -84 -391 0
670 -700 -439 0
774 -761 432 0
-951 325 -2 0
-901 -686 -944 0
-364 -416 2 0
499 508 875 0
243 -466 70 0
-684 -374 279 0
-806 -76 -535 0
-90 -822 767 0
538 892 979 0
-467 -379 86 0
488 -174 -870 0
-646 330 -53 0
-573 -389 189 0
710 -620 -750 0
-746 -698 766 0
734 -722 494 0
75 966 709 0
538 443 -227 0
986 -242 -429 0
-303 -180 -790 0
563 197 238 0
513 -5 14 0
-409 317 372 0
-925 63 -127 0
-649 60 561 0
55 760 422 0
-194 -72 -6 0
-142 485 82 0
601 -84 -661 0
-128 -481 -129 0
-740 897 -77 0
511 -585 111 0
479 -623 151 0
993 204 956 0
-122 -951 830 0
811 -108 753 0
-382 982 -393 0
-33 388 803 0
414 -390 272 0
388 178 -683 0
-531 -750 917 0
786 -539 221 0
-876 -527 340 0
47 -199 464 0
703 -116 588 0
-465 -501 -550 0
-998 -282 -649 0
-429 -483 838 0
774 494 521 0
937 896 320 0
370 -86 785 0
860 425 142 0
-645 -253 -310 0
79 13 962 0
-397 -444 788 0
-35 -884 681 0
-37 301 606 0
156 -124 294 0
-19 -505 46 0
-263 828 -919 0
-496 395 -553 0
528 -580 -25 0
-214 -958 78 0
776 -382 -282 0
-481 -496 -955 0
262 393 -327 0
790 -981 -290 0
421 -57 734 0
-841 -404 -53 0
-764 200 -404 0
-298 81 -810 0
-988 842 874 0
-561 1 -573 0
759 -175 -91 0
-771 -411 -981 0
-815 -825 -373 0
685 542 400 0
343 639 -64 0
-657 499 497 0
550 -507 138 0
37 876 -289 0
-215 877 509 0
-635 -276 712 0
663 369 -570 0
-932 326 25 0
-685 -249 534 0
832 -946 145 0
821 542 23 0
252 -773 -152 0
350 119 -892 0
-494 -926 -75 0
268 561 -973 0
-121 -56 -400 0
271 502 943 0
362 292 -892 0
-777 -636 -181 0
-234 -765 26 0
-656 -605 453 0
-981 405 -438 0
-852 -283 9 0
-687 -561 -915 0
-35 453 -476 0
-391 922 -568 0
562 980 926 0
616 -491 922 0
-189 -499 219 0
243 -654 -48 0
841 600 233 0
907 -543 -140 0
753 654 549 0
-625 520 968 0
931 -872 771 0
-994 -633 -544 0
-135 382 72 0
-787 -453 768 0
855 468 930 0
741 720 -734 0
585 166 596 0
901 -567 -391 0
350 699 395 0
205 -196 -185 0
-843 -240 906 0
-645 -458 556 0
-647 -682 385 0
546 -383 30 0
-755 -32 828 0
120 -585 -961 0
-474 196 -70 0
-412 18 864 0
-583 -940 -411 0
-775 587 862 0
875 753 738 0
523 972 738 0
-987 382 -680 0
-961 -716 -593 0
761 890 849 0
-585 109 -488 0
312 807 652 0
-922 -474 799 0
-974 -739 888 0
151 316 673 0
-122 -13 -280 0
-627 367 -918 0
401 -775 51 0
210 -26 -257 0
-82 149 165 0
-204 -435 392 0
-163 -538 -694 0
-766 -539 -956 0
328 -918 -17 0
155 184 997 0
113 178 -773 0
-568 223 -645 0
438 -865 240 0
204 595 -532 0
-686 -795 131 0
356 157 -990 0
721 953 365 0
10 177 748 0
-47 857 125 0
-962 -160 -76 0
-21 313 -184 0
92 469 744 0
-346 -917 384 0
-677 -880 600 0
-339 697 585 0
250 -741 -227 0
145 -566 -242 0
-843 629 -475 0
960 -142 57 0
-341 -350 683 0
694 475 908 0
-266 -148 668 0
217 -34 501 0
-534 -767 973 0
718 137 449 0
-742 787 -578 0
592 677 257 0
-975 -241 -137 0
-42 579 -996 0
-337 -278 919 0
926 -233 660 0
952 227 661 0
-843 -783 585 0
-345 202 696 0
502 40 -291 0
-182 875 -577 0
-774 -674 -211 0
-622 -582 331 0
67 59 -599 0
191 -150 742 0
-964 -515 -968 0
-422 -846 -625 0
517 365 853 0
498 -915 -816 0
871 -493 99 0
-711 811 -369 0
227 -168 -620 0
99 -723 169 0
-223 -131 159 0
-968 441 -667 0
498 173 345 0
280 -75 118 0
587 -353 956 0
220 651 -937 0
364 -118 216 0
-530 393 -954 0
-903 40 829 0
-173 591 81 0
-701 457 -192 0
157 -467 430 0
666 -791 926 0
-989 -411 199 0
-406 -617 -158 0
820 -151 237 0
-176 -192 -761 0
140 -890 -42 0
490 -688 -261 0
-285 650 -570 0
424 612 -789 0
536 -714 458 0
-187 498 601 0
454 435 -266 0
343 888 -23 0
702 166 -99 0
-354 -934 -946 0
-895 182 722 0
968 -296 814 0
663 675 -289 0
56 483 908 0
-190 -329 7 0
-263 -535 -557 0
346 -620 -706 0
-295 91 -986 0
-363 946 765 0
857 27 467 0
118 208 -739 0
-123 366 163 0
-773 -391 759 0
-297 243 -937 0
621 -4 -541 0
-631 392 452 0
858 -323 -959 0
-47 -818 -843 0
100 -539 -612 0
-492 -332 485 0
-542 -579 918 0
559 943 -583 0
749 -265 758 0
-255 -325 951 0
331 667 487 0
165 -674 -470 0
664 685 793 0
483 -291 -847 0
12 608 721 0
702 -804 896 0
830 28 112 0
370 -640 -803 0
715 450 -735 0
-313 63 701 0
101 528 164 0
-552 -725 745 0
-758 761 173 0
13 -269 712 0
405 411 877 0
273 563 736 0
-4 915 872 0
-418 936 816 0
-366 -323 240 0
-289 -667 -911 0
823 733 -226 0
-483 180 -103 0
-960 200 -724 0
-787 -509 -628 0
-62 215 83 0
-603 246 -506 0
723 623 284 0
-593 538 -784 0
-315 -992 -19 0
31 883 -595 0
-560 790 459 0
-156 -959 -661 0
-739 -552 -930 0
630 -609 -542 0
-435 -688 625 0
817 277 165 0
-181 313 950 0
-137 572 -433 0
-881 -613 982 0
248 180 225 0
-757 944 -297 0
533 -66 741 0
20 -423 -336 0
544 -998 -381 0
-597 -49 125 0
530 512 -147 0
74 -193 622 0
-144 -269 -177 0
29 -435 437 0
-474 -184 779 0
-938 879 -476 0
-958 -331 167 0
287 -821 177 0
-586 -392 721 0
-200 -217 402 0
-240 -124 911 0
-584 -519 -93 0
-242 -462 -437 0
312 -992 -566 0
-832 970 731 0
690 482 -579 0
-241 825 345 0
-597 887 253 0
-297 -137 -277 0
496 -862 20 0
907 -374 761 0
-570 515 823 0
376 642 978 0
-332 357 -152 0
-934 173 -46 0
-209 -494 -685 0
-692 -525 213 0
-214 702 365 0
888 227 833 0
-623 476 530 0
761 -365 -493 0
-567 -253 726 0
789 -783 -879 0
-188 -546 312 0
829 629 919 0
139 -605 -466 0
226 -870 -315 0
984 -679 161 0
-184 -989 -465 0
-715 29 769 0
-19 -829 773 0
463 -971 896 0
961 -660 -181 0
644 -550 226 0
578 -234 -528 0
673 -718 -957 0
89 -991 -651 0
595 -205 -307 0
504 -380 929 0
-246 -541 -601 0
817 -623 -606 0
142 254 -344 0
146 -171 630 0
-410 752 117 0
-290 -26 108 0
-143 775 229 0
255 -997 -830 0
652 646 -497 0
948 545 634 0
-931 -795 974 0
399 26 594 0
883 968 729 0
31 700 -765 0
-44 85 249 0
295 204 804 0
-999 672 -823 0
394 -873 -337 0
-567 854 631 0
326 -528 575 0
-395 -764 665 0
191 -611 48 0
331 442 378 0
852 -684 759 0
-274 764 -648 0
207 347 866 0
610 -292 432 0
44 101 41 0
7 -510 -296 0
-184 303 811 0
-981 -411 -505 0
-236 -120 -657 0
-815 -410 -219 0
450 -902 -116 0
180 862 -844 0
-901 -550 -725 0
723 -699 -867 0
-401 -368 -319 0
840 -586 -716 0
-682 -769 -495 0
-833 -368 -324 0
302 470 -43 0
-189 63 -465 0
-855 653 -759 0
52 -864 -420 0
583 -931 -389 0
-710 586 -412 0
-243 86 403 0
-168 -194 -454 0
671 557 344 0
-834 38 -964 0
429 773 187 0
177 408 407 0
790 -33 703 0
697 720 -719 0
-734 -886 -254 0
-468 -302 -957 0
612 -295 -614 0
-173 933 -774 0
965 979 770 0
118 -938 825 0
-766 672 399 0
53 797 -591 0
-509 -800 622 0
-509 -65 910 0
-124 477 207 0
-111 -757 336 0
891 -913 -727 0
-520 -321 404 0
812 875 773 0
507 -678 -772 0
303 -483 600 0
-96 694 -47 0
-90 888 -832 0
-811 264 -209 0
-870 799 834 0
903 521 891 0
-327 -659 378 0
581 259 -720 0
-999 291 129 0
-987 517 381 0
-849 -256 677 0
-876 -628 -964 0
232 933 506 0
249 243 -430 0
-721 837 491 0
-196 595 155 0
482 888 -852 0
435 985 -149 0
-270 196 -402 0
200 917 304 0
-114 -942 -319 0
-917 56 -211 0
-354 899 -833 0
606 840 952 0
455 -465 -507 0
636 921 208 0
-362 -254 139 0
414 382 -635 0
126 189 313 0
401 77 -450 0
617 -262 797 0
720 679 459 0
323 -518 -204 0
829 -708 264 0
701 205 54 0
711 -978 524 0
161 -431 285 0
182 -377 -3 0
-925 429 -126 0
-338 814 553 0
615 -557 627 0
-820 894 -753 0
506 708 547 0
-138 -569 -445 0
180 -86 784 0
607 -696 810 0
-668 194 799 0
715 -221 491 0
739 -498 411 0
547 -831 -433 0
-703 -719 -407 0
-590 -176 -959 0
884 -549 517 0
-567 788 975 0
104 713 -806 0
-275 228 -528 0
624 470 -472 0
533 668 -727 0
-259 262 -988 0
725 31 500 0
-37 532 -384 0
299 422 1 0
-698 319 -867 0
-360 -424 30 0
-430 113 -600 0
-124 -683 -262 0
785 -961 -23 0
-579 -364 -40 0
737 492 -563 0
399 -469 358 0
793 829 968 0
-677 -766 -465 0
219 896 -102 0
-828 41 -327 0
-345 -269 111 0
-282 635 -977 0
-380 988 767 0
-120 351 698 0
-218 449 766 0
-300 881 421 0
-882 -134 -8 0
598 29 -682 0
-356 -919 510 0
709 263 621 0
-638 -620 -587 0
450 959 614 0
265 -931 -452 0
872 -544 304 0
-608 445 -331 0
508 -903 -787 0
972 445 293 0
-396 -542 793 0
-784 -180 909 0
-410 -619 847 0
-486 693 -867 0
-323 147 -824 0
970 672 -616 0
-633 -361 573 0
-45 -95 981 0
-304 -73 -452 0
-97 235 -488 0
-929 149 -238 0
-56 -157 -333 0
-89 -411 -28 0
-507 840 70 0
-935 848 72 0
-469 -816 -602 0
-927 265 -965 0
183 806 258 0
-967 -78 295 0
564 -501 530 0
-282 -121 257 0
32 133 -952 0
382 201 -796 0
494 234 522 0
959 555 -112 0
-742 -45 -430 0
583 9 564 0
-268 -718 226 0
-803 -702 467 0
-427 -912 484 0
-43 676 447 0
537 -645 -168 0
-641 -237 -252 0
644 -829 -80 0
771 926 488 0
-150 219 582 0
62 343 954 0
929 -515 519 0
409 517 -13 0
-316 612 -682 0
497 -660 -281 0
109 211 -810 0
132 296 573 0
-290 106 459 0
794 -575 -962 0
85 -383 250 0
-586 90 626 0
-171 -724 -378 0
576 -346 357 0
-276 936 957 0
360 899 520 0
683 480 522 0
914 -93 367 0
68 506 -377 0
13 858 125 0
383 -405 -775 0
-702 340 572 0
-543 971 -699 0
-720 -66 -387 0
219 -854 844 0
103 -236 -802 0
97 893 -988 0
445 633 -131 0
-259 97 517 0
922 -566 -232 0
604 -648 -91 0
-614 830 -659 0
-782 130 278 0
-880 968 -342 0
-23 354 -342 0
775 -600 893 0
212 -90 421 0
-504 611 -111 0
-616 -972 133 0
574 375 -941 0
681 674 -420 0
785 -432 635 0
-809 750 -932 0
45 -378 270 0
-457 -1000 559 0
170 442 -581 0
-967 -343 -962 0
588 581 -198 0
22 -983 762 0
-948 -68 835 0
-746 -350 12 0
673 680 380 0
-20 644 393 0
-269 -89 421 0
10 -533 150 0
-938 -349 542 0
-290 -869 823 0
344 -203 -334 0
272 784 192 0
361 -308 -455 0
-405 988 -278 0
792 -731 132 0
-860 430 78 0
518 194 250 0
-117 188 677 0
-352 850 -702 0
55 692 -678 0
-962 178 -314 0
807 -106 -553 0
571 -622 8 0
-245 517 -322 0
-330 923 563 0
76 -387 958 0
988 -900 285 0
589 304 -799 0
204 -511 302 0
216 -54 -731 0
1000 -693 127 0
-73 -319 954 0
939 -597 907 0
77 520 -592 0
887 -921 -35 0
-429 60 -742 0
838 -792 -684 0
-621 -200 574 0
-883 -781 -684 0
109 784 729 0
-213 -11 -529 0
-313 690 -484 0
-178 582 90 0
-495 930 -908 0
-735 -608 705 0
-576 10 238 0
-308 -947 645 0
409 -438 -913 0
-231 -635 -895 0
660 -971 238 0
-592 -597 -463 0
-863 212 -103 0
-487 -259 333 0
268 -116 439 0
-44 502 -287 0
89 616 -168 0
746 24 873 0
-820 179 914 0
-174 -395 473 0
179 -586 228 0
680 -514 -905 0
318 141 -343 0
-619 -945 87 0
954 -478 -65 0
31 193 81 0
-288 -455 -605 0
-800 193 419 0
-827 809 -26 0
39 -279 674 0
999 242 31 0
639 402 -419 0
384 -96 382 0
-392 -493 -509 0
-274 -220 -10 0
567 -519 -820 0
156 36 -938 0
604 269 31 0
282 107 -223 0
635 -795 83 0
749 567 -149 0
273 -492 -591 0
568 -263 849 0
-733 88 211 0
-141 738 -892 0
173 -998 478 0
-503 -633 268 0
-79 -208 978 0
831 -1000 42 0
-872 -685 616 0
586 483 58 0
971 687 -323 0
19 -569 -837 0
867 59 895 0
-877 252 798 0
740 633 -352 0
-499 -491 -794 0
-812 309 448 0
960 -612 267 0
-576 241 -121 0
-476 -114 -382 0
-817 653 617 0
998 356 121 0
945 27 -694 0
-577 -292 -101 0
-140 743 -760 0
458 642 -878 0
-512 -4 -994 0
689 300 -777 0
255 -866 -567 0
-348 -573 -155 0
-161 208 -737 0
-37 788 -836 0
-207 -411 -217 0
618 776 4 0
605 -995 -80 0
-639 -862 472 0
-955 847 -986 0
-873 -853 -195 0
-956 960 247 0
-53 274 -774 0
480 -648 532 0
-958 -564 -839 0
-145 -323 -671 0
476 -869 969 0
-945 -919 -425 0
-12 -40 789 0
-733 144 59 0
-900 -503 286 0
-415 -749 64 0
-804 860 -239 0
-52 -330 -386 0
885 1000 -929 0
333 -787 -902 0
801 564 -464 0
-747 -149 -995 0
-655 -188 -545 0
625 -438 -431 0
839 469 802 0
-299 504 -233 0
964 -331 -837 0
-939 874 415 0
218 11 -962 0
-865 -717 35 0
575 569 421 0
412 258 -544 0
154 986 -536 0
-869 -511 483 0
-793 -765 585 0
-482 -649 -385 0
-758 -397 493 0
755 178 -439 0
794 883 -170 0
964 621 -860 0
-638 -344 155 0
-818 606 794 0
583 438 -668 0
-638 211 277 0
858 -585 66 0
-611 -253 539 0
349 924 315 0
-717 51 303 0
-936 -457 -643 0
654 -204 -837 0
-324 -471 -285 0
-438 -974 -510 0
504 -422 496 0
-527 526 259 0
211 -964 -832 0
-600 994 277 0
32 -171 941 0
-626 -255 717 0
99 -207 -115 0
181 -389 792 0
593 851 202 0
-377 -48 -610 0
-245 -978 -741 0
85 -819 -232 0
813 977 300 0
-721 434 -723 0
-227 -882 -999 0
570 -289 410 0
997 -801 -308 0
298 -631 580 0
-494 885 -992 0
-241 -741 367 0
-273 -653 209 0
-578 -251 -327 0
-732 -747 721 0
-561 596 159 0
620 -458 -354 0
-321 609 -790 0
369 893 389 0
-44 512 -489 0
227 636 -428 0
-156 -48 -31 0
-186 -86 -695 0
-953 214 -388 0
960 -320 111 0
-403 771 -627 0
-981 211 -920 0
-171 -536 66 0
-727 755 -881 0
-406 533 -350 0
-42 903 62 0
228 -631 -84 0
-442 -489 963 0
966 -349 381 0
625 -739 -10 0
-168 996 521 0
-248 -139 60 0
-595 736 510 0
833 104 367 0
225 -428 776 0
597 -571 -40 0
-145 -467 -884 0
-268 -655 558 0
-888 -305 -178 0
46 -971 -127 0
352 -877 -820 0
-804 385 -340 0
-602 35 -161 0
430 932 233 0
-641 -197 750 0
297 106 562 0
772 825 -693 0
-165 846 397 0
352 116 759 0
221 -723 -188 0
838 -434 401 0
589 150 -949 0
-797 636 311 0
-311 -848 -594 0
-932 321 891 0
-918 419 -322 0
-326 798 718 0
-543 284 821 0
870 367 -64 0
-35 474 66 0
486 -952 -678 0
157 -13 658 0
-72 -978 794 0
985 -597 -323 0
517 -699 -680 0
403 632 -873 0
-453 -939 880 0
-820 890 -146 0
771 -865 950 0
441 -649 83 0
794 668 -454 0
551 906 318 0
251 278 -833 0
132 -640 -479 0
158 280 383 0
580 -832 149 0
17 424 612 0
-336 -457 22 0
652 -865 34 0
-572 860 -163 0
-410 545 -272 0
-923 556 -748 0
288 -877 -849 0
-799 -332 801 0
425 -257 40 0
-191 -354 562 0
408 390 -973 0
972 -413 -593 0
93 959 -108 0
721 -461 -331 0
-685 748 -837 0
930 -739 -143 0
-943 539 -803 0
-741 172 799 0
-841 -681 344 0
-140 -55 979 0
925 -778 -398 0
-165 -253 -344 0
-582 -228 -875 0
400 112 54 0
447 253 -717 0
-15 -49 623 0
-519 789 -462 0
-723 -894 884 0
-143 -824 864 0
-932 397 372 0
-393 -336 290 0
286 495 -652 0
-346 710 159 0
-75 336 -957 0
-690 243 391 0
994 888 -642 0
-83 73 -5 0
703 -779 978 0
-915 333 -62 0
500 -486 498 0
669 -44 -137 0
271 131 514 0
-32 4 -845 0
303 28 935 0
-79 570 525 0
450 -366 862 0
-818 770 -398 0
768 -395 -90 0
-354 96 227 0
668 302 836 0
720 220 -512 0
-19 206 -312 0
176 -23 836 0
951 728 953 0
-439 -416 -543 0
-451 684 939 0
-604 -724 167 0
-300 -294 983 0
-768 -830 -840 0
398 -276 920 0
-385 69 39 0
-940 843 -226 0
160 12 624 0
-899 -597 -210 0
741 -512 -213 0
-32 191 829 0
360 851 -208 0
35 214 332 0
795 520 667 0
-901 889 278 0
538 411 -755 0
-122 -8 -294 0
-261 865 356 0
610 -807 -322 0
483 411 -58 0
459 566 -853 0
236 123 64 0
958 -429 236 0
-55 -99 -940 0
702 -510 422 0
225 -231 -530 0
331 -546 -623 0
-968 -27 -404 0
-722 527 -768 0
710 242 -359 0
-727 494 643 0
-549 42 439 0
812 867 -883 0
-968 350 -414 0
618 -823 613 0
-554 -844 479 0
-593 -918 410 0
709 694 782 0
-732 -471 -942 0
971 -38 586 0
-240 236 -847 0
-850 730 71 0
628 -241 185 0
422 920 -424 0
-299 991 -260 0
845 -106 -371 0
-297 -659 205 0
-968 518 760 0
39 102 -972 0
527 -531 -408 0
5 247 781 0
-960 262 272 0
249 835 -74 0
209 449 -5 0
-374 989 698 0
956 -683 -868 0
-298 212 661 0
-942 -202 -515 0
-848 -441 -19 0
-31 181 -656 0
726 -493 442 0
693 -506 967 0
-277 203 -687 0
818 585 333 0
962 -516 -934 0
-37 887 142 0
-552 511 -665 0
898 952 512 0
-304 -315 -991 0
826 -698 600 0
309 -124 -232 0
-251 -977 608 0
179 -503 281 0
-41 -978 -339 0
569 975 -678 0
-359 908 -252 0
-27 857 570 0
819 -612 779 0
-149 -38 478 0
-483 -28 660 0
-322 -940 -336 0
577 799 751 0
-30 -406 -362 0
945 319 -498 0
469 -912 -584 0
-310 896 510 0
-425 -3 -444 0
-778 905 758 0
472 618 530 0
-998 -179 -810 0
530 -599 -419 0
589 587 -719 0
333 117 -363 0
-761 -82 -531 0
658 -594 -190 0
-149 -155 -845 0
-376 685 -1000 0
-49 -400 -383 0
-151 702 -848 0
126 -437 132 0
-882 895 -291 0
231 494 -840 0
-91 835 -605 0
-839 -128 729 0
694 -734 -327 0
842 -405 -277 0
-835 143 -288 0
-7 -438 -77 0
939 829 135 0
337 300 359 0
-80 40 -930 0
864 -718 114 0
777 -327 129 0
-396 264 -404 0
-885 428 -180 0
-625 -573 -203 0
183 825 -465 0
-311 -588 328 0
-627 751 -304 0
-251 -990 882 0
217 528 849 0
108 -580 -277 0
-710 -670 531 0
3 278 13 0
-353 487 488 0
853 -717 471 0
-297 979 571 0
-897 -485 -224 0
447 -406 344 0
395 74 -918 0
439 910 432 0
-299 29 36 0
-285 -14 -91 0
327 649 758 0
381 848 -60 0
120 605 -206 0
-64 -729 -895 0
-449 583 356 0
-745 690 645 0
-761 -520 -265 0
-343 56 176 0
-309 168 -1000 0
-608 537 -830 0
-981 936 626 0
-506 -118 588 0
-15 81 631 0
-17 -635 250 0
-569 476 749 0
631 49 998 0
-488 -670 -965 0
703 674 512 0
162 135 -463 0
-810 -69 534 0
117 42 -460 0
-345 497 -819 0
-549 609 425 0
902 -240 685 0
-775 712 -272 0
-325 -188 -278 0
808 454 131 0
-530 260 653 0
487 744 385 0
264 -179 -102 0
-783 232 931 0
-179 -340 -483 0
-782 451 -531 0
690 -635 -644 0
415 -329 -785 0
816 -744 -809 0
751 -808 -452 0
302 400 -243 0
457 -404 -369 0
249 -713 115 0
-397 -474 -855 0
725 -749 -434 0
-643 -366 588 0
198 -809 -280 0
-622 -408 -154 0
436 137 970 0
-884 -571 -291 0
-958 -57 -296 0
557 646 473 0
660 -808 -358 0
-354 -742 58 0
-150 -256 216 0
-939 -393 144 0
-675 -389 468 0
-840 -259 79 0
711 968 774 0
-614 676 -839 0
307 -255 614 0
582 131 55 0
-780 857 -735 0
683 -285 362 0
-928 -958 79 0
-966 -554 -148 0
809 -271 -211 0
871 -570 -441 0
297 535 -421 0
819 -971 -370 0
158 15 645 0
-773 -12 -99 0
340 201 -768 0
-852 233 -602 0
303 596 353 0
763 -943 -907 0
-129 865 -624 0
603 248 -276 0
-610 883 -862 0
-824 362 907 0
-474 -21 -732 0
611 616 942 0
503 253 -922 0
-223 -12 608 0
-367 391 509 0
157 907 75 0
-833 113 423 0
-517 -759 841 0
-59 -172 833 0
603 939 631 0
-904 -375 -117 0
37 556 -725 0
-145 129 -775 0
871 542 -417 0
74 -698 48 0
-918 706 -973 0
4 178 981 0
-98 414 940 0
882 -554 132 0
-423 -925 -115 0
882 -918 20 0
874 -585 635 0
868 313 -220 0
771 296 332 0
-316 -513 -693 0
-973 -909 223 0
-374 770 137 0
-447 746 -51 0
181 559 904 0
274 228 -135 0
51 432 -81 0
274 581 -380 0
-890 -682 -464 0
821 217 632 0
538 -484 163 0
496 907 210 0
-600 911 98 0
-749 60 408 0
-747 -171 -821 0
-240 -866 -54 0
-811 871 418 0
-461 938 -671 0
-589 804 -906 0
-481 459 -589 0
-955 653 -298 0
65 109 -491 0
244 429 63 0
834 -931 -992 0
82 -532 -414 0
800 -674 -821 0
-720 773 424 0
344 705 -450 0
-709 651 293 0
344 -460 -451 0
-336 -550 -514 0
-928 -229 -448 0
-624 912 -446 0
783 957 81 0
347 938 -146 0
933 -606 -996 0
483 556 527 0
344 927 146 0
-956 827 -478 0
-389 -953 8 0
-338 -181 860 0
118 -821 956 0
943 738 473 0
-56 284 -921 0
701 -382 -140 0
-254 756 -649 0
-928 -772 -670 0
60 875 204 0
-252 -670 334 0
879 993 -530 0
144 520 816 0
-430 578 -6 0
-64 14 -274 0
-867 75 -201 0
700 643 -112 0
-200 -870 544 0
85 -941 -721 0
915 536 -927 0
497 -278 -207 0
953 788 817 0
-913 548 649 0
-469 -305 -790 0
885 35 142 0
-441 -496 -979 0
-826 233 -83 0
764 -118 -572 0
-781 279 -216 0
310 -902 -148 0
-991 -832 97 0
722 387 -232 0
624 -300 937 0
128 -222 117 0
-454 -906 -364 0
-696 629 318 0
-345 414 649 0
-871 316 -553 0
-299 -576 -202 0
308 -484 441 0
-306 -707 -935 0
-681 -756 -874 0
-792 674 89 0
5 539 -154 0
-307 659 -216 0
-516 -633 -896 0
343 398 -286 0
526 674 462 0
-999 77 -259 0
214 801 -153 0
-560 442 136 0
-752 -236 57 0
818 -677 172 0
-662 40 377 0
-550 737 188 0
74 -4 450 0
-24 -795 981 0
468 -733 709 0
655 -326 711 0
-852 515 -157 0
-730 -673 14 0
423 551 -731 0
827 615 881 0
977 447 42 0
-109 212 225 0
501 357 -27 0
-281 60 150 0
569 100 155 0
856 -706 540 0
-342 280 -773 0
652 -30 -657 0
90 -587 291 0
810 304 268 0
-307 -607 762 0
-205 -759 700 0
587 416 -592 0
-401 333 -984 0
-720 133 693 0
-357 -508 -291 0
-733 -438 -23 0
30 -139 506 0
831 -516 -110 0
-280 -515 -356 0
943 746 -608 0
620 -474 -306 0
490 354 -191 0
428 -279 -380 0
-492 269 541 0
-682 -441 -606 0
-126 -553 241 0
-499 107 -913 0
947 -243 -496 0
-695 609 439 0
353 450 -116 0
-572 -829 733 0
404 698 866 0
-610 -877 499 0
621 340 -597 0
338 64 6 0
331 810 727 0
-78 -886 145 0
547 -170 27 0
-627 -492 -441 0
-215 -715 83 0
-570 -668 678 0
-124 -298 -617 0
-462 388 -851 0
-428 240 -789 0
676 -702 190 0
-744 411 -790 0
382 -413 795 0
438 725 581 0
470 539 -852 0
-340 -830 -683 0
-37 -734 544 0
197 602 574 0
266 852 -376 0
-998 756 673 0
-629 -543 79 0
-979 164 -532 0
606 -717 -619 0
-530 -934 -326 0
-471 561 867 0
-493 -678 -275 0
-515 752 -722 0
-199 250 756 0
810 -628 805 0
-512 -70 -606 0
666 947 820 0
929 -285 104 0
-861 -184 46 0
-51 61 -84 0
632 620 852 0
283 -151 88 0
-596 96 -917 0
-716 901 101 0
-533 -417 -569 0
903 -10 -37 0
-13 982 117 0
478 262 -270 0
63 -97 776 0
358 -330 -866 0
842 949 524 0
-569 -314 537 0
-490 889 -654 0
-617 -986 -997 0
-491 -412 -629 0
-364 -873 431 0
655 -31 -172 0
142 -6 463 0
-939 560 -202 0
-635 -904 -354 0
476 -938 -145 0
945 -137 -587 0
-224 -479 -650 0
452 975 85 0
399 -39 -162 0
644 -330 -79 0
-121 641 129 0
701 -914 797 0
-206 -39 -251 0
747 289 214 0
-948 -103 907 0
795 -313 -498 0
223 331 211 0
-375 -535 651 0
870 -536 930 0
-694 500 608 0
-625 -917 832 0
-993 -94 257 0
-735 -11 -830 0
646 -124 -924 0
110 -84 109 0
-359 684 142 0
666 517 -372 0
973 725 -721 0
-791 -487 -359 0
-230 -494 135 0
291 -783 -541 0
1 -688 -181 0
-983 836 785 0
-30 907 903 0
-377 378 234 0
-285 -105 181 0
-666 771 -529 0
663 934 971 0
-557 -950 604 0
618 -847 -535 0
-165 632 -811 0
124 417 -443 0
-904 427 122 0
519 -120 -468 0
-656 -904 522 0
-721 573 866 0
645 -428 -782 0
-234 440 174 0
-916 -997 141 0
-791 968 737 0
-335 -847 -678 0
-337 490 -69 0
-806 26 -112 0
-864 663 -340 0
-63 864 -441 0
1000 64 98 0
543 -206 331 0
32 -105 448 0
-496 -742 566 0
-982 -581 613 0
-362 -548 -503 0
-831 92 -801 0
-823 77 -584 0
-620 982 -138 0
978 382 155 0
-242 293 884 0
-784 -478 -642 0
-314 335 -792 0
598 850 -921 0
-714 -843 673 0
-54 -366 226 0
-719 312 390 0
-986 -595 407 0
901 389 -485 0
900 -302 985 0
-79 -928 606 0
-729 -302 -57 0
-498 515 651 0
-254 -567 655 0
831 -332 -871 0
-281 758 -501 0
-800 286 468 0
-692 -993 -544 0
-838 -237 977 0
-264 671 -142 0
-539 567 -642 0
916 -966 -328 0
-690 -740 657 0
-380 -189 392 0
469 768 -669 0
467 -306 -7 0
339 -3 -544 0
142 357 -815 0
105 -885 -205 0
-451 926 553 0
-12 855 860 0
778 -956 865 0
-743 684 493 0
-547 -307 754 0
594 362 -34 0
105 -289 -897 0
-616 -840 -311 0
910 772 729 0
446 483 -356 0
789 235 -307 0
-763 -958 245 0
-970 985 190 0
-812 -276 119 0
350 687 323 0
571 -531 -232 0
824 -584 -311 0
-42 -155 -451 0
359 -695 -760 0
-601 834 743 0
532 878 -227 0
-862 671 -581 0
-364 112 773 0
-711 -380 -45 0
496 533 -647 0
-884 -275 -42 0
-676 57 59 0
795 -452 -411 0
324 -985 412 0
673 773 -755 0
818 -953 -96 0
-217 120 74 0
159 -318 -710 0
566 869 585 0
-158 -606 -339 0
296 642 955 0
-747 323 -937 0
487 387 -397 0
-207 441 961 0
-171 726 413 0
992 -127 -184 0
-483 -601 -673 0
349 974 -634 0
-590 -198 -462 0
-61 -159 -260 0
4 48 -736 0
-781 -108 -804 0
80 578 -997 0
309 -58 92 0
-631 -661 423 0
-752 510 -681 0
603 994 317 0
992 -59 97 0
64 697 -844 0
206 875 798 0
-613 152 541 0
-393 676 615 0
393 755 -677 0
364 491 -469 0
-653 455 -515 0
-770 937 -730 0
415 328 -676 0
112 -163 -642 0
452 -477 302 0
327 -354 -770 0
638 -263 81 0
291 139 -62 0
846 754 -704 0
-646 -759 -328 0
433 261 -411 0
552 -373 -67 0
-375 30 614 0
-96 244 741 0
-627 692 -837 0
-189 -785 -618 0
-739 -584 808 0
-854 -788 -804 0
-58 718 -922 0
-792 -472 -252 0
857 893 -317 0
-88 566 966 0
509 -247 657 0
706 708 846 0
907 24 354 0
-794 -955 -286 0
49 3 290 0
-460 134 456 0
915 696 -160 0
960 227 84 0
148 82 -693 0
-35 50 -961 0
326 909 -255 0
-313 -132 20 0
-414 -957 -988 0
722 -457 289 0
-1 562 -767 0
345 -213 762 0
-626 -422 471 0
-723 -515 -779 0
-229 -443 -664 0
734 -974 602 0
-915 259 -371 0
846 -22 923 0
331 -808 320 0
-428 349 -942 0
-243 -365 492 0
885 -570 23 0
822 -377 989 0
320 152 -852 0
314 322 -1 0
-831 -928 -712 0
418 136 -575 0
-603 184 -935 0
-842 226 703 0
-894 380 -536 0
490 -286 -977 0
-659 -985 204 0
-499 -817 361 0
-606 11 594 0
608 894 -644 0
654 -47 -777 0
869 -386 -281 0
645 796 -509 0
679 -696 -35 0
-849 374 59 0
84 783 -327 0
102 393 707 0
485 89 493 0
316 886 293 0
-209 23 -71 0
983 -881 271 0
-374 498 -139 0
958 -139 42 0
103 476 -783 0
-144 212 349 0
146 -777 -50 0
850 -919 876 0
173 29 38 0
479 -884 -661 0
-95 588 -681 0
-659 801 909 0
567 798 -956 0
504 85 392 0
501 511 264 0
-254 -185 532 0
-240 791 162 0
-732 -518 366 0
345 217 818 0
122 578 33 0
620 961 956 0
-903 -582 -644 0
-318 -557 605 0
-838 689 -557 0
-495 298 -446 0
-164 572 762 0
-752 -956 520 0
296 734 635 0
-582 253 257 0
777 725 -808 0
721 738 -812 0
-61 650 -339 0
-352 88 513 0
-236 -145 -321 0
-243 907 -821 0
176 -640 474 0
-540 -404 563 0
847 -400 980 0
-292 -500 -920 0
970 -570 -93 0
210 -913 362 0
5 -945 -900 0
-954 932 -206 0
622 -578 -39 0
523 324 784 0
-374 792 -239 0
-663 228 515 0
847 784 -270 0
-202 82 290 0
101 -375 485 0
-337 -631 -118 0
260 537 835 0
-221 -790 -456 0
-702 -994 -490 0
773 -157 -649 0
-818 -493 -304 0
-368 885 -964 0
286 -493 876 0
462 -350 689 0
-790 -712 -259 0
239 -185 -16 0
663 -236 140 0
-730 639 -625 0
522 18 -887 0
539 -19 344 0
-965 993 235 0
-628 623 344 0
-51 -499 79 0
769 574 453 0
901 -5 953 0
398 96 620 0
-610 -351 49 0
-380 864 103 0
257 -6 393 0
-956 -124 -453 0
796 874 468 0
-895 -435 -154 0
-159 -200 -541 0
582 943 114 0
30 -766 -725 0
-95 876 848 0
970 -344 -611 0
762 378 192 0
-594 -856 -534 0
11 -527 -764 0
-875 -846 35 0
305 222 317 0
127 970 848 0
881 502 -470 0
479 295 -262 0
317 86 -290 0
788 284 -79 0
389 102 -615 0
552 -576 817 0
733 4 -628 0
695 -610 651 0
-25 -465 703 0
205 368 280 0
992 65 894 0
428 544 -539 0
969 -106 -241 0
-565 40 14 0
-313 -816 438 0
973 -556 -131 0
542 -899 670 0
634 -775 372 0
385 -337 -262 0
-553 307 -197 0
776 669 995 0
400 -362 107 0
-640 317 743 0
272 560 357 0
-568 68 -472 0
-857 770 88 0
-447 956 -751 0
412 106 569 0
58 744 388 0
-329 -879 -670 0
431 -633 -418 0
415 388 -400 0
42 477 162 0
-771 228 767 0
539 -13 -519 0
659 -819 -89 0
424 148 -505 0
708 -143 -542 0
-550 485 792 0
537 -318 15 0
685 -105 118 0
-784 -1000 -740 0
-16 402 604 0
458 975 -459 0
-548 -671 -375 0
295 -438 -291 0
-788 148 124 0
-208 -23 323 0
-571 89 -319 0
-628 666 -134 0
-731 672 -671 0
-53 -756 745 0
150 -548 -378 0
941 633 -481 0
-41 805 -558 0
-80 -518 395 0
188 628 666 0
-479 -53 -70 0
-959 -140 823 0
-895 949 -104 0
529 652 -274 0
-408 -377 977 0
825 -796 366 0
873 966 275 0
363 265 -389 0
-406 114 -33 0
51 501 759 0
253 766 120 0
684 -45 -446 0
-197 -618 447 0
152 729 79 0
111 -854 -823 0
38 -285 -6 0
569 -678 -777 0
-199 -57 -134 0
966 304 -574 0
937 198 -201 0
173 -433 999 0
554 398 941 0
-666 -814 500 0
185 243 -205 0
969 280 -860 0
-716 -306 -311 0
-856 697 -47 0
491 829 77 0
94 -862 -505 0
-794 -964 816 0
280 278 -313 0
448 -477 307 0
-459 -269 174 0
680 174 525 0
-25 488 572 0
563 -58 -311 0
74 647 -17 0
-848 486 -925 0
113 99 -807 0
-986 659 725 0
427 995 -435 0
201 -543 -670 0
-453 -948 -518 0
57 342 199 0
373 -338 -194 0
-941 110 -141 0
320 253 168 0
614 -741 777 0
35 -308 -493 0
-781 21 -453 0
322 252 -888 0
-463 668 790 0
-436 -445 926 0
436 108 651 0
587 652 200 0
308 841 -489 0
126 -497 -807 0
-218 -339 690 0
-312 296 -723 0
-322 -266 681 0
509 139 -593 0
397 -814 733 0
-687 -769 857 0
-17 -887 -649 0
779 207 816 0
392 847 560 0
487 -328 137 0
502 968 -122 0
-40 163 -658 0
-529 305 757 0
-244 258 772 0
629 -386 971 0
171 946 -751 0
-389 419 679 0
-633 869 889 0
-360 -867 -65 0
-543 -767 -815 0
556 667 -479 0
-836 213 -843 0
-549 -448 -597 0
279 -930 379 0
-811 884 675 0
-977 904 -770 0
545 978 346 0
810 -424 392 0
-1 90 -91 0
500 -731 -664 0
-160 413 -878 0
501 -699 -85 0
720 242 750 0
736 739 947 0
255 -650 -632 0
-635 970 749 0
-964 352 -742 0
777 688 -11 0
809 -450 -787 0
248 -621 -505 0
-518 382 -299 0
-825 538 -775 0
552 -751 628 0
-613 197 -512 0
-359 -909 397 0
-674 -279 -494 0
-475 716 -400 0
141 520 -851 0
550 -536 587 0
-884 112 -251 0
294 -74 517 0
-427 777 614 0
-144 391 -218 0
-394 143 617 0
118 334 535 0
397 -235 -65 0
-199 667 697 0
-482 -999 291 0
-665 -977 891 0
472 -819 -154 0
-64 -925 -167 0
-857 594 -533 0
439 -44 -172 0
228 -200 -472 0
96 -832 -622 0
-505 21 409 0
431 258 996 0
-930 -919 484 0
672 596 -987 0
453 230 639 0
-188 -477 -836 0
-942 1 -477 0
271 -129 150 0
321 -572 -424 0
-612 501 730 0
836 706 204 0
-520 -928 908 0
-227 410 -220 0
-34 -328 197 0
436 -869 -544 0
-213 406 751 0
-807 849 604 0
-921 -792 378 0
851 624 142 0
146 183 -843 0
177 173 -661 0
-122 -408 -403 0
837 -763 -342 0
252 -371 -100 0
296 -776 615 0
313 -518 -389 0
-636 -215 -951 0
924 -364 -432 0
-428 488 706 0
-713 550 -106 0
408 -323 291 0
883 810 -919 0
-357 478 683 0
-539 189 -153 0
724 -454 446 0
437 637 -539 0
412 448 567 0
-620 -215 -651 0
-632 253 531 0
54 -710 669 0
-376 96 -249 0
573 -739 57 0
-333 -427 -263 0
898 687 129 0
40 148 -33 0
-964 98 -132 0
-441 816 -462 0
900 299 -132 0
-886 397 767 0
-593 -70 456 0
-856 356 326 0
-781 -670 -237 0
380 280 -828 0
-35 541 -376 0
777 -669 -530 0
629 -315 -828 0
57 223 983 0
184 -53 -729 0
-150 -797 -525 0
-526 -315 -838 0
-166 -758 -40 0
-671 -870 150 0
102 -900 -188 0
-61 195 167 0
353 389 -990 0
-97 110 126 0
-742 -419 73 0
-768 -62 -713 0
466 824 4 0
-227 731 582 0
334 785 680 0
580 -693 -709 0
-292 432 564 0
564 576 350 0
232 615 -512 0
-774 155 93 0
-618 -39 -326 0
-757 174 673 0
-972 -441 -84 0
-143 133 -178 0
-196 -458 -941 0
-713 -271 -68 0
614 372 -986 0
-339 -290 -622 0
386 -215 -658 0
-588 747 529 0
-501 -262 -100 0
-227 991 100 0
-219 772 427 0
599 644 -699 0
-256 -790 288 0
664 692 740 0
-880 -803 -13 0
894 -560 -621 0
286 -53 -299 0
-364 123 -322 0
-375 429 905 0
375 231 -252 0
109 532 -909 0
-648 -31 113 0
636 183 -485 0
-338 -101 280 0
500 461 -620 0
-923 -282 409 0
-313 -956 363 0
511 645 -265 0
758 643 548 0
778 -372 193 0
162 646 -726 0
-964 -253 839 0
477 293 -93 0
282 -971 -79 0
514 701 -870 0
-326 126 -694 0
-818 981 -162 0
-926 276 -78 0
2 -437 645 0
18 -933 64 0
777 852 -842 0
-864 376 746 0
-340 585 659 0
-40 -480 -265 0
476 568 320 0
338 677 236 0
730 -512 -659 0
800 898 468 0
-763 -292 871 0
171 -245 -860 0
339 415 144 0
313 -46 -672 0
-88 432 292 0
782 765 995 0
906 339 842 0
-527 -727 181 0
-630 544 -416 0
-89 15 59 0
-803 377 945 0
805 -717 -104 0
-988 27 -142 0
-678 871 422 0
740 -594 -711 0
332 914 312 0
234 -631 793 0
-364 -906 936 0
897 852 748 0
-699 -932 -561 0
771 721 -858 0
-832 346 -312 0
856 886 230 0
-112 -13 -82 0
-875 122 -928 0
35 772 -679 0
-138 641 -262 0
554 444 916 0
284 -588 -64 0
-359 -49 197 0
855 -752 81 0
-155 -593 536 0
-652 191 -339 0
903 -593 -20 0
831 247 824 0
-577 33 533 0
550 908 -113 0
-45 718 -930 0
-919 161 -546 0
337 131 -812 0
-899 97 64 0
256 -960 -524 0
-78 448 381 0
-249 288 -10 0
603 -78 397 0
529 -843 743 0
583 521 -624 0
134 -56 194 0
179 613 142 0
504 623 341 0
985 -446 573 0
-486 85 -351 0
146 571 988 0
115 262 77 0
-119 707 253 0
148 -578 -803 0
322 6 8 0
546 -631 -973 0
325 -439 -743 0
538 -502 670 0
47 1000 878 0
48 261 922 0
-341 -478 -458 0
-111 -445 467 0
-667 -210 840 0
203 -708 518 0
-197 -226 462 0
493 743 -853 0
-456 -470 233 0
872 -987 -797 0
673 -814 -12 0
94 -689 395 0
-382 544 416 0
-821 159 -926 0
440 -951 659 0
-771 757 -493 0
-980 602 298 0
-381 409 70 0
-778 -874 69 0
466 -226 64 0
-589 -523 555 0
431 587 752 0
-153 -532 -117 0
-81 568 -735 0
99 968 -695 0
529 936 -619 0
674 -315 -590 0
-88 90 951 0
759 865 -149 0
396 346 -157 0
712 -101 962 0
590 388 -625 0
-555 -580 -62 0
580 -238 -483 0
827 637 -44 0
310 -697 -75 0
-783 787 -670 0
-933 -845 -946 0
176 734 -871 0
-162 694 620 0
61 666 958 0
-969 -859 -878 0
-524 -995 106 0
-299 -385 478 0
893 555 465 0
-344 709 -791 0
-505 -301 -270 0
292 -618 724 0
-710 -891 -788 0
120 372 -496 0
979 783 -279 0
-406 -11 -339 0
667 -286 -77 0
-215 802 -235 0
188 -592 604 0
-892 475 891 0
-165 448 -803 0
577 838 -321 0
777 826 -208 0
-721 -933 60 0
-423 895 -405 0
924 -347 -486 0
-682 135 -205 0
-827 883 -516 0
888 101 -741 0
-49 -86 -728 0
899 -389 750 0
-931 367 859 0
-172 -512 -891 0
936 970 -478 0
163 258 882 0
209 -983 247 0
966 -173 682 0
311 251 231 0
-414 -800 -287 0
344 -363 517 0
62 -355 943 0
-866 523 -279 0
803 990 -212 0
-580 100 -456 0
927 870 975 0
109 -47 -207 0
981 -365 535 0
-805 -977 -770 0
957 413 -19 0
-532 -302 388 0
-51 951 736 0
-650 -110 903 0
-48 278 973 0
-389 -143 -222 0
215 815 699 0
736 54 -509 0
-148 -263 161 0
441 685 216 0
-954 -904 -770 0
80 523 509 0
799 -539 134 0
604 504 554 0
-611 -660 -564 0
-931 227 -151 0
-355 471 237 0
-342 16 873 0
-24 347 734 0
182 633 773 0
-11 -582 293 0
590 -791 -601 0
-272 560 -423 0
-960 -573 45 0
-491 -290 -25 0
-471 -726 -506 0
-978 511 -962 0
521 417 563 0
295 -851 -608 0
442 -361 -604 0
-734 -273 -331 0
714 453 -941 0
-409 -732 -112 0
-730 -636 -206 0
-661 -912 810 0
-990 -17 644 0
-705 105 -290 0
205 178 651 0
-584 852 -765 0
-436 -956 -535 0
981 23 -63 0
-517 843 331 0
-800 230 85 0
-269 -157 -201 0
-215 138 -990 0
404 -101 547 0
-66 -327 -642 0
977 -369 248 0
690 -670 -880 0
104 146 740 0
-606 235 935 0
-99 -207 849 0
-809 86 -643 0
-695 927 970 0
-564 -107 -696 0
-635 499 108 0
442 525 -748 0
559 -141 748 0
-838 -995 843 0
987 50 333 0
96 870 -733 0
-271 940 615 0
527 -217 432 0
739 992 -901 0
-710 -842 -468 0
314 470 -360 0
614 -946 618 0
935 580 84 0
371 -731 -50 0
541 810 -651 0
-634 421 629 0
264 -799 -602 0
-330 -325 -748 0
-985 99 -375 0
-205 149 112 0
-684 659 347 0
361 820 -329 0
861 436 -211 0
379 390 754 0
-85 844 -447 0
672 245 894 0
89 783 -587 0
390 838 241 0
-298 630 -85 0
-162 44 846 0
606 -47 -161 0
-142 203 -256 0
-742 -113 466 0
-469 -964 -854 0
336 -890 -780 0
703 -871 -58 0
-383 -505 90 0
310 -732 369 0
498 -297 -317 0
-254 714 416 0
-839 690 809 0
348 -214 -936 0
-266 -977 831 0
-95 103 402 0
-267 861 -281 0
-457 509 -654 0
137 -720 -297 0
-103 -777 812 0
139 976 -614 0
-890 -391 -498 0
832 46 -702 0
-161 859 377 0
689 724 -179 0
-886 -313 -862 0
-494 765 554 0
308 117 -136 0
394 239 -65 0
-634 -705 -887 0
468 -140 -951 0
176 697 -396 0
-845 508 247 0
276 -512 698 0
-491 -817 590 0
149 -739 608 0
-304 -771 -644 0
64 -892 -901 0
730 -70 231 0
30 5 259 0
292 309 -65 0
-809 -7 510 0
-219 853 509 0
195 406 449 0
-413 -912 990 0
419 -254 429 0
936 432 -227 0
150 -170 938 0
379 -348 777 0
752 -382 -57 0
71 562 -710 0
-376 -336 -146 0
-326 687 -519 0
43 -114 -751 0
-705 -936 -265 0
972 -542 990 0
-88 -680 233 0
246 -589 -548 0
302 -212 -321 0
-765 788 -487 0
-765 -845 -518 0
101 158 13 0
687 -518 581 0
285 363 -726 0
-982 -983 871 0
-232 -875 981 0
392 -57 -464 0
-509 -925 -648 0
111 -900 -37 0
429 19 -531 0
441 539 -534 0
-394 788 602 0
225 -321 -489 0
-404 -602 263 0
337 726 -302 0
-565 1000 719 0
540 -914 798 0
85 -656 -788 0
206 -590 194 0
45 804 -771 0
922 187 282 0
-744 -303 -983 0
419 -330 -649 0
-740 452 352 0
-921 208 591 0
918 883 665 0
756 -958 28 0
531 -657 779 0
-861 -798 833 0
-31 271 164 0
526 691 -553 0
-13 -642 330 0
-400 258 -111 0
-792 430 662 0
994 -603 685 0
-723 -1000 820 0
-193 540 973 0
341 440 -58 0
216 571 176 0
-226 -11 624 0
-904 88 942 0
716 74 -56 0
-592 940 118 0
715 336 920 0
-837 208 -984 0
416 73 868 0
-249 626 732 0
-988 655 -158 0
984 -159 -8 0
-958 125 -645 0
118 275 597 0
-541 -372 -290 0
-75 -529 -119 0
-362 494 -99 0
-241 -71 516 0
462 654 -305 0
986 -243 -580 0
646 46 80 0
706 911 -440 0
948 166 -809 0
987 -559 487 0
-475 -47 960 0
-188 700 309 0
443 197 -454 0
804 -959 -438 0
632 -125 -124 0
-710 -595 467 0
-631 89 -888 0
-449 -970 -506 0
-119 491 713 0
-506 534 626 0
-598 819 -330 0
-873 955 368 0
612 -273 -283 0
718 553 -508 0
131 -795 -993 0
357 958 -555 0
819 75 683 0
-651 886 -693 0
79 -880 58 0
-67 -747 -481 0
-800 -968 188 0
894 805 721 0
747 695 -562 0
-598 692 329 0
-202 574 121 0
603 -508 -505 0
663 -806 -181 0
-600 586 387 0
167 -952 108 0
791 -175 -768 0
375 -112 -884 0
-433 867 -432 0
59 793 407 0
-219 607 -989 0
748 575 856 0
-697 -404 314 0
921 -915 273 0
-904 729 302 0
953 19 552 0
-66 -957 -584 0
403 691 195 0
598 -218 -757 0
-515 973 -764 0
-658 513 634 0
-411 -899 -351 0
411 80 -417 0
-659 -289 -251 0
-655 -852 813 0
762 250 872 0
-671 814 -791 0
-491 -849 -512 0
-944 -287 -148 0
134 929 -938 0
-817 179 -270 0
48 -586 777 0
73 -71 955 0
-681 230 116 0
-544 -46 743 0
770 -773 603 0
-840 311 -972 0
-707 -970 638 0
-29 16 297 0
-95 -675 827 0
840 -369 -724 0
882 -737 -738 0
-444 -100 -547 0
100 707 270 0
39 -91 441 0
-202 -842 -716 0
644 84 -962 0
142 276 -918 0
-467 1000 -262 0
252 -805 -561 0
-361 -557 -453 0
526 846 138 0
-873 911 351 0
973 -213 -922 0
367 -211 -92 0
651 748 627 0
326 45 -520 0
-325 685 14 0
-786 976 25 0
782 -500 -72 0
621 -679 173 0
273 43 -225 0
-912 -267 -798 0
806 81 687 0
-300 -252 -197 0
608 -417 256 0
536 719 647 0
-740 505 -345 0
100 491 -679 0
659 16 809 0
-496 249 794 0
59 -817 -951 0
-874 -857 886 0
758 887 -258 0
-387 429 -130 0
-611 -472 799 0
-596 956 822 0
-226 180 -328 0
910 200 235 0
-402 900 511 0
-310 424 153 0
-956 -262 475 0
-979 650 -463 0
-964 -508 -46 0
734 -279 555 0
119 846 706 0
278 -226 14 0
-780 745 536 0
-215 41 -875 0
861 406 334 0
25 -943 -392 0
-992 499 -33 0
-597 -285 -251 0
882 115 -395 0
152 -318 162 0
937 -749 253 0
903 -828 -882 0
684 -965 -281 0
677 -767 88 0
-530 -9 -795 0
-410 433 328 0
186 -680 -9 0
-887 -792 -309 0
353 -644 -701 0
-30 987 874 0
656 -29 -649 0
-796 -563 -774 0
-773 548 255 0
214 407 55 0
-810 56 205 0
-845 439 489 0
804 -310 281 0
129 -955 865 0
532 -362 934 0
604 266 183 0
-376 11 -539 0
902 820 727 0
185 -992 -375 0
-626 41 -459 0
-772 -214 -378 0
-309 -362 -759 0
738 954 -180 0
-471 543 -289 0
-869 497 -673 0
965 898 -223 0
-577 391 232 0
416 -586 -986 0
568 -224 -573 0
-680 -914 454 0
330 171 -968 0
240 454 -760 0
-643 -491 -930 0
329 -639 -870 0
-183 -881 289 0
-812 -35 11 0
514 -861 -118 0
-544 -828 557 0
-942 370 246 0
455 -823 -284 0
-723 -447 -297 0
995 12 -138 0
494 945 931 0
30 -388 -63 0
-140 760 -203 0
227 -705 -666 0
455 -24 -166 0
-472 -440 761 0
29 -37 -787 0
-502 -999 -799 0
-825 -790 3 0
355 632 -958 0
-714 -936 -316 0
-133 533 -972 0
-316 131 510 0
-127 -112 626 0
-51 -81 -947 0
-31 913 563 0
-367 -646 839 0
961 -714 -478 0
-50 328 -734 0
-788 993 512 0
-616 -555 462 0
634 596 -30 0
-660 103 223 0
-741 -251 -612 0
714 -124 -66 0
519 725 -861 0
499 -186 143 0
-750 5 560 0
226 945 219 0
604 -833 -150 0
572 -894 -548 0
-953 247 -46 0
447 49 861 0
-91 263 -980 0
-99 822 -537 0
-390 712 -548 0
-924 -362 900 0
-466 -334 986 0
-21 -990 385 0
442 163 404 0
38 -854 391 0
-992 572 498 0
-666 555 77 0
469 -527 -401 0
296 941 698 0
262 -423 -222 0
511 114 -694 0
566 551 510 0
113 906 -165 0
-652 -820 -923 0
-878 132 -893 0
-366 816 -922 0
548 634 -22 0
-217 495 -149 0
-689 -128 502 0
294 662 -839 0
-539 255 38 0
-34 841 772 0
-58 -415 163 0
311 -313 809 0
920 -463 -876 0
-511 -618 -295 0
-202 387 782 0
-301 712 178 0
941 -459 -384 0
-413 275 946 0
988 874 -710 0
557 912 -969 0
-443 416 731 0
-390 -102 -418 0
-727 -632 -953 0
-314 213 607 0
106 -404 -824 0
138 -777 -193 0
705 810 -665 0
5 -685 -77 0
624 161 77 0
-723 -905 470 0
309 -744 -727 0
-624 -140 -837 0
-822 817 715 0
393 -155 90 0
-999 688 -954 0
857 -280 -427 0
77 677 344 0
778 238 119 0
675 -904 813 0
-813 -578 -159 0
588 461 595 0
-132 640 -273 0
809 756 -779 0
352 -404 -978 0
719 584 -204 0
-755 -320 144 0
-692 -495 -303 0
602 -174 -728 0
-848 -953 402 0
-320 870 369 0
-298 -205 956 0
-326 -134 -422 0
913 34 -169 0
407 -473 116 0
-421 106 88 0
-156 912 -212 0
894 -249 -706 0
-173 -634 -221 0
734 304 451 0
-866 -662 -634 0
315 -643 594 0
453 316 -309 0
727 -557 826 0
-574 -475 651 0
-536 395 -992 0
-380 975 -379 0
-406 253 626 0
637 -179 -407 0
-310 757 -996 0
-163 993 -362 0
-105 697 -607 0
157 -110 -896 0
41 856 260 0
-342 -736 489 0
210 136 499 0
-757 -452 -495 0
849 -347 815 0
734 -670 -231 0
-16 -46 -855 0
-34 -622 -232 0
-422 -779 945 0
193 -639 234 0
-523 -688 895 0
223 -126 -554 0
-179 -752 -264 0
-391 -95 -515 0
-532 -930 201 0
-820 810 35 0
973 615 836 0
830 34 564 0
-815 -453 141 0
598 437 -141 0
583 162 914 0
119 -947 -715 0
631 430 -403 0
73 319 -445 0
525 -732 373 0
-370 280 -887 0
111 674 712 0
904 -517 -294 0
518 258 -948 0
281 977 666 0
-201 -440 811 0
-165 124 804 0
-119 -205 486 0
816 595 -929 0
451 925 860 0
94 -581 -434 0
-905 975 62 0
721 -997 833 0
919 -925 -301 0
927 -740 -377 0
-621 -836 158 0
-953 -874 970 0
316 -597 595 0
984 603 -180 0
-960 -361 874 0
33 936 -961 0
761 51 -562 0
-141 -47 -969 0
-633 698 -876 0
617 -351 -367 0
438 96 959 0
977 -224 -897 0
-419 250 911 0
321 556 668 0
217 -570 321 0
-4 362 46 0
847 -92 207 0
241 -558 -108 0
41 68 -429 0
1 899 -963 0
218 373 -864 0
-388 -913 -235 0
-42 96 829 0
-896 -257 -364 0
403 -573 -489 0
-734 -11 -649 0
-839 740 22 0
-201 389 421 0
190 911 400 0
684 713 185 0
-833 41 -274 0
357 974 192 0
-351 266 235 0
-974 919 -747 0
827 -167 -51 0
910 -429 -532 0
513 693 915 0
-986 -227 -727 0
478 910 865 0
457 157 -454 0
-774 235 862 0
-966 324 230 0
19 -532 -908 0
978 340 134 0
-450 282 -921 0
430 -720 718 0
974 -213 -406 0
163 870 -28 0
251 -845 178 0
22 -34 -288 0
-716 -736 -771 0
567 -544 101 0
590 -924 952 0
23 676 -128 0
666 101 729 0
177 -662 605 0
489 154 441 0
373 -650 -593 0
-159 -549 741 0
305 -226 915 0
500 240 596 0
47 610 -789 0
287 -677 -135 0
-440 466 -427 0
-56 -324 -113 0
-428 793 884 0
-269 279 26 0
-546 -963 -204 0
928 -145 -365 0
113 816 -628 0
18 -713 -704 0
718 -734 -479 0
675 290 517 0
-210 -42 553 0
768 -420 -625 0
-748 630 -644 0
-138 268 -486 0
685 -349 -221 0
-933 703 47 0
629 641 -135 0
-25 -806 544 0
-42 -589 891 0
782 -140 408 0
482 453 408 0
856 720 982 0
-745 -926 604 0
-63 851 -762 0
-860 -503 660 0
-201 668 78 0
63 -443 821 0
111 -507 -263 0
-204 -271 -746 0
711 204 -390 0
419 638 -570 0
234 -716 19 0
-129 -140 599 0
833 -107 617 0
775 295 -14 0
-910 -670 93 0
636 360 462 0
327 430 -728 0
-239 995 263 0
584 -307 956 0
-777 97 718 0
-766 -485 661 0
381 -245 -832 0
647 -886 -782 0
-744 -206 -511 0
-43 -437 -968 0
-54 652 427 0
-321 67 -150 0
-880 749 653 0
-823 453 188 0
-755 938 -910 0
640 623 -557 0
-729 538 252 0
-350 362 -100 0
-476 -354 -95 0
491 795 803 0
-993 51 459 0
-766 -973 -302 0
-810 775 -630 0
840 -934 50 0
-283 -127 -84 0
-892 -241 227 0
-481 -204 220 0
-32 196 835 0
-785 -196 241 0
-81 -362 -738 0
-464 -175 435 0
-484 845 794 0
-258 121 287 0
379 884 -417 0
915 522 -113 0
555 -976 75 0
-890 826 534 0
73 925 648 0
678 -572 202 0
729 598 -739 0
-192 -654 899 0
787 235 -285 0
-751 -608 -370 0
600 63 -156 0
-516 165 -770 0
201 -68 -635 0
-819 -401 -635 0
848 -355 -658 0
133 338 -864 0
894 938 996 0
493 -234 -33 0
-634 712 571 0
-344 929 840 0
854 -182 -842 0
-775 -218 -511 0
-857 633 692 0
-373 71 647 0
926 584 -193 0
227 -652 -482 0
340 -463 -551 0
263 -47 931 0
-839 -756 -117 0
-168 -9 578 0
-324 -868 -903 0
960 488 792 0
-689 258 -952 0
-522 640 -733 0
504 -949 -373 0
-123 -551 -128 0
-930 -783 -18 0
-265 50 864 0
-287 339 -115 0
882 5 281 0
-663 -660 -629 0
438 404 913 0
882 241 -240 0
306 128 751 0
-747 258 281 0
-437 -954 -328 0
131 -872 -527 0
-934 92 -878 0
350 365 61 0
827 -162 -645 0
944 517 -522 0
-301 -616 -48 0
-114 507 652 0
-226 206 259 0
892 773 -780 0
624 569 -270 0
-666 -241 -284 0
775 -369 454 0
-289 -37 73 0
-56 -853 -292 0
-935 556 39 0
-187 84 477 0
-577 815 857 0
190 -952 -832 0
963 709 -81 0
128 -888 -3 0
630 311 -577 0
929 -540 194 0
264 -982 -503 0
-724 11 -999 0
862 -820 -32 0
-953 414 -506 0
284 133 679 0
34 -572 -553 0
435 -34 589 0
-908 -685 594 0
-333 -301 369 0
217 278 881 0
-540 -797 -408 0
-185 40 -288 0
-27 61 636 0
895 -318 -716 0
-206 -879 889 0
-610 789 -190 0
808 -623 -385 0
-205 510 -793 0
-398 -122 148 0
-871 -224 190 0
168 818 163 0
242 -517 210 0
-987 -208 -186 0
383 316 -587 0
573 -26 -764 0
-957 7 -933 0
-976 -907 -942 0
-932 106 -880 0
-235 -547 793 0
56 45 642 0
-641 -505 74 0
652 -499 217 0
292 -100 -899 0
-573 -16 -269 0
-400 965 -127 0
493 73 825 0
-327 519 788 0
