c Large 3-SAT formula for GPU testing
c 1000 variables, 4300 clauses (ratio: 4.3)
p cnf 1000 4300
365 696 946 0
-364 -669 127 0
-177 -40 957 0
944 425 -915 0
114 -853 -493 0
-700 98 -32 0
-116 102 -608 0
-5 -980 753 0
-526 989 -910 0
-210 -569 576 0
-919 -271 876 0
114 902 -10 0
271 -828 262 0
-183 136 1000 0
74 -400 417 0
-863 207 314 0
329 -28 -959 0
38 355 -947 0
172 675 -210 0
220 371 82 0
-437 768 214 0
-909 -286 -446 0
-613 -140 -637 0
62 -744 -96 0
-403 -706 278 0
772 -664 -75 0
-657 -127 -645 0
-412 -672 -868 0
-775 -180 160 0
87 245 -395 0
672 -432 321 0
-257 -225 -286 0
47 -298 -297 0
982 485 -716 0
-708 458 -757 0
523 831 -829 0
-228 -347 -737 0
-744 -450 -523 0
-896 -652 290 0
459 476 -478 0
-403 -45 -606 0
-170 -996 630 0
-481 -127 84 0
598 -457 -815 0
-257 -847 -455 0
336 766 -498 0
571 -782 -280 0
-802 -661 -461 0
85 -890 -356 0
-196 -550 772 0
833 957 211 0
340 -959 582 0
-849 -676 -530 0
688 -26 621 0
-3 310 358 0
78 936 8 0
854 -51 744 0
479 -835 356 0
551 575 686 0
-547 86 -620 0
-956 -645 369 0
227 187 602 0
186 189 -565 0
-641 -343 -469 0
145 -138 -284 0
-483 204 109 0
-444 -356 840 0
175 -559 983 0
56 -119 720 0
401 492 877 0
499 890 685 0
-520 -334 180 0
-357 -123 -913 0
-943 -637 31 0
504 -973 -733 0
-610 -250 -308 0
-508 -496 464 0
-810 814 623 0
-875 -948 -862 0
-944 423 162 0
-92 -800 -609 0
-686 548 -404 0
639 996 -952 0
-370 608 552 0
-97 -947 462 0
-313 -940 87 0
403 -824 -704 0
142 -198 -946 0
-62 684 501 0
604 771 950 0
299 -762 148 0
709 -561 -779 0
797 537 -948 0
3 372 958 0
575 78 170 0
-688 -617 946 0
578 927 -489 0
-380 893 10 0
948 -967 -228 0
41 252 -69 0
627 184 321 0
547 -183 -128 0
907 896 -71 0
715 -613 -552 0
932 -188 -738 0
-12 370 194 0
70 868 182 0
731 -28 -426 0
739 992 -75 0
-664 225 -968 0
517 787 -774 0
797 -843 -174 0
-99 365 -643 0
-475 167 -812 0
476 -317 -892 0
-883 -326 457 0
-915 527 401 0
-299 958 277 0
-669 196 914 0
-658 -597 910 0
-434 70 -707 0
-576 875 208 0
-31 -469 373 0
197 -486 -97 0
359 -917 20 0
-795 289 -967 0
168 696 -813 0
-60 -722 -469 0
177 -739 730 0
-594 -737 979 0
811 703 253 0
-348 764 93 0
-356 354 -818 0
948 512 -193 0
-844 -224 -466 0
78 -612 947 0
-604 266 -225 0
-3 -648 935 0
343 -283 329 0
739 -464 287 0
80 -820 -693 0
-953 -361 -958 0
-205 588 13 0
918 -426 -152 0
-40 521 -53 0
401 -143 -687 0
-794 389 444 0
886 264 163 0
-586 -585 194 0
-848 388 303 0
-65 -674 -16 0
-315 568 476 0
935 -679 -730 0
-918 662 -375 0
330 218 804 0
739 621 951 0
547 -348 -449 0
180 602 -860 0
-535 -514 264 0
625 358 -849 0
911 343 582 0
960 -661 -976 0
-135 -463 -767 0
414 332 416 0
-28 -252 -341 0
-540 -78 -572 0
-559 -863 664 0
17 158 -676 0
346 759 558 0
96 -308 112 0
-212 -273 -785 0
966 649 616 0
-110 -742 -840 0
901 814 -366 0
513 -366 515 0
791 -642 -109 0
-696 -590 -321 0
628 141 -518 0
-354 27 675 0
102 488 27 0
-658 620 -236 0
461 -195 850 0
703 434 119 0
630 -6 -700 0
-318 453 -255 0
714 828 82 0
-789 -525 -389 0
-333 -951 908 0
452 854 -388 0
373 900 -281 0
-834 532 -575 0
792 452 -674 0
-836 44 -114 0
-261 -565 -296 0
-523 695 -252 0
708 -718 37 0
780 466 -244 0
-727 106 -750 0
-704 -958 365 0
-616 -307 352 0
336 90 -553 0
171 635 -918 0
635 -802 -961 0
-386 860 185 0
-551 378 -997 0
-604 670 -669 0
-375 -612 -985 0
-848 192 404 0
831 726 535 0
-577 -613 -640 0
-133 656 -696 0
187 498 230 0
-744 405 -412 0
139 978 -392 0
309 -438 -218 0
259 354 976 0
98 792 753 0
-462 -241 164 0
-931 -325 -973 0
-981 -830 117 0
8 1 -340 0
-496 902 639 0
457 -182 193 0
-655 41 -867 0
-708 -171 788 0
-947 -490 -218 0
206 -887 673 0
16 -926 869 0
-589 -177 -845 0
860 -116 -953 0
615 15 507 0
-953 -196 42 0
-106 -187 -471 0
-943 657 433 0
-52 871 -794 0
113 727 -960 0
-305 505 -385 0
478 -487 -820 0
864 -253 -956 0
-898 997 -972 0
469 -858 -672 0
-581 -779 -536 0
683 -273 325 0
-587 897 -376 0
-658 804 572 0
-546 42 220 0
132 281 504 0
-789 418 -318 0
-802 -407 -369 0
896 752 -206 0
345 -127 -552 0
-174 370 -257 0
-391 -614 -924 0
16 768 -144 0
935 676 -620 0
406 -750 416 0
-295 -349 -276 0
-631 207 544 0
-877 -233 -341 0
96 902 272 0
207 964 -841 0
975 -862 -662 0
867 -176 773 0
-980 -535 396 0
759 782 -756 0
-683 671 217 0
296 -760 107 0
475 -904 -133 0
540 -678 -871 0
183 -917 -251 0
-71 806 -255 0
405 -939 497 0
194 -841 349 0
-963 705 -711 0
629 -547 -692 0
779 567 -316 0
608 377 -386 0
-650 24 452 0
616 636 932 0
-166 -988 820 0
-864 -185 298 0
-592 -57 -923 0
722 828 -465 0
-363 -209 -531 0
-500 306 228 0
484 -566 704 0
856 560 139 0
245 592 47 0
-246 -474 638 0
354 -812 217 0
412 594 -774 0
-911 -717 -353 0
576 357 -120 0
854 13 -307 0
-115 -324 950 0
8 937 88 0
-777 -671 -554 0
-135 -756 -635 0
751 -83 680 0
694 440 566 0
-746 909 -984 0
514 -638 -47 0
751 -17 -657 0
-708 -348 -707 0
-395 -312 387 0
267 -48 438 0
-160 -605 303 0
-361 -112 208 0
-433 -924 669 0
482 178 -744 0
322 970 -432 0
-550 -552 256 0
-691 -789 558 0
-370 -361 -208 0
-361 990 684 0
-900 138 872 0
897 460 -292 0
-934 492 160 0
963 582 -735 0
-171 820 -572 0
518 -171 504 0
782 535 359 0
874 765 -763 0
518 -191 625 0
814 -252 -399 0
192 129 782 0
-918 113 137 0
-808 -463 929 0
550 535 467 0
257 -886 687 0
-531 -141 -934 0
615 998 269 0
-667 183 137 0
435 260 -265 0
667 -738 -954 0
-586 923 -601 0
-273 -16 202 0
-361 987 -902 0
134 -762 297 0
-357 648 -670 0
-655 268 -35 0
-107 -742 -517 0
610 -151 460 0
-688 -995 754 0
446 327 246 0
274 -704 663 0
540 216 -869 0
-223 686 321 0
-576 -839 -49 0
903 -933 -541 0
208 -159 -539 0
-934 -750 -297 0
96 -594 111 0
-240 958 -168 0
-402 718 918 0
-385 683 -749 0
-449 -760 30 0
759 232 -211 0
-279 973 -686 0
-883 -735 62 0
403 514 425 0
-695 691 -535 0
-919 -677 913 0
-734 -472 -736 0
34 220 124 0
-948 -313 -676 0
111 -364 881 0
464 -353 711 0
-40 727 -259 0
172 -303 451 0
-368 -910 -838 0
94 909 -576 0
253 581 43 0
-123 194 -212 0
-819 545 -497 0
47 343 936 0
-325 -86 -182 0
342 -284 356 0
-280 997 -60 0
137 135 456 0
446 126 345 0
514 -576 66 0
-48 302 -377 0
478 43 -325 0
-925 240 -325 0
1 171 233 0
54 661 660 0
109 802 500 0
-942 -501 -927 0
740 -751 464 0
811 -316 468 0
883 -898 -24 0
-431 625 619 0
207 700 47 0
-454 131 -819 0
950 137 -453 0
-910 -702 -583 0
335 887 -527 0
-355 64 928 0
796 864 566 0
340 -708 -611 0
-39 -730 -377 0
684 -80 -298 0
-500 -563 -549 0
-126 -342 -3 0
39 -921 364 0
-996 441 -910 0
544 799 -128 0
20 -635 -490 0
844 -813 569 0
9 -109 821 0
-560 -19 -857 0
-555 -503 67 0
-719 -453 -873 0
286 372 544 0
829 -25 -598 0
680 420 -171 0
380 188 -515 0
665 911 -32 0
466 442 -212 0
-848 -404 223 0
-839 -243 -57 0
-872 207 386 0
48 278 -509 0
-827 -883 -809 0
136 932 -260 0
-411 494 139 0
179 -547 -56 0
847 899 521 0
-150 430 364 0
777 69 705 0
214 -564 38 0
287 75 369 0
-989 -861 806 0
-300 695 -481 0
-491 841 -351 0
-847 179 175 0
58 197 -692 0
72 -306 -689 0
-755 953 38 0
-920 -949 -514 0
691 -369 -244 0
196 11 -19 0
-475 203 636 0
-348 476 -94 0
794 -250 -914 0
77 220 530 0
337 248 550 0
161 -201 -630 0
-389 -970 -359 0
305 -350 -205 0
294 51 990 0
-253 556 -21 0
-102 175 -845 0
-561 -937 103 0
460 -506 856 0
839 798 9 0
382 325 125 0
-824 590 -554 0
231 862 159 0
548 929 -873 0
-953 -641 -84 0
300 -706 468 0
-64 663 -189 0
794 -745 373 0
-30 361 -319 0
952 -588 -497 0
799 -95 692 0
353 -957 555 0
944 -117 59 0
-861 -974 595 0
351 276 779 0
-148 -697 586 0
13 359 -596 0
803 -976 -708 0
433 -309 38 0
665 132 -325 0
479 -673 -424 0
32 731 189 0
131 -787 345 0
305 -969 58 0
902 455 59 0
668 -107 278 0
-440 287 190 0
989 -122 -291 0
390 -436 -167 0
-719 344 -182 0
-734 -116 -804 0
128 -748 403 0
682 357 -332 0
-673 429 327 0
-171 -221 474 0
910 336 438 0
896 -966 -760 0
-357 -347 685 0
527 -332 819 0
-424 724 25 0
-273 17 -569 0
-214 883 -462 0
992 954 342 0
53 554 -867 0
-114 -395 763 0
543 230 -634 0
-802 -506 -710 0
-191 -385 -744 0
-582 -612 432 0
-541 -153 714 0
331 221 -446 0
217 75 773 0
1 244 -194 0
-792 -704 414 0
976 960 743 0
931 155 -954 0
-972 783 -466 0
-212 566 945 0
-598 72 66 0
377 125 142 0
685 -93 253 0
788 -233 -159 0
293 849 90 0
-779 -547 741 0
528 -668 18 0
384 -141 -335 0
63 -855 -743 0
-886 264 858 0
206 -31 124 0
-729 950 -406 0
-347 -998 651 0
-950 -339 -221 0
418 -500 206 0
787 -134 34 0
-268 920 742 0
-129 19 188 0
-375 -707 70 0
-7 -579 244 0
-832 46 -469 0
265 836 -578 0
926 -455 64 0
258 110 226 0
419 -294 643 0
-403 530 143 0
103 144 -377 0
946 557 199 0
113 -893 194 0
-288 371 -259 0
-762 -655 785 0
-671 476 -941 0
945 -243 192 0
-907 208 571 0
295 10 450 0
-737 -928 366 0
-819 414 158 0
152 800 200 0
683 358 35 0
247 461 -790 0
65 421 -501 0
-936 40 821 0
-658 934 11 0
465 -578 807 0
287 441 -626 0
237 676 -69 0
-857 419 -627 0
429 600 -794 0
264 715 175 0
-771 32 363 0
-644 -522 -359 0
813 -907 778 0
840 16 279 0
359 744 -755 0
-646 -164 663 0
195 -730 271 0
-780 -854 -549 0
883 -55 885 0
516 -763 80 0
511 -379 432 0
-425 800 569 0
472 -327 -501 0
-505 546 -585 0
-177 -457 -827 0
-677 642 752 0
-347 127 -670 0
938 444 754 0
-406 42 -347 0
-537 -42 -695 0
-266 -775 917 0
-158 -590 805 0
-246 -329 -444 0
400 542 2 0
841 -502 -907 0
-422 -49 648 0
884 875 -251 0
177 967 347 0
998 583 188 0
-194 318 957 0
275 -575 271 0
-587 452 940 0
860 808 -901 0
27 -761 -108 0
553 -336 557 0
204 -658 -657 0
162 -956 -478 0
519 818 -696 0
846 -757 908 0
-331 -524 297 0
92 -411 337 0
869 381 339 0
980 -108 -121 0
-218 2 755 0
-722 653 830 0
-440 160 -417 0
-538 -988 341 0
160 -319 261 0
830 218 969 0
952 -511 -983 0
-321 793 243 0
-794 -708 -771 0
-356 406 411 0
117 -257 986 0
-299 633 607 0
-988 89 -353 0
-165 89 -613 0
-631 -22 -411 0
-513 -29 397 0
-205 112 868 0
-785 -103 -77 0
918 10 418 0
851 -429 481 0
-878 -782 728 0
-654 -469 697 0
282 787 379 0
-67 -953 -473 0
23 505 -804 0
492 -812 -254 0
-862 365 556 0
223 -620 -140 0
-473 -945 113 0
863 374 132 0
2 -210 812 0
621 -260 -298 0
-26 -137 241 0
820 -312 333 0
-958 253 176 0
594 -208 -845 0
-624 302 -219 0
-710 186 193 0
407 726 -810 0
-492 -311 -378 0
529 -115 -883 0
421 -800 -807 0
-531 -550 667 0
334 928 -337 0
-788 -795 766 0
-448 -447 -958 0
290 -819 398 0
-955 -725 -300 0
-873 811 -718 0
-249 613 -853 0
983 325 530 0
138 444 366 0
293 910 197 0
-15 -187 -31 0
-681 -248 313 0
-570 776 257 0
824 777 -575 0
-5 -166 472 0
-367 -834 -65 0
-654 220 457 0
-125 -953 818 0
778 -909 787 0
238 634 -325 0
-348 -321 667 0
-642 -286 -709 0
349 335 790 0
-573 -575 -366 0
-277 816 214 0
235 -205 948 0
-717 -516 -823 0
-681 -707 -711 0
77 -748 -825 0
916 -289 435 0
764 -247 45 0
288 844 -758 0
113 -989 -346 0
-828 547 338 0
750 -163 319 0
-430 657 -1 0
-657 -871 -918 0
871 449 -537 0
381 -605 280 0
14 -988 521 0
-260 875 -506 0
834 -460 432 0
234 951 993 0
861 437 524 0
-560 -60 -480 0
-25 961 -496 0
651 610 213 0
273 -363 -248 0
-852 -698 378 0
266 574 273 0
608 340 664 0
-431 -470 -999 0
-839 -16 243 0
-886 18 488 0
-450 696 236 0
-217 103 -750 0
-304 424 45 0
601 760 304 0
122 -521 -562 0
-516 514 340 0
682 -871 863 0
822 -533 271 0
936 -967 -569 0
643 -435 294 0
-391 221 -473 0
-257 -334 99 0
-231 136 702 0
280 746 -913 0
-602 572 -156 0
89 487 211 0
-246 -993 760 0
-797 330 190 0
-151 -804 -35 0
-992 -13 455 0
705 -487 -259 0
569 -633 725 0
-866 -790 -222 0
-439 996 915 0
-904 287 95 0
920 -292 677 0
-717 -378 -842 0
-766 586 -491 0
-299 354 290 0
-45 -928 162 0
-373 -908 432 0
-842 -746 664 0
-845 862 -332 0
715 1000 -505 0
990 -83 922 0
-728 775 810 0
-372 334 -429 0
596 264 552 0
-351 289 -511 0
909 48 -418 0
-986 853 -592 0
90 -284 544 0
-683 61 574 0
45 -701 -501 0
-150 -430 -113 0
-936 -800 410 0
-807 -767 -181 0
672 -670 626 0
-931 -434 77 0
-455 57 -975 0
-717 -105 622 0
-750 -406 250 0
-753 719 -513 0
590 -310 957 0
305 -50 -742 0
799 880 622 0
-921 -329 -619 0
755 892 699 0
914 -333 695 0
38 206 951 0
8 -340 874 0
-353 609 -365 0
249 -690 240 0
2 979 195 0
159 169 52 0
610 385 -570 0
-608 572 -915 0
-764 -936 773 0
577 856 83 0
-668 167 -826 0
18 -661 776 0
594 426 -9 0
-655 -125 -601 0
541 686 78 0
-415 -4 654 0
-571 -201 -290 0
785 956 446 0
-454 -952 -325 0
-967 506 521 0
65 844 648 0
-353 457 506 0
-678 608 -900 0
-618 -380 589 0
-286 -923 -104 0
665 -393 456 0
-988 278 -194 0
549 253 841 0
150 -763 -18 0
231 308 -284 0
618 -643 -662 0
313 234 259 0
-896 -187 -135 0
115 -581 -302 0
210 891 12 0
683 -970 -252 0
468 -366 193 0
672 -489 -643 0
28 -729 743 0
476 321 778 0
302 -809 -973 0
-374 -690 436 0
-147 -92 669 0
582 -340 -391 0
883 -633 -685 0
-529 -70 426 0
-432 -966 -359 0
-380 597 -3 0
-226 -546 109 0
-903 42 -730 0
-297 -18 -848 0
-743 -754 -84 0
-311 956 271 0
-578 877 318 0
-499 578 18 0
644 -858 -289 0
839 602 -406 0
708 -634 384 0
146 222 -332 0
-15 -478 216 0
724 354 -892 0
-313 -131 -655 0
660 309 -440 0
634 -853 -222 0
-804 577 112 0
-409 -820 -640 0
962 203 64 0
-919 -16 120 0
-674 161 350 0
127 431 834 0
93 209 783 0
898 239 -709 0
-473 -519 111 0
-468 -292 80 0
-852 789 -607 0
950 625 324 0
942 637 96 0
-148 -133 385 0
-750 -377 -496 0
136 -682 -519 0
670 -749 444 0
-258 -852 -666 0
-562 761 -189 0
-178 179 854 0
807 -35 801 0
147 251 671 0
786 126 103 0
133 -464 317 0
-608 -374 883 0
-44 -255 550 0
-937 601 728 0
-406 -451 -880 0
325 128 -186 0
291 26 200 0
254 264 321 0
53 347 332 0
-322 -712 -329 0
345 -94 414 0
-602 506 265 0
347 -559 -865 0
-780 -69 -631 0
24 109 -408 0
-578 550 337 0
654 -812 -489 0
-845 611 -703 0
-74 -372 -648 0
-757 876 163 0
458 191 -140 0
648 -107 696 0
-82 -526 -582 0
-701 61 -58 0
-137 -897 718 0
-882 270 -927 0
183 -802 396 0
-436 -601 796 0
930 203 470 0
628 -234 -810 0
-1 968 948 0
923 -745 -528 0
721 866 955 0
890 535 -255 0
-613 -131 -513 0
-433 -915 661 0
-239 687 159 0
-747 -733 466 0
949 451 373 0
-537 402 -39 0
658 -569 -187 0
299 -576 -94 0
340 -114 -744 0
92 218 -249 0
-539 957 -707 0
883 326 577 0
998 313 435 0
655 164 59 0
-397 -264 729 0
481 -173 -357 0
706 -609 -166 0
-828 352 -490 0
288 -187 -213 0
17 895 696 0
513 688 -745 0
-844 35 -353 0
-179 -154 -347 0
-971 963 843 0
-357 377 -71 0
577 670 -900 0
509 849 46 0
745 876 -986 0
571 483 49 0
-541 612 -103 0
-527 -606 607 0
360 161 291 0
-36 -25 -254 0
-438 -174 827 0
-177 911 -989 0
-514 52 365 0
-907 -959 -958 0
-990 -115 869 0
-55 -381 218 0
540 353 519 0
73 890 167 0
695 745 109 0
591 -243 487 0
-244 731 605 0
483 -380 44 0
-443 -58 326 0
-18 720 85 0
-794 25 -109 0
963 665 -19 0
-666 -15 -105 0
-626 54 -320 0
645 521 -857 0
683 662 445 0
972 -122 -191 0
-502 -552 301 0
-677 -727 257 0
159 -362 -987 0
-492 -146 -132 0
193 -80 -560 0
149 158 79 0
-941 626 694 0
836 -340 -647 0
-419 980 -884 0
836 982 511 0
318 610 379 0
-786 958 694 0
684 143 -525 0
-493 603 -509 0
-852 -860 183 0
-724 473 787 0
558 -494 86 0
186 921 790 0
-166 852 -478 0
324 -18 -206 0
-696 242 -978 0
280 509 -202 0
920 -569 348 0
-879 -7 -961 0
-939 622 -910 0
511 576 -745 0
389 276 9 0
-262 -812 -9 0
-454 714 287 0
622 50 48 0
616 -275 -113 0
-697 -500 706 0
933 703 599 0
910 529 -565 0
-262 -565 508 0
-317 373 912 0
-913 19 454 0
-117 254 -299 0
-946 500 79 0
-5 980 729 0
-746 487 -902 0
-695 53 606 0
695 848 785 0
856 698 -109 0
-525 -522 346 0
16 640 -730 0
-771 149 606 0
-480 -784 943 0
-359 -640 269 0
221 905 705 0
-146 908 69 0
-560 -522 -226 0
518 -115 -316 0
-645 -93 490 0
457 -548 648 0
755 394 -268 0
894 -805 -255 0
-657 142 -116 0
-773 -686 -228 0
68 2 247 0
971 -596 -303 0
246 -234 -434 0
22 308 515 0
930 -864 -705 0
-195 687 850 0
997 -825 -501 0
715 559 618 0
-315 -577 260 0
-601 128 603 0
611 -654 235 0
-181 -271 784 0
585 -327 689 0
-143 995 183 0
-708 -406 28 0
732 798 -823 0
-942 -793 777 0
216 862 -217 0
95 -556 221 0
794 877 -449 0
-664 -846 727 0
-356 219 156 0
-71 154 -459 0
-528 322 -62 0
-976 -154 -250 0
-792 876 -38 0
269 909 -841 0
-37 710 257 0
-668 -338 -874 0
161 165 338 0
589 145 168 0
29 234 662 0
812 -180 -262 0
-279 -800 23 0
194 372 676 0
-568 -210 -599 0
-196 205 -469 0
964 950 669 0
542 149 502 0
-379 416 -923 0
-466 184 -790 0
-227 100 816 0
157 761 251 0
-346 -743 -508 0
461 489 916 0
-809 -575 -303 0
-471 225 370 0
-380 548 -143 0
-358 128 72 0
169 12 -733 0
-408 -842 929 0
978 411 -941 0
-786 -595 843 0
-4 211 849 0
54 -434 -472 0
702 -837 47 0
131 952 748 0
-543 -554 206 0
369 -105 -93 0
-375 -70 138 0
314 891 -376 0
-70 -719 -81 0
-416 -374 -159 0
289 912 -39 0
-594 979 -315 0
-93 393 103 0
-769 182 55 0
48 876 -369 0
-15 -89 252 0
-137 -761 -869 0
-519 -836 -32 0
-170 -357 85 0
477 -773 -1000 0
364 698 891 0
589 -148 -655 0
-721 628 -697 0
1000 -638 590 0
668 -92 -698 0
242 824 -736 0
-902 528 -241 0
-324 402 793 0
840 -762 997 0
-314 243 -588 0
897 -490 244 0
-27 728 -647 0
339 549 -833 0
-865 -748 -579 0
669 264 780 0
369 535 783 0
-919 612 -543 0
315 76 -591 0
-706 -822 -511 0
404 716 -529 0
-235 678 114 0
-381 -382 -228 0
-242 -516 -555 0
282 -791 -905 0
1 -852 631 0
-377 -399 -897 0
-633 -17 -723 0
-786 -691 -724 0
645 -69 499 0
-563 -88 -670 0
-131 606 -384 0
795 -627 270 0
-599 643 -629 0
-800 -579 -77 0
-407 -211 -489 0
629 243 120 0
709 624 -526 0
357 -825 846 0
65 305 -161 0
-161 -296 -398 0
777 -458 -920 0
313 -200 -251 0
-429 717 -659 0
-784 690 -236 0
-149 35 213 0
575 -22 -440 0
508 -917 -858 0
856 -369 675 0
639 456 -436 0
-380 -763 880 0
-153 641 95 0
854 -460 564 0
-636 664 -870 0
-33 486 450 0
-515 -851 -240 0
-215 57 646 0
-254 389 -980 0
250 -644 108 0
-763 -728 -721 0
-82 604 -907 0
606 999 -296 0
859 -392 -280 0
-974 -427 -714 0
113 673 -336 0
45 932 -657 0
94 108 -797 0
-875 -673 604 0
-109 713 -263 0
550 -848 -322 0
-757 395 2 0
-386 -768 642 0
-855 203 251 0
-444 107 -226 0
658 -61 330 0
302 837 202 0
-377 338 108 0
350 -596 -879 0
840 763 784 0
296 606 33 0
144 325 534 0
-8 89 -896 0
8 -617 210 0
-735 623 959 0
387 -481 -92 0
-685 735 -639 0
187 807 97 0
-545 925 158 0
308 617 -530 0
-396 -871 910 0
917 -520 -570 0
-397 -169 391 0
909 -558 961 0
595 -412 -672 0
465 -255 760 0
244 877 513 0
-275 -999 -6 0
-143 230 675 0
-71 -655 -269 0
-655 86 575 0
-344 -252 716 0
-33 899 -570 0
631 -196 -361 0
388 -444 725 0
184 364 365 0
217 234 -616 0
353 -754 741 0
211 -414 -534 0
-510 -741 858 0
-389 -62 -150 0
284 357 -651 0
-118 -378 -173 0
361 -510 957 0
300 -710 753 0
-482 964 447 0
172 398 633 0
913 767 683 0
483 549 417 0
678 219 168 0
-707 990 -741 0
959 -202 -509 0
132 -25 188 0
18 578 517 0
711 -24 -671 0
-865 -876 -893 0
-286 -899 866 0
-229 459 -860 0
989 -361 -404 0
-264 -861 73 0
-159 -170 570 0
-136 385 -736 0
-170 231 459 0
140 -920 416 0
-310 -883 -709 0
469 369 345 0
-14 -114 621 0
206 989 -229 0
595 -481 88 0
313 -507 236 0
172 -722 513 0
-858 -316 -197 0
274 -811 876 0
-454 -131 -299 0
-72 -293 19 0
-392 -300 -645 0
672 -813 561 0
34 442 -373 0
125 644 576 0
531 -658 540 0
668 -600 571 0
-648 843 899 0
-498 610 -195 0
428 -909 568 0
897 -756 -889 0
718 -726 -185 0
-634 -886 218 0
-493 -457 646 0
704 -94 275 0
127 501 -322 0
928 677 -644 0
-78 -189 -732 0
-985 788 -837 0
369 737 228 0
595 -833 -378 0
-673 -715 -836 0
-724 721 231 0
91 407 728 0
-324 -97 575 0
962 -130 -460 0
725 861 -340 0
942 -148 -561 0
-111 987 -51 0
451 690 442 0
-835 -873 474 0
-661 5 -530 0
-691 -369 -680 0
-37 -721 -314 0
856 99 607 0
90 -441 795 0
734 -492 993 0
-259 -60 -517 0
778 -189 545 0
-346 -540 685 0
-251 312 -862 0
305 957 -909 0
137 -6 807 0
-112 933 72 0
-710 262 -385 0
489 -424 -255 0
-60 282 661 0
46 780 -268 0
-670 881 -132 0
594 162 -907 0
-777 790 -368 0
-122 910 589 0
820 -401 -480 0
912 66 428 0
138 -162 -942 0
-38 160 62 0
402 465 -758 0
395 -55 -461 0
-865 431 -679 0
-199 149 -863 0
813 -918 -346 0
-569 171 39 0
-409 494 174 0
-262 -169 714 0
296 750 73 0
138 821 -700 0
-737 -12 -469 0
-839 -61 -738 0
666 -42 973 0
75 -209 466 0
144 -177 -382 0
806 727 -999 0
-299 465 -755 0
998 -603 222 0
-960 951 58 0
-328 272 -654 0
994 408 -24 0
220 283 158 0
-53 604 304 0
-241 726 464 0
-491 -249 -934 0
122 -289 -150 0
658 -804 793 0
225 -718 568 0
371 -699 -31 0
557 -113 75 0
41 471 -448 0
-795 -854 860 0
189 -922 -528 0
-244 666 -537 0
740 -640 -748 0
734 -754 -951 0
-850 -441 450 0
115 -679 -872 0
23 -728 -404 0
365 642 892 0
153 482 -599 0
-799 198 528 0
-752 206 -442 0
52 -690 -413 0
798 938 -531 0
-524 -214 536 0
-625 775 -412 0
-417 -191 -105 0
-514 213 290 0
661 349 -979 0
-419 531 -282 0
-343 -959 640 0
846 -924 -86 0
-944 -411 -172 0
758 930 -225 0
-605 -193 -497 0
-421 872 433 0
292 219 -694 0
-55 -943 967 0
-658 -210 -806 0
-599 -285 -855 0
450 568 -704 0
-501 -333 148 0
-554 -948 549 0
-861 -622 976 0
-131 382 -955 0
689 -977 -960 0
858 -379 535 0
-279 -891 156 0
-684 -633 62 0
-74 759 -210 0
857 773 843 0
-792 -836 58 0
822 252 831 0
716 -621 478 0
-632 -616 769 0
-379 -726 -938 0
-278 -989 -297 0
255 -331 -348 0
348 350 332 0
208 951 -838 0
298 914 108 0
256 -897 807 0
936 -484 942 0
-92 -550 885 0
-692 -38 -586 0
-354 -79 -406 0
-469 238 -753 0
-379 856 -300 0
-576 831 -407 0
-658 71 87 0
627 57 -143 0
-714 557 -835 0
839 298 -677 0
-94 31 361 0
954 409 640 0
303 141 101 0
-133 -301 95 0
415 -210 -92 0
-808 -81 232 0
698 364 869 0
76 281 360 0
299 -434 811 0
75 -36 -348 0
853 -348 -500 0
585 126 844 0
-662 129 616 0
913 260 729 0
-274 -270 -303 0
173 976 745 0
484 -331 -93 0
249 -132 875 0
239 240 917 0
-69 -526 330 0
-591 -188 23 0
-372 444 296 0
-528 -944 174 0
-719 -837 492 0
951 -183 434 0
198 105 -288 0
-775 -436 805 0
772 455 872 0
-118 969 -53 0
-165 304 -714 0
-2 -147 849 0
800 -217 639 0
-611 525 212 0
-809 -662 -517 0
129 813 275 0
197 -948 -538 0
48 -27 586 0
701 288 -260 0
166 32 800 0
613 118 341 0
-392 940 497 0
-443 594 33 0
823 -930 -983 0
-712 988 -270 0
118 452 874 0
951 41 259 0
43 -290 278 0
-324 929 -413 0
782 -913 795 0
970 480 626 0
112 9 21 0
-304 -914 94 0
-47 -904 -792 0
670 -134 -463 0
701 468 -783 0
-836 945 -398 0
782 268 -848 0
-157 -256 -193 0
49 92 -432 0
167 -590 445 0
476 -345 828 0
139 -437 -35 0
129 -187 89 0
227 -182 -256 0
-495 90 -309 0
298 -317 49 0
788 564 937 0
155 586 -188 0
353 584 -851 0
600 880 -301 0
315 320 81 0
918 -770 536 0
-36 -57 395 0
178 597 543 0
448 739 931 0
-753 -495 -593 0
-681 892 -552 0
-335 171 -908 0
629 681 -273 0
59 232 779 0
345 -321 -103 0
23 -264 -646 0
-481 -984 -405 0
-564 -226 -559 0
579 -883 997 0
-647 -141 -687 0
50 -613 -901 0
-175 657 998 0
-256 933 -732 0
942 922 40 0
587 -435 -184 0
631 35 556 0
-705 -522 -494 0
297 -873 -175 0
-956 -337 197 0
652 -851 537 0
-64 -31 505 0
-977 989 -628 0
495 262 -562 0
-894 7 410 0
-99 -608 407 0
-415 931 -142 0
887 -891 534 0
-236 -216 982 0
425 729 784 0
552 -889 -882 0
501 727 25 0
590 -754 904 0
-406 816 783 0
-970 976 -342 0
621 448 885 0
-646 18 -241 0
396 652 -929 0
-342 -461 19 0
326 965 -168 0
-873 31 925 0
381 -414 -361 0
646 -347 562 0
787 389 -533 0
935 -61 806 0
686 -826 601 0
-155 78 150 0
948 -268 607 0
231 237 -520 0
771 -617 -102 0
906 702 -621 0
323 -161 57 0
487 692 -455 0
597 -483 -974 0
628 234 194 0
223 734 433 0
-253 -994 -945 0
196 -378 -352 0
-548 451 -571 0
-819 859 579 0
810 -903 270 0
596 -588 -832 0
-529 405 759 0
805 373 13 0
65 937 610 0
-252 -633 625 0
-590 447 -504 0
884 -494 -532 0
-465 386 -6 0
27 -502 -863 0
-597 -111 -688 0
-888 -757 83 0
216 -106 -467 0
790 451 -424 0
63 -876 -361 0
-259 639 691 0
-353 478 -323 0
135 652 -880 0
5 815 -49 0
148 621 -672 0
921 248 -444 0
-920 599 -14 0
-537 -763 223 0
-220 83 -527 0
754 291 -354 0
-728 409 -349 0
833 662 556 0
-874 -189 581 0
-135 598 -700 0
-480 -414 -748 0
875 837 -732 0
814 410 131 0
-763 -396 41 0
389 915 -955 0
292 -469 -234 0
-339 900 -650 0
-313 371 -628 0
-325 258 -361 0
215 921 259 0
-368 -191 -774 0
218 -505 -860 0
-641 -400 867 0
-311 -966 -724 0
841 -58 -49 0
-131 521 -364 0
604 -564 -289 0
-237 -663 135 0
187 118 576 0
-574 -309 -61 0
-392 599 -48 0
501 647 -729 0
784 -467 -137 0
169 122 -930 0
-418 -715 -681 0
-764 -831 -73 0
852 378 -986 0
-78 -931 7 0
624 -24 67 0
332 882 -529 0
709 -849 -401 0
-647 -436 68 0
-523 742 -115 0
992 121 586 0
409 94 633 0
343 18 -848 0
766 -51 732 0
-518 -974 595 0
-748 -882 -153 0
-173 293 654 0
168 676 686 0
698 -400 594 0
-688 -483 986 0
-258 513 -210 0
-30 483 -27 0
-572 634 978 0
888 -773 -29 0
-759 261 -816 0
-201 -692 -739 0
-675 -107 -768 0
315 -161 910 0
-214 564 -998 0
767 -437 -874 0
-544 -673 6 0
-210 680 -319 0
965 -703 764 0
-799 207 971 0
191 -197 612 0
-860 -816 -242 0
-955 247 -481 0
631 996 -480 0
201 -478 -65 0
924 401 27 0
582 756 157 0
-655 239 688 0
-734 398 167 0
802 -310 -295 0
-428 -608 674 0
-780 74 -903 0
-27 349 148 0
-79 -429 -270 0
719 606 -232 0
690 -136 528 0
26 -546 -549 0
-599 692 -602 0
-967 315 -382 0
-478 -557 151 0
-759 258 177 0
291 -517 210 0
-301 -93 401 0
-153 -484 309 0
-338 -733 173 0
-531 -335 823 0
-300 -491 127 0
-349 965 677 0
927 -449 970 0
311 444 211 0
754 -346 793 0
202 -760 -170 0
926 -318 -219 0
34 248 -335 0
724 960 192 0
-600 -718 -347 0
-253 271 -914 0
-550 -133 -270 0
-561 -480 798 0
449 -376 -875 0
786 -589 -876 0
-434 448 -12 0
751 -986 159 0
-737 499 232 0
-810 -202 161 0
796 -126 674 0
-709 744 -172 0
-360 -403 461 0
148 -56 737 0
924 476 -692 0
869 -776 -938 0
956 892 998 0
275 371 136 0
-853 -102 434 0
-157 -837 -418 0
303 243 79 0
-853 -714 -70 0
638 990 804 0
433 -248 521 0
563 -251 -325 0
240 248 320 0
19 453 565 0
-415 66 342 0
-820 81 -329 0
-594 -877 -409 0
830 -726 -58 0
-803 638 364 0
872 904 -537 0
794 829 -782 0
557 395 -294 0
-270 -993 -784 0
-209 693 935 0
-549 877 -761 0
820 -373 -111 0
-601 -634 -151 0
-252 -683 -483 0
80 908 289 0
-638 23 194 0
719 -982 -983 0
752 523 -749 0
129 151 47 0
-15 569 -808 0
-468 892 -888 0
223 -236 376 0
-698 214 -689 0
-865 -847 555 0
479 -486 -921 0
719 641 762 0
-623 606 -908 0
406 870 304 0
-457 -744 384 0
-445 -399 265 0
687 979 347 0
-853 245 345 0
-946 -243 -787 0
-457 -895 -472 0
-719 -842 -264 0
-655 -275 674 0
-136 317 -784 0
-889 -455 478 0
-485 -428 -830 0
96 235 -998 0
426 -155 300 0
971 -546 -289 0
641 603 -803 0
-320 845 -972 0
594 465 462 0
-112 -224 105 0
470 -95 -357 0
-460 -393 -29 0
86 232 588 0
-27 -276 35 0
-508 106 -488 0
279 689 -937 0
570 -313 -336 0
394 727 900 0
-688 -244 -814 0
-349 413 173 0
87 -765 -318 0
37 -933 848 0
417 688 500 0
334 -248 840 0
-584 -715 705 0
-452 -795 -797 0
-857 556 329 0
-355 -866 356 0
-462 -13 -207 0
-482 630 597 0
-382 -368 164 0
-484 726 -789 0
653 840 459 0
830 608 596 0
430 -794 841 0
676 -15 -467 0
850 -799 -767 0
278 249 496 0
44 -694 466 0
-340 123 -662 0
-880 72 -318 0
-872 -513 -642 0
468 720 354 0
-728 512 -272 0
127 270 687 0
-993 655 770 0
674 4 132 0
-5 359 -835 0
83 896 -423 0
378 -847 -33 0
-396 -185 108 0
-626 -193 197 0
-664 -143 76 0
725 -165 -463 0
678 -593 -552 0
-705 767 -355 0
121 524 -532 0
892 90 591 0
-645 424 336 0
866 784 987 0
-984 -294 -876 0
-225 -211 -819 0
-94 872 -582 0
-886 -614 279 0
-61 422 -777 0
606 898 -976 0
-346 302 -966 0
113 -31 -842 0
-138 332 -220 0
-451 994 -732 0
-387 405 -32 0
-911 324 896 0
-257 -2 -535 0
634 692 427 0
826 -497 847 0
-576 -172 -848 0
591 -808 -778 0
83 -793 -666 0
656 137 563 0
-132 -591 -208 0
-776 68 823 0
841 -433 507 0
-281 670 -976 0
-272 305 306 0
935 -440 -232 0
-690 -838 -315 0
716 897 131 0
903 923 76 0
57 -326 -585 0
-964 623 135 0
-411 -540 408 0
174 533 -544 0
-141 -662 -978 0
-170 512 -470 0
-100 218 145 0
-571 -352 869 0
-62 434 -512 0
6 118 -156 0
-245 789 -525 0
-418 -481 827 0
179 -498 771 0
43 -14 -361 0
-752 333 -327 0
497 1000 724 0
-776 518 736 0
-493 495 -502 0
811 -225 -742 0
-512 -92 -184 0
-380 -570 -942 0
-539 -784 376 0
845 694 -917 0
73 -207 -69 0
370 -654 -332 0
-602 -522 -822 0
-40 -295 538 0
-377 375 -874 0
-306 -184 -174 0
747 247 117 0
837 178 -757 0
690 -952 -327 0
911 711 840 0
-728 252 -577 0
998 301 -546 0
-361 462 131 0
-877 -236 -762 0
-425 208 -261 0
-583 264 -243 0
-813 971 -846 0
-93 435 641 0
218 -447 -877 0
746 485 -204 0
-510 -274 -445 0
460 896 531 0
286 439 142 0
992 722 -483 0
881 -708 -536 0
-421 -694 -3 0
-659 -568 -680 0
-528 -712 -561 0
-205 -672 965 0
-338 -916 189 0
-541 217 -396 0
867 -444 -269 0
221 846 928 0
111 -223 417 0
-822 -154 856 0
859 706 -852 0
-486 926 -743 0
825 943 -435 0
-393 -789 -485 0
-408 266 283 0
85 603 -348 0
175 9 -759 0
905 261 800 0
391 -685 948 0
20 -161 -533 0
454 520 317 0
757 773 -394 0
154 -470 -50 0
-15 594 -520 0
-913 -910 -155 0
802 913 454 0
242 -720 145 0
836 900 868 0
107 -867 -199 0
493 -170 692 0
-510 144 -733 0
28 -247 910 0
918 423 -361 0
-498 -654 -689 0
859 749 456 0
312 141 -427 0
-51 -936 -507 0
-263 -467 -892 0
234 649 -300 0
505 444 -513 0
852 -794 17 0
-745 973 855 0
500 -941 -807 0
604 -163 553 0
245 175 -817 0
-231 -85 750 0
-666 600 -358 0
-951 -11 834 0
-973 79 -943 0
-46 839 -930 0
-215 -33 -921 0
90 -40 -51 0
-436 -52 888 0
-844 817 -397 0
892 -705 -562 0
546 327 -668 0
-438 -475 -104 0
32 -351 -736 0
-499 -654 -576 0
-768 889 -393 0
189 -283 442 0
384 -306 353 0
-902 -688 -950 0
-44 -552 475 0
-440 -411 -251 0
618 896 418 0
-183 370 -487 0
-659 419 124 0
916 -926 -400 0
-711 -244 -823 0
532 132 445 0
-477 -724 -467 0
754 40 72 0
212 896 833 0
-53 -378 -362 0
619 -956 -348 0
-804 -917 908 0
-451 586 911 0
880 -314 -57 0
-306 482 533 0
883 233 723 0
110 742 103 0
-266 728 638 0
-908 911 -918 0
283 -420 -496 0
203 273 867 0
653 -435 -744 0
290 188 -796 0
-854 309 -360 0
-412 -518 -851 0
-230 -395 883 0
677 901 -544 0
170 -869 605 0
988 51 -961 0
368 997 802 0
-631 -709 6 0
143 -615 -614 0
-455 519 -423 0
-31 994 481 0
-784 309 842 0
-633 939 -306 0
-201 -667 448 0
-153 972 49 0
227 955 767 0
726 -20 156 0
439 -784 982 0
-910 53 173 0
-855 43 629 0
-696 227 664 0
-983 -239 -727 0
701 483 -800 0
812 742 196 0
-100 719 171 0
-677 673 -89 0
-404 -701 646 0
532 69 -239 0
181 913 417 0
-611 -829 -760 0
-588 -961 589 0
760 646 634 0
892 -828 -145 0
-653 -201 502 0
-913 -118 -169 0
-764 690 836 0
-68 411 -762 0
570 785 336 0
-380 236 632 0
-539 -57 -807 0
829 115 -768 0
-582 604 328 0
107 -644 -428 0
745 359 367 0
-743 -628 -849 0
172 -402 -526 0
-202 885 934 0
28 -792 899 0
-531 740 74 0
523 492 627 0
405 70 997 0
-771 -942 675 0
121 168 77 0
-409 106 810 0
493 694 -83 0
-463 676 131 0
269 263 903 0
402 -115 -406 0
-15 -796 532 0
-35 -933 289 0
128 -713 446 0
-466 -887 973 0
43 -883 -797 0
-34 690 -325 0
457 777 419 0
-171 631 257 0
-942 -986 43 0
76 916 -788 0
-377 -843 -57 0
567 -561 532 0
-311 704 474 0
195 712 405 0
576 418 -186 0
74 -684 -432 0
74 -412 823 0
615 428 865 0
-511 353 -991 0
-658 -129 -575 0
338 -760 831 0
-489 -761 -860 0
-419 466 -583 0
46 -193 176 0
-794 1000 67 0
-757 -402 -58 0
-483 376 -615 0
867 983 -123 0
266 663 43 0
106 212 -362 0
772 -765 3 0
923 624 -808 0
-232 364 -552 0
-173 -700 383 0
-256 413 -357 0
423 -67 187 0
-22 49 782 0
-490 -111 -603 0
-66 540 -384 0
814 -133 79 0
825 451 -564 0
-677 -485 -60 0
833 549 -224 0
-672 -542 13 0
513 438 -667 0
388 -684 689 0
219 -275 515 0
12 275 -451 0
110 681 923 0
169 -359 -420 0
-443 -803 370 0
-179 -583 -420 0
-458 -706 658 0
-567 -912 27 0
-793 78 439 0
112 -963 -970 0
-778 -162 -691 0
-414 -73 -929 0
-143 661 490 0
-605 -210 -641 0
191 -960 504 0
-797 630 764 0
-380 331 754 0
913 948 -771 0
4 -494 551 0
-561 -598 -256 0
-112 748 169 0
285 -43 891 0
14 356 33 0
919 -568 606 0
99 -719 355 0
727 689 -400 0
-596 266 -428 0
777 248 615 0
-864 775 480 0
274 469 35 0
898 477 452 0
-590 -39 -984 0
-853 -932 -665 0
85 -974 -916 0
730 -852 718 0
682 569 204 0
-341 -809 -664 0
291 92 550 0
-868 587 75 0
279 645 862 0
516 228 -816 0
332 -502 596 0
-971 222 -553 0
-254 -548 -972 0
598 -887 29 0
-329 -553 202 0
122 -629 -669 0
2 -970 650 0
15 -855 870 0
759 -865 -152 0
881 -321 -509 0
-60 -308 658 0
35 -402 -715 0
-934 381 -808 0
-327 696 473 0
-397 94 -1 0
-745 710 -479 0
-21 749 220 0
107 584 974 0
-379 -802 -996 0
-261 302 139 0
-419 -114 854 0
-267 68 -728 0
-234 -142 -619 0
37 -967 -399 0
-509 -448 -309 0
-400 -98 129 0
456 -648 -780 0
-582 864 -949 0
-811 -25 859 0
-113 -131 -206 0
-183 809 966 0
-448 351 172 0
-612 -838 569 0
428 -862 477 0
304 704 -131 0
-743 194 -729 0
-608 -996 469 0
543 432 -500 0
-809 747 182 0
-795 733 574 0
-37 937 186 0
281 -896 -952 0
634 -855 -229 0
569 -636 -194 0
-408 -887 682 0
-686 18 676 0
-895 -661 754 0
-641 -317 -534 0
737 550 -793 0
-268 -112 -630 0
-411 -897 -270 0
228 -847 -955 0
204 -486 -68 0
31 -45 -931 0
10 307 -234 0
154 545 -814 0
775 435 -519 0
-15 814 -743 0
700 667 -399 0
522 884 520 0
-927 883 -171 0
10 -333 65 0
244 -287 798 0
370 739 -623 0
-37 190 -532 0
-281 736 -490 0
-496 -492 820 0
-332 639 -814 0
299 354 -608 0
847 746 -82 0
547 225 227 0
17 -659 -714 0
732 -649 902 0
-904 -84 504 0
-474 -972 -578 0
121 812 -41 0
880 -458 -677 0
551 -954 -277 0
-743 -413 724 0
644 532 -993 0
-194 740 487 0
-504 636 -841 0
81 80 356 0
139 -469 -921 0
-548 192 -635 0
-998 362 328 0
981 84 -715 0
596 -367 -571 0
391 112 46 0
-151 -975 -915 0
272 655 637 0
-186 111 905 0
-355 -192 -203 0
932 -511 96 0
385 37 -548 0
827 -217 225 0
500 519 -288 0
862 -672 -730 0
265 237 620 0
651 -724 -512 0
561 -840 -626 0
-746 -872 325 0
-566 -669 385 0
-104 818 -429 0
-13 369 -679 0
-774 -149 -99 0
400 -90 -570 0
-884 -11 606 0
-820 -558 836 0
-487 621 613 0
-604 -90 -966 0
858 -771 865 0
-243 -736 -130 0
-437 -533 -537 0
-372 600 -996 0
-545 -405 637 0
88 -572 -288 0
722 -190 -52 0
-593 -916 235 0
-587 -4 658 0
-543 -457 -214 0
-478 419 254 0
-281 -878 -597 0
-343 -558 189 0
-708 334 455 0
625 829 -410 0
65 -902 999 0
760 734 142 0
-426 -221 -118 0
-577 379 14 0
951 -948 -848 0
-189 -67 -930 0
161 -734 -74 0
147 117 -195 0
-963 -936 611 0
-497 -565 -303 0
235 -48 816 0
675 646 -193 0
698 708 136 0
277 -751 623 0
-279 -826 -656 0
-773 801 694 0
-676 662 -131 0
66 695 -1 0
257 -916 41 0
-210 523 -259 0
480 117 -273 0
-933 -312 -689 0
-208 252 303 0
806 466 80 0
-964 -901 50 0
541 193 987 0
166 197 -966 0
-451 -610 -863 0
419 381 345 0
19 -846 126 0
-914 986 205 0
167 886 296 0
-199 -295 428 0
230 -644 239 0
674 339 -697 0
-811 59 -504 0
207 414 -448 0
-495 -957 64 0
-897 -282 -609 0
121 -764 -904 0
162 -142 578 0
-198 248 678 0
867 -574 -462 0
-804 -643 -954 0
-628 745 -759 0
450 922 82 0
-401 663 587 0
261 825 -987 0
851 -654 -163 0
-866 -441 -489 0
179 -795 635 0
-725 -310 35 0
-859 -961 -660 0
-15 -324 -210 0
571 272 -392 0
-56 -895 -616 0
-446 -828 508 0
-578 -56 -709 0
-779 525 -354 0
18 -748 -821 0
-811 -826 -884 0
-29 -696 -717 0
-491 525 585 0
157 259 -587 0
160 440 -84 0
-885 69 845 0
-721 485 1 0
-843 382 -581 0
-432 353 591 0
-113 -273 -651 0
-291 924 -128 0
-870 896 -618 0
-359 551 -207 0
-647 203 558 0
540 763 -896 0
-850 -187 961 0
-881 233 318 0
-16 -949 -277 0
-618 -835 183 0
438 -182 352 0
486 367 558 0
162 976 -961 0
177 -675 684 0
-901 104 -349 0
719 -461 758 0
-557 298 599 0
-137 -426 755 0
422 46 125 0
60 -88 -794 0
-148 417 -489 0
420 -177 239 0
-550 -863 -412 0
367 -283 622 0
193 -681 -790 0
-532 864 -65 0
115 -884 -139 0
654 -465 836 0
840 -586 -99 0
665 80 415 0
-138 -778 141 0
-19 -902 -319 0
-431 120 -417 0
887 518 432 0
703 -913 182 0
-370 845 -25 0
361 -899 798 0
202 831 62 0
-466 -304 -223 0
329 -576 483 0
977 43 408 0
-32 591 -877 0
332 -458 224 0
-864 146 183 0
-650 -492 -796 0
712 -273 -64 0
-261 977 -723 0
-826 261 -43 0
-644 -836 -150 0
-915 -971 -909 0
-839 295 -314 0
-533 -852 251 0
-452 -754 316 0
-435 375 711 0
-444 -22 659 0
144 556 152 0
103 215 66 0
-127 -264 258 0
768 445 136 0
833 454 -909 0
85 -519 -771 0
-907 -770 85 0
208 -285 365 0
837 -855 -567 0
950 -852 593 0
379 -268 166 0
-806 167 -136 0
-437 142 379 0
-763 147 273 0
-727 -951 349 0
-728 29 -395 0
-951 126 101 0
-557 -132 -640 0
-103 -356 -434 0
619 781 -326 0
-708 -2 25 0
45 -350 400 0
355 183 994 0
842 -17 -241 0
-552 349 886 0
609 312 997 0
40 796 -530 0
548 470 -700 0
964 491 -919 0
-181 -741 -657 0
-376 612 -302 0
-608 -341 177 0
-988 505 384 0
-304 871 725 0
-817 993 530 0
650 731 190 0
30 9 -444 0
235 299 444 0
-159 250 893 0
257 92 305 0
920 -116 343 0
-614 -102 184 0
-768 728 -613 0
-910 -851 147 0
-957 525 42 0
-802 106 765 0
855 65 353 0
-498 -543 -976 0
-213 -420 -367 0
706 -846 -872 0
-489 -437 118 0
159 475 889 0
843 97 -604 0
537 276 -595 0
-914 54 -963 0
909 -523 691 0
-150 679 904 0
-694 -695 150 0
-152 284 -896 0
-384 182 789 0
-278 -988 -408 0
-844 -952 522 0
-946 -351 870 0
-109 -514 775 0
785 -571 965 0
-418 -570 902 0
-317 -662 251 0
-279 476 352 0
899 984 -714 0
-869 238 14 0
-992 -924 -894 0
-697 801 -648 0
766 721 -524 0
-522 -220 -978 0
941 23 992 0
58 198 660 0
-446 -868 -540 0
-402 707 -242 0
-349 -670 -753 0
-992 -437 592 0
766 263 -936 0
-843 670 148 0
786 -293 -841 0
988 377 -66 0
-7 -23 -528 0
-515 -477 344 0
-511 -477 -413 0
673 159 709 0
816 883 490 0
485 520 -625 0
488 474 537 0
431 -243 -245 0
-86 714 837 0
-130 -954 -952 0
721 526 475 0
-430 -613 -147 0
-433 391 -359 0
521 111 -361 0
541 956 816 0
-991 173 955 0
-672 714 566 0
-104 680 -24 0
443 862 -999 0
949 -292 17 0
-264 -675 471 0
-258 -2 -350 0
-690 859 175 0
846 -882 -92 0
654 960 222 0
-62 -993 360 0
-234 -305 -526 0
869 -91 -742 0
953 -622 -869 0
-409 696 -403 0
872 -336 13 0
154 -514 -498 0
-361 -358 199 0
703 -801 299 0
-855 418 666 0
822 -923 -87 0
-175 -61 451 0
-862 167 836 0
441 -999 780 0
-549 -101 -322 0
-195 540 -174 0
-915 629 68 0
-232 -53 -596 0
-139 521 365 0
265 -103 -790 0
-790 -756 -572 0
-446 152 574 0
-645 994 -57 0
-196 912 -250 0
-901 -846 -20 0
96 -62 -721 0
-587 -412 719 0
-690 -515 -134 0
-261 -731 -901 0
-840 662 -736 0
-424 147 556 0
-130 337 -29 0
-496 -839 921 0
167 -61 -71 0
1 63 -701 0
77 -635 -357 0
-559 479 60 0
-198 -581 448 0
790 407 558 0
-99 830 284 0
691 -948 124 0
-282 -4 291 0
983 -109 389 0
139 -757 616 0
618 703 -517 0
790 686 -664 0
525 -357 -852 0
-900 915 -721 0
-593 -111 -416 0
-172 140 987 0
709 -885 492 0
866 28 780 0
63 771 -558 0
-852 -785 -821 0
31 400 940 0
876 599 271 0
16 -254 116 0
972 -615 -427 0
406 -258 867 0
981 -763 -188 0
-133 769 -662 0
-835 680 403 0
-154 899 812 0
-733 -909 -247 0
-853 65 -986 0
526 360 580 0
-73 -166 -667 0
220 491 747 0
-474 365 -54 0
934 -393 276 0
632 935 -219 0
-627 -217 411 0
-292 -123 -269 0
-34 -868 76 0
-340 -115 703 0
-433 -326 -394 0
175 -372 -60 0
-5 965 -178 0
444 351 -680 0
-142 846 -497 0
-84 349 -567 0
-962 259 447 0
502 -761 -827 0
-711 667 -263 0
-478 725 926 0
-88 -886 589 0
510 893 -562 0
249 479 804 0
-571 -961 492 0
168 -867 -443 0
-442 430 295 0
-146 -620 300 0
-533 -171 -398 0
974 49 -481 0
-108 971 -680 0
-268 588 -776 0
-138 434 -604 0
957 849 -792 0
-999 -897 -833 0
-484 -317 779 0
-247 295 -689 0
606 -242 -771 0
-429 799 -684 0
-849 -364 907 0
366 -170 111 0
-296 930 9 0
-456 200 -735 0
-607 -353 -744 0
809 -308 -745 0
743 -978 -944 0
13 17 518 0
978 549 950 0
-815 -302 217 0
175 -79 528 0
858 -975 -300 0
120 59 859 0
868 941 -616 0
92 384 -566 0
-960 500 471 0
775 777 117 0
-561 429 -185 0
714 7 -952 0
-372 -644 23 0
-773 884 825 0
144 -753 -771 0
-901 520 257 0
987 31 -788 0
-823 637 584 0
-870 -211 -91 0
600 190 370 0
-661 -141 874 0
-741 606 125 0
-932 -502 -207 0
-592 -362 768 0
-1 -209 162 0
973 10 -147 0
-521 -733 233 0
681 -973 -508 0
-881 -245 161 0
-372 -311 974 0
-293 301 -578 0
-124 909 770 0
-634 -777 738 0
-657 522 -933 0
156 -390 -975 0
292 -3 132 0
168 -456 -503 0
725 -447 -191 0
712 726 -426 0
-659 -368 603 0
-905 -510 122 0
577 565 343 0
513 114 555 0
-16 69 641 0
894 169 -428 0
-720 -950 827 0
-963 420 304 0
215 368 515 0
489 -448 313 0
-333 -7 547 0
258 395 266 0
942 919 -780 0
-920 -629 -871 0
174 863 141 0
-774 -478 -339 0
786 -63 123 0
57 121 114 0
272 425 -958 0
230 904 -106 0
-645 -555 619 0
477 -496 693 0
351 871 21 0
498 357 -326 0
-244 -322 676 0
816 837 822 0
558 349 -932 0
-956 711 204 0
541 331 358 0
903 862 497 0
-326 275 -241 0
-830 -996 770 0
-501 566 -467 0
315 407 631 0
-52 435 -440 0
606 -567 -997 0
-798 839 -341 0
-874 -870 -785 0
869 -809 913 0
391 105 333 0
783 885 -811 0
-512 307 -527 0
921 423 -90 0
-897 496 185 0
468 941 -363 0
644 470 770 0
-841 612 -459 0
546 -988 -640 0
-297 78 -608 0
846 -896 860 0
-755 -710 -116 0
263 -3 59 0
80 236 -276 0
140 -986 375 0
387 -354 434 0
984 -492 465 0
524 -809 519 0
317 663 -260 0
973 6 11 0
212 571 -562 0
-520 98 -8 0
-962 -72 813 0
-113 963 412 0
413 868 702 0
-708 -705 -628 0
818 191 105 0
-374 785 -389 0
-458 -658 325 0
847 -400 602 0
-78 839 -182 0
140 999 -975 0
245 244 -779 0
-958 349 -642 0
-478 411 894 0
790 -236 -562 0
-801 -797 -763 0
716 217 -702 0
867 -233 -41 0
-78 -308 885 0
-52 94 8 0
-31 -656 -799 0
-742 -656 -609 0
-996 -757 -642 0
-263 534 -372 0
290 416 429 0
-257 -529 780 0
635 -884 224 0
863 384 -395 0
649 325 -704 0
-805 884 702 0
-847 -69 621 0
-674 338 988 0
892 -680 387 0
733 958 661 0
901 -79 684 0
-583 659 -247 0
-174 -695 607 0
-714 -434 877 0
938 -404 -651 0
-957 -212 -65 0
-861 614 -789 0
-443 46 612 0
629 -506 569 0
817 589 278 0
-585 655 -76 0
-696 51 486 0
557 609 -77 0
-151 744 487 0
926 -290 -971 0
-951 515 4 0
221 68 -188 0
808 -181 21 0
-16 825 313 0
-881 -467 574 0
-606 990 -788 0
-516 438 -82 0
481 9 377 0
603 -221 -144 0
957 17 78 0
-82 375 -436 0
127 -613 634 0
920 999 -916 0
-131 644 -603 0
-311 -610 -949 0
-277 779 139 0
770 511 105 0
64 -483 -974 0
491 -932 -287 0
979 -600 746 0
-294 -653 -190 0
-751 450 198 0
415 650 -689 0
237 382 217 0
-138 -961 -404 0
4 -372 104 0
-997 961 593 0
685 -388 105 0
808 11 175 0
-308 -951 -693 0
-508 12 485 0
-465 -876 -752 0
246 -465 176 0
-74 -420 -202 0
594 887 -620 0
98 -797 263 0
307 -558 -878 0
986 -934 516 0
-994 -772 -269 0
-146 -414 287 0
-458 153 -524 0
-869 -389 871 0
125 -431 -855 0
456 106 866 0
660 -64 120 0
-727 782 -818 0
-18 776 -427 0
994 262 -181 0
825 529 -799 0
396 -942 133 0
422 513 348 0
993 586 967 0
-827 50 487 0
-216 980 640 0
387 -821 -285 0
77 619 668 0
417 -970 -323 0
258 23 -229 0
589 272 343 0
470 -243 -912 0
-896 -35 -311 0
466 -16 -592 0
-678 71 208 0
-419 -395 953 0
-608 603 297 0
-975 -79 889 0
235 484 -575 0
507 568 969 0
-231 -262 -73 0
-189 -920 -697 0
-317 -912 -866 0
269 -31 -5 0
-763 -799 -762 0
718 -56 -939 0
410 987 -343 0
-576 661 203 0
627 916 442 0
993 -790 296 0
-73 -227 -881 0
-385 485 160 0
-268 -301 -444 0
-40 -768 -141 0
-179 -587 -532 0
-172 -826 104 0
-959 -759 -520 0
-841 649 -794 0
-313 -480 -744 0
-910 -438 -281 0
-174 663 183 0
831 558 -780 0
848 -864 -844 0
815 451 -610 0
279 655 -76 0
402 369 185 0
-506 -401 943 0
-456 -885 -410 0
-558 -731 291 0
-425 -552 -24 0
-632 788 819 0
235 -573 295 0
-474 -537 -127 0
-652 -352 -67 0
808 676 -588 0
130 -122 -217 0
371 380 -743 0
-372 400 -315 0
285 442 548 0
-4 -206 -252 0
168 -104 -864 0
419 -441 -108 0
249 683 126 0
-329 141 -275 0
-424 352 -74 0
95 -988 -853 0
-527 375 395 0
955 631 539 0
187 -334 81 0
710 -655 224 0
673 -999 -701 0
-310 121 871 0
-58 -234 -514 0
163 452 -786 0
819 -857 893 0
235 88 -631 0
-591 -182 411 0
-973 -867 -19 0
-863 -104 463 0
-176 -428 -909 0
-17 66 139 0
-848 20 -470 0
82 672 -919 0
-705 -701 -233 0
34 -309 346 0
928 -435 468 0
-152 325 491 0
639 536 -824 0
125 -900 -653 0
764 936 701 0
68 503 862 0
-815 -619 -907 0
-572 -58 -310 0
400 -371 16 0
-45 372 -416 0
21 317 976 0
531 135 -128 0
408 979 170 0
669 -730 652 0
310 -191 -907 0
-607 -431 -932 0
437 516 -262 0
841 -21 491 0
-8 -748 -17 0
-180 843 838 0
-869 -723 836 0
154 167 329 0
-209 801 -331 0
160 -407 -355 0
-84 326 -277 0
821 -599 -91 0
360 -868 305 0
-44 -403 -976 0
-51 710 785 0
315 -504 -956 0
268 824 -938 0
894 -149 -59 0
557 203 754 0
-180 -82 -476 0
-226 320 -151 0
-884 518 -484 0
-862 615 890 0
626 981 64 0
358 420 770 0
-658 -192 -933 0
-252 -539 -21 0
-145 915 418 0
519 -492 359 0
-403 373 867 0
-761 -214 235 0
616 -410 266 0
190 164 -946 0
-842 821 -795 0
-244 574 -545 0
-289 -62 -237 0
951 930 -409 0
-656 -235 123 0
688 630 -311 0
-276 -375 23 0
-224 687 581 0
603 -116 -875 0
910 13 -525 0
-844 672 -401 0
37 -367 168 0
-828 -149 189 0
-219 760 6 0
-565 -921 -602 0
709 -603 -145 0
863 347 560 0
989 -440 71 0
-797 562 -38 0
494 -451 -691 0
968 991 664 0
-181 755 -828 0
-745 -798 -952 0
713 784 332 0
808 -436 -445 0
-852 -444 -294 0
-618 -621 416 0
533 234 -873 0
865 -655 -904 0
247 95 669 0
-239 -506 -221 0
801 -895 -621 0
684 -1 783 0
424 58 -220 0
-683 -781 439 0
367 -230 -920 0
197 -578 898 0
547 880 908 0
-224 -602 624 0
824 838 591 0
-164 752 -220 0
-85 -71 235 0
-913 -253 37 0
-255 -747 403 0
200 564 361 0
-885 -411 -395 0
340 -981 72 0
743 946 -137 0
563 -691 -127 0
728 -218 451 0
285 -289 180 0
-612 -394 656 0
715 225 -792 0
-607 -363 -145 0
-631 583 724 0
-998 469 249 0
-393 -296 -294 0
977 -28 -919 0
113 987 874 0
355 898 -618 0
918 321 -113 0
523 364 238 0
-804 -753 4 0
685 -969 -38 0
132 -667 757 0
31 497 -205 0
-883 429 -493 0
-289 -516 295 0
-515 -367 -96 0
-514 -528 33 0
-872 4 -724 0
631 587 -877 0
-496 128 -844 0
-254 -912 879 0
-220 -351 272 0
-922 71 766 0
-811 381 -840 0
699 -745 -556 0
352 -842 321 0
-189 15 -578 0
-187 973 462 0
405 -509 -273 0
759 480 63 0
-483 245 622 0
140 359 -824 0
157 -688 755 0
-17 -482 -773 0
-373 356 507 0
658 -306 -114 0
-246 869 193 0
716 -816 -699 0
-602 751 116 0
-322 422 -335 0
-723 303 698 0
-149 -717 -577 0
-890 312 -617 0
-852 725 -886 0
-671 209 -979 0
946 -980 -882 0
619 -289 -355 0
705 601 478 0
386 -418 -92 0
500 461 981 0
703 343 -195 0
71 496 427 0
76 -910 479 0
505 -977 -371 0
-416 -463 500 0
-201 978 66 0
527 476 -495 0
-845 -807 193 0
-465 938 877 0
-890 887 -153 0
134 850 963 0
-704 -232 292 0
-490 536 789 0
292 268 958 0
567 956 150 0
98 15 -780 0
-506 -667 -721 0
838 594 -354 0
-598 -812 -437 0
258 189 192 0
-927 717 -361 0
-577 649 906 0
-907 -764 648 0
-106 -239 -853 0
-406 -230 -706 0
700 -31 696 0
624 -865 574 0
784 -292 880 0
378 -275 574 0
338 -631 433 0
669 709 -970 0
-867 -637 -742 0
119 89 -540 0
-706 6 -400 0
664 -102 -990 0
-44 783 992 0
-887 -912 -29 0
-152 753 -810 0
-645 -399 -833 0
-825 54 533 0
551 -687 483 0
609 -35 -128 0
-324 33 92 0
-475 -837 -364 0
-747 -580 -887 0
-923 10 188 0
-257 -204 -182 0
884 -154 -771 0
41 194 871 0
-427 -268 708 0
159 -400 26 0
973 45 -847 0
198 58 370 0
-985 682 987 0
138 -583 746 0
499 -878 132 0
465 544 538 0
570 -376 30 0
-211 146 603 0
515 -829 -408 0
936 -464 258 0
459 -630 302 0
179 -489 66 0
666 130 -234 0
177 265 133 0
-657 684 425 0
282 327 -893 0
-894 773 518 0
108 164 290 0
-178 694 -475 0
-462 -105 -459 0
308 -483 880 0
-891 -394 -694 0
-769 -962 -93 0
886 507 625 0
665 99 648 0
-491 901 749 0
-372 -34 -713 0
367 681 -585 0
49 173 63 0
372 -556 714 0
-975 926 -381 0
722 -251 638 0
-866 -469 -815 0
583 485 -794 0
-387 -4 732 0
748 -668 850 0
-246 -524 141 0
-879 574 291 0
-302 871 384 0
409 925 -747 0
-399 -141 737 0
-98 -972 -203 0
580 873 584 0
629 180 796 0
912 202 -19 0
933 764 608 0
-455 -300 292 0
-26 386 420 0
543 -600 744 0
-500 986 -577 0
-512 -385 -370 0
938 -157 363 0
-836 454 243 0
-796 60 121 0
-361 919 -16 0
796 -38 -571 0
-49 -156 -656 0
925 779 -997 0
239 853 70 0
-626 311 70 0
425 -662 599 0
-653 947 -590 0
-350 117 -679 0
-319 -746 -150 0
-107 166 684 0
-663 -646 705 0
163 -912 549 0
406 878 942 0
-63 -262 402 0
272 -184 310 0
320 -934 -165 0
-943 693 -277 0
-729 -852 -583 0
923 -787 -714 0
518 -672 -694 0
301 -850 375 0
-257 444 -521 0
-876 707 -725 0
566 331 -21 0
615 447 510 0
-548 -793 -174 0
-404 -964 -882 0
-878 -830 679 0
243 -85 876 0
373 225 961 0
-350 229 379 0
-851 -987 260 0
-315 -265 841 0
198 -941 240 0
-96 -630 -242 0
350 -776 588 0
-743 -903 -851 0
-565 118 210 0
-748 -187 -279 0
-206 -199 -803 0
-414 479 -751 0
230 -274 280 0
278 -195 -601 0
-214 997 -888 0
-211 71 -208 0
199 838 590 0
-146 -756 846 0
-280 238 520 0
-39 -826 -446 0
618 -18 242 0
285 475 58 0
577 741 -172 0
-698 131 833 0
421 212 -363 0
-770 850 312 0
554 698 -717 0
-348 574 -863 0
-499 126 65 0
387 -425 -121 0
828 -557 580 0
-394 417 -899 0
-854 -61 818 0
-611 649 -412 0
494 -814 588 0
-315 129 964 0
-56 885 -567 0
774 -593 167 0
-437 736 401 0
-393 475 -37 0
568 -610 171 0
184 -917 929 0
-7 134 -374 0
867 -489 -490 0
483 -407 979 0
994 685 933 0
75 888 184 0
-841 761 -642 0
-970 883 -312 0
774 125 -120 0
927 -790 73 0
-761 375 621 0
-308 825 295 0
-308 -692 -399 0
477 -436 -973 0
-488 465 -372 0
201 396 77 0
794 -450 -756 0
-865 704 -217 0
-986 261 -857 0
870 -631 728 0
-495 600 -875 0
-555 189 -384 0
-491 -426 607 0
751 375 -46 0
913 -873 410 0
-694 -379 639 0
-4 -108 -223 0
743 -943 -317 0
435 -539 66 0
-670 379 -562 0
63 6 748 0
575 -815 -107 0
-180 16 -518 0
561 -843 296 0
-951 -588 17 0
-60 -540 -294 0
704 -83 810 0
-608 776 850 0
246 -835 -380 0
546 661 832 0
565 -375 -856 0
-624 -756 -344 0
228 689 759 0
663 441 457 0
-242 -367 -837 0
241 -643 843 0
716 61 -565 0
-207 -366 -544 0
-270 232 -212 0
-315 617 322 0
451 442 -623 0
904 972 319 0
-605 -793 786 0
965 309 -254 0
-799 -742 -786 0
665 -230 902 0
-582 -462 405 0
516 -980 921 0
-771 -159 -944 0
844 90 304 0
-934 -886 -735 0
354 780 -466 0
-611 -651 888 0
-780 900 -665 0
-745 648 -38 0
988 -356 -264 0
-794 -979 966 0
226 -701 -835 0
-18 -976 81 0
806 619 600 0
-209 -908 57 0
-376 550 -976 0
183 -225 16 0
-28 884 144 0
928 -515 -461 0
-104 513 824 0
-640 533 -672 0
671 955 302 0
622 -587 -847 0
659 291 -33 0
-475 -330 865 0
-945 956 -879 0
-98 -180 229 0
-225 348 -923 0
2 -186 -98 0
22 903 951 0
605 -305 -437 0
126 68 -833 0
963 998 405 0
478 136 311 0
211 227 -209 0
-617 729 876 0
-613 660 137 0
-900 -469 -436 0
481 409 -197 0
655 -91 137 0
-359 -174 -790 0
106 394 776 0
-285 -474 -567 0
-515 -434 -127 0
-667 691 -589 0
-831 -568 -829 0
-807 808 -602 0
-144 -963 -919 0
-930 942 424 0
-274 914 409 0
15 -909 281 0
-499 312 474 0
-381 -947 -461 0
470 -675 913 0
-947 781 455 0
428 545 771 0
-597 -233 -137 0
193 -356 -195 0
340 714 -573 0
-871 -376 -165 0
-597 -651 -679 0
182 291 577 0
917 -861 -356 0
394 668 -621 0
583 902 265 0
-993 -162 -64 0
978 -436 -145 0
-630 816 930 0
-931 -713 432 0
-99 564 843 0
918 779 569 0
245 564 -268 0
-915 477 64 0
464 230 -155 0
511 -59 948 0
-917 -689 729 0
-917 512 -343 0
365 -165 -145 0
372 323 970 0
-235 -972 -241 0
419 -248 12 0
78 -146 -268 0
-619 -542 186 0
348 164 -338 0
-355 616 314 0
-141 638 -745 0
-711 198 27 0
-181 48 251 0
-801 720 -389 0
83 -577 -747 0
-324 54 -837 0
131 -334 87 0
251 -692 733 0
-324 48 -763 0
398 245 -186 0
907 -729 -909 0
-994 559 905 0
-514 -66 635 0
-133 607 -828 0
603 -404 344 0
346 568 -793 0
215 373 -844 0
850 644 -755 0
-334 1000 639 0
932 -649 -579 0
611 199 149 0
752 950 -441 0
792 396 -348 0
-156 -728 129 0
-919 -360 679 0
189 -184 67 0
-728 850 625 0
-511 -498 10 0
540 57 968 0
753 808 -928 0
-861 526 -950 0
-637 90 -462 0
126 893 -80 0
669 357 288 0
409 -910 329 0
401 -405 -386 0
771 -612 649 0
431 612 230 0
199 500 180 0
336 405 687 0
-359 954 -583 0
2 -427 -825 0
66 -224 657 0
155 230 584 0
999 360 566 0
956 508 -504 0
712 866 112 0
270 140 762 0
-268 -758 444 0
-808 -131 448 0
12 496 235 0
-412 364 -549 0
-247 -46 -866 0
-564 -980 497 0
172 -582 226 0
-451 861 407 0
921 806 9 0
933 -689 44 0
818 -891 721 0
-489 92 -790 0
-728 154 87 0
147 -798 249 0
495 46 -366 0
-35 475 -443 0
-861 507 782 0
532 639 726 0
493 967 -826 0
164 52 -160 0
-638 204 21 0
273 -224 -637 0
-123 888 445 0
67 734 834 0
488 -402 -482 0
-883 -631 -940 0
-552 503 685 0
132 909 -923 0
494 567 580 0
-582 -516 641 0
-136 -21 742 0
-806 -729 685 0
-663 -698 309 0
316 172 271 0
585 517 908 0
-997 789 -293 0
-885 -207 -806 0
727 -596 -317 0
-978 930 18 0
-15 -839 -371 0
176 -229 -207 0
53 -377 -690 0
708 27 -712 0
-56 -632 387 0
155 -235 77 0
818 -668 481 0
157 207 136 0
-862 -807 33 0
-919 856 -145 0
678 601 121 0
500 335 -804 0
-432 418 492 0
420 -652 -807 0
597 -654 449 0
407 -301 477 0
313 61 251 0
969 654 433 0
-476 -623 360 0
-678 644 554 0
-641 -615 -590 0
185 -565 -720 0
862 881 319 0
964 58 -311 0
364 -430 782 0
-605 -795 672 0
354 -513 -35 0
-823 284 -579 0
579 354 -915 0
-611 124 383 0
697 -491 304 0
-249 354 -844 0
-44 768 -523 0
561 -906 -729 0
181 299 626 0
503 -990 81 0
-683 -482 -876 0
347 897 -734 0
483 441 726 0
350 186 -16 0
541 638 823 0
894 882 -900 0
458 -544 12 0
493 -115 551 0
-49 -124 -561 0
-369 -268 -751 0
816 -216 764 0
-835 675 667 0
913 728 428 0
164 491 521 0
-77 -756 216 0
-228 27 242 0
236 -866 -181 0
-258 -955 -116 0
-255 511 -81 0
-64 300 978 0
816 -416 -795 0
-322 -759 622 0
-926 457 72 0
861 -526 -879 0
-832 -860 -631 0
749 -898 -761 0
-86 -961 59 0
293 818 -678 0
-403 167 486 0
305 695 346 0
-672 -533 -560 0
425 444 -958 0
-820 -784 -970 0
292 799 -526 0
378 69 -677 0
201 -594 -795 0
198 -513 292 0
333 -690 137 0
-891 -233 -952 0
-677 537 -801 0
248 -689 -823 0
448 -324 367 0
525 531 409 0
489 -829 153 0
-750 337 696 0
-419 -30 -251 0
944 -789 -335 0
141 -288 126 0
111 37 -346 0
737 -595 -211 0
-787 158 -326 0
328 479 1 0
-934 -705 943 0
-163 638 -316 0
364 -386 -617 0
-135 -662 961 0
285 -613 -631 0
337 404 -20 0
-357 959 -281 0
-225 -839 -128 0
-284 542 695 0
-456 -565 980 0
-85 -549 -364 0
992 322 326 0
488 -992 388 0
-317 1000 -830 0
124 -37 691 0
614 858 -354 0
-571 -580 300 0
-822 969 42 0
60 817 -815 0
647 -938 -981 0
230 790 -824 0
160 789 -796 0
-836 315 655 0
169 -592 546 0
819 909 737 0
121 856 -916 0
-74 -296 -888 0
-360 161 -548 0
250 -350 -98 0
-320 271 463 0
-143 -186 -31 0
954 -697 -67 0
213 -236 331 0
-775 338 34 0
252 -959 758 0
-608 473 -738 0
-43 180 685 0
659 -516 966 0
699 -493 881 0
391 -769 -133 0
-761 -763 -140 0
-286 401 -894 0
173 -738 857 0
767 27 81 0
-891 -220 490 0
-732 -514 -169 0
-550 611 -884 0
-492 -9 -165 0
643 308 164 0
148 -259 -454 0
-205 -206 853 0
975 683 486 0
-696 -863 -202 0
-861 -773 -496 0
-140 32 90 0
-413 821 245 0
-862 -728 -906 0
-613 -395 745 0
451 105 521 0
-358 -464 -922 0
-716 -960 -567 0
794 -718 32 0
-770 629 168 0
618 -857 284 0
-530 -195 -2 0
281 -418 70 0
652 28 287 0
-939 -744 -553 0
-228 185 -836 0
-1000 365 -555 0
303 -484 -664 0
-991 314 -140 0
-748 925 -668 0
-474 -528 279 0
30 -284 -667 0
-833 -786 -429 0
-416 69 -704 0
620 -36 707 0
-222 -356 -896 0
-555 920 -759 0
-498 -169 -681 0
-433 -543 -755 0
-222 157 50 0
408 -778 565 0
-826 600 -98 0
-918 299 -434 0
-57 -750 -558 0
2 -495 -706 0
-740 -288 -869 0
388 -829 -140 0
313 -411 692 0
-612 714 -465 0
-964 481 -228 0
-156 -50 -268 0
-349 359 -625 0
-352 532 975 0
609 993 -582 0
614 213 602 0
-98 -38 -514 0
381 -319 899 0
-632 -511 569 0
902 230 996 0
-772 964 -455 0
-859 -424 522 0
857 145 -371 0
-717 397 -70 0
-659 -140 555 0
-62 793 159 0
-126 871 885 0
-546 -632 652 0
-995 -245 -600 0
216 -97 -200 0
-567 267 229 0
-755 408 -157 0
-885 470 -911 0
-865 -358 -421 0
601 -880 351 0
526 -817 207 0
-973 875 -99 0
-97 462 464 0
559 -505 408 0
185 -244 -344 0
903 654 -491 0
-467 436 553 0
-378 -232 -391 0
463 139 -226 0
46 -55 368 0
826 -670 344 0
381 475 -469 0
448 -362 -263 0
104 407 321 0
897 811 -118 0
-654 -45 10 0
-280 110 -30 0
690 -231 -455 0
-378 824 362 0
-568 709 979 0
499 -347 -877 0
437 -870 268 0
589 978 -828 0
-443 306 105 0
-233 499 377 0
381 604 253 0
865 -168 685 0
-405 96 -242 0
-563 767 -69 0
-699 135 69 0
-713 -940 -701 0
-757 819 286 0
-945 571 -872 0
655 334 -830 0
-175 291 -919 0
918 -442 -856 0
237 766 637 0
-269 721 972 0
-554 -785 -474 0
760 572 -78 0
54 -974 -990 0
668 955 829 0
-133 977 758 0
-703 -827 238 0
796 -394 -503 0
652 298 685 0
-977 332 633 0
789 -344 -619 0
-862 -834 937 0
155 -648 -881 0
610 523 758 0
711 -406 568 0
-620 185 78 0
670 -239 121 0
-598 -441 325 0
-906 -411 -526 0
-159 968 749 0
-754 -641 -928 0
659 -943 580 0
-721 -606 -55 0
-801 625 92 0
-643 160 -172 0
509 104 240 0
-547 -656 842 0
97 -491 191 0
-625 -881 251 0
-959 -36 -384 0
-264 800 -363 0
311 -404 985 0
-561 92 -94 0
35 23 -864 0
-113 -68 654 0
-302 304 78 0
-793 -396 149 0
-70 55 286 0
-635 187 200 0
-307 -285 899 0
-584 -614 -955 0
-942 370 -199 0
175 202 887 0
-182 819 -430 0
849 -76 276 0
-403 -210 -221 0
519 -548 791 0
881 224 846 0
170 385 162 0
210 -585 668 0
-889 105 -448 0
416 60 -484 0
-555 -733 -24 0
-334 816 -942 0
249 519 -134 0
487 133 145 0
767 406 221 0
-917 -424 -693 0
561 11 720 0
-105 -307 -523 0
92 781 -298 0
19 602 -405 0
-805 934 792 0
111 80 -120 0
-284 -819 -463 0
-626 -489 -156 0
347 -139 -502 0
787 -444 -349 0
485 -326 781 0
564 104 -253 0
-348 340 -774 0
-387 -858 -123 0
186 -395 609 0
956 736 262 0
305 -231 -718 0
786 911 452 0
236 -992 -172 0
-149 -107 938 0
-192 776 -912 0
-441 -192 804 0
-25 -798 881 0
-252 1000 414 0
734 -979 -928 0
-605 -53 544 0
803 142 832 0
781 -270 -343 0
377 -299 -207 0
809 -915 -408 0
-847 19 -591 0
-916 -37 472 0
686 359 434 0
383 345 -331 0
-723 -992 -821 0
-184 -32 671 0
-348 141 -583 0
-52 518 -65 0
141 491 235 0
-166 -146 926 0
951 -333 314 0
-322 -610 -769 0
175 -344 -419 0
-833 960 -617 0
-839 575 677 0
-35 -91 -712 0
-234 553 413 0
-121 -76 -726 0
715 -549 -40 0
642 -356 -464 0
-163 -103 898 0
495 -286 754 0
-121 338 -428 0
750 373 -504 0
765 650 -726 0
530 322 -376 0
947 -987 -989 0
66 -438 728 0
584 -239 542 0
479 93 857 0
745 911 -533 0
-943 -858 -953 0
222 741 753 0
260 28 551 0
-956 31 843 0
417 148 998 0
-824 -615 357 0
765 -458 -614 0
-159 -574 -757 0
-65 -354 819 0
-635 125 649 0
-273 45 386 0
-941 -980 156 0
-626 26 268 0
-852 658 793 0
328 622 655 0
-973 -957 291 0
272 629 985 0
834 -752 -68 0
-238 -389 925 0
-768 -475 -706 0
381 291 -774 0
-551 -118 42 0
-774 -671 -501 0
-616 33 527 0
-334 -155 -956 0
-785 654 -379 0
-229 53 -179 0
-872 464 980 0
-687 8 71 0
-509 -842 130 0
57 -511 144 0
-695 -478 463 0
877 690 684 0
294 603 165 0
-505 -900 -326 0
837 708 -897 0
-57 83 -189 0
150 -579 -557 0
-415 218 -956 0
368 407 -666 0
-810 693 601 0
-997 549 631 0
-154 133 -183 0
-885 -446 548 0
884 -586 -561 0
254 -674 -102 0
-741 424 -69 0
242 283 247 0
-100 761 -567 0
554 75 -898 0
-626 179 -337 0
-903 802 -339 0
317 -746 -923 0
-747 551 -749 0
621 -960 -30 0
878 841 896 0
-893 674 683 0
194 662 67 0
-514 -159 -237 0
-921 -938 -609 0
240 982 526 0
-796 292 563 0
-640 -21 -291 0
-48 597 549 0
-447 -50 201 0
-269 -134 -474 0
945 -223 801 0
-17 560 -62 0
834 624 -184 0
876 -596 -862 0
-636 -144 -119 0
823 233 -59 0
330 150 -160 0
141 -461 -200 0
-12 -404 835 0
149 895 22 0
117 558 -255 0
369 989 -372 0
532 -21 181 0
-430 778 959 0
-648 790 793 0
786 692 -576 0
734 899 -673 0
263 589 635 0
-631 -1000 603 0
981 -971 -587 0
484 296 801 0
180 378 -841 0
843 780 -994 0
805 -654 469 0
-406 -995 -234 0
-498 -598 401 0
743 715 765 0
-66 90 605 0
474 -142 -689 0
802 -951 -243 0
-657 -272 847 0
247 -229 -951 0
178 579 -857 0
106 -24 152 0
716 -848 580 0
149 -694 -82 0
136 446 454 0
161 -548 68 0
77 -37 -144 0
721 -579 106 0
-74 -51 611 0
852 -368 136 0
-900 -704 -481 0
375 -491 164 0
249 547 583 0
-809 -783 -574 0
786 315 321 0
771 184 -282 0
152 -737 -110 0
-14 738 -576 0
-230 -882 -744 0
-120 -83 550 0
323 909 336 0
424 365 -992 0
19 20 952 0
-586 -332 -956 0
-454 652 462 0
-181 -687 -434 0
-263 914 244 0
955 -922 11 0
846 105 860 0
798 618 -368 0
-333 303 175 0
-480 -310 863 0
-161 228 878 0
-439 -788 577 0
208 -470 799 0
925 538 76 0
549 -794 134 0
-163 754 -146 0
-90 -644 682 0
311 -661 118 0
315 -387 904 0
78 481 851 0
-263 531 -455 0
-265 -654 -658 0
804 -660 199 0
-656 -517 -538 0
855 324 777 0
472 746 -548 0
476 -570 -522 0
-38 497 416 0
-394 935 773 0
539 38 487 0
722 914 449 0
-804 534 -394 0
-685 -459 701 0
966 108 117 0
-155 -263 -50 0
30 597 895 0
631 111 -724 0
778 -328 113 0
-39 -424 -412 0
528 -336 -627 0
900 74 -676 0
-602 -906 -974 0
-32 791 -246 0
551 -144 227 0
132 -549 998 0
741 554 456 0
679 710 656 0
95 -142 579 0
76 934 878 0
65 231 947 0
-373 -948 -113 0
836 -871 596 0
-361 -53 850 0
-487 -223 221 0
408 578 464 0
-854 -933 362 0
-924 -491 -695 0
651 454 -267 0
-954 199 868 0
602 895 -651 0
788 -256 -226 0
-334 646 100 0
351 939 922 0
-185 -851 211 0
101 382 -947 0
262 -597 -649 0
573 -376 534 0
957 245 803 0
-704 670 -802 0
531 482 -204 0
-494 580 -932 0
-754 -380 517 0
657 439 -605 0
81 -941 505 0
177 -975 -942 0
471 989 -317 0
-791 -346 364 0
-645 895 -365 0
-287 999 -477 0
924 673 254 0
937 -69 -715 0
433 968 -969 0
-783 -694 440 0
-300 839 724 0
443 -423 986 0
-922 -28 -500 0
-526 -205 -788 0
11 765 336 0
448 -876 382 0
-914 21 -89 0
-312 379 211 0
916 173 -86 0
-7 667 506 0
-102 -391 321 0
-315 -72 856 0
544 188 -14 0
204 700 -171 0
-182 -371 370 0
-10 -350 493 0
470 411 -361 0
-575 21 52 0
-850 921 304 0
814 663 -769 0
-198 409 213 0
374 -201 -311 0
-871 -650 649 0
-626 -110 965 0
-346 839 -508 0
-805 -380 -899 0
200 -337 -455 0
625 -830 316 0
30 241 -251 0
-461 689 -905 0
471 -556 163 0
441 428 878 0
686 799 400 0
-761 239 -983 0
833 828 596 0
-59 -308 183 0
-969 568 876 0
-444 818 921 0
97 621 493 0
-840 -271 449 0
-850 -889 666 0
-576 -892 -95 0
-14 -271 459 0
954 640 -535 0
109 687 -96 0
-942 -588 820 0
-746 -223 503 0
-308 192 588 0
-116 -196 174 0
118 52 -686 0
456 402 814 0
-160 678 902 0
-676 -565 -997 0
207 -325 982 0
339 106 -558 0
647 302 848 0
448 125 581 0
-822 -744 917 0
-555 355 211 0
742 895 872 0
627 -34 -82 0
-163 723 -179 0
-354 889 462 0
584 827 295 0
-731 581 -440 0
238 997 481 0
553 812 357 0
-67 -236 -73 0
-287 -906 891 0
-102 -185 -926 0
-322 -550 -728 0
-448 -54 -965 0
730 -1000 539 0
-624 -370 805 0
305 785 178 0
939 250 -906 0
-98 507 -762 0
-477 65 281 0
779 612 -848 0
601 -467 -482 0
350 -721 462 0
-962 81 124 0
-132 998 799 0
-918 450 117 0
263 906 617 0
350 834 -619 0
714 539 429 0
199 579 482 0
419 -270 32 0
-335 266 28 0
805 -192 -63 0
277 -228 -314 0
-94 28 117 0
-631 -993 513 0
-620 168 612 0
-895 -454 -538 0
882 247 581 0
-418 -913 -380 0
-325 -978 -353 0
-172 -228 730 0
-343 631 318 0
-843 -69 206 0
-787 918 599 0
-345 318 490 0
849 -592 -203 0
138 -234 175 0
805 -777 -89 0
914 557 839 0
532 259 -89 0
395 537 -63 0
700 113 -59 0
-149 -461 742 0
676 -969 65 0
32 -555 616 0
506 -385 813 0
77 -807 -304 0
795 546 -770 0
-364 771 918 0
-475 677 -435 0
72 -483 836 0
-546 -592 149 0
-145 -244 -33 0
-811 50 972 0
-968 -784 459 0
132 284 765 0
-112 -437 633 0
248 519 640 0
-631 -260 -749 0
-876 606 -300 0
494 368 -932 0
672 -417 624 0
-671 -238 49 0
975 502 245 0
168 -396 -866 0
-546 683 430 0
-366 -475 68 0
411 -118 170 0
42 -256 751 0
127 56 -220 0
954 982 263 0
366 858 -395 0
132 -360 -438 0
850 -811 -173 0
-744 96 -23 0
411 780 -206 0
-220 742 -620 0
-143 -43 -529 0
40 119 253 0
-193 510 -439 0
124 -8 568 0
618 686 311 0
618 245 857 0
146 -284 -521 0
-841 813 -603 0
234 -440 -851 0
-560 503 404 0
-511 974 776 0
-823 67 -167 0
220 45 -522 0
239 127 -891 0
217 174 353 0
-766 -720 941 0
670 -174 -431 0
5 -778 861 0
-364 -458 -301 0
597 -808 -404 0
392 916 634 0
296 254 261 0
-977 -99 -953 0
-619 783 -479 0
636 -891 82 0
-946 462 65 0
209 726 196 0
49 -538 -557 0
-577 -587 -8 0
-458 6 368 0
40 -626 -215 0
229 -136 -707 0
256 -900 617 0
-806 244 739 0
-80 201 -955 0
8 -412 -873 0
-379 772 142 0
663 -981 -487 0
-614 -520 -177 0
884 -206 -258 0
325 746 -800 0
103 426 -955 0
-221 962 -912 0
-533 512 -264 0
-302 636 502 0
839 936 15 0
927 21 -887 0
-501 -782 741 0
699 710 -212 0
211 -432 -424 0
-770 562 -324 0
200 948 -987 0
-343 20 961 0
480 976 884 0
-466 877 61 0
-653 669 432 0
978 -581 145 0
-298 64 255 0
275 295 881 0
285 826 239 0
-365 -528 -77 0
-703 308 -910 0
-911 -785 -117 0
-917 -576 633 0
-36 717 126 0
474 -547 625 0
153 -348 12 0
266 849 764 0
699 629 606 0
728 199 357 0
201 102 -688 0
935 -930 -347 0
-914 597 -748 0
218 75 -376 0
-923 477 472 0
768 -489 -964 0
599 -653 848 0
947 400 -606 0
-151 802 -227 0
252 802 989 0
557 -173 238 0
644 -261 354 0
-719 -211 -166 0
-638 432 -464 0
-642 67 422 0
-395 -693 -150 0
930 -959 233 0
264 964 -192 0
784 660 -427 0
609 480 -774 0
269 816 -841 0
-92 -693 -151 0
12 498 -640 0
-868 -468 361 0
-165 -479 481 0
-547 -694 584 0
482 786 -907 0
948 -431 -394 0
246 329 -239 0
517 406 -562 0
-821 -747 202 0
520 -722 -791 0
502 -103 58 0
582 -690 418 0
-431 -185 641 0
817 -946 -14 0
946 869 725 0
-464 516 -427 0
-69 -651 -169 0
-974 -403 861 0
-35 -228 764 0
463 662 900 0
-976 -131 82 0
164 -480 -488 0
9 261 364 0
-59 -95 662 0
-709 -121 754 0
581 925 332 0
258 940 48 0
393 -466 532 0
-385 -608 204 0
485 230 -671 0
978 -223 46 0
117 291 762 0
756 -77 118 0
-24 -981 507 0
-819 -941 -274 0
753 -431 -164 0
-826 598 18 0
-78 214 -469 0
374 -829 670 0
-632 -512 -822 0
-830 436 862 0
-592 395 -780 0
-878 852 -584 0
93 38 -194 0
-305 518 -231 0
201 -568 -155 0
-753 824 50 0
516 475 608 0
-44 -222 -835 0
48 -181 141 0
541 -731 -504 0
339 -85 -683 0
584 -846 -972 0
-913 229 164 0
16 -584 -712 0
370 722 568 0
446 -541 87 0
278 -549 30 0
570 648 -326 0
-604 -237 -272 0
898 915 198 0
-978 961 213 0
-301 644 -942 0
177 -430 131 0
-490 -296 642 0
-270 -963 -518 0
318 -389 -895 0
-834 -422 -112 0
885 -521 976 0
457 -827 -314 0
-378 -367 -794 0
-238 -149 -40 0
405 -246 278 0
-158 461 -430 0
-652 465 -936 0
249 -527 -685 0
630 -149 586 0
-569 -345 152 0
-388 -479 -647 0
-938 127 -225 0
-466 -819 -982 0
-257 -267 -399 0
-980 -538 308 0
-510 -748 723 0
262 187 -612 0
-861 97 571 0
236 -662 -983 0
-49 106 936 0
-456 -539 -236 0
116 -991 652 0
-215 -652 549 0
-801 869 781 0
-733 -798 222 0
-717 601 -709 0
-552 -651 -404 0
534 415 -310 0
-577 -966 -312 0
-580 -308 345 0
389 591 903 0
-462 620 822 0
624 492 18 0
328 -137 -930 0
-153 -626 -998 0
281 -846 767 0
-923 -514 -996 0
558 -732 419 0
-62 793 -890 0
-236 736 -176 0
558 -312 657 0
-581 -583 233 0
-579 -561 348 0
-331 -378 -17 0
585 281 -748 0
-164 127 339 0
-28 -98 478 0
-819 -380 437 0
25 684 488 0
76 -487 398 0
867 364 -478 0
-552 584 -551 0
673 998 -901 0
-484 -477 608 0
624 615 -482 0
536 302 -263 0
-909 -134 -542 0
-194 11 160 0
-284 -724 707 0
625 -172 -984 0
-87 -828 945 0
-236 163 -286 0
-20 -770 -482 0
296 395 -850 0
-260 258 -916 0
-208 -877 858 0
477 367 620 0
741 981 -359 0
955 -399 -454 0
-468 226 -713 0
363 559 688 0
-99 300 -6 0
-905 298 579 0
-226 751 -694 0
375 -328 147 0
-386 -620 330 0
