c Large 3-SAT formula for GPU testing
c 1000 variables, 4300 clauses (ratio: 4.3)
p cnf 1000 4300
-7 470 -638 0
-193 -801 -920 0
162 -702 -694 0
-452 -799 967 0
-368 51 690 0
606 -448 -633 0
-751 755 646 0
-346 991 -353 0
-45 -308 907 0
-896 -789 -757 0
156 -80 598 0
-375 -262 177 0
720 466 -144 0
964 456 -252 0
806 -317 -526 0
-442 105 -395 0
-18 4 -404 0
519 402 864 0
-663 791 930 0
-393 416 -802 0
-510 349 -431 0
-883 -343 -902 0
642 -902 -899 0
842 1000 872 0
-199 -806 772 0
-675 -60 -317 0
619 66 738 0
-331 220 775 0
-273 -954 -181 0
-691 753 -73 0
-645 -293 423 0
-610 531 -98 0
338 536 811 0
-437 -635 416 0
-35 -46 -794 0
551 -932 751 0
-141 76 832 0
299 -562 -780 0
-935 -252 -812 0
-247 -895 900 0
572 345 -273 0
261 -202 -423 0
886 -931 -476 0
-901 244 -780 0
-644 402 496 0
975 -537 -959 0
-517 24 -389 0
-606 223 -651 0
430 760 -765 0
-663 -223 -75 0
819 367 55 0
922 608 848 0
-387 950 694 0
-422 -465 574 0
270 385 -177 0
90 -387 -852 0
-810 999 -43 0
-9 -983 -157 0
930 -112 620 0
-622 451 -880 0
-119 848 -431 0
571 -216 26 0
-871 -507 -664 0
-559 557 479 0
403 -483 456 0
817 -705 -516 0
-739 -802 1 0
652 970 378 0
-809 -940 399 0
-409 -877 -798 0
-522 677 -569 0
-152 -309 -310 0
620 688 -392 0
669 819 98 0
-776 264 424 0
-641 -740 987 0
-896 874 -191 0
-715 649 -44 0
701 -889 -902 0
20 138 -217 0
-788 851 -249 0
17 -823 243 0
23 888 623 0
-34 465 418 0
841 407 -352 0
96 373 711 0
-921 -573 831 0
-529 -294 250 0
-258 -398 -788 0
-149 581 -853 0
787 733 -492 0
-389 -306 633 0
-541 347 -717 0
556 -139 923 0
698 -876 -167 0
907 -429 626 0
-190 15 573 0
-533 -170 -143 0
129 -296 -12 0
-320 -114 735 0
942 90 789 0
-968 772 -904 0
-372 62 -472 0
834 39 633 0
-902 -545 -361 0
-766 -904 -744 0
-489 462 239 0
639 213 399 0
362 758 -159 0
583 771 618 0
-336 -534 810 0
-917 -237 810 0
-768 -482 -489 0
534 315 -169 0
-929 -179 -61 0
-773 -12 842 0
733 -111 336 0
489 291 -225 0
-519 -493 532 0
974 405 346 0
-986 433 985 0
-698 -892 957 0
-846 628 894 0
-4 223 -947 0
966 -828 -779 0
-317 -807 -243 0
-184 -519 -852 0
-160 709 68 0
-826 18 -649 0
612 151 993 0
-103 74 -471 0
-247 331 -874 0
462 -684 86 0
584 -669 53 0
144 -541 488 0
50 687 -683 0
-758 911 -991 0
-717 -808 205 0
74 -981 258 0
815 -402 -32 0
678 320 -731 0
628 -83 -968 0
61 -48 562 0
991 -840 16 0
-652 209 -143 0
-806 581 -219 0
-973 -25 821 0
124 -571 -169 0
-440 881 132 0
-460 769 -825 0
-537 623 595 0
-955 41 21 0
172 -9 -340 0
-139 -189 -599 0
-45 870 -438 0
-849 -723 -573 0
579 -604 -539 0
-974 -546 440 0
821 -193 78 0
787 -415 682 0
-350 -923 150 0
201 224 819 0
-435 -134 742 0
96 563 -903 0
287 -189 -968 0
431 933 -748 0
-792 -7 -354 0
-837 -245 962 0
-334 555 -199 0
565 25 -443 0
-459 863 876 0
62 525 102 0
-116 -677 657 0
-421 -225 381 0
-88 -962 -58 0
-842 -163 553 0
935 530 545 0
-174 -134 -908 0
547 -101 -695 0
-187 534 879 0
329 -528 3 0
277 396 -293 0
378 241 121 0
-532 -977 397 0
-252 -198 843 0
251 -891 190 0
-781 640 -687 0
-29 -54 281 0
-29 612 79 0
-191 -734 481 0
-617 605 246 0
-356 94 814 0
948 376 -478 0
-829 63 -160 0
497 -811 16 0
35 -723 -27 0
504 -208 153 0
683 -111 -896 0
547 110 -933 0
725 -73 -460 0
-618 223 457 0
-560 832 -307 0
-148 484 41 0
236 572 645 0
402 -541 -874 0
661 933 415 0
152 -355 904 0
-326 -387 -654 0
-102 665 -357 0
-494 21 254 0
972 -7 -192 0
678 -988 387 0
-598 375 -490 0
338 969 -170 0
173 -238 834 0
21 703 -161 0
24 -449 407 0
565 513 -480 0
402 -758 -571 0
175 966 822 0
801 147 49 0
-501 647 27 0
-272 852 -161 0
-429 -19 174 0
-400 -681 410 0
501 -863 -519 0
-340 -327 -524 0
891 17 350 0
185 35 1 0
-797 803 666 0
16 725 -294 0
-737 -484 750 0
-492 -737 699 0
-722 -502 -375 0
839 798 -327 0
-850 188 845 0
175 37 -875 0
777 933 -275 0
-303 720 -564 0
-921 380 117 0
977 -273 543 0
676 620 826 0
-520 -232 -149 0
-513 -952 -32 0
915 -446 -730 0
326 -728 -981 0
-996 -110 784 0
-574 -798 871 0
-414 -741 -222 0
-708 -12 84 0
447 448 -999 0
-519 -817 496 0
139 -642 -190 0
-556 -654 -571 0
-346 178 605 0
444 239 -185 0
-556 799 -971 0
189 403 680 0
-63 -960 -214 0
820 -390 -408 0
-257 -666 -221 0
187 746 215 0
720 698 562 0
-11 381 -740 0
124 -422 -47 0
-930 -310 613 0
327 218 856 0
-651 -264 947 0
817 252 693 0
-173 -997 951 0
196 -948 -262 0
592 -351 654 0
149 -629 856 0
801 -441 642 0
-436 636 -671 0
-123 745 924 0
541 -244 -281 0
-52 929 583 0
320 540 -885 0
-540 606 -164 0
291 654 -808 0
993 -359 248 0
134 785 932 0
810 763 -198 0
-29 -117 -430 0
662 -141 23 0
-9 440 -559 0
-679 250 205 0
-737 -723 470 0
-358 -565 -220 0
50 -584 564 0
-319 -982 -17 0
774 424 35 0
-952 493 836 0
-768 -372 -616 0
-332 -866 -198 0
543 810 -272 0
787 -696 914 0
-375 856 -905 0
26 512 222 0
684 544 -922 0
-37 -109 607 0
-812 -927 279 0
-181 634 588 0
-237 363 272 0
583 741 467 0
-483 -283 -414 0
30 167 626 0
-759 -476 654 0
34 450 318 0
792 326 -805 0
371 -442 763 0
966 -608 376 0
873 320 497 0
-605 90 -941 0
-113 399 234 0
273 -920 12 0
-343 967 149 0
-169 852 -371 0
725 939 -973 0
516 661 835 0
-689 611 -876 0
540 155 -16 0
-407 432 -956 0
-809 80 -407 0
-536 403 83 0
403 280 554 0
232 -590 -261 0
-922 542 -561 0
-225 -477 671 0
678 157 67 0
209 205 -359 0
126 -610 -218 0
-301 -672 -534 0
-612 188 -962 0
545 217 48 0
833 -958 847 0
243 -575 444 0
-628 708 -675 0
999 527 148 0
760 358 -383 0
-862 -383 599 0
-151 873 969 0
19 -51 551 0
-193 -536 -293 0
505 -599 -568 0
-834 -38 -71 0
448 -579 -669 0
-655 -657 -218 0
319 -639 -68 0
-605 291 537 0
-388 -644 -558 0
704 626 -206 0
-307 -649 -337 0
-527 354 607 0
871 604 330 0
472 752 -945 0
-571 412 208 0
703 528 993 0
-238 -533 -111 0
-757 -775 997 0
380 612 30 0
-791 833 587 0
276 -272 -703 0
319 -751 -107 0
-134 -412 -712 0
-584 -297 298 0
-727 -570 -541 0
416 827 166 0
636 415 568 0
402 -101 -603 0
9 -66 339 0
-672 63 652 0
499 284 148 0
-807 -507 -444 0
580 -779 751 0
-936 971 719 0
-788 -271 -778 0
-7 685 -231 0
-364 -240 363 0
-785 -511 -272 0
265 -44 -855 0
366 48 -941 0
-56 -174 -328 0
420 -12 573 0
-929 -208 968 0
732 981 -911 0
-159 32 -41 0
-102 811 641 0
-905 -47 -643 0
-517 -959 43 0
839 398 23 0
-764 896 -192 0
260 -667 198 0
-978 -845 -228 0
-191 918 -622 0
707 -131 496 0
653 -246 689 0
595 443 466 0
-660 231 317 0
529 -311 -548 0
-314 -651 -240 0
442 -97 -188 0
-208 -751 -913 0
-8 391 -560 0
-76 881 562 0
-124 276 -536 0
-712 41 715 0
259 -389 -881 0
820 782 187 0
-159 -702 -541 0
510 598 -455 0
647 365 -577 0
-568 458 243 0
433 992 59 0
751 843 748 0
-8 208 -840 0
346 -841 -223 0
-222 817 -805 0
813 591 -510 0
-995 1 980 0
884 257 262 0
-958 418 803 0
977 -147 -9 0
-388 -539 -228 0
643 773 381 0
-677 -401 605 0
-572 341 -596 0
-389 905 -578 0
-986 -484 -246 0
353 422 -471 0
-790 -281 520 0
276 -327 642 0
-155 -590 46 0
9 246 597 0
539 -222 10 0
-990 632 -853 0
-483 -691 83 0
429 23 709 0
-324 357 487 0
-138 790 -805 0
-469 -807 548 0
689 -240 -880 0
653 -792 -128 0
-718 -351 -962 0
252 131 721 0
651 -519 186 0
6 -872 222 0
632 -917 -123 0
656 -159 -511 0
-459 145 764 0
981 -277 468 0
343 619 683 0
716 -772 -714 0
867 -502 -622 0
874 -427 983 0
689 978 613 0
-729 596 -383 0
-948 -946 802 0
483 297 930 0
-459 890 826 0
700 512 208 0
-415 -145 -546 0
415 8 -980 0
-704 -894 834 0
-860 -852 -543 0
-307 151 938 0
849 -472 -646 0
-492 -706 761 0
-226 210 857 0
-651 446 -477 0
-345 -757 -493 0
892 -956 -554 0
-892 419 133 0
579 568 748 0
-866 -296 735 0
225 -212 959 0
880 -524 165 0
-778 17 -603 0
-459 949 606 0
278 -155 391 0
-715 450 -876 0
612 -57 222 0
-699 -493 -632 0
459 -434 489 0
-981 721 895 0
223 450 -964 0
734 -250 -37 0
-704 -190 -245 0
337 612 786 0
499 -729 443 0
-588 -289 -232 0
-994 -498 -976 0
447 -8 951 0
-282 -326 315 0
640 -916 -120 0
-278 -988 -816 0
-312 715 -479 0
907 551 802 0
-131 494 -667 0
-38 -247 -937 0
295 17 -178 0
-432 487 -624 0
45 -143 179 0
698 290 -626 0
597 920 -567 0
339 -345 546 0
-977 123 795 0
69 768 518 0
-850 -433 -748 0
89 -511 -604 0
26 -440 367 0
924 -779 -397 0
127 -777 -60 0
-539 -744 -380 0
518 -872 118 0
-933 -7 -797 0
-742 363 811 0
-594 -704 722 0
260 698 -778 0
645 -333 134 0
-823 -525 -934 0
-991 -698 254 0
-396 -407 185 0
-672 -349 394 0
-824 538 764 0
-673 -659 15 0
312 -64 -996 0
-619 402 -938 0
-201 361 335 0
595 -619 364 0
-589 -914 840 0
-881 -265 670 0
-826 -263 -963 0
929 -499 -204 0
-623 -594 145 0
871 97 526 0
-30 116 444 0
-695 183 -928 0
-74 -545 315 0
93 -965 802 0
629 840 962 0
-551 987 -240 0
821 757 436 0
690 211 386 0
-763 -402 -578 0
-432 546 -520 0
573 -857 -729 0
-694 800 -705 0
-460 899 -64 0
-901 986 -812 0
-795 759 388 0
139 84 108 0
624 -161 313 0
879 -64 -580 0
261 249 -229 0
-827 145 -20 0
-977 298 -116 0
454 242 -798 0
-85 -160 -505 0
-332 -485 405 0
391 206 945 0
733 497 -12 0
371 -792 -556 0
-130 67 551 0
-748 241 -633 0
-646 567 98 0
-398 -446 504 0
-974 298 -657 0
-772 561 507 0
-522 -827 -268 0
-240 987 172 0
-421 448 -25 0
399 -323 538 0
-287 -122 891 0
-21 -644 274 0
273 -165 919 0
196 -938 -173 0
749 228 -897 0
-41 -297 3 0
14 799 841 0
620 -274 676 0
-659 253 445 0
-429 168 546 0
-707 -488 119 0
108 -175 568 0
-376 627 -578 0
-918 682 906 0
51 877 -519 0
941 531 -481 0
-912 -644 221 0
-587 -547 -779 0
-813 -558 772 0
-667 950 489 0
-706 -789 -812 0
-211 -792 841 0
-396 444 -388 0
807 -241 -217 0
122 -467 876 0
-60 -922 954 0
-773 905 -611 0
-304 -573 497 0
-352 541 -999 0
-350 30 262 0
-795 -897 -229 0
514 -838 -645 0
-906 167 688 0
-535 66 -79 0
71 -754 -193 0
-984 119 -881 0
-69 793 355 0
515 -551 -566 0
-928 -927 322 0
151 806 434 0
701 413 -171 0
-185 780 52 0
-463 525 -229 0
914 960 710 0
61 1 470 0
544 -277 -629 0
965 -299 -44 0
732 688 59 0
919 238 -999 0
118 637 -620 0
426 974 471 0
813 778 -244 0
876 969 -348 0
-292 -636 275 0
-449 -299 -485 0
-122 -780 736 0
917 -741 867 0
-833 -773 -778 0
-259 -889 -995 0
-371 -134 -612 0
574 14 -91 0
-849 -199 -938 0
-492 -486 947 0
-466 -923 298 0
688 -782 288 0
458 -169 -584 0
-992 540 555 0
-298 140 -227 0
-283 214 109 0
69 -586 937 0
-817 124 920 0
601 -385 328 0
-890 906 -982 0
-775 455 -662 0
-818 609 -804 0
414 -4 533 0
-587 589 815 0
66 -430 -460 0
293 206 -87 0
-119 423 -229 0
-39 -993 -154 0
559 103 635 0
-276 620 -386 0
339 -15 758 0
-755 603 -272 0
-591 665 445 0
-859 -502 673 0
861 -691 -220 0
799 -509 -768 0
489 13 312 0
721 -385 -279 0
-458 123 676 0
-751 -557 -256 0
520 554 -373 0
-495 -410 -446 0
466 -688 627 0
-468 -913 725 0
-939 770 -814 0
-347 -497 -209 0
683 669 444 0
-950 684 -580 0
-350 73 241 0
-479 -906 871 0
-827 -347 582 0
730 -8 371 0
-949 -126 -10 0
-8 -256 55 0
-41 -239 286 0
-836 627 -257 0
-353 197 -186 0
-717 879 -398 0
-850 -698 -151 0
352 833 666 0
-219 -235 919 0
-659 -45 -456 0
372 -389 225 0
-406 -633 -394 0
-682 -446 -768 0
-44 496 145 0
890 -408 -967 0
835 847 -26 0
-257 -346 -815 0
-765 106 5 0
428 609 -613 0
-708 602 -86 0
-392 -508 -765 0
-399 787 -786 0
-900 -965 -447 0
810 -698 868 0
928 669 -306 0
973 -397 -402 0
-205 419 108 0
-864 678 598 0
-132 463 549 0
765 -160 -149 0
233 -861 594 0
244 970 -52 0
726 654 653 0
-472 -935 769 0
-507 -636 -266 0
532 158 669 0
-948 -156 -87 0
-525 675 -699 0
-715 -486 -189 0
747 -112 -575 0
752 -283 941 0
-566 897 392 0
-283 -615 807 0
-52 466 356 0
-648 -240 -547 0
106 -617 433 0
-982 143 -472 0
-122 957 686 0
-159 -376 515 0
305 339 656 0
971 619 -14 0
34 -215 498 0
993 50 36 0
-783 -674 -114 0
541 -112 -327 0
906 746 745 0
86 399 701 0
-582 692 -347 0
-1000 -963 902 0
876 196 -431 0
783 554 459 0
-195 -548 362 0
-847 -25 -276 0
972 975 -395 0
-623 -412 462 0
549 -217 147 0
-772 -320 -393 0
-274 183 -785 0
-178 -96 417 0
73 -757 422 0
321 157 938 0
208 686 837 0
125 943 -305 0
-993 701 496 0
85 -904 460 0
-177 -175 835 0
618 682 829 0
401 720 -817 0
-547 -37 330 0
-798 281 624 0
735 237 -443 0
-650 562 -420 0
829 620 527 0
926 -330 106 0
-62 435 -224 0
640 -256 -65 0
-492 743 814 0
-75 656 743 0
-260 -743 -6 0
-846 -711 264 0
484 -583 -969 0
306 -877 -231 0
60 -797 -864 0
-705 -509 241 0
-258 578 -500 0
753 -353 509 0
782 1000 -997 0
-771 817 -471 0
-16 -670 332 0
293 516 -367 0
374 -16 80 0
334 -490 -724 0
-81 809 686 0
-312 90 619 0
-699 418 -113 0
551 -492 -396 0
24 -723 114 0
-765 165 -955 0
871 648 -817 0
-64 -51 -539 0
-623 -723 834 0
744 603 -392 0
-768 -847 -241 0
204 -206 15 0
216 -897 -321 0
288 -424 347 0
-569 -911 78 0
906 757 999 0
-393 -203 403 0
-582 273 971 0
-905 -568 536 0
-863 855 603 0
359 589 -881 0
-946 526 -643 0
-534 -591 38 0
-398 513 819 0
-741 -825 -323 0
-448 -60 650 0
-514 925 106 0
837 431 -999 0
387 -364 -219 0
949 626 695 0
-346 974 668 0
-918 -62 -729 0
-686 784 349 0
-762 776 968 0
-756 -587 910 0
109 -33 -237 0
598 715 786 0
146 897 827 0
-303 461 79 0
592 -902 -783 0
-441 -96 303 0
-528 407 -360 0
-14 178 -473 0
984 -782 893 0
153 -905 -485 0
-495 -786 -140 0
810 -105 173 0
593 541 -684 0
711 -172 568 0
-902 -246 -517 0
-964 -79 -429 0
-519 -507 723 0
-818 -458 -547 0
237 -568 -267 0
688 801 737 0
437 445 562 0
-830 -497 899 0
356 -451 -792 0
625 -458 -350 0
-77 -807 828 0
-390 833 -179 0
717 -544 -674 0
668 -476 404 0
-463 -445 -923 0
-859 504 935 0
210 366 402 0
-498 -699 404 0
-138 -959 74 0
-98 56 -762 0
126 -988 -344 0
900 -739 306 0
-589 -532 841 0
-612 149 401 0
-278 993 -840 0
-968 -18 -690 0
565 -524 -413 0
-265 384 -699 0
-326 -993 -259 0
101 949 -702 0
439 -823 820 0
-468 -450 -303 0
449 -464 -97 0
-692 571 -30 0
903 -409 -935 0
433 -366 187 0
470 -900 714 0
282 -601 431 0
416 201 203 0
-423 990 -369 0
-425 97 30 0
991 230 -889 0
942 -758 83 0
858 37 567 0
-813 94 -270 0
856 404 -917 0
-476 236 -887 0
-597 647 625 0
625 142 -150 0
-662 709 72 0
306 -906 -22 0
677 335 344 0
218 369 534 0
-886 -328 913 0
-535 746 5 0
-614 -743 -394 0
23 309 -16 0
691 -511 655 0
688 -648 -256 0
75 27 323 0
555 -353 22 0
358 -214 736 0
113 -135 -865 0
-456 -201 -108 0
-867 -165 -704 0
-902 -926 -766 0
-295 -934 -750 0
-266 575 -822 0
-101 732 498 0
-964 -704 310 0
686 -149 34 0
-977 -176 950 0
528 -262 -184 0
-734 313 -719 0
226 826 -187 0
-516 -960 45 0
913 -624 -601 0
586 -429 -201 0
-626 -823 -152 0
364 -923 937 0
-565 897 784 0
-240 -362 379 0
-765 533 -650 0
649 820 485 0
-692 -769 -922 0
-174 716 103 0
-301 981 405 0
28 587 981 0
-592 -37 -1 0
499 -146 -424 0
-168 -430 508 0
120 -999 40 0
-317 -815 23 0
189 -52 -571 0
-484 848 727 0
-392 -600 -378 0
-227 -854 387 0
-821 787 763 0
-554 171 352 0
-48 743 935 0
-831 547 490 0
-123 -146 -534 0
426 -740 28 0
64 -885 -40 0
-275 -545 528 0
341 62 307 0
410 722 851 0
70 -173 -666 0
-224 93 959 0
-663 327 -785 0
729 -982 -294 0
-127 -603 778 0
746 541 471 0
-588 -957 -818 0
436 -665 356 0
457 120 777 0
319 -577 602 0
459 -279 -51 0
-427 -769 851 0
94 687 -430 0
814 715 921 0
-822 849 73 0
-83 -758 -921 0
883 619 -505 0
527 -622 -193 0
463 66 817 0
313 615 513 0
-237 -58 -506 0
-293 670 844 0
-933 -511 141 0
-57 -234 9 0
-542 -857 -523 0
-919 -140 -674 0
399 -285 624 0
947 58 197 0
-290 -964 901 0
33 -572 527 0
681 -590 524 0
-829 -262 -424 0
-810 542 -880 0
-120 977 946 0
491 20 680 0
834 -46 413 0
911 957 -631 0
-929 -900 132 0
-534 -799 863 0
290 -775 501 0
243 -59 -718 0
-920 474 -479 0
-947 961 799 0
-896 -51 -326 0
-507 -288 291 0
41 392 -881 0
173 -830 -948 0
-800 -699 811 0
-808 963 570 0
944 -84 -658 0
-246 336 -429 0
-806 -231 287 0
294 -305 77 0
-663 226 422 0
988 -702 -268 0
-304 439 58 0
-475 -222 202 0
-521 -122 -513 0
705 -925 -876 0
51 818 371 0
96 140 -118 0
-62 -260 869 0
704 826 584 0
-38 388 -504 0
825 -39 -436 0
16 809 -476 0
-358 2 457 0
866 360 -657 0
-994 -405 908 0
977 -776 -123 0
959 -650 -273 0
-257 931 -92 0
392 -656 840 0
325 -291 -113 0
-322 889 206 0
691 -576 244 0
-831 -819 -311 0
674 -341 -580 0
76 787 309 0
970 590 -218 0
-316 158 432 0
144 497 619 0
530 33 -96 0
675 721 559 0
-662 878 -959 0
363 125 852 0
-981 -646 424 0
162 -960 180 0
-635 367 247 0
53 -211 60 0
582 -306 -362 0
825 -957 864 0
-897 -238 965 0
-908 -128 609 0
-252 739 -548 0
922 -846 -142 0
995 188 -868 0
654 447 -826 0
926 326 -182 0
-261 -429 788 0
779 -524 -161 0
897 690 -765 0
765 921 759 0
746 155 -809 0
-31 991 675 0
403 634 -385 0
-187 -585 963 0
-883 64 -570 0
-466 1000 408 0
-199 -847 587 0
-85 -437 111 0
913 421 731 0
967 -395 -478 0
180 92 -718 0
-754 429 -554 0
212 54 -647 0
-329 790 -811 0
257 -307 925 0
601 -375 913 0
424 598 277 0
-747 156 914 0
-424 -917 -110 0
778 894 608 0
-615 -592 -917 0
418 -294 -800 0
841 464 -353 0
561 34 110 0
-122 467 -281 0
-687 -172 -424 0
47 878 -84 0
949 -206 -90 0
834 670 -760 0
430 15 328 0
551 580 780 0
-383 203 548 0
-971 -53 -78 0
907 291 -366 0
-960 29 -140 0
537 264 110 0
4 854 -988 0
346 -208 945 0
-367 -590 -175 0
-24 326 -704 0
-100 663 -455 0
-297 535 140 0
734 164 709 0
592 976 -328 0
692 -683 513 0
-732 -271 199 0
-331 942 827 0
-546 908 -790 0
-598 -432 388 0
790 230 -256 0
-896 349 -993 0
-529 -535 710 0
215 -916 234 0
565 -768 -8 0
-553 -934 481 0
-282 159 885 0
327 -635 -423 0
592 -950 -664 0
-298 876 -592 0
962 583 -176 0
-192 657 699 0
-638 -86 623 0
-706 -800 -996 0
-357 -307 889 0
112 803 -471 0
-598 -371 -840 0
-795 -632 707 0
872 -88 -520 0
-606 -507 -701 0
-491 447 205 0
641 39 630 0
-271 91 284 0
828 -398 247 0
253 -973 -815 0
948 -160 121 0
-775 -25 362 0
-418 783 -769 0
-261 -703 -431 0
220 216 -331 0
-361 -767 773 0
142 -425 279 0
829 -55 708 0
-67 1 -922 0
213 -489 282 0
-753 397 -156 0
518 831 633 0
900 545 -934 0
305 764 -361 0
-882 645 237 0
-238 49 -774 0
360 748 220 0
-616 -849 -861 0
600 80 79 0
930 -57 -857 0
554 115 373 0
890 989 759 0
848 -213 -800 0
-953 320 -917 0
-692 666 646 0
345 774 478 0
854 -250 222 0
-529 -278 -829 0
152 -902 -60 0
365 100 -78 0
579 -766 729 0
-111 840 -16 0
847 -967 856 0
206 -121 312 0
-193 -684 637 0
-292 944 -985 0
-569 758 407 0
969 -735 829 0
-144 -878 1000 0
834 801 -101 0
961 -102 -591 0
-560 -423 486 0
360 178 -893 0
-739 420 -107 0
-822 491 -324 0
989 -992 -995 0
918 -955 176 0
-310 897 609 0
168 -410 -716 0
-570 -162 -793 0
839 494 -86 0
-256 307 -708 0
-845 781 -53 0
327 802 -529 0
976 -906 105 0
-982 -355 421 0
-80 -160 612 0
-102 -515 -871 0
-600 -319 555 0
758 276 871 0
164 370 351 0
743 41 -177 0
-818 -987 -14 0
-453 -397 -471 0
886 36 761 0
552 984 -750 0
-33 -8 161 0
250 -41 -823 0
-735 -747 722 0
288 613 267 0
-580 -720 994 0
152 -701 -481 0
-55 837 -493 0
-150 930 408 0
-887 762 -812 0
-47 801 -574 0
600 385 -940 0
616 763 -906 0
-79 494 700 0
-679 509 -832 0
996 -987 749 0
-739 214 93 0
-77 -226 913 0
54 -854 -714 0
748 -990 -580 0
-594 -679 47 0
197 -662 -525 0
-571 -577 -566 0
-948 810 -402 0
287 -922 -655 0
703 755 566 0
-455 915 950 0
-636 -415 -935 0
612 -241 -271 0
-882 -23 -455 0
-901 301 888 0
179 -28 719 0
33 -497 -147 0
845 -373 184 0
817 539 -849 0
693 885 -222 0
-579 421 -719 0
-466 -775 -641 0
671 476 -823 0
-456 -856 -604 0
971 -142 -756 0
565 573 -437 0
-183 748 509 0
-527 -890 570 0
-58 209 -551 0
691 -456 753 0
-482 799 629 0
-582 374 -841 0
562 717 -973 0
-445 890 849 0
183 -908 321 0
339 170 -82 0
-856 -726 -413 0
596 521 -13 0
462 -293 97 0
-499 869 -870 0
344 316 609 0
-937 953 -557 0
34 -437 -190 0
-479 -680 549 0
808 462 -879 0
-716 -440 -963 0
-662 647 -708 0
-500 260 466 0
479 -127 52 0
-534 -169 819 0
211 -282 -135 0
-656 233 154 0
-697 749 -871 0
-905 -49 452 0
647 -80 515 0
-990 402 316 0
707 220 -163 0
-139 -44 -563 0
901 -281 -830 0
276 929 106 0
122 -605 -348 0
-890 84 -263 0
573 -947 417 0
997 703 -346 0
905 -105 826 0
-132 153 -438 0
-608 -553 -133 0
819 -772 296 0
-550 -637 42 0
-199 548 252 0
-606 -876 -180 0
656 -847 304 0
311 242 750 0
535 -558 -997 0
479 -334 86 0
792 315 -678 0
-838 483 380 0
-914 -387 -553 0
-912 -363 916 0
-26 -833 -762 0
199 -435 -392 0
563 501 207 0
-377 523 -910 0
797 340 -999 0
-290 765 443 0
-172 -142 -307 0
754 -556 -699 0
-153 735 207 0
-130 856 109 0
-973 -848 263 0
-124 312 860 0
-177 217 -599 0
197 936 995 0
-914 503 205 0
208 785 -787 0
162 -285 -876 0
166 -273 -317 0
71 -41 -109 0
-672 -409 582 0
-580 259 -19 0
-763 705 -696 0
-606 -105 -239 0
-994 898 514 0
239 -982 259 0
-788 -695 278 0
-354 314 101 0
226 -392 -342 0
-820 3 -671 0
143 -414 43 0
-911 730 -297 0
-288 -224 532 0
39 -819 923 0
-953 820 -666 0
263 -234 767 0
-239 -396 -170 0
-583 570 114 0
20 -931 699 0
501 -436 -39 0
764 -947 383 0
-241 -232 698 0
-416 -351 453 0
-882 464 52 0
-679 -585 -857 0
-888 -506 460 0
-780 -731 -401 0
486 869 162 0
52 -583 -265 0
-339 814 -270 0
-655 512 -873 0
888 -743 -991 0
902 582 275 0
-553 815 -275 0
722 263 471 0
45 -65 -958 0
963 626 877 0
-359 125 254 0
-339 180 -749 0
71 418 675 0
-825 251 531 0
-384 -551 -381 0
-284 880 136 0
-970 -859 -996 0
-430 -57 704 0
855 56 783 0
412 143 -13 0
14 454 -767 0
-255 279 508 0
634 679 -754 0
154 867 -626 0
353 -112 -447 0
683 -707 -315 0
-576 317 116 0
312 -613 -313 0
-637 454 -561 0
609 897 -440 0
341 -804 410 0
520 -689 -834 0
-134 454 643 0
-778 -538 412 0
-261 935 -501 0
-253 -76 -511 0
620 -283 -225 0
-642 494 715 0
-303 -236 -222 0
-520 613 -502 0
247 483 -866 0
-601 -366 509 0
-539 267 603 0
-289 -58 617 0
469 -853 790 0
-965 339 981 0
-295 569 -486 0
-459 735 -679 0
-220 354 -566 0
884 434 -911 0
-927 -324 -373 0
-846 26 -325 0
-924 675 889 0
-287 -566 835 0
747 755 -732 0
56 -330 813 0
-810 -565 236 0
680 977 537 0
893 -27 544 0
-631 559 501 0
9 234 880 0
-450 -1000 -277 0
-369 -776 561 0
-433 605 493 0
148 -394 604 0
-448 979 487 0
-569 -213 -600 0
-787 -108 -800 0
517 982 -730 0
474 168 479 0
351 988 -31 0
890 -596 119 0
-127 -175 -265 0
529 -654 629 0
904 -318 626 0
298 -926 432 0
-317 190 254 0
467 607 510 0
-337 260 901 0
480 -889 -902 0
-478 875 18 0
-129 -736 994 0
724 808 327 0
769 395 -528 0
-218 249 -468 0
399 431 -122 0
-130 -3 -733 0
30 623 262 0
245 612 343 0
-334 940 -374 0
804 477 236 0
387 -381 -506 0
573 -10 623 0
448 826 -896 0
333 788 -981 0
689 -378 331 0
-71 -112 -102 0
948 -251 328 0
237 -342 -891 0
722 -134 -959 0
979 594 -608 0
320 -501 297 0
-718 640 215 0
-254 -513 849 0
390 204 215 0
-432 91 -370 0
-146 -492 997 0
-4 -728 263 0
625 -925 -953 0
-736 -704 -376 0
-627 79 943 0
383 810 151 0
-186 -828 -356 0
-276 -775 -661 0
564 502 -272 0
577 -98 820 0
-176 -276 -506 0
-69 383 -789 0
688 -337 -64 0
-400 -753 -732 0
868 178 -215 0
-740 -321 845 0
121 -885 145 0
884 -928 85 0
224 927 80 0
587 263 222 0
-130 -941 -763 0
349 -588 765 0
-655 -509 -699 0
263 -744 -822 0
346 551 -16 0
529 -616 -970 0
603 -49 556 0
-996 365 -47 0
852 664 -968 0
347 -1 581 0
-844 -34 980 0
94 -579 791 0
-477 712 672 0
-456 945 -639 0
-713 -229 900 0
483 -447 -618 0
908 414 -273 0
47 853 498 0
-907 -555 -825 0
931 95 970 0
-155 951 -681 0
113 -897 695 0
793 -778 -234 0
546 -493 -234 0
281 246 -180 0
-963 226 206 0
-54 996 -399 0
766 781 -967 0
-209 -142 -292 0
863 465 600 0
323 -990 89 0
879 -856 592 0
-500 306 -764 0
-77 -780 319 0
298 -341 -636 0
-602 -503 -889 0
-972 -660 450 0
-346 -850 922 0
-54 392 -815 0
-225 719 -278 0
439 935 -53 0
765 -208 -914 0
933 905 420 0
-283 149 -168 0
425 766 -112 0
146 -552 -383 0
93 273 -932 0
568 254 -883 0
-748 153 83 0
-316 -116 -417 0
-834 284 984 0
-493 -125 -239 0
-611 364 -201 0
208 -371 -91 0
282 505 -837 0
844 889 -32 0
626 992 436 0
340 84 -830 0
403 -508 -67 0
877 -778 517 0
-282 410 -373 0
532 -381 -770 0
-293 349 340 0
-146 505 -373 0
-438 -808 64 0
947 -915 318 0
-797 -666 167 0
-798 566 532 0
845 115 -92 0
-486 442 -193 0
797 -975 -296 0
799 -960 -856 0
246 -986 -815 0
-818 -915 -214 0
-875 -854 -580 0
-247 260 -470 0
-885 372 902 0
43 -153 -707 0
472 524 817 0
35 -599 -280 0
-582 -300 -277 0
-549 -715 762 0
-707 261 995 0
-413 -62 -74 0
-287 -340 46 0
489 -648 784 0
657 -281 879 0
419 375 -748 0
603 -371 -241 0
131 -491 -754 0
275 755 -679 0
-135 -141 272 0
-838 134 78 0
781 846 86 0
640 870 -309 0
-858 -678 668 0
322 -713 34 0
-679 225 -280 0
497 -613 -75 0
569 -296 -261 0
-211 741 -345 0
895 388 -907 0
-858 -652 322 0
380 29 219 0
2 -44 910 0
-676 -529 288 0
-277 153 304 0
-507 -707 -14 0
-877 407 566 0
670 824 -391 0
72 -639 625 0
-338 -807 -567 0
-130 113 -372 0
-695 -977 162 0
-781 790 915 0
411 -952 14 0
-873 -924 -35 0
608 -79 312 0
-254 -266 -47 0
51 775 223 0
-75 -911 497 0
-75 -980 583 0
-402 443 -9 0
177 721 519 0
-32 -421 18 0
562 -750 -625 0
167 89 984 0
-810 669 -159 0
525 -990 21 0
-211 -993 -896 0
127 -634 -673 0
256 -554 -86 0
333 -86 802 0
-890 343 -802 0
694 157 737 0
-186 167 -652 0
-968 -878 -84 0
-115 685 348 0
-800 -342 119 0
-720 533 391 0
899 -742 -708 0
25 806 675 0
-712 247 -211 0
676 -520 -163 0
-521 -70 -209 0
207 215 16 0
787 -40 -393 0
143 211 -201 0
371 -381 457 0
842 859 -176 0
-810 -439 -852 0
-475 -687 -382 0
105 -156 758 0
742 -666 -331 0
-533 -345 -726 0
784 -303 786 0
-470 578 757 0
-264 797 804 0
-403 -977 343 0
-279 626 -278 0
879 708 -416 0
-640 -271 945 0
-388 -237 -559 0
-238 -270 851 0
-838 661 -211 0
-757 -133 284 0
803 513 52 0
-715 -326 -995 0
-938 201 -572 0
-205 474 350 0
725 -255 -941 0
-673 -138 11 0
135 -497 -894 0
-755 985 -614 0
-844 879 -826 0
557 -350 -773 0
-721 -32 313 0
-82 -736 669 0
691 -63 -758 0
194 222 -877 0
400 -490 -424 0
680 199 -412 0
-342 -839 -281 0
877 -806 -93 0
-713 290 951 0
702 -265 24 0
-72 -532 977 0
684 -860 335 0
431 565 -977 0
173 -801 -363 0
126 -529 -845 0
-55 -706 -318 0
133 -547 722 0
-50 160 188 0
621 618 -902 0
-816 10 558 0
-720 -742 876 0
436 -778 85 0
221 -148 698 0
212 -103 579 0
307 -556 715 0
824 99 336 0
-130 823 845 0
961 326 -593 0
670 989 -595 0
-462 -486 597 0
-830 318 582 0
-577 725 716 0
941 -833 240 0
-736 -718 -545 0
514 459 -203 0
-484 -111 -340 0
-665 -995 34 0
-236 922 327 0
888 -298 -114 0
504 797 -657 0
240 909 -237 0
602 728 773 0
165 -440 93 0
757 274 -439 0
-473 131 349 0
561 -37 -95 0
-250 130 230 0
194 940 483 0
-218 -401 36 0
120 303 82 0
-807 -88 -912 0
291 514 467 0
-63 979 -862 0
403 -382 -82 0
-361 -173 18 0
942 -469 191 0
328 290 -829 0
-435 -524 -169 0
654 293 -340 0
-185 -972 256 0
324 898 268 0
97 -771 -818 0
646 554 -380 0
117 -392 -626 0
-553 951 -54 0
-427 91 921 0
511 10 -343 0
-756 878 418 0
-619 613 505 0
-927 -291 977 0
589 15 975 0
-701 587 491 0
-429 -470 248 0
-181 729 -605 0
-560 200 -886 0
-749 -752 -389 0
-552 739 -622 0
-589 -680 -290 0
548 514 -323 0
612 607 -308 0
-857 -153 782 0
143 -711 929 0
218 -246 856 0
-797 -85 -62 0
657 686 971 0
-758 -692 -645 0
545 -638 -254 0
986 220 -990 0
309 173 523 0
-723 -475 -144 0
-806 -951 -453 0
-788 -627 -689 0
899 -985 -743 0
-356 -436 -33 0
-12 -15 402 0
-541 479 -364 0
-563 -598 -182 0
768 741 -314 0
-58 472 -709 0
716 -323 -817 0
22 -93 -804 0
710 -519 286 0
-93 -251 -529 0
199 -33 951 0
536 344 -717 0
978 -922 -933 0
447 -179 -101 0
-280 794 219 0
113 869 693 0
-392 -517 -57 0
231 -737 -444 0
171 869 59 0
-846 822 -619 0
30 924 -743 0
-598 -671 558 0
239 795 -224 0
-415 694 182 0
-933 -755 70 0
990 156 -772 0
182 -271 432 0
-93 -580 335 0
-387 969 920 0
611 -981 -871 0
-556 -681 894 0
175 -724 -331 0
-998 436 349 0
449 856 -637 0
-900 -206 263 0
686 229 -878 0
125 41 168 0
288 566 -544 0
782 -795 146 0
-774 -491 -310 0
-715 -170 756 0
-852 68 579 0
-650 -695 -935 0
-373 -171 -754 0
-128 -984 -692 0
302 -519 246 0
-577 507 591 0
-637 383 647 0
128 628 518 0
205 -318 -15 0
-754 224 41 0
785 -754 385 0
812 153 996 0
-836 -540 173 0
-722 -598 771 0
196 94 540 0
288 639 -106 0
249 172 505 0
-959 380 928 0
410 449 -678 0
470 382 771 0
972 -102 733 0
-447 -730 -605 0
107 -561 183 0
-418 725 288 0
-868 -191 978 0
-340 776 389 0
361 -612 -144 0
-532 -246 -909 0
9 489 -103 0
-663 -793 806 0
866 -43 838 0
330 841 740 0
-520 290 913 0
346 -581 107 0
-701 -741 846 0
-383 -275 363 0
858 802 -700 0
-987 136 234 0
-919 565 69 0
481 -860 153 0
615 -494 374 0
-147 774 945 0
256 -139 97 0
-121 -442 948 0
-123 482 400 0
941 362 713 0
384 563 -541 0
684 425 528 0
-133 -385 -239 0
543 -945 -604 0
953 -706 -723 0
995 -406 55 0
650 -953 -433 0
-324 933 809 0
-988 644 -905 0
80 -897 968 0
631 876 -873 0
-997 -327 -969 0
141 -39 -487 0
-689 -576 857 0
932 482 -701 0
993 255 175 0
232 -652 -657 0
-746 301 267 0
-25 -413 -784 0
613 152 -317 0
756 -662 56 0
-836 608 656 0
-927 -848 136 0
777 -813 397 0
538 -906 -406 0
782 -418 -386 0
-501 -962 977 0
-848 -156 802 0
-392 997 137 0
-781 -282 -116 0
-760 -959 -717 0
-382 -756 -552 0
760 -561 -438 0
-772 -413 941 0
-485 641 979 0
889 813 539 0
41 -823 493 0
-620 -355 -864 0
805 -290 595 0
23 -511 -306 0
910 893 -268 0
938 718 782 0
296 116 -974 0
-482 -134 -654 0
61 -868 -325 0
-32 362 690 0
-934 -11 -928 0
135 -878 -191 0
-673 523 -929 0
-882 151 -776 0
-174 227 -43 0
-108 311 464 0
528 890 -909 0
-487 -327 -395 0
-767 30 -789 0
41 -829 648 0
813 -318 -376 0
-713 -757 569 0
-134 -932 -498 0
547 339 -862 0
-305 251 665 0
-654 276 -271 0
-320 -818 348 0
-961 -255 -913 0
-451 -992 109 0
-970 -188 214 0
725 -894 -616 0
736 147 827 0
976 -975 -50 0
207 -732 -436 0
-623 -991 -724 0
374 -381 -579 0
149 168 -518 0
-2 -769 -272 0
962 378 874 0
499 637 -436 0
179 15 -196 0
-186 -636 -799 0
-89 696 -445 0
730 956 349 0
-510 -329 -806 0
273 -132 -366 0
-710 -275 -623 0
53 654 242 0
419 545 158 0
-62 -738 -192 0
892 -914 951 0
-828 -370 152 0
-259 389 153 0
-321 48 -619 0
-10 -910 635 0
389 -849 383 0
-153 608 371 0
403 891 268 0
106 -116 589 0
-673 619 63 0
17 -364 -383 0
449 628 -553 0
-601 431 416 0
930 -435 122 0
-350 -500 46 0
-297 350 -980 0
-675 906 660 0
587 533 -388 0
-507 460 -79 0
-212 38 -403 0
398 946 -317 0
-190 962 115 0
-911 516 -975 0
141 -680 -960 0
558 842 491 0
-287 847 -206 0
674 244 258 0
327 377 474 0
73 755 -872 0
412 -707 -872 0
41 755 -182 0
-268 -447 688 0
149 -56 70 0
302 260 925 0
307 -139 176 0
114 801 500 0
679 -742 400 0
734 -661 -528 0
-640 770 -507 0
-290 327 -351 0
-170 -196 275 0
-500 797 -257 0
-245 -248 541 0
-509 -121 -851 0
-914 402 -921 0
-379 -956 -139 0
61 408 -785 0
-568 -273 985 0
667 -774 -14 0
-700 -795 931 0
564 866 873 0
240 400 -886 0
-995 -514 -754 0
-808 478 107 0
-506 -698 -64 0
786 848 607 0
-148 56 -129 0
679 -890 259 0
334 -508 333 0
210 -320 -104 0
242 525 132 0
-605 225 -440 0
365 124 -989 0
591 -184 -95 0
-769 450 875 0
332 420 -390 0
899 -699 -305 0
-529 597 -32 0
-369 -888 325 0
901 -244 -408 0
-221 -946 569 0
-683 36 136 0
-806 -392 649 0
122 -748 878 0
348 727 173 0
385 -24 -471 0
-18 24 -207 0
64 -874 514 0
-403 195 -923 0
-550 -882 -854 0
-786 -718 320 0
-108 523 71 0
711 -233 544 0
695 -805 51 0
-57 -399 270 0
-505 -461 729 0
-373 -206 271 0
433 265 20 0
-288 -547 -984 0
-170 -303 203 0
-923 980 352 0
73 -392 -104 0
-462 -182 240 0
-750 664 666 0
786 -750 -97 0
-764 -239 500 0
-755 -649 455 0
448 648 -779 0
711 -265 -855 0
995 -862 -829 0
302 -818 861 0
365 -927 248 0
-872 398 -860 0
937 812 -525 0
-846 97 381 0
-615 -456 75 0
-321 577 -426 0
876 609 233 0
-568 918 389 0
204 400 -643 0
969 549 -977 0
-626 883 -852 0
-319 988 -276 0
-291 -503 734 0
375 -24 356 0
926 -501 -448 0
939 629 -80 0
-298 242 722 0
544 -203 -475 0
-611 -511 -429 0
224 -463 37 0
-777 692 912 0
135 -583 208 0
-862 -417 -246 0
257 -250 37 0
253 -700 -808 0
-523 -591 301 0
815 -639 -62 0
-267 -469 321 0
-569 742 -641 0
-201 385 613 0
362 205 -656 0
602 -711 -721 0
-833 -957 370 0
-520 -893 171 0
-598 681 -903 0
772 401 268 0
482 702 412 0
745 -44 301 0
858 -335 -15 0
-477 311 134 0
69 -600 -446 0
682 718 402 0
-469 245 -1000 0
517 -579 373 0
-869 -641 -726 0
599 969 100 0
952 -825 -360 0
584 502 -652 0
-615 431 748 0
-437 -192 879 0
-370 481 894 0
-523 -572 74 0
24 338 -273 0
-718 -461 -310 0
52 796 616 0
-322 -744 325 0
734 92 -127 0
275 950 -693 0
-31 620 540 0
-211 738 103 0
-614 183 -180 0
-389 -395 -859 0
-850 759 -206 0
-103 -421 -694 0
757 -614 -888 0
173 -214 652 0
-199 -9 487 0
764 -509 730 0
883 -457 230 0
359 425 -394 0
880 738 905 0
2 -985 -741 0
-283 -430 265 0
-877 -355 -698 0
50 -472 -453 0
-962 -652 -615 0
-30 280 361 0
-86 -420 -314 0
955 361 194 0
1000 -173 836 0
-946 525 709 0
248 80 -712 0
969 275 430 0
-72 -163 -907 0
-848 -568 -952 0
-576 322 561 0
710 789 915 0
789 -30 114 0
-442 -204 507 0
966 -522 -43 0
157 763 -348 0
-586 -641 953 0
250 -936 561 0
553 -18 -583 0
-223 142 59 0
-531 -20 -882 0
61 -628 -510 0
-905 499 -787 0
594 244 -761 0
-524 -519 -406 0
740 985 332 0
-487 29 -594 0
678 812 99 0
698 -57 -845 0
-522 -945 29 0
493 297 253 0
-809 -974 -963 0
-846 -102 -315 0
569 951 920 0
318 -386 281 0
-505 939 -534 0
-965 463 -62 0
-509 -907 -49 0
-569 199 -35 0
-928 -256 -400 0
946 -393 478 0
856 556 803 0
345 -149 -661 0
-858 -743 59 0
134 697 -146 0
300 712 982 0
545 809 -716 0
-378 -392 -139 0
975 -537 -419 0
422 627 -551 0
190 801 314 0
-117 714 738 0
-386 548 329 0
842 170 514 0
-421 856 679 0
146 314 96 0
992 197 884 0
317 532 -722 0
489 277 85 0
887 607 -737 0
-107 -992 756 0
-694 -560 302 0
-759 238 -961 0
354 400 -882 0
-272 -77 652 0
-401 -385 218 0
737 -380 744 0
-370 -885 -632 0
247 -312 348 0
-319 390 -803 0
827 553 56 0
209 338 707 0
746 326 608 0
698 -125 183 0
523 558 451 0
563 -783 -709 0
90 -680 100 0
355 -643 -382 0
-694 742 637 0
118 608 -985 0
-275 -340 915 0
451 -562 84 0
-199 792 -318 0
-764 374 526 0
-158 478 524 0
196 389 502 0
-88 -797 -311 0
-751 -904 -857 0
522 -999 -278 0
25 848 778 0
2 -780 276 0
690 15 -154 0
-986 -118 -98 0
351 -54 -101 0
329 867 -936 0
209 721 754 0
-450 -585 503 0
-363 519 104 0
-130 -709 -362 0
-500 -465 -295 0
22 -757 405 0
210 -294 678 0
-532 -769 -982 0
-952 -724 755 0
382 216 666 0
750 808 -499 0
604 -68 560 0
884 921 853 0
161 56 -553 0
-964 -82 927 0
-945 -244 578 0
446 216 227 0
525 504 -984 0
848 410 -353 0
169 418 350 0
168 -269 -350 0
-849 501 -544 0
480 180 -39 0
-478 110 94 0
584 155 -30 0
402 -733 -847 0
997 564 87 0
-578 -805 -120 0
-398 26 -397 0
-799 388 899 0
869 704 965 0
-71 611 -643 0
516 -50 -585 0
-938 -237 -795 0
259 -484 -622 0
23 936 -266 0
-657 -704 -363 0
282 52 733 0
631 -975 -484 0
126 -620 -148 0
366 845 12 0
-810 476 -415 0
781 234 986 0
-161 -150 -144 0
-376 153 -887 0
95 -919 -715 0
19 -432 275 0
-345 -984 182 0
-80 -150 637 0
-426 851 174 0
93 214 -738 0
262 325 -865 0
275 127 209 0
804 472 228 0
168 -576 856 0
603 -675 188 0
-83 -955 -786 0
-872 431 -763 0
906 -295 -326 0
959 -692 820 0
202 -947 417 0
220 991 -820 0
-576 942 14 0
-81 893 -357 0
619 -942 462 0
432 218 -695 0
270 862 576 0
-852 239 183 0
-524 628 -581 0
661 35 27 0
292 942 547 0
-170 -77 -126 0
95 410 341 0
-239 147 -699 0
-67 -832 -760 0
-99 840 -939 0
204 -258 333 0
-734 -159 -508 0
-761 -223 -880 0
-814 613 -993 0
-823 367 -822 0
-938 -458 -650 0
-673 -620 593 0
511 329 796 0
-235 559 840 0
7 138 -220 0
-939 -7 894 0
-611 337 -589 0
598 -669 937 0
463 -437 -700 0
523 -140 417 0
-950 335 645 0
220 -4 -742 0
720 -262 -856 0
-143 -825 -982 0
411 169 -479 0
412 210 -94 0
-218 -783 893 0
-5 -135 492 0
-374 -117 256 0
-379 12 41 0
-750 -336 255 0
-300 842 84 0
504 -700 342 0
-974 -53 964 0
-701 714 633 0
-596 213 -787 0
570 864 996 0
-489 -222 -339 0
353 -802 -909 0
-84 49 -299 0
736 375 575 0
145 665 -835 0
190 -526 971 0
-67 723 -423 0
-565 106 707 0
-701 205 842 0
-452 137 376 0
972 226 302 0
-657 496 -705 0
-417 -981 344 0
-457 813 -791 0
-798 -530 386 0
451 -529 746 0
323 -991 861 0
974 -445 178 0
-463 292 -21 0
67 -276 688 0
386 -855 -441 0
121 -575 -637 0
-881 -391 -120 0
-555 647 260 0
997 -455 765 0
846 -978 -186 0
-937 234 -55 0
-591 -563 -301 0
640 -989 -485 0
-91 812 -374 0
-394 369 -472 0
-992 -195 717 0
-636 228 431 0
463 -934 874 0
694 963 842 0
978 -991 -420 0
7 693 -142 0
-288 751 -796 0
549 555 151 0
-287 679 -225 0
82 553 -329 0
596 149 176 0
-819 254 -294 0
702 -359 454 0
-878 -198 988 0
-830 540 -590 0
547 -640 363 0
-409 19 -511 0
318 -959 478 0
-133 916 815 0
-492 182 371 0
-811 565 449 0
-133 -546 589 0
-270 -333 102 0
276 -78 -67 0
253 -189 -137 0
442 -59 -864 0
305 600 781 0
678 -499 699 0
466 -468 -905 0
-512 -14 582 0
845 -613 -24 0
-533 -343 -472 0
-825 -681 601 0
-986 -518 347 0
458 552 625 0
-985 254 126 0
386 -377 664 0
207 -992 -161 0
-568 857 272 0
719 254 -211 0
-397 -417 501 0
727 570 551 0
218 -964 -744 0
851 -178 113 0
-996 -813 -305 0
-872 134 -673 0
989 228 -953 0
645 -113 62 0
564 -696 736 0
-253 -397 -775 0
-952 224 -654 0
-163 172 460 0
536 936 -966 0
-606 267 -704 0
958 873 -774 0
-712 278 673 0
-109 350 -627 0
-25 287 89 0
-276 991 79 0
50 171 939 0
327 144 -268 0
-672 595 4 0
-686 195 387 0
-392 581 185 0
-343 125 145 0
405 -710 -788 0
-93 -421 -651 0
800 -846 253 0
684 -352 316 0
757 631 -340 0
-486 -766 818 0
-600 702 -158 0
-683 -802 597 0
148 -344 791 0
-987 831 -681 0
-750 758 984 0
601 -455 -641 0
-978 761 -296 0
435 -791 201 0
175 -717 -744 0
747 -202 -76 0
648 -274 -767 0
988 -710 308 0
-91 234 -700 0
413 235 624 0
89 -998 497 0
-474 342 -692 0
-114 -728 521 0
653 -210 -890 0
999 496 -327 0
-233 754 -964 0
-917 339 855 0
-679 694 843 0
883 -788 -470 0
-961 -219 342 0
776 -992 813 0
537 133 354 0
594 727 -254 0
435 338 -818 0
112 -164 623 0
-524 -605 -591 0
-136 -461 -82 0
201 -606 -532 0
267 140 312 0
989 -331 -46 0
-851 -686 -908 0
494 788 -980 0
-263 -239 -174 0
-751 789 -800 0
-129 215 -38 0
264 -571 -538 0
-572 -97 -763 0
65 777 378 0
-498 38 322 0
-996 201 -601 0
890 434 750 0
-824 -894 -500 0
-902 -969 48 0
856 -731 -907 0
-174 -279 239 0
-457 -413 705 0
1 -543 68 0
-699 51 22 0
813 -434 -458 0
426 -367 312 0
816 464 361 0
924 -801 -356 0
730 613 -712 0
131 722 -863 0
-729 -889 257 0
201 433 -96 0
46 -761 17 0
497 42 302 0
672 457 398 0
150 172 591 0
425 269 -654 0
84 -299 479 0
53 98 563 0
784 -828 47 0
-942 877 -673 0
887 -804 33 0
150 477 -403 0
739 151 763 0
584 5 -322 0
-791 -357 -768 0
-938 -799 201 0
550 16 -783 0
-209 84 -121 0
943 -105 -426 0
-640 696 -875 0
-184 -213 477 0
-869 450 244 0
654 -894 -193 0
-942 -709 426 0
-384 252 -136 0
300 53 -599 0
62 -537 265 0
775 -793 797 0
-19 -606 -87 0
-928 974 -191 0
-900 -848 296 0
-834 -895 -355 0
379 -527 986 0
-981 501 -146 0
345 -136 -6 0
640 971 973 0
-685 -703 -295 0
488 997 460 0
812 -31 -361 0
431 267 -140 0
-367 922 -95 0
511 -840 623 0
976 112 525 0
421 -381 -980 0
507 393 526 0
-713 -238 -852 0
986 -731 -436 0
-244 340 48 0
687 -97 49 0
-631 306 -418 0
919 -196 138 0
840 66 134 0
-139 191 -985 0
-719 -993 -94 0
952 -609 -204 0
394 -10 359 0
-52 126 694 0
522 397 76 0
523 118 397 0
-932 -17 -483 0
-326 -364 -521 0
-778 -742 873 0
-699 -410 478 0
-807 -126 717 0
771 104 -22 0
-976 723 -334 0
737 193 -501 0
-683 -545 658 0
484 -883 -154 0
-309 84 -633 0
85 234 -730 0
-89 -574 -691 0
-967 973 942 0
77 844 -68 0
-874 960 -366 0
378 376 637 0
-904 381 -323 0
388 564 92 0
-752 2 -277 0
851 -583 -467 0
-869 231 404 0
680 -571 -905 0
168 438 -671 0
408 464 -98 0
16 -758 -522 0
749 430 632 0
-814 285 -204 0
-944 26 -593 0
-478 512 -621 0
454 -140 -289 0
-724 999 -256 0
612 -652 -242 0
-135 -141 -157 0
-184 -164 557 0
834 -618 -711 0
191 -503 302 0
-382 451 823 0
42 -79 -13 0
-698 -891 -324 0
-185 351 677 0
-656 908 -115 0
-878 889 945 0
143 747 -146 0
-680 -458 248 0
883 102 699 0
-913 -308 454 0
-565 -24 -662 0
925 946 -968 0
-99 887 999 0
605 458 809 0
-416 378 -606 0
518 379 -189 0
-496 -939 -752 0
-362 219 372 0
439 -367 -623 0
156 160 789 0
213 553 -152 0
849 -741 261 0
247 533 -492 0
410 -190 638 0
-716 -349 -564 0
111 -869 -710 0
-247 -288 467 0
-910 56 81 0
-633 -261 115 0
-325 84 -992 0
-783 -810 -694 0
-291 -609 -997 0
117 409 -1000 0
-549 848 861 0
-691 26 -174 0
-570 -538 38 0
65 -606 644 0
912 967 -706 0
395 -426 -407 0
-276 80 150 0
-869 -421 350 0
750 519 -331 0
724 380 802 0
491 389 294 0
-954 685 -251 0
-462 306 909 0
-849 550 -844 0
-891 -12 -182 0
-232 -937 119 0
875 63 437 0
-186 320 691 0
-606 -980 -206 0
202 -920 769 0
465 243 -429 0
-340 183 320 0
240 -716 -459 0
-725 585 -980 0
-796 -81 906 0
648 11 995 0
-664 -958 -654 0
147 453 266 0
-530 551 807 0
124 -710 -11 0
-100 905 -934 0
-285 -829 907 0
-25 -339 -850 0
-407 -11 -156 0
-720 718 350 0
85 777 -195 0
323 417 124 0
-697 3 613 0
-792 -605 785 0
568 671 -811 0
412 -417 580 0
-692 949 945 0
273 -41 -450 0
-270 -988 -3 0
968 -688 234 0
58 -392 685 0
890 -83 -578 0
491 250 977 0
-577 -432 -18 0
-373 -812 -783 0
509 886 -744 0
-217 663 559 0
-693 -55 -303 0
770 -379 -294 0
233 -221 115 0
448 663 736 0
-431 -925 126 0
70 -289 -503 0
-791 -518 -862 0
216 288 794 0
-789 314 -177 0
-639 -968 856 0
553 -679 785 0
-196 -329 426 0
205 836 -519 0
565 -645 578 0
-938 188 -98 0
367 956 740 0
699 -835 681 0
-681 -961 126 0
-28 -220 -503 0
639 -259 605 0
-99 935 -741 0
-203 904 812 0
-346 921 -545 0
-927 624 279 0
636 523 -249 0
447 574 -898 0
651 -247 200 0
-625 632 374 0
399 -589 118 0
-757 965 -147 0
928 -922 264 0
702 -25 -701 0
-957 -483 907 0
974 409 -112 0
441 616 -239 0
-599 -892 472 0
721 -714 926 0
729 697 82 0
74 413 -126 0
-290 -486 878 0
751 175 -785 0
-686 946 554 0
-82 -915 701 0
333 -572 -858 0
744 851 613 0
798 -737 12 0
317 125 626 0
-298 367 126 0
635 -597 687 0
-327 -417 -979 0
-281 -834 454 0
679 -176 -883 0
423 199 -779 0
996 598 -177 0
320 -202 -667 0
977 -141 -214 0
-431 -791 912 0
177 -818 -902 0
470 -401 180 0
989 -137 588 0
565 88 487 0
-785 944 325 0
632 483 -782 0
-388 897 560 0
98 813 529 0
-607 -763 478 0
-787 -96 600 0
810 565 -589 0
-929 -426 942 0
-417 479 -594 0
538 -879 327 0
-767 -183 -219 0
870 56 268 0
729 371 -830 0
169 576 -722 0
550 150 -247 0
-777 -384 -793 0
-917 117 -886 0
-686 71 571 0
634 143 -139 0
249 -447 165 0
-883 957 -23 0
906 -830 -52 0
629 -587 824 0
500 -905 487 0
421 -805 -355 0
-327 -419 990 0
-391 -9 -985 0
177 135 396 0
108 703 374 0
-244 788 -959 0
1000 824 -383 0
402 84 -2 0
-603 -819 741 0
-287 129 255 0
-636 76 -615 0
-963 613 75 0
353 747 709 0
-459 -391 710 0
-291 -91 -830 0
-476 -749 -260 0
54 771 63 0
-512 -360 146 0
-62 -159 -737 0
-694 576 156 0
669 -462 542 0
-551 -523 -580 0
-969 -726 204 0
-228 366 35 0
179 -461 -544 0
183 371 525 0
-144 -972 884 0
-632 809 -812 0
980 978 -884 0
650 -150 633 0
-29 761 894 0
46 122 203 0
928 724 251 0
720 845 121 0
-186 633 -840 0
891 -627 675 0
-747 -991 633 0
-921 851 -879 0
714 -221 -513 0
-145 -380 -362 0
333 971 -210 0
-496 559 877 0
-287 -150 -607 0
-203 680 -431 0
387 369 867 0
717 -30 -222 0
-238 -310 -704 0
805 738 -856 0
971 247 -881 0
-154 -988 43 0
210 737 -651 0
-765 -160 -360 0
-929 -873 289 0
-401 812 465 0
-221 -540 -74 0
716 154 539 0
-96 996 361 0
399 -251 -493 0
23 286 -241 0
966 -44 694 0
904 895 588 0
136 -801 -632 0
-418 -426 -36 0
-433 542 -899 0
45 -208 614 0
312 338 605 0
-197 948 718 0
180 37 669 0
485 992 -986 0
-806 720 -450 0
-792 779 375 0
-369 -884 570 0
811 960 -292 0
265 696 781 0
27 288 -383 0
518 772 -465 0
991 -718 454 0
588 108 -167 0
-128 98 -50 0
-852 -271 -730 0
-633 -150 514 0
999 -582 -642 0
707 -489 336 0
332 870 38 0
393 -612 -876 0
-508 -439 202 0
910 -560 -920 0
-197 39 830 0
396 -461 397 0
-16 789 574 0
-775 302 579 0
300 897 654 0
-613 -935 718 0
685 688 -423 0
527 991 -81 0
632 554 901 0
-952 -554 609 0
329 -229 287 0
-510 -177 348 0
-102 681 32 0
973 -100 664 0
800 949 -596 0
343 733 497 0
192 385 -193 0
-214 238 379 0
704 -524 -899 0
587 -269 907 0
80 -708 -714 0
138 487 -122 0
-627 -863 -902 0
162 -565 -211 0
-552 565 317 0
-194 -914 -964 0
923 207 -457 0
-481 811 -531 0
920 376 -983 0
274 782 -708 0
860 155 608 0
-380 242 -313 0
451 -984 -272 0
-514 -658 104 0
-955 -633 -85 0
-716 -47 -813 0
402 -33 359 0
-842 466 -41 0
562 490 460 0
690 -497 -503 0
420 -155 -525 0
151 -72 43 0
-926 465 322 0
534 185 282 0
546 -612 -747 0
-30 632 -422 0
521 -839 -208 0
-405 -200 -358 0
-211 -690 389 0
321 673 -306 0
111 464 -508 0
-157 330 -761 0
-818 -242 -734 0
946 129 448 0
-241 -417 -652 0
-158 946 481 0
-437 -894 693 0
-302 631 29 0
-443 -288 955 0
583 -792 -744 0
532 197 -535 0
196 639 37 0
-13 -430 -209 0
-986 291 210 0
104 -774 597 0
979 -465 -732 0
-257 -32 893 0
-608 627 484 0
747 643 164 0
-230 371 138 0
881 204 806 0
-934 -678 522 0
591 205 -825 0
-916 378 -553 0
204 845 -473 0
719 -309 2 0
194 -989 -81 0
638 796 328 0
22 716 -765 0
13 298 681 0
-985 -253 975 0
333 -838 -813 0
380 195 -533 0
747 187 399 0
245 56 502 0
-375 -590 -824 0
550 -552 389 0
-900 621 869 0
-734 644 -219 0
-353 796 -115 0
-499 293 116 0
670 -624 74 0
-14 292 495 0
-692 546 246 0
-521 311 -337 0
-435 -182 650 0
750 -531 -51 0
492 695 222 0
-786 -76 109 0
-606 757 -123 0
491 594 911 0
-362 -292 -545 0
373 540 528 0
-128 -298 523 0
-116 428 377 0
-244 19 36 0
-815 462 -624 0
260 95 12 0
216 994 463 0
169 -514 87 0
-291 -4 -347 0
71 -967 -28 0
-614 955 702 0
704 340 -108 0
473 363 345 0
286 880 -850 0
299 255 593 0
581 -805 -20 0
-910 -237 107 0
898 819 -640 0
-261 565 961 0
562 -946 -470 0
805 658 991 0
-758 -183 -962 0
299 927 370 0
498 477 199 0
-258 -383 200 0
592 -137 -495 0
509 -518 385 0
519 -56 -833 0
-39 -263 -815 0
305 -405 -657 0
884 -164 -333 0
601 -884 345 0
-117 -500 191 0
-633 369 -899 0
-514 232 -920 0
425 204 -623 0
-855 92 477 0
991 775 557 0
-722 273 -916 0
295 19 -153 0
-252 -156 -179 0
-254 -298 697 0
121 -479 -994 0
677 -182 366 0
-46 935 305 0
902 -637 995 0
-560 -160 -780 0
543 863 -440 0
709 960 286 0
33 -998 -169 0
523 427 -557 0
-659 468 -346 0
185 -300 123 0
-3 379 -155 0
-337 386 216 0
-675 519 946 0
910 -577 -254 0
-169 602 -892 0
81 964 295 0
-162 561 258 0
188 48 -89 0
-264 -462 716 0
-154 -218 446 0
-394 -157 248 0
917 979 -576 0
511 715 -410 0
500 -643 -803 0
-522 -376 329 0
992 -494 -786 0
104 561 926 0
-964 -89 93 0
-359 -445 552 0
-319 454 519 0
236 -309 771 0
727 -566 -997 0
-350 -972 -513 0
-377 -422 116 0
846 966 303 0
747 -492 -863 0
236 138 493 0
923 674 -817 0
17 832 -365 0
-54 -963 -157 0
-90 -557 -868 0
-25 -274 902 0
241 -413 60 0
-578 -776 -680 0
567 257 500 0
707 794 748 0
329 736 270 0
-346 362 -472 0
466 -338 899 0
944 994 -449 0
-223 125 -287 0
731 957 197 0
-955 42 245 0
-906 -873 227 0
-895 495 71 0
741 523 -79 0
-796 -2 -3 0
229 506 862 0
-546 -731 920 0
-520 -301 -21 0
4 811 -345 0
-570 620 447 0
961 755 860 0
896 -252 -161 0
-422 -624 -491 0
313 -886 -341 0
-470 172 478 0
933 -250 517 0
-606 -868 -788 0
-862 759 -420 0
-569 -786 999 0
-89 -901 622 0
342 741 -997 0
-875 445 509 0
934 8 -911 0
807 414 -396 0
425 303 850 0
723 982 974 0
580 -235 -803 0
-937 234 979 0
-186 -474 605 0
-18 302 -874 0
-494 -573 22 0
878 939 -429 0
-530 -771 -802 0
-291 608 -916 0
983 201 167 0
799 -868 464 0
593 369 -169 0
-402 598 -704 0
528 -81 987 0
-89 -118 189 0
-537 565 50 0
255 654 -123 0
558 -586 404 0
43 -752 844 0
158 740 194 0
784 -490 -16 0
539 -415 689 0
859 -609 -780 0
513 451 -668 0
-520 341 -14 0
-998 560 -615 0
588 576 571 0
291 833 274 0
454 -884 -271 0
-77 944 417 0
812 -218 319 0
392 -526 507 0
328 714 443 0
-530 86 533 0
609 574 -567 0
-97 -2 -844 0
360 113 706 0
-114 -135 878 0
386 691 453 0
533 -915 -92 0
933 -9 246 0
-560 70 617 0
-241 617 -172 0
-22 -421 787 0
-875 -194 -305 0
-998 624 -100 0
851 -676 -995 0
-214 303 -902 0
898 -601 -193 0
305 247 303 0
879 -578 -773 0
-87 793 -811 0
704 545 819 0
140 868 864 0
919 1000 -12 0
173 974 -798 0
-406 -528 -59 0
-235 983 -843 0
-489 -615 868 0
-222 -118 743 0
-678 655 -896 0
58 319 417 0
806 -935 -302 0
-539 -160 -172 0
-575 757 626 0
337 -318 -784 0
191 -468 -185 0
-137 25 -631 0
-357 197 817 0
90 523 -429 0
480 -586 -309 0
-217 -472 -939 0
7 -533 718 0
-199 -387 -537 0
-662 -933 747 0
309 -300 -800 0
-645 972 -94 0
560 582 745 0
108 747 513 0
767 -9 -638 0
-89 113 999 0
-245 27 985 0
-903 -119 -611 0
-387 779 512 0
884 91 -439 0
-680 25 -135 0
-912 -486 103 0
120 -714 878 0
-866 797 -566 0
-673 -460 443 0
-348 -870 -63 0
-359 301 615 0
-275 -306 -22 0
490 -79 169 0
-517 -997 790 0
-517 -268 185 0
557 -570 287 0
-380 -279 454 0
-902 -896 597 0
614 442 380 0
-769 14 142 0
-316 -393 978 0
267 -439 -205 0
-486 -217 79 0
817 -163 787 0
581 917 -520 0
557 447 -627 0
-815 265 985 0
712 -940 355 0
3 539 968 0
37 -511 568 0
-726 -703 531 0
-196 -136 7 0
-415 922 -273 0
-920 -549 -71 0
-753 579 836 0
319 -183 962 0
-489 -212 816 0
656 -437 802 0
344 -354 -158 0
289 866 -753 0
-218 895 -467 0
-202 49 -801 0
-584 67 -686 0
-20 -896 755 0
-486 -869 -256 0
-948 445 -742 0
529 -212 772 0
-2 -326 -17 0
253 -541 -897 0
811 -460 805 0
-888 -600 -983 0
-335 458 387 0
-974 575 -941 0
-367 -262 -324 0
343 -692 -896 0
584 953 649 0
-516 -683 -705 0
373 79 623 0
158 736 -619 0
-420 -523 19 0
402 642 180 0
241 597 817 0
889 -920 457 0
-563 395 627 0
-64 -672 -507 0
565 642 492 0
487 911 68 0
-867 470 234 0
573 836 289 0
-835 -563 6 0
511 -930 -686 0
-238 -249 546 0
-477 -445 -676 0
-676 -595 660 0
934 403 340 0
-107 -195 433 0
834 -432 -495 0
738 -636 811 0
-429 -668 -867 0
-958 515 633 0
-946 429 -530 0
88 -638 -963 0
-534 237 -977 0
110 -945 -295 0
-434 867 28 0
937 269 458 0
-451 339 41 0
310 -880 -395 0
63 88 19 0
910 341 -692 0
856 -161 -754 0
665 580 -818 0
823 199 242 0
-672 -802 899 0
-637 -808 -190 0
-901 712 57 0
600 -725 215 0
-666 -242 -617 0
828 231 392 0
-211 983 265 0
111 -194 -725 0
-197 165 400 0
824 21 739 0
546 -240 997 0
607 -964 -411 0
156 429 345 0
352 -834 -851 0
22 -745 128 0
771 756 -322 0
-859 989 -603 0
162 114 838 0
178 750 -280 0
714 10 55 0
778 -90 406 0
-698 712 -648 0
-686 239 451 0
457 -917 -677 0
-59 -600 -186 0
-811 348 -471 0
-37 890 -974 0
-304 431 -627 0
-869 599 490 0
-921 665 212 0
33 609 461 0
-244 800 486 0
258 -47 -754 0
-34 -514 -800 0
911 -931 -518 0
-460 934 785 0
679 670 -831 0
-703 -486 604 0
957 931 -392 0
510 -764 193 0
841 -453 472 0
-104 42 787 0
-698 -314 782 0
245 201 -364 0
-885 -999 -99 0
7 -774 108 0
713 -601 186 0
-582 -713 -9 0
75 130 912 0
-326 -115 -948 0
387 -720 798 0
21 -225 -610 0
-893 98 -572 0
797 -128 -181 0
147 990 202 0
76 -253 101 0
803 -591 410 0
-429 -754 -667 0
-733 -171 -623 0
98 613 -265 0
-430 -657 748 0
-306 -684 866 0
-615 77 -401 0
-336 -796 -95 0
140 621 -853 0
686 -545 -914 0
989 547 598 0
257 499 -611 0
517 661 709 0
-655 -472 -403 0
-443 -163 892 0
-362 328 149 0
120 -416 733 0
845 -291 -460 0
-318 550 79 0
375 249 -755 0
815 -676 -219 0
562 -309 -911 0
-311 344 922 0
256 -787 -33 0
695 -752 836 0
893 -234 -433 0
662 -402 -370 0
-623 291 598 0
815 541 256 0
-919 385 -182 0
-327 -937 -355 0
-183 872 -425 0
501 358 -229 0
338 -727 -819 0
671 -219 431 0
-406 -526 286 0
250 -366 -248 0
-274 600 59 0
-951 57 729 0
-228 -995 835 0
-579 -615 -936 0
552 184 672 0
-563 953 732 0
284 474 624 0
-264 -16 536 0
787 187 -941 0
603 -728 230 0
484 363 333 0
50 -163 -298 0
-121 711 -303 0
-944 -600 435 0
522 6 -705 0
-161 800 984 0
417 -919 955 0
664 490 788 0
229 306 -593 0
857 873 593 0
263 309 946 0
-429 707 -252 0
668 -813 -334 0
-55 986 990 0
-708 408 -163 0
-778 -170 -216 0
-661 452 -273 0
-519 -846 -37 0
330 -448 127 0
-61 500 -567 0
870 830 425 0
-369 569 894 0
-8 -244 846 0
881 -454 -230 0
-423 200 564 0
304 -140 873 0
-551 -477 -906 0
859 -287 -742 0
-819 -816 -357 0
-524 -971 -846 0
-501 -360 582 0
511 -185 -138 0
-903 78 -629 0
-509 -562 -198 0
627 -401 -502 0
-782 156 694 0
-102 -304 743 0
-481 -377 -348 0
324 -535 619 0
269 445 -453 0
384 -389 724 0
361 190 -381 0
-112 -968 -921 0
489 -430 -849 0
-88 -19 -179 0
878 397 239 0
983 -258 -157 0
534 -533 708 0
846 885 841 0
-432 958 649 0
-413 618 76 0
-928 -303 160 0
-837 219 -645 0
-619 800 990 0
-846 -642 397 0
-594 -730 475 0
225 17 723 0
-303 -870 986 0
297 677 327 0
230 727 -203 0
-695 -45 990 0
995 692 432 0
473 -37 -377 0
904 -941 152 0
-243 756 485 0
-237 -5 -121 0
-564 -739 -507 0
970 198 -997 0
550 -174 -262 0
96 375 -374 0
691 938 -304 0
-708 903 -109 0
805 453 190 0
-359 276 623 0
870 -449 128 0
976 705 460 0
-684 -952 749 0
344 640 157 0
780 794 766 0
-17 -736 -420 0
-273 -468 -824 0
-27 703 -234 0
-135 -498 -83 0
477 -33 -794 0
-436 -855 134 0
-973 274 -707 0
-760 870 -341 0
-527 791 678 0
-512 -324 385 0
908 -251 881 0
-282 925 160 0
-182 -496 429 0
-41 991 641 0
485 -804 -790 0
-220 -527 673 0
-4 333 577 0
572 -499 -558 0
547 613 -176 0
-782 234 364 0
102 -809 -545 0
-298 678 557 0
764 117 978 0
-546 56 -200 0
-369 -608 39 0
-913 -503 881 0
334 28 -858 0
-614 -448 -277 0
278 -305 861 0
-762 -619 89 0
539 -627 719 0
-768 -758 -441 0
-998 327 582 0
595 321 102 0
-241 292 1 0
-242 877 -451 0
694 744 -159 0
279 32 -838 0
-606 -341 -756 0
498 -677 281 0
257 -176 523 0
-259 -93 -359 0
-932 -42 -757 0
-190 -328 -727 0
953 454 -635 0
-191 -232 -804 0
621 -152 777 0
24 282 -126 0
-253 -37 136 0
293 -134 369 0
-123 -101 715 0
705 -246 -69 0
333 735 425 0
785 -437 -532 0
108 107 -540 0
-564 -494 814 0
-39 -829 -766 0
868 86 -757 0
-609 -603 -27 0
796 623 290 0
359 262 -66 0
-568 -933 771 0
182 72 -635 0
-468 -974 -568 0
-427 671 118 0
243 -575 -983 0
-120 -387 743 0
-461 828 636 0
559 -625 -68 0
135 905 252 0
-195 10 -641 0
623 620 -378 0
848 -658 48 0
-827 -489 -876 0
-56 881 55 0
-749 354 774 0
-396 -879 -300 0
-580 -982 -630 0
68 488 448 0
693 -938 -148 0
-631 -88 -954 0
408 185 -420 0
116 526 339 0
587 -389 -624 0
459 -109 770 0
-157 388 -495 0
-467 634 209 0
387 646 -62 0
-901 248 -867 0
130 -520 224 0
196 836 875 0
94 -828 -926 0
-649 -313 -155 0
-205 814 -384 0
-832 -803 -907 0
-549 -273 425 0
-243 436 814 0
-485 -505 898 0
269 253 -277 0
8 -484 862 0
-425 -919 -599 0
-104 827 788 0
610 -549 -163 0
37 -300 937 0
542 315 650 0
353 -200 -549 0
400 -703 25 0
859 636 176 0
206 890 -273 0
201 154 -754 0
885 109 -320 0
-538 424 -712 0
3 -388 976 0
903 -518 -941 0
187 -997 -731 0
50 -506 -304 0
34 -31 350 0
435 523 -306 0
-816 700 -229 0
-122 980 721 0
343 -293 38 0
-16 95 -524 0
-472 175 233 0
597 205 638 0
521 397 920 0
-247 -882 -487 0
-603 -798 -463 0
526 -525 504 0
-246 -432 -525 0
-935 -451 376 0
229 910 -456 0
-664 890 36 0
605 410 16 0
315 181 152 0
725 -767 256 0
347 -442 621 0
653 -564 485 0
665 342 585 0
156 129 -784 0
586 -117 -733 0
-293 494 19 0
417 66 -529 0
801 143 187 0
913 -367 -819 0
-301 620 21 0
-651 945 -267 0
-949 299 249 0
298 765 -970 0
-450 -389 53 0
-216 -49 -966 0
658 -108 9 0
146 -867 -65 0
969 -730 -165 0
-847 421 978 0
-806 -684 129 0
-655 -650 -32 0
830 -613 -391 0
-439 383 370 0
502 264 -173 0
-340 470 847 0
74 -194 -602 0
-125 -177 486 0
957 -677 -329 0
-600 -153 911 0
150 -183 279 0
-64 -71 -633 0
-96 -317 378 0
827 165 470 0
-484 -968 -33 0
-776 -164 8 0
33 785 928 0
-27 -432 -905 0
926 -766 -831 0
-684 252 -979 0
831 206 763 0
-303 683 619 0
-666 37 -458 0
-323 85 377 0
-323 455 -32 0
-147 286 956 0
824 -227 -751 0
-482 633 770 0
562 -178 -250 0
-108 -902 922 0
40 92 -565 0
435 -935 945 0
805 -253 259 0
961 603 909 0
814 488 432 0
-13 -657 904 0
96 -967 79 0
109 -229 665 0
667 -784 329 0
68 -268 -310 0
891 -548 817 0
-899 -350 -594 0
-172 190 -714 0
-877 156 640 0
-624 636 546 0
-988 -153 398 0
867 851 496 0
-592 -671 -934 0
-1 -496 -3 0
848 -397 -828 0
943 -294 -26 0
431 -81 -893 0
451 -490 -166 0
-883 483 433 0
373 -182 -972 0
2 925 -211 0
-970 -311 -87 0
52 328 -826 0
-248 -638 -300 0
76 578 436 0
-297 561 -917 0
-544 599 810 0
372 387 362 0
-939 -572 -194 0
756 543 603 0
-194 513 229 0
-93 542 833 0
-129 -86 28 0
-598 -545 -87 0
-355 747 -188 0
-106 321 -174 0
142 -34 -68 0
-922 -140 -799 0
-159 -225 -453 0
326 -864 659 0
755 -891 -492 0
-314 -146 -324 0
731 39 -630 0
17 231 764 0
-743 -524 365 0
-774 628 -14 0
-99 165 949 0
291 937 365 0
60 -74 -220 0
-241 43 -172 0
373 117 -33 0
510 27 -473 0
-90 -374 -226 0
-139 116 240 0
-169 883 889 0
-807 105 -925 0
715 980 353 0
-675 920 -601 0
-257 -328 -786 0
-680 118 963 0
-29 950 304 0
-217 272 570 0
-907 631 -765 0
-981 979 484 0
-702 893 54 0
-36 283 -538 0
-137 -940 301 0
-564 -56 77 0
909 -968 -30 0
-359 805 260 0
121 390 -285 0
728 -559 -480 0
-986 575 -970 0
-881 -651 870 0
-734 94 13 0
564 666 78 0
-511 287 534 0
217 867 -601 0
431 -623 532 0
331 -714 760 0
-228 -753 80 0
-802 -631 34 0
473 -973 366 0
-73 -996 -426 0
144 435 758 0
881 115 -523 0
304 671 -186 0
427 -996 903 0
-895 964 379 0
153 775 487 0
560 -282 -315 0
992 31 -628 0
285 -327 -323 0
-463 931 -737 0
305 146 -746 0
854 -202 -943 0
-650 -706 -269 0
177 125 434 0
-685 -104 790 0
293 709 -202 0
-823 -17 251 0
-269 -719 357 0
-91 -121 -860 0
227 761 -36 0
555 32 359 0
524 -409 -583 0
62 376 -25 0
60 -296 -470 0
-432 -680 -728 0
356 -946 -743 0
769 -422 131 0
-661 -129 118 0
-464 -565 -213 0
-601 159 525 0
422 39 657 0
-125 -786 -575 0
212 767 -1000 0
-81 811 522 0
-582 -18 -216 0
-620 32 50 0
-681 -123 -680 0
387 986 -108 0
483 -800 -714 0
611 103 -230 0
-433 -537 707 0
932 -712 69 0
-334 -427 -152 0
-505 -859 503 0
-209 305 -907 0
-601 -493 350 0
733 -740 -934 0
257 -940 -715 0
949 -827 788 0
-754 -1 -808 0
801 671 -298 0
-372 -227 -833 0
764 -383 -20 0
-376 -494 150 0
306 -300 -67 0
-412 -299 -57 0
-129 -128 -776 0
505 -214 -684 0
990 -104 82 0
-899 377 -51 0
442 -805 449 0
-588 105 -292 0
596 791 604 0
-498 966 915 0
519 -652 587 0
38 -482 406 0
-626 -654 886 0
-381 -492 436 0
-867 -769 -245 0
299 -696 893 0
833 467 -924 0
555 -292 220 0
-751 -741 -671 0
-858 636 -874 0
884 221 -845 0
541 269 854 0
-53 -987 747 0
-262 -492 -855 0
337 422 -443 0
469 -805 -306 0
-715 -952 990 0
721 657 -469 0
115 -326 56 0
105 -254 -744 0
710 -426 123 0
782 718 -738 0
367 -138 632 0
816 892 891 0
-183 -566 -442 0
703 -672 -252 0
-71 -743 530 0
421 -335 180 0
782 70 720 0
-569 838 31 0
-302 921 498 0
741 -284 275 0
74 529 -275 0
-549 229 -906 0
-696 759 -762 0
394 250 412 0
39 -813 -969 0
-794 -159 -257 0
704 -277 -236 0
114 81 718 0
-379 757 -802 0
-969 -63 469 0
-936 547 -438 0
-601 -919 -424 0
-237 537 724 0
673 -758 982 0
413 532 -92 0
998 -614 504 0
206 61 -749 0
-947 -41 -891 0
427 -555 563 0
359 -802 -186 0
-276 -12 -448 0
-45 -972 427 0
-477 -99 -890 0
-964 -321 875 0
516 -780 -957 0
582 135 -195 0
-979 933 409 0
108 238 -947 0
870 -258 148 0
53 -414 -193 0
241 526 -322 0
-528 656 -896 0
226 -754 191 0
579 -425 -556 0
674 470 -942 0
-517 -291 951 0
-105 891 246 0
-334 906 -383 0
-425 683 -628 0
948 280 248 0
-403 697 837 0
803 841 -802 0
552 553 -293 0
-326 -341 962 0
841 156 886 0
-449 995 -292 0
-484 45 901 0
686 142 -219 0
-213 933 -205 0
432 -992 -680 0
70 659 338 0
116 521 -703 0
291 -616 362 0
170 -821 -339 0
150 -526 735 0
-176 -426 -576 0
-93 227 908 0
887 -732 -411 0
834 496 324 0
48 890 405 0
-212 293 -299 0
466 859 164 0
-935 -985 188 0
-783 -294 -941 0
111 865 441 0
-498 -78 46 0
722 -628 -594 0
571 -33 -159 0
956 -348 115 0
547 92 411 0
153 263 64 0
1000 -665 145 0
-946 -813 196 0
-752 396 -281 0
-257 861 -86 0
-247 -712 663 0
572 -896 339 0
-70 743 549 0
518 -755 -79 0
538 -776 943 0
975 567 773 0
527 82 -650 0
342 -703 -161 0
195 301 634 0
858 -970 -451 0
87 -328 -496 0
408 412 -894 0
-91 752 -760 0
512 56 -460 0
682 -367 -773 0
206 367 897 0
920 932 -808 0
864 -346 -612 0
575 -339 372 0
177 -839 94 0
-205 -139 -74 0
45 336 840 0
-967 -105 -767 0
-76 -867 -339 0
-132 159 74 0
441 -115 -509 0
-769 -684 -152 0
466 719 157 0
-876 785 -233 0
-188 -662 -785 0
-326 -381 -129 0
128 589 717 0
774 -17 872 0
-135 187 -674 0
-125 -299 817 0
342 -248 68 0
-349 311 -184 0
357 -171 204 0
976 -764 868 0
513 672 142 0
-879 -844 901 0
76 -879 651 0
-651 137 -236 0
825 -370 -836 0
-808 -406 -249 0
-909 -692 -176 0
-690 -210 -813 0
-298 448 -288 0
-629 -960 284 0
-807 851 -354 0
686 542 -875 0
669 546 712 0
-350 -782 -628 0
974 69 805 0
605 56 -510 0
53 887 -938 0
727 -501 679 0
720 355 -602 0
-577 -928 637 0
-530 71 479 0
516 919 278 0
-147 839 176 0
900 556 938 0
-159 -111 61 0
647 153 581 0
694 -823 544 0
361 -698 746 0
798 190 -231 0
-521 311 -866 0
159 -580 781 0
-972 -299 -209 0
335 448 62 0
909 938 -600 0
404 -970 201 0
513 -427 279 0
-585 -211 726 0
809 -309 933 0
732 -362 -350 0
-287 46 -199 0
191 339 -579 0
341 -882 -343 0
586 -298 -289 0
146 871 -434 0
108 -595 -626 0
-55 -278 -633 0
-780 369 401 0
-171 -988 -756 0
-413 286 290 0
-352 329 -452 0
-579 -269 -605 0
-841 -933 756 0
-220 297 -84 0
119 546 -732 0
-586 -210 -417 0
-547 -893 944 0
792 746 267 0
-89 109 775 0
-762 909 866 0
160 941 990 0
-889 136 -850 0
190 259 199 0
-200 -238 560 0
953 543 -909 0
252 -4 859 0
-260 -653 769 0
862 -112 420 0
-458 -792 442 0
286 889 -431 0
820 584 -615 0
-695 179 594 0
212 231 -754 0
-293 877 199 0
545 -524 -505 0
-235 -876 973 0
-886 -299 -151 0
-484 585 -573 0
303 658 89 0
-586 -116 -364 0
49 119 959 0
732 228 188 0
-482 210 -588 0
294 -112 208 0
977 421 -283 0
-34 896 -320 0
791 879 547 0
-206 -927 -314 0
992 -324 -551 0
793 624 180 0
577 465 452 0
379 298 596 0
519 -353 621 0
511 808 53 0
745 -763 -614 0
-245 870 512 0
579 670 -40 0
461 -186 -380 0
-907 171 -575 0
211 728 -556 0
-363 105 276 0
-717 -791 58 0
-350 -308 446 0
73 833 -810 0
-415 -361 493 0
451 436 -988 0
84 -644 -655 0
-442 680 155 0
16 363 190 0
-508 -224 994 0
761 9 148 0
374 -901 -402 0
576 337 335 0
-342 101 -131 0
872 -127 -734 0
783 -400 321 0
127 -971 -372 0
-395 62 -255 0
-139 -59 -940 0
126 971 -833 0
608 -961 -451 0
40 -234 159 0
-702 914 862 0
561 -323 54 0
120 657 440 0
628 123 176 0
700 577 -630 0
-293 184 -20 0
-288 786 933 0
-848 -615 -611 0
-239 146 -870 0
-25 -416 -838 0
-977 -111 -591 0
855 -526 -462 0
-985 -667 229 0
682 -43 120 0
277 -787 -927 0
409 -962 892 0
457 135 612 0
-677 940 236 0
472 571 -877 0
-325 -191 -148 0
-74 716 164 0
312 160 299 0
-649 752 -218 0
-140 880 -835 0
-257 -915 933 0
-558 -977 836 0
146 223 271 0
601 -138 383 0
-176 384 986 0
471 383 -381 0
-233 539 156 0
-355 -621 449 0
315 20 -883 0
58 129 648 0
-635 -595 -494 0
256 371 586 0
331 -58 -1 0
-184 42 593 0
868 46 279 0
-546 -174 -246 0
250 -175 825 0
720 -448 -936 0
-531 354 708 0
325 -237 -98 0
376 -258 -697 0
-426 874 711 0
174 -713 134 0
616 513 -994 0
-738 182 173 0
-910 957 -56 0
-633 -199 293 0
-463 -317 355 0
811 -240 135 0
401 729 -151 0
730 949 287 0
430 -418 496 0
623 637 -459 0
-113 923 -139 0
959 683 -457 0
-420 -681 -290 0
739 -944 -381 0
-547 -991 264 0
363 733 -510 0
-183 -777 -332 0
193 -842 892 0
-47 -294 -14 0
-936 -875 -296 0
-584 -232 262 0
810 511 726 0
410 -302 189 0
563 146 815 0
373 -245 -270 0
-64 412 -713 0
769 425 -872 0
-581 375 -374 0
25 739 41 0
-309 -221 -299 0
657 562 450 0
982 -179 -30 0
-10 836 -112 0
-251 -315 938 0
392 -357 -424 0
417 -477 -274 0
-76 367 -301 0
-388 -183 649 0
757 123 -858 0
482 -634 623 0
-23 497 -663 0
-524 -162 631 0
-442 -638 534 0
-768 588 539 0
625 -454 494 0
-631 -300 91 0
838 764 499 0
-767 331 597 0
-413 251 228 0
-512 -288 -592 0
339 365 -343 0
285 854 -391 0
34 780 -610 0
-582 363 11 0
87 549 325 0
623 -533 451 0
-201 900 -742 0
-713 840 -199 0
283 942 -129 0
195 117 -406 0
52 137 -951 0
528 -285 269 0
-943 -247 687 0
-202 -442 -444 0
844 676 -856 0
7 501 613 0
-458 -945 -126 0
936 -812 -816 0
-5 -805 -206 0
497 726 939 0
117 -490 717 0
731 -797 -100 0
-4 476 -993 0
834 -482 -941 0
697 -910 833 0
-917 742 334 0
599 -697 -598 0
775 4 -929 0
798 -356 -413 0
-861 191 -37 0
856 281 -315 0
-442 -461 -944 0
627 104 -937 0
181 545 -124 0
-136 603 784 0
-1 -914 -76 0
-553 -663 978 0
-399 275 461 0
125 587 956 0
315 -183 583 0
72 406 -586 0
248 -10 902 0
771 451 -858 0
-444 -142 816 0
483 410 -131 0
-965 472 663 0
-278 -805 -297 0
-144 673 891 0
-901 875 317 0
102 358 -805 0
-142 -248 -462 0
-756 -984 331 0
810 481 -710 0
879 787 -553 0
620 754 680 0
427 773 647 0
-237 604 69 0
-174 -623 239 0
-274 560 -62 0
487 844 526 0
166 972 -784 0
680 -655 -843 0
305 606 101 0
-425 104 -916 0
-898 99 131 0
135 -602 119 0
166 942 -826 0
-451 -812 813 0
-246 923 -779 0
31 506 776 0
309 -900 -228 0
-153 -699 -224 0
-417 913 224 0
818 411 -762 0
-801 948 194 0
305 340 274 0
962 163 689 0
884 284 410 0
-131 450 440 0
-45 709 768 0
841 383 -494 0
230 41 -766 0
-722 -128 -13 0
114 -991 -484 0
-366 517 -828 0
356 159 -99 0
-985 -176 265 0
700 80 -821 0
-489 -841 948 0
78 297 -784 0
-115 -368 -132 0
422 -953 -93 0
718 433 370 0
998 242 712 0
21 496 -138 0
-359 201 303 0
328 265 123 0
-995 874 676 0
-526 51 -876 0
320 484 -80 0
945 486 -34 0
-269 -539 99 0
223 -591 968 0
600 623 -416 0
801 -38 -325 0
-69 686 24 0
900 -312 -569 0
-627 -999 -91 0
-954 -453 671 0
-575 -953 -735 0
-298 773 -544 0
-127 795 9 0
-346 -874 -310 0
-173 -104 793 0
273 31 -550 0
-225 -271 238 0
-458 650 -66 0
887 -121 498 0
63 -355 556 0
799 456 -437 0
-511 577 628 0
386 -464 -857 0
132 -714 -986 0
253 730 985 0
985 609 187 0
269 311 116 0
-542 216 987 0
-963 418 -361 0
215 -457 -959 0
-964 -950 -736 0
-164 -591 394 0
620 -709 -894 0
664 641 932 0
875 754 -31 0
702 890 545 0
499 667 -350 0
-133 190 580 0
-15 -329 -548 0
-113 -825 -565 0
-651 873 -484 0
959 -905 -136 0
-643 -727 221 0
-138 -497 152 0
-584 923 -847 0
-808 -120 -101 0
221 -329 -618 0
-394 -712 955 0
-894 873 -870 0
177 -181 716 0
-454 598 -906 0
32 -630 -263 0
-34 102 -35 0
-859 -122 962 0
-452 -566 -12 0
-222 -770 -160 0
-466 -607 -814 0
943 -9 -726 0
222 617 -737 0
735 -116 -947 0
714 671 -134 0
-302 -518 975 0
52 -168 -418 0
873 565 486 0
968 -297 -170 0
-65 -770 152 0
-243 733 628 0
551 960 570 0
-388 728 60 0
-737 -833 228 0
434 -690 -197 0
63 279 -455 0
-162 653 635 0
678 178 167 0
334 265 -429 0
408 893 -376 0
-56 732 -878 0
205 116 768 0
-262 -184 -597 0
-148 -402 393 0
-177 883 -631 0
332 -197 -337 0
971 345 -224 0
-163 -945 992 0
131 850 50 0
-605 -946 717 0
-343 -590 -638 0
106 -536 438 0
851 877 -93 0
-229 78 -711 0
30 212 -622 0
541 -69 409 0
-456 -32 314 0
-322 -954 -766 0
-46 404 -684 0
729 -633 243 0
345 808 -542 0
654 818 918 0
-444 443 -604 0
-41 943 -305 0
606 -537 -869 0
592 -491 -455 0
-506 99 -86 0
-429 -978 -384 0
-210 -518 659 0
882 575 340 0
681 823 554 0
280 782 -542 0
131 -251 -605 0
960 -515 189 0
-588 -425 596 0
814 -731 -511 0
158 595 -952 0
643 -939 196 0
-433 720 -211 0
-901 -917 32 0
-80 -158 -818 0
-661 -900 -672 0
594 502 -89 0
-292 -956 -125 0
-881 858 153 0
-541 384 -351 0
515 -896 -271 0
37 485 -317 0
67 79 -592 0
-700 361 -304 0
333 -225 -64 0
-365 -153 -659 0
-279 483 -891 0
-535 570 635 0
406 -84 -36 0
179 -260 707 0
45 744 924 0
-554 -48 41 0
206 -961 -20 0
-277 -589 -622 0
142 866 916 0
750 -288 -26 0
-629 -897 -350 0
800 -911 552 0
828 133 -705 0
