c Large 3-SAT formula for GPU testing
c 5000 variables, 21500 clauses (ratio: 4.3)
p cnf 5000 21500
-1133 4922 3208 0
-2647 618 -1758 0
-4049 -499 -4167 0
2902 -2358 4733 0
-708 457 2121 0
2405 4339 4233 0
-4052 1691 4240 0
-2320 1681 -1991 0
4566 -3965 -4784 0
-376 -1985 4456 0
-3183 2720 3339 0
4682 -2988 3899 0
-1358 -803 2382 0
-2164 -2969 4540 0
4839 1166 -3246 0
4446 3545 -1236 0
3169 -675 -928 0
-2867 3294 -2507 0
461 4653 -4122 0
-397 761 -4080 0
-2714 -4481 -2430 0
271 3259 856 0
-4182 1106 -1732 0
865 17 4980 0
-2455 -2698 -3890 0
1175 1529 -3238 0
-1467 -3938 -2681 0
2156 3780 2990 0
344 3588 2150 0
3984 -3758 1921 0
3866 1068 4255 0
1694 3722 1118 0
-3977 3909 3996 0
-1674 -4216 -4270 0
-288 -2904 -4471 0
2190 -3949 -2757 0
4891 -4615 -3142 0
2080 -3390 -4375 0
2353 2710 1694 0
-4063 4158 -2528 0
4471 687 -2162 0
-1869 2059 -1973 0
-4946 -4070 1295 0
-1185 -2116 -1595 0
3977 4421 -3254 0
-2338 3403 -1721 0
-3109 -1412 4482 0
-2778 -1545 4577 0
-1420 -2732 3507 0
-1984 1891 2533 0
-5000 4092 614 0
-3233 1802 -1741 0
866 1951 -3786 0
2097 3867 -622 0
1897 1329 2141 0
-4845 -985 -1620 0
2265 -3154 4546 0
3471 2912 -4678 0
-4819 4725 -1479 0
-4964 612 4337 0
4192 3691 1107 0
-3641 -3821 -2104 0
4203 1119 1045 0
485 2612 -3763 0
2352 -4509 -2288 0
2574 -2228 2445 0
-1265 -2404 2755 0
-2210 1606 -2647 0
-3241 -3764 -3973 0
419 -433 -1198 0
-2152 2211 2859 0
-3373 27 1211 0
946 3489 -4565 0
1133 -2429 4432 0
-1286 1707 -3670 0
3987 2251 -458 0
-3559 -3944 -4878 0
-4291 2927 -4568 0
-1446 -4232 648 0
-1188 -755 229 0
-2124 -2663 3948 0
4335 4466 132 0
-526 -4778 3413 0
4673 -4868 -3276 0
-2643 -2762 -2607 0
-4911 3569 -4351 0
-4280 -1973 -357 0
-4748 -2929 1084 0
-1387 4433 2282 0
-3806 -3255 -1187 0
4753 3128 -3596 0
-3546 3446 -2995 0
-2836 -3090 -2555 0
-4962 391 4778 0
-4414 -3160 3199 0
3932 -4958 -4067 0
-1901 -1831 4700 0
1706 4709 -1196 0
-1975 -211 -2894 0
-3763 -2130 4181 0
945 3127 4698 0
1980 -3757 1525 0
-3657 -3285 800 0
4838 -1385 -4892 0
4860 -1982 -4559 0
-3389 1167 1489 0
2644 1389 903 0
1759 -196 3699 0
-4901 3260 3016 0
273 2224 3621 0
-933 3252 -4452 0
2819 -1792 3647 0
3806 -2884 1222 0
3966 388 1186 0
4243 -3362 3453 0
-1600 3184 3500 0
3264 -1498 -3469 0
-2736 4053 -3026 0
3046 4793 2720 0
2327 -3244 2989 0
229 3854 699 0
-4893 4675 280 0
-1092 -2705 -3566 0
995 399 3349 0
-3323 79 3986 0
2673 3232 2175 0
985 -4252 3820 0
-4650 -3797 -2363 0
2523 2880 2706 0
1744 2444 4935 0
1034 -2347 3239 0
-1669 4756 -2433 0
3377 4400 -4323 0
-970 2604 3090 0
515 -3757 206 0
4775 1139 -962 0
-2700 3655 3832 0
1195 -3486 242 0
113 -4446 -2021 0
-724 -4329 -4514 0
-3855 1140 2280 0
1825 321 3990 0
-4495 -2647 -2892 0
1678 4054 1587 0
1504 -147 -4979 0
-2278 -3165 986 0
-1195 -3284 -3599 0
4233 -2600 4470 0
3623 -937 4244 0
-3318 -4473 2032 0
-1807 -3113 -1130 0
925 33 1875 0
-3726 -3022 -1362 0
1925 -1396 -601 0
-650 3457 -3269 0
-274 -3191 3680 0
-2574 -1300 -3172 0
-1922 -1368 1496 0
-3564 -1405 -3766 0
-2113 -1291 2400 0
2349 3293 -2403 0
-835 1964 -2522 0
-2673 1766 -3073 0
-1129 -1698 -3173 0
-3174 -2023 -1028 0
-2354 142 -241 0
1674 2738 1103 0
-4711 2388 1900 0
-382 615 -428 0
-383 2800 -4234 0
-2789 1464 3760 0
-3506 -3973 2779 0
328 -1878 2409 0
1008 -4868 -2322 0
-1636 -3992 -1899 0
-3514 -321 2384 0
-1014 3164 2767 0
-1534 634 -3245 0
-2896 -1585 -1439 0
2653 4194 4681 0
1799 4697 -4429 0
2181 -4153 -3699 0
579 -2976 1972 0
-3360 -1423 2169 0
-3451 2892 3922 0
-1669 -1185 2304 0
-1269 -1442 3990 0
4473 2736 2829 0
2920 2266 -823 0
3007 26 -1204 0
4588 -1438 2750 0
3724 4334 -2815 0
-937 3696 -1687 0
-3604 2526 -4856 0
-2871 -1099 -1761 0
-3146 -3812 2178 0
3293 -2854 1139 0
-2883 4514 -2184 0
-4381 -3567 3113 0
3901 -3458 4429 0
827 2219 3005 0
1537 294 -1752 0
-3175 4310 4092 0
-807 -4874 2460 0
-2528 -2675 1461 0
-398 -3700 4208 0
4340 3635 -4053 0
1955 4659 -2319 0
-4306 -450 4862 0
3102 1046 -3193 0
-4678 4979 4110 0
-1546 4238 -3850 0
3867 -4412 -110 0
3942 4933 2291 0
-3103 -552 -4081 0
-3060 3744 -3932 0
3356 4830 2462 0
-2990 3377 -3624 0
4013 3423 3281 0
-2394 -2084 935 0
-785 -4265 -4342 0
718 -3712 1418 0
414 -2302 2464 0
1932 1372 -2336 0
-436 -3326 4186 0
798 -1620 -1784 0
-1189 2504 -993 0
-2059 1846 422 0
1224 1920 -4878 0
2771 2939 701 0
3878 -934 122 0
-2092 1122 4178 0
2367 -1345 -4131 0
-150 4349 4402 0
-933 -513 2685 0
-499 1904 3560 0
1262 4519 -4641 0
-4997 -3138 3985 0
-721 208 1171 0
-1158 -1756 -2008 0
-2675 -940 -2087 0
-2218 -4576 2222 0
-2771 1695 2146 0
307 3455 -4202 0
-610 4470 4949 0
-3139 4451 1020 0
3109 3342 -2377 0
3325 -427 -1508 0
-3850 -452 4953 0
-3018 -832 -4394 0
1194 -2325 -569 0
-2252 -1644 -4683 0
-1408 184 -1163 0
-3511 -3223 -4823 0
-1874 -3929 -250 0
583 2249 763 0
3065 -3355 1935 0
-2486 -3544 -4223 0
2199 -59 -4255 0
-2720 -1138 -3453 0
4450 -3022 4740 0
-337 -3924 -4273 0
4941 72 -3337 0
4602 -2316 350 0
581 -2168 -4134 0
4574 -4991 -2763 0
1292 3740 -353 0
-3447 1632 2033 0
-1050 248 4220 0
2400 -1616 -1989 0
-4916 -3452 1445 0
2489 2537 -1117 0
2366 -215 -4180 0
-3908 -4495 -2590 0
1804 4255 3108 0
-4014 68 4364 0
3617 -932 -2480 0
-3387 -1981 -2822 0
-1703 68 1543 0
-178 1493 1756 0
1181 -815 1570 0
-3641 2316 -144 0
-4948 192 4665 0
-3216 973 -2118 0
-130 -1307 4811 0
274 -1942 -4196 0
-3572 -1056 893 0
-698 -2459 3880 0
-3272 3588 2519 0
-485 1146 -2261 0
-2660 3179 703 0
1238 -4397 66 0
-4921 2995 1525 0
2683 -3557 -2084 0
2911 -1852 -1150 0
-2604 944 4284 0
-4717 3727 152 0
1784 1577 2245 0
673 1998 -3807 0
1505 -781 2034 0
2422 -2660 3642 0
2789 1925 3725 0
-3113 1487 3352 0
-4460 4290 4614 0
2545 -1366 -142 0
718 1946 2957 0
3886 1364 -1564 0
724 4870 4954 0
2865 1680 2254 0
-3386 -433 -3854 0
-3069 -3818 1402 0
1238 3441 916 0
1004 -836 3887 0
-1625 2157 1804 0
-4352 -1706 -1102 0
-2789 -1002 -4619 0
-1494 -1751 -2848 0
397 -1665 -4674 0
-2259 -3230 -1462 0
1898 1073 3231 0
1511 4444 4302 0
-3250 4337 -4058 0
1032 4427 -1052 0
-3086 -2189 -1793 0
1564 747 2706 0
4695 -4233 1104 0
1920 -4645 2661 0
527 -659 -1104 0
2036 -4356 -518 0
-1832 -1786 -2987 0
-2943 2838 4213 0
4273 -3030 -2519 0
-1272 -577 -192 0
838 -3907 -3680 0
-3435 -896 -4839 0
-4715 -1005 -2066 0
-3113 -2472 2413 0
-2998 -2876 66 0
-636 2316 -1476 0
-1232 105 -1424 0
-3707 4887 -4597 0
4699 1917 2860 0
-2186 -4982 -4173 0
-3655 891 3524 0
-4122 2543 -3823 0
-3338 -34 -3934 0
2665 1968 4814 0
377 -1093 4603 0
3841 948 4314 0
-1277 2049 4296 0
-3837 1049 16 0
4396 -687 2772 0
2225 2351 3663 0
-2842 -190 1961 0
3535 3872 -2745 0
2286 4878 -3691 0
-1054 -4054 -3807 0
3520 -2714 -1072 0
2698 2440 -1854 0
-62 3945 386 0
-1999 135 3597 0
-4968 4862 -473 0
4193 4152 -2768 0
-419 1991 -524 0
-2091 -2552 263 0
-1507 -1997 -395 0
375 -37 -690 0
2762 -1802 3186 0
1181 -519 -419 0
-3966 -2701 -3682 0
-435 -1265 -1438 0
-324 3147 -892 0
1248 -4381 2702 0
-2532 3413 1974 0
-3483 850 -2547 0
-4867 -883 -3496 0
995 180 2145 0
4981 -4506 4725 0
-3391 3202 486 0
1024 -4043 -2827 0
-4097 -4986 -362 0
-3266 -4786 590 0
3349 3898 -2585 0
3558 -2714 4633 0
-4992 473 2025 0
-475 -3249 -1677 0
917 2451 1686 0
2032 -894 -914 0
-3440 -220 4887 0
-3156 -1586 -3261 0
-3573 3267 885 0
4023 -4083 -3421 0
-3445 -630 -2826 0
1285 764 -1379 0
-4788 3840 4504 0
-3650 2759 -2768 0
-223 -3977 546 0
2703 604 1149 0
-2834 2504 -4725 0
-3945 4687 2395 0
450 2444 -3554 0
-4242 2222 3230 0
-4442 -4205 425 0
227 -2489 -3221 0
2090 3522 -4988 0
-3648 502 3688 0
-3509 631 1838 0
-600 -2 4798 0
-4286 -4042 -3157 0
-1936 -241 2026 0
-3433 3723 -3136 0
1709 -4434 1504 0
3218 -3392 2672 0
-4424 2073 2193 0
-1568 1957 -3981 0
-2731 -3809 4179 0
1246 1117 -210 0
-2109 1264 328 0
1914 2804 257 0
-4719 3501 365 0
-2217 2986 -2302 0
-558 3185 3740 0
-3884 -3940 -4088 0
-3138 3154 -4291 0
4634 -4805 -3351 0
-33 -1127 -441 0
4159 669 2754 0
2295 -2782 3750 0
-1359 -2993 1630 0
-1275 -1643 -3767 0
-233 3375 3848 0
-4083 -2041 -1680 0
-4268 2320 230 0
-2988 -4083 2721 0
-4585 -4031 1614 0
-1830 4583 -1228 0
-2059 -173 3370 0
3541 -4935 -3162 0
-4959 210 -414 0
2978 3640 102 0
-4742 761 -1980 0
2083 4676 92 0
3361 3313 1003 0
57 -4296 -609 0
3522 149 -138 0
-4069 -1849 -3542 0
2696 -2219 4832 0
-551 -2309 1519 0
3260 -2284 3445 0
-1899 -2277 -714 0
-1177 -4206 -4891 0
-535 1339 4234 0
-3688 -4724 -2430 0
-1430 -2374 1419 0
-4356 1319 490 0
1198 4836 2909 0
3754 -884 1706 0
3242 -3080 -290 0
-961 -4262 -4680 0
-2012 -3481 -62 0
1015 1996 -4506 0
-2609 -4748 3169 0
4178 -1193 -21 0
2148 2667 2344 0
2602 -4836 -4240 0
3801 -3536 2496 0
-4205 -4441 2174 0
-2007 -4191 -4293 0
-3786 -3088 202 0
1579 -2180 -4091 0
-2602 -3843 2667 0
4377 4082 -1529 0
3902 -3047 680 0
-4644 -1989 117 0
-3248 -1760 1383 0
-633 4199 -3122 0
-1035 1491 7 0
2031 -4929 -4730 0
-1317 2811 151 0
4773 3135 -3595 0
108 4574 1502 0
2289 -934 -3698 0
-2056 -1492 -3282 0
-4162 -1908 4147 0
-3383 3582 -869 0
-3820 -3362 2188 0
-3772 -381 -453 0
-1994 1503 -3150 0
3502 2322 1833 0
4090 -2023 416 0
-3600 -1728 -1336 0
3043 -278 -3055 0
-3054 4601 3446 0
-1063 4802 1045 0
-3184 -3193 3795 0
-3300 3259 242 0
951 -3434 -3549 0
2951 4295 456 0
-3012 2884 -2868 0
-1110 -2076 4266 0
-1277 -2317 -1913 0
3703 -1773 -4501 0
1770 -3429 606 0
-680 3574 1856 0
-1194 -4173 661 0
560 1318 773 0
909 -1132 4855 0
4808 3039 3391 0
4647 2923 -994 0
2325 2442 1898 0
-3759 -455 3489 0
3344 4792 1159 0
-3222 913 2971 0
1410 -2493 2664 0
708 2517 738 0
80 -1957 184 0
4854 3611 651 0
-3137 1623 -1222 0
-2977 -271 -2637 0
2254 3929 -950 0
3262 -4594 -4412 0
-2550 4613 -1244 0
-2615 -1915 71 0
371 -606 -3233 0
-2536 3119 -3025 0
3943 -2240 4175 0
861 -2611 3052 0
-3301 -677 424 0
1735 -4521 -1233 0
3558 1553 19 0
-3962 -2203 -2768 0
-1662 1267 2096 0
3432 -2256 1212 0
-2150 -2258 4253 0
2777 2285 984 0
-881 605 -4085 0
2250 -4777 -622 0
-394 -1481 1505 0
-2919 -3512 4280 0
-984 -750 -3293 0
2118 4880 660 0
-3743 4355 2551 0
743 -3085 -3544 0
-3218 -4029 -112 0
692 -557 3254 0
510 1967 2595 0
-1888 3731 -1650 0
2020 2694 -4963 0
4003 3773 1035 0
443 -1753 994 0
4220 -3178 -2408 0
4270 -1626 -3749 0
1464 -1393 2024 0
1718 756 -1849 0
-2344 -1536 2192 0
323 4222 4429 0
249 -3785 -4230 0
-2636 -2494 -2044 0
-851 815 -2110 0
4064 1173 4511 0
4473 -1450 4393 0
1051 -1330 4310 0
-115 3420 4797 0
-1791 -1386 -2078 0
2846 -4386 -3667 0
2397 432 -3535 0
3882 4819 -1395 0
944 -3874 -2728 0
1548 4943 -621 0
-3094 4701 -3850 0
-2425 506 -1392 0
268 -3572 -4330 0
523 -3369 -1057 0
-1303 -1179 -407 0
292 624 1356 0
-330 4772 2189 0
-3684 2916 4586 0
3637 -1254 3089 0
-2475 -3594 -2050 0
-650 -2610 -2986 0
2452 3108 -1415 0
-3837 2172 4201 0
3342 3805 4119 0
-3017 2558 3319 0
4442 -2532 -4470 0
308 2527 531 0
1723 -2715 1539 0
2733 4735 -2804 0
312 3478 -864 0
1922 -3237 -1860 0
359 1149 -4804 0
-1504 3492 3263 0
1566 -562 506 0
2655 -3502 727 0
-4353 -676 -3178 0
-490 3935 939 0
4151 4982 -4924 0
-2149 -4447 -3421 0
-4872 1087 -4205 0
3464 -3912 -1640 0
1539 -3242 467 0
807 -2780 -1932 0
-4692 -2965 -2481 0
-150 -3829 2613 0
3077 -2877 -4372 0
-906 3594 -886 0
-2025 1641 2790 0
-2167 1522 880 0
-2479 692 -3912 0
4424 -1811 3322 0
-2385 -1221 2108 0
-572 -752 4300 0
2257 -3127 562 0
3291 969 -4463 0
-328 3297 3320 0
3433 -2352 -1323 0
4319 1786 2717 0
-4920 -1060 804 0
-3260 1544 72 0
1167 -4943 -631 0
-4405 -3373 1839 0
1546 2568 -3951 0
-1792 4715 1367 0
4574 -4690 -4916 0
-3349 -4036 2250 0
4297 -3650 -4029 0
2706 -3269 -1643 0
-2921 -2294 160 0
2674 -4386 -4403 0
3602 818 3685 0
1135 2145 3923 0
3886 -127 -3177 0
-1894 19 -3559 0
-2221 -1505 4893 0
-4759 -1898 3610 0
-4935 803 -2394 0
2802 4234 2566 0
-3009 3186 4431 0
238 -1486 -1752 0
-835 3537 4154 0
2854 -64 4856 0
3553 4106 -2776 0
-3404 2572 1998 0
-971 -1795 1694 0
-1031 2097 -307 0
1738 -3723 2589 0
-4199 -4786 -3636 0
-1429 4749 3203 0
-1963 2067 -1545 0
4095 2290 214 0
2301 -688 -3355 0
-4880 641 -4357 0
-354 3073 -4625 0
2499 -1696 -3197 0
-3633 4954 -1506 0
1589 -1175 -1504 0
-3617 2136 163 0
1120 3466 -61 0
-4596 4363 1322 0
272 3561 1035 0
-3443 2927 -3904 0
752 -1980 -638 0
2810 -2924 4890 0
3692 1200 1217 0
-4013 644 -2413 0
-122 -612 1657 0
-132 -3028 2923 0
-749 -2622 2535 0
-1925 3285 339 0
3919 -710 1561 0
-4006 4173 -408 0
-393 -4582 3114 0
-2939 -3535 1855 0
4550 1998 4883 0
161 -2393 797 0
-516 1548 -4553 0
4334 3865 3115 0
-4598 3745 1672 0
-3706 -1776 -3220 0
-3968 2701 916 0
3226 -2185 -1316 0
-1275 -234 4804 0
571 -687 -4310 0
-1447 -3141 954 0
1754 2817 -1777 0
3712 -601 -2010 0
3789 -3161 657 0
4390 612 2951 0
514 2537 -3204 0
-76 4576 -1581 0
4998 -4635 -1740 0
-1785 -947 -3487 0
-212 -3377 836 0
-2293 -2721 3164 0
-4839 2083 2575 0
-3439 -2052 -1166 0
24 373 3219 0
706 2435 -2218 0
2510 4046 -3219 0
1899 -4189 2275 0
96 1511 208 0
-2070 1504 3270 0
-985 -2816 2344 0
3868 -2758 -938 0
-3160 -1740 -243 0
1569 -1025 3674 0
1075 2694 -1388 0
278 -4709 -4496 0
-4625 3924 -4872 0
4609 1124 -1982 0
-2724 -4565 -2632 0
-1899 -4492 319 0
1885 -2176 -1762 0
-739 1358 -2598 0
4740 -4906 -3317 0
-3100 767 4742 0
1323 444 -4802 0
781 2363 4442 0
-2810 -2001 2056 0
-2279 -3706 1062 0
-2051 -3369 3863 0
3354 -2179 4032 0
-2865 -2582 -1207 0
-1931 3311 2373 0
4569 2365 395 0
-2081 716 2116 0
-2651 324 -182 0
-1840 -1661 -1722 0
2088 2388 941 0
-2210 3198 -1701 0
1361 4168 -3501 0
-4617 4535 1949 0
1928 9 -172 0
968 3179 -3841 0
1962 -4510 -4819 0
-3190 3288 -394 0
1227 3061 2755 0
-1329 1786 -2811 0
-2348 -1370 -1538 0
-3114 -3740 -1644 0
4115 3201 4837 0
-3523 4878 -2641 0
3606 2007 947 0
-311 -3161 1029 0
4196 -2635 -4721 0
3929 -1250 -4319 0
1763 -2055 -4069 0
-1577 -1825 -374 0
-3542 -71 -267 0
-3892 -2859 -4309 0
-2308 3396 1950 0
-1675 2299 4821 0
-266 -172 -908 0
4838 -244 -2368 0
158 3914 2122 0
1036 -1475 180 0
-1387 -4725 1250 0
631 3999 3169 0
-2406 -1788 -985 0
-1197 1116 72 0
1852 951 -858 0
-3779 565 -4477 0
1441 -4277 -3713 0
146 -3025 740 0
-331 -2468 3784 0
2792 4411 3562 0
-280 -375 -1019 0
-3439 -1170 -129 0
-4988 2020 405 0
-2070 -271 -580 0
2148 4610 3097 0
588 4011 -4652 0
3298 1819 -2078 0
785 -1871 4970 0
-483 -2354 2234 0
-359 558 -2901 0
-2109 -2834 -4717 0
-1415 3368 4611 0
3897 1774 211 0
226 2315 -1022 0
-502 2898 3665 0
1554 -384 1922 0
35 -3915 840 0
-3362 3016 -4839 0
-836 1012 1127 0
-4511 1573 3986 0
-823 702 2907 0
-4995 1119 4538 0
2379 -384 -544 0
2063 2237 3068 0
4179 2380 -1044 0
-2153 -1059 -1242 0
3208 893 -835 0
4661 1765 -415 0
3330 3817 248 0
-668 -4013 -1645 0
2310 4229 -3535 0
-1398 -1603 -4542 0
-1273 4087 -3047 0
2602 -4068 -3823 0
4365 2676 -1980 0
4177 -856 -12 0
4976 -546 722 0
-4969 3492 4572 0
-439 -146 4856 0
1428 630 -3488 0
4880 3310 3523 0
2401 769 -1256 0
4389 -644 -1584 0
1626 932 -1029 0
-1760 -4024 -455 0
-572 -3898 794 0
-4881 3541 -4177 0
-4326 4118 3008 0
-3151 -1847 1048 0
1029 -4904 -816 0
4293 -4751 1417 0
2993 2068 -3220 0
-4672 3807 -174 0
-1308 -3783 -693 0
-1929 -429 1729 0
3619 -567 -1390 0
3670 -3068 2586 0
-608 2813 -1032 0
-2348 -4396 1316 0
-16 3765 1946 0
-4826 -4733 4903 0
-2842 4493 700 0
31 3520 4169 0
54 2730 -471 0
1984 4423 -813 0
4952 4905 1201 0
2223 1207 -2701 0
4144 -1976 -1281 0
1306 -72 1813 0
-2790 -3699 4383 0
-1955 -4435 -332 0
2213 -3534 2473 0
-3339 -2593 786 0
2153 2744 1651 0
-1866 -2777 3140 0
4079 -654 -1917 0
-1688 92 -3901 0
3503 3181 -3997 0
3642 -4209 2773 0
-2808 -182 -124 0
-1673 2164 -4746 0
4488 -2691 -3283 0
-3897 -3885 -4336 0
-1066 4246 1608 0
3498 2133 -3292 0
4046 -2069 281 0
957 323 -4721 0
2805 3877 4834 0
-4312 -741 3627 0
-1806 -1073 53 0
-4769 2856 910 0
-4234 4021 456 0
3654 3108 2951 0
-4980 1176 2951 0
9 -1694 3338 0
1621 -283 3422 0
3206 -1157 1625 0
-4858 3007 -3553 0
-4815 -1435 -2293 0
-3906 -961 1275 0
4847 -3169 -2420 0
-680 3955 -803 0
-523 4305 -182 0
1626 1669 847 0
3943 -3370 2571 0
2288 4264 3975 0
-63 -483 1577 0
868 618 -3606 0
-4051 -193 2391 0
-159 -1253 -1902 0
-1248 -3338 460 0
-2144 584 -3079 0
1088 569 2520 0
-3064 1040 -2249 0
619 -2313 -1705 0
-4062 301 2962 0
3485 2016 2316 0
4876 421 -4386 0
3039 -2058 589 0
-2052 2528 4450 0
2925 -1583 1584 0
3035 -2398 -3596 0
3010 2489 3468 0
-599 -721 -670 0
-1475 -2392 654 0
-705 -2442 -2307 0
1936 3513 -1902 0
3146 3765 1676 0
-4733 981 -2786 0
4987 3536 -3054 0
-3975 196 4538 0
3691 -2747 4533 0
-538 -2831 3969 0
-1533 -1839 -3138 0
2270 -4008 -1368 0
4026 -2575 -424 0
2928 1472 -2752 0
-2885 -629 -192 0
3469 2068 47 0
-3943 2984 -2949 0
720 3676 -2871 0
-26 -3231 4864 0
1750 -3675 -4162 0
2216 3617 873 0
-4808 -1133 628 0
-4273 -2304 921 0
-2982 3602 770 0
-328 -2082 -2752 0
2140 -2547 415 0
-861 916 -3081 0
2413 3753 2968 0
-3537 -2438 1114 0
1561 -2334 -1589 0
-1244 3682 -1068 0
2327 3061 1698 0
-3141 3133 -3360 0
-734 1867 -3430 0
-4305 2303 2205 0
4234 -913 -1725 0
-3235 -4760 -2178 0
2682 -1835 -3517 0
-2204 -2860 -544 0
-3632 -726 1594 0
-3852 3391 -4437 0
1741 -1241 2196 0
1373 1583 -2523 0
3130 4607 -4619 0
4654 3982 971 0
147 2201 -3343 0
3230 -14 2021 0
-4097 3020 4394 0
85 -3487 3236 0
2642 -276 4239 0
-3868 1168 -4931 0
967 -404 1444 0
-4771 2773 -3777 0
-3199 -3238 2986 0
3076 2640 -3265 0
1184 3277 1597 0
-3654 -4668 -2336 0
-2675 -4926 -770 0
716 2323 412 0
2211 4164 570 0
980 4738 722 0
-4488 2896 -2274 0
1191 2471 30 0
-3854 -4053 -2484 0
-262 596 857 0
-3632 -3472 461 0
-1326 1882 -860 0
68 -112 3128 0
-1211 -1290 -2484 0
1075 3466 3189 0
-3875 -860 783 0
-119 3066 -405 0
-4402 -4276 -4548 0
4498 4995 4923 0
-2283 1162 840 0
826 470 4891 0
-2662 413 3263 0
4418 1311 -412 0
1262 2085 3472 0
-1636 1959 -2591 0
2839 3820 -3522 0
-1028 -455 -2656 0
-3146 303 -3890 0
2973 -948 1093 0
-4715 -3474 3921 0
-2835 -2104 1526 0
1154 -69 -2187 0
-3272 1461 -2771 0
4259 4823 -2864 0
3078 -3784 3139 0
420 2233 96 0
859 -3809 2805 0
-1598 1848 -1811 0
-3424 1885 2619 0
-2146 -4308 4915 0
-1847 1724 3835 0
4491 3883 105 0
4892 1490 4319 0
-4404 -4199 -1616 0
-4512 -4255 -1401 0
-4039 -3817 1570 0
-4093 2509 -2932 0
-2884 -3894 2612 0
4379 1029 -897 0
-3682 -1364 -2321 0
4968 -1018 -4386 0
3240 -53 -1527 0
-4062 229 -2368 0
-2059 1976 -4816 0
-3354 1806 3755 0
1584 -4909 -1296 0
21 -4854 -1242 0
2931 -1027 3947 0
-2958 2948 -2898 0
-2581 3803 631 0
-3766 -2620 4277 0
-321 -2318 -3984 0
3540 -3196 2272 0
2891 -3877 -3448 0
-2608 -584 1412 0
2126 3508 -2043 0
4428 4126 -3928 0
619 4078 1470 0
1723 1527 238 0
-2309 2933 4497 0
3528 -3897 3857 0
-2075 -1176 488 0
-502 -403 -2785 0
4818 310 1520 0
-3509 -2848 -4632 0
2111 -1781 -1672 0
-3485 -4138 3356 0
1254 2923 -3661 0
-2115 2514 -321 0
-1538 -2822 -4610 0
2433 3456 -957 0
-4502 -13 2914 0
4058 -308 3219 0
-4458 562 3298 0
-3842 3264 -1408 0
-3760 313 4793 0
-4101 -4381 -2193 0
-4938 1472 294 0
-2343 4549 -627 0
1736 4202 -1499 0
-4821 1820 -194 0
4533 1052 2526 0
-2863 -1751 4827 0
-3077 -1031 -409 0
536 -1356 -1703 0
24 3475 -421 0
722 2520 261 0
-1414 2539 4629 0
339 2731 -1058 0
-2679 -3677 -7 0
-4356 962 -1698 0
1741 1198 3305 0
2217 -4980 3101 0
779 3131 3456 0
-1490 -4492 -3701 0
1326 1841 -3211 0
-488 3788 1262 0
-4770 1908 1542 0
1855 -2288 -436 0
-417 4703 1895 0
2630 2956 1256 0
-1850 4383 1596 0
-1090 -4610 2465 0
3302 2533 291 0
1563 -4157 3646 0
154 -3363 -866 0
3775 -837 4481 0
-4225 -409 -1431 0
-764 4156 2225 0
-4639 958 -4799 0
-2057 4050 511 0
-1752 -613 4911 0
-1709 4768 194 0
-1620 -3608 -3282 0
-780 -2243 -2060 0
-2787 984 70 0
2342 -59 4917 0
-87 4412 2876 0
4656 -516 -478 0
-611 -738 1600 0
4260 -4362 -832 0
-2902 -4026 576 0
3103 -2911 2791 0
3582 -2791 -1387 0
1328 1746 -699 0
4324 1551 -3458 0
-2894 -1168 974 0
-136 -1272 -1834 0
-4721 1002 -1979 0
4888 -5 1091 0
-3084 2719 1226 0
4725 3877 -2051 0
-4506 -4818 -2442 0
-3433 -286 -1774 0
-1199 -2217 -568 0
-3831 3553 4453 0
-2071 3605 -2225 0
-3724 2304 1239 0
1463 -4893 1813 0
2978 -754 -3588 0
3697 4045 -2649 0
2326 -2278 -4432 0
3567 2859 3397 0
-1945 2621 932 0
-2159 2602 3545 0
4214 -4648 -2740 0
-3395 4504 -4715 0
1453 3355 -3038 0
3061 -2602 -2966 0
-267 1716 -3696 0
-1879 329 1173 0
4394 4690 754 0
-2648 4385 -4484 0
-320 4527 -301 0
-2012 3114 401 0
-2152 -1911 -4994 0
-138 4078 3273 0
742 -3036 -779 0
3593 3181 -267 0
4432 -4831 3798 0
-554 4200 4573 0
3742 4177 -4904 0
2772 -3298 -744 0
2201 -2146 -2614 0
-1817 -4405 -4589 0
4667 1740 2757 0
2779 -1307 1990 0
289 2844 1237 0
390 -4108 1974 0
-1257 4168 2764 0
35 4585 -1733 0
-2104 -3722 4926 0
764 -2883 -1560 0
-460 -2719 3294 0
-3080 1266 -847 0
-1890 -4910 1774 0
3673 1784 -2281 0
-1900 4672 2280 0
704 -4467 -875 0
3761 -821 1053 0
-226 -791 298 0
-9 -4265 3866 0
-3096 2161 1164 0
-937 2302 455 0
-1314 -640 3933 0
413 2700 1000 0
730 -3990 -1673 0
1230 -2386 -332 0
-3978 3551 4797 0
2525 -3820 -4247 0
-1225 4027 -704 0
-1784 2037 3571 0
446 577 -3337 0
2262 1098 -269 0
4249 -4801 -1272 0
3209 -1268 -2658 0
991 298 -1817 0
-2574 4747 1348 0
-4349 -4043 2214 0
1011 -3599 -383 0
-2716 -2740 -4262 0
-722 -674 -4914 0
2953 4047 4928 0
-4999 -831 -3385 0
-496 2750 1389 0
470 4221 1105 0
-192 3107 -2092 0
-3963 3778 -4992 0
-2390 -1100 -253 0
4280 -1932 -435 0
4820 -3509 -4997 0
-903 1480 -1039 0
-2829 -4628 2607 0
-1574 1817 -629 0
3785 1457 4477 0
-4680 1234 2078 0
4579 2650 -4387 0
-641 -4326 -1865 0
-3704 435 -4459 0
1763 -4670 -514 0
2883 -2337 -3141 0
-4793 4127 1742 0
-4112 4114 -2966 0
-3979 -1767 1630 0
-3634 -1837 -3843 0
-3867 357 -279 0
-4254 4896 3126 0
-2475 -1732 -372 0
-449 369 3737 0
2037 -3644 3160 0
-804 534 4887 0
1548 -703 -4143 0
4894 -4141 -4009 0
200 3824 1574 0
2767 -2775 259 0
4699 -2635 -1697 0
-1369 4495 -3818 0
3904 3991 -2069 0
3153 -1254 -2031 0
-4800 4306 3720 0
-1942 -187 -2637 0
-305 3995 2961 0
-771 -1651 4054 0
991 -2904 4638 0
-3636 10 1529 0
-3471 4045 2771 0
-3805 4262 -1753 0
-1992 -3417 -4703 0
4179 -4750 -4892 0
-4573 -2534 -41 0
-4466 -765 2757 0
4094 -3193 4713 0
-762 1736 4427 0
2298 -4340 1164 0
4427 -1399 -457 0
-3355 3054 3706 0
-342 -2043 3450 0
-2963 1674 -4406 0
2259 1744 -3458 0
1782 1382 262 0
-3414 4066 -2659 0
-2341 -3949 -2668 0
-1790 -198 3409 0
185 -2842 824 0
1828 3604 -3154 0
-4767 1449 3954 0
-152 1800 -2679 0
1716 -1232 -2289 0
-3114 425 1938 0
1279 -4686 -2430 0
3946 -312 331 0
1313 -1079 3802 0
2681 4835 -3285 0
-341 -539 -305 0
-2631 -2870 -827 0
-824 -2680 -4745 0
-2162 1688 1121 0
4243 -1895 -794 0
-775 -2518 2123 0
-678 -392 3236 0
-2398 -2729 3668 0
-3040 -3337 1406 0
1581 -3380 2359 0
449 -4069 2824 0
-4364 -4789 -3441 0
-1333 2319 -2429 0
-2607 414 3085 0
-2852 1646 2832 0
3414 667 1625 0
-1348 2008 36 0
-147 -4522 1361 0
-49 -1759 -1029 0
4314 -4950 -4926 0
-207 -1236 -2811 0
-4893 -4550 -4562 0
2396 85 2241 0
2196 2419 1354 0
2024 -2395 -1353 0
-3306 -657 -4955 0
3102 -4895 -1790 0
1271 -1211 3068 0
1788 3981 660 0
-155 -3648 -1826 0
3455 2624 -125 0
-4927 -152 -4417 0
2767 -1199 4545 0
3624 1438 -2978 0
1468 -2758 2318 0
2778 -3304 -3134 0
-62 1916 -3760 0
1294 4897 -662 0
151 -1446 4265 0
1080 -4211 -1278 0
-3905 63 1704 0
4348 -4441 -3754 0
1444 -2668 1084 0
2786 -4117 -1382 0
-3395 -3612 1567 0
-57 -261 -3036 0
2234 1654 2232 0
4060 -792 1565 0
-3791 -2734 2042 0
-1761 1860 -513 0
-1292 -4476 -3377 0
3853 3056 2230 0
201 -3436 3696 0
3808 -2 -2992 0
2020 123 4135 0
836 -3222 -1533 0
2773 27 1564 0
-736 3306 982 0
-2651 -1259 4248 0
4042 924 2080 0
-4886 -3320 184 0
1798 2689 390 0
-3215 -846 -3932 0
3634 -2284 -4473 0
-1582 4591 -147 0
1863 -3937 -4076 0
1855 -2588 1120 0
-1397 1975 3658 0
3361 189 -1400 0
-931 3061 1690 0
2072 -2787 -4426 0
-3661 -4362 4049 0
-3184 -4012 4465 0
2619 1054 4025 0
4718 -479 -1017 0
-1935 -4496 3279 0
3836 -2236 2908 0
-4273 -3335 -4929 0
-2082 -3229 881 0
-4629 -2488 -3345 0
-4633 -2834 3932 0
-2485 -629 -2269 0
-31 -4105 3395 0
2413 -3110 -757 0
3429 1883 -3660 0
-964 2308 -3468 0
-2578 -4965 -707 0
-773 -4152 -639 0
637 639 -241 0
-1769 2903 802 0
2489 -3788 4909 0
2274 2485 4046 0
-3586 4381 4124 0
1336 2792 -3848 0
1240 918 -3200 0
4315 -3027 2109 0
-4712 28 2105 0
2118 -222 -813 0
-4392 3559 4267 0
2184 2774 557 0
2311 -2188 -2964 0
-816 -75 2396 0
113 -2822 -110 0
3369 815 4066 0
2040 -4961 4542 0
396 -2038 2430 0
-2467 -3722 -320 0
-4454 -3541 -243 0
-1581 -2871 -3196 0
-4944 4506 -4730 0
-1607 2099 633 0
2864 4151 -4472 0
-4142 -3024 4578 0
-312 2592 -2571 0
-1831 1100 2315 0
81 -4943 791 0
490 506 -3454 0
-4281 -4759 -3324 0
-34 4584 2854 0
4503 475 4943 0
478 4984 34 0
-378 -1981 2648 0
-2552 -1126 1124 0
-4446 1973 -403 0
3791 1739 -4514 0
-85 4990 -3348 0
3619 -3643 -1985 0
485 -4694 -1691 0
3784 1518 213 0
1165 -4144 -1773 0
-2398 2819 -2471 0
-2097 -4345 -3137 0
4116 -4056 2491 0
-1357 4489 1890 0
-4335 -4837 4204 0
-4137 -1617 -909 0
-4653 -1289 -544 0
4951 3527 952 0
4952 2738 -2332 0
1997 -892 -3311 0
-1605 -4484 4944 0
3111 1077 -4956 0
-1994 4352 1196 0
3845 -4757 4768 0
-571 -3920 4148 0
-3515 712 -641 0
3718 -62 4159 0
-3756 -4367 1529 0
308 -1791 3462 0
-3794 3443 -4192 0
2850 3802 4391 0
4756 4033 -2313 0
2233 -4835 2950 0
1056 -3374 -4555 0
-2731 4956 2362 0
4816 1673 3706 0
326 -1960 -723 0
-2506 2986 2896 0
2912 -4075 -1424 0
3677 -2823 -4835 0
968 -287 -3743 0
-2835 88 -4793 0
110 -3297 -276 0
-4381 -2779 -2178 0
-730 -1250 402 0
3467 -2401 -2964 0
-827 4086 4992 0
-2716 -4512 -866 0
-3814 4805 4600 0
-140 -3438 -1375 0
4488 2461 2614 0
-3384 3682 -4461 0
2624 3048 4093 0
188 -4929 -45 0
609 3031 3013 0
-2274 -2224 1807 0
3579 1166 -308 0
299 3695 4631 0
-3541 1494 -1301 0
-166 -633 4962 0
772 4099 2388 0
-2682 -1524 -4540 0
-4006 -1372 3987 0
-2734 4460 -4806 0
-4060 -4390 -4345 0
-3908 -1807 75 0
1727 3492 -1549 0
922 -3917 -187 0
1962 -28 4100 0
-3651 -1567 -1129 0
3021 -1835 -3064 0
519 3465 3476 0
2541 -1780 441 0
-3600 -1987 -2452 0
3276 -4208 -2518 0
3912 -4358 4138 0
-3249 3066 -2078 0
3731 -3861 583 0
-2805 4788 -204 0
-2962 2250 -2024 0
-3845 4748 498 0
-3058 -633 2452 0
-391 -253 1327 0
4508 -1445 4105 0
-2358 -3318 1524 0
3536 3508 232 0
-3686 -4551 -3282 0
1010 -2983 2497 0
3500 4858 4197 0
-8 -2354 2932 0
-2905 2034 3032 0
4417 2410 1331 0
-2205 4213 2306 0
3331 -3557 427 0
-2410 3365 -4498 0
-1455 -4117 -524 0
-3130 -3661 531 0
2885 3003 4628 0
-2516 -2119 4962 0
4430 -1324 -820 0
-2617 2396 -3871 0
3835 -2500 3949 0
3007 1614 -2124 0
428 -4649 -4311 0
-903 914 -228 0
803 3845 -626 0
2891 -3046 2959 0
-3987 -3168 2486 0
4502 -28 2698 0
4511 -4128 1609 0
2845 -3847 4388 0
-172 2714 2863 0
501 411 152 0
-3523 1755 -4059 0
-4057 -1814 -4386 0
-2786 -4581 541 0
-1371 2526 964 0
787 2759 -3174 0
-2566 4187 91 0
1343 203 3255 0
2813 29 -3725 0
4403 1438 -1474 0
-4049 4584 1863 0
-2660 1287 2416 0
-2369 3155 734 0
2861 -596 1079 0
-1931 -1649 918 0
-4745 3013 -2668 0
1086 -1781 -4382 0
-1221 3212 1231 0
4578 -271 1879 0
-4249 3334 -638 0
-4240 -3013 -4834 0
-4538 1789 2133 0
1442 1637 -3232 0
-2606 -554 234 0
981 1111 66 0
-4427 3762 548 0
2306 528 822 0
-1755 -2444 -2985 0
1323 4142 -2185 0
-1927 1225 -697 0
2054 -1876 811 0
2279 3453 -442 0
1762 -4392 1085 0
4552 -2150 3330 0
1674 -275 -3784 0
3315 -507 -538 0
-2773 -4250 2629 0
3927 4048 -3023 0
-382 -110 4665 0
-1511 2029 -4005 0
-265 -4068 3305 0
786 2417 4529 0
652 -2528 4830 0
-3232 2542 1635 0
-2215 2867 -4892 0
64 -1593 -2528 0
-866 4234 -2618 0
-2490 2549 -4040 0
-184 957 -3895 0
2198 4776 1302 0
-4630 -3487 851 0
4017 -3537 -764 0
-3572 -3734 2077 0
-944 -576 1877 0
3403 -413 3034 0
4873 -3542 -2995 0
4105 -2467 576 0
2186 3398 3603 0
-1848 2733 -740 0
4426 -2984 3683 0
523 -1745 -1555 0
740 3431 2029 0
-4240 -2597 4564 0
2077 4033 -750 0
1142 -4254 -1480 0
4065 -4480 -3637 0
4387 3296 -945 0
-2583 1149 3432 0
-1117 699 -83 0
-4746 -2081 3900 0
130 -4719 4153 0
-1334 3524 -4916 0
-1246 1899 -2293 0
-3633 -360 4647 0
1769 1166 -132 0
-4861 -2740 1520 0
1959 1688 1140 0
-3379 1816 -1536 0
445 -687 -1727 0
2603 -454 -4924 0
4239 3662 770 0
-2547 -3291 4902 0
858 -1266 3626 0
4868 4963 -2608 0
3484 -3189 4048 0
-488 3757 -3552 0
-1451 606 1734 0
1168 -2130 2434 0
-2465 -592 1903 0
3669 -2254 1565 0
3500 -3433 3059 0
-778 1000 -660 0
-3490 -1520 -3527 0
4321 -4195 -4665 0
-3678 -2230 3857 0
-3762 419 1370 0
466 -4680 4723 0
3041 -1113 -2095 0
4755 2027 4354 0
-1176 4935 3411 0
4554 1166 -14 0
-1361 -1285 -154 0
-2588 2975 3488 0
1374 -2231 1099 0
-3811 4529 2160 0
-4966 -2407 -812 0
4207 -2507 2751 0
-935 4430 -505 0
2675 2344 143 0
-2024 -4266 2400 0
-3268 2409 -147 0
1348 -2195 -1975 0
2444 -2141 -122 0
3379 2516 -3535 0
783 -1946 4192 0
-3080 4286 -4091 0
230 -846 2543 0
2355 467 594 0
2640 1194 3392 0
3040 2473 -2296 0
4306 -772 -3855 0
1213 965 4672 0
-1736 -328 -2902 0
-2402 -3618 -2310 0
-3425 -1998 -3255 0
1481 1414 -4805 0
-1599 -3569 3461 0
4800 2777 2358 0
3381 3407 840 0
2363 -931 2158 0
3089 -3647 -250 0
296 4911 -4411 0
2391 4737 77 0
-4755 -4663 2924 0
2705 3833 3327 0
-213 880 3440 0
174 -1890 -385 0
4596 4103 961 0
3297 1003 3772 0
2994 2359 1055 0
-2234 -1457 -2026 0
3867 1616 2343 0
-1792 -3687 -1442 0
4727 1922 -4971 0
-1841 -2064 -1303 0
-4127 675 3766 0
491 -3979 2643 0
1057 -3834 -2420 0
4781 4197 -2849 0
-1292 -307 4185 0
-464 4882 -1645 0
-3025 3187 3577 0
-3944 70 1604 0
-3002 -2300 -2497 0
-2499 1411 3988 0
-2583 -2233 4365 0
2259 -3053 4672 0
-2925 549 -2018 0
-2325 -3214 -4057 0
-2536 -4280 -639 0
-4722 4978 -2600 0
3560 1220 3533 0
-4001 -682 2751 0
4769 1126 3985 0
2197 -364 3828 0
4619 -2317 -152 0
2335 -2919 -3719 0
-3971 -2479 875 0
1590 3413 2433 0
-4269 3831 -4508 0
1556 -2333 4280 0
2923 455 2464 0
3818 -3738 739 0
664 1185 1420 0
1353 -3367 2902 0
-1488 -3317 -2630 0
2681 -3923 -3328 0
-3586 4416 -66 0
3900 -168 1613 0
386 2350 965 0
1606 855 4019 0
-2377 -1285 4912 0
-3887 -188 3839 0
2545 -1992 4388 0
1562 -844 -511 0
2278 4411 -1834 0
3808 -1876 4769 0
1210 -2111 266 0
724 -1912 -3219 0
-643 3941 656 0
3565 815 1949 0
-4199 3528 773 0
-2515 -1317 4378 0
-358 4733 2581 0
1484 -3892 -3381 0
3382 -2840 842 0
-1270 -4022 459 0
-2611 -2111 1761 0
-4251 -3009 -3902 0
479 1531 601 0
4148 -1081 -123 0
1180 -2564 1523 0
-4126 -1136 1956 0
2061 -746 -4681 0
-4096 3370 -1403 0
-1256 -3394 -3269 0
-1370 -2869 -2528 0
4772 3517 -3527 0
-3514 1604 -4180 0
4482 -905 -4652 0
-2522 1073 -1463 0
2416 2453 -4660 0
-467 -3251 2230 0
-1133 1541 2348 0
-3387 4451 4312 0
2885 1904 3109 0
-2873 2456 4063 0
-1781 -426 -4573 0
-1891 2714 -386 0
-1599 2258 -4304 0
-3257 -2814 -3012 0
-1230 781 3937 0
-4758 -3259 2155 0
2004 -2697 3828 0
1486 -4587 3880 0
-635 -982 -1255 0
288 -3092 2051 0
2336 1969 1281 0
-705 -2236 3414 0
909 -3337 3735 0
2879 -4685 -2912 0
858 4959 679 0
-4732 4683 1125 0
-160 4381 1248 0
-4799 -1480 906 0
-2653 -3660 3715 0
76 -2438 3169 0
-990 -384 4272 0
2426 886 -4876 0
4873 2051 -4678 0
2404 -3362 -1296 0
738 -2357 370 0
2904 -522 1462 0
-2673 4761 1685 0
-1857 1778 630 0
2941 607 1948 0
3744 -2093 -683 0
2477 2459 -533 0
-3720 4641 -2441 0
817 4374 -698 0
4668 -1791 1749 0
-1039 2446 -4425 0
-2774 1059 2394 0
3207 -2133 -4618 0
-1006 152 -2310 0
481 -2083 3677 0
-1171 2116 4578 0
573 221 4584 0
-4651 -4694 1106 0
1101 -929 -137 0
-300 -4559 -3508 0
1922 -4951 -2942 0
1559 -2974 -4580 0
-4400 -2376 3526 0
-3680 927 3147 0
4767 1526 864 0
2337 -1930 -3888 0
-3008 2657 858 0
2465 -2983 1035 0
2488 -930 -964 0
1035 1981 2710 0
-4507 1901 -661 0
-1665 56 -856 0
-318 -3169 259 0
4127 2354 2012 0
120 -906 3552 0
2145 -2738 400 0
-3436 4624 3451 0
4489 -1146 -2196 0
-4828 -3763 1586 0
-3870 -2388 -2087 0
-1221 -2775 1126 0
4224 -1663 4929 0
-2415 478 2026 0
-4970 -3434 -1105 0
-674 -2184 4258 0
-680 4539 1650 0
2977 -1715 3748 0
-1761 744 795 0
4795 4702 -1103 0
3349 1221 -45 0
-754 490 -3804 0
1822 3769 -2646 0
-1749 -1360 -1490 0
4902 -1573 -4338 0
1198 -3113 3583 0
2837 -4623 3592 0
-2806 1846 -3285 0
2098 1494 4679 0
-4650 -1753 413 0
2376 -3941 2814 0
2178 3210 -666 0
-540 3924 -3423 0
-292 4198 2272 0
2377 1144 4518 0
-749 -3346 1400 0
-2320 -2694 4912 0
-1454 -4187 -309 0
-2781 2881 3346 0
-3845 2126 -2215 0
-4908 -1123 -974 0
-2386 4178 2572 0
-4952 2946 4021 0
3020 -4508 -4139 0
3185 1002 -2729 0
-1883 -1713 -4252 0
-3029 2369 1165 0
4715 2152 -1937 0
-1722 3181 -4897 0
3780 2839 -1941 0
1522 189 -4051 0
127 3352 -2903 0
4456 4333 838 0
-355 -1378 -1266 0
3501 2512 -1710 0
-428 1702 -4888 0
-1173 1709 36 0
-1018 -1423 4161 0
-2313 -2885 1949 0
-630 2564 3307 0
4225 2024 3079 0
-2543 323 711 0
-3281 -1851 -3886 0
1100 -2290 -4752 0
-728 -2341 -619 0
3484 4358 -2257 0
2494 -3223 -2056 0
1659 2295 682 0
-4981 1869 2956 0
1034 1951 1051 0
-3103 -31 2453 0
-2884 -4240 615 0
1372 3945 -4452 0
-1250 3371 -2658 0
-1760 4144 2093 0
1578 4167 -791 0
-581 2006 3664 0
1302 2177 -3435 0
4765 -2886 2494 0
1744 -4131 1032 0
-1156 4038 -3317 0
-3576 4415 -2692 0
482 -4462 3420 0
-1585 4395 2810 0
3571 -4328 1053 0
3298 -3830 4108 0
4429 -1835 -3692 0
-1307 -1804 4088 0
-491 466 -3196 0
-1360 4210 2155 0
-15 1914 1584 0
53 2731 -4906 0
3759 1562 4855 0
-2764 4334 -2879 0
-4868 956 1371 0
-4937 -1900 128 0
2626 4662 -3501 0
-3134 4550 -3606 0
1357 -178 979 0
363 -523 1379 0
-2308 2561 -1310 0
644 -4821 994 0
-843 -2381 -1428 0
3507 1811 -3636 0
4498 -3017 -4808 0
-3476 3944 2921 0
-4177 -4755 2753 0
3374 2482 -1422 0
3125 482 4495 0
394 3867 1842 0
3161 4429 -1114 0
879 -1344 -3535 0
2985 -2382 -3650 0
2287 -44 -2785 0
-1020 4966 4312 0
4025 -1015 1741 0
-525 2013 -3254 0
243 1901 -4637 0
4777 -1551 1883 0
-3330 2592 -1885 0
-2153 -4500 4751 0
-2048 161 1746 0
-4037 922 3904 0
4239 -1398 -3522 0
-4530 3863 -4861 0
741 2210 -3561 0
1479 4822 3333 0
-658 -3550 1398 0
-2092 -3146 -522 0
313 3123 3802 0
3804 3332 477 0
-49 3736 -4156 0
3117 1142 -2129 0
522 2519 -4190 0
3328 2075 2316 0
975 -840 4333 0
-849 -3143 3512 0
-4183 -1537 3226 0
3291 -1629 -4744 0
2440 -4832 4826 0
-3460 4961 -1135 0
3398 -928 390 0
2675 1549 -1511 0
-1032 3978 4085 0
-978 1227 -3796 0
944 2792 1191 0
-3868 -3566 3844 0
-3010 1763 -3794 0
4327 -151 -2060 0
-3174 -2507 -3513 0
-3929 3039 257 0
-1525 1816 3451 0
-3977 310 111 0
-244 -717 -4573 0
-1905 1561 1768 0
2179 -4885 -139 0
-4883 4996 1240 0
4850 -4008 -287 0
765 -4342 4139 0
615 2529 2639 0
775 -217 608 0
800 1510 1538 0
-3454 4941 -999 0
-4162 1393 -4737 0
-1590 2275 -3374 0
349 1957 1826 0
2457 -2782 2439 0
-3453 2971 -2501 0
-3050 4341 -1201 0
4510 457 -3465 0
-2808 -3043 2126 0
-924 -3750 3443 0
2414 -4972 4279 0
-861 -603 -1227 0
-22 4184 -2637 0
-42 4367 -653 0
2154 14 2387 0
-182 4544 -1376 0
1159 -2116 827 0
2005 -1430 -1389 0
1720 -1549 -227 0
921 3204 4007 0
-4512 340 20 0
3713 -737 2872 0
1849 -972 36 0
3352 -2401 2639 0
1875 3812 -1545 0
-2936 4159 1068 0
3670 -662 4660 0
4032 -4828 459 0
-3118 -63 -2275 0
1707 -908 3091 0
3620 -1468 982 0
-2356 -191 -4398 0
-3839 4175 2735 0
-1081 151 1756 0
546 -4158 -4103 0
-4720 -3210 3545 0
-3213 -1836 -1659 0
-111 1795 1775 0
-213 2824 -820 0
-1671 1069 3500 0
692 580 4307 0
300 3903 -3371 0
2525 -3974 3150 0
3639 -4212 4088 0
-1795 2868 -2856 0
1956 -3950 2487 0
-3313 -986 -2570 0
-610 -4837 1585 0
1421 -2644 4734 0
2900 4736 3547 0
591 -3388 1642 0
-4858 -4869 2858 0
-3983 -2143 -3558 0
3276 3282 -2055 0
-3957 2683 -4675 0
3454 3090 2451 0
832 -3656 -1952 0
-1066 -3528 271 0
622 -2097 4316 0
1913 3329 -3583 0
-373 -1169 -2898 0
3866 -2560 -4170 0
3470 366 -4898 0
-4282 -4989 -812 0
3840 -3338 -3293 0
813 3321 -518 0
1027 4495 1095 0
-2300 -933 -446 0
-1793 858 -2587 0
4895 -2509 -491 0
-2569 1273 13 0
1683 -4168 -4248 0
-4418 36 -1225 0
-984 4209 458 0
-2610 -1247 4956 0
4732 2783 -3560 0
-498 3977 -4531 0
-621 -3111 -4383 0
-1176 -1674 -1040 0
4798 -2082 1135 0
-2778 -4161 513 0
3006 -4349 4390 0
-3447 -1004 -2819 0
-3651 1687 -2891 0
-1210 137 45 0
-3338 4933 2374 0
-3235 2070 -2016 0
3118 3428 2044 0
4779 218 83 0
-4987 3106 -3603 0
4445 -4516 -808 0
1821 -13 4111 0
-3117 4610 1261 0
4109 -464 2837 0
-1582 -861 290 0
-2172 -3952 -1068 0
-773 -2781 -292 0
751 -19 3241 0
508 -342 -4101 0
4275 3089 2830 0
-4201 -1994 3980 0
2228 1838 785 0
-3784 2758 -1973 0
-1467 -2936 3561 0
2469 -3793 -3424 0
-1344 1763 -3600 0
2150 1120 -2124 0
-3130 -4847 -2526 0
3612 -2874 -1437 0
-1613 -4759 4547 0
2128 -2923 1058 0
4420 723 -2177 0
2844 -1198 -1569 0
1181 4213 -4331 0
-80 1997 -4159 0
525 -599 3845 0
-395 1269 3513 0
367 -536 -2943 0
-3839 3880 2170 0
4121 -846 984 0
1506 -718 -1630 0
-3078 -374 3038 0
943 17 -3303 0
4337 4078 -804 0
472 317 -750 0
-4526 503 -4806 0
-1439 -1322 -3497 0
542 3571 3738 0
2832 -1718 -259 0
3761 -3631 2397 0
-1683 -591 -4076 0
3856 3861 3148 0
4163 4922 4130 0
-2183 1626 -425 0
13 3017 -2664 0
4017 -3830 -4528 0
3273 152 4868 0
-2022 -2298 -1817 0
-3477 -369 505 0
-1570 936 -4121 0
1258 3409 -2753 0
-3263 -1666 -1024 0
3052 -1786 893 0
-2495 -371 4828 0
1618 551 -3178 0
4151 -4502 3689 0
4803 4603 3089 0
-3306 -3262 2155 0
-2057 1496 -3879 0
-2866 3282 -4891 0
1201 4962 587 0
4642 3810 -1664 0
-3055 3233 825 0
880 3288 -242 0
1370 1008 1166 0
338 -1072 1880 0
-3995 -1046 -802 0
4286 -783 4987 0
3807 3153 -1686 0
907 1133 -4906 0
-2244 3312 57 0
4274 -1225 3340 0
-2402 -3793 -3923 0
-186 -879 1831 0
-4411 4332 -4782 0
-4505 1722 -2041 0
3206 -4926 4867 0
-4238 4412 -987 0
-4797 -3644 -4052 0
4554 1374 -1618 0
-2056 -738 3953 0
1642 240 -512 0
-623 -360 1286 0
4676 -3390 -1097 0
945 -1837 2825 0
4631 1303 -3282 0
2812 4694 -898 0
2153 4899 1084 0
-2592 -1836 -4031 0
-4965 -118 4128 0
-2945 3207 -4002 0
-2973 4304 -2835 0
-3272 -198 3015 0
2263 2654 -385 0
-718 2362 -1608 0
-483 557 -1195 0
-1678 4796 4067 0
1495 -4510 4694 0
3424 -2483 -317 0
2793 -3064 901 0
3748 -2391 3833 0
658 -4125 -1943 0
1968 -4268 -595 0
-1689 -2187 -1503 0
-4368 3816 -3242 0
709 -2999 3896 0
-3840 61 3973 0
4494 -3303 -337 0
-4457 2304 2394 0
3613 1483 4800 0
-1774 160 -2674 0
-854 1707 2146 0
-2434 -3974 -2295 0
-3440 -473 242 0
1060 2022 527 0
3797 2014 -3514 0
-963 -673 2555 0
3494 4429 -184 0
1148 -2637 -2799 0
-2838 -4618 -102 0
3572 2728 1799 0
4101 -4808 2807 0
-4653 238 -4094 0
-1268 2513 -3082 0
-1432 1945 -325 0
3288 2641 2578 0
-517 -2274 -2185 0
3121 -4650 -406 0
3633 1937 1328 0
155 3979 577 0
241 3883 -1048 0
4753 3282 -1599 0
841 3008 -3228 0
-292 913 322 0
-1133 4892 -4864 0
2240 123 -423 0
-819 20 4869 0
-3866 3610 1689 0
1254 3571 3745 0
2040 -4831 -895 0
3878 1212 332 0
-2332 -1163 2428 0
2719 -2414 -3430 0
1595 2733 -974 0
3720 582 -4979 0
2174 3119 3342 0
4491 3656 -2334 0
2907 -909 2069 0
-104 221 2207 0
-877 3577 -3167 0
683 -731 -2068 0
1842 -4095 2382 0
2850 -1073 1879 0
2824 2943 4578 0
2716 -2207 1270 0
2209 -4330 -3721 0
4276 -1336 279 0
-32 2905 -3046 0
-833 -2299 -275 0
3094 4000 -1404 0
4335 868 2869 0
-762 -1673 3314 0
2690 1299 625 0
-549 90 -482 0
4930 -4533 2621 0
-933 -1163 -4041 0
1714 1092 -2732 0
2119 867 1278 0
-3173 -3010 4671 0
3664 -4794 3741 0
-29 -4360 203 0
-1531 -1796 -1781 0
3616 -914 -796 0
1314 -4646 4568 0
-2040 -4484 -2005 0
-242 3106 -2331 0
-3153 -2141 -1015 0
-1545 -295 1083 0
1287 -2336 -3667 0
-2366 2947 504 0
4926 -1727 3079 0
922 -1773 261 0
-2969 3446 -998 0
1683 -4814 4807 0
1826 -3649 1139 0
-1505 6 3829 0
-4128 -2512 -4979 0
-3469 -3046 4696 0
676 4626 4165 0
1290 975 2664 0
2253 -3706 -4281 0
-273 -1000 3830 0
41 4618 -1591 0
-1958 3724 2268 0
4914 4546 -3016 0
2493 -533 -647 0
3924 -4711 -3833 0
4040 2663 -3429 0
1024 -520 -2190 0
-3244 3278 -2931 0
3780 2617 -2319 0
-3341 4346 2318 0
-6 -4111 2952 0
3529 -738 -3942 0
-825 1286 -3778 0
-659 -353 1202 0
-141 -3620 3943 0
1529 -1773 -3604 0
-442 3351 -4962 0
2374 -2828 2316 0
2730 -3245 2492 0
-2488 -555 1496 0
401 -4375 -2071 0
4930 4736 460 0
2158 4749 1849 0
2812 -4613 -84 0
1012 -1934 4464 0
-2502 142 309 0
-2331 -940 2136 0
2336 -2131 -879 0
2116 2064 -4009 0
4125 -3274 -3722 0
-3369 -4884 -4181 0
-4291 1960 4106 0
-1080 -210 3023 0
-998 3580 24 0
-1513 2116 -3348 0
3886 2270 2361 0
-3326 -306 -463 0
-3372 -2925 2761 0
-1890 4849 4032 0
613 -4569 795 0
4218 -2946 -362 0
785 2734 -1215 0
1420 -4493 -1270 0
1795 -799 -2092 0
-3836 -1783 4885 0
-3992 2538 1018 0
-2302 -4582 1527 0
1487 -4468 -2035 0
-4108 -2154 -2343 0
-315 2275 230 0
3470 -3877 3617 0
-1204 -3692 -1248 0
-336 -2838 -4996 0
4245 2454 -866 0
2341 -708 1084 0
1918 -846 -1310 0
126 2001 2937 0
-1330 -1190 -1687 0
2413 -1091 3048 0
-2478 593 -2057 0
-4797 -87 2279 0
-4810 -4178 -440 0
1284 1637 -1206 0
-1450 3728 -2951 0
1137 3558 338 0
-1358 3515 -192 0
933 -448 -4934 0
754 2111 1362 0
1932 -3521 4108 0
1134 -4287 3269 0
-3561 1564 4104 0
2269 -2051 4254 0
203 867 2052 0
3773 -3072 -869 0
-939 4409 3228 0
-821 -801 -683 0
-4473 3874 2256 0
4057 3477 1705 0
2904 -2320 -3186 0
3333 3845 30 0
-2556 3067 4687 0
-2192 3425 -2874 0
625 -1723 2088 0
588 -561 -4551 0
4256 2089 4355 0
-2225 -1976 -918 0
3957 3349 4733 0
14 -2232 -751 0
-4197 3766 -9 0
3184 2548 -4511 0
4871 -3176 34 0
-2819 742 -3867 0
-1305 -983 -2131 0
174 3625 -1265 0
-4722 1813 -2726 0
-503 -1551 3329 0
526 -3406 3608 0
-812 -380 -2623 0
-255 3845 -2643 0
-4296 3324 -4636 0
-2515 -1858 840 0
2509 123 -1742 0
2378 -682 -2093 0
3850 -4742 -4805 0
4438 4221 -1401 0
4998 -4667 1164 0
-1237 1873 2908 0
2424 -2565 -823 0
-4766 -2277 -3643 0
-73 -643 3325 0
-2864 3254 1137 0
952 -4077 4848 0
1907 1156 -1652 0
1650 -88 -2139 0
-2032 4366 96 0
2599 -3255 -4881 0
-1129 -2636 505 0
3661 2799 -4116 0
4628 2955 4974 0
-1474 2641 1318 0
-2526 3916 -4555 0
-1961 577 -418 0
-3085 -499 -215 0
-3137 -540 -4710 0
-1301 -4183 3359 0
-175 1275 -1772 0
-1873 895 -601 0
-1831 -2615 2621 0
1014 -2712 -1776 0
-549 -2294 -4677 0
3454 -2883 -1659 0
-3201 432 -93 0
2187 -792 -4059 0
-3542 -979 -803 0
3516 861 4037 0
1736 2801 -1948 0
-1646 1373 2232 0
-2755 -4208 -3360 0
-2808 -3841 -1984 0
4998 -4018 3404 0
4708 1068 2054 0
3376 1523 -111 0
1389 2535 -3833 0
2876 -4690 -4538 0
-4541 -117 -3301 0
61 -1509 48 0
-4203 -4522 4884 0
-2383 -1793 -1338 0
702 3967 -3012 0
4517 4889 4936 0
-1523 -2674 -1622 0
-2424 3978 277 0
1606 4618 37 0
-3880 -319 -2129 0
-4283 2795 -2241 0
1522 4820 3674 0
-647 -2599 -2452 0
-2056 -423 -953 0
-4690 -4471 -3181 0
836 3604 3182 0
4151 -258 4647 0
2526 3224 -1788 0
1568 1804 3388 0
1939 2997 17 0
1564 94 2453 0
-89 -235 30 0
1914 4983 4029 0
2618 -3539 3720 0
-442 20 -3525 0
-579 -355 2596 0
-4831 -358 4177 0
4846 -1565 -1378 0
2173 1830 -3767 0
-3519 -4296 2220 0
-3978 4128 4936 0
1786 2592 -3854 0
-1639 -2869 -2253 0
-118 -4703 3697 0
-1641 -381 2310 0
1045 -4908 -2792 0
2667 -1764 -3807 0
-2479 -975 4635 0
-1207 -4690 -4512 0
-2933 586 -751 0
308 2116 2146 0
901 1952 -1791 0
4186 -309 2959 0
674 -4751 1117 0
-4489 -4851 2012 0
-3775 -1345 -193 0
4427 272 1959 0
974 -3097 -4273 0
-2741 1074 -4286 0
-4682 435 -1493 0
1753 1262 843 0
4689 -1784 -4870 0
2186 544 -4663 0
1930 3276 -4632 0
-669 1937 900 0
-954 1605 -1526 0
-664 -586 -1084 0
2692 -4987 -4348 0
314 2920 1420 0
4237 2463 -4604 0
1140 3821 765 0
-1722 4924 540 0
-521 1227 2836 0
-1336 -1293 3848 0
3528 4151 -1276 0
4502 -960 2134 0
812 27 627 0
2717 3357 3984 0
-2903 -2601 4587 0
-3556 -3800 -3742 0
-2053 4168 -57 0
2624 -4920 4522 0
2724 2466 140 0
1859 3545 -1991 0
-4200 1758 -4703 0
-3221 961 4667 0
-4315 4151 -2289 0
-3094 -4396 -496 0
-2905 1061 -741 0
3453 3275 2399 0
-177 -2335 377 0
-619 627 4715 0
-147 932 1356 0
2341 -2756 82 0
3026 4048 -1247 0
-3919 1976 4216 0
-678 -3457 1930 0
1302 3324 2242 0
2098 -1263 -3685 0
2702 -2011 3150 0
-421 998 4339 0
3030 -3202 1307 0
3421 -4111 -3358 0
-4655 -4772 -4964 0
-1442 -2563 -4783 0
1863 4413 -995 0
219 940 -2026 0
405 4618 -3570 0
-4951 -3446 -863 0
-4633 2201 -1667 0
-4115 3901 -2076 0
3056 -1394 1050 0
-3314 293 3674 0
3073 3508 -1759 0
4124 3511 4065 0
1769 4057 -1929 0
-1191 2080 1707 0
4599 3977 -3625 0
-2074 -4876 326 0
-3955 1122 -4123 0
-3093 3293 4819 0
-1511 -3314 -4493 0
2755 -2319 95 0
-4456 1478 4193 0
-3389 -3049 3416 0
-2422 2662 4282 0
1087 -4314 713 0
-4815 3196 413 0
4130 1063 -127 0
-184 -798 -204 0
4868 1089 250 0
-4999 2300 -1158 0
-230 2265 15 0
-1225 -2240 -4804 0
-4923 2845 -3409 0
2785 1682 -318 0
2707 2094 3852 0
4279 -2155 4937 0
1144 -4737 4020 0
1797 -1377 -2897 0
3330 2664 2241 0
536 18 -1269 0
4148 348 726 0
-4866 1640 -3502 0
4307 2233 164 0
3290 -4630 -3399 0
1027 -1650 3923 0
877 1717 -4530 0
1740 -2322 1837 0
3783 4593 -546 0
-2099 -2295 -2773 0
-2962 4311 801 0
-339 -1216 1691 0
2000 -3573 3087 0
-3585 -1468 916 0
4350 -2999 1171 0
-2800 4366 -4602 0
686 -2505 2974 0
282 1779 606 0
2640 -2517 -3956 0
-805 2868 4411 0
3887 642 -1651 0
-135 947 -2250 0
2930 -4589 -1979 0
2353 3031 3293 0
-1550 3098 1172 0
-3944 2021 4907 0
-1929 -397 -4216 0
3469 3174 3945 0
-2736 -3676 -3014 0
875 4375 -4668 0
-1751 4871 -2506 0
4074 4703 -327 0
2587 -4614 2637 0
-246 -722 3233 0
1696 3536 402 0
-4786 2946 -4250 0
-3852 -4657 802 0
-3543 1810 4260 0
2076 1242 1725 0
1304 -934 4287 0
-1613 -3744 3515 0
-1345 3262 -211 0
-1463 -813 4635 0
-4105 1649 -1598 0
-1095 339 -2288 0
4835 -3199 762 0
-1184 -2545 -3762 0
-4250 1891 624 0
1249 304 -1463 0
-3899 4249 -3557 0
3520 -3584 581 0
858 -1556 -2288 0
441 -1311 -4871 0
-1970 -1537 -3491 0
1171 841 475 0
-4442 3239 -3371 0
19 1512 -1151 0
-323 482 -1227 0
-1521 -4869 -1330 0
2007 806 -1870 0
4276 -2054 -3307 0
3132 -1909 -3526 0
-2206 -4431 -1218 0
-1244 -490 -2532 0
-1454 747 1803 0
2871 -2549 -90 0
-20 -4920 1030 0
4294 -4956 2145 0
-408 -1828 -588 0
-3332 -1033 2838 0
4835 -3154 -4699 0
491 2326 -4258 0
-128 -973 -3280 0
-2276 -4391 -1901 0
-1176 3657 4322 0
826 3091 -275 0
-2398 1348 4755 0
-119 1640 2378 0
-1580 945 -2972 0
3481 -611 443 0
3357 -2207 -1792 0
-4979 1015 -3837 0
-3160 -3439 2515 0
-1888 824 -2964 0
-1356 -191 -2937 0
1347 1897 2249 0
1871 -1550 3531 0
-4240 -757 -963 0
-2246 -433 3106 0
-4552 120 667 0
4384 3231 1384 0
-2271 -984 -2491 0
-4158 -3233 -102 0
-2369 1754 -2676 0
4837 -3545 693 0
227 -4703 -1782 0
4488 -2091 1503 0
4568 -1051 2207 0
4191 -2038 -4773 0
-2834 1097 -1403 0
-3054 -137 3483 0
-3463 2099 -4117 0
-1582 1088 4450 0
3323 1228 -2620 0
-2576 979 -551 0
-807 1366 -4740 0
-3797 2881 1233 0
4483 -669 -2633 0
-1845 1161 -1667 0
-3448 -2155 2394 0
1790 -3256 -311 0
-3988 3439 4994 0
4792 790 -3214 0
4563 -1496 -1165 0
-4427 4130 -2552 0
4166 4957 -304 0
3803 4778 -624 0
-338 -713 2681 0
-3386 1661 4234 0
3471 -1102 2579 0
3620 1972 536 0
4571 4029 -4702 0
4714 2419 216 0
-4873 1352 -308 0
-4146 -3869 -273 0
-4379 -1286 3148 0
3424 3433 -1104 0
-4011 -1389 1773 0
2923 -2471 -4944 0
-291 4091 -2365 0
386 -4014 4703 0
110 -2164 -4643 0
4657 -615 1414 0
-611 1260 3071 0
-51 552 4996 0
1268 4608 2975 0
-1188 662 -1306 0
3087 3568 3103 0
4071 -3851 1638 0
-2748 -2204 -1182 0
1982 1436 -242 0
3739 184 835 0
-1250 2270 -552 0
1305 -4196 -2425 0
-410 4314 888 0
-2276 -3623 3716 0
-2619 2855 3515 0
-2243 2783 -3297 0
3568 4851 -4141 0
4812 2709 -1349 0
4918 -1973 -3448 0
4116 2092 -494 0
-383 1926 -438 0
1765 167 4568 0
-1648 -1103 -2194 0
573 1768 2593 0
-2147 -2616 1268 0
1697 -1369 -2094 0
-909 256 4071 0
-2459 816 3725 0
-2644 -2738 3981 0
4525 4852 -2155 0
192 2133 1475 0
769 -2438 2675 0
-338 1058 1143 0
1623 -1106 -4705 0
-4524 4951 -854 0
2495 4587 313 0
3208 4984 -3977 0
4704 -3901 -4038 0
-2269 3669 368 0
-3879 -4296 3319 0
-2444 -4892 4114 0
2124 -2480 883 0
3312 -1939 -1603 0
-1430 2623 2674 0
1165 3349 4823 0
2060 -799 1982 0
639 -1541 -410 0
4901 3954 -514 0
-515 -1418 3836 0
-2275 3402 -4591 0
-286 -626 4788 0
-4811 1588 -2453 0
-4473 -1451 -2419 0
4167 -3024 -3113 0
-2968 674 3151 0
631 1315 -936 0
-4100 -983 -840 0
-725 4543 739 0
4994 -129 223 0
1020 -1096 13 0
-1029 -715 553 0
-2858 -2918 2223 0
2825 2130 -4657 0
3143 -2258 -524 0
1453 -2459 1440 0
302 -2872 1888 0
-2265 -547 -75 0
4057 1801 -162 0
1135 3852 2377 0
-4837 -3981 3642 0
-3650 -2520 -2938 0
4007 -3133 4757 0
4259 2493 2778 0
-4169 -1851 2494 0
3555 2459 2970 0
2348 957 1874 0
402 734 2798 0
1334 1092 1008 0
4943 -301 4014 0
3323 -2857 1782 0
-3562 -2197 1144 0
4593 -3324 -3116 0
-2609 1056 2223 0
1880 75 395 0
2271 -3162 3272 0
-2759 -3391 -1519 0
2965 2229 -1583 0
4567 -263 4593 0
-1124 662 -975 0
-329 -498 -1061 0
3825 -147 4423 0
-3473 -2501 2008 0
-238 -1198 -3230 0
-1282 -4606 -930 0
-1980 3131 304 0
4207 2101 3089 0
-3343 -2474 -121 0
3666 4907 368 0
-4301 3063 409 0
2682 2818 -2827 0
-4835 1887 4206 0
-512 476 4738 0
1603 -3331 1881 0
785 -1526 2231 0
-3383 672 -2849 0
3342 2394 -272 0
3839 3280 -559 0
4560 4471 4568 0
-3103 123 -1900 0
1538 -4454 -2381 0
143 -3668 159 0
1842 2106 2973 0
4550 -57 89 0
-3484 -4138 -1836 0
-1116 2645 2990 0
-4635 -3970 -784 0
-455 1462 688 0
-2004 1193 -4143 0
-4511 -3176 -2163 0
3357 39 -2785 0
3694 -3157 -2126 0
-4676 -352 642 0
3831 2479 95 0
-52 4302 -1400 0
1938 -2692 2001 0
-1906 -2669 -3668 0
3738 -2760 -4845 0
-805 -1955 2318 0
-4106 1901 517 0
1710 1272 -3096 0
-3229 3850 -3608 0
4610 462 1278 0
-1783 391 4255 0
2079 1671 -2766 0
-29 -1229 -3185 0
-509 524 -4118 0
3869 -4206 -2961 0
324 -323 3751 0
378 3678 -1756 0
-457 3006 2385 0
2448 2161 -1300 0
-1591 -1648 1171 0
-1017 4569 -4683 0
665 4586 -1642 0
-4000 4185 -3766 0
1587 -4653 -59 0
-271 1095 -3273 0
622 3404 -412 0
3448 -4144 -4346 0
3822 -4287 3710 0
-4273 -2777 439 0
-457 -2377 -2352 0
-787 2222 822 0
-1690 -595 -4989 0
4471 1515 -3878 0
-1003 -2632 -4869 0
-2700 -3565 -1682 0
1568 -2268 -4077 0
-3636 -4786 436 0
1367 2289 -2124 0
40 2968 -4269 0
3659 348 3479 0
4864 2114 -805 0
-4065 2101 2862 0
-2699 1213 2916 0
-4332 11 -3064 0
-88 3537 3215 0
-3408 4675 -261 0
-3467 2160 -383 0
376 -250 -1705 0
782 -4123 2671 0
2356 3124 -3527 0
-3964 -655 3975 0
-3899 2974 -4031 0
1466 570 2424 0
-2651 -1052 1805 0
-180 4898 4979 0
-371 2820 -44 0
-3097 -2591 2876 0
-4291 1074 -230 0
4717 -3623 3377 0
-3050 -1609 1742 0
1879 1243 888 0
-2194 -1614 -1407 0
254 1553 3837 0
4035 1956 4554 0
1230 -500 729 0
14 2120 -1195 0
-2498 -3237 3343 0
-2594 2063 -2631 0
2348 973 -2356 0
332 4022 -2200 0
-3490 2359 2577 0
-2549 3032 3109 0
-4251 -341 -2853 0
2200 205 3557 0
-2296 3479 759 0
471 -545 -4751 0
1447 2574 731 0
-1654 -1410 -2525 0
1260 -4556 -2837 0
-2039 -602 4 0
1045 4558 -3999 0
963 -2365 -4799 0
-3756 3713 1744 0
3688 -2220 4688 0
3871 420 -1639 0
-770 -3745 3363 0
-491 3580 3501 0
2315 4774 504 0
3488 -1697 4916 0
723 -2209 -2718 0
-4003 -2002 4598 0
1033 -2433 4828 0
-3796 -2347 3343 0
3961 -3309 -1082 0
-1023 -886 -2217 0
-1765 4359 231 0
1964 -166 506 0
-3360 2303 3946 0
3090 3060 4526 0
1071 -4669 1896 0
-3232 1271 -2603 0
-4903 4317 4074 0
924 3293 -768 0
-641 -1575 518 0
-1161 628 -4328 0
4711 -1497 -3286 0
2235 1237 -4269 0
2097 4090 1016 0
-3683 -3654 2248 0
-3258 -4161 -4014 0
1067 -1334 -3929 0
-4612 4564 4032 0
4304 1788 319 0
-4416 -915 -1740 0
-4426 4878 -3431 0
2469 2595 2983 0
-1453 3655 386 0
-148 3872 -1367 0
-2518 4821 -2395 0
2326 39 620 0
-94 -4488 -804 0
-3685 4296 -50 0
2350 3724 -2544 0
722 2137 -1638 0
-1550 427 -4916 0
2407 -763 1480 0
1095 2695 -3789 0
-4557 1905 -1550 0
-4795 -2890 839 0
16 -3453 -1907 0
4500 -3318 -3789 0
-4021 1265 467 0
-2954 1296 -595 0
-2478 1757 4742 0
4377 -3094 -802 0
-3084 2284 -265 0
332 2389 1393 0
1355 -2673 -2175 0
2339 -144 -4263 0
-2203 -4796 4594 0
-2917 1654 4858 0
2646 849 -199 0
-4808 -2024 -2955 0
-1848 -2973 2506 0
4993 1710 -369 0
3837 -3080 -378 0
3533 -4902 -1985 0
-2511 -2340 4518 0
-3081 3908 -4209 0
4095 -2121 3839 0
4682 -4478 -2673 0
2894 -2595 589 0
-920 -2965 3415 0
-2280 -164 2701 0
-4744 1351 1263 0
-3314 2650 -3908 0
-3942 -1892 -3422 0
2196 973 -4803 0
4224 2168 2395 0
4932 -3353 4034 0
4516 840 1055 0
4285 1650 2072 0
4644 4229 4472 0
-2975 -2127 -1809 0
1512 -1572 -2353 0
4637 -1902 1539 0
3021 1152 401 0
4699 3512 3903 0
-1701 4349 -1275 0
-2356 -3240 587 0
2633 -277 -3624 0
-739 -1301 4629 0
482 -144 -1404 0
-1325 4486 -1283 0
4530 4568 -2357 0
4249 3449 -1826 0
3702 415 -2621 0
-4563 -2123 -3489 0
-4003 -228 2405 0
-3640 1297 2593 0
3510 463 2825 0
4391 -4632 -2801 0
545 -581 -1015 0
-2261 2077 1709 0
4727 -4015 2539 0
4609 4792 -101 0
3475 -648 -105 0
-4154 2791 -97 0
-3886 284 -1654 0
-2509 3184 4066 0
-2423 2380 2677 0
-2259 872 -3452 0
-3755 -2767 2177 0
1168 -2346 728 0
-1965 3970 2851 0
4317 3786 2912 0
-4033 1798 3945 0
1249 2150 -3948 0
387 -4747 229 0
2545 4687 4968 0
4491 -2179 2379 0
-1026 -3089 -3471 0
-1474 1630 -2023 0
3963 2352 3223 0
-3669 -2268 -3417 0
2296 384 -2379 0
3844 4188 3594 0
1036 1833 -4210 0
4444 2311 4553 0
-2237 4417 -2615 0
507 -1041 -1504 0
4745 1907 706 0
-4452 3613 -1606 0
-3766 3418 -3856 0
3553 4290 3480 0
-248 -2807 -29 0
-414 2315 1025 0
3693 3802 1486 0
210 -4796 -2066 0
1211 3792 2882 0
-2172 -3457 3411 0
-812 -1695 4669 0
-4396 3625 4668 0
3771 4635 -1495 0
-3018 2211 -4261 0
-4868 3527 -4553 0
2326 -515 4156 0
1341 -1644 4530 0
1751 4618 -3124 0
676 1882 -1251 0
2876 -2636 3732 0
22 4979 -4109 0
-1442 4845 4108 0
1800 2292 -378 0
3087 -4799 2839 0
682 -2275 4377 0
-1617 -3764 1752 0
3325 2591 -3203 0
-4861 4019 3423 0
-4448 -557 -1810 0
-1589 4267 -1030 0
169 -4387 3309 0
-1797 4928 631 0
1028 1255 -1297 0
-3801 -1925 -4651 0
925 219 1332 0
-4940 -2142 -4933 0
4216 1257 3949 0
-1586 -4517 -4453 0
2460 -1467 3977 0
-959 2755 -3462 0
3427 1373 -1504 0
520 1485 4363 0
-1652 -2692 -297 0
-3090 2718 -1991 0
-1538 4947 -1839 0
3401 -2723 -1367 0
-2678 1107 4426 0
-1731 4637 2730 0
2510 2930 -1256 0
-936 291 -2777 0
4755 2256 -3814 0
-365 4718 -3443 0
-4697 -3713 1593 0
-2557 -1442 -1765 0
2681 2667 -2396 0
-1599 2799 3613 0
2415 2702 785 0
-4746 -951 261 0
2451 4804 2840 0
-3399 2226 721 0
-4926 3373 -4493 0
-4895 -4714 4363 0
2140 -3098 2815 0
-1201 4912 4818 0
-2768 -221 -2779 0
238 -4333 -3100 0
-3841 4621 2836 0
3130 3678 3931 0
-2399 2864 -3748 0
2916 412 -1573 0
-3870 -1542 1217 0
-3662 -1412 -2608 0
4675 682 -3946 0
3800 -4659 320 0
2601 3092 -1495 0
1014 1629 1779 0
-1376 -782 -4216 0
3128 1872 3136 0
3099 -4888 -1106 0
-405 557 -2399 0
1075 2246 -2123 0
3503 4970 -1370 0
3254 601 -1540 0
4724 2599 4245 0
3674 -4505 -3258 0
-2769 -3333 769 0
-1321 -3223 -1817 0
-3766 -2990 2549 0
-1286 -3439 4664 0
-4013 4027 -3263 0
-143 -573 -2020 0
3282 -602 -3646 0
-3742 848 -4782 0
1448 -3951 1687 0
2838 -3503 1276 0
-3999 -1580 -3752 0
-2447 2055 -2921 0
-403 -2567 -4658 0
-2811 4964 -4957 0
2249 -4953 -1849 0
4308 -2829 4579 0
-2605 -4045 -3695 0
-1661 -1845 -2905 0
1883 -2515 4638 0
-3909 2851 536 0
-4950 -844 -2130 0
4640 -4905 4941 0
3617 4276 2079 0
3785 3469 4345 0
3453 -2679 -2032 0
2382 -3868 -4792 0
-2131 1661 -390 0
1980 3901 3657 0
2551 970 4939 0
-560 -1676 -4298 0
1370 -4050 -96 0
4997 -3857 3109 0
-4931 -1187 -3465 0
1179 1759 2914 0
-3719 2380 -620 0
-4625 -1415 1087 0
-2585 -2943 4375 0
4121 -128 4544 0
1691 3609 -4739 0
2773 729 -1703 0
3109 2256 -1228 0
8 3051 -3900 0
2108 1931 -2438 0
4166 2155 -2243 0
-3943 2310 -4614 0
4332 3473 -2134 0
950 -366 1006 0
-2963 3687 -50 0
2591 4698 -530 0
-4271 -4020 4195 0
1650 1134 -276 0
-1026 -2213 4023 0
-4034 495 -3092 0
-2059 1274 4639 0
-295 1929 4879 0
544 -3027 3897 0
170 2093 4394 0
-3741 3253 -4431 0
-2316 4351 -609 0
662 4832 -3576 0
1410 -4075 -4071 0
1953 760 -3300 0
-104 -1810 -1869 0
4752 245 -4018 0
-3954 2483 -2261 0
-3177 370 -1737 0
-124 418 -2839 0
-1126 3686 3957 0
-323 4065 2099 0
2118 3168 742 0
-2128 3391 4587 0
3587 -1718 4136 0
-4679 3636 50 0
1715 1224 -1532 0
2923 -909 -265 0
1986 1004 4745 0
-4889 4962 3009 0
-3002 -853 3663 0
-900 -775 -2306 0
2781 -4088 2777 0
-3323 -1021 -4756 0
-2052 -4196 -4757 0
-787 1211 2579 0
2429 -1909 1616 0
3449 -1303 4407 0
-850 -3731 4751 0
3730 -2956 3436 0
-3965 -157 2097 0
-3571 1672 -136 0
-4370 -4732 -78 0
-1276 -2864 -2383 0
-878 -1054 -4911 0
41 281 -4963 0
4879 -3987 -1480 0
882 3835 2445 0
-2066 4456 3580 0
3338 1436 2686 0
4921 1121 4454 0
4939 -4300 658 0
-1234 3492 378 0
2758 -3554 -3069 0
543 -1096 -3880 0
-3101 947 -2492 0
-4923 3877 1826 0
252 4074 3714 0
-4881 -2259 -1504 0
212 -4820 -4834 0
4792 1150 3335 0
-3164 4850 -4066 0
2771 -1200 3906 0
4104 -2273 4976 0
4368 677 668 0
-160 -3687 -2317 0
1416 -3676 -2659 0
-4184 833 -3800 0
847 1100 -2175 0
2023 -621 2145 0
4169 89 -57 0
-3480 3612 -4226 0
3777 4073 2873 0
-4676 -2980 -4533 0
4121 -1233 3473 0
-1960 2132 4144 0
2570 4135 -1857 0
-1715 -2567 -608 0
373 -4411 -1661 0
-2421 -4145 574 0
-2076 210 4491 0
-1622 -2431 4599 0
-2883 -274 4662 0
-1024 1930 1569 0
-1092 -717 -1675 0
4355 -3426 -147 0
-1472 975 1837 0
1380 3661 -3576 0
-4886 -552 -1721 0
-4323 -4374 -2630 0
-408 -1476 -2231 0
-3879 -2359 1600 0
3125 2438 465 0
-829 -684 -1247 0
-4384 -2869 396 0
3559 -599 -4294 0
4097 -542 -1583 0
3533 536 -2415 0
-1712 -230 -4752 0
3835 -98 -475 0
1351 3759 -2908 0
398 681 1649 0
3287 3538 -1890 0
-3828 -634 -4652 0
3538 -8 2191 0
2033 -1971 2467 0
3981 -2489 -741 0
2559 -3530 1538 0
-1348 1845 -4478 0
-2298 -4997 506 0
207 4179 -3834 0
2878 -938 3082 0
-4467 -716 -4132 0
1755 2192 3316 0
-492 -1537 -2865 0
-1751 -1507 -2538 0
-3015 -3315 -28 0
3876 4816 -3316 0
1530 4858 -4258 0
3701 -3667 2381 0
-841 -4080 -4689 0
-2739 -2665 -2088 0
-1845 -217 568 0
-2945 2809 232 0
1318 -2246 1266 0
1991 1912 8 0
1970 3058 2936 0
-3495 3261 -2798 0
-4335 4213 27 0
-2591 -4322 4103 0
1280 2320 -474 0
476 6 4455 0
203 -3147 -1672 0
4717 -4273 1450 0
131 2302 -4410 0
-4371 1557 2348 0
-1636 -1092 1170 0
4440 -2582 486 0
-3504 -4477 -2604 0
2124 -4812 4337 0
2444 519 -937 0
4180 -1192 -1036 0
4041 392 1467 0
-1352 1677 706 0
-775 -4454 -852 0
-3509 -4494 -2919 0
4073 3240 3239 0
-4917 4982 439 0
2299 -1711 -3738 0
-2138 2604 893 0
3819 4753 -128 0
1783 1099 -731 0
2954 3804 520 0
-143 4951 248 0
-571 1853 -3561 0
391 2256 2001 0
3009 -474 -1982 0
-3915 2886 1528 0
-4104 512 -74 0
578 -2671 1385 0
-514 -3539 -1826 0
2382 -299 -4126 0
-4624 3085 4131 0
419 637 1019 0
-27 -497 -3817 0
4107 2561 2107 0
305 2071 3585 0
4564 -1706 890 0
-353 3443 -4644 0
4911 -4544 -3905 0
4809 3181 912 0
-208 424 -907 0
-4164 4929 2548 0
-1436 2533 374 0
2002 1175 2555 0
350 -1354 -1307 0
2394 -412 -371 0
4316 -2840 460 0
2306 928 -3051 0
2693 -868 -4385 0
-1110 2554 4631 0
-4411 -3377 -4772 0
4717 636 2238 0
-4209 -1670 -900 0
-231 -2221 -4453 0
-4223 -1021 2956 0
-544 -4994 142 0
2970 -3797 979 0
2345 680 -3158 0
-3241 -100 -4578 0
2889 -111 1537 0
-3360 2000 2593 0
-2355 1679 -3815 0
-2363 2801 -312 0
2052 -4889 -110 0
-3094 -4655 -587 0
-996 1868 3574 0
1071 4472 -2954 0
-4238 942 241 0
3676 1039 4814 0
874 -3148 -4592 0
4336 -4902 -4708 0
-3241 -2486 2854 0
-3119 2636 2372 0
172 -1693 -3863 0
-4661 4360 -3608 0
2833 2259 -424 0
3625 2482 -4624 0
4688 -3493 444 0
4486 -4456 -450 0
3586 1947 -482 0
1182 -2094 997 0
-2294 -4224 1628 0
-1963 3890 -3931 0
4608 -2446 2076 0
3585 2021 4065 0
4473 -215 1656 0
-769 -3415 4884 0
-964 -2079 -3618 0
663 -2803 -2709 0
1212 2937 3302 0
2411 -2612 -4746 0
-898 3999 -144 0
67 -3346 75 0
-2338 -2518 4391 0
-1444 4917 -1119 0
2474 562 3150 0
2971 1483 1428 0
4820 1337 -4709 0
1322 1383 -3178 0
562 307 -3440 0
309 -3986 1807 0
-1759 -1398 4406 0
-1328 -4651 242 0
2129 3331 -3030 0
4595 -892 -4556 0
3540 -17 606 0
4669 2311 -936 0
671 -1155 4214 0
1056 1361 1433 0
-729 1466 1140 0
-2844 -2925 1837 0
3969 -4837 -2973 0
2543 -4835 -1890 0
2625 -3938 -1273 0
-1864 -663 2314 0
-2608 1838 -1694 0
-3421 -2252 -542 0
-1942 -1639 -4558 0
-4843 -2020 3747 0
3601 62 3708 0
-4098 -2410 -240 0
3656 306 -1257 0
4823 -439 1784 0
3522 4794 582 0
-588 950 -3591 0
-247 3815 910 0
2850 4780 1563 0
1571 2162 3963 0
2823 2181 -541 0
4084 -4667 -556 0
-305 -1324 406 0
-2562 -1138 2847 0
1985 1469 -1826 0
-975 -4113 -1959 0
3350 -4984 1445 0
-1100 622 853 0
2359 -2791 -430 0
-3841 -2129 -279 0
3094 2967 2927 0
-1794 -3182 2827 0
-4649 -413 -4248 0
-3343 -2822 2375 0
2029 -1874 -1205 0
4582 3304 3024 0
4874 -2571 -1843 0
174 -1637 -3107 0
-4229 1456 -3810 0
2507 -976 3175 0
3007 -4307 3432 0
-4937 222 4198 0
304 1741 1886 0
3485 -2921 3097 0
1471 -4306 -3454 0
3357 -1678 651 0
2693 2542 1697 0
-2281 131 -3379 0
1152 4894 3465 0
-2221 3622 -2899 0
608 -535 -3073 0
-1168 2589 4516 0
-4771 2376 1118 0
2044 384 -4706 0
931 1040 -4125 0
-2742 -4431 -1761 0
-347 -4436 3583 0
3625 3718 3404 0
1780 4309 3962 0
4561 -3326 -1093 0
2183 2099 3366 0
3173 -1618 2379 0
1415 -4740 2003 0
3736 4173 -577 0
4660 -2397 -4436 0
-3647 -4948 842 0
-3795 2508 -601 0
800 2064 3051 0
3845 -744 2284 0
2873 4983 -3370 0
-3759 -4055 1522 0
-2453 2773 -1872 0
-1488 -1512 306 0
1676 1331 3347 0
-649 4402 4557 0
-3120 -460 1746 0
4234 3780 1434 0
-4427 1143 3447 0
2269 -4447 -635 0
-96 -1816 4982 0
3488 -1142 4387 0
-1984 3266 -1725 0
4884 -405 3045 0
3201 2812 -2200 0
-4155 2591 2150 0
-780 -171 -3349 0
2352 -1016 -3798 0
-4791 2708 1166 0
-4316 -1339 -614 0
3705 -4367 3548 0
67 -3501 -1942 0
711 4176 -370 0
359 4705 -324 0
-415 4519 -1372 0
-318 -4366 -4481 0
2792 911 3150 0
-3628 -2811 -727 0
3848 -3825 -3135 0
-92 3230 1893 0
-1521 1485 -93 0
-4939 2732 3409 0
-1694 4658 741 0
-1197 -3906 3281 0
2607 -2614 4469 0
-2735 1536 -4960 0
1191 394 -4958 0
-445 -2212 -770 0
-595 1193 93 0
650 -4794 -3 0
3807 -228 2249 0
-1398 3779 -4551 0
1031 1778 -2194 0
-2953 -1138 -4753 0
2865 1822 4645 0
1003 3044 -2098 0
3707 -3616 3279 0
-3365 -1362 50 0
2780 2723 1181 0
-3650 2282 2060 0
-189 -193 2526 0
4853 3629 -2829 0
-437 1682 3710 0
390 2814 -4381 0
-421 4256 1004 0
-3968 3289 2072 0
3679 2657 3733 0
146 -3913 -300 0
-3957 -3435 16 0
417 -2485 -1782 0
4797 -99 -3642 0
1709 2518 -2995 0
-1202 2051 -4248 0
-511 -3007 982 0
1763 2768 426 0
920 -3701 -4795 0
-1076 -4760 4817 0
-1412 -2986 455 0
-1954 4084 4925 0
2174 1094 3571 0
4113 -226 -4312 0
-3818 -511 -3261 0
2335 2166 3914 0
-1621 1224 -3280 0
-4468 1771 -3290 0
1193 4868 371 0
2838 547 1170 0
-840 3518 1774 0
-14 1270 -354 0
4097 -238 -17 0
-2555 990 -1859 0
-1715 2503 -3139 0
-847 -4632 -2378 0
-2439 -4622 -4685 0
-1644 -363 -2411 0
-3761 -3505 2828 0
102 -3765 2006 0
3959 244 1865 0
1980 -1595 -3812 0
-4064 -643 -3457 0
-2655 3212 1099 0
2163 3367 -4286 0
-2428 -3030 3432 0
4155 -4325 -2542 0
2492 2242 -382 0
-4415 4698 -495 0
-4353 -4146 -2080 0
-625 -3859 4298 0
-1056 2580 -3735 0
-2344 3873 -3583 0
-4694 -250 -162 0
2855 -4467 531 0
-4618 -1159 2999 0
-412 -826 376 0
-4268 -3626 2910 0
4446 1953 4592 0
3432 -4520 793 0
-360 3636 -852 0
3021 -4878 -4041 0
2905 776 -321 0
3677 -1271 4462 0
3720 -869 2311 0
4412 -2572 -1984 0
-844 -3935 -4158 0
2974 3564 2452 0
-4867 -2138 -2893 0
3035 4728 4206 0
-3194 1649 -1114 0
-3163 3401 -2151 0
-3011 -1838 -2009 0
3534 4719 -3564 0
-866 3806 -4680 0
-1788 4308 -410 0
-2753 -936 -431 0
-472 949 -4185 0
1742 -3779 4201 0
-1710 3025 3213 0
136 1264 -1224 0
-846 3084 -1015 0
-1292 966 2916 0
-595 -1750 4051 0
3633 1563 -2705 0
-587 -3287 56 0
-3917 -24 4060 0
-1518 -11 3815 0
-3050 4041 -4021 0
-3002 138 -168 0
-3528 -1973 -4485 0
-4591 2033 -1673 0
3134 1230 -2614 0
-898 3307 1476 0
-1624 -3276 -4508 0
1658 -3558 4728 0
4309 3323 4269 0
-2084 4541 -4217 0
2581 327 -3181 0
-1695 -3832 691 0
-4509 -3541 -3635 0
2645 -3218 -761 0
1618 1806 1430 0
1 -4096 -4769 0
4069 1858 4162 0
2643 -3649 -3256 0
2756 -505 3143 0
2619 -4001 -2744 0
3657 2293 -2335 0
307 3684 1048 0
2994 3811 -1386 0
4853 -1166 -4101 0
551 4218 -3607 0
-2991 1257 -2365 0
-1874 -3309 -4818 0
370 -3788 4302 0
-1955 813 606 0
3722 4341 -2159 0
-1814 -4317 2884 0
3554 4800 4537 0
-1592 -38 2004 0
-3391 4572 -4920 0
-1573 2749 4991 0
519 3587 2200 0
212 -3575 -3222 0
4861 4039 -1850 0
3355 -3116 1176 0
2506 1142 183 0
2617 3290 -4146 0
882 231 3022 0
1385 4181 2922 0
-1500 -4569 451 0
3178 -102 -506 0
3776 -607 1369 0
2666 -2598 -2266 0
3165 -117 3419 0
2864 -2817 -4406 0
3156 -2280 1070 0
-879 3539 -1168 0
-202 3701 -2307 0
111 4408 2132 0
-4726 -3316 -3787 0
1907 -3409 1987 0
-187 1501 3315 0
974 3946 -1 0
-3027 -2508 -1918 0
-2872 2718 1592 0
2014 -2635 -4267 0
945 2665 -4602 0
2900 660 -4491 0
4496 -3383 1176 0
-125 -3035 4881 0
1989 2267 -3503 0
3753 -2529 2882 0
1973 -1235 -4033 0
-32 4284 2021 0
2583 1972 -1049 0
1119 -1153 -669 0
-2210 476 -3309 0
-1910 4504 -3010 0
4835 2138 457 0
1161 3883 -1009 0
4491 87 -1867 0
3680 1129 4369 0
283 4568 -2706 0
-1687 -3165 -1975 0
-3604 325 -4658 0
-295 238 918 0
-1878 3795 -3253 0
-513 2944 2825 0
-1719 170 3499 0
-2696 2179 3958 0
-1005 939 3635 0
-4710 -1804 -4475 0
87 4662 111 0
-2995 929 4608 0
4385 4730 -1131 0
-1344 -3169 -1954 0
3543 245 473 0
-1366 4121 -2877 0
2482 -2964 -3323 0
-3934 4495 2847 0
-2204 2051 -1709 0
-3992 -4765 2391 0
-1347 3844 165 0
-2562 -2030 -397 0
-182 -4965 4681 0
667 -1686 858 0
1218 940 4394 0
-839 4416 2171 0
-4986 -1732 1653 0
4608 -2158 -656 0
3217 -751 3108 0
-2584 2390 -350 0
426 132 3877 0
-4984 1796 -2941 0
-2985 -3111 1245 0
3780 4626 -262 0
-789 52 4340 0
1686 -379 1758 0
3439 -4213 -724 0
121 -116 1282 0
2482 -2803 -3952 0
3877 -2876 2142 0
4947 -4859 4231 0
893 4809 -3578 0
2554 1449 -2828 0
-3328 -3659 -40 0
1031 -1039 618 0
701 4333 -2553 0
-4071 1763 472 0
1747 1069 110 0
-2336 962 -468 0
3709 -3396 1935 0
-4345 -698 1704 0
1623 3971 710 0
-4875 -2088 -1405 0
1674 -4813 -783 0
59 4943 433 0
1101 -2820 1600 0
508 -4664 -2359 0
-3248 3772 703 0
1009 3441 -1006 0
2488 -1332 -4798 0
-1363 1418 -2579 0
-1228 611 4198 0
-3676 -4318 -3182 0
-4443 4036 4737 0
359 -3148 4573 0
3975 2031 3255 0
4733 4849 -1106 0
2405 1420 -560 0
-3551 -1691 730 0
-1210 -2142 2394 0
4191 152 1035 0
70 -1929 4055 0
-4335 1374 4780 0
795 -3577 -2686 0
2408 -2979 4844 0
-4803 2317 -1283 0
-140 1403 -2419 0
1082 211 2397 0
-1205 1277 -2536 0
-4972 3225 2855 0
-2192 3579 -17 0
2455 1879 73 0
-674 4009 4386 0
1000 2100 -1337 0
4890 715 -4642 0
734 -3517 -200 0
-3216 -4616 -3117 0
390 3509 3028 0
3378 -2371 3751 0
-2778 -3047 2504 0
-3199 -4481 -2106 0
200 -2358 2509 0
-4509 4506 2289 0
-3135 -2692 1926 0
1188 -3937 -911 0
-2993 4213 1629 0
4289 2249 4373 0
-3805 -4210 -2044 0
-862 4318 4645 0
2837 4560 -2483 0
-689 1952 -1151 0
2176 2145 875 0
-2352 -1919 -756 0
-1719 -1958 183 0
1799 2177 4123 0
-1900 463 -4853 0
-3087 1902 3762 0
-3269 -2683 -2547 0
-4288 -4457 1033 0
-2117 6 462 0
2418 -2147 -4302 0
585 4203 2181 0
-1206 446 2315 0
-265 -4322 -4289 0
1053 4309 2155 0
-2107 -2211 -430 0
-2264 502 1660 0
3853 -2836 138 0
-2922 -4166 -1614 0
157 -2148 3891 0
2464 816 -3717 0
2802 -2528 -1193 0
-4722 1734 750 0
-2187 323 -1173 0
4071 -1859 -3929 0
3778 2072 2066 0
1844 1469 -1758 0
237 3021 -3995 0
4071 -786 -1160 0
-132 2324 -4212 0
-1267 -222 3307 0
1927 -4010 -3621 0
-3601 3223 -1300 0
-2010 2783 -1865 0
-2795 -2618 64 0
-1875 -4211 811 0
2166 1444 -1335 0
3003 -1853 2357 0
-553 -3981 -3906 0
-1577 -1541 -4718 0
-1400 2965 -495 0
2436 41 -3909 0
4243 3215 2117 0
-4604 3572 -4362 0
3145 1243 4336 0
-326 4545 -2809 0
-4930 -690 3198 0
198 3697 2861 0
4607 4060 3581 0
2487 2045 -3816 0
1135 4095 724 0
-1977 967 -2786 0
-674 499 4765 0
4878 -2134 4667 0
1852 -3278 2007 0
-3545 -1567 -4009 0
2458 2172 -1069 0
-3184 -2148 -1306 0
-319 684 3255 0
-1521 -2725 -1486 0
1380 -161 2453 0
-4042 -4994 -1868 0
2879 3559 2786 0
4395 -3772 -2884 0
1593 4147 3275 0
4826 4604 383 0
-937 3400 -2425 0
2732 3940 -2798 0
-3407 -4420 -3186 0
-2197 4764 -4724 0
-3252 1152 775 0
1270 2530 1305 0
-3137 -4707 -481 0
1416 -4437 843 0
-740 3603 -3763 0
3789 35 125 0
3650 -1325 358 0
3185 2911 2235 0
-244 -2510 -1206 0
1471 4189 501 0
-2707 -963 3629 0
-1501 -947 -3045 0
-4891 934 1135 0
3069 -3297 714 0
-2263 822 -709 0
2665 2751 -2477 0
-3483 1152 -3808 0
-1753 2653 3759 0
2495 -54 -2247 0
1910 2770 -2138 0
-288 -825 -6 0
2983 -597 347 0
-1581 -2589 1199 0
696 1585 414 0
806 -1828 -2445 0
-3315 1303 -4605 0
1123 1662 4981 0
-730 -205 248 0
-3658 1000 332 0
-2622 1294 -4252 0
-501 -3514 306 0
-3297 3229 3694 0
4991 807 -1226 0
-4992 535 4282 0
1481 2542 -543 0
2405 -3743 -2783 0
-842 -893 -204 0
3592 4030 1106 0
-2002 4956 -3083 0
4668 4298 -3106 0
3527 1235 -4223 0
4313 4335 1255 0
1601 -1737 3377 0
-2441 -3753 -58 0
-4724 -2502 2261 0
-200 4250 -4215 0
4315 -594 4949 0
1916 -530 4116 0
1806 620 -2398 0
-1185 3877 -3820 0
978 -4421 -4656 0
-2507 -78 4878 0
4229 -1409 -1131 0
-602 -1267 1160 0
-4749 1455 1402 0
203 664 -19 0
-1414 -1650 -2549 0
224 3112 -708 0
3499 -4041 4484 0
-1411 -2728 3453 0
1296 1986 2991 0
2020 4576 308 0
-1835 1299 -100 0
4622 1516 4410 0
440 926 3019 0
-3870 -1969 770 0
1554 -1013 -2525 0
-673 -2197 -4157 0
158 2519 1470 0
3226 -864 -6 0
-3072 128 -4376 0
-3506 1061 525 0
4005 -2438 2366 0
4792 -3982 -3948 0
3506 -2837 -2014 0
-4684 -4705 -165 0
1871 -3615 -4613 0
3002 -1930 2300 0
-3512 -2848 576 0
-4723 -3027 2208 0
-4319 726 3463 0
1659 -3001 -2338 0
3669 -3406 1964 0
3948 -2266 1513 0
4824 -4658 -1226 0
-4844 -696 -2474 0
2102 1156 2328 0
165 -583 -3185 0
21 4092 -4167 0
2311 62 2036 0
3218 586 4741 0
2556 343 3502 0
-4916 -411 3297 0
-39 -2604 2618 0
3618 4903 3203 0
3812 192 -4208 0
-860 -2977 -4926 0
-4524 -1922 4316 0
-1312 -3829 -128 0
-1935 -1084 -2171 0
2651 2776 3931 0
-4749 -452 -3371 0
165 4014 3194 0
-44 -2031 -2190 0
-598 1266 -3726 0
2975 -3027 -1908 0
-1936 -2972 -67 0
2114 3776 -2956 0
-4891 -773 4297 0
-4762 4724 -1084 0
32 -3472 -3818 0
-769 912 1918 0
-1217 -4106 -4626 0
1099 -1211 3907 0
3951 -1546 -2200 0
-861 -3947 -3832 0
3647 -1674 -612 0
-4635 1959 1363 0
4952 -2203 -3389 0
2655 2072 895 0
2469 2857 1155 0
-3004 -2121 1585 0
-1780 -3620 1980 0
3878 2881 -3828 0
-4840 3574 -2339 0
-2123 4949 -2897 0
-1785 1938 -1508 0
1211 4278 -4690 0
4611 -1981 -2751 0
1932 -2596 2051 0
4018 -2465 -2951 0
-2012 -2791 2079 0
-1313 -145 -3032 0
3541 2446 1312 0
4656 -4507 -2081 0
-676 2383 4064 0
-1738 -3662 59 0
-3978 3505 3133 0
-1301 1187 601 0
-623 -2524 -2571 0
-618 1431 -4274 0
4126 4371 -873 0
-246 2730 -1946 0
-3839 -248 -3759 0
290 -2351 554 0
1016 -1965 -3646 0
-1080 -583 -1787 0
1662 725 1551 0
4475 -3668 4022 0
-516 3354 -1181 0
-2682 1642 619 0
-3015 -1055 -3952 0
-1307 3504 -1355 0
3236 -2909 -402 0
-751 -4497 -613 0
501 -2538 -2210 0
3749 3844 3201 0
-2687 4763 3622 0
-3566 -4564 -1101 0
-3676 -4133 110 0
-2434 3197 -4283 0
-2187 -4842 3678 0
775 3486 4480 0
348 359 -3986 0
-280 -4171 2831 0
-4663 -871 -215 0
2806 -1236 -4270 0
2823 2721 -1108 0
-2312 -4063 -1328 0
-1587 -2407 4546 0
-3230 -2876 980 0
1801 4726 -242 0
804 -508 -1807 0
4779 3785 -2892 0
3402 -717 -374 0
2554 3434 1666 0
-487 4359 4185 0
4971 -2175 -496 0
2854 -3192 -431 0
3899 -2232 -1264 0
-3055 -3805 -830 0
-3688 1868 2223 0
3301 -2129 780 0
-3717 -2911 2963 0
-3926 -705 74 0
4964 -3201 1298 0
-354 4323 -3529 0
-286 1904 864 0
-1686 -3835 -313 0
4660 3843 -3946 0
146 1804 1249 0
4599 -2193 -3509 0
-1947 830 4208 0
2253 -4149 2727 0
663 2983 -4823 0
1479 -4289 1817 0
3358 -509 895 0
-518 -3984 -32 0
-2785 -2747 -2240 0
-4437 3291 4923 0
-4700 -1296 2713 0
4825 2399 -3953 0
-1229 4948 -4783 0
1793 -3718 2262 0
-503 -2759 -877 0
-2466 -1265 -478 0
-4981 -649 -1635 0
3937 2295 3427 0
3137 -542 -787 0
670 4507 3401 0
4406 -4906 -4336 0
3677 -666 -2884 0
2825 -1533 -4348 0
391 -3096 4878 0
2998 1624 -4672 0
1828 2198 -3000 0
67 -1641 2152 0
-4514 52 4873 0
-103 1205 1681 0
4715 -1612 -820 0
791 -4935 -1681 0
-4816 -1959 1150 0
-861 -4822 34 0
-256 484 -3140 0
-3536 -429 2457 0
3836 2019 -4307 0
432 -541 -652 0
-3139 -3719 4956 0
-1377 -3871 3831 0
-2676 4059 -4986 0
-1485 -1931 4773 0
-2892 4101 4777 0
3462 -305 1979 0
-748 -3888 -884 0
-646 -1388 -1258 0
820 1210 3141 0
-1703 -2376 -1504 0
2659 -1161 -894 0
3732 4537 -4981 0
1916 4430 -4222 0
-785 -1511 -875 0
-2796 4372 -321 0
425 2899 2689 0
-3777 1306 -821 0
391 416 -3913 0
1727 1785 -431 0
2963 -1936 1983 0
-3743 -86 3378 0
4097 -3332 49 0
1040 757 -4019 0
4883 163 3805 0
-4096 -2052 3677 0
4461 -3237 4136 0
3787 541 -3665 0
246 4762 -3381 0
2085 -2939 1272 0
-516 -724 -3891 0
3334 3621 -829 0
582 -4695 -701 0
-1435 3461 3151 0
3484 627 2724 0
4018 -4745 -3890 0
-4995 3649 -4411 0
3673 -2693 3781 0
3196 107 3986 0
-4528 -2675 1750 0
3388 -4954 3062 0
3099 -1439 -1456 0
480 -193 785 0
1671 836 -337 0
-3729 546 882 0
3841 3427 3494 0
3791 -1969 4927 0
4683 -4089 3177 0
2443 -683 4660 0
1301 -4385 -665 0
-3401 4283 -2250 0
-2528 830 3069 0
3147 -1538 -2186 0
3483 -3342 2552 0
1241 -3855 -3954 0
-4160 1796 2335 0
-3497 4514 1696 0
612 -2198 3005 0
-4420 554 -2808 0
585 -486 3351 0
-115 -2479 2891 0
427 -1208 -902 0
3723 -4565 3558 0
-3337 -4886 -2667 0
1955 -3432 -4333 0
-1187 379 -1933 0
-767 782 233 0
1878 2610 3193 0
-1714 4414 3842 0
-3991 2385 2460 0
-4313 -2226 651 0
2501 896 -4140 0
-349 1233 -2303 0
-78 -2396 2330 0
-3676 2536 990 0
4670 200 482 0
-1620 -4492 2626 0
-4857 1124 2810 0
-3487 33 -1928 0
1781 618 -1928 0
641 -44 -877 0
1717 1381 2704 0
919 -658 -2222 0
-260 4212 968 0
3945 -4922 2307 0
2759 439 4175 0
-2415 -2611 -749 0
-2299 -2009 -1178 0
-397 -3971 4727 0
3015 4531 -3826 0
3618 1164 -3706 0
-4923 -294 -48 0
4730 1244 -232 0
3319 -3093 -2230 0
4034 -1699 4505 0
4418 1989 2218 0
-4198 4043 4959 0
4959 1447 4912 0
-2184 -1222 -1893 0
-142 -2861 3367 0
500 -3511 -3715 0
-1109 3132 2570 0
3660 -2217 -4582 0
-3590 -4474 -2998 0
-3216 2731 2189 0
4862 -1558 1139 0
-2976 -197 -732 0
-3238 4312 -2332 0
-391 3528 -4421 0
-1460 4150 -2900 0
-4741 -1736 -1067 0
783 -4383 -3876 0
-1630 -2539 617 0
656 1762 4624 0
2207 -4395 3474 0
3932 4333 -3444 0
4690 620 -3755 0
2790 2202 1776 0
-2237 -3544 3679 0
604 931 2627 0
1270 3891 -507 0
-1487 -1007 -4985 0
1749 4157 -1287 0
3131 -3740 -3976 0
3498 -3362 3431 0
2983 -3112 2541 0
-4128 2155 -1091 0
3827 -829 571 0
4975 -3752 1047 0
791 1028 2301 0
1875 -2062 3074 0
3589 1749 -1227 0
-342 2479 -2110 0
-4203 -1598 981 0
-1476 -4964 418 0
4210 -2268 4126 0
3560 2658 -921 0
789 -3324 -1641 0
4018 -1844 -3862 0
2987 2122 197 0
777 -503 -4802 0
-3281 -990 2413 0
-1546 -3705 2541 0
1072 -189 4405 0
-3746 3146 1835 0
2799 -1428 1381 0
-4397 -3691 3158 0
4915 254 -1401 0
-4028 -3580 95 0
2262 3699 -819 0
-1268 2343 -2899 0
-4225 3085 -3220 0
2833 3752 2003 0
-751 1157 -3337 0
-1004 -2990 2208 0
4311 426 -2416 0
661 -3243 -2254 0
-2789 -1934 4160 0
-1645 -43 3068 0
3831 4715 -854 0
-4132 -2930 -4879 0
4666 -1946 -4003 0
3485 949 -68 0
-4362 -3191 -1851 0
2121 3229 1573 0
-4308 3965 4652 0
1880 3731 2623 0
3334 3708 1675 0
-526 1132 697 0
-3586 1104 4934 0
-2461 -4690 3056 0
4916 -4756 -125 0
-2233 -1014 -293 0
4572 2046 1706 0
440 -1166 1291 0
-226 -986 1523 0
-3410 -2773 -2664 0
2031 -4561 2672 0
1297 -2838 -4641 0
2020 3506 -1373 0
1795 -3348 2248 0
-3828 973 -2743 0
1968 4608 1720 0
3717 3227 -2553 0
-2377 4981 2126 0
-1638 1157 3779 0
-3032 -716 2475 0
-2611 -3508 -2033 0
-3747 301 -3419 0
262 4662 -3733 0
-2676 -491 604 0
-4057 2740 -935 0
1159 2457 4949 0
-4135 4885 -4604 0
3340 -1313 -292 0
-4453 803 -3891 0
-723 3296 -4761 0
4948 1246 2881 0
-2421 1839 2219 0
-1568 -991 2409 0
-3693 -4650 3380 0
1991 1612 2597 0
-1570 3231 3883 0
4025 -1124 3793 0
-2251 4648 -1817 0
4299 3313 -2942 0
-2139 4419 1341 0
4906 1319 -352 0
-3353 2341 3395 0
-2409 1142 -1807 0
-2646 -1904 973 0
-3375 3465 770 0
386 392 644 0
1250 -2805 -91 0
870 -583 -4797 0
885 -3877 1066 0
-2564 -3467 3583 0
3294 150 -2817 0
2517 3449 2974 0
-1284 -3153 -430 0
2337 4585 476 0
-3273 3495 -3181 0
2230 -1811 -4535 0
2516 3554 -496 0
1645 -3528 -3954 0
-1201 4956 -273 0
1649 4636 1678 0
4602 -1282 3904 0
-827 -2043 980 0
4275 -4401 -3277 0
-2374 1804 25 0
-318 3632 -4356 0
-3130 3734 3702 0
3755 -3100 397 0
-4659 -2110 -2784 0
-2511 -3955 2209 0
-4888 -2665 -1125 0
-4141 -2914 1473 0
-2132 -213 4273 0
3737 -1942 -2259 0
-402 -2284 -4823 0
1265 -3639 -3841 0
4784 407 3943 0
3606 -2129 -1954 0
-4248 -4799 -179 0
-2683 2740 762 0
2085 -964 3534 0
-2715 3857 1362 0
-2225 -626 -213 0
-4172 -4114 2880 0
500 4393 -397 0
42 2216 -1095 0
-1625 544 3304 0
-2022 -931 2958 0
-3568 144 2834 0
-1069 204 2799 0
3290 274 -587 0
968 -1384 2479 0
2994 870 -3843 0
-1785 1267 -2604 0
-604 2147 4882 0
-4754 -4760 4819 0
915 4933 406 0
-1926 -452 4339 0
3639 4275 -993 0
-2190 -3952 -3927 0
1387 1433 -3772 0
2937 -3079 3326 0
-2687 3392 -3524 0
-3700 -611 3259 0
-4743 3981 73 0
-2720 790 3949 0
-4331 -2671 2518 0
-1777 -217 859 0
-4983 74 2073 0
836 -4666 4221 0
2726 2630 1614 0
117 -679 917 0
-4608 -2462 2184 0
2321 -261 -2036 0
-4791 -2729 -3513 0
-4832 -2381 1686 0
2207 -2659 -1136 0
164 300 -1064 0
2182 -3986 -3518 0
3170 2041 3221 0
834 3020 2116 0
-2533 613 -4226 0
-3299 456 -1156 0
3676 -4416 -2657 0
-778 -2513 3250 0
1713 281 2031 0
3498 -2920 502 0
-147 -936 -3317 0
3749 -4122 -2490 0
3035 -405 -227 0
-1443 -4042 -1439 0
-3443 -3441 -1882 0
-2871 -3630 -4270 0
415 3665 -1735 0
-3216 -2914 3888 0
-584 -2986 1559 0
-4693 -2603 2834 0
-3413 -31 4616 0
734 -4637 -2874 0
-2658 453 -4343 0
-3528 -2053 3563 0
-2112 4875 -1203 0
2421 -585 3633 0
4604 -3815 3448 0
-3751 -2282 -2215 0
434 2221 -902 0
1202 3810 2682 0
177 -1130 -3390 0
2324 1759 2743 0
-1363 4229 2443 0
-195 -3331 1206 0
999 -4101 759 0
680 1776 -881 0
1598 1405 -2341 0
-4491 4172 -283 0
4818 -1815 4657 0
340 -407 3685 0
-4612 3688 4288 0
-141 -1375 -812 0
-3450 4890 2717 0
889 1104 -621 0
4643 -1070 604 0
-1548 -547 157 0
-3741 3037 -3992 0
-4850 -2058 -1584 0
-2554 3270 -3096 0
3310 -3696 -2510 0
-74 3085 -3730 0
-1176 2304 3589 0
-1531 -4282 -4818 0
720 4195 1458 0
-3290 1741 1597 0
-380 1173 -2313 0
-3843 -4286 217 0
-3888 -1065 -1718 0
-2944 -4248 -3304 0
-3787 -1574 2856 0
-3023 2264 2695 0
-2357 705 1140 0
4485 -5 -2330 0
-1416 -3485 -378 0
176 2273 -3043 0
-3919 -3792 -1321 0
-2186 -1090 -2828 0
4516 1357 4877 0
-1903 -4610 -1886 0
1186 636 -2442 0
2203 -1834 -3133 0
-4187 -424 -1125 0
4132 -3187 1753 0
-1072 3635 -4925 0
4175 4312 -3170 0
4147 -1776 -85 0
2099 -230 3528 0
2608 -1737 -3103 0
934 2235 4949 0
-2913 3936 -750 0
770 -2747 4384 0
2993 -3890 -1386 0
4479 3744 3709 0
100 3042 3156 0
4985 -1829 -2816 0
2829 -3052 3621 0
-4246 3714 1238 0
559 -777 -3672 0
-1912 -4137 -298 0
-604 -3958 9 0
78 -2440 -734 0
3542 -1940 -2000 0
-1854 4642 -3483 0
-4870 -2819 3481 0
-340 1970 749 0
-4919 1329 -3502 0
-787 2884 -4656 0
2054 -3490 3439 0
1171 3217 3400 0
-4183 4669 -4056 0
3 1694 4721 0
1778 -1425 -4931 0
1205 2003 -4605 0
2866 3910 2954 0
-1535 -4726 953 0
3846 -3727 4042 0
-1662 4874 1109 0
3371 -4243 -3851 0
208 3343 2013 0
3789 -4388 3537 0
-433 338 -272 0
2249 4371 -3234 0
4813 -4461 1010 0
-2861 -3722 1948 0
2423 2652 486 0
4073 4813 3341 0
-3787 -4769 -1176 0
1181 2088 2321 0
4928 149 2155 0
2837 -1910 -590 0
4925 2276 299 0
4603 4522 1677 0
-4258 -2921 3696 0
1115 2342 3109 0
-3588 4012 -2024 0
1117 -2919 -720 0
-2770 1315 2840 0
30 -2647 2974 0
-672 -1138 2243 0
-2683 2503 2076 0
345 2539 3612 0
-2372 -4191 763 0
-1538 -4176 -2767 0
-4268 -1584 1008 0
-457 3822 -3901 0
757 -2720 614 0
3425 218 -341 0
-2099 943 -2249 0
-3465 4022 -1796 0
3500 392 2127 0
-4972 738 1028 0
-4447 2526 -4845 0
-4157 -4880 -791 0
-1566 -4407 2177 0
4396 -2453 4086 0
-3902 2753 -576 0
-2798 174 -768 0
-4785 4503 -4259 0
-3020 208 4532 0
-4292 2377 -206 0
-2678 -4540 -1755 0
-54 3194 -1726 0
2640 2323 -1016 0
1519 -3361 -2865 0
3563 3598 3066 0
4757 -2048 -1142 0
1512 2395 4788 0
-4902 -1039 307 0
-3851 341 -1434 0
-2812 -260 -2335 0
3681 -3493 -894 0
4320 2560 -4713 0
-1048 -1222 -1741 0
768 2074 -3686 0
-2149 1062 -2407 0
-202 861 467 0
317 -99 215 0
2 201 -1248 0
-2542 2635 4002 0
3736 872 738 0
-3847 253 622 0
4421 347 4576 0
-2831 1158 1956 0
-3918 4012 -1243 0
2798 -3801 4802 0
-2602 -2478 3769 0
-2221 -4139 -37 0
-2313 -3152 2142 0
-2551 3717 -2280 0
1535 205 -4831 0
-997 -1238 -3159 0
-443 -4754 538 0
2031 -3477 -2355 0
-2229 1216 -185 0
-2939 2854 -4191 0
1240 -3197 -1792 0
1799 2531 4700 0
-3659 3261 -3567 0
-2271 3803 2527 0
-2946 -4015 -4432 0
1189 4968 939 0
3991 -563 4376 0
3136 4574 1946 0
2062 -1590 3418 0
-4995 -4796 -3409 0
2658 -3213 1708 0
-3301 -881 262 0
4407 3764 264 0
4795 -232 1729 0
4668 606 -4907 0
3000 2359 2372 0
-2421 3910 3085 0
-2279 -4924 3852 0
-308 -2608 -2282 0
1329 -946 -1982 0
4687 2293 2186 0
1567 947 457 0
1039 2893 512 0
94 -4086 -377 0
2224 1240 -1956 0
-881 1560 -2804 0
-2989 -1692 -1372 0
3835 867 -3088 0
2828 1291 -770 0
-665 4249 1587 0
398 -2653 2531 0
-1963 -3112 -839 0
2488 -4932 -3922 0
854 -2627 403 0
667 -3913 -123 0
3295 2498 -3608 0
-4817 -4267 -724 0
-2238 -1349 -1127 0
4564 1922 1863 0
-3905 -18 2851 0
375 -2158 -3635 0
552 -3829 458 0
1196 -1770 -1639 0
-3011 3164 -3518 0
4357 3190 1528 0
181 3457 -2595 0
-1878 1664 -3789 0
3946 -2294 -1343 0
2056 -1898 -265 0
3432 940 -3861 0
3486 477 -1956 0
715 3735 -1409 0
-3142 -1573 2018 0
4134 -3237 -4108 0
4560 -15 -957 0
1528 3557 -842 0
-3562 1804 -2954 0
4370 2623 863 0
493 -1606 1761 0
-2501 -3826 3100 0
820 1607 4238 0
718 -4629 2608 0
3985 638 2134 0
562 790 -2108 0
-2675 -1624 4583 0
707 178 -2411 0
4576 967 4087 0
-4513 -821 -1705 0
93 -385 -1118 0
-1323 1037 -1537 0
-3777 2097 -3567 0
821 3951 3249 0
-3933 -519 -964 0
1727 -2981 -4439 0
-1324 -4209 1501 0
-782 -334 -1245 0
2544 216 -1834 0
-60 -4860 -2019 0
-470 -96 4616 0
-210 -3664 27 0
3224 2269 274 0
-1624 -2644 2676 0
2411 4138 1491 0
4736 -590 3205 0
3496 1384 -2270 0
-4314 466 -77 0
4105 127 -2596 0
-3437 -1856 -1396 0
-844 -4882 4834 0
3328 -4565 -4437 0
-1085 3429 -471 0
-1521 4412 -698 0
450 -2583 1905 0
-2777 790 -2060 0
868 2834 2625 0
3438 2873 -2357 0
3328 553 2012 0
2275 -405 -4136 0
810 1647 -3914 0
483 982 -3868 0
1816 -1515 -4429 0
-4321 3 -888 0
-1296 2631 2674 0
-324 -1206 3999 0
-456 262 -2021 0
-4988 -2895 464 0
-48 1520 4573 0
586 2930 -1317 0
-420 -3092 -3029 0
-1679 -2369 -2590 0
-4186 -742 2469 0
-4880 -3407 1747 0
2620 -4988 -4915 0
3207 3821 -1146 0
-3477 2646 -4920 0
889 -1756 2007 0
2298 -2961 -952 0
-2551 -3542 -2120 0
3805 -1435 -846 0
2928 160 2603 0
505 -3485 1228 0
-4956 1614 -4201 0
-2878 -3579 3991 0
-2120 3019 4287 0
-2459 2551 -74 0
3866 536 320 0
-314 -2010 -2737 0
-2032 1074 -2779 0
1336 -2126 1789 0
-1865 2991 2224 0
-3158 1051 4177 0
3865 -2587 -4442 0
-2792 -1117 3747 0
3349 4786 2279 0
1896 4904 -349 0
-1426 1879 4115 0
-2477 2220 4223 0
-3552 1246 -2530 0
2164 3940 1214 0
-389 2310 -3800 0
12 -2750 2919 0
37 3110 4322 0
3151 -3736 997 0
4487 4710 -3766 0
-1945 -4140 -1700 0
-3757 -999 441 0
4136 2475 1884 0
-2719 4810 4937 0
-3269 -892 -2946 0
2070 1672 -4193 0
-4124 -29 466 0
348 -2923 -219 0
-176 -3197 2225 0
-1015 -1041 -2059 0
-3648 -532 -960 0
-2546 -2311 1842 0
595 959 4133 0
-1332 2111 -546 0
4332 2090 -1805 0
4882 2771 3184 0
2678 -1168 -322 0
585 538 2910 0
-3565 778 2193 0
2605 -3592 -2663 0
1313 2985 -3846 0
-4945 4092 3821 0
239 739 1050 0
3736 3363 -1594 0
-1335 -1278 1839 0
-3675 4179 -3351 0
4960 -4875 -4787 0
-1796 -3121 4306 0
-3295 4876 -3907 0
1730 -903 4267 0
-2032 3129 2873 0
1314 1840 -352 0
2701 3147 3987 0
4855 -209 2418 0
-15 4511 -1569 0
711 402 -4210 0
-3707 -4289 639 0
988 -2119 -3369 0
2537 4109 3791 0
-3344 -110 61 0
-1697 3415 1235 0
-2602 -3649 -4271 0
1560 3999 -1780 0
-1474 -1613 4551 0
-3740 -3031 -2847 0
2296 -2719 -25 0
-3454 1185 -1074 0
-3814 913 1937 0
-3209 -1035 2983 0
-1907 -4436 1040 0
-2979 -1430 -4098 0
-694 -2892 -1425 0
1568 -3216 -2974 0
-4468 2254 3870 0
-2308 4864 -4856 0
1090 1799 -3526 0
1399 2200 725 0
-2081 1913 -3190 0
4374 2492 -3942 0
-4975 -2689 2525 0
4908 -1374 2060 0
-3940 1223 4439 0
-797 2847 -3038 0
4794 -3486 3266 0
-889 -2347 -767 0
3800 -2059 -1148 0
-3153 1712 -2919 0
-20 -4344 718 0
2684 4855 4236 0
1318 4520 2910 0
4529 1538 -2273 0
497 4334 1843 0
4571 -742 3832 0
-4000 -4776 2589 0
3289 4715 1290 0
-4345 -1403 2582 0
4263 1711 -745 0
-565 4366 -1191 0
-2461 3252 4857 0
1617 -1117 2481 0
3852 -4430 3654 0
-2258 324 -433 0
2738 2716 2683 0
-1166 3847 376 0
2087 3857 -3082 0
-4265 1208 2360 0
-461 -4857 -3739 0
785 3509 2003 0
-2991 1129 3986 0
1452 -4140 -2333 0
2456 -4616 1497 0
-1137 -1060 -874 0
-62 -107 863 0
4058 -1345 -2739 0
1604 3046 -946 0
4605 -4703 -3323 0
3324 -2683 4682 0
317 -4459 1876 0
1237 -4133 -3874 0
-2573 4145 58 0
-3731 3582 -3357 0
3909 -2041 4921 0
221 2933 -1068 0
2329 4642 -366 0
-3892 478 4030 0
4244 -471 23 0
2240 -2968 -1592 0
-3991 2625 4607 0
4639 -501 1915 0
-1485 -318 -2943 0
-1843 -2487 1340 0
-3670 1147 -1392 0
-2201 -3749 4257 0
-4813 -3800 -4823 0
-1726 1300 1800 0
1564 2418 -782 0
3080 1935 3760 0
-4384 -279 -3906 0
2326 2577 -3663 0
-4125 2964 1815 0
3026 -4138 -1220 0
1450 821 -2317 0
-3204 4186 2591 0
782 -1480 48 0
-3940 2571 1107 0
-1037 440 2120 0
-3541 191 -2349 0
2139 -217 3403 0
553 4865 3353 0
-1369 1092 -4881 0
-18 -2373 3609 0
-2133 -2347 -4513 0
116 -1422 -2956 0
-84 153 -337 0
-2650 2205 -4508 0
-2072 1046 -3501 0
-4054 -508 -3602 0
-301 4296 590 0
3318 -878 295 0
4710 3072 -3518 0
-3768 -322 -2415 0
2918 -2219 -675 0
-196 -3453 4398 0
-3143 -1336 1415 0
2507 -98 -96 0
-3541 -2406 3231 0
3473 -3361 -2276 0
1762 -959 3317 0
1 -1454 1711 0
-2829 3695 -3012 0
-1936 -104 -2738 0
-4910 -2958 3228 0
4843 4856 1389 0
2385 2996 2970 0
-131 4367 3468 0
-103 2202 3478 0
-2906 1999 3848 0
-610 568 1181 0
-4081 4346 1355 0
572 -4479 248 0
-1861 4938 -4778 0
517 -4862 1675 0
-329 4249 -4313 0
2047 4417 1229 0
1579 4988 -2986 0
908 -2795 -4394 0
-2855 -601 552 0
-1745 1131 -1448 0
288 4874 641 0
-1958 2669 -1097 0
-3344 -2303 -1081 0
3874 110 -741 0
1049 3167 4346 0
-2010 560 -4638 0
1371 -1703 -3182 0
4705 180 -202 0
-2473 3061 3177 0
-1211 4502 -1699 0
146 3696 4305 0
2854 3927 -3570 0
-4690 -1316 2297 0
-1164 -2361 137 0
-2172 -1832 86 0
-1751 -77 2233 0
4290 -4471 647 0
99 -1490 733 0
1051 1935 -2474 0
-2311 -2472 3688 0
2039 1366 -4282 0
-3909 -2397 2320 0
-572 2211 2071 0
365 -1591 -1625 0
749 -911 -1970 0
2001 -4276 -2214 0
-2314 2546 177 0
745 2912 1602 0
-3160 -1183 -1887 0
1257 4681 3920 0
-3761 1402 -2539 0
-3586 -3040 3116 0
4219 -3422 -1499 0
-1903 -3148 1752 0
3548 -4579 4935 0
816 4479 2726 0
-4402 2600 3744 0
-1352 -2348 622 0
-4424 378 4640 0
-3864 3550 -2214 0
141 1564 -3397 0
3547 -2587 -530 0
96 -3003 1789 0
3792 -602 -2949 0
725 -617 -1967 0
3914 2329 2171 0
3472 3070 -4435 0
-2366 -4953 -99 0
-2952 2361 1649 0
-1853 1009 -686 0
217 3509 -2934 0
823 -3203 4583 0
-1953 2216 -4487 0
1241 1275 2713 0
3199 765 248 0
-1391 2474 2599 0
1584 2271 1656 0
197 4724 -1262 0
-689 2113 -2972 0
4017 -2172 -852 0
947 -350 -1020 0
-3376 1523 -1364 0
-3464 -3917 707 0
-4211 4203 4876 0
575 -4658 -4525 0
1750 -105 2697 0
-4369 62 928 0
2026 -4907 4649 0
-3474 3797 284 0
-1163 3552 3636 0
2744 -3403 -412 0
1563 -1919 -3303 0
1247 -2498 709 0
918 -4114 4060 0
408 429 762 0
-2839 4375 443 0
-4344 -1101 3298 0
4276 -4740 2342 0
2775 2473 -3975 0
4192 -2821 -2822 0
2121 -163 -4167 0
-3545 633 2144 0
-952 -1387 4662 0
3855 2726 -3413 0
-4109 4764 -4987 0
-2850 -2788 4423 0
2153 1989 3833 0
-2274 -4006 1139 0
-3007 -3425 3297 0
-811 -3503 3474 0
4018 -2073 -1410 0
4288 -2621 -3504 0
-3095 -4094 4166 0
2931 3805 -2880 0
2249 471 -1994 0
2404 3187 1874 0
437 -4959 865 0
-657 -3009 -4964 0
1480 1272 3959 0
1157 -225 185 0
679 -4540 944 0
741 41 -657 0
1312 -4457 4997 0
-2099 -748 3059 0
-619 2449 597 0
-2042 3574 -78 0
1125 3157 3767 0
4778 -3931 4913 0
2526 -1210 -161 0
-1541 3123 761 0
-2525 -3135 4620 0
-3685 1962 -466 0
4645 -2076 -1300 0
4072 -112 4286 0
-1612 614 497 0
-4877 -2359 2274 0
2033 -4685 2769 0
600 -840 -2141 0
-3371 1333 2562 0
3485 -4379 -4845 0
4088 -4642 -1131 0
-2993 -3697 -4876 0
-2010 -4805 4362 0
677 2965 -1457 0
2061 -3408 4195 0
-571 -3613 -103 0
-4264 1819 4492 0
2113 2771 1376 0
3226 700 -273 0
-2042 1758 -2916 0
-3462 1775 -4140 0
-4924 466 -3247 0
4198 -4578 -2027 0
-744 2370 -384 0
2127 2742 1484 0
-4312 -2290 1996 0
-1455 2619 3878 0
4304 768 2980 0
479 -1458 537 0
3541 410 3561 0
-2985 889 3889 0
3860 250 2176 0
-3984 -3222 2245 0
2788 1649 3699 0
2802 -4850 4075 0
-1587 -1568 2091 0
-76 240 550 0
-3664 2740 281 0
-153 -2461 4709 0
2970 -3847 -596 0
3476 -3781 4750 0
3256 2039 2895 0
2525 -2602 1778 0
2866 -1324 3210 0
2166 3219 2628 0
-1774 3349 -1296 0
2160 -1292 -2855 0
-4673 -1378 2110 0
4458 -666 -766 0
-3552 -2440 1335 0
4803 -4199 1439 0
-4059 827 -4967 0
-19 2846 -2687 0
3960 -418 -2160 0
-1090 -4925 112 0
-3525 4653 4106 0
-2644 3055 3428 0
-1735 384 259 0
337 -3840 -433 0
1738 1401 -4471 0
-3525 -1379 -717 0
2711 1286 4734 0
-1571 4559 2120 0
126 583 1958 0
-505 2959 -1492 0
-436 -574 2504 0
659 -1498 676 0
3027 -2478 679 0
-408 -2647 4 0
406 -4570 -2782 0
-1719 39 1305 0
-4309 -4360 2326 0
1222 -4127 -3034 0
-157 1732 -1747 0
-4141 1078 -150 0
2922 1537 -2265 0
1682 -2418 -2172 0
-431 -4132 -1100 0
-379 4951 4315 0
-3659 2537 1894 0
-3550 2951 -2427 0
-2992 3747 -1622 0
-4128 3327 2690 0
846 -3304 1325 0
-1890 -917 910 0
-4238 2480 310 0
4301 -4283 127 0
2760 -3698 4231 0
2299 -2597 1373 0
-1872 1915 4087 0
-4231 -2851 74 0
4205 -336 -1423 0
211 964 3152 0
-2369 -3423 2390 0
-781 -1154 -3045 0
2234 1315 2091 0
-3757 4267 -4226 0
-3875 -1255 2741 0
2602 819 -624 0
1552 721 -294 0
-2624 3381 -4819 0
2447 -3446 -571 0
-4460 560 3285 0
-1287 -4578 -583 0
2444 -3372 3649 0
-3681 3104 1272 0
-1718 1266 2887 0
-1670 344 2723 0
-1144 487 4406 0
2332 -3657 -2983 0
514 1555 156 0
-695 1320 1952 0
-15 -3441 3986 0
-4913 -2223 -446 0
3637 -626 -982 0
-2341 4910 3633 0
-3037 -2432 -4165 0
63 281 -4359 0
-4971 582 3263 0
159 4445 4655 0
2126 4158 -499 0
-4946 489 -1651 0
1674 -929 2516 0
1772 -3496 -435 0
4960 -325 -1600 0
3378 -4460 106 0
992 -1448 160 0
-75 3612 -1563 0
4195 4204 4379 0
3846 2318 -3810 0
4347 -1222 -352 0
845 3847 4575 0
2460 -2144 -2801 0
4113 -4169 1595 0
2732 -3044 -255 0
91 -4388 -3841 0
1703 -3011 -224 0
2983 -1047 -3053 0
806 -4506 -1140 0
-1472 147 597 0
-2213 -4646 2649 0
-334 1166 26 0
2339 -978 -1648 0
-3546 2955 -1790 0
-2938 1505 -3079 0
3179 -2824 1301 0
1343 1905 -2146 0
-853 -2010 1301 0
-4475 4130 -2204 0
-641 2010 -1421 0
-2556 314 347 0
1663 -825 3900 0
875 -3183 4781 0
4467 579 218 0
4709 663 -4185 0
-2057 -4073 535 0
-3768 -954 -457 0
-4332 871 -2692 0
-774 -252 -4115 0
-1745 -550 440 0
-2841 63 915 0
-2938 1614 -4665 0
-172 3539 -2832 0
3097 486 685 0
3204 -4471 1010 0
978 226 -2068 0
1274 -2496 4895 0
2186 4732 -3433 0
-4457 3333 2514 0
2787 444 702 0
4151 -3860 -3296 0
2476 -4707 1154 0
2831 3777 4931 0
-2245 -3537 -1911 0
2728 4089 3670 0
-4614 3178 -3250 0
-2703 4228 -4728 0
4529 3311 236 0
1310 3614 -3892 0
2614 3834 4327 0
1206 925 -3457 0
3369 -993 -181 0
-2866 3989 1855 0
799 -19 3006 0
-2393 967 2372 0
868 -2864 4359 0
2326 -1119 -2025 0
-4796 -2595 2834 0
2528 4401 1369 0
-3487 672 3061 0
3900 -950 -782 0
4702 -4364 4838 0
2323 -1823 -282 0
-2500 -1949 -1394 0
3758 -1087 4218 0
1859 1503 -1789 0
2159 1090 3927 0
259 4913 -1259 0
626 3318 -736 0
-374 977 4460 0
1210 1787 2262 0
3987 -3252 3776 0
3143 2598 -4 0
989 -722 1845 0
-1810 -2630 240 0
-561 -1651 4144 0
-937 -2982 1484 0
16 2201 -1752 0
-3972 3944 -2430 0
-908 -1271 -1510 0
-3141 4257 3369 0
4914 1156 3764 0
732 -1190 3183 0
2641 -1506 -4974 0
1649 3876 -3460 0
-4759 -3487 3882 0
4110 -603 -617 0
1449 3757 -2968 0
3660 4291 2736 0
1482 2701 710 0
2980 -3587 1015 0
2900 1236 -2112 0
-3113 -3670 -988 0
-738 -945 -3336 0
1763 4452 -1643 0
3639 -2009 758 0
-2077 4830 -1350 0
1540 -3060 -1304 0
-1541 356 3480 0
-636 -4756 -2561 0
898 2991 1519 0
733 50 -4896 0
562 1300 -3533 0
-249 3065 -3979 0
843 -3578 1940 0
2993 -4337 -2846 0
-3577 -931 -2781 0
2778 -2138 1487 0
-4001 4863 -2003 0
4633 -620 2089 0
3097 2042 214 0
-3781 2560 4574 0
-1690 -2293 -398 0
1558 1648 328 0
-4439 3948 -1026 0
3127 -1880 -2606 0
3037 -2087 144 0
-3168 -4933 -3765 0
4789 -1368 1983 0
1048 1440 -1435 0
-2507 794 -1482 0
2582 2792 -3859 0
-4200 -107 2211 0
-2463 -2428 4158 0
-2560 2255 -2788 0
462 4203 -3811 0
3339 -2879 3929 0
-2275 4100 -2967 0
-3366 4821 -1497 0
-2698 4383 -915 0
2740 4131 1966 0
-4378 -4992 3517 0
-4860 1157 -2326 0
-4369 3886 -2393 0
663 4713 3633 0
899 -4574 4300 0
-3481 2045 489 0
543 4909 2891 0
-3689 2973 -803 0
4889 -4113 -2297 0
-3917 -2579 3543 0
421 -4989 -3410 0
-1357 863 3542 0
2194 -3940 -2917 0
-1258 3386 3830 0
4167 3818 422 0
2521 -410 2199 0
-2582 -3321 -3734 0
2263 2846 -1395 0
2920 1551 271 0
-2128 4341 -3044 0
-2131 -653 303 0
-3076 3191 -4889 0
2130 -1924 1479 0
-4699 3279 -3375 0
605 -2771 114 0
2770 3730 678 0
-2272 -2445 779 0
-2719 -3897 -3438 0
-4399 -3342 241 0
1770 370 1257 0
-4198 4028 -533 0
4291 -1850 -2672 0
2703 759 -1884 0
4791 3443 -3082 0
3677 1264 -1709 0
-4886 1809 398 0
-4728 2248 3960 0
2801 -4910 1006 0
1335 -2014 -840 0
-1872 4573 4721 0
-3557 798 -4366 0
639 -3537 1824 0
4563 3826 -194 0
-3985 4201 -2155 0
3806 -3424 -942 0
2887 -2998 1234 0
2518 -3885 2692 0
-774 2510 -1786 0
-4887 795 -812 0
-1138 3936 2380 0
1426 -603 -1693 0
3748 -3811 4509 0
2250 3709 -4758 0
325 1878 2892 0
-262 2409 1003 0
-3656 2238 3439 0
718 -4132 4005 0
-1327 3132 2381 0
3484 -3776 -1212 0
-1985 -4157 2210 0
1838 967 2047 0
3688 4839 -3423 0
2862 -2081 1813 0
-3541 1036 -736 0
-984 1669 2832 0
2106 4373 -3313 0
250 -370 -4382 0
-1143 -1415 -4815 0
2328 -2007 -4783 0
-4767 2716 4434 0
760 -32 1059 0
-1615 4569 2059 0
1300 3287 2036 0
-4007 -695 -2116 0
-1170 1498 -4033 0
-4905 -2792 2844 0
-1275 4167 1534 0
-15 1589 -961 0
4431 4990 1463 0
4672 -4770 4426 0
-4836 -1374 2445 0
1128 1902 4844 0
-3157 -3604 4594 0
1784 2931 -4034 0
-973 -2315 -4861 0
4691 -3064 -193 0
-4246 -704 -4000 0
994 -4496 -2323 0
-2458 4494 -1932 0
2282 1949 -2897 0
4381 764 -4543 0
-681 -2559 3690 0
-1834 -2119 3721 0
-3224 -2325 4114 0
-2774 4736 -3660 0
1409 372 -2288 0
-196 3404 -2275 0
2138 2898 1417 0
-2504 -3366 -137 0
3690 2329 -216 0
-826 -2699 -4566 0
4934 -731 -2608 0
-1598 150 3208 0
1705 324 -2273 0
1051 -4410 -3391 0
3072 -1007 -4722 0
1666 4122 -2659 0
3316 2602 -753 0
-3030 -319 428 0
4719 970 -3243 0
1698 -4844 449 0
1563 285 -3891 0
-619 -1618 283 0
-1909 -456 2816 0
-4396 -693 1846 0
3489 2322 -1934 0
-1318 4752 3483 0
-1034 -2580 -1292 0
-1503 -3895 2035 0
1628 -3058 313 0
2479 2666 -2076 0
118 2757 -12 0
3865 4071 -1783 0
-4789 -1208 -2223 0
3157 -4535 221 0
-138 -3861 1928 0
-954 -3419 -2389 0
-4406 228 -3226 0
-2356 -3618 -433 0
689 -412 -4148 0
-4835 4262 -36 0
-487 -3181 3644 0
2567 4949 -1737 0
-1733 4036 -1302 0
-4838 -970 1219 0
2630 -4373 1471 0
-768 -3936 978 0
-2266 -2379 1827 0
1340 3770 -1160 0
101 1770 -4417 0
-3432 -4908 3498 0
-1189 2180 2543 0
4128 -1409 -3261 0
628 4672 4119 0
209 4508 248 0
2919 851 545 0
-983 -4222 -4445 0
-3123 644 -2040 0
-2514 -2071 -2940 0
3206 -2522 -4324 0
1814 -2798 3562 0
-864 -3482 3450 0
-1343 -631 -2429 0
4128 2911 -349 0
-1303 4539 4124 0
2397 -3002 1894 0
909 4190 3559 0
-4560 -4083 3714 0
4928 -3518 -2784 0
677 2397 -2301 0
-1158 4268 -3668 0
-750 1155 2943 0
-631 188 422 0
-1988 1224 731 0
-3621 3841 984 0
-719 -4487 -4032 0
2359 -4573 -835 0
672 2139 4540 0
-1516 -3011 -3014 0
4031 742 -317 0
-4529 -3436 -4840 0
-3031 1695 -4732 0
3395 394 3585 0
-815 1443 -2100 0
2027 -1832 4562 0
-821 -4848 1007 0
508 4672 -201 0
4759 -3033 -2031 0
1104 -513 4708 0
2608 1732 568 0
-751 -3976 1163 0
-740 2826 3463 0
71 -405 3445 0
-1015 -4520 -2068 0
-1584 4438 2033 0
-2124 -760 -1124 0
1544 1193 -434 0
-733 4985 -3944 0
-2194 -3007 1079 0
-2700 3248 4055 0
132 -2568 4668 0
4906 2154 1667 0
1121 -4084 393 0
-4199 -2068 -646 0
-1125 -3402 -2920 0
-4636 -4196 223 0
-1868 -547 215 0
2906 447 -3024 0
543 332 -1537 0
4385 4094 -752 0
-4116 4918 207 0
1668 1408 -2056 0
4124 1181 1846 0
2705 3722 -2199 0
2301 -89 1119 0
4983 -289 -1000 0
-3318 3598 -2702 0
-4839 3777 -1326 0
1760 4495 -2339 0
-1952 4794 1167 0
-3056 985 -3226 0
3088 -2740 -806 0
-872 1118 -586 0
-2837 -1274 -2813 0
761 845 1537 0
186 1545 -3565 0
4561 -2695 170 0
3627 3793 1560 0
4588 -3578 -888 0
-4757 -3603 628 0
2228 2455 353 0
1769 -4981 4873 0
-2254 3169 -2465 0
2279 -4360 2245 0
1002 366 1801 0
-1893 -3140 -3845 0
3976 -3537 3657 0
1342 -3397 2961 0
-603 -1596 -897 0
-1940 -3696 1498 0
277 4581 3350 0
-3705 90 -3674 0
3238 -1649 -809 0
2620 2321 -4503 0
1822 2693 -2417 0
1550 -4767 -1979 0
866 -4555 -2968 0
-4667 3589 -3175 0
2439 169 4658 0
461 4904 2104 0
-4153 -526 1132 0
-3101 -752 -166 0
-486 4574 4922 0
4160 -4331 2380 0
4463 2303 1357 0
-4683 4651 -3854 0
3360 -1026 4277 0
3498 1425 -310 0
94 1218 -4932 0
2192 4463 -4677 0
459 -796 -1006 0
-3377 -3211 2027 0
-1353 -4800 4334 0
-4161 1051 4582 0
832 -2574 1313 0
-41 4021 -2519 0
3726 -1200 -1498 0
-4332 476 -666 0
-3452 2187 3923 0
3448 1530 3525 0
-4910 1594 4858 0
1232 1615 1593 0
-4012 865 -1052 0
3959 -4708 -1261 0
908 -2326 2144 0
4579 -3674 1991 0
-2654 2469 -1263 0
2336 4220 3424 0
-4011 1558 -2597 0
337 478 2267 0
4864 -1170 3558 0
4534 4922 3615 0
2507 -2156 4513 0
961 -1259 3860 0
2488 -3378 4920 0
-984 -3185 3594 0
-1630 1862 3667 0
1466 3406 657 0
191 1799 1153 0
-377 -1049 3525 0
-1686 4359 -1221 0
-3682 3958 2693 0
1915 1001 836 0
617 -4155 -2036 0
4788 4417 85 0
961 4044 628 0
2574 778 4480 0
-660 -520 -250 0
1649 2464 -568 0
3360 -1016 -4249 0
217 2314 -1319 0
-1408 -758 -2459 0
-3500 -1561 806 0
-2394 -2813 -2786 0
-90 304 3251 0
4320 96 -318 0
3773 1317 1799 0
-1039 -3495 1411 0
-2586 -2163 1859 0
1713 2902 -182 0
3954 -4634 -4756 0
810 -918 -1892 0
-2942 -4884 -3793 0
-4290 3882 -2343 0
280 2610 -1346 0
-490 4633 4999 0
-4007 2270 2104 0
-3677 -2356 3043 0
4543 3067 3555 0
3727 -2406 -4157 0
-1231 1604 1064 0
-1108 3404 3753 0
3244 1219 3546 0
-2549 4548 1070 0
1578 3663 -1312 0
1734 -3249 4958 0
4526 -2913 -3759 0
4559 2301 -4979 0
711 1315 -1224 0
-4325 2768 877 0
4464 4707 -3746 0
1006 -2443 -1473 0
2900 -4018 -3628 0
-3369 -2783 3894 0
673 2391 1082 0
-3829 -1824 4932 0
-1438 -3200 3982 0
2877 -1594 -4609 0
5 -2206 3384 0
4129 4971 -552 0
-4845 -4636 1495 0
4606 4967 -3178 0
-1921 1405 4048 0
-4144 -2396 -2706 0
625 -3265 3246 0
2564 3248 4085 0
527 -288 3885 0
4480 627 436 0
-2508 74 4759 0
1669 400 -184 0
-97 4834 -4409 0
4522 4227 -2080 0
625 -2362 421 0
4733 -706 2595 0
-591 -4680 1647 0
4679 3656 -3295 0
-2287 3639 -4064 0
2888 -2239 -3525 0
2751 -3029 -991 0
-927 -4656 -3620 0
-1276 -1130 -389 0
-4490 2394 -133 0
1673 -1285 -2752 0
1987 -2469 -2656 0
3235 2545 -1004 0
-1422 729 -2864 0
-4056 -744 -918 0
-3506 1044 1653 0
1207 -176 -2816 0
-3902 2967 4921 0
-4168 4167 -2738 0
-2057 219 1062 0
-1140 -988 -1093 0
1570 -1467 -2237 0
-2420 -296 -2909 0
3226 2217 2199 0
514 3806 1586 0
3987 -1923 -1614 0
-1748 3911 1398 0
-1695 -4249 626 0
4843 -242 -4427 0
4307 -2494 3999 0
-2344 1390 3755 0
3154 -3358 4374 0
4090 -4554 3801 0
1459 1585 -2764 0
2208 -4894 -234 0
4797 -3448 3485 0
2193 3651 -2828 0
-3426 2892 -181 0
-4177 -1181 2367 0
1020 -3941 4678 0
-2277 -3670 2281 0
-1638 1934 4949 0
811 -281 3607 0
3116 4456 3093 0
-1289 -3889 -3686 0
1306 -80 -534 0
1651 3721 641 0
-742 -3796 1364 0
4592 2287 4646 0
-3159 4745 -727 0
3815 1482 -3598 0
3114 685 -3882 0
-4590 3672 2634 0
3220 -473 -2317 0
-3829 1619 -1225 0
-4233 -3807 -414 0
454 -4321 -346 0
516 4069 3578 0
-2921 4983 -1619 0
4923 1779 -2950 0
4436 294 2703 0
3417 -1871 1806 0
4382 -3228 -3295 0
4876 2428 -4248 0
-2396 -2019 -871 0
777 -3214 4080 0
-94 -1066 -2004 0
-898 -1400 3240 0
-4375 1016 2116 0
553 -4579 3332 0
-3601 -3774 -104 0
-2412 -1517 -2895 0
-1979 -4014 1565 0
-2963 -1343 -4704 0
-2411 3856 -858 0
-4125 -1795 -1271 0
-225 -2075 3510 0
-3292 1578 3951 0
3778 -3437 1999 0
3050 -234 3346 0
2040 110 2164 0
3025 4061 -1485 0
-1255 -3259 -4058 0
-3332 689 -1656 0
2510 -3248 -2174 0
3464 -1823 -204 0
804 -1518 -4315 0
-2750 -3888 2998 0
657 -4821 585 0
-1364 -3904 -1702 0
-4246 -2721 -1354 0
-4198 4461 1517 0
-1586 325 1320 0
-4121 366 -1617 0
110 -4274 297 0
-594 -2759 228 0
2223 -4127 -1588 0
-3876 4128 -3093 0
-4994 -350 -586 0
935 -2565 -922 0
2712 1401 -3789 0
-41 2347 -1153 0
-2068 2934 -434 0
4613 4540 1507 0
-857 -2678 -1912 0
-443 3703 -3718 0
902 -520 3789 0
-3010 15 -1583 0
2339 3042 4356 0
2378 3984 4442 0
1331 4888 -4207 0
-3847 -363 1380 0
4096 927 -377 0
-2125 2284 2319 0
-1327 -2526 -1834 0
-315 2483 -1018 0
-4062 -2029 3855 0
-4188 3299 2242 0
4232 1866 -4821 0
1162 -2347 -3045 0
130 -2864 1621 0
3790 4096 -2762 0
-2168 1077 -4974 0
4749 1880 66 0
-848 -3822 -4350 0
-2636 -2242 4161 0
-4385 109 3482 0
2024 -839 -3438 0
-2252 64 3865 0
60 -2699 1396 0
685 -580 -4959 0
-4139 3121 3460 0
2292 4045 719 0
4420 -4053 1811 0
4243 1842 -4971 0
2572 4257 -2563 0
-4527 -1931 -2632 0
1887 4723 -4657 0
-286 256 -654 0
337 3849 -347 0
-3538 2809 -2008 0
2749 -674 3583 0
2003 3239 4107 0
-372 3801 3286 0
3513 -4887 -434 0
-3825 -419 3180 0
3064 -2377 3479 0
-1890 4632 -2290 0
-2642 948 3764 0
1279 -2330 3596 0
-3728 -3207 -3703 0
2365 2597 3830 0
1592 -3599 3239 0
4711 1434 1058 0
756 1771 -1103 0
3802 -1372 -838 0
-2367 -268 1699 0
4971 -665 -4422 0
-4866 347 1992 0
-2061 -2014 -2534 0
3739 2589 409 0
-3026 -4579 1707 0
-4156 -2076 611 0
-1207 969 -897 0
2270 -1157 -1838 0
-4707 4727 999 0
-4338 -1106 -4560 0
2969 2880 4144 0
-3058 -3499 4496 0
4900 -3276 403 0
1888 -2762 4376 0
-1019 -605 3921 0
691 238 4809 0
697 3280 -3274 0
173 401 50 0
-1484 1049 1 0
-3709 1107 4454 0
2244 -316 -3044 0
3737 4440 -1235 0
-394 -385 -390 0
-2798 -1441 608 0
1927 -2851 817 0
-3783 -1071 -4004 0
-3684 -14 3029 0
-3928 -535 1991 0
-3214 -3772 -3307 0
709 171 914 0
-3058 772 -3095 0
-4189 2176 3627 0
1769 4249 -2300 0
3008 -4311 893 0
3307 681 -4144 0
-905 1139 4290 0
-3762 3114 1270 0
1451 3284 -3313 0
-1276 -1588 -3834 0
-1083 2047 3613 0
-3057 -4479 -3805 0
-1014 -3350 -1264 0
-3415 -2019 4447 0
4157 -3711 4424 0
-999 -5 844 0
1219 1829 2013 0
-1026 -2478 185 0
-1913 4547 4419 0
-4387 1442 -2896 0
-1772 4259 3097 0
157 4891 -235 0
163 -213 -3059 0
-2957 4010 1999 0
-3183 745 3220 0
-647 -203 620 0
-2852 3691 -2204 0
5000 -1110 3181 0
1359 -669 2205 0
-3344 -3000 -1889 0
-1624 -1793 3430 0
2258 2135 2032 0
-532 -4071 -672 0
1748 3504 -211 0
-4069 -490 -479 0
-1026 -4028 4676 0
-1194 3118 -688 0
3651 1954 79 0
717 1451 -2136 0
3568 4485 3810 0
-3636 1977 -774 0
3450 561 -1301 0
-701 -2336 -4792 0
-3051 -102 4983 0
2667 4465 -1218 0
-3162 -4335 -247 0
-4777 1532 -3498 0
167 2420 -4025 0
1944 -4696 1205 0
1114 246 -4953 0
4615 -762 1198 0
3760 -634 -26 0
421 -4673 -751 0
-3199 3337 -1325 0
1011 -4180 2586 0
4897 1036 -4009 0
-1321 3498 3936 0
-4856 1015 -835 0
-2325 4486 -3183 0
-4056 991 2955 0
-4486 -156 -2531 0
1530 859 -3849 0
1122 3928 -3224 0
1876 -1566 410 0
3615 -1780 2368 0
121 2160 771 0
-1720 2543 -3809 0
-2600 -1704 -2595 0
-1770 2882 -2028 0
-3850 -4542 -1385 0
4793 3224 -2150 0
1939 3560 -1041 0
-504 -764 3001 0
2625 -4528 -570 0
397 -2340 -2778 0
1292 4106 3972 0
1937 339 4070 0
-533 -4815 3509 0
-3172 -4701 -4781 0
-1622 4719 -4822 0
-1435 -2038 -2160 0
1454 -4473 399 0
4423 1983 3722 0
-3542 3605 -4622 0
3297 744 -3962 0
-4464 3298 1031 0
-3177 -1132 2229 0
4102 -4514 311 0
-710 4745 838 0
3410 1465 1188 0
2369 -3956 1805 0
-2484 -3681 2835 0
-3301 -4528 -1463 0
-587 1620 315 0
1275 3200 1882 0
3434 4137 1239 0
-1374 119 -2166 0
330 4069 -705 0
2766 3209 -2701 0
4256 -1266 3681 0
-2336 -4724 2577 0
477 3926 762 0
-4980 -2834 -4153 0
4483 3663 -4521 0
116 2574 739 0
-4353 4480 -2628 0
4756 -4671 1777 0
3080 4194 -2691 0
3512 1546 219 0
-2781 744 817 0
2409 -4602 -2008 0
-414 89 -3569 0
-2726 254 1370 0
-4286 -3849 -3538 0
-2817 3335 -1269 0
-923 -3986 4815 0
-765 3373 4767 0
-4148 -1804 642 0
-628 -3068 -3044 0
872 3463 -2130 0
4186 1721 -727 0
4833 -752 3979 0
-4215 1423 3219 0
2804 4817 -4281 0
-764 3465 -4767 0
1180 1094 -2527 0
4277 -776 -1096 0
-820 -2808 3185 0
-4034 1292 1067 0
-3324 -3823 -1564 0
1677 -4193 1789 0
-4945 -1032 2467 0
-1803 1315 -3927 0
3339 964 3340 0
211 1601 91 0
-216 3697 -814 0
4844 -4808 4627 0
3851 629 1361 0
-1956 2956 2067 0
4388 -2870 1928 0
-452 3069 -483 0
-1982 -1619 1818 0
1868 491 -1314 0
3390 -1351 908 0
-711 -2698 4202 0
2562 -3948 -3906 0
1207 -3225 4439 0
-3201 2056 565 0
-2871 -3345 4392 0
-2877 1013 -1659 0
-1138 1280 -1774 0
2948 4671 2364 0
1625 -4430 -1067 0
-4838 -1052 -861 0
-1266 -3587 -7 0
441 -263 921 0
-1260 1310 -1322 0
3203 1674 3558 0
3892 1050 -1295 0
-650 -1571 1398 0
83 20 -4839 0
2656 -2500 -3304 0
379 1985 -756 0
1224 1557 -1024 0
2372 -3872 4787 0
-2441 4364 -1661 0
2108 2753 3323 0
1847 272 990 0
-3393 4753 -867 0
2769 -3106 4558 0
-237 4508 3275 0
-1776 3802 -2431 0
-4674 2863 -1072 0
131 -4267 216 0
2456 4027 -1290 0
4133 -2765 -3915 0
220 3600 -2463 0
168 2994 -582 0
-1937 -4773 1914 0
-1393 1888 829 0
-4329 2432 970 0
-4108 3330 926 0
-2158 -4231 -1341 0
4900 416 -1709 0
3275 -2563 -3989 0
-4997 4155 3581 0
-1911 -52 4515 0
1973 -2858 3623 0
-678 -1598 2694 0
3107 -525 2722 0
2914 2343 -3654 0
-4638 1438 -252 0
-3799 4082 57 0
1969 -3959 -4444 0
3799 -257 901 0
63 -3059 -485 0
4369 1013 2721 0
1897 1800 2748 0
-916 -2015 -497 0
-200 1432 -1280 0
2480 -3133 1446 0
3245 -389 4151 0
4628 -3962 2176 0
-2034 4943 3714 0
-1130 -2832 1001 0
-1852 4679 1024 0
3277 1584 -2841 0
2876 1401 -3016 0
-1188 746 2714 0
-2096 -4379 -4062 0
-4533 2631 -1268 0
-3279 4092 -1034 0
-2602 1964 2659 0
-3623 -4506 3685 0
-737 -3813 4177 0
-2123 -1935 -2951 0
-1567 608 110 0
734 -4650 769 0
-4748 -1217 -1983 0
-3433 3917 1765 0
-3997 3176 -4359 0
2657 4024 591 0
1636 -3804 1824 0
164 2212 -3365 0
1940 870 358 0
4354 -1076 1931 0
2887 -3920 -203 0
-3413 464 -1222 0
-584 -121 -3779 0
-4214 -2674 -1125 0
-4965 1339 2081 0
735 -2869 -2082 0
-2894 -4895 -2052 0
-44 -2991 -3366 0
209 4606 3393 0
4993 1685 -1520 0
3332 -584 -2861 0
-3208 -1585 -2452 0
-3757 2508 -2239 0
-4035 533 4560 0
-1688 -1322 -676 0
3898 3789 2625 0
3692 228 -832 0
85 2884 -2476 0
186 -746 -4822 0
4689 2797 -909 0
3641 894 3726 0
570 -3514 -3451 0
-4759 -3304 -4654 0
655 -1177 -1987 0
-2974 4032 4555 0
-1009 1576 4846 0
4004 -1650 -1405 0
1294 1676 -73 0
304 345 -3984 0
-771 4729 -321 0
-2320 4837 1513 0
-796 -3788 -4549 0
2961 -3980 -1630 0
2498 1756 -2203 0
-272 -2558 171 0
3406 2192 -2425 0
4557 -1672 -1986 0
-129 1836 -172 0
1573 -686 917 0
-4919 1001 -4731 0
2396 4340 618 0
-4701 -2778 4732 0
4940 -848 4488 0
-1007 1712 -1144 0
2790 -3307 3003 0
1720 -4808 24 0
-4675 876 -907 0
2943 742 -4272 0
-1414 990 -3004 0
3358 -4471 3271 0
1537 3946 -2458 0
-4121 -2481 905 0
3134 -1762 -890 0
1903 -4296 4734 0
4118 -556 -1049 0
699 3927 4780 0
3384 2002 721 0
-1033 -4141 4101 0
-4281 -489 1281 0
-2086 4002 2740 0
-4620 -4131 -2494 0
-4107 -2240 472 0
-2719 -453 -3704 0
-142 4317 -3047 0
-646 4567 3850 0
-2904 -2172 3540 0
-1850 2145 498 0
-3666 -1038 961 0
-3947 2393 840 0
-623 -1928 4876 0
-4282 -3706 -636 0
3269 -2275 -3177 0
-2377 -2256 -4287 0
3075 -552 -4071 0
2198 1032 -609 0
-3196 3739 4494 0
-4206 1699 -997 0
-401 770 -1094 0
-1047 3359 -2007 0
-3270 2093 3868 0
-4494 -2957 2312 0
3396 332 -4895 0
4348 3398 512 0
-4150 -3777 -2042 0
-519 907 2734 0
-2001 -1314 606 0
258 3422 2132 0
4283 143 -2564 0
-1316 3349 380 0
4440 -4435 -3674 0
1782 -3738 -2259 0
922 -1020 -1861 0
-4687 -2775 1736 0
3206 2488 713 0
4545 1359 4290 0
-1486 -4576 2303 0
4164 744 3776 0
-2662 2389 2280 0
3000 660 464 0
1442 -2513 -4879 0
-1681 3665 187 0
-302 3982 -256 0
2453 -2592 -2059 0
3094 -283 4737 0
1665 -1943 1075 0
2550 4400 -2389 0
3980 1408 4579 0
1030 -3007 -4657 0
1634 3464 3059 0
-3503 -325 -4870 0
3767 -4776 -3118 0
2482 -3532 -2292 0
500 3582 705 0
-1724 3859 -3530 0
2536 1081 4410 0
-2992 4382 -2442 0
-513 915 -1635 0
-2279 -3036 -709 0
2970 2775 -2135 0
3504 -1485 -1861 0
-1408 -4135 1765 0
437 -3644 2780 0
-1410 -1949 -2253 0
1937 -1397 -1723 0
-1183 -296 -706 0
-1468 1691 4965 0
-4642 707 3648 0
2976 -1392 -4886 0
2256 -2838 -2671 0
-2629 -877 1659 0
3741 1166 -279 0
994 -3130 -4503 0
3342 1542 3254 0
-397 -3178 -1445 0
4364 2354 -131 0
27 1555 2982 0
-3888 -1884 -973 0
1615 2657 -3129 0
3463 3167 -3993 0
4556 -1989 -1940 0
-3273 3597 1044 0
-403 -1380 -3038 0
4530 -333 -3778 0
1632 4586 -1198 0
-3939 -1793 -1673 0
-4266 -2037 -3197 0
521 82 -57 0
-830 -4728 -1269 0
-2384 990 -3124 0
4919 2026 -1666 0
-3987 -2257 1383 0
3826 456 270 0
-1762 793 -2314 0
56 -1677 -4206 0
1889 1187 1690 0
2057 2671 -4548 0
-3361 -3914 -4008 0
797 3527 1401 0
4299 4022 -1991 0
-3899 571 355 0
-1973 -1435 -3496 0
-1548 -724 1176 0
4664 3092 -4673 0
91 -1140 -3365 0
4537 -2033 -2790 0
709 -1350 -991 0
4781 -4076 -4444 0
258 -4789 4792 0
-3829 2012 4448 0
-2256 -4438 -4656 0
-2876 1686 -2825 0
1046 -4833 -4803 0
1114 -1628 248 0
-3976 -4554 -4397 0
3578 1477 1043 0
4073 -2764 1600 0
2970 -2855 -3267 0
-2364 -2104 3752 0
-4586 4013 -2351 0
2210 -621 -2912 0
-158 4050 930 0
-4984 -4994 -1279 0
3172 -4302 -2881 0
-4728 -2322 4200 0
-2950 2997 -425 0
4427 -1603 2779 0
-4711 1593 -1334 0
4291 -3196 -2417 0
-4635 -3332 4373 0
4296 1953 -4010 0
-2294 -2003 -334 0
-3917 -781 60 0
-1467 828 1790 0
1586 -3352 -2587 0
-3484 132 1901 0
3977 3748 -2744 0
1834 -2416 727 0
3823 -4611 -1289 0
-3032 563 -2549 0
-1845 3401 -1954 0
-4176 -3701 -4290 0
-4892 -3185 -1848 0
-437 4387 2722 0
-4385 -3120 -1421 0
-2638 3190 197 0
1559 708 4630 0
-1078 -4696 4773 0
100 -3552 2204 0
4976 -173 -2559 0
-4955 742 -3276 0
4708 -3305 2231 0
-4545 -3789 3438 0
819 3875 -3200 0
4208 1108 -1731 0
1615 3239 -1682 0
3200 -2213 1135 0
-1001 -3341 -3880 0
4174 -4595 -4291 0
-4225 -2707 -1610 0
4206 -3594 4364 0
-3915 -3105 633 0
-4020 112 -4512 0
-4346 234 -4841 0
2387 -2082 -2742 0
-1836 2330 -761 0
-3481 1125 -349 0
2484 -1058 1958 0
-2567 -2141 4654 0
1308 -831 1818 0
1882 2817 -3531 0
-2404 -220 2900 0
-429 -517 22 0
-1481 981 -4348 0
-146 -3663 -1142 0
4413 3382 -382 0
-3166 3145 -3981 0
150 1055 2461 0
-3154 -2074 -2625 0
-1332 2150 3294 0
-45 2437 -4052 0
537 -1129 -3722 0
-2382 513 635 0
356 -1699 4746 0
-2958 -4019 2215 0
-1173 -2111 2025 0
-2670 17 1754 0
4543 4517 286 0
-2777 -4985 -1741 0
-3169 -256 4728 0
-4206 4224 2047 0
4328 -4616 3072 0
3608 1447 -970 0
3113 748 -3002 0
803 -3208 675 0
-3188 -4794 2189 0
2231 -1397 -1714 0
-245 4179 -4994 0
-2908 -4333 4494 0
-1949 3421 3311 0
3716 -2157 -1261 0
-2644 -1451 -2938 0
-2951 -1951 2470 0
2796 -3843 -1241 0
4281 3253 -1021 0
2635 4584 3437 0
466 1431 2801 0
-2573 -3671 2424 0
932 459 -1520 0
2028 -1440 -3108 0
-1507 1975 -3125 0
2221 -3838 3197 0
3708 1224 -2728 0
1125 1704 4200 0
-86 2107 1454 0
770 -1601 -1393 0
3737 1233 3949 0
503 2300 -2426 0
-2037 386 3542 0
2238 2920 -874 0
4080 -1215 1612 0
2182 -2138 3905 0
3001 -4240 1137 0
4083 4735 2564 0
-2119 -4182 4174 0
-975 1825 2615 0
-4206 -439 -514 0
-100 -2468 -4011 0
-2343 -3789 1091 0
854 2563 1774 0
831 605 -2455 0
1392 -432 -4569 0
4232 -4336 295 0
2498 1238 3034 0
2279 -3570 -3024 0
-3313 36 -1325 0
-1603 3012 930 0
3357 3572 4445 0
-1648 -1177 3137 0
-116 -779 -4429 0
-2523 -780 -3791 0
-597 2698 3664 0
-4716 -4695 -821 0
3316 -4830 3949 0
-1222 4515 -1592 0
2963 -1003 2672 0
263 3662 -1523 0
-495 388 -3865 0
-2623 -3219 961 0
-4339 -4213 104 0
-2991 -3991 -3015 0
3270 3462 3030 0
4824 2670 -2944 0
-942 4152 -2715 0
3024 -2000 4438 0
-1584 2922 -2523 0
-3699 4901 -2065 0
-1172 -1202 -1116 0
1687 762 4260 0
2044 -284 4168 0
4415 -4734 -1648 0
-1892 -71 3728 0
510 2300 -4731 0
-3738 488 -4187 0
-4369 500 1681 0
1332 3952 -1795 0
-846 -3797 -1503 0
-3092 2053 2247 0
2712 -1382 1255 0
904 2966 -2926 0
-1931 -4328 -2436 0
1299 -1803 -4318 0
-3322 956 -4311 0
-3292 3260 1487 0
4 -399 541 0
-343 1926 3369 0
2790 -2958 1207 0
-2725 -4907 -1690 0
-1630 2804 1145 0
-2912 -1673 -3718 0
-3602 132 2401 0
-4255 4574 235 0
-2974 4737 2820 0
-1205 -1846 -1055 0
1332 2907 -1550 0
1837 2187 -3975 0
213 4744 -10 0
1786 -3086 -1186 0
-4274 -1185 -4172 0
3493 -633 3128 0
-1760 2849 -1315 0
172 -4750 2623 0
-1423 -3109 -3510 0
-931 -2709 3187 0
-4285 -836 -1365 0
4311 -96 -4302 0
-424 -3470 -426 0
3155 -4867 2522 0
2499 -1846 2148 0
-4509 370 571 0
-740 -3519 -4865 0
784 -4450 -4856 0
-395 -152 2154 0
-2003 -1704 -106 0
152 2494 880 0
1835 1743 2640 0
-770 -2384 4934 0
885 116 -4897 0
2026 -744 3949 0
912 -2476 1264 0
-1470 1773 -57 0
2619 4765 1276 0
4185 -1771 -4496 0
4359 -4696 -4106 0
-1224 4870 -3184 0
537 -2950 31 0
530 -1146 2959 0
-516 4013 -341 0
1253 -3594 2187 0
-4017 325 2608 0
-98 1890 880 0
1284 -4887 3945 0
-2019 -1685 -1233 0
-840 -2698 1309 0
-1536 4662 4175 0
2749 1274 3670 0
4830 -1391 -3713 0
4326 -1192 4824 0
-4595 3817 3658 0
-1727 -1024 -967 0
-1060 3585 -334 0
271 -88 2224 0
4517 -14 573 0
-1100 -803 4879 0
2641 1798 -1941 0
4836 2119 1212 0
-851 -4944 4438 0
-687 -3421 2065 0
3085 815 2163 0
-1908 -1873 4099 0
-3046 -2403 -2581 0
-3737 -4591 2852 0
-2605 -1716 4890 0
-2683 -515 3586 0
-1863 4632 -1841 0
-85 2593 -1652 0
4327 -1091 -3511 0
-2580 277 2364 0
-644 124 2307 0
-2498 633 1909 0
4244 1510 3261 0
-4788 2432 -479 0
987 -1172 3879 0
-2018 -2971 -561 0
3003 1461 2133 0
4516 2646 -2355 0
1135 113 932 0
2313 1022 2638 0
-4724 2427 -4256 0
-410 4195 1627 0
2802 -4656 1152 0
-3064 -1064 2878 0
4610 4214 2955 0
-4195 3451 -3035 0
-2276 2024 1884 0
3246 -1484 1828 0
4183 -2191 1429 0
4788 -355 4155 0
-4572 2737 4850 0
3340 3367 -4647 0
-1581 1171 3309 0
-411 -3168 44 0
-2901 3435 -2569 0
-4269 -4757 -793 0
-847 -3598 126 0
1620 -3139 490 0
-2162 -4852 66 0
-3015 107 809 0
-1346 1529 663 0
4890 911 3367 0
-256 -4499 1614 0
4891 -324 1242 0
3273 3096 530 0
2508 3922 -2439 0
2069 929 1710 0
-2968 4725 -2331 0
380 4723 3510 0
4738 -4189 -2020 0
1146 4139 2711 0
782 4228 1053 0
-3238 -1593 -1453 0
1797 744 -1699 0
-1193 -2101 2003 0
-535 -4544 -603 0
-340 -387 1464 0
4629 2637 3248 0
-4131 2895 3966 0
3666 644 626 0
4579 -864 1818 0
2640 -3684 3316 0
4054 2078 3683 0
-580 371 304 0
4603 1764 370 0
-4932 -706 -1706 0
-3688 -4468 4155 0
-3857 -4890 -3051 0
3372 -4 -2368 0
2731 -118 -1369 0
-4850 -3779 1180 0
-488 3629 -4144 0
194 -1420 -114 0
-482 -1149 -3363 0
524 2651 1842 0
3717 299 496 0
435 4820 4657 0
-4406 2953 -2756 0
386 4066 -4935 0
-1309 -769 1383 0
936 4994 -3019 0
1153 4525 717 0
1599 -3077 4451 0
-1590 -4029 -2356 0
3544 4202 -3123 0
-1850 2695 4350 0
4525 2061 -3670 0
-263 4906 -2996 0
-1499 -4880 -131 0
2499 4797 -2032 0
-2075 2445 -1650 0
62 424 -2980 0
4782 3844 2417 0
3313 1297 4555 0
3039 3153 2375 0
4262 3307 4604 0
-1463 -2189 3050 0
-575 518 -3947 0
-591 -1704 -408 0
775 -2098 -821 0
1596 -2928 1742 0
1782 3752 753 0
4636 136 -3974 0
2466 -1978 920 0
3170 -517 2855 0
-80 -3544 1083 0
-2198 3525 467 0
-3752 -1705 -701 0
-1465 139 2598 0
-3228 2738 2177 0
-2158 52 2480 0
-478 -4093 3982 0
1434 -723 -2863 0
3937 -129 -219 0
-3490 -1132 -937 0
-2372 -2245 696 0
-2713 1913 3052 0
-3992 -4843 1503 0
-2241 -4995 1287 0
-2927 4395 -1481 0
1659 -3823 4001 0
-4679 1249 -818 0
436 3726 -3448 0
3582 74 1071 0
-2558 -1615 1522 0
-4716 -3337 3236 0
-4625 -3172 -766 0
1917 3705 -4563 0
321 3714 2146 0
-3810 3003 -657 0
-3775 3605 4960 0
331 -1427 657 0
1177 -4702 1657 0
2910 -3127 -1092 0
1928 4622 -3158 0
4959 -3556 -2283 0
-3488 -541 1173 0
4608 -4246 -3330 0
1897 704 -742 0
1112 -3600 135 0
518 -1851 3369 0
3459 -892 3179 0
-3030 -1242 -655 0
4571 -1919 4706 0
2545 817 2122 0
-4828 -2134 -3165 0
4841 -2022 -599 0
4488 -3844 1189 0
-4923 1926 -2535 0
4799 2720 2036 0
2600 -3868 3747 0
-1585 -3028 4995 0
-260 4745 2807 0
3670 -771 2703 0
1823 -2019 -1449 0
528 3748 -1587 0
-1189 -4945 1051 0
4900 -2532 -2095 0
-2670 -2967 539 0
-4880 -273 4208 0
163 -2121 3978 0
1168 1540 2762 0
-212 -3443 -4889 0
1241 -439 504 0
2012 -4417 -3338 0
1517 -4326 3817 0
3486 2971 -1398 0
-77 1142 3144 0
88 3257 2859 0
-2651 3857 3198 0
3788 -1523 2557 0
580 1120 -2222 0
-317 -3498 -3266 0
-176 880 4694 0
-744 -1587 3898 0
-3480 2894 -3290 0
-3769 2745 -4476 0
511 1436 -991 0
-3532 3111 4781 0
1567 -2812 -2618 0
-3424 3804 3437 0
2108 -1233 -528 0
-3287 1333 -3973 0
-1758 4534 -1549 0
3313 495 -184 0
-2467 958 -2130 0
-3753 3340 322 0
-4151 3949 1851 0
2533 4564 3925 0
-3421 -3510 -1852 0
-1175 1709 -1568 0
-3295 -4417 1052 0
4242 3578 -2247 0
-4319 2245 -4572 0
-1392 -1759 423 0
4667 -4054 4696 0
-294 -2366 1254 0
1076 810 2375 0
-312 96 4409 0
1792 -1869 32 0
-4148 -3214 4853 0
2746 -3631 2266 0
4129 -577 -4555 0
-3202 2858 -4372 0
1528 4867 3656 0
-921 4815 1589 0
-4538 -1728 2027 0
-121 -4370 -2894 0
-3885 3252 393 0
4978 2851 -3116 0
-2144 2617 3673 0
-2106 -2978 670 0
-1664 -749 -2357 0
-4868 707 -3498 0
-2360 -2832 -866 0
1674 -939 1488 0
3850 -479 -2646 0
965 1506 3948 0
-239 -4579 -1887 0
-2013 2385 -4484 0
-3989 -1600 -2545 0
2126 -3397 50 0
1920 -1645 -2608 0
-1745 -3318 -953 0
-3017 3303 1360 0
2443 711 4714 0
-3837 -3009 -4938 0
1459 3259 -1462 0
4647 -4439 3333 0
-1119 3838 1253 0
1237 -1971 -2965 0
2408 2990 -1541 0
84 2122 668 0
397 -30 -2473 0
567 3188 1096 0
-4189 4689 -3645 0
-3025 2709 2203 0
1888 -4320 195 0
4449 2384 -2492 0
113 -4800 3051 0
-1616 -4310 -709 0
-2089 -4458 -3216 0
-1212 1236 -4451 0
554 -4079 3039 0
327 -914 -545 0
-3636 -1811 1292 0
2446 2758 360 0
-3441 3192 1009 0
3387 -3080 -4717 0
-805 4432 -3125 0
4811 2919 -1050 0
1450 2273 -4063 0
318 4155 -274 0
961 4094 1891 0
-4550 2461 4798 0
-2887 3680 1968 0
-4206 4459 1491 0
3228 4702 3376 0
-1208 -3416 4287 0
-372 1804 -2281 0
354 2324 -2333 0
-1123 -1390 -4998 0
2207 -2663 1838 0
1221 -884 -3555 0
2020 2742 1187 0
1626 318 -1785 0
1926 -3221 -4342 0
-2093 -2993 12 0
-982 -4045 4197 0
4160 3962 -3290 0
-3103 3086 -1902 0
-1393 -1015 4092 0
1694 -1948 4516 0
3624 781 287 0
1901 2073 363 0
-3562 -606 -2811 0
166 -991 1724 0
4122 3925 -4021 0
1771 570 3311 0
-4979 -1381 -3485 0
-2930 4482 2224 0
-47 -3121 -2882 0
309 -2034 -2680 0
-3892 -4544 3621 0
4326 -3453 -2796 0
-3135 3968 646 0
-2763 -1505 202 0
2504 942 1885 0
-1191 -3325 1989 0
-3056 -3306 1391 0
4477 4174 229 0
-1214 3031 4342 0
-2944 -2872 177 0
2896 -2249 2398 0
-1056 3752 -3874 0
1820 4883 3304 0
-1120 2155 2283 0
-121 -724 -4744 0
-1091 4675 -3132 0
3947 2275 502 0
-4453 3437 4677 0
-3176 1774 -1275 0
4969 -2878 -2736 0
4814 -582 -1810 0
-2451 -4591 4095 0
-3826 2979 -2798 0
3071 1572 -900 0
917 3508 2420 0
-114 39 -1170 0
4893 2602 2953 0
1672 -113 -1244 0
-2559 1946 -991 0
2737 -4716 2456 0
3115 -3706 -3434 0
-1192 710 -3522 0
-4025 1297 -4840 0
3684 1100 -1987 0
4683 -767 3521 0
-539 3591 4268 0
994 3512 4269 0
-181 -4088 3274 0
1236 3398 -2253 0
4589 70 2121 0
3019 3487 4600 0
1216 1707 -4364 0
4000 -3581 -1610 0
-2563 2818 2689 0
-3751 -4730 -4373 0
1269 -3809 -2233 0
-810 -845 -1682 0
-3997 712 95 0
4863 133 3685 0
1526 4113 3086 0
1445 -1098 1369 0
-564 -1747 2610 0
-530 744 3129 0
-1359 -2006 3551 0
3893 -2175 2127 0
3527 -3905 -3566 0
2265 423 -2998 0
1715 2393 1484 0
-1940 1332 -2910 0
3514 986 -2269 0
3707 3290 -3267 0
-4893 -4409 4989 0
-367 -1957 1686 0
-4707 -2591 -3893 0
-1828 4984 -2968 0
4007 -311 -671 0
4564 -1029 2709 0
-3909 -1528 751 0
-2927 2768 -597 0
1950 -2803 -4766 0
-336 -4091 -516 0
2310 -2019 4726 0
2748 -1380 1103 0
-4971 -4570 1212 0
4005 1343 1944 0
-4703 -4047 -2674 0
4915 -890 -1851 0
-3273 -3339 -322 0
-3824 4066 1550 0
1094 851 -3904 0
-590 3350 -1806 0
-539 -3700 3046 0
591 1078 2555 0
-266 -4831 -1435 0
1022 -3472 3186 0
102 -3332 4294 0
4572 4815 1972 0
2389 -4965 951 0
-690 473 4742 0
3216 1878 -3031 0
4696 281 3538 0
-1997 -4620 -1563 0
-1764 -3108 824 0
-3007 4716 -1095 0
-4051 -2024 -4771 0
3244 3024 706 0
423 -1625 -4997 0
3432 -3858 -277 0
-4885 -424 -2840 0
-599 3566 -1311 0
3057 -1769 613 0
3411 4636 3353 0
-3803 -2770 -1878 0
909 -3124 59 0
1811 3529 -1923 0
4741 2213 -898 0
-4224 -1029 2123 0
4366 2698 3005 0
-2675 2921 2947 0
-1302 -356 -3337 0
3713 2505 -4786 0
-4932 124 -1036 0
1666 4100 -317 0
2763 4971 -1275 0
2214 3270 -2258 0
3717 -861 2162 0
-2307 3736 3470 0
-3406 -4253 -891 0
4651 -3493 943 0
2759 459 4771 0
1704 -517 1358 0
-2277 -4834 -2469 0
583 -3676 4606 0
613 -2437 -786 0
4555 -1744 3697 0
-3927 1534 -228 0
-264 -3981 -2497 0
-2354 3252 997 0
3638 -1035 -4810 0
2091 -3598 4082 0
672 2925 505 0
-1306 -3376 4006 0
-1486 -2336 -3898 0
1410 2431 -4531 0
2344 2962 3318 0
-690 1704 453 0
-746 -3547 -3724 0
2868 438 389 0
686 -2537 521 0
-4119 -4339 1244 0
532 -2621 -2425 0
-219 -217 -2004 0
2333 -3246 -3216 0
4422 925 -3809 0
-320 852 -3208 0
3966 -4498 -3129 0
2488 1613 -1112 0
482 2170 -2928 0
1213 1763 4858 0
-790 3276 1304 0
76 -1810 497 0
-1605 -4553 -1800 0
296 -2899 1125 0
-2589 -3889 -1625 0
845 -2690 -445 0
-2825 -4299 2842 0
-998 3941 4702 0
-3628 1061 -2790 0
1472 -4913 -2811 0
-1425 -3348 -3963 0
-3721 3711 4692 0
3329 -1808 228 0
-3401 1404 1336 0
-3518 888 3392 0
4175 2893 -734 0
4751 3502 -294 0
-3562 4910 2916 0
-3258 144 4796 0
-660 -1317 -1952 0
-1664 -674 438 0
1343 -4851 -1013 0
1733 4529 -2983 0
-3292 1064 4784 0
-4045 -1382 646 0
363 -1394 78 0
1733 4005 -2580 0
1158 2736 3746 0
4190 282 -1966 0
-1816 -1404 -372 0
-1368 -4000 -3057 0
-2849 -3678 -4813 0
-4145 -1678 -3478 0
-3408 -1562 -2576 0
1674 1938 -4584 0
-1004 3558 -2553 0
-4403 2181 -4091 0
811 4865 4536 0
-1365 -4178 3966 0
357 2281 -4849 0
4198 1525 532 0
2549 2691 -4752 0
4822 4829 4959 0
-1872 -11 1083 0
1638 -1214 52 0
2308 -1380 -4526 0
-2732 3253 1035 0
1739 2312 -2264 0
-4275 -3718 792 0
-3481 1453 2896 0
1371 4534 -4902 0
-3885 -2642 2320 0
-3286 619 2429 0
4179 -4154 -1505 0
2648 -283 3102 0
-2819 -384 137 0
2236 -833 -871 0
-4758 -3719 2387 0
2166 1177 4236 0
-816 -2578 1242 0
1035 3233 -3189 0
-543 -3823 1241 0
-21 2048 2257 0
-1863 1590 -3867 0
-3889 -1329 -3455 0
-4399 2472 -596 0
217 -2316 1677 0
-3334 -255 -2091 0
-2429 -3770 -1148 0
-2893 4127 3444 0
4104 -1122 -3491 0
-2258 -1413 -3125 0
829 -2909 1444 0
2295 4324 -1640 0
-725 1216 -1992 0
-840 3599 -4379 0
1167 -4160 4182 0
2139 45 2242 0
2315 -168 -3067 0
4655 -4720 4317 0
2116 2423 733 0
889 -4605 -4485 0
3174 655 1738 0
-3284 1472 -3369 0
714 1341 -2808 0
-799 -1212 4002 0
2098 2159 1049 0
3737 3245 1918 0
-2379 -352 4862 0
-4918 3449 -1243 0
2994 3485 -1370 0
-3399 -337 3592 0
-2568 4915 3378 0
2343 3931 3336 0
4710 -2860 4697 0
-3186 1548 2567 0
-3081 1595 -497 0
-1331 -710 -3799 0
-1130 3397 -1439 0
-88 -238 1402 0
-1814 -4901 2545 0
3166 -2674 -4839 0
-3778 2817 4817 0
165 1664 -3493 0
-4718 -494 4617 0
-1434 2172 4093 0
1435 4622 3685 0
-892 1583 -4274 0
-2438 -360 4550 0
-4226 -4583 1199 0
-2971 -4012 1186 0
-4924 -1163 296 0
1202 2625 -2320 0
950 -1523 2744 0
4197 2467 3720 0
3267 4954 -4435 0
-1105 2302 -3819 0
-402 4297 -2873 0
170 -4080 -544 0
3346 757 -493 0
-2982 2890 1828 0
376 3751 -1080 0
-588 4755 -2861 0
-1296 -3086 -414 0
1279 -2208 -4893 0
-2868 -3000 -4934 0
-2842 402 3562 0
4417 -1236 -3013 0
-997 -2847 281 0
-3603 -4875 -203 0
-1904 -30 -1170 0
3843 -1453 2661 0
-1683 -2672 -1067 0
4467 4460 2540 0
363 1176 -3918 0
3418 -2683 2711 0
1035 -1270 4822 0
-974 2294 2168 0
1531 3351 1084 0
1682 -1217 -885 0
-3037 1110 998 0
-1880 2052 -2300 0
3237 4930 4066 0
-3435 887 2211 0
2042 -2291 4654 0
-4055 3482 -2499 0
601 -4511 1365 0
2259 2385 -2865 0
55 -19 -4426 0
-3279 -4813 -3835 0
1152 2259 3525 0
2070 4810 -3227 0
4470 -3346 315 0
-3100 -997 4194 0
-3366 -4004 -843 0
-2058 -3442 -4731 0
3643 4350 800 0
4512 -4258 716 0
-4824 320 -2165 0
781 -3189 2661 0
1160 -3323 -2727 0
3357 4773 -137 0
4342 2289 -3021 0
3111 984 -1594 0
2593 -4842 -2999 0
-1445 2259 3590 0
-2629 -2418 4325 0
4508 -586 -3212 0
-3622 3837 3056 0
4961 3265 3843 0
709 3108 -3853 0
-4528 507 -3303 0
229 -1613 2766 0
1561 3393 -3667 0
2494 2261 -1637 0
-2077 -401 2270 0
1880 -2671 -1484 0
-4484 -3933 2027 0
-478 334 2051 0
758 561 2445 0
626 -765 -4627 0
3107 -1248 -2032 0
4672 -3110 2287 0
-3788 -247 3850 0
3676 -2959 -534 0
3260 3165 4416 0
-3436 993 3093 0
-1311 -1373 -1008 0
-4442 -1427 -2059 0
-4507 975 -1397 0
2461 -2754 -2257 0
-2870 -2640 2285 0
-782 4724 754 0
643 -2438 2703 0
948 -3539 -3415 0
-689 1449 982 0
-3284 -2353 -4789 0
-1348 3548 -4289 0
-1513 4933 4829 0
1510 -2977 1023 0
4775 -3087 2419 0
-1798 2206 -2191 0
2363 -379 -896 0
-4233 -4932 -4409 0
4092 -1450 2704 0
2437 1014 15 0
4881 2403 1150 0
-255 2383 -1229 0
-2653 -3081 -30 0
1499 2580 1927 0
-4497 -3938 2768 0
167 -2526 1341 0
-849 -361 4653 0
-159 3856 -836 0
-1792 4204 -4808 0
4966 -2849 2185 0
3886 2973 4681 0
1373 4316 1591 0
-3728 -3442 -3681 0
-14 -2505 1161 0
-1365 -4804 1588 0
1598 -4404 -2934 0
1580 511 -72 0
3761 -1191 -173 0
3586 4320 -1469 0
3805 3532 749 0
-3832 -4715 -3586 0
4010 3417 -1332 0
-4867 -448 -1187 0
3759 -1882 -4752 0
746 -2334 -3658 0
4640 2053 -2541 0
3660 -207 -1389 0
1414 542 4814 0
3939 1551 900 0
3921 -1352 -698 0
3752 -2509 176 0
76 1555 -4289 0
-4864 160 1212 0
-106 2155 -1509 0
3336 4299 1618 0
-251 -4939 4608 0
-2765 -1916 1821 0
-4284 -4609 4042 0
-4862 -3814 4943 0
-4393 -4417 935 0
4626 3679 3350 0
-2094 3590 2257 0
-1420 -3845 1312 0
-491 1999 2350 0
3898 289 1153 0
1448 246 -293 0
-124 4918 56 0
2301 -4131 3166 0
-1838 -3962 -615 0
-2814 -3080 -787 0
201 4253 -499 0
-793 3326 -1322 0
-3504 4100 2064 0
3392 -4978 -454 0
1520 -4513 -4743 0
3079 -3604 -3309 0
1616 2909 4972 0
2867 1983 -4491 0
-2669 -2190 3696 0
-2555 3109 4979 0
997 -1041 4226 0
4983 3271 -4755 0
-2054 -3606 154 0
707 -955 4214 0
728 -2417 2250 0
-3765 4510 1023 0
-1361 549 -2051 0
4441 -2618 4929 0
-1107 -1629 898 0
2305 -4136 3292 0
-491 -1297 3453 0
1827 197 -421 0
4035 -4884 -2630 0
-2804 -3845 -3495 0
-1435 2209 -4959 0
-184 -3781 2914 0
-3187 2955 -4050 0
3494 -4301 -3304 0
3727 -3352 585 0
-2062 194 1190 0
-4677 942 -3690 0
581 540 4045 0
877 -3138 3562 0
4843 -3355 -1963 0
-2018 810 -228 0
-2253 1043 -778 0
1868 -3286 4900 0
3637 404 2987 0
441 -4947 2301 0
2537 2235 4379 0
-3982 584 3469 0
-264 410 3499 0
3335 -4418 -2287 0
-1259 -209 400 0
-3642 4683 -3268 0
2448 -870 -3015 0
-4849 -685 -4209 0
-4609 -4956 -2201 0
-3928 4829 -2972 0
4605 3469 -2711 0
-4225 4298 2225 0
-4210 -768 -4696 0
-4036 -2025 -2280 0
-2707 -3252 -3421 0
1252 -2910 1861 0
4756 2512 98 0
1075 -2666 576 0
3511 964 -1441 0
-174 -1096 2891 0
-2954 -2313 108 0
-4139 -1913 2898 0
-1201 -3068 4933 0
1748 3584 -1479 0
-4147 -2330 -4602 0
1484 -1912 -1666 0
3479 -1614 2125 0
-1804 -2692 -667 0
4609 -4487 3121 0
3185 -1299 -2363 0
-692 285 -3602 0
919 -1423 4966 0
2413 444 -1681 0
-3887 -2226 1404 0
-2352 -1626 2802 0
214 -2769 -1087 0
3881 2118 124 0
-4484 2896 -2155 0
-3330 -4486 3232 0
-2474 -2859 -4933 0
-2857 3167 -1337 0
-4296 -477 -4620 0
-2579 4397 -884 0
-4184 2980 -373 0
-1019 -4146 -4804 0
-1444 -2427 -94 0
1155 4683 3032 0
2268 412 472 0
556 3444 1424 0
-2672 4134 3820 0
-631 119 1377 0
2061 -3819 -4279 0
-873 2855 4808 0
4475 4683 -4474 0
-3574 -466 -1078 0
4087 -4105 -3776 0
2952 864 -3783 0
2638 -4644 549 0
1888 4015 -3329 0
3015 -425 -4537 0
3160 1367 4043 0
364 -4500 -2817 0
-4829 -2980 2993 0
-3789 1296 -3172 0
2314 1737 -4437 0
-4301 2510 3787 0
1586 -737 3056 0
1497 2811 -4561 0
3312 4538 -1983 0
-2362 -1928 4433 0
2525 1116 4291 0
2869 -3060 2801 0
-3603 3558 1019 0
-1683 -529 310 0
3054 -396 -1944 0
2736 3254 -4728 0
3860 -4738 1193 0
-4300 4323 877 0
1833 2352 2271 0
1404 2773 -602 0
964 4812 2821 0
3241 96 -512 0
-452 834 -2931 0
-4522 1429 -147 0
-504 -2311 2784 0
-4732 -2057 -551 0
673 -1976 1256 0
4962 640 1187 0
1225 399 1061 0
1104 1536 -1026 0
-1340 3645 -4598 0
-2124 -53 -1085 0
139 -4791 410 0
2938 -3271 -3108 0
-1835 -1344 4279 0
-427 -4509 -1374 0
-4828 -1500 -2817 0
287 2407 470 0
572 -110 2391 0
-4526 -1018 4289 0
-2086 714 -4211 0
-774 -3620 -1870 0
4931 -4814 -2105 0
4477 3278 -2203 0
-3225 2159 131 0
-1226 414 3312 0
4572 -1269 -1651 0
-814 -4783 1016 0
-3143 3416 -4856 0
1799 -1800 -2233 0
49 -943 -4308 0
-1307 -3147 2154 0
-3887 3509 -615 0
-4364 -696 -4858 0
3718 949 -2940 0
3169 -4060 3717 0
2172 -2032 4502 0
4517 -4265 662 0
-1964 -4943 3516 0
2891 2764 -477 0
-1118 -35 3616 0
2 4295 1665 0
-3522 3298 3690 0
2035 -3257 -3150 0
-525 -2132 1896 0
4706 -2494 -572 0
3432 -4001 -4713 0
-298 2742 3282 0
4507 1439 1109 0
-4300 4684 3210 0
248 4799 4219 0
3468 994 -4164 0
-3196 -1237 9 0
261 -1238 3553 0
334 -2943 1802 0
4672 -736 196 0
207 -3932 2728 0
2492 -2708 2496 0
-2824 -4042 1257 0
-3361 -4861 -4450 0
-63 807 -4078 0
-233 -2553 -4511 0
-4228 2785 -890 0
-3056 4319 3025 0
473 -983 4523 0
-3374 2364 3727 0
-3669 3252 -1580 0
-2773 4804 -910 0
-3586 -1562 -4795 0
-727 2385 3259 0
3914 -2664 4247 0
3090 -3814 -2636 0
-1893 1321 1055 0
-4839 4697 4085 0
-3571 -2597 -1414 0
1054 -2302 3188 0
-3483 1826 4515 0
3975 -643 440 0
768 -579 -803 0
4234 -1941 -2914 0
-3460 791 -3274 0
-3354 1687 3419 0
3965 1635 -1807 0
-1193 1079 -3284 0
2397 -171 4569 0
1584 -1430 -285 0
-1371 769 2938 0
-149 4278 -1320 0
-2721 -1575 -3421 0
4934 -2122 979 0
-335 1605 -268 0
2650 3791 2220 0
105 -2372 2649 0
117 1414 3270 0
2477 2585 -4702 0
1096 -3313 3784 0
-4902 43 971 0
2415 2105 2909 0
-3786 -3009 -4610 0
-1944 2498 -4370 0
-433 4645 -3093 0
-1836 -4104 462 0
-2281 -1455 -3992 0
-2263 2825 -904 0
2328 2595 1736 0
-4086 -734 4000 0
4922 4721 140 0
1310 -1309 -4028 0
4726 -4654 -175 0
4958 2287 -2359 0
4005 605 -4932 0
-2936 4048 -371 0
1715 479 1859 0
4086 -2995 -4554 0
3635 4655 -1137 0
1227 -150 -991 0
-2434 1706 -3912 0
2562 -3074 1967 0
-1037 -4886 439 0
-3065 -3062 -1966 0
3260 -4702 1222 0
3727 843 1455 0
2641 2941 3300 0
-3438 788 1924 0
2696 -54 -1048 0
4213 625 -1809 0
-2087 2369 -4117 0
-4116 1017 -4999 0
4471 -1716 3936 0
1233 869 4921 0
2933 -1854 -3346 0
-3317 132 1370 0
3051 2580 -1056 0
-4212 -376 -4204 0
66 3296 4150 0
-4517 -1500 -1143 0
3498 4504 -3307 0
4907 4073 -1912 0
-306 37 2357 0
-824 1114 3236 0
1457 -2368 -543 0
4562 4999 68 0
-41 -3981 2997 0
-370 -1519 -1375 0
-635 3051 -1974 0
4134 3979 3305 0
-2282 -2300 -1864 0
-48 -564 3040 0
-1494 3800 -1034 0
404 3585 -2957 0
-4362 1474 -1262 0
769 4615 -933 0
1596 -1588 -2107 0
625 3218 -3135 0
-1544 -440 2069 0
-3507 -1432 1984 0
-461 -1449 -4861 0
-4286 -1218 148 0
1642 1385 2205 0
-4101 -3322 4270 0
-425 1362 -2198 0
-3194 1862 4153 0
-3634 1568 -1271 0
3153 -1666 -3037 0
-2156 2729 -2420 0
1184 2512 4797 0
-4424 2234 -3396 0
-138 -4550 -3179 0
461 -3931 -559 0
-1053 -1313 1563 0
606 3834 852 0
1481 2747 2532 0
1752 -3579 -4104 0
4032 65 -2416 0
2282 2821 2341 0
3079 1458 -3889 0
-1839 1408 -855 0
-3666 926 1743 0
885 4943 20 0
3911 1369 489 0
3701 -2489 -4373 0
548 1916 4999 0
106 1140 4321 0
2962 2587 654 0
2779 1732 -4896 0
-1264 1925 2385 0
2431 -659 2157 0
2555 -4480 -4828 0
3243 1125 -1703 0
-2771 2686 719 0
-4500 1945 -4212 0
-729 3682 -1799 0
1703 3132 2799 0
-4918 2395 -2409 0
-4064 -3858 -4480 0
-138 -932 2100 0
-4302 3629 -1412 0
4256 -3647 4360 0
-2574 -2638 141 0
3650 4273 3274 0
-1238 1717 1357 0
4881 -2572 -674 0
4960 809 3549 0
1949 3251 -4472 0
-342 -1803 -3516 0
2399 831 1308 0
4308 919 201 0
813 1380 -4759 0
-411 -943 215 0
-1763 3631 4532 0
-90 413 202 0
787 566 4658 0
-4695 -2355 1097 0
-3317 1873 -1867 0
458 -2699 -4944 0
428 -2780 288 0
3822 -1812 3602 0
-1081 -3310 -1350 0
-4754 -1209 -372 0
194 3064 561 0
3983 3014 2297 0
4944 -2057 -1261 0
-2837 13 -1382 0
903 -3824 -3648 0
-3170 -1668 -1240 0
2434 3971 -3042 0
-4566 2556 401 0
-3270 2216 4796 0
4764 -2646 -4247 0
2260 1043 -3195 0
-3042 4168 2794 0
611 1368 -3055 0
1653 3115 -4471 0
-1442 -49 960 0
4680 3357 -3664 0
3083 600 2750 0
-1114 2873 -1679 0
4607 3383 529 0
-205 331 -3248 0
4175 2689 4347 0
866 -2172 2227 0
4467 4108 -2768 0
1018 234 -3628 0
-1416 1544 2124 0
2954 3296 -508 0
2364 -1768 -6 0
-4963 -2118 -3266 0
-4039 4419 529 0
-1562 -3249 3300 0
-1755 -1541 -966 0
1046 -4610 2918 0
-3175 2385 3849 0
104 4015 3293 0
2785 -2792 3626 0
-2164 4433 -4257 0
982 3150 2749 0
-181 1100 1024 0
-2348 1382 -2258 0
1465 -3025 -3716 0
-1857 4029 1227 0
2567 3288 926 0
-4668 -129 -2337 0
-119 4055 3721 0
-4731 4980 3421 0
4442 195 -1509 0
-1806 4858 -217 0
1200 3449 -2693 0
4295 3108 1421 0
-1389 -1949 -2714 0
2246 140 1281 0
2777 -4552 -891 0
-12 -1426 4852 0
-3025 3491 -3622 0
2476 2002 -3194 0
4994 -2867 -2445 0
3483 3288 -3582 0
4168 -1552 1107 0
-4409 1742 -3298 0
3962 4236 -2568 0
-4800 -2193 676 0
2656 1562 -1649 0
-2940 686 661 0
-64 3865 1964 0
-1876 -4738 300 0
-3928 3569 -4594 0
1314 -4964 3348 0
-2632 3895 -1756 0
-3335 -3903 2388 0
3924 -2838 3886 0
4711 2334 3390 0
3291 -2092 674 0
-2829 -3990 2796 0
-2082 1037 1567 0
2145 3902 4793 0
2016 -1655 -3054 0
3086 4431 1341 0
1142 -4741 2416 0
-1626 629 2331 0
3578 -1428 -3027 0
2417 -4274 -2386 0
4442 -1120 -832 0
-3368 -4228 -1545 0
-2016 -2306 -1643 0
-3565 4066 3517 0
-4081 -4224 864 0
15 3785 -3705 0
3468 2125 3794 0
3540 -2589 4972 0
-2249 -3022 2703 0
2250 3396 -1830 0
-4866 -174 2934 0
3037 4928 -884 0
-3456 155 -2686 0
-1865 2164 1285 0
2363 774 -2224 0
-877 -2787 2238 0
429 -844 1423 0
4357 2839 -4776 0
-2191 -4073 -3051 0
429 -3837 274 0
2477 2644 4280 0
3558 4136 612 0
-2250 -871 -756 0
-535 -689 309 0
-2043 1010 -2773 0
3537 3904 2717 0
7 -3455 3432 0
3945 3658 -403 0
-3762 4459 426 0
-4210 115 4969 0
116 -1949 -4535 0
3437 2176 4945 0
3829 -532 -3075 0
3329 -1637 -2990 0
-2308 -2080 -1346 0
178 -895 -1710 0
444 -2722 3222 0
-1259 2303 -3117 0
3334 -81 940 0
2493 4248 -569 0
1178 1863 369 0
-4176 -2291 2898 0
-1766 -2908 3628 0
4862 573 -3705 0
487 2980 2633 0
-4806 -988 4945 0
1114 -2931 -4239 0
-3161 1446 4298 0
-3446 -2027 3984 0
-4229 2573 -4837 0
1087 1789 -1905 0
-274 -2387 -2525 0
293 298 -1923 0
934 1209 -413 0
-3415 -465 -4226 0
4484 -737 3956 0
-889 3965 -4452 0
-4719 -2673 -2726 0
1483 4124 -1235 0
3941 1313 -1549 0
-2339 -1655 1448 0
-699 1516 -2896 0
4302 -1962 -1978 0
-3815 720 -4531 0
-2169 -4343 2986 0
2231 3184 1380 0
2585 4880 2539 0
-1842 -978 2912 0
-4121 -866 1387 0
-3093 3964 -4842 0
-3936 2048 3244 0
-1091 -3793 -1548 0
4654 3831 -932 0
-1994 313 4952 0
-444 4065 -2776 0
3917 3047 -4390 0
1214 -2815 781 0
-1836 -4688 -679 0
3324 1106 -2534 0
3358 2718 -1267 0
-3237 3042 -953 0
-1782 -3397 1528 0
-3823 2891 -4129 0
-1757 -3051 -3203 0
-2965 -1528 3670 0
2492 -2371 4601 0
-362 -4315 2777 0
-3541 -1883 1166 0
-935 1899 2609 0
1092 -579 -4879 0
2466 2976 -2141 0
774 -2276 -696 0
-3707 405 310 0
-2767 1583 3704 0
2327 -1598 1217 0
-2340 746 -3503 0
-771 3443 -3108 0
-384 3295 4208 0
-4023 386 2908 0
4342 -4464 -402 0
-1778 -3970 585 0
3463 4056 3373 0
1882 564 -1858 0
-2069 -999 2858 0
3856 599 235 0
-2028 2148 -1596 0
-4125 3276 4331 0
-2628 -3155 4146 0
-4436 -2901 4382 0
4142 -572 4353 0
981 -759 720 0
-4875 688 -1005 0
-4986 -2213 -2385 0
-1454 -1883 2468 0
-516 4507 226 0
739 -4154 -1212 0
4481 -1804 -4056 0
-3642 4915 -1061 0
-1190 292 4378 0
2398 -4071 3340 0
3833 1861 4110 0
4884 -2098 -4220 0
-4180 -453 448 0
2539 -4090 4097 0
-1887 4330 -1835 0
869 4466 2852 0
524 4501 4223 0
2394 -327 3192 0
875 3166 -1525 0
-203 -1684 -254 0
-1294 3572 -4026 0
145 2046 -1438 0
-4791 499 -4898 0
811 -569 -1745 0
-60 -4203 -2826 0
-1103 4639 -4953 0
-19 4316 -2798 0
-3678 -2790 3975 0
-3042 -449 1374 0
-2387 1655 3336 0
-2321 4123 273 0
-2299 1135 -1347 0
-2496 -666 -4307 0
-1519 -1668 -241 0
-2409 4464 -3622 0
-341 3224 -2409 0
1747 4729 2562 0
3753 -1088 -3172 0
1133 1783 1946 0
-3849 2891 -4364 0
-3736 4259 2489 0
2753 4812 -140 0
-2736 1804 2943 0
4548 -1509 3328 0
-1034 -4268 1164 0
-2955 -2644 4180 0
3437 -2798 1649 0
3235 4014 -4443 0
-2326 310 4803 0
1257 3458 2108 0
-1278 1040 -1843 0
-2817 -1810 -3277 0
-4180 -4580 -2302 0
-201 514 664 0
-2527 -1584 615 0
-4773 3301 4274 0
1374 3069 205 0
1294 -409 -2672 0
3837 4917 -1612 0
-1507 -305 2549 0
-4146 3658 3982 0
-3577 -4764 1605 0
2900 -1020 -1623 0
1879 4523 -3903 0
1176 2611 -3900 0
-2843 -710 1654 0
-1484 -2948 -3455 0
4002 -579 2430 0
-3422 -3753 -3442 0
-2229 2260 4392 0
721 -4046 4098 0
-4317 -995 -3842 0
-2300 1154 1141 0
-3623 -3187 3520 0
4545 -1825 2420 0
382 -2321 296 0
1032 2529 -2595 0
3623 858 -3625 0
4918 3905 1171 0
-502 4912 1649 0
-3699 -1631 1342 0
-4829 1392 -4083 0
1509 2682 3231 0
4734 -1404 -4846 0
-3715 -1065 -3283 0
3424 -481 -26 0
2810 -1078 -2383 0
2621 -2030 3475 0
-4309 1253 3489 0
-2791 3257 -3826 0
3574 -622 1764 0
4121 -4234 -4529 0
-3330 -2117 4479 0
4882 -1549 155 0
-1131 31 -3555 0
1179 -2403 2421 0
2941 588 -3424 0
-3282 1281 4023 0
-2822 4728 2569 0
-2813 -428 1732 0
1837 -1812 -3586 0
1972 1988 4003 0
-807 3502 -114 0
-1627 28 -3687 0
-2257 -2965 -1074 0
4435 4440 4274 0
565 -3931 -3875 0
3327 414 1095 0
2102 -2806 -2013 0
1127 4432 4529 0
504 -3912 1724 0
4809 -1312 -2473 0
3671 -2248 -4676 0
4720 -1652 -4434 0
-2817 2593 550 0
3988 -4930 3655 0
-148 -3802 -3069 0
-1424 -1803 2810 0
-3305 -2305 -4555 0
2308 255 2741 0
-2110 1667 4171 0
837 -2841 4910 0
4983 -1630 -3249 0
-1715 4022 1427 0
-2410 10 1705 0
2158 -2060 -2485 0
2893 -3382 1704 0
1241 -312 3868 0
-2271 1598 950 0
-4241 -3314 2356 0
2017 2116 3068 0
1704 -1162 -2709 0
-2140 4391 3801 0
1985 4999 -2743 0
-2184 -4200 -4795 0
-1630 4232 -418 0
-4312 -3822 1991 0
1284 -3392 -3702 0
1843 -4901 2211 0
1547 -3918 409 0
-4729 -2296 2391 0
-2046 1352 -923 0
-2793 -3715 -4987 0
-1413 4530 -4718 0
-1998 1433 4156 0
1804 -694 766 0
3634 2083 1100 0
4724 2269 -4656 0
3896 -4323 4765 0
1096 -1366 -172 0
-290 -2398 -4669 0
-165 1195 928 0
-1795 4977 33 0
2864 -4945 -4698 0
-4545 -3404 -4373 0
3382 -4167 -1609 0
1277 -3059 -1613 0
3908 4478 -3786 0
907 1388 -1955 0
-132 2894 3241 0
-34 2957 -4385 0
-3187 -2269 4189 0
489 -378 1367 0
-3034 4793 -27 0
3265 -4572 -901 0
-1768 -1085 4537 0
-2162 -4862 3699 0
-442 3425 2967 0
-2078 -2205 2666 0
-1556 3838 -2290 0
1908 -2623 -3573 0
3059 -75 2156 0
2725 142 373 0
3037 -950 -3477 0
-3255 1729 -3930 0
15 1261 4251 0
1729 1880 1150 0
-2588 -229 1140 0
2371 -4642 -3920 0
2247 115 -4879 0
771 -1625 3444 0
-2939 1355 1252 0
-2549 -4649 2782 0
-4688 -1140 -2564 0
-1542 -4056 -2269 0
-4951 70 1936 0
3821 -584 4880 0
3303 -1951 -3293 0
-2963 2187 96 0
4061 -3419 -1074 0
1437 -252 3121 0
3825 1379 3181 0
-423 2906 -582 0
2991 3480 -625 0
3512 -1333 -3534 0
-2228 2804 1918 0
-4275 -3916 -3601 0
868 -3612 -1749 0
-2172 -4599 126 0
1059 3159 -4132 0
757 -2360 -1495 0
-3567 2754 -4169 0
-3768 2052 968 0
1971 3840 -3255 0
1272 -4254 431 0
-1271 -835 2156 0
2031 3571 -3074 0
3301 2535 3509 0
4833 -711 -2139 0
3602 -1167 -71 0
-2537 -3792 -1210 0
229 4493 -2477 0
-1622 2168 1108 0
-430 2036 -4125 0
2177 536 1271 0
-1968 -35 -1017 0
-1266 4792 -4822 0
4781 -3466 1543 0
-2336 -4136 -1431 0
1539 2902 -4431 0
2496 -2370 -609 0
4098 -984 -605 0
4293 3473 -2274 0
-3386 -148 4688 0
3944 -4782 -2870 0
4918 -3182 631 0
-2137 3835 -4323 0
4459 -1445 3162 0
4982 -3662 -507 0
3956 -2363 -1887 0
-1530 2454 2557 0
4628 -4008 -4656 0
-2768 1732 -4094 0
3332 205 -4002 0
-4209 656 2674 0
1720 -2917 3086 0
1211 -4069 2593 0
-2768 76 -1933 0
3461 -3574 -3544 0
-428 -1192 -2517 0
1807 1212 -4444 0
2383 -2733 -4496 0
-4143 4251 3665 0
-1924 -4376 519 0
708 -2492 -3132 0
2068 -1470 1935 0
-3315 3345 -2652 0
-485 961 3242 0
1064 -1679 3444 0
-3080 -1509 3731 0
2954 -890 4167 0
1971 137 -111 0
-3078 3415 2791 0
3056 -3810 2292 0
-3567 -1378 -2967 0
-1749 1319 4552 0
886 -4329 4462 0
-2832 1557 2139 0
-2729 -800 -3746 0
3638 -4745 145 0
167 -3127 1229 0
-464 3654 -1741 0
-3480 4102 1390 0
1493 -1382 1241 0
1360 -1718 -3057 0
1218 -4466 623 0
-647 4134 2998 0
2043 3242 4800 0
-4126 2588 -2734 0
-301 3733 -3269 0
3026 4531 761 0
-3399 -3183 3492 0
1829 4899 -11 0
4327 4838 2510 0
1189 -3565 -4747 0
-774 -161 4631 0
3056 -4597 -2198 0
-3752 3852 -1320 0
988 1462 1665 0
-3935 -4389 -2758 0
-218 4377 2892 0
-4291 -4149 2902 0
-3574 -2315 -649 0
4892 4013 4469 0
4159 -2695 1080 0
1395 3099 -783 0
4122 644 3311 0
4365 4998 -2588 0
3263 3421 -3841 0
-970 4878 1805 0
-2370 -1422 -3578 0
-3826 -2898 -3883 0
-2451 -2011 2940 0
3178 -4708 -3595 0
4830 -2391 -2785 0
-2025 2700 -1783 0
-4689 548 -356 0
3839 -4201 -2199 0
-285 1117 -1705 0
-1287 -4116 -3892 0
1971 756 -3745 0
-4183 -948 -2316 0
-4762 -4062 -3298 0
-900 1322 -1291 0
-326 1389 -3647 0
612 604 564 0
2317 -481 3099 0
-2083 1278 -485 0
125 -2732 1607 0
-3804 4492 -1584 0
2735 -122 1461 0
-4524 -4435 -714 0
404 1091 -3836 0
4563 4142 -1618 0
-843 -1008 -4187 0
524 -1492 -2593 0
-4711 -1108 1981 0
580 -1404 1917 0
-3957 1519 -1437 0
-4400 3153 -818 0
1234 486 1079 0
3195 1148 -2684 0
2736 382 4753 0
4134 3426 -1841 0
1751 1396 4163 0
-790 3708 -2581 0
-227 -3320 4645 0
4449 2869 3445 0
-1899 -1457 3440 0
-452 -36 -1630 0
2841 -935 1526 0
1223 1475 -1380 0
1254 -4684 -1453 0
4167 -335 -468 0
-3537 1706 -163 0
-4446 -666 -4224 0
-1885 4153 -2593 0
755 4479 -529 0
3855 3095 2118 0
-4518 351 2800 0
2183 4403 -2419 0
-3273 -1359 -4254 0
-4389 1860 -2630 0
3511 -3106 347 0
4391 -3534 3559 0
3447 -4018 -2789 0
2509 284 3503 0
2566 728 1816 0
-366 -4458 532 0
393 -355 3837 0
-1324 1444 3525 0
-640 -3968 -4137 0
-4365 -772 379 0
-2731 -2103 -1041 0
532 -3115 3317 0
-1370 4734 -2261 0
1409 1509 -2243 0
1373 1192 1313 0
-329 796 -3115 0
-1434 -4730 -3424 0
125 813 4894 0
1106 3191 -1637 0
-4258 4392 4997 0
-649 1805 554 0
-1978 -2812 1648 0
-3223 -4644 -3869 0
-3941 3670 -1587 0
2159 4057 -1270 0
-2756 2860 210 0
4649 1534 -2073 0
-1767 4140 -226 0
-2376 -541 596 0
3052 -4705 -2904 0
1649 -1886 -248 0
-4493 -2713 -3455 0
-3222 1421 1344 0
4514 1488 -910 0
1209 2429 -2473 0
2827 1873 1393 0
-2979 4025 -4619 0
-2405 -4107 -1281 0
-366 1102 4050 0
-2781 4455 -1672 0
1610 1434 644 0
-15 -808 -2584 0
3924 -2776 -4637 0
-1387 -1691 -2330 0
1097 717 -2169 0
-2261 1110 942 0
-419 -376 -832 0
-2715 -2475 43 0
-46 2446 -2986 0
2206 2777 -4374 0
4993 -1277 -3748 0
-4432 -1114 -346 0
410 2281 -2830 0
-3942 -4301 -2576 0
-1332 -1931 -4038 0
-1045 -2946 -407 0
4884 -4244 -2388 0
1636 3570 -4270 0
264 2793 2806 0
-253 413 -2468 0
-1584 -112 4960 0
2107 -4251 2360 0
1017 -783 -2613 0
-1606 -923 -3925 0
4139 -1682 -3272 0
3552 -3299 -2876 0
-1237 -1860 -4013 0
982 4334 -3723 0
1713 -1495 -1810 0
2043 -4917 899 0
-2883 -1780 -1315 0
2223 -2414 -4418 0
-2862 4991 -2265 0
-3873 -2503 -745 0
3991 -1118 -619 0
1484 -2452 -3499 0
-3800 -1942 4802 0
2089 -2007 -3166 0
-2040 1472 -1828 0
-4083 -299 4004 0
1196 -1085 -4688 0
1839 4739 3850 0
-3788 3095 3694 0
-1798 4357 4423 0
-2620 2319 3928 0
2091 -2633 3194 0
1219 2572 -2027 0
-1619 -4211 1006 0
3680 -4805 -604 0
1158 -4945 4274 0
-2949 -1642 -1002 0
-3360 52 -1820 0
843 -857 -3625 0
-2284 -711 -405 0
-2370 2931 -1629 0
-4920 -3731 4238 0
1171 4578 3827 0
2755 -2074 660 0
-3072 -3014 1223 0
1276 -782 1917 0
2668 -3634 -1171 0
2817 4323 3073 0
883 -4245 3689 0
734 -336 -4861 0
3503 -2625 2756 0
-2094 -1276 3877 0
-1086 70 1252 0
1260 3747 -3760 0
-2162 1836 -1655 0
1573 -256 2625 0
1363 3224 -4119 0
-1549 -2277 -4280 0
3778 3590 -1133 0
4351 -3675 905 0
2510 -4693 -1924 0
3310 4335 2835 0
-3341 -4677 2770 0
4364 -176 4193 0
3331 4013 -651 0
1529 -852 -1363 0
-3874 -3430 -371 0
4578 -4534 -292 0
271 -1779 2198 0
1931 3468 201 0
-952 -4059 4622 0
3669 -1126 3952 0
3826 -4471 3840 0
4715 659 1631 0
1976 4934 -74 0
-1024 3077 -1148 0
4357 3175 1583 0
4685 -4756 -267 0
-712 -826 2361 0
1403 1084 -2836 0
-1354 460 2230 0
766 -3438 2342 0
-4934 2402 4258 0
4430 -2372 4610 0
3294 1828 -2234 0
-4131 -2802 -1599 0
-2456 2060 -218 0
3808 3793 2731 0
-4636 2266 1822 0
1345 4967 -3354 0
-2708 -3145 -4286 0
2194 -3056 -1809 0
-2485 -2753 4616 0
-1751 833 -984 0
4287 -4893 529 0
-1221 2568 2385 0
-3432 -895 353 0
-4521 -4543 4987 0
-2011 -2047 1312 0
-461 2709 -4666 0
1496 -2484 -2025 0
-1603 4550 4340 0
2664 4953 1760 0
-1515 -3817 2191 0
-3227 4000 4855 0
2101 1952 1644 0
-2140 2121 954 0
-200 2357 -3924 0
-4540 -3091 1317 0
407 -4732 -4964 0
-524 -731 2657 0
4148 -2967 3403 0
-2738 -1979 1686 0
4735 -4626 -3603 0
-139 2607 4441 0
-4168 -1725 -527 0
3110 -4711 1494 0
2523 4961 622 0
3466 -3499 2073 0
-912 660 457 0
3395 3728 4405 0
1625 3022 100 0
-4667 -3717 1507 0
1874 3530 4456 0
1170 -3746 -4095 0
548 4010 -3542 0
1228 3682 1091 0
443 535 2814 0
-1918 3158 2220 0
-2360 -217 -272 0
-4785 -3274 -195 0
1693 -250 2952 0
-2994 2086 4851 0
417 3840 4918 0
-622 -1808 -4931 0
-3020 -4635 -2046 0
4594 -1229 -4869 0
-1219 -4645 230 0
-115 3902 -3106 0
-2213 158 3614 0
963 -2030 -1585 0
-4470 -3439 551 0
-4886 -3776 -1697 0
-383 -4637 2675 0
830 -3902 -4477 0
-3215 -498 -3345 0
909 -2956 450 0
2367 2359 -383 0
-3683 -2719 3727 0
-4773 1486 515 0
-4029 2252 -2505 0
2076 -4617 -1353 0
-566 -3666 -491 0
2075 -3883 4398 0
1645 -4073 768 0
-4843 -4568 -1060 0
-2522 3451 -4427 0
-3269 -1499 -149 0
4662 -1973 2826 0
4266 3040 -3455 0
-2330 1219 -2434 0
1441 -638 3838 0
2287 -4284 -2678 0
3808 53 -16 0
-2522 -4671 -3699 0
4024 2477 1551 0
1667 2816 -802 0
-2750 779 1646 0
-1733 -4831 1179 0
631 -2829 -4213 0
2515 -568 1718 0
3588 565 -474 0
4622 896 2830 0
-401 -3324 3360 0
348 4094 -3152 0
-3668 -724 -2553 0
-2876 3634 -451 0
-3311 -4238 -395 0
677 1511 -4479 0
-63 -2581 4494 0
3979 -4132 -2818 0
-2722 2993 -3142 0
-4176 -3209 -2712 0
-1149 -2779 -2851 0
-3559 4450 -4468 0
4075 4935 2229 0
322 -1470 -645 0
816 3566 -38 0
885 87 2773 0
-673 -172 4518 0
-4835 1926 1475 0
-2805 -4535 -383 0
-3386 -4078 -1502 0
-3751 1969 -682 0
-1430 4338 4086 0
-4136 -4568 -4449 0
-500 -2744 2303 0
2738 309 1629 0
2769 1726 -2860 0
577 4510 2428 0
-3684 3365 4348 0
2465 3456 3565 0
-3373 -1396 -361 0
-3627 646 3116 0
-3249 -3461 -4017 0
3079 -2048 -3987 0
-4638 -805 521 0
-899 -3564 2720 0
506 2529 -3170 0
-4857 3409 -4160 0
-87 3135 1222 0
-3211 4407 2926 0
-208 1161 4529 0
4562 -3080 2685 0
1796 2322 -2864 0
-4217 4367 2857 0
-4719 4903 -737 0
-832 -4796 -3832 0
-2343 1589 -4309 0
3343 -2757 -1486 0
-1257 914 -4741 0
2771 1238 4857 0
359 2578 274 0
1389 -1248 4677 0
-1931 -3659 -575 0
631 4172 -2740 0
137 3484 -4875 0
861 -1170 1408 0
1172 771 578 0
2715 3692 -1957 0
-3614 -4840 1985 0
2130 -4814 3724 0
-4400 -414 -4092 0
-564 2511 2748 0
-176 -1053 4455 0
-2653 -1961 1690 0
-3058 2480 -3657 0
489 2997 -2295 0
-833 -3570 1893 0
-1210 -828 3589 0
-2535 4333 4486 0
4828 662 3649 0
485 -835 607 0
2883 3352 1822 0
3098 -3811 4310 0
581 3933 1306 0
3527 -866 -2978 0
1599 -1817 4809 0
93 1664 4015 0
1391 -3878 4070 0
-4429 1019 1284 0
-207 784 1101 0
4732 -4213 -3402 0
1053 -4842 -3692 0
-2996 -3433 1272 0
78 2167 1582 0
-2629 -178 3057 0
-4265 779 1844 0
2200 -2638 4487 0
876 -4287 3195 0
-4885 2305 -4056 0
2594 2794 -4577 0
-3002 4739 1672 0
-98 4857 1595 0
-837 624 3588 0
-281 -154 3198 0
710 3662 -2916 0
-4810 -295 4385 0
-13 -1362 -2172 0
522 -2769 -400 0
2654 -3347 -4748 0
-1065 -4276 2567 0
4117 -207 1642 0
1457 -2329 -2880 0
4238 -444 -2471 0
956 4521 923 0
-3946 -937 -4326 0
-3013 -264 3359 0
-3643 -3504 -4673 0
-2894 4525 2975 0
-2405 646 -238 0
3639 -1174 -4343 0
-1681 -3063 -1371 0
-4188 4657 2757 0
-1894 200 -2589 0
2148 -3202 369 0
-2272 2036 -2079 0
-1433 -1265 -1778 0
2338 2944 -1493 0
-2258 2696 74 0
3206 -133 2445 0
-3964 -4437 -3649 0
-3669 -4089 2151 0
-4170 -654 -668 0
4910 -3698 -3951 0
3801 -1168 643 0
-1898 -970 -3 0
-1976 -1390 3758 0
3230 -4487 2654 0
-3163 3021 -595 0
-830 825 1733 0
3978 -3243 -575 0
36 904 2162 0
3413 -4105 1119 0
-585 -2158 -1607 0
-2767 -4403 -2863 0
3281 4167 -3033 0
2944 2987 -2213 0
236 -545 -3508 0
1387 4929 -1468 0
348 3370 1088 0
-385 1289 4574 0
-2467 -1406 -4231 0
-1644 -4293 4986 0
-4202 -3357 -3105 0
-1928 -1229 -798 0
-164 -3222 4308 0
-2328 150 -1937 0
-2276 4311 4130 0
3073 2831 2965 0
4776 2356 3431 0
-2760 987 -2536 0
3129 -2770 -3124 0
-4190 -3635 4961 0
2549 3470 4670 0
-865 4509 388 0
-376 -2863 -698 0
1415 -4246 3547 0
-4018 592 2349 0
1158 2153 -2164 0
-1162 2603 4994 0
-4381 -2164 4897 0
916 445 410 0
-3075 4693 447 0
3687 189 497 0
-4669 -2925 2055 0
-2818 2654 -3782 0
4250 -3417 -2978 0
-4714 4921 -4066 0
2575 3503 -1714 0
-496 2810 -514 0
1387 997 4632 0
2235 -1194 4893 0
-4893 -2656 -353 0
664 724 -1819 0
3798 -4649 2647 0
1458 -3457 611 0
1346 4295 3218 0
-3628 -3394 -2839 0
-1430 -4282 -4270 0
1795 3962 2786 0
-3780 3536 -135 0
163 -869 3989 0
4922 356 -1574 0
4892 1346 1899 0
205 -3804 4174 0
-1308 -3030 2318 0
2741 -3515 106 0
-3316 1841 2041 0
-2194 -4144 925 0
3390 -3649 775 0
3911 -715 846 0
572 3768 -2600 0
4377 -1155 -1563 0
754 -1462 -118 0
71 215 -4214 0
3010 -1595 2222 0
4967 4442 2062 0
2152 -3888 3024 0
-2558 -3374 -629 0
-3449 -887 -192 0
-4095 3529 -1978 0
-3165 1060 313 0
-161 4871 -4074 0
-4810 -1336 624 0
-3662 -442 1626 0
140 3074 -3245 0
865 515 253 0
3249 4398 4114 0
672 3957 -1825 0
-3020 -330 -304 0
3671 -1800 1478 0
-2218 -3820 -17 0
-1597 -4775 621 0
-867 2245 296 0
-3481 3818 -4366 0
2788 -860 -4046 0
-870 -1903 -531 0
-3533 1515 -3668 0
-1226 -760 746 0
-3692 4157 -3643 0
-879 3710 2372 0
609 4559 -3634 0
2829 3263 3391 0
-2734 -514 1900 0
4845 -3610 -3880 0
-2634 1018 2683 0
-3037 3351 2817 0
-2316 3639 -1663 0
60 -2665 146 0
-2307 1276 3920 0
-3504 2486 -4179 0
-144 4695 -3440 0
-3533 -3324 -479 0
2173 -4787 1490 0
1510 4230 2345 0
-1124 -4960 -4805 0
948 1973 3992 0
-3609 -3845 -324 0
-3786 -4252 -3646 0
3829 -3703 -2390 0
1934 -3710 -1966 0
4783 -4616 3320 0
4082 661 -2266 0
377 -790 4985 0
-4035 2686 2998 0
2873 -113 3097 0
-4011 -2701 -619 0
4218 -3201 2472 0
741 2119 4991 0
3814 -1786 -1229 0
1990 -230 3705 0
1503 4196 2128 0
-1686 3511 3300 0
-863 -2530 2579 0
-4163 -2111 -295 0
-1245 -51 569 0
-833 3481 3698 0
-3444 -1818 790 0
-1095 2156 -1360 0
-4673 -3755 3706 0
-1248 1809 -77 0
-3757 4948 533 0
-2370 -2597 -1755 0
1577 -3852 -3292 0
2951 4794 1254 0
-1840 2989 -2785 0
-3717 -246 -3359 0
3488 2239 -1977 0
-4340 -3558 1220 0
-2537 1887 4221 0
-2356 -491 -658 0
-3779 -1016 554 0
800 -2301 3897 0
2751 3520 4929 0
2847 610 -3379 0
1835 4513 4379 0
4324 -2577 -4063 0
3360 457 603 0
159 -335 4952 0
-289 -3410 578 0
359 2673 1164 0
1473 -1886 -1014 0
1343 2079 3202 0
4975 3565 1018 0
2099 4665 -3064 0
-315 937 1891 0
-2982 1201 -4787 0
-214 -704 -4485 0
2793 -2224 1405 0
-1662 -1185 -3417 0
1311 -3160 1859 0
4304 -4991 4856 0
-2983 -2633 -4767 0
3301 1498 -4689 0
1297 1656 1228 0
4319 3431 -2081 0
-3335 -4677 3380 0
-380 -1715 2506 0
4961 -3559 -922 0
1785 4514 3084 0
-4348 -661 4866 0
-2206 -1812 1650 0
-735 796 -2095 0
3319 2779 -1568 0
-312 -788 4897 0
3288 -3195 4047 0
-3741 -3507 4274 0
-2174 844 -3787 0
-1095 -1627 -2283 0
3252 4260 -1943 0
2546 4238 -3619 0
3565 -3230 -1144 0
1640 1518 -1782 0
-3762 -4636 3949 0
-2890 -3175 1176 0
-1534 -2192 -4272 0
2152 -1726 -3021 0
4177 4507 -1488 0
3592 -1292 -3878 0
3050 -916 4809 0
1652 6 -4120 0
2042 -1880 -1186 0
-2949 -575 -7 0
-2202 -4694 2012 0
-3170 1590 -1343 0
-3565 -1007 -581 0
2380 921 2667 0
-4039 -1663 -3978 0
-3480 3284 67 0
-495 -4256 -73 0
-4727 373 3226 0
-4906 -525 -1619 0
418 -3870 -3003 0
-2308 4185 2467 0
2015 -1118 3388 0
421 4333 -627 0
3448 -3499 2372 0
-3783 3736 4946 0
-3109 4319 3097 0
-1600 -3911 -281 0
3583 -2307 586 0
-476 -3465 23 0
-1695 -4278 -3899 0
-4010 2769 -4745 0
-162 -1049 -161 0
-666 1291 -3207 0
-2107 763 -3991 0
500 3651 748 0
-2318 -34 -4028 0
-612 -679 569 0
-845 -3574 -1854 0
-202 -4739 -1923 0
3082 -562 -581 0
431 -1702 -181 0
-100 -1393 -128 0
-4768 -1333 4147 0
4479 1378 -1063 0
2667 4360 3797 0
-3948 -2738 925 0
-1493 4671 67 0
3714 288 -3425 0
-1689 650 -2804 0
-2027 -3918 1998 0
-1131 4255 2670 0
313 1891 -2877 0
4567 3282 -3694 0
-1744 -2933 3869 0
3900 2085 364 0
3160 -4070 -3412 0
4485 -1836 -2200 0
-2625 -3055 249 0
1399 3304 -4229 0
1479 -4890 1346 0
2433 94 -4319 0
-436 -2893 1456 0
2377 4234 -2667 0
-1226 -3051 351 0
910 -4063 401 0
-797 1956 2114 0
-510 -3030 4066 0
-1314 2570 4883 0
-341 -3802 2780 0
-1349 -2006 3455 0
-4029 -3484 -3791 0
-4211 230 3285 0
1292 -2747 -2426 0
12 3269 3621 0
4306 -3707 -3018 0
-4799 -3995 1318 0
4329 4745 1235 0
-3993 -1654 -2118 0
1431 1310 -2995 0
1472 -3857 -784 0
539 -3989 -61 0
-2202 2270 -758 0
3061 -4643 -4897 0
-279 -1188 -4477 0
1049 4392 3695 0
-4934 4291 834 0
-3688 1447 -3304 0
3370 3070 3293 0
2119 4482 -3812 0
3801 -741 3582 0
4690 -1418 -1059 0
2160 -2846 -1029 0
4941 -3189 125 0
-403 1871 2170 0
406 -1552 3803 0
-4856 3269 -702 0
-3153 -4909 -1717 0
-1432 -1869 -573 0
-1645 94 4238 0
2021 3994 -1532 0
-1265 639 4954 0
4290 -752 -1557 0
-230 581 -1892 0
4159 2439 -598 0
4672 3265 3337 0
1598 -1674 1071 0
-4750 1118 2341 0
2390 3618 -4421 0
-4119 3326 -262 0
-2836 -2631 3865 0
-4992 -2552 1042 0
2693 1635 -4167 0
1752 2825 -2957 0
2879 -2870 -371 0
-4185 958 1669 0
-4148 -1328 2763 0
-647 -1832 -752 0
-3134 1314 140 0
704 -2617 2184 0
-904 4591 2574 0
-2922 -115 -4531 0
-2296 -3221 -4877 0
-4942 -4227 223 0
-4386 -656 3453 0
-1751 -3886 192 0
4892 32 3276 0
518 246 1826 0
294 72 -1916 0
-4485 -3168 797 0
-2609 -1749 -3610 0
-1410 4546 -699 0
715 1420 3039 0
2101 395 -1995 0
-631 495 -3371 0
4043 1958 4182 0
-3143 3775 1210 0
-3183 -3571 -3738 0
511 -443 435 0
-3757 -1450 -2703 0
-2126 623 -2937 0
-3624 1233 -3031 0
-1715 -3677 -1527 0
4285 986 2873 0
-3064 -4081 -4067 0
-4457 -2581 -4020 0
3021 -3684 -2049 0
4297 -4520 -531 0
2139 -1686 1905 0
-1121 3409 -282 0
-1411 2240 3057 0
-2991 -2827 2989 0
422 1625 -4060 0
-4320 -265 -4121 0
-3212 4215 -365 0
-3861 2435 -721 0
2021 4114 2074 0
1544 1668 -1007 0
-2148 2462 2888 0
-3156 -4232 -2500 0
1830 -3065 -4058 0
-2010 414 -2819 0
1182 -3396 -855 0
4491 -4120 -647 0
4986 -2716 4057 0
-3267 -4223 2360 0
-3659 -4161 -4114 0
2901 -676 -4290 0
1793 3987 -1157 0
3515 -609 626 0
-4914 3776 1171 0
2598 780 -3003 0
4523 3923 4280 0
-2280 4900 4984 0
-3381 -502 1128 0
1406 1068 536 0
-3168 391 4816 0
102 -1612 -6 0
-2371 311 2949 0
4399 -3739 -502 0
-72 2171 -3052 0
4246 1586 1609 0
-2669 -2266 390 0
-4125 -4461 3944 0
-1207 2660 -850 0
198 -682 1620 0
3679 -4646 -1998 0
110 1155 -972 0
2186 -4901 -2509 0
2606 2418 -4723 0
-3445 -1199 756 0
-3193 -2623 3834 0
-4373 4752 2893 0
-879 4815 -958 0
-2202 215 4139 0
1262 723 3636 0
-3882 2611 4990 0
4579 16 -4534 0
3141 -1897 -457 0
3202 575 1156 0
-3077 1681 -2733 0
1768 -4145 -318 0
-1617 -3776 -1394 0
540 -1308 3695 0
2582 2545 -1865 0
-1404 -1600 -2632 0
98 -2756 -445 0
540 -2550 -2655 0
4664 -2150 -3073 0
1937 4938 3289 0
337 3431 -3772 0
1516 -1926 -4794 0
-4868 2553 -4409 0
676 4973 1033 0
3166 1914 -4491 0
-3294 -593 -1843 0
-782 -1775 1711 0
-3843 -73 1370 0
10 4736 1226 0
-439 3668 1515 0
-4622 -2936 4401 0
3047 -214 -486 0
-3760 -1586 3237 0
-4788 3072 2231 0
-3314 -1971 3345 0
-4622 2517 3769 0
3834 -4219 -3797 0
-2109 641 -4754 0
-211 735 -4946 0
-2050 1285 4494 0
1044 1504 276 0
-3390 -796 -4614 0
3010 2197 3973 0
-2335 1085 -2002 0
3947 -2460 -1292 0
1250 -3173 -4762 0
-943 3940 -4154 0
731 -1984 -2120 0
-3360 -1631 -3407 0
2304 -3852 335 0
575 3125 -3600 0
2324 -1220 -1229 0
1921 4033 4728 0
471 -4523 -4454 0
-2708 3180 -4218 0
-1285 2173 -4354 0
-2810 -3617 -1121 0
2405 -2307 4313 0
-1564 1850 -3828 0
-1552 4798 -2248 0
1890 998 373 0
-397 -3430 1635 0
-2710 -3173 -4775 0
-1890 2715 -3247 0
3018 4174 -3356 0
3257 1555 -406 0
-4728 -705 4399 0
-1956 -1621 -1602 0
2195 1704 1602 0
-1516 -4892 -1195 0
4111 -1830 -917 0
-2084 -1074 1826 0
3624 -3618 4374 0
-4434 -2148 2744 0
4034 -1119 4131 0
-4907 1033 -657 0
-3504 -3865 -1309 0
2106 -1748 -2423 0
4728 4494 4996 0
-4437 2571 -616 0
-236 4644 -3870 0
-358 -3786 2299 0
3088 -3472 1019 0
1211 -3254 -1752 0
4448 -1426 380 0
-4298 -1429 3610 0
-2011 -4776 4784 0
2686 3236 3854 0
-3656 -78 -643 0
694 -4498 -4174 0
933 2654 -2246 0
-4034 -4320 -777 0
1639 4978 5000 0
-3636 -291 -3448 0
-4976 87 -1784 0
903 -4889 -1211 0
-504 3559 4830 0
-3007 -3537 -3871 0
-4669 1034 -1777 0
42 327 100 0
1716 -1390 -2602 0
-2429 -561 -2630 0
-4508 438 4913 0
2075 545 -1785 0
2324 -2681 -4142 0
340 -145 3501 0
-3309 4556 -3608 0
-4360 -2584 996 0
2285 654 1792 0
3954 36 -2201 0
-4711 -2078 -2369 0
-1097 -3217 830 0
-2551 -4491 -4049 0
-4069 461 -4603 0
-4087 -1150 -3335 0
-365 1716 277 0
3870 4529 -2895 0
576 2300 4782 0
293 -1139 -4217 0
2796 1758 -280 0
4558 -1235 1258 0
4102 1080 1152 0
-1670 2281 4384 0
118 3887 -2370 0
2451 1083 -1262 0
-1841 -953 -3825 0
4994 -3687 3951 0
4537 3193 -4371 0
-2471 -176 594 0
836 4838 -1487 0
3134 -1235 4476 0
-3296 -1492 -321 0
4332 3353 4641 0
1401 -2601 -1730 0
221 -17 4560 0
3508 -1329 3672 0
-1730 -2269 1157 0
-2058 2285 3811 0
921 1951 -2324 0
2878 1894 2748 0
227 -354 3784 0
-4645 3408 -3335 0
-3945 1627 -552 0
2014 -3219 -2043 0
-169 -2000 -3202 0
1921 3431 976 0
1587 4648 -2947 0
1649 -4610 -4060 0
968 -4891 -783 0
-2159 -3361 -4919 0
-4388 2711 -1614 0
-3394 -3154 4465 0
3642 4729 -3330 0
2575 1053 -4587 0
-2991 4060 -1738 0
3000 -3569 -3308 0
4932 -639 -1959 0
-511 2310 3493 0
-3824 2425 -4003 0
499 2739 4456 0
-3532 -521 -1821 0
389 444 -2297 0
-1376 3145 -3876 0
-2466 3139 463 0
2425 -4992 2431 0
3963 24 2553 0
-2383 -3572 -3120 0
1291 3846 -2894 0
3574 -4806 -3139 0
2051 -134 -2633 0
208 -3969 2450 0
-849 3731 1196 0
1741 3279 1476 0
1261 -257 -1037 0
-4805 3715 4419 0
-1727 4411 2804 0
679 -2447 4125 0
1105 2188 2459 0
4112 3535 4552 0
3557 328 513 0
3133 -1875 1226 0
1634 -4714 533 0
1569 4428 -579 0
1019 157 -2036 0
4462 2158 -3934 0
458 4555 3843 0
3096 -629 54 0
4285 -2604 -4675 0
-2034 2614 -4333 0
937 3230 1139 0
1606 -915 -2200 0
2990 -4132 -3513 0
-4859 374 -4104 0
251 156 3994 0
4127 -724 2283 0
2636 1786 1264 0
-4432 -860 3388 0
-1716 -1333 -3844 0
2644 3390 1352 0
-315 -3483 -2449 0
1587 -3600 4514 0
-3297 -4092 2518 0
-2920 3004 -4114 0
368 -1367 -3639 0
-4474 1520 -2756 0
-4401 -3125 4137 0
-272 2549 25 0
-3481 4632 -3658 0
1481 4788 3293 0
-1649 99 1209 0
-1602 4096 1930 0
-895 1634 -2717 0
-3296 -1763 -2094 0
-392 -117 3708 0
1488 -1781 2467 0
-2440 2924 -4011 0
954 3966 -3967 0
-544 -4203 -2122 0
3036 -3067 -3746 0
-363 -221 -3915 0
-1957 -2875 -36 0
-2913 -2071 3957 0
-1782 -2400 4382 0
-908 1807 864 0
-794 -1276 -3819 0
3029 -4843 486 0
-2301 -1352 1264 0
-951 3033 -1996 0
4680 895 -3611 0
2496 3724 -4488 0
-934 -3538 1357 0
-298 -4799 3928 0
-3861 -171 1798 0
-2344 -2943 2396 0
4515 1943 951 0
-2281 411 1680 0
-1041 3812 -4147 0
-4366 -1651 255 0
-3392 -3803 4135 0
927 -3980 1588 0
-724 -2377 -4933 0
-4979 -1781 -2454 0
-999 2519 -3509 0
-4057 1326 -1016 0
-4401 2733 2693 0
633 656 3468 0
1931 -3183 3638 0
-1905 4357 1814 0
-1489 3178 -3919 0
687 4940 -3742 0
661 -3074 486 0
997 -2630 -2976 0
4338 3243 997 0
2129 1210 -2070 0
2995 -4745 -1764 0
-2545 -4007 680 0
-3526 -936 2959 0
2594 -2206 2102 0
-2902 -4564 4157 0
-135 31 4642 0
2314 1096 -2145 0
591 484 -4581 0
-4669 4402 938 0
3894 178 -37 0
4836 -3495 4160 0
613 4666 1943 0
2337 -4164 -4717 0
-3060 -2595 -1206 0
3015 3409 -2015 0
-43 3806 2678 0
-2341 -3754 2119 0
-2269 -809 3690 0
3794 4409 2722 0
-3886 -1200 -2696 0
2547 -4803 -347 0
4617 2787 -134 0
-4437 1923 -2815 0
-3656 -4303 1316 0
3597 -2292 3802 0
3661 1680 -1568 0
3290 1796 -1756 0
4396 -4427 2857 0
-2451 -3906 360 0
-800 3290 -4110 0
-1943 2396 4293 0
-2137 -1966 4786 0
-261 -4264 -314 0
3298 3304 -3859 0
3644 3911 2639 0
3108 2409 -3818 0
-3783 -1129 -2172 0
3197 -1423 -2477 0
-1152 2620 614 0
-4975 1035 -711 0
-3157 -3054 -2102 0
1367 452 -1819 0
4871 -1119 -3336 0
2442 282 4464 0
3949 1226 765 0
4602 1120 -3940 0
-507 4423 -1197 0
1449 -4280 3742 0
-4732 -1493 -3745 0
-1263 4146 4973 0
-690 -1686 3694 0
-244 -4859 1311 0
-782 -516 -2885 0
-1422 3813 2183 0
-3468 2229 -939 0
2329 -3460 2604 0
-2810 -171 2532 0
-61 -2791 -204 0
-3721 3613 -1208 0
-671 -4143 -725 0
2395 455 861 0
-1282 -423 -4701 0
3203 3412 -2908 0
1151 -2966 -1062 0
2614 1515 3890 0
-3383 4290 -133 0
-4806 -1376 -3370 0
1841 4428 3931 0
1809 -915 -4549 0
-4708 -3363 987 0
-891 -2597 1098 0
4488 -3391 -3546 0
-414 -4350 -3706 0
-4973 4 -1126 0
-1363 -2633 3398 0
-2089 -188 89 0
-1897 -254 2953 0
-1772 -4717 -4953 0
523 -3331 4092 0
4435 3644 -493 0
1198 -4598 -3805 0
4694 -3778 -4003 0
3932 2521 -1932 0
-4615 4926 -677 0
-1007 3442 -1291 0
-669 4669 89 0
-3423 1210 -2618 0
2893 -1662 -871 0
2988 -3262 -1653 0
-1061 -3700 -1776 0
-3798 -4381 -3772 0
-1514 4874 -3481 0
-1101 3671 -3970 0
310 -1623 901 0
-3575 -2385 503 0
-3378 3204 -2136 0
-872 -2461 901 0
-4284 -3871 -4487 0
1507 -3828 -589 0
1565 2178 -852 0
420 -1557 1277 0
-1199 1752 -3426 0
-3769 -409 312 0
-190 3775 -2030 0
-4424 31 -2785 0
-2276 2765 -3281 0
707 3175 -2737 0
231 1344 -1731 0
3433 1700 -1318 0
3454 1751 -22 0
2908 -4742 4647 0
-4962 -3098 -2429 0
4377 3625 -2627 0
2208 -1103 -4615 0
445 -3031 -4312 0
280 -4983 -1246 0
947 1966 -1766 0
-4485 750 -3895 0
4275 -3872 -1516 0
-1002 4337 2412 0
3077 -2383 3713 0
2119 -4363 -1234 0
-2481 -4490 895 0
975 4647 -1839 0
-2574 -3621 4244 0
-3360 -1965 1655 0
-1707 1800 -1449 0
-1853 -3852 -2253 0
3456 -1536 -2792 0
-2038 170 2624 0
-2847 2310 -4200 0
4374 -163 -4976 0
2827 -1562 1745 0
3039 -135 535 0
-1148 4746 -2220 0
90 -3930 -2341 0
-4342 -690 -979 0
1787 125 -4091 0
2956 871 -3916 0
-1302 4756 4028 0
2701 4216 -1843 0
3679 -475 3976 0
-2646 4720 3809 0
-1689 -3652 3032 0
-3888 -3958 681 0
-2283 -4251 2403 0
-4741 4110 4609 0
-1672 -2158 3853 0
-1516 -27 -1462 0
1407 240 -2394 0
582 2211 259 0
3507 2753 -1152 0
-975 4463 3410 0
4732 -715 4254 0
-3688 2380 4198 0
568 -2380 -4473 0
81 4227 -1668 0
-2953 -3391 4436 0
-1309 4811 -3251 0
-3629 -4670 388 0
2679 3575 -4559 0
-1191 -3573 -753 0
1581 -609 -4374 0
2804 4052 -1590 0
2958 3257 -1964 0
-4615 4955 -784 0
283 -4307 4560 0
1205 -749 1350 0
-2946 -1518 -2967 0
-2478 -1852 -1990 0
-4673 2395 2323 0
-145 -4781 920 0
-1045 3789 -2573 0
376 4511 3502 0
1281 1932 4493 0
-2878 -421 -3820 0
-3280 1200 2692 0
803 2922 4574 0
3487 1931 -4955 0
1450 619 3744 0
2639 -3958 -1087 0
-4909 -900 -2796 0
3951 -2270 4431 0
2332 -1861 -4097 0
4390 -4950 424 0
-2533 -3714 1961 0
4455 2553 -2990 0
-1986 542 -4235 0
-4842 -4699 -4417 0
-2296 2485 3796 0
2931 479 4763 0
2673 -3681 4026 0
4807 -3044 -3102 0
4438 337 -1324 0
-3078 72 3151 0
2079 -480 2297 0
4414 199 -2410 0
-1394 -2215 -1393 0
-53 2409 -1475 0
384 4131 -356 0
-3183 3941 755 0
-3945 -2917 976 0
2734 -4907 3445 0
4302 2715 1565 0
-3036 -1459 -2166 0
-3606 216 2681 0
1124 -4016 1448 0
-238 -1878 4745 0
264 1771 379 0
1498 3024 4134 0
817 -5000 -1315 0
3683 1817 3231 0
2942 4709 -4168 0
-4632 2253 -3934 0
-1141 4778 -1373 0
-4488 4424 -3342 0
1928 2872 2710 0
4299 4972 -3047 0
1302 2907 -254 0
-4617 183 1092 0
4233 400 -3971 0
1054 -758 -149 0
-1356 -4978 4422 0
4218 943 381 0
-2186 4648 -885 0
-3712 -2771 -2373 0
-1463 2745 -1756 0
987 -4734 -4835 0
3187 -3774 -4766 0
-4380 1497 -1746 0
-2577 -4400 2379 0
-127 -3306 -434 0
-2036 -3049 2240 0
-4858 4168 2943 0
-628 4127 -2612 0
-2471 -124 -2317 0
-3191 3355 3134 0
-720 3159 -636 0
-1351 3027 -4234 0
-3113 -3645 -1144 0
-2383 -3483 -4468 0
2964 -804 740 0
830 -4636 -4911 0
-4406 2705 4048 0
1970 26 4339 0
-2728 2060 -2567 0
-4881 2015 -1972 0
-3541 -3643 -1233 0
-2402 1655 -4543 0
-931 3155 2356 0
1633 -4216 1116 0
-3104 -2976 209 0
4286 -4861 -4602 0
-2730 -4175 2944 0
-3663 3442 1411 0
-4467 1703 3512 0
2727 1263 -2182 0
531 -4024 2672 0
-3764 1447 2362 0
-826 4191 994 0
3376 2061 2199 0
-414 4875 -4147 0
4767 4560 1377 0
2991 1212 -303 0
2599 -1480 -4230 0
-1563 19 -1424 0
2662 2471 3268 0
4480 -1255 4432 0
-4828 -2280 -2746 0
-2974 2976 -1899 0
600 3622 287 0
1776 4873 -4742 0
4387 2698 -1167 0
3676 -666 -3752 0
3345 2859 -601 0
-301 -2096 2072 0
-2357 2978 3142 0
-2291 -2892 4272 0
-3981 1560 1060 0
2346 4116 398 0
4373 -3057 -3475 0
2886 4716 4517 0
-416 932 -1193 0
-2261 -2914 -3036 0
1649 2968 -1054 0
374 4230 -3218 0
-3330 -1419 -3885 0
4701 -4538 -2969 0
966 3763 -2873 0
-4565 4097 2873 0
2539 2671 -4663 0
-2768 -2885 1883 0
-4196 3942 4365 0
-273 -4857 -4852 0
2219 -1932 1049 0
-4091 -3324 -2876 0
4902 4492 2037 0
4614 -3525 -1941 0
789 2230 3073 0
-1445 2500 -3701 0
-1398 -1891 -870 0
-3076 1664 -2766 0
-2823 300 -3959 0
-4275 1948 4134 0
-367 -764 -4263 0
-4048 1892 -1706 0
-1834 3873 -2525 0
4290 1028 589 0
2202 2463 -1281 0
-113 3027 2728 0
848 -1806 635 0
-2746 1962 -4421 0
-1799 -4879 -2638 0
4324 -1958 4016 0
1863 -1292 -1020 0
2696 -2146 -4792 0
1939 4377 92 0
812 -706 4953 0
2623 4892 588 0
-2014 -3528 -3002 0
-4731 -2098 2228 0
2864 389 1170 0
3469 4766 524 0
-1254 -4681 2583 0
-3973 1164 3495 0
-118 1251 -2614 0
-2724 2818 -1518 0
1453 -484 554 0
-2416 141 4310 0
2735 -3248 2521 0
-1049 4998 4647 0
3985 268 -633 0
4503 -434 217 0
2744 3468 3969 0
1020 4548 1286 0
-127 1989 -4021 0
504 -3897 -3316 0
960 4679 -3799 0
-4302 1047 -4573 0
2441 355 -3975 0
2336 -358 674 0
2203 -1723 -672 0
3955 -474 3026 0
-1750 1422 -3398 0
-1454 -744 -360 0
-2286 -3009 543 0
3777 -1076 2890 0
-2097 3246 -2789 0
-4363 4240 1700 0
-182 -1061 2996 0
1758 -911 -1687 0
-2521 -2382 -4951 0
-906 -3900 3600 0
4080 -629 343 0
4792 440 -1125 0
-900 2676 2005 0
-1304 1551 4774 0
-3246 -3928 -4735 0
3900 -899 1097 0
1082 3957 -4319 0
-1784 -582 3916 0
-1592 926 994 0
337 1917 2836 0
-4328 -1349 4242 0
-3245 1058 3551 0
-1674 615 -2462 0
552 4541 -1385 0
-3715 -4492 898 0
641 -1203 -2497 0
2254 350 725 0
-4036 -629 4611 0
1954 563 -4630 0
-3217 -972 -4444 0
-3441 1067 -826 0
-3146 -3284 2810 0
-1371 -4991 2398 0
-2884 -3820 -173 0
-1605 -3342 -870 0
1295 -312 1851 0
2615 -877 -1005 0
-953 -241 2444 0
4889 2458 -4054 0
3010 -2113 -2651 0
-2933 2647 2882 0
-1129 -2640 2721 0
368 -1627 3033 0
-2276 3457 -4867 0
-4404 2669 4242 0
1468 1473 1622 0
4751 136 2108 0
2439 1735 2390 0
-3240 1840 814 0
1837 -3766 -2915 0
-3320 -2734 -2047 0
-1342 -442 -380 0
1044 -2442 4264 0
2089 4126 -78 0
-4658 472 -4671 0
-3056 -516 3298 0
-4696 4413 3777 0
248 2450 3917 0
2782 2438 -2042 0
517 -3629 4902 0
-3369 -3246 2825 0
804 -1133 -4216 0
-691 -3000 4463 0
3411 -244 -3982 0
1088 1235 4544 0
4308 -1708 -34 0
2567 4514 -4261 0
-2777 -861 2033 0
-679 -415 -2885 0
1519 -1645 632 0
-3951 -875 3467 0
-1050 795 -1457 0
-4319 1882 1746 0
1992 3417 2249 0
-3299 4039 3006 0
1373 1621 -4850 0
162 -1698 4201 0
-1873 -1947 -3451 0
1122 -2996 -1254 0
2538 -4644 -4839 0
4017 3059 4352 0
-3271 -1474 3997 0
1870 -2788 4374 0
1208 -3086 -4897 0
4770 -4765 10 0
-842 3357 -1971 0
-3289 -3956 -3727 0
4556 -3662 1492 0
644 -1193 -3182 0
4279 803 -281 0
-2161 -742 2741 0
2475 -1905 3156 0
458 -1355 1504 0
4599 -3929 3760 0
-86 3469 3694 0
4501 -581 -199 0
-56 -308 -3198 0
1726 1320 -4126 0
4914 -3679 1497 0
4523 -484 121 0
840 888 -3529 0
-1921 -1800 -3355 0
-4592 1591 2846 0
2256 -3022 -1581 0
23 162 -4246 0
1501 986 -2445 0
4288 -4696 782 0
-483 3265 -2284 0
-3521 -2131 2136 0
527 1990 1772 0
-2324 679 2806 0
-1960 3248 4339 0
1291 2503 -3647 0
4203 4229 3407 0
4984 3940 -3377 0
2989 3046 963 0
1992 -792 476 0
-2553 628 483 0
2144 3413 2554 0
-552 -3811 4582 0
-2083 -1515 -4739 0
3809 1768 -141 0
3277 -2135 -3280 0
4360 1574 -4912 0
-2726 2623 -1026 0
-562 -2624 -2820 0
-4865 -1728 786 0
2212 -1423 -4446 0
-2453 4429 997 0
-3541 -2674 -59 0
-2009 -1499 -2637 0
4361 -3296 1413 0
-1490 -3471 -3494 0
2983 2852 3950 0
-2025 -2519 -4888 0
-3575 2217 4057 0
258 -3772 -2441 0
1952 990 1633 0
-2695 1458 3450 0
728 -3629 -680 0
-1158 3051 -4979 0
2916 3853 -3567 0
3128 615 -171 0
215 -2344 4587 0
-809 -4726 3735 0
2331 -3381 -2722 0
3937 -3866 2814 0
-639 -3505 -2079 0
-89 1851 -3183 0
1352 -4012 -4058 0
-360 176 2835 0
-4311 -1513 -2030 0
-1540 -133 2299 0
-4060 3031 -478 0
-4435 -4025 -3879 0
4363 2041 -488 0
-4721 -1845 4565 0
-2786 -2789 -2256 0
-2718 -1953 3790 0
-1488 455 -393 0
-2197 -3959 4445 0
-4543 2717 672 0
3835 4884 3087 0
-3561 -3680 3314 0
1034 -132 93 0
4771 2173 -2484 0
-3070 2110 3741 0
2938 985 1812 0
117 4513 -529 0
2182 652 3375 0
-3427 3646 661 0
-140 -1364 -1767 0
-81 2860 -4844 0
-1706 2750 -3396 0
667 1472 3722 0
-2934 2575 -941 0
1535 4877 1327 0
747 -4226 3206 0
2415 -737 -2828 0
4989 -1616 1336 0
-4817 2210 -278 0
4856 3021 -167 0
1136 2957 3795 0
2892 3537 -640 0
-4368 -111 -2337 0
-3327 -1841 -729 0
3952 -1107 -3180 0
1415 4252 2891 0
-2907 -233 -137 0
616 -2678 -1901 0
3619 2628 176 0
-3968 -2259 2656 0
-4547 -2647 -2570 0
923 3765 -1951 0
3105 -2440 -3427 0
-1268 721 2694 0
2007 -1154 2454 0
2658 3264 2473 0
2260 -4744 566 0
2569 2000 -436 0
-700 -86 -1661 0
-2823 -1738 -1972 0
-2960 708 -3568 0
3728 2332 -3687 0
-502 2148 897 0
-2942 -2552 -1337 0
-3781 -1308 3782 0
748 -4503 4958 0
4202 4898 4247 0
-1231 2844 1035 0
-1004 -1528 -1006 0
-3878 4019 -1071 0
-1479 -3714 -3045 0
734 998 -4870 0
-4439 2670 -4376 0
-4983 -551 185 0
4631 -909 1575 0
3920 2715 -1622 0
2434 101 -793 0
1126 4540 121 0
3917 -2642 -4931 0
1467 265 -497 0
-825 -1111 -4888 0
-914 812 755 0
3327 -2437 -54 0
-2103 4411 642 0
-4715 2953 2736 0
-1548 3706 941 0
-3241 -1537 -2026 0
3644 1021 -2351 0
4864 -2131 -3580 0
-3568 1686 1864 0
-4688 1016 1951 0
-1413 107 -328 0
-3465 3678 -1606 0
-1700 2952 -3724 0
-431 2082 -2223 0
2484 4735 884 0
-1872 587 355 0
4819 -819 -1783 0
4869 901 -1247 0
4419 2510 -77 0
3388 -2399 3985 0
3120 3436 4896 0
-1482 263 3853 0
-907 -2076 -2314 0
-4450 -4001 -1767 0
-4554 -2415 101 0
647 -4150 1610 0
-4726 -3944 -3034 0
4983 -952 -414 0
4407 -3370 -4459 0
-1248 4480 -3321 0
4637 4425 1417 0
-616 -3062 -2918 0
-2715 -1128 2189 0
4272 2371 -13 0
-685 1725 -171 0
-651 4699 -4667 0
-1652 4658 2422 0
3996 2300 3425 0
-2044 -1569 -2653 0
560 192 -975 0
1004 -2630 3009 0
-348 4513 -511 0
4229 -4847 -2643 0
-28 1178 4695 0
903 3300 -2361 0
-1063 2946 -1407 0
-2798 1703 3807 0
-835 344 4003 0
4116 1702 -580 0
2040 -4196 3677 0
378 892 1952 0
3866 4929 2867 0
-882 1120 -2533 0
2492 3610 -2404 0
4198 -4001 -1288 0
-831 534 1283 0
4278 3142 2344 0
-4426 -2742 159 0
2168 -875 -1759 0
3789 4900 -2332 0
3877 -881 4002 0
636 1755 4611 0
-4259 -4820 -2608 0
-4385 1254 -2933 0
-3895 621 2731 0
-4542 1960 1996 0
1673 883 4067 0
3161 1573 -4905 0
-305 -2605 3041 0
-3240 -498 4811 0
4069 -1371 4751 0
-3083 -1744 -4678 0
-1374 2798 -2508 0
2026 -1119 3992 0
3398 1177 1031 0
3312 -2190 -4873 0
-3189 3476 -3533 0
-1453 2510 -4388 0
1204 4419 4380 0
-2960 -788 3128 0
1604 575 3624 0
3615 -4761 -3085 0
-477 -1483 1960 0
-1523 4305 36 0
426 2252 -1569 0
-2643 4804 3160 0
-235 -3884 -4904 0
-59 -3010 1446 0
796 4540 1188 0
-906 4166 -2890 0
-3896 -3695 -4366 0
-3313 -1128 1119 0
805 -947 3040 0
259 -1694 -4746 0
1107 3605 -4620 0
-127 3918 -3645 0
4366 -714 1420 0
257 2023 2631 0
-4272 -4546 4462 0
4431 -729 286 0
-210 4368 -1855 0
-4037 -453 -2660 0
-4876 3119 -1296 0
3678 2093 -1086 0
-3005 1556 -3392 0
226 897 -953 0
-3513 -1018 -332 0
-2748 -3038 -4097 0
3149 -504 -4075 0
-2520 -2185 -883 0
1712 4475 4492 0
-1213 -4344 4234 0
-543 3438 -4545 0
48 -1596 -742 0
-2806 4346 519 0
845 4077 -4750 0
4785 -96 2299 0
1791 2809 -3484 0
3792 3498 -4323 0
4153 -865 3566 0
-4065 -1374 -328 0
58 1621 3071 0
-589 2696 2664 0
-1381 3206 1294 0
-807 3965 -348 0
3291 2495 -4961 0
2736 -4310 -1099 0
3929 -2839 3134 0
4623 1531 2320 0
2675 -3493 -1701 0
1347 -3580 2770 0
-875 1692 3497 0
-3388 -2286 3340 0
4672 3734 345 0
3808 -2500 -1713 0
-2770 -921 4911 0
-193 3106 -1972 0
-3919 3511 4384 0
-2149 -3651 3120 0
-728 341 -3893 0
-1593 -915 -3043 0
275 -79 -399 0
2031 -1164 474 0
-4964 -2571 -2948 0
3550 1995 -3287 0
2072 2875 1106 0
542 209 -110 0
3173 4237 -4688 0
3421 -4619 4412 0
3176 -336 -2462 0
4121 4588 2293 0
-1529 -1836 -1542 0
-2605 -290 -933 0
1848 -132 2671 0
497 3321 -2 0
4430 2870 311 0
1438 -748 2944 0
995 259 4874 0
4212 -4428 4531 0
-3776 -1501 -3500 0
-1143 -1022 4454 0
-2340 3867 -4450 0
1751 -2328 720 0
-1236 3938 -4175 0
387 -2378 -4170 0
-4474 3563 4776 0
1774 4111 -796 0
2820 4093 428 0
-1914 4343 -1805 0
-4766 -4599 -1643 0
651 3814 1209 0
-1263 -1987 -1649 0
-377 -2572 61 0
-4111 -1797 3344 0
1074 -4172 -3831 0
3998 -147 1179 0
-1565 4417 -3672 0
-1763 3507 4478 0
-4657 -4297 -2712 0
-2952 3942 3685 0
4637 -4838 -4570 0
4515 -1495 490 0
4187 4957 3070 0
-1743 3042 1116 0
3216 1303 2545 0
-4623 -4991 125 0
-1040 4491 -2107 0
1157 2688 4952 0
3683 -807 -972 0
1636 -840 -2521 0
4100 -1451 -727 0
1453 -3666 -1468 0
-1259 3923 1030 0
4313 4501 -19 0
682 3108 -1574 0
2980 281 2088 0
-1694 -1107 -2086 0
532 1052 -3353 0
4774 348 -401 0
-2836 -907 -1926 0
-4341 4907 3768 0
4385 1728 -1768 0
3045 4980 2010 0
-4689 -4823 158 0
-1814 2426 1637 0
1835 4795 2635 0
-351 -2678 1958 0
-2084 -714 -430 0
-2530 2500 -2106 0
-2224 1124 110 0
-3305 1133 -774 0
-444 -973 -1729 0
131 -4626 -1703 0
3639 1090 -417 0
-1116 4732 3023 0
1366 3617 -3608 0
-4215 -1261 4476 0
-2920 -4783 825 0
2487 4941 4461 0
-2077 -430 -1655 0
-3927 1927 349 0
3191 -86 -2275 0
804 204 2060 0
-1348 1014 2862 0
-592 -2483 1221 0
-622 -2334 3308 0
-1520 1888 2610 0
-117 3634 4013 0
3000 -711 4268 0
-4222 761 -186 0
4782 1039 907 0
2470 -2501 -4479 0
3101 3998 964 0
3906 -2282 140 0
4760 2167 2284 0
3108 2712 4084 0
1438 3878 -3293 0
370 -2056 3604 0
2183 4951 -396 0
-2967 272 -4316 0
4491 -3052 -1058 0
-2593 689 -3113 0
4702 -1369 686 0
-2532 -935 4771 0
-2997 -3362 -4661 0
-3180 489 -1565 0
286 -2529 -1334 0
167 -983 2673 0
2907 4254 -1100 0
-2493 4927 4748 0
-3510 634 3600 0
3411 -3632 1690 0
2599 3328 3060 0
-4781 1219 -3692 0
-827 1835 2310 0
1198 2606 -1747 0
-858 4008 -3 0
-4770 -96 -4609 0
1891 -3472 2474 0
-1324 1117 -1719 0
-3585 612 -2526 0
-3712 -3386 2597 0
-4993 -865 -3618 0
-4044 -3729 1467 0
2870 -4497 -3353 0
-4401 -1236 3096 0
-1329 1386 4771 0
701 3877 -2658 0
1173 -3743 4229 0
3415 -3142 -4116 0
1595 195 2765 0
-1780 2090 1050 0
1105 -2239 -1914 0
2484 -4776 -4559 0
1157 4886 -3890 0
-4319 -3488 -2262 0
1178 -1364 -4981 0
2724 36 -857 0
-895 -3957 4720 0
796 3822 4926 0
4158 1862 -3733 0
3967 1181 1584 0
-937 618 3138 0
-2610 -1756 4350 0
1876 794 3563 0
-403 -729 3583 0
1476 4238 -2272 0
-1690 1357 -2396 0
488 868 2395 0
-349 4333 -544 0
-1451 -3978 3900 0
1096 -4165 2411 0
-2163 -2784 152 0
-496 559 3105 0
3734 -2758 4131 0
-2037 1266 -3391 0
-4753 -4218 -1627 0
-1195 4621 4399 0
-534 1571 4210 0
-3579 -2870 -4816 0
-2788 -2341 -2154 0
-3650 480 209 0
-912 -2399 2670 0
1487 -4764 4672 0
-1119 -4298 -2234 0
428 4435 3177 0
4183 -4424 -3211 0
3455 752 2458 0
-1206 445 -1317 0
-286 -2865 -3721 0
-1896 117 610 0
-907 -815 2018 0
1169 -1615 -2860 0
2654 2337 4934 0
1132 -1389 1046 0
-550 -804 4748 0
-3939 4677 -2786 0
3281 1012 1694 0
-200 1137 1588 0
796 -3681 1960 0
-1381 -2501 -2713 0
-2038 1483 177 0
3401 -685 1854 0
-2172 -725 -3866 0
-3216 1654 2080 0
1647 159 -4531 0
2501 2238 3556 0
2611 -768 4808 0
-280 800 1576 0
-676 3482 -4357 0
2236 2424 2344 0
-5 -2641 -3256 0
1124 2972 -2862 0
245 -4113 -2779 0
-1878 4380 -3141 0
3222 -4507 -1918 0
-3213 -1454 -3588 0
135 278 -639 0
-4303 208 -220 0
4684 1050 -2083 0
-3147 1435 176 0
-3725 -3883 3808 0
1394 2019 41 0
-23 -3466 -792 0
-4488 -2690 -626 0
-2408 -4039 3463 0
-2820 2538 -454 0
3447 -10 817 0
4346 1995 3915 0
2322 2779 920 0
-4814 -3023 -2404 0
-1939 2055 -4652 0
1740 2944 -1581 0
-2051 -1444 3597 0
4111 360 4522 0
-4453 -271 293 0
-4023 -966 3293 0
3785 1480 -2518 0
2938 -3481 -1032 0
3521 4401 1412 0
800 1538 188 0
-4341 -1357 3143 0
-3427 -3777 -2711 0
4565 -4216 -1998 0
1383 1768 2815 0
-3103 3437 -3605 0
-1775 3981 -4786 0
4123 -870 1572 0
154 -686 -3442 0
-1795 -2311 4348 0
4561 -4049 -2348 0
-3163 990 -4887 0
1436 -2803 4802 0
-4511 4707 2942 0
-593 4847 -3031 0
-3421 1568 532 0
-4053 662 -3793 0
-2977 -1137 1729 0
759 2184 3928 0
-3114 -1411 4745 0
3752 3561 -300 0
1267 -165 -2202 0
2259 2001 3428 0
-16 4835 3162 0
-1142 4710 2007 0
-1123 2789 -3997 0
1208 3455 4501 0
-4962 154 -862 0
2611 1193 -3964 0
2482 23 -1691 0
3108 3604 -1363 0
-4444 -247 -2788 0
1131 -899 3284 0
1813 2956 -470 0
4783 -4966 1960 0
4903 -867 150 0
2851 -3149 -1505 0
-2421 3408 -591 0
-197 -971 3406 0
-1713 -3846 -1084 0
-4259 -3929 358 0
-2172 4503 3224 0
1617 -2187 3634 0
-2902 -200 3925 0
-253 2541 -358 0
-2117 2290 4581 0
-4079 -2306 -4950 0
2593 3708 45 0
3791 3017 2752 0
3388 2919 2013 0
4834 -2166 4506 0
-2798 -685 -1832 0
-4409 2630 -3056 0
2066 -2947 -409 0
3753 660 4099 0
-3262 -4095 -668 0
-1288 62 -944 0
-4627 3719 -4898 0
1047 1606 -4673 0
346 -739 -3060 0
-207 2661 2083 0
2875 2042 730 0
-3080 2882 -3148 0
-3096 -4812 -3875 0
-4309 -4306 -2354 0
-1290 3480 -2793 0
3931 -3107 2515 0
-3985 641 -4169 0
-3438 3030 -837 0
1901 994 -1979 0
2901 133 -684 0
3778 -1869 -4941 0
1717 -3021 3546 0
-68 -1046 4566 0
-1206 1686 4699 0
-1600 -4365 -91 0
3843 3836 4152 0
1373 -4631 4050 0
3296 -2489 -479 0
-694 2348 -4781 0
-3432 -200 -441 0
1693 1947 3285 0
3983 -754 -4524 0
3846 3448 -4432 0
-2875 -1040 -2741 0
-1653 -1299 -697 0
-2797 -3031 -3428 0
-2119 4696 3644 0
-4568 -1166 2954 0
1924 -1484 2023 0
-1156 2098 -3564 0
4540 -235 -2178 0
-2939 1475 3536 0
354 3205 -1545 0
1874 -4094 1969 0
4498 3327 3568 0
2216 4668 468 0
1749 -2259 3887 0
-1810 -4888 -1141 0
1519 -2628 -186 0
-3300 -1701 3944 0
-1944 2389 3425 0
-228 1500 1206 0
2975 -854 2598 0
-4777 -4444 -4376 0
-3861 1234 126 0
-3819 -3094 3980 0
3160 -2251 4770 0
1519 -524 -3071 0
3672 364 767 0
-2501 -3264 -2843 0
-2999 -1023 3959 0
-4089 -2405 -2539 0
-4069 3353 644 0
-1964 1428 -561 0
2148 -3404 -1206 0
-4222 1253 4865 0
4926 -3199 224 0
2361 2978 942 0
-2358 3206 -1495 0
-4197 60 1343 0
1781 4151 -2866 0
-2614 3762 -3691 0
4388 1813 -3317 0
1929 -3814 1570 0
3130 -1141 696 0
2074 4107 -2481 0
-3276 -1874 -4605 0
-1485 -3572 4321 0
-3677 4391 -4132 0
3856 -2836 -3506 0
4465 -457 -357 0
2860 -208 321 0
2383 -3049 -934 0
1453 992 3079 0
-2904 2757 -1915 0
-458 -2599 -1754 0
2704 -637 -1763 0
1171 1026 3788 0
-954 3813 -3012 0
-1299 1720 -1871 0
1231 -1919 -3735 0
2630 -1178 -677 0
-1762 4419 1954 0
2313 -1108 -4468 0
-2383 -3457 -3627 0
3577 -1197 1599 0
3847 -3048 -486 0
-874 -2710 -3437 0
2092 711 2067 0
-1205 -4345 3404 0
-3786 -4385 284 0
-210 3495 -2686 0
1052 4100 -190 0
-1834 -3377 -200 0
-3255 2723 4575 0
-363 206 4675 0
-3159 4441 -3318 0
-2569 -4606 -3521 0
-2965 822 -287 0
2804 -4579 -4627 0
-620 2344 -3971 0
-1791 3977 -1857 0
-1998 -510 1148 0
1989 -4086 3942 0
1729 2591 -1162 0
-426 3883 -728 0
117 2684 3471 0
257 3748 -2396 0
-4620 -725 -3717 0
3429 -1725 1750 0
-2867 2823 3246 0
1107 3311 299 0
3131 -2302 -3120 0
622 1261 2334 0
-454 -3843 -1762 0
-3870 3457 1085 0
582 -1673 -1102 0
-1424 4979 -858 0
-4615 4539 -1432 0
3218 -4998 -4738 0
4104 4529 4453 0
4113 -1159 3207 0
3623 1782 271 0
4238 -3707 1266 0
-3542 -4833 -2607 0
434 -3844 -2872 0
-3018 4030 -3979 0
1534 -2344 1449 0
-1366 -3326 1260 0
2365 1707 1836 0
4770 -1548 3037 0
-1970 846 4726 0
448 2645 -305 0
-1703 -2446 4202 0
2742 -2084 1713 0
2076 2015 401 0
2951 2526 1323 0
1551 -520 4197 0
-3722 385 475 0
-1435 -2307 -2671 0
-3776 -1980 -3455 0
2466 -690 -426 0
4216 -3871 -537 0
-2377 -267 714 0
-1594 -2457 -2535 0
657 -4650 1703 0
2056 89 -2696 0
-4896 -2476 727 0
1482 1020 4968 0
-2192 2055 2466 0
-762 -771 1755 0
2806 1766 -4652 0
37 4195 -1937 0
-426 -1835 3683 0
3041 -2238 4023 0
-2655 4894 13 0
-807 1170 2133 0
-1663 -3256 -4530 0
-3335 -3075 2680 0
-2776 2182 -3197 0
-4252 -3623 1610 0
-1221 808 1759 0
-3724 -3544 4019 0
3705 1343 -330 0
446 760 4264 0
304 76 -1160 0
-3407 -2349 -4980 0
2441 -760 -360 0
4261 3756 2164 0
2869 -114 4047 0
-857 -441 -2034 0
2088 -1342 3220 0
3571 -573 -3978 0
1230 3761 -2475 0
-2180 4120 1065 0
-2026 2345 834 0
1082 -4155 -3199 0
3446 2417 3322 0
-672 -2742 -1607 0
1138 -3766 4040 0
3477 -2013 -873 0
3077 704 -3165 0
1299 -720 -1984 0
-4301 -172 1213 0
-715 1550 -1801 0
-4364 -2496 -1225 0
-778 459 -3246 0
1451 4462 -3633 0
-1484 -3548 87 0
-2261 -2308 4620 0
3926 -3244 -2308 0
-995 4673 93 0
-512 622 666 0
1477 1696 -2074 0
-624 -3508 -4425 0
2352 3059 390 0
-3199 -2831 4808 0
4063 4152 -3707 0
-2513 1561 -2903 0
1069 -4011 -1274 0
1223 -1098 -2598 0
4407 -474 4515 0
4147 -477 -4319 0
-1794 -4832 -3604 0
-1693 -4085 -1847 0
-2135 -4907 2727 0
-788 453 1750 0
-2513 -2402 -1666 0
4343 3024 3132 0
-2837 2440 4757 0
-239 -406 -3307 0
-892 2847 -4211 0
-1762 -98 -4288 0
2239 -1332 -1960 0
-3044 -1554 271 0
-486 -805 -639 0
1911 1583 -2402 0
-4780 640 -31 0
-682 837 3701 0
-2473 -622 2651 0
-781 2969 -3056 0
2652 2165 -3274 0
995 -1115 -1669 0
-3468 3066 -3435 0
-1620 -4428 524 0
4686 2582 3151 0
-3367 444 -2573 0
-311 3481 -4861 0
3237 -897 2617 0
2369 4320 2857 0
4190 -936 1295 0
-4796 -1902 2429 0
-3731 -3968 4782 0
2490 -2902 2724 0
-3906 2649 -803 0
4823 -2255 1069 0
-1239 1821 2579 0
-4826 2373 -578 0
4023 1765 -341 0
1168 872 3364 0
-79 -2806 1751 0
2872 4823 -444 0
-3893 -142 1058 0
-2818 2658 4503 0
4246 343 -120 0
-2564 142 -4923 0
4742 -327 3770 0
4065 1081 3214 0
1740 -206 -1462 0
1953 2977 -1228 0
-4961 1629 1972 0
866 -1100 -428 0
917 3994 529 0
4683 2866 727 0
-2681 -1145 -2803 0
-487 -4883 -3988 0
-4772 -893 599 0
-3336 -2504 3269 0
-1111 -1056 4880 0
2525 3679 1679 0
-2369 -440 21 0
-4709 1438 1998 0
3154 1887 2978 0
2941 4649 -2885 0
-2468 -3413 -1422 0
-2845 1025 2310 0
-887 -4933 3999 0
2577 2505 -4441 0
-1721 2322 3726 0
3206 2908 4488 0
698 1704 3830 0
-2065 -2233 3580 0
-1805 -1192 -3500 0
-335 -1844 326 0
1470 -2988 2833 0
963 -3460 4609 0
-938 -711 1349 0
-2059 -96 -750 0
-4639 492 2960 0
4905 2258 -2930 0
-2503 -3727 -2584 0
3284 1076 4553 0
838 3197 1494 0
3470 4736 -1111 0
2336 2686 3770 0
4168 -143 827 0
2201 3599 190 0
3249 1838 -2443 0
-2141 -1978 -1091 0
2421 -1508 226 0
4550 850 -1361 0
2285 2204 1389 0
153 -4049 -220 0
80 -3834 4531 0
-4132 -1818 -4906 0
2910 3331 -507 0
-3908 -1593 -744 0
2305 -2574 -2557 0
4857 2518 -3818 0
-2454 -3573 -3476 0
-3773 1870 3709 0
-1630 -653 230 0
3511 457 -4974 0
-732 -2453 4417 0
-2652 4699 -418 0
2660 -1152 -1732 0
394 2169 1666 0
-3040 -1743 555 0
-4838 -970 1007 0
964 -1358 1656 0
-2196 -1781 887 0
-1350 2763 -4704 0
-1481 -982 -4601 0
2359 2079 4399 0
-1960 -829 4543 0
4951 -3666 3614 0
4427 311 -991 0
1258 -1983 4221 0
-4472 -999 3696 0
3606 -1836 4867 0
4184 -3932 306 0
1155 -1929 -4551 0
-220 -1644 -4591 0
-2357 -4542 -3928 0
-642 -3741 -2527 0
-823 3200 3044 0
-2816 1316 -4503 0
1994 -2365 2205 0
-1651 2815 3733 0
-1040 34 3454 0
-1549 678 -3278 0
-728 -4253 734 0
401 3655 4575 0
1821 107 1654 0
-1930 392 3630 0
1893 -4881 3791 0
135 -2754 -2064 0
1763 -2700 -3649 0
1256 4822 420 0
2803 -1611 -3961 0
1644 -1927 -1112 0
-4624 -1053 481 0
-4970 -3478 -2274 0
4485 -705 2523 0
2238 2636 1892 0
2820 448 4261 0
-2078 214 1760 0
1892 1703 2684 0
1744 798 4911 0
-2322 -502 1265 0
4563 -842 3776 0
-3941 3863 614 0
-3954 464 2201 0
-4437 4942 2908 0
-195 -4841 -3606 0
1382 -2226 -3312 0
1998 -128 -2655 0
2799 -4800 -4138 0
-1485 843 4141 0
-2504 -1225 3804 0
4867 -2039 -3446 0
4528 3342 -109 0
-4627 -2716 1921 0
2514 1472 3244 0
-1568 -4468 -1695 0
-4596 686 3942 0
2938 1410 2572 0
-4839 3731 -4773 0
693 -1044 4304 0
-778 1808 -4240 0
-2882 -3768 -3347 0
-3557 -1340 151 0
-1050 2925 3359 0
-3702 -4081 2415 0
1176 -477 -2549 0
2069 -1798 3637 0
3926 3133 -2743 0
3868 4201 1130 0
3243 501 -2328 0
564 3401 -224 0
-4964 -1188 -1926 0
-1244 535 -437 0
-1391 4222 -2218 0
-1806 3936 -2863 0
2729 889 -4918 0
4872 4289 4659 0
1573 2764 -565 0
547 -1049 1941 0
2306 -4741 1325 0
205 1975 -1734 0
3319 -2746 4346 0
-2994 -2386 -842 0
1763 -722 -286 0
2819 4594 2910 0
-2053 3961 1763 0
-4045 -3892 -945 0
-4243 357 -2139 0
1745 764 3015 0
3371 2428 -770 0
827 4246 620 0
3326 1438 663 0
1439 3773 3118 0
-1744 -4616 406 0
-2636 -1890 -4133 0
-307 2033 -4612 0
-2693 3589 4070 0
1337 605 -3237 0
3100 -1888 1683 0
4945 -4767 -1023 0
3938 902 -3698 0
4219 1613 -1845 0
1177 4244 4274 0
-4311 1359 2083 0
-1360 4112 4855 0
-1407 4806 300 0
-2258 1789 -121 0
36 4902 90 0
-3594 -2685 -490 0
2425 1191 4901 0
-4810 -110 -4021 0
-2396 4389 -3254 0
4229 4873 3019 0
1187 774 1026 0
-3402 1156 4786 0
-2541 1939 -1425 0
3430 -2161 4380 0
2500 4077 -3296 0
-1272 976 4875 0
2009 -992 -1244 0
-3805 -4195 -3062 0
-2025 -4406 -1468 0
-1442 -4389 -1056 0
-3241 -4109 -4327 0
-3991 -4402 1772 0
-2433 -342 3684 0
2758 -2381 312 0
159 2688 4557 0
3621 4247 -2485 0
-4563 -4767 -1257 0
1131 -4942 -1040 0
-1836 -3647 1640 0
3356 2750 279 0
-3340 3469 -2997 0
3275 1171 2245 0
-2768 3275 -2963 0
3775 -2931 -3507 0
-4422 2803 4779 0
4121 3944 -3059 0
646 -228 -503 0
-3503 -862 4418 0
-1800 -2312 3331 0
3311 -1568 -3254 0
-3998 -131 2201 0
24 -2087 2843 0
-1165 -3588 -2141 0
-617 4697 -560 0
-3517 -3611 3695 0
-3819 4688 1726 0
622 -4696 -260 0
-4857 -2668 454 0
3918 499 2021 0
-624 -4497 539 0
-1178 -1358 2646 0
-4918 -1162 1870 0
1707 2522 -105 0
3423 3772 3965 0
347 3407 -2030 0
1067 2755 2772 0
-3706 -2373 1140 0
-1193 1407 -4362 0
-2023 3886 4640 0
3169 -3703 3753 0
-321 -2989 3408 0
4200 -3409 -753 0
-2989 -2093 3653 0
1038 4476 -24 0
1625 -1051 -2050 0
1304 -4539 2297 0
1999 4876 4384 0
2637 4705 1005 0
-2370 -1253 -1749 0
-4279 1944 -4433 0
-2973 195 -85 0
-4641 4911 -3697 0
1520 -3107 -4915 0
2476 -3638 899 0
-3273 -1542 4736 0
1588 -1550 2285 0
717 -853 2362 0
521 2495 2940 0
990 4580 -3951 0
351 -2207 -45 0
4705 368 813 0
2195 4874 -3702 0
-376 -220 2979 0
99 -53 2905 0
2958 1133 -4876 0
2268 4871 1964 0
-3789 -4084 2240 0
245 -1175 -1912 0
4002 -221 3416 0
2946 -285 357 0
3132 432 -121 0
-4171 -3237 2967 0
2736 -3734 4270 0
2787 2618 -66 0
-3587 -2055 175 0
4416 -4792 1338 0
-2453 -4950 2947 0
4128 -4212 -2340 0
711 -334 2500 0
-2284 -1036 4593 0
-1124 -2328 -4114 0
-2598 4717 -4729 0
-2808 -3940 -1379 0
34 -3544 3929 0
-2308 -2705 3966 0
3475 2392 -1100 0
2922 2735 3070 0
-4161 2289 3122 0
4804 -2423 1422 0
-2456 2538 3742 0
-1472 856 3078 0
2888 3985 -4490 0
618 3652 903 0
-18 -1241 -2608 0
-1788 -4926 -2186 0
3662 3430 992 0
3238 4406 4506 0
3738 -2165 -4943 0
-3767 -1865 -524 0
-4726 4178 284 0
-3541 -777 -267 0
1232 -295 3621 0
119 -626 -1934 0
-1421 -4666 -2084 0
-541 -213 3844 0
1150 2307 -354 0
-170 -4814 -4561 0
-2135 -4025 3175 0
1563 3479 -674 0
3155 3072 2064 0
2368 -2054 3247 0
-2519 4210 3491 0
-3078 1239 4587 0
3132 -3215 -4528 0
3877 -3191 -989 0
529 4731 -1973 0
-3620 -2756 -1082 0
-61 4402 -2469 0
110 248 4229 0
4130 -2648 237 0
4619 -1155 1369 0
-2455 -2269 2092 0
-4817 -3724 -415 0
-3573 4416 -3175 0
-4655 3235 -1212 0
1832 -2596 -1955 0
-372 -3525 4286 0
-1018 1233 2292 0
-2167 791 -3518 0
-4779 1150 -3063 0
-4379 1013 -4615 0
2754 1266 -4253 0
-304 3032 -918 0
2776 3188 46 0
3596 -1713 1151 0
-3965 133 879 0
-2714 285 -3045 0
4262 3117 -569 0
3512 -4300 -2790 0
-1587 787 4090 0
-3989 2958 110 0
3108 -1466 1229 0
-37 1955 4265 0
3787 1848 -1383 0
440 -755 -335 0
2360 154 -3596 0
4991 1076 3432 0
1874 2560 -213 0
-2919 4512 -4015 0
4949 995 1616 0
-4908 2368 -4475 0
-3911 4303 -475 0
1799 -2110 4581 0
-4474 4865 -3424 0
-983 2700 2063 0
-702 1643 -3289 0
1241 1924 3465 0
-4184 -4620 4855 0
-382 -2400 -3459 0
3957 3695 -4932 0
2214 -3672 -4009 0
-4518 2813 778 0
1649 3668 3395 0
2622 1421 -2018 0
-4169 4118 -1409 0
459 908 3454 0
-4928 -1009 2117 0
-2388 -1470 -4713 0
-1604 1878 4375 0
-4400 593 -4876 0
-484 -1985 4429 0
806 -4776 4269 0
572 3260 4345 0
1595 -2030 -1171 0
-3734 1234 2794 0
390 -3570 1203 0
3784 2587 -467 0
-2626 -491 -594 0
1833 4515 2035 0
4384 -4922 -3843 0
-3176 1449 4884 0
-4689 -2734 -3415 0
-2293 -4573 -1756 0
1860 -177 4654 0
-828 3196 -536 0
-1085 -2899 -63 0
854 -4354 4456 0
4633 -1207 -2390 0
-4463 3609 4983 0
-1801 -985 4333 0
1563 2122 2808 0
-3994 -2099 1135 0
-2167 -4767 141 0
1915 324 -4307 0
-458 3731 -3531 0
-2697 4091 -2635 0
2158 -4470 1367 0
878 2704 -3573 0
-4478 -2193 -2027 0
-4726 -3297 -4501 0
-1484 622 -4953 0
2639 -3392 1497 0
-4524 -163 -2401 0
-1313 1603 -2633 0
-2599 -3079 2575 0
-2177 3349 -1675 0
-4428 896 3251 0
-4430 3118 4361 0
-3072 -1799 3477 0
4014 2774 -1662 0
-3767 -2124 4294 0
511 -4615 89 0
-1435 113 1680 0
-2902 1792 -3684 0
2783 -3587 3788 0
970 3175 400 0
-2562 4679 -3547 0
2283 -1995 2118 0
4297 -834 1036 0
101 -4737 -2629 0
2138 2573 4904 0
2715 -2641 888 0
1600 1409 451 0
1085 -4626 -4086 0
1821 -1190 -3924 0
2747 -3105 827 0
4615 -4923 3256 0
2198 -1327 -4283 0
-3277 -3947 1481 0
-731 -2799 244 0
-3875 773 -4180 0
1377 -4115 -3006 0
2202 -3864 -2002 0
347 -3473 -4559 0
-4650 -1030 -3056 0
4459 83 -2724 0
-4661 3097 -4841 0
4685 -1390 -3336 0
-3030 3498 -4794 0
4533 -1036 -1897 0
3060 1379 1901 0
4604 2977 -737 0
-24 4550 3550 0
-3934 992 1097 0
-3522 344 -3547 0
-3490 3007 544 0
3277 -4401 1557 0
4131 -3877 4147 0
2789 -764 3300 0
243 574 3612 0
-3902 2570 -2362 0
-2245 -4028 797 0
2608 1870 1009 0
4171 -4625 -1679 0
3005 -1070 2410 0
4882 4447 1957 0
-1097 -1035 937 0
3649 1069 -31 0
-318 2684 4414 0
1389 1857 -267 0
2110 -4884 -4559 0
-4676 3789 4722 0
-2394 2687 -1435 0
-1544 -3302 -3033 0
3357 -3930 -4674 0
-1617 -4743 -3539 0
4925 -458 1672 0
1611 -2748 -2412 0
-2455 -1103 1499 0
2802 283 -4355 0
4464 -468 436 0
3323 4680 -3299 0
-3273 -1564 -4015 0
-638 4214 1660 0
3779 -2887 4370 0
-1446 -611 -762 0
-995 -896 2337 0
-2919 1374 -626 0
4400 940 -2133 0
-4833 3914 -1995 0
2981 -4383 320 0
-3840 -109 1637 0
-3802 -2266 -1071 0
-1545 -4475 2433 0
561 -3699 -4494 0
-601 1560 1312 0
2362 -4797 2459 0
-4440 -2584 972 0
-1280 -359 2090 0
-1434 -3961 1649 0
-4252 4870 -3795 0
7 2360 -660 0
-3507 -4527 -1570 0
4841 2560 2553 0
-655 -2304 -506 0
-438 -3746 1657 0
-2447 -3247 2468 0
-552 -4017 2776 0
4483 -581 2097 0
3891 4223 2840 0
-1871 4691 656 0
-2613 2906 -132 0
-1608 -275 -1136 0
-2799 3645 4162 0
261 -3486 2758 0
1941 863 701 0
2961 4180 4690 0
-4626 -3214 -577 0
-4029 3775 -311 0
3989 1055 4213 0
151 2161 -2557 0
-4540 -4902 -2143 0
4340 -1235 1489 0
-2215 1832 -1229 0
3792 -1099 -4384 0
-3799 -3903 -3589 0
3665 -4553 1359 0
-203 -28 -3836 0
-4693 -2378 1155 0
-3360 -2419 -4592 0
-688 2837 -375 0
-1965 -3299 2057 0
-3800 2525 1156 0
1871 -3697 -694 0
785 150 -3627 0
-255 4005 -1818 0
4357 183 2239 0
1046 3692 -3098 0
-2391 -2688 1859 0
-3684 -1565 3620 0
-2142 -1969 794 0
-538 4700 -4792 0
1714 2210 -3133 0
2987 278 -371 0
1292 2926 -4273 0
1239 -2897 -312 0
121 3032 3679 0
4902 -3232 581 0
3069 -2182 -3360 0
-1420 -4335 -4969 0
3382 -2908 -4752 0
1219 4884 -959 0
2169 -4612 4213 0
2771 2561 1725 0
3189 3706 -1164 0
2595 -3606 -494 0
-1666 -4596 875 0
3466 -1308 -824 0
-1951 2275 1878 0
4221 4085 -1091 0
-1284 -4328 1205 0
1149 812 3821 0
1830 -167 -4056 0
-2900 4905 -899 0
1440 -4122 -1305 0
-2168 -4269 3677 0
1612 4572 4034 0
346 -2948 816 0
597 -1303 -1763 0
-1394 -254 -3658 0
-1881 777 3348 0
-1431 -1438 -2507 0
-544 -2647 -2698 0
530 -3688 -4620 0
-3995 -1167 -1351 0
-4725 -3384 2628 0
-1704 -2500 -2082 0
-321 -2672 2619 0
-4337 3707 -4399 0
1083 -4950 1766 0
-3957 3907 -4504 0
2875 -2544 -2184 0
-2611 4159 -400 0
2706 -4875 1230 0
3483 1186 4193 0
4409 -3936 -2773 0
-2118 4001 -377 0
4989 2932 1514 0
2393 -3145 -1515 0
3870 2603 2190 0
1222 -1363 808 0
726 -3447 -498 0
-4956 -3054 518 0
-3277 444 771 0
-2994 3128 -1448 0
-3136 -379 4787 0
2898 -646 2426 0
-4535 2985 -1480 0
-119 4439 4424 0
-518 -1482 4831 0
-978 -469 -3458 0
351 -3095 401 0
617 44 -3784 0
924 -1524 -2481 0
3865 241 -130 0
3407 2174 1959 0
-2284 376 -897 0
1261 4239 -2917 0
-2414 4331 3708 0
-3960 -394 518 0
479 -256 -3368 0
3574 -4483 -3725 0
1176 4194 -3189 0
-279 3189 1464 0
3552 4383 2708 0
2155 1720 -780 0
308 -4069 -2749 0
-643 4593 1568 0
-2882 1243 -2093 0
-4187 -4470 4792 0
-968 -1549 -4245 0
3496 -4257 -357 0
4435 3012 2814 0
29 -920 1971 0
4876 -3846 1824 0
4967 338 4847 0
-3037 1028 1107 0
3390 -3411 -3301 0
1811 -2251 -3107 0
4207 387 -2789 0
3773 -1161 -547 0
-2935 -2255 -970 0
-3180 1375 4046 0
4047 1236 2668 0
2138 3365 -1011 0
4534 -2676 1149 0
-3050 -1868 212 0
2095 -4129 1779 0
2030 668 -929 0
4384 1616 -2801 0
2461 -4703 4692 0
609 4433 4206 0
-4721 -4588 3803 0
175 -4805 -3490 0
-2051 -301 -709 0
1742 -1670 -3259 0
-1280 2880 3529 0
2311 -3521 -2240 0
-3749 -2668 -1744 0
-1277 -4531 -3178 0
-2605 2702 3535 0
-2462 -3780 -4697 0
-3042 -2923 -62 0
4069 -3872 -4224 0
-1672 2099 3151 0
-3729 3152 3504 0
-3776 141 -4834 0
4727 2184 4973 0
130 3098 3472 0
-2926 -1275 -1476 0
-1091 -3056 1350 0
-4459 -4693 -4185 0
-3131 3999 2484 0
-3854 -612 -4008 0
-1681 -878 4789 0
3499 2788 4257 0
-3457 -3537 3663 0
285 -4299 1444 0
-1426 -1685 -4783 0
-1841 118 4931 0
2470 3104 3528 0
3360 3733 -3612 0
4055 -4498 -1222 0
-3995 -1593 3463 0
2935 824 2970 0
3717 -3340 -3352 0
3169 4446 -3154 0
886 -3295 528 0
-3435 -202 1765 0
-4733 4300 4644 0
-3871 -3227 4691 0
1819 4080 3476 0
4878 2889 2496 0
-927 1201 4912 0
1707 -3519 -3930 0
-4196 -3356 -4128 0
2435 -3057 -2291 0
-3179 -294 -2390 0
-965 -4415 1632 0
-1134 -3380 2494 0
-983 -3103 4187 0
1938 -546 3231 0
-4113 -3280 4843 0
1512 2066 1929 0
1761 -1789 -2362 0
2078 -1886 4969 0
1158 3304 2399 0
-3744 -728 -209 0
742 -232 -1410 0
2950 -1096 -3872 0
4193 1658 -3425 0
2574 -603 -2508 0
-3702 4451 3286 0
2574 -1791 572 0
-2874 -3784 3100 0
2326 4280 -3017 0
2598 -3622 -1422 0
4266 -137 111 0
-2497 1005 2340 0
-160 4533 4285 0
4489 -1913 4911 0
2732 2257 -2491 0
1072 222 2316 0
2131 593 2266 0
4834 -3684 -4993 0
720 2973 -4275 0
-1050 4600 -3199 0
-2778 1845 -2517 0
-424 955 4906 0
2551 -4095 3210 0
-3399 4546 1849 0
2015 543 1421 0
4451 2322 4750 0
-4868 2994 440 0
-4888 -2701 4043 0
2147 3806 4280 0
1409 -2959 -1153 0
3535 215 3417 0
4650 -1514 883 0
4998 -257 2257 0
713 2203 1725 0
-2716 -30 1794 0
2542 -1431 414 0
-2822 -4949 -4295 0
-1297 2895 -2737 0
-38 4205 2188 0
-2527 1587 1737 0
-3094 529 4135 0
2187 -4321 4289 0
-4301 1574 -698 0
1822 673 3102 0
3695 3559 4849 0
2656 -2877 3524 0
1203 2412 -4814 0
-1508 -2579 -25 0
4306 -4321 1034 0
3678 1913 -2484 0
-3725 -4778 1770 0
2239 -1621 3955 0
-482 2636 -1171 0
3116 -1147 -1931 0
-3217 -4079 4042 0
-1868 1129 -4097 0
-4286 -2840 -1580 0
2456 2766 1936 0
-2102 -4648 -2183 0
4400 -4387 2587 0
-1701 3732 4139 0
-3735 -2512 4766 0
745 3439 -3609 0
-2895 -3467 1601 0
828 504 -2019 0
-190 3353 700 0
3445 1211 -4196 0
-1877 2813 3225 0
4634 -3408 1416 0
-4287 -1022 2395 0
-496 4739 -4672 0
-2355 3000 -4942 0
114 -4289 -4116 0
-1842 2720 -3115 0
-3620 -4137 1967 0
-1506 470 1311 0
3655 -1260 2057 0
-1873 -3304 -4545 0
-4693 -4898 -929 0
4416 4387 -4102 0
-4095 -1900 -3013 0
1845 460 -3435 0
-2576 683 4597 0
1523 -3049 -3355 0
-1014 789 -4775 0
-2458 329 1411 0
-1371 -2571 288 0
2516 2274 -409 0
1651 -1860 2136 0
-1156 2504 -3765 0
2090 -4787 1013 0
3457 4081 55 0
-1170 -3724 -2971 0
4854 -3749 -1829 0
-4754 -2423 1915 0
2310 -2797 3847 0
-2610 3733 -1461 0
3445 -1223 4819 0
4064 -1134 -4043 0
-126 -1659 2874 0
-631 3525 -481 0
-788 -3508 1291 0
1827 -318 -3553 0
-4080 -4978 -1676 0
-1560 2997 -3116 0
-2212 3174 925 0
-2920 840 3011 0
-4611 -2297 845 0
-281 -4288 3328 0
-2842 1947 4746 0
-3013 2557 -2417 0
-3905 -4700 3837 0
1595 1549 -3766 0
511 -2182 -1396 0
-4747 -929 -2807 0
-1211 -1313 2440 0
-4385 3052 -4408 0
173 -4152 3732 0
-3542 3410 -2603 0
-1967 -1770 4062 0
-3159 1429 -4027 0
-2235 1058 -4580 0
-4910 -4895 3904 0
-4674 3130 -4018 0
-103 -1708 -2760 0
-3593 4026 4346 0
-3798 -3826 -4158 0
-4472 -58 33 0
983 -3490 2696 0
2238 1617 -348 0
-585 1348 -317 0
2692 3093 1894 0
97 -4825 2809 0
-958 4404 4919 0
-118 2380 1190 0
4014 1035 -3733 0
-2628 -2334 -97 0
2972 2589 -4752 0
1177 -210 -3079 0
3687 -277 4487 0
3342 -4643 -3582 0
668 1599 -4333 0
4194 1659 -340 0
-4340 4577 -3957 0
-2401 3969 4147 0
2294 2086 2915 0
-4993 -2309 -1748 0
-4498 -2123 -3839 0
-68 -297 2864 0
3013 3037 -1000 0
3154 3281 956 0
-2047 4156 106 0
1680 2212 -4425 0
-1052 2144 -1860 0
2461 3559 1714 0
-3106 3629 1053 0
4378 4253 778 0
-4378 -3977 -2473 0
1995 4790 -3216 0
-3391 -3723 2548 0
1855 2223 4177 0
4751 -871 -521 0
3751 -1617 3249 0
-4237 367 -3727 0
4958 3597 3853 0
988 -1023 -4538 0
-4788 -3570 -3787 0
-3850 296 2725 0
-2837 4688 1392 0
664 97 -91 0
-2273 244 -2392 0
-107 -4789 -2671 0
1371 -706 -3211 0
-1862 -2440 -917 0
-830 -2799 1477 0
13 -3707 4814 0
-4502 -28 3657 0
-846 -102 -343 0
-2603 2366 3158 0
1504 477 -4660 0
-2619 -3352 4692 0
82 -180 1282 0
-3507 -106 -3885 0
-1917 -3040 377 0
1793 4865 351 0
-414 2367 -1414 0
-3367 2691 4841 0
1684 -1170 438 0
1097 2286 510 0
4606 779 987 0
-2540 237 3882 0
-1600 4275 -3288 0
-492 -2617 4490 0
-60 4964 2092 0
4745 -165 -3437 0
-4830 4611 4416 0
636 -3965 1796 0
4405 3358 152 0
668 -1950 3622 0
4961 -277 -3132 0
-311 -961 2752 0
-2503 245 456 0
-4315 -1093 1747 0
-2393 3270 -1009 0
-2828 -4965 695 0
3257 4833 3532 0
3260 -3209 -114 0
275 -890 -2654 0
2599 2983 -2444 0
-3720 -2653 -3633 0
743 -3347 105 0
3760 -1223 2732 0
925 4735 -888 0
-2084 384 -2122 0
230 3324 2039 0
838 3058 3059 0
-54 -3032 2343 0
2676 -588 -3125 0
-2612 -3573 3137 0
2493 611 -2702 0
2856 -4571 -661 0
3249 -1805 -1573 0
4796 -3056 2584 0
921 -2283 -1134 0
-2242 -4684 4465 0
4564 -2707 3797 0
4847 -755 4820 0
2112 -1341 1767 0
2188 4122 -4896 0
3966 -3551 -339 0
-4881 2750 3466 0
3194 -4583 1786 0
1904 1520 1348 0
-901 1202 -1887 0
-1214 -3335 -1897 0
-1863 -2367 2425 0
4791 -4622 -2172 0
-1132 -1194 199 0
1707 -1615 2394 0
1526 4100 -4224 0
-2839 4264 4065 0
4897 4913 -4932 0
-1013 4760 -3012 0
4164 -466 -3550 0
-287 -3219 181 0
-1411 -2265 -4412 0
-1078 1106 -1858 0
3237 -4711 53 0
-173 -1419 404 0
4288 4281 -3149 0
92 4485 189 0
-533 -2062 112 0
2310 2306 1759 0
-3286 -2146 -2028 0
-397 4485 3840 0
-1277 4330 1655 0
4879 1600 -3482 0
2171 -3424 887 0
-2889 1044 -984 0
-3917 697 806 0
1759 -3360 -828 0
1767 -3713 -2304 0
4623 -376 2315 0
673 406 2401 0
2051 -4759 -852 0
2192 -284 1634 0
-4119 199 -567 0
4864 1827 4142 0
3336 -4764 -2865 0
3463 3885 -1244 0
-655 2337 696 0
-2726 2213 -4848 0
-4713 -2371 3645 0
-256 -2996 2505 0
-3727 -539 -771 0
3380 -2914 -4820 0
-549 -2723 -1900 0
2129 -821 4052 0
4862 1909 -1781 0
1716 2739 -2748 0
-2705 1838 -2664 0
-206 -3149 -2333 0
-2884 4627 -3847 0
-2303 -2035 2625 0
-336 1814 4855 0
3136 3396 -1841 0
-2405 -4107 -2324 0
4343 -3593 206 0
-2598 75 -1197 0
-4908 1382 1076 0
2586 -452 -2894 0
770 -1266 -1267 0
4309 -3463 -4623 0
3562 -113 -4035 0
4405 -3165 3227 0
-3188 583 4860 0
4846 -435 -3155 0
3469 4833 3632 0
560 1883 -1770 0
3351 -1327 -2669 0
-4170 -3475 948 0
-489 4592 -1339 0
877 1011 -1164 0
381 -168 -1196 0
-4676 -3391 4673 0
-4828 1483 -1144 0
824 4326 863 0
-4275 -4232 591 0
-941 -2641 -2552 0
-531 -2450 4827 0
-359 -2407 -3927 0
1505 -3627 3118 0
2755 -3598 3321 0
-3447 -747 4882 0
1942 3469 -204 0
1595 903 1940 0
2399 -535 -601 0
-1974 4270 -2615 0
1286 1231 -3946 0
3120 70 4764 0
1999 4783 3310 0
3296 -4502 -3248 0
2354 2178 -3216 0
-2448 4053 1733 0
-1605 -2392 -638 0
1260 3346 -346 0
4262 2415 1640 0
3128 4174 -2790 0
1946 -4146 2925 0
1785 697 -2644 0
-3603 -4749 -4983 0
-352 -1591 4334 0
227 2799 -1715 0
2252 3304 -1798 0
4721 1460 -1720 0
-3892 -1616 2398 0
141 -866 -2068 0
2470 2828 3018 0
-1687 -2992 -902 0
2935 -3961 4329 0
2206 -2575 -1639 0
-1991 -2883 2213 0
4180 -3062 672 0
1021 -1807 -2674 0
-203 -4312 -392 0
287 -3509 -1735 0
-1631 -3696 4479 0
4332 3547 4583 0
3725 -4007 -2146 0
-4743 -2997 -2470 0
4443 -2994 440 0
-1024 -3050 2738 0
3005 1841 -2043 0
-3814 -4051 965 0
2078 3925 2884 0
4909 4240 -166 0
3509 -4761 -2282 0
4896 3424 4680 0
-2684 -1755 -3011 0
-2047 3089 1148 0
4969 4505 -1317 0
4688 -3476 2460 0
-3854 2828 -770 0
1122 -4525 -780 0
-1186 -2673 2109 0
-3310 3092 3465 0
-3128 -4698 -3386 0
-2331 4047 4235 0
130 1898 4332 0
4277 908 -3757 0
-3032 3253 1804 0
1932 -4617 2620 0
345 693 4656 0
4763 647 1068 0
4728 208 -984 0
631 2281 3578 0
-4602 4152 -2970 0
-3807 -570 2474 0
1103 3872 3260 0
-4743 81 4633 0
2321 -838 -521 0
-4505 3339 -4276 0
1487 1112 2649 0
-2647 757 1334 0
-1203 2481 -2393 0
4257 -2991 -3157 0
-1495 -3996 -2561 0
2087 -748 -1208 0
4674 1169 17 0
-2653 4587 1879 0
-4775 -681 -1971 0
3748 763 1691 0
-3052 4812 4905 0
4151 949 -672 0
2956 4337 1609 0
4590 -1751 -3644 0
-4590 -1778 2160 0
-88 919 931 0
-4347 346 -365 0
929 -3361 4249 0
1796 4722 4706 0
-2526 3528 -4789 0
3141 1462 -2118 0
3118 -478 2696 0
-3863 2716 2664 0
-2208 -4158 77 0
-423 -3628 -4763 0
-426 -4014 -2981 0
4462 970 4242 0
-2729 3056 -3278 0
-4965 -3253 202 0
-3209 -2312 -4031 0
-1230 -4894 4491 0
2271 -2593 606 0
-2701 -2623 -2753 0
1957 -4790 -548 0
3235 769 -32 0
1352 1454 693 0
-2018 -4292 -661 0
851 -4523 1434 0
1965 -2091 2819 0
-2302 -1481 4078 0
1301 -642 3235 0
2376 4614 1591 0
2535 -2644 -317 0
-2859 -174 3197 0
3551 -430 -199 0
3674 -1901 -3460 0
1169 -3665 -1427 0
-3920 -642 2329 0
4477 3662 4238 0
912 -896 -4919 0
-1506 -22 1458 0
95 4597 -3932 0
-963 -3521 2636 0
4350 1614 -296 0
-3810 -1999 814 0
-490 4261 -1207 0
4019 -1238 3713 0
1530 4720 1230 0
-4971 4421 -685 0
-248 1777 -4986 0
981 -2185 -1853 0
-1542 -211 -2868 0
-2646 3942 1430 0
-2551 -1633 -4725 0
1575 -2834 -4322 0
2933 617 -3965 0
3561 -1784 347 0
-4227 -2598 1502 0
709 -1076 -3954 0
-1544 -3850 769 0
490 -1669 4744 0
-3571 3775 1644 0
-752 3596 3959 0
1560 4963 392 0
2958 -4145 1731 0
1233 898 2729 0
-3498 2921 1202 0
-680 -2076 -463 0
4416 -127 -3955 0
1774 -1621 -2769 0
4610 -3839 1031 0
-4045 4988 3091 0
-3788 -1126 3327 0
4236 -1364 3009 0
1892 2006 -1252 0
4927 205 858 0
-4306 -1710 -2510 0
-4381 3823 3717 0
4507 3293 4175 0
-1130 -2440 -3504 0
-4316 2134 -3578 0
4300 4469 -3672 0
944 -603 -2692 0
-4098 229 1793 0
186 416 -3726 0
2267 3875 2709 0
1080 3291 -208 0
-2763 -4815 1473 0
3415 -4444 2278 0
3437 -4406 -1940 0
-1318 609 1284 0
3144 -931 -515 0
800 4839 -2176 0
-1082 4552 -491 0
577 -807 3353 0
3563 2358 1953 0
-1599 33 3595 0
-183 -3376 4340 0
-1383 3188 -3387 0
1737 -1460 -2552 0
-3070 4141 1523 0
3751 -309 2902 0
1868 -4729 -4020 0
-4765 -4590 -855 0
-1628 1617 2829 0
4602 -4764 -2119 0
1597 3189 936 0
62 -438 841 0
1884 -4168 -177 0
3416 -288 -646 0
4561 2603 3140 0
566 1469 -1536 0
1357 -2755 1827 0
-3164 -3506 2647 0
-1651 649 -3659 0
-4456 4761 2977 0
-1541 198 3459 0
-2012 -221 -3851 0
945 3675 4137 0
-3542 -1735 4079 0
4081 -3907 3207 0
2426 -4166 -2226 0
3018 1337 -2756 0
2186 3121 2990 0
1709 2340 -3627 0
-640 -2970 944 0
4148 -3681 2362 0
4635 3493 -73 0
4824 147 -2119 0
2426 1232 1231 0
-4259 1833 2402 0
484 3115 3370 0
-4628 -3567 1312 0
1795 -2928 -478 0
2455 2673 -1266 0
-3335 -786 4802 0
-634 -988 -4546 0
188 -4354 1931 0
4450 -140 -4667 0
-299 3388 -3056 0
-4417 -1959 4334 0
-1607 -3519 4348 0
-3683 2843 -4626 0
2772 -718 -2966 0
-3127 -1035 3163 0
92 -573 -1477 0
-1246 1945 -2941 0
-3896 -460 3280 0
4318 -4328 1573 0
-2823 2361 1669 0
-660 3360 -801 0
-4272 3246 -3775 0
535 -3134 -4910 0
-3431 -75 2358 0
-2438 -1881 -2849 0
-3492 -3889 -815 0
-3255 -4560 -2693 0
-4029 -2750 -923 0
1395 -4831 -187 0
3346 -4216 564 0
2111 2316 2298 0
3084 -3454 2590 0
-389 1165 -2071 0
-4437 1390 -4679 0
3 -3987 218 0
-3537 -959 -3551 0
2651 -461 3229 0
-1517 -2512 3304 0
4316 4457 2459 0
-1658 -1279 4781 0
-31 -3408 3963 0
-2322 4453 -736 0
4931 3883 856 0
-2031 -2503 4788 0
2290 3913 159 0
-1056 1791 -3859 0
1449 3211 1567 0
-4542 179 -3621 0
-2623 2405 2678 0
-3138 3074 -3575 0
3210 -4779 2788 0
-4162 -2010 2065 0
-2538 227 4627 0
2918 4968 -4035 0
614 -2857 -3137 0
4163 -1927 -1579 0
114 137 -1896 0
-1240 -527 257 0
-840 -1378 -4769 0
-56 2840 1289 0
2836 -1325 -3059 0
-3428 2920 4148 0
-3954 -4738 4441 0
-1300 -2487 3494 0
1218 -1198 560 0
-2488 3492 -797 0
3447 1664 -1207 0
-3612 4737 414 0
-1656 2789 -3056 0
-4503 -1861 4351 0
655 4613 -1220 0
-3034 4517 666 0
3649 1427 3434 0
-4609 1848 -1307 0
-1501 4527 1497 0
-2173 3945 1916 0
4021 -794 4774 0
-1687 -175 4463 0
-511 3573 4325 0
69 -2963 2079 0
-1490 4018 -3375 0
-795 -3883 1877 0
2028 1579 -1197 0
-4497 665 2307 0
3355 712 2729 0
1358 -1734 -3740 0
-2516 1176 323 0
910 -1 -3157 0
-1357 2566 4030 0
3531 291 -3977 0
1284 1000 1989 0
-4311 2040 -6 0
-3819 -2662 3001 0
4535 2769 -3257 0
-1414 3219 -3208 0
-1947 60 -4502 0
3620 -4356 1326 0
-2962 3951 920 0
-1295 -608 615 0
1429 -749 2363 0
-3786 -438 -271 0
-1818 28 2869 0
-1868 917 -3149 0
-2519 2563 4785 0
-1711 1861 491 0
2795 -632 2923 0
2584 594 -3421 0
4634 405 -968 0
-3037 3078 -4419 0
3199 2439 -2421 0
994 3472 -4690 0
3814 -2682 -1717 0
-3104 2282 -4707 0
4346 -1523 -3541 0
-3863 1358 72 0
-1933 -1140 4113 0
860 2901 -497 0
1170 -890 -3467 0
4446 4143 4035 0
2546 -592 4128 0
1432 -4302 -999 0
1857 -3182 343 0
-115 3172 2024 0
2055 -2354 3693 0
-3077 4403 3934 0
-1853 -3877 4062 0
-2784 -4759 -3357 0
3758 -3168 2363 0
-3971 -2100 -2663 0
1247 3339 3912 0
3753 -1742 3530 0
-1514 262 79 0
80 -3464 -3015 0
4911 1680 -1186 0
194 4479 746 0
-4510 -2588 -4884 0
-3147 -2119 -2635 0
1134 -2100 -4753 0
3906 -606 -1974 0
-1112 -2347 -4224 0
-378 -3675 -3587 0
-386 -2861 4901 0
-818 370 3502 0
913 -833 4455 0
-4689 4613 4619 0
2218 1290 -3267 0
-2777 -1776 1466 0
-3806 -1162 182 0
-1625 -3466 -726 0
-2050 3457 -3806 0
1516 -4552 -1246 0
3825 -1930 3740 0
-1283 599 4290 0
255 -2298 7 0
-2368 3565 3490 0
-2021 1459 -123 0
4771 3965 1186 0
-2805 2396 -4382 0
4900 -2332 3032 0
-2209 -2014 -3635 0
55 -2688 -4162 0
2812 -3550 171 0
-4636 -4340 1523 0
-4863 3217 2564 0
2784 4983 1075 0
-2644 -4887 -1976 0
-3768 -3010 417 0
-4283 -3564 -1957 0
2391 2751 1411 0
-1457 2047 -336 0
301 -674 -2636 0
-3008 -925 4074 0
2621 -4451 -4782 0
2852 3304 -3866 0
-1799 2576 -2212 0
-3989 4413 -1821 0
-1115 4433 -1003 0
1311 -2095 2724 0
1767 -406 2936 0
-2151 -337 -2667 0
-465 4325 -2762 0
-1911 2763 -3476 0
-4825 -865 4441 0
-3094 -4595 2222 0
3544 -4313 3406 0
-3684 2717 1290 0
-1988 948 3073 0
-1291 4510 1276 0
3544 -3046 4132 0
2170 -1437 122 0
2760 836 2138 0
1367 -3480 -2792 0
-4259 -827 -345 0
2613 -947 -2215 0
-4537 -687 -2658 0
-3653 626 4402 0
3498 -225 -2469 0
-3657 -542 2644 0
218 -3502 196 0
-3436 -981 1462 0
-381 -600 -3006 0
921 2044 4076 0
549 4779 3131 0
3336 -3413 704 0
4641 -2170 2745 0
129 -1781 -3671 0
-4910 3610 1901 0
1804 4365 2560 0
2067 -1758 505 0
2562 99 3317 0
3520 -402 -4865 0
-3015 -4095 1684 0
-1049 -4938 1740 0
-2105 -4103 -1849 0
3528 -1117 2265 0
4781 -1327 2436 0
-3231 -3777 -2478 0
-80 683 1428 0
-4534 1086 1597 0
-1623 4237 -1080 0
1096 -1331 -1577 0
3912 2720 489 0
-4548 -4283 -132 0
2638 346 -3773 0
1730 -3213 3950 0
-4406 -3205 2366 0
-4634 4252 -470 0
2127 -92 -4984 0
-2527 -3007 -477 0
4298 -3292 3195 0
3708 -3055 -3520 0
-2219 -4387 1556 0
2307 -2468 -852 0
-1180 4902 -3220 0
-654 -1217 -1071 0
-2835 -4898 995 0
4877 -1779 3080 0
2781 -2940 -728 0
4590 3798 -3935 0
-489 1190 -2915 0
1650 2424 3857 0
-4994 2953 -2465 0
-3813 65 -1838 0
-895 323 3742 0
3162 4163 3787 0
2342 3366 -683 0
-1614 -628 3317 0
435 -2498 3445 0
-458 857 -4087 0
-1553 3464 -1620 0
2120 -2695 2220 0
803 977 -312 0
3375 -3724 778 0
-2841 580 -2406 0
3552 2152 -3754 0
-2775 53 -3386 0
-1866 -3466 4945 0
-1854 -2429 348 0
1505 3427 524 0
3521 -2043 -4615 0
1730 2852 4279 0
-4034 -3107 -4021 0
1254 285 -370 0
685 -3735 3189 0
4829 -467 1260 0
3263 1760 -2445 0
-4303 4277 -3586 0
3311 -4591 -329 0
-2999 -2339 1889 0
-2623 -1370 3396 0
3252 -2315 -2362 0
-2089 -2654 -818 0
-4198 3779 -4118 0
-3486 -4818 -313 0
4717 1986 -4099 0
-3641 1698 -3513 0
4866 3209 -4449 0
-264 -275 3813 0
-3433 4260 1333 0
1007 -1157 -1786 0
3117 -3919 3824 0
2267 471 1659 0
3566 -560 3096 0
2303 4734 -4869 0
92 -8 2914 0
2818 4223 3622 0
-4421 -2882 3332 0
-3903 4874 -649 0
4608 1470 -597 0
4816 -447 3992 0
-1945 1882 -1969 0
-3245 4629 257 0
-182 34 4590 0
-3222 -2832 1382 0
1835 -1847 418 0
2190 1717 -2844 0
-2591 -4592 -2128 0
-414 -1758 -4752 0
-3413 -3092 1832 0
-635 2847 2916 0
-2916 4921 -3543 0
-875 -4639 -4982 0
3519 -2009 4097 0
-2946 -2037 4814 0
-4090 -4634 1048 0
-1306 4824 -2391 0
4948 1227 -4929 0
-2870 -4172 4889 0
2594 -1951 108 0
-3221 -4118 -1671 0
-4118 -2488 -1201 0
1622 -2378 4306 0
1811 3132 869 0
1049 1691 -154 0
-130 3844 80 0
2839 -4953 2243 0
-1210 -2786 -2734 0
-1013 2563 3602 0
2577 257 937 0
3313 -182 -142 0
3535 3303 4773 0
-48 -3106 1660 0
-773 -933 -1744 0
2913 187 3078 0
4895 2043 -3555 0
2783 1633 2065 0
-3782 -4720 -4704 0
-1513 1769 1740 0
1517 -4748 2104 0
-2209 113 -802 0
646 3993 2891 0
3096 -2331 4604 0
-568 283 4922 0
4873 3671 -3709 0
4202 898 -154 0
-2107 -3619 4434 0
737 -3522 3651 0
-3771 4262 -1132 0
17 1511 890 0
12 1953 -2443 0
-1724 3116 3312 0
-2641 3186 -2607 0
-3373 -2451 3275 0
1986 -1105 -2727 0
3889 -3480 -2531 0
964 1650 -2297 0
-3416 272 1579 0
-559 2302 -250 0
-4351 -595 -3540 0
4231 -2474 -4773 0
-581 -2891 -1510 0
279 -4256 -2353 0
-4976 881 4797 0
-2809 -4472 4538 0
-638 4059 644 0
-2365 4316 -3777 0
2963 -4523 -602 0
388 2903 1390 0
-551 -940 -2149 0
2962 760 -2645 0
-2849 1358 2383 0
2286 692 2338 0
3460 3980 895 0
559 -3279 2090 0
1851 4351 -4424 0
2266 3750 -1546 0
-2848 -2152 3298 0
-1948 618 -413 0
4402 -4733 1078 0
-2935 -3787 -4370 0
3064 3266 -3584 0
229 4935 4539 0
-955 -1744 -4352 0
256 -200 -3030 0
-3136 3425 3537 0
1461 -1061 1277 0
-4966 1214 4440 0
3510 -3646 4754 0
-2706 -2321 1235 0
1802 1397 681 0
4543 915 4540 0
-2933 -3585 -4301 0
4976 -2089 -3060 0
-1078 -4492 -4479 0
1184 -2651 -2110 0
-3253 1400 -4967 0
-3121 -2299 -1106 0
918 4150 4788 0
4911 -2413 -3160 0
2662 -743 -284 0
-4902 -476 -1117 0
2045 417 1674 0
1193 2008 2488 0
3691 2759 3198 0
1494 -4979 4866 0
-2646 4089 -2795 0
-3221 1984 -3297 0
-186 -2505 -2035 0
3650 -879 4436 0
3851 -1978 -630 0
1568 3945 3348 0
-4694 2471 1313 0
3238 -3658 -3356 0
-3724 2828 -4822 0
3861 -2453 1893 0
3153 -2715 2071 0
-609 -695 880 0
782 -2575 4612 0
-2754 -4921 -3126 0
-4233 -2354 3684 0
-4998 -3189 -2171 0
3757 4111 3347 0
3100 2296 4023 0
-902 -2897 3673 0
69 3200 -1668 0
-4956 -2554 -1201 0
-4572 1648 -1338 0
-1545 -814 -2369 0
-3199 2835 -3134 0
-4746 545 -2121 0
-3891 3137 2787 0
-159 -2990 -645 0
-4548 4687 -2399 0
1803 4869 -4959 0
-1015 3475 2114 0
2177 4943 3966 0
2913 2911 -3939 0
1349 2757 -2157 0
2151 2518 -3236 0
-4315 4591 -1620 0
2418 -136 2532 0
-678 2540 -4994 0
-2123 -722 4739 0
2359 170 2224 0
-331 -181 -1048 0
-1116 -1050 -1826 0
430 -954 1740 0
-3250 4153 4470 0
940 -431 -841 0
-3483 1319 -767 0
555 -652 4013 0
2560 3875 2545 0
4746 1261 2120 0
-2599 -3513 1787 0
1502 912 -3259 0
1568 -364 -4791 0
-1246 4399 1934 0
1842 -3023 4740 0
-3870 3620 -3720 0
-4910 4695 2731 0
2900 1365 1250 0
-2902 -1354 -1070 0
4988 -2211 -2100 0
-1764 -3657 -1107 0
1188 3627 -4986 0
-4141 2724 -1941 0
2095 4078 4550 0
-2579 -1257 -4256 0
2498 -4544 1197 0
1357 -2860 3437 0
-2530 -1047 3505 0
-928 4673 547 0
-2566 2547 -3851 0
-570 -4336 896 0
-237 -2549 -2338 0
-1256 2838 -4367 0
2289 3625 2484 0
2491 -2390 -148 0
2116 -3298 2837 0
719 -723 2760 0
-3935 225 4084 0
1330 1516 -991 0
3692 -4510 -1546 0
1883 1208 -665 0
-4219 2159 4638 0
333 -17 -2517 0
-2805 -518 3915 0
-876 -3494 4831 0
-587 -3368 1924 0
168 768 3744 0
225 2463 -1286 0
615 -724 -1672 0
3259 4857 -3249 0
184 2996 2770 0
-1131 3903 -558 0
-4472 -917 1691 0
2934 4390 -4993 0
617 4518 335 0
4626 -3109 4944 0
4999 -2331 1079 0
2962 318 2779 0
-3337 -1425 4233 0
-941 -2956 1594 0
4802 -3586 4642 0
-2898 3191 -1090 0
1967 1791 4005 0
-674 -1069 -580 0
4783 -4477 -2040 0
-3405 -164 1646 0
223 -4770 1819 0
-3125 -1672 -4278 0
296 -4861 1660 0
-102 -1681 3663 0
2481 -3996 -2505 0
-2996 1102 -2344 0
3459 1235 4801 0
-1269 1608 2414 0
3736 -4913 -1263 0
-2128 3730 1417 0
-582 2058 -3445 0
3396 -3576 3316 0
2153 -3052 4366 0
-4821 4857 4640 0
-2619 2485 4009 0
-1795 2653 4036 0
2049 4447 -1644 0
-3176 -1823 3823 0
3374 2783 4852 0
499 -4528 731 0
4592 -1978 -4344 0
638 1485 3403 0
2458 858 4148 0
4565 -3503 -3699 0
4735 -1841 -4355 0
2770 1210 727 0
2951 -3480 291 0
1142 -2762 1085 0
4216 -3916 -1377 0
2677 -3437 -936 0
3913 -1059 1653 0
-962 4032 3246 0
-2074 -610 -4865 0
-17 -431 2655 0
3959 -2711 -4161 0
-2532 -4697 -50 0
-3583 1538 3419 0
1918 41 -3449 0
4507 -257 3669 0
541 4051 2976 0
2764 1895 3786 0
302 1439 -3593 0
-3872 -109 2195 0
-1249 -1254 707 0
-92 -472 -1480 0
1151 3717 -1039 0
-433 1390 -3104 0
-4113 -1689 -4549 0
1393 3939 -2087 0
3520 1387 2624 0
1541 -252 -4371 0
-4773 -509 532 0
-2592 4865 -2150 0
-2452 1148 -1372 0
-1447 -3664 4800 0
945 -1295 -318 0
3153 -125 4471 0
-4336 -3822 -2668 0
4644 4585 -3104 0
3987 2927 -446 0
1679 3373 -88 0
-4107 1104 866 0
842 -2146 38 0
2803 -2369 -3207 0
-1158 -95 598 0
-304 4790 1633 0
-162 -2874 1466 0
-619 -3308 -4759 0
374 -2711 4121 0
4248 -1341 3320 0
-602 3884 -3629 0
1154 -3301 -2817 0
-3191 4059 4690 0
-1737 -1424 491 0
-4350 339 -1304 0
2921 4527 3525 0
337 -1914 736 0
3209 -4181 -3761 0
-4498 2454 -3557 0
-1492 -2408 1320 0
1105 2321 2478 0
1958 1318 -842 0
-54 -4057 4620 0
3547 -77 3017 0
-4272 -4982 -2064 0
752 2761 -2751 0
-4696 946 3518 0
-2895 1713 2339 0
3710 2952 1297 0
-4283 189 3235 0
3628 -1430 -4658 0
799 2620 4836 0
-398 -2726 3555 0
-2146 988 -590 0
4722 -2086 -4727 0
614 2658 1289 0
3413 -21 1672 0
541 -4405 679 0
4851 -2421 3284 0
387 -2466 1488 0
584 -271 3528 0
-1796 -399 631 0
-2252 -989 3125 0
-3937 2807 3096 0
-1782 3785 -2506 0
403 483 -2462 0
-4052 -3460 3359 0
-2010 4370 -280 0
-1000 1 907 0
-179 2201 1705 0
-1362 2750 4889 0
-2374 -4602 2271 0
3964 -4667 3874 0
-2842 1028 4492 0
4435 -593 -3910 0
4089 -2762 -11 0
3210 -2475 1850 0
-1386 1515 4928 0
3382 4905 1082 0
-1149 4104 2071 0
-2611 2736 3155 0
-3142 -1645 -1218 0
-1042 4690 2150 0
3976 -2940 -2135 0
3249 2100 -2421 0
1518 2070 -565 0
3321 -4890 1759 0
485 -4663 -927 0
3363 1178 -527 0
-880 -3652 1470 0
4460 568 503 0
4902 -365 807 0
-2002 3739 3485 0
-651 983 -244 0
1766 -2120 4569 0
-4058 -3290 1748 0
220 2496 -238 0
4440 -1661 4159 0
2694 3816 -3694 0
-2540 -2850 2177 0
-2314 1704 -4732 0
-4371 3856 -2126 0
1592 2935 845 0
-1065 2843 -2872 0
3707 -2917 3749 0
885 -3108 -4274 0
-1768 4179 4221 0
460 4407 -1177 0
2332 -3407 -2625 0
-3250 4932 308 0
1584 -1822 203 0
-2203 -4377 3617 0
4146 -4198 -4447 0
953 4659 -4385 0
767 2489 4465 0
2330 -308 4286 0
-3182 -3120 3445 0
-2918 -4562 4279 0
2388 -1101 2252 0
4228 -3300 4149 0
-2018 -3804 -847 0
-2924 1324 4472 0
-1633 -4587 4433 0
2944 -4083 1497 0
-1692 2329 -3266 0
1925 3305 2110 0
2701 748 4862 0
721 -3526 2143 0
-4012 -2126 2831 0
-509 -1324 27 0
149 1887 2462 0
-1748 2787 2594 0
3464 -2222 4264 0
-3747 -2518 4922 0
3134 -121 3101 0
-4227 807 -3102 0
-663 -3570 -3376 0
4280 -4918 -2241 0
-3289 2674 -1390 0
394 -3084 -4306 0
-2696 2857 -818 0
1220 -4359 -909 0
-3216 803 379 0
2704 -3472 1829 0
-2903 2322 -2366 0
4250 3000 -130 0
2906 293 -826 0
1437 -3151 -4928 0
2769 -1216 3334 0
3402 238 -4643 0
126 2811 982 0
-4582 2323 -2266 0
-3220 2587 -1688 0
-1537 -3504 -3745 0
-2624 -1095 3489 0
-3850 -3169 -599 0
4726 -851 2959 0
1926 -3167 -2068 0
-265 3521 308 0
-4011 4181 3986 0
-901 -3298 -3180 0
-3451 391 3049 0
42 1768 4589 0
-3365 -2062 -914 0
-3473 -3817 -2201 0
-3197 4661 -2050 0
-1380 2109 -3953 0
426 4173 3185 0
4760 1022 -3840 0
1807 4533 -505 0
-88 1239 4715 0
-499 -1358 -4592 0
176 -2866 -445 0
965 400 1830 0
-174 2676 4969 0
-1770 -3441 2340 0
-2153 -966 754 0
-795 4 -2164 0
2615 -1535 -1681 0
1308 4422 -3767 0
-1394 -1168 894 0
-3725 -4394 -4712 0
-1706 1663 -2163 0
-4736 3466 -2874 0
-60 -1183 253 0
-1186 4290 2631 0
-910 3887 -549 0
-2656 -1781 727 0
1125 -4638 -1716 0
-4376 -3360 -4723 0
-1957 -4933 1758 0
125 -4559 1597 0
3806 2950 37 0
948 -1408 1672 0
-3700 -4710 -4850 0
3975 -2626 -2711 0
1667 -4505 -639 0
-2033 3533 1165 0
513 -182 -3909 0
1468 -4731 3195 0
3368 4588 -1910 0
764 -3435 96 0
-3064 -4748 -4833 0
3295 2174 -1042 0
-734 -983 -4166 0
-4466 -640 -2348 0
3848 2805 3776 0
1144 4021 -2090 0
4902 2309 331 0
-3801 2904 -2045 0
2999 2633 2103 0
3198 1954 -2408 0
3976 3599 2895 0
-2630 1719 4989 0
4976 -3454 313 0
-1760 547 4398 0
-2233 1896 -780 0
637 -134 -2839 0
1734 258 -4724 0
3381 -778 794 0
2198 -969 3614 0
2876 -3946 -312 0
-4661 -847 2703 0
-2052 2606 -2263 0
-2231 375 3998 0
3323 2280 1123 0
359 684 590 0
1739 240 -2788 0
4687 131 -4690 0
3565 295 3718 0
-939 -4534 2475 0
3919 3894 -1399 0
4173 -807 -3131 0
-151 -1043 -3853 0
1943 4807 -1914 0
557 -883 -1513 0
-2849 2460 691 0
-873 553 -2439 0
3668 4481 -1814 0
1523 -1086 -403 0
4560 -1862 1344 0
1008 327 -1103 0
-455 -410 733 0
4147 2724 -4528 0
-819 664 3036 0
3723 -2877 1849 0
1768 386 2676 0
-2510 877 -896 0
4932 -2555 -2237 0
2618 364 -1883 0
-4683 -3906 2264 0
1604 1457 -4214 0
3714 -1372 2969 0
242 4397 2950 0
2939 -2352 530 0
1313 -1772 -248 0
3753 -4150 4213 0
-3494 -4305 1128 0
2195 3284 -2122 0
727 -1658 4628 0
3730 -4620 -4913 0
-4107 -2087 688 0
1616 1885 657 0
893 -188 616 0
3123 3033 -4633 0
2658 -3166 1546 0
3919 -877 2510 0
-882 2738 4280 0
4399 1460 -3602 0
-4276 -4471 3762 0
-1031 -2934 -1228 0
-739 2816 4982 0
-2822 -4883 3456 0
-2826 1738 2914 0
-4409 2044 -1007 0
-4953 -3789 3777 0
-3145 440 -1786 0
-4922 -2348 232 0
868 3907 3970 0
-2300 -1855 -3331 0
-2691 166 3884 0
-4026 336 3470 0
2975 2604 1595 0
-3845 -1982 -3478 0
-3699 97 194 0
-656 3830 2566 0
-690 3377 -4728 0
2269 -4608 4857 0
-1546 2114 882 0
-891 4863 -1924 0
-616 -3619 3300 0
-4977 -1201 -1467 0
3213 4728 4641 0
-4506 -1696 2083 0
798 2981 -3129 0
586 -2664 -249 0
2861 -1223 146 0
4979 3019 632 0
-1044 -3396 2662 0
4767 -3906 -1146 0
-4762 1514 4350 0
2205 4246 -4623 0
2776 -2528 2318 0
189 -2887 3729 0
2701 3520 -216 0
-4506 1765 -2582 0
-1202 257 -2469 0
-4703 2538 33 0
2017 3991 4274 0
4813 -2878 -3155 0
-2593 -2978 -2222 0
-3457 3483 1117 0
-3661 -3320 -3472 0
-4352 3857 -1863 0
-1449 -1668 3414 0
-576 -3682 -1786 0
3517 -4531 -753 0
-1086 -2274 1617 0
973 -4658 -3943 0
-2423 534 -3106 0
1715 1612 1700 0
1677 972 4010 0
-4768 -585 2668 0
-1793 -2450 -368 0
-4493 -2437 -3334 0
451 3733 -1938 0
3219 1871 1684 0
-3336 -1436 -528 0
-2247 -1096 -4195 0
2651 590 -4507 0
1215 -2969 -1321 0
3962 149 -4915 0
-2402 3674 4765 0
-4124 -3063 -886 0
418 -2927 -4698 0
-1467 3205 -3108 0
-3839 -63 3906 0
4065 4537 3681 0
1145 -4843 -2049 0
-2745 -814 -853 0
2394 2134 -4667 0
1704 -3511 3143 0
-995 -4643 -3501 0
-1617 3341 -2013 0
4337 -2740 -1685 0
-2840 -2934 4063 0
-2531 -1511 2790 0
4278 -4436 -1717 0
4542 2454 4413 0
2698 4072 -2096 0
2934 784 -4251 0
3489 4019 -3726 0
1962 1374 3428 0
1455 1178 1913 0
1982 -4585 507 0
42 3663 3354 0
603 1019 1462 0
4583 -810 2277 0
-1260 1906 -3429 0
-355 2378 -657 0
-1174 -3632 4459 0
3844 -4708 -617 0
2381 -1118 -2 0
-1575 2712 -3922 0
548 1106 4660 0
3978 3906 4785 0
708 -3540 3516 0
-4918 1019 2472 0
-2672 -3140 -28 0
-1926 -3276 -1300 0
168 2218 -3212 0
-4541 -2794 4695 0
-4414 -3608 -1739 0
-617 -1202 -2803 0
4936 -1564 4583 0
-2807 2539 -859 0
2638 -3239 4445 0
-1137 4448 625 0
926 -4350 -2585 0
-419 2996 907 0
874 -3666 -2250 0
-1339 -4369 437 0
-2334 4334 -588 0
1545 -2156 883 0
-2873 2140 4566 0
-3551 -2508 -217 0
2560 -2099 -4577 0
-2869 3965 1461 0
2012 3052 -2613 0
-3919 630 -3699 0
2323 -3619 32 0
4501 -5000 834 0
-458 -3367 -1697 0
-2396 -3195 2896 0
-3143 3415 -350 0
-727 -4081 269 0
-1270 -2947 2315 0
-3725 -4714 -4432 0
4338 -222 -1257 0
-3801 4994 -3715 0
-1028 1090 1037 0
-3124 -2269 1048 0
-1686 2872 1488 0
2155 -3164 3752 0
363 4619 4528 0
204 1882 -1426 0
-1963 2437 -3041 0
3923 1011 -2339 0
-3744 3668 4670 0
2730 3558 229 0
-1429 -156 -1212 0
-2359 -1327 -6 0
3333 871 -546 0
-3961 3386 2871 0
3913 3271 1894 0
489 1326 -3388 0
-92 3545 882 0
491 1882 -1228 0
2153 -3695 -2258 0
-3434 1800 -4522 0
3677 1573 -499 0
4195 757 -3420 0
-4797 733 -4662 0
-2936 -3884 -1538 0
-1408 1070 426 0
3073 -1179 -1166 0
1472 -2593 925 0
-3308 -1913 2978 0
-1419 -4418 -1459 0
-1769 97 3871 0
3246 -1964 -801 0
1713 3545 -3800 0
-1356 -2318 4397 0
3415 388 -3545 0
-3034 804 -2871 0
-2825 3036 -4224 0
2693 513 2646 0
-2146 -1045 1974 0
-3841 4013 4781 0
1260 2439 3724 0
-1590 -2122 -3102 0
-4528 -2503 3412 0
-3479 4171 -180 0
2318 -4016 -3654 0
-3870 -2464 -688 0
890 -327 -1510 0
2883 4911 -2505 0
-1636 1730 -139 0
-843 252 -4528 0
3996 -32 1866 0
-1792 -3409 976 0
-3964 2657 -897 0
3821 2909 726 0
-980 610 3766 0
-2918 141 1583 0
-4738 2616 1777 0
-525 2514 -547 0
-3041 -2941 1433 0
-3681 2096 4888 0
-3435 -3167 3644 0
-203 -4177 -2860 0
-1187 -637 -3756 0
-4694 3842 -3319 0
-829 1137 -2759 0
2589 -3495 2392 0
-976 3145 2498 0
1942 -3159 520 0
-1737 -3752 2034 0
-4864 -1190 3964 0
2410 -418 -4765 0
-4154 3459 -4291 0
-2981 -3899 -1679 0
-4752 -4348 4175 0
-3196 -4099 1414 0
-1708 -1780 3366 0
-1936 -1233 1105 0
-4912 -1017 -4979 0
-1078 1865 -1833 0
-500 -2438 -880 0
206 3014 2236 0
1137 -2056 1145 0
609 2889 3795 0
2511 3647 -661 0
2257 3822 4005 0
-181 1434 1387 0
-1070 -2775 -3289 0
1439 -1739 -4214 0
920 4856 -2803 0
534 2374 4121 0
1847 3198 3666 0
1475 4573 2075 0
4330 -1522 -4415 0
-3533 -276 -4480 0
4687 -945 -3081 0
-24 4413 1662 0
2333 114 -4795 0
243 4449 1693 0
4157 -159 2699 0
1811 -4814 -1987 0
1928 -4286 -4960 0
734 2360 -1410 0
-3122 -3769 -4627 0
-2345 -3382 4425 0
-2306 -2305 2061 0
1785 2688 3307 0
513 -3330 -3152 0
-3044 -3228 -2173 0
-3865 2360 -3521 0
4897 2319 691 0
-1300 -2472 1715 0
4485 -3759 250 0
4180 -3363 -983 0
-369 -2183 3735 0
3353 1207 -1641 0
-2691 -11 3524 0
4313 -2193 -879 0
-2236 -2926 -2024 0
-564 4538 340 0
-4340 -3448 -1669 0
-4244 3349 3271 0
-1706 -4363 1645 0
-1646 -1204 3336 0
4675 3640 2894 0
-3917 3496 3775 0
-1042 4579 2982 0
2039 -4651 -1480 0
-1574 1533 4309 0
-3030 -2022 -2941 0
3657 3003 -2766 0
329 -3920 -3319 0
2059 -2946 3566 0
-2849 4829 4982 0
4538 930 800 0
3431 1812 -464 0
-4855 -545 -3497 0
-2876 -2565 178 0
803 -1204 -2327 0
3863 -4607 2254 0
-4663 -320 4964 0
922 4764 1842 0
-4073 -1502 1932 0
1089 -841 -2343 0
-4352 -2848 2279 0
-1515 1742 4056 0
2898 1603 1529 0
-2345 3447 1285 0
-260 -732 3721 0
1507 1554 2731 0
-4104 -1660 894 0
-2799 -29 -802 0
4266 -2680 -4878 0
4772 -1312 4177 0
4024 -1078 -3365 0
-4776 -3464 -3474 0
4968 4473 2524 0
4278 -706 -1716 0
-4260 4635 3600 0
-4819 4277 -1920 0
-3746 2222 4575 0
4808 -4827 3523 0
-3342 -4550 3047 0
-4163 5000 3141 0
-4545 -2197 3649 0
-1554 -1749 -445 0
1430 2061 3821 0
-2277 4969 3375 0
427 -31 -4798 0
1140 3346 2524 0
-4954 1155 -3860 0
-356 -3884 -797 0
-4447 -2427 -4143 0
-2199 -3984 -3747 0
-3360 -3536 2758 0
-4066 -2918 -314 0
-4298 832 -4499 0
2158 44 -141 0
2591 -2686 1974 0
1447 -1998 2063 0
-3823 -172 4554 0
-2959 3987 2167 0
-2257 2550 3362 0
-2731 1243 -4351 0
1849 432 -4525 0
914 -4945 2848 0
-552 3382 3138 0
-2321 2778 -4444 0
-1693 -3716 -3640 0
2592 4353 1317 0
-250 -1333 350 0
-1016 -563 2096 0
-1177 177 -2768 0
3599 3958 3490 0
45 504 3699 0
-3740 -4113 4258 0
-1298 -4758 2972 0
-513 4658 -2709 0
1825 -4583 -3270 0
3393 -2538 499 0
-2763 -4022 -3251 0
1453 -4622 -32 0
-3938 4984 -883 0
4587 -2218 -1021 0
1123 463 -3555 0
3509 695 -4136 0
-1106 3719 3656 0
1991 3640 1533 0
-4918 -3151 1964 0
4428 4288 3677 0
689 -3204 2137 0
-3063 1761 4917 0
3058 999 4043 0
-3246 -3736 4250 0
-166 2559 -1648 0
4756 4205 3160 0
-698 -2768 2237 0
1144 2714 2164 0
34 -1052 2873 0
-4569 -1729 812 0
4552 -3049 4926 0
-3850 -4359 4648 0
270 3555 -3323 0
-3316 -4731 1384 0
1633 -2408 -2425 0
-165 4538 -402 0
3692 1418 1222 0
3877 -2704 -1251 0
2266 3846 -1389 0
-1008 3185 2318 0
3789 -3434 4717 0
2718 4789 161 0
444 4158 2879 0
-1077 4715 649 0
-1560 3393 -2398 0
3120 -3549 -1528 0
1565 -3022 -2489 0
-3887 300 -1905 0
2867 -2464 -3463 0
-373 -2829 1406 0
1140 -743 2104 0
-13 2599 2564 0
2014 -4334 -824 0
-4476 3293 -790 0
-3164 -4512 -253 0
4140 -3165 2878 0
-4240 -1255 -4074 0
3290 -4948 -2346 0
-4295 1310 -2170 0
-3329 -2265 1601 0
2019 1897 1855 0
4226 -2293 -1901 0
1077 -4519 4280 0
-198 -3145 1463 0
2718 494 211 0
2397 725 -3203 0
-1790 -1281 -3300 0
-3716 169 3200 0
4463 3784 -3205 0
-4254 1390 742 0
3832 578 -131 0
1089 3596 1051 0
4613 602 2583 0
-1767 3285 -1771 0
189 4984 -844 0
-2424 3754 1866 0
-793 2532 -3225 0
541 4647 1668 0
-4388 4332 579 0
731 -1909 -772 0
-3862 3647 1130 0
4451 -2529 3067 0
-202 3560 -1544 0
4428 -4803 -1112 0
986 2348 -2926 0
-1856 4387 -340 0
-2361 1071 1931 0
899 3733 -3244 0
-3187 4800 -2046 0
-2570 -2385 -3740 0
-4576 2905 3923 0
4206 -2320 4111 0
-2072 -2603 -4491 0
-1180 -2874 -915 0
-1974 2604 4588 0
-900 -1658 4607 0
-1777 2723 4576 0
2649 3975 -1621 0
320 3879 3154 0
1088 -3067 4086 0
3182 -2345 -2871 0
4402 3544 -3483 0
573 2499 3181 0
4496 3963 -3491 0
4878 679 -885 0
-2824 2640 -4611 0
-3793 -2472 -3706 0
-1691 -4207 2479 0
-1694 -3315 636 0
-4935 2589 1785 0
-4171 -4292 3880 0
-4016 -4674 1772 0
-2498 -430 -1210 0
-2100 -3432 3423 0
-939 -4648 -1085 0
-1147 -1332 4 0
-2917 1327 -198 0
3705 2287 -4034 0
-3705 4297 988 0
-1787 418 -1184 0
673 4647 3111 0
-3144 -2640 -2242 0
3471 -4477 3602 0
2465 -254 -2185 0
4731 -2469 -398 0
-2692 4913 -453 0
-398 4343 -964 0
4078 -171 2063 0
-4300 4834 -3839 0
3819 -254 -1384 0
2798 -3643 -779 0
4386 1730 2148 0
-1139 1620 -2760 0
1125 4484 -564 0
828 -3533 3878 0
1342 -224 2538 0
-1779 -4090 -3904 0
-2114 384 1673 0
4151 339 2310 0
1158 -4344 -478 0
1723 2447 -2125 0
105 -2817 817 0
4299 -3949 4057 0
-481 724 -3012 0
-171 -3728 1740 0
1031 -4 1217 0
4831 -2586 513 0
3208 -2619 1129 0
2606 1629 -4413 0
4464 -3929 -1729 0
3831 -3058 2144 0
-3772 3506 391 0
-4050 -4920 4909 0
-2573 -138 -2764 0
-2285 -2227 1485 0
3848 -248 3552 0
1023 4124 2014 0
1501 -3953 1617 0
3470 -2680 2871 0
-3886 4259 -681 0
241 -2296 2797 0
1734 -1412 3039 0
-1073 -1866 135 0
98 1099 -4757 0
4386 1918 -463 0
-3017 698 -1087 0
-1807 4745 1845 0
-3436 -4660 2408 0
56 3396 1259 0
2537 635 -4015 0
-2162 -4322 2881 0
-3359 -2039 3322 0
-2233 -1192 -3507 0
4574 -4556 -416 0
-732 2706 -3433 0
-1603 -2879 -3554 0
-3923 -1679 1571 0
2984 -3142 -190 0
1520 670 -3725 0
-4014 534 2323 0
1389 362 -1505 0
-2783 -2878 -3504 0
1235 -940 -647 0
-246 3356 -2301 0
3554 -695 1208 0
1494 4605 -1209 0
-4077 -4203 -565 0
1955 -4901 -1337 0
-1332 -2495 3572 0
-397 -2690 -322 0
-4775 -1876 1184 0
2815 -2447 -1782 0
-560 -963 1903 0
-2268 -2881 3477 0
-555 -1010 4077 0
-3014 833 -2831 0
-1415 -1144 -2700 0
-515 3843 -2871 0
-3902 -1720 472 0
-716 3673 -1949 0
-1611 1667 -2806 0
3536 -3556 4082 0
-2950 -3757 3025 0
1749 -4747 -1093 0
4483 163 4507 0
-4801 4925 3583 0
-4165 978 -1350 0
3851 -623 -3787 0
-4398 -1158 58 0
1538 -4823 -3182 0
-4070 1128 1987 0
-2253 -584 1231 0
-990 1643 3751 0
-1420 4472 -445 0
-2776 -462 3398 0
-3118 -4550 3175 0
-3193 -1727 -3693 0
-2335 2845 -1106 0
-4129 872 4847 0
439 -3587 4479 0
4726 188 2490 0
500 391 -2975 0
-4766 -3925 404 0
4164 -2685 864 0
4539 -3038 3255 0
2025 2650 -2079 0
1593 2125 -4356 0
4404 4062 -612 0
2850 705 745 0
-2570 2837 4027 0
-4066 -4196 1084 0
1776 236 -364 0
59 4880 2809 0
2481 -161 2211 0
-599 1520 1056 0
-233 -774 4511 0
-975 3764 979 0
1208 -489 -2603 0
-3477 998 -1879 0
-3169 886 4532 0
170 1910 -1032 0
-3250 2772 1199 0
-4565 117 4987 0
-4528 4104 -1137 0
-1585 761 -2631 0
-3374 500 2024 0
4520 -116 2134 0
-1519 -3145 676 0
-1816 -3770 -2495 0
-2285 -1089 2919 0
321 2879 -3849 0
1623 -411 -1727 0
3051 1976 3776 0
-4399 -4125 19 0
674 1241 -362 0
4483 -2313 4193 0
-1011 -4807 -890 0
-724 1535 764 0
4345 -2036 -1506 0
-1060 -2552 4184 0
1683 2053 1268 0
311 312 4245 0
1562 -479 4587 0
3885 4727 -1696 0
-1926 2010 -1112 0
-2799 1751 -2205 0
-1026 -3942 2348 0
-2090 -4492 -706 0
-878 673 -3363 0
907 -1042 -2872 0
-1388 -954 -4629 0
3904 4948 -1604 0
1532 13 -422 0
3235 3000 -2354 0
810 -1310 4721 0
-1082 -491 -2841 0
594 3958 -1265 0
-1448 408 -34 0
-2935 3082 -4284 0
-1164 -3172 -2513 0
1759 2205 -2669 0
3575 -2478 1771 0
2559 -806 -4735 0
-3389 -3208 495 0
1539 2105 -4568 0
-1214 1455 -2942 0
94 -4087 3968 0
-4374 -3223 4246 0
-4676 3752 -1951 0
-4115 -3795 -4235 0
-4114 -827 -1744 0
731 3200 -2806 0
-3059 1162 2431 0
-1974 1652 -1545 0
-3876 2045 1414 0
-828 2567 2302 0
3831 -2902 4135 0
1420 -3302 -532 0
-1111 1964 -1457 0
-3157 -4232 -1256 0
-639 -1460 974 0
-4941 -2712 -2175 0
2530 -3445 1754 0
1775 -818 1431 0
3749 2237 3943 0
923 1807 3362 0
-3815 -139 -4478 0
-708 2456 -1124 0
-1472 -4707 4199 0
265 3640 -4393 0
-3479 -2284 -2381 0
-284 4226 -1623 0
4355 770 747 0
563 159 -2516 0
2835 877 -1251 0
4760 -358 157 0
845 4571 3691 0
-4642 104 4762 0
2450 -1336 -768 0
4740 2761 1888 0
4088 -2605 -4428 0
-582 -1365 -209 0
-1358 2227 -2910 0
-3865 262 4006 0
-619 2001 -4154 0
3009 676 2701 0
-4311 -3939 2434 0
-538 637 -3144 0
3734 720 165 0
773 3163 3758 0
-3825 -848 97 0
2390 -2245 3557 0
1043 -1719 -4115 0
-123 -4519 -4354 0
-2275 -327 3799 0
-4623 522 -2365 0
3742 1529 1644 0
-1761 1433 3764 0
2505 -3838 -1396 0
-3711 2812 -3583 0
4264 -561 -4227 0
-4408 4845 -4082 0
-3819 -3478 1579 0
4333 1376 -1626 0
-558 -1378 -1610 0
-4907 869 3280 0
497 -871 1673 0
378 -3538 -3382 0
-3781 -7 -1155 0
4134 -2716 2519 0
2813 -2881 -3631 0
719 3072 1702 0
-2 -789 2773 0
3822 -1737 -4749 0
-3294 -662 1576 0
52 -1023 3397 0
152 -2866 10 0
-4806 4797 -3108 0
2478 1973 -773 0
3986 1224 1991 0
3129 4455 -4515 0
3230 3446 -1370 0
506 925 -2649 0
2210 3817 4590 0
-4582 -2129 -4174 0
-96 408 744 0
672 -1212 -1834 0
3276 2824 1986 0
1387 2709 1707 0
-607 -4506 -3996 0
2263 3170 4484 0
-240 -911 -2508 0
-326 -287 -4429 0
-4261 840 -2542 0
3870 -2802 -1906 0
-170 -1002 -960 0
-1724 156 3561 0
-327 -761 -3334 0
2441 -1742 -4821 0
3026 459 -2594 0
3290 -3192 1737 0
-216 -3692 -1997 0
-1762 690 -1436 0
1583 363 1003 0
4340 1317 -2333 0
3746 4110 -983 0
-3021 4206 -4966 0
4779 -4 15 0
-4532 3847 -4619 0
882 -4778 2625 0
1194 -2119 656 0
-234 -4002 -3283 0
4062 4681 -4162 0
-3985 -3333 2765 0
-74 3515 -3091 0
2030 -4708 -3326 0
-2560 -3126 -2137 0
4561 -1252 2813 0
-2155 -89 -3425 0
3281 4891 4475 0
1781 1062 -3621 0
1310 -2338 -3425 0
4930 2124 -341 0
-1654 308 -2957 0
-3006 2925 -158 0
-3446 -3802 745 0
-2219 3312 985 0
-1613 759 4400 0
-3445 -2670 4604 0
1977 -2048 1452 0
1513 -1383 -597 0
478 -3112 2199 0
-4286 -908 -3263 0
-4689 319 -1304 0
-3668 57 1872 0
-3921 3917 1251 0
-4953 -4608 -3208 0
1761 -2619 -9 0
-1246 -738 -4742 0
-2476 2759 -1680 0
-1084 -2292 2239 0
-2424 -4371 -520 0
-4645 -3816 3469 0
2177 -4865 2450 0
-3097 -853 -1193 0
1675 654 -1014 0
-3505 -184 -252 0
-559 1130 1986 0
870 -951 381 0
-839 -235 1700 0
1599 2742 2906 0
-1512 -3327 -1084 0
-1917 -4073 -4784 0
3760 -3746 1114 0
531 -1350 -4950 0
4266 153 -935 0
-141 2230 2267 0
-380 -606 -3614 0
11 304 -796 0
1352 2899 169 0
-3296 -2830 1701 0
2447 -1039 1973 0
538 1106 3669 0
192 -4752 -2139 0
-4693 -2985 4492 0
-1918 -115 -3657 0
3943 1118 -4678 0
-2438 2667 2704 0
-4293 1993 -3557 0
-3478 2266 -2849 0
221 24 4610 0
2814 3555 -580 0
-3042 2453 1383 0
-2350 1097 3651 0
1555 2833 -451 0
-3786 3914 99 0
1283 -1870 524 0
2312 3670 972 0
-56 -3501 -3305 0
-3896 992 1286 0
4203 -78 2553 0
2269 -1088 -1579 0
1262 -1953 4135 0
2360 -3641 1068 0
4924 -4114 2574 0
-4633 4226 -1227 0
-2931 2481 4227 0
3527 -3281 -1805 0
85 -1944 -1958 0
-4065 1874 4539 0
-3947 4034 -4265 0
2348 2905 787 0
-4515 -863 4570 0
4062 4066 -852 0
4177 -3081 1996 0
690 -1955 -3102 0
2898 1993 -4275 0
-2062 3293 -1450 0
-3767 -4833 1877 0
-4670 -43 3298 0
-4627 4218 3829 0
-498 -2774 -2295 0
-2525 821 4459 0
-3177 4245 3058 0
-431 -2714 -2317 0
-4525 -3735 3482 0
-3785 -1754 -4516 0
3498 1847 -36 0
655 3165 3517 0
208 -4948 -4169 0
4281 4788 1700 0
423 -156 4481 0
-1355 4747 -4758 0
3708 -1305 -225 0
-933 -1550 -1154 0
1667 -4579 2222 0
-1142 4397 -3552 0
1607 1397 -4657 0
-3984 -2085 2213 0
971 588 955 0
4475 -562 803 0
1356 -1054 3356 0
4391 2496 -1790 0
4208 -1287 -3278 0
3451 -2185 -129 0
-4852 -4944 427 0
635 -2344 -4131 0
-3955 2101 165 0
-1953 -209 1734 0
1950 4156 -445 0
3853 -459 3899 0
-3819 -22 -1779 0
-3747 -2889 -2410 0
2480 -413 2782 0
563 -2562 3336 0
2699 -899 -2223 0
4535 3645 -3432 0
2367 -3303 -3912 0
-2713 867 81 0
-3780 4828 234 0
-3534 472 320 0
3654 1925 -120 0
-369 3194 2147 0
-1076 2400 -2413 0
1646 -3446 903 0
-522 3507 -827 0
1102 1265 3496 0
2739 1958 -4869 0
3717 2653 1256 0
-1817 -393 3654 0
-4647 -1486 -3506 0
-2998 -3432 1557 0
4472 237 -1202 0
-3046 -3795 -2306 0
-3853 -928 -3505 0
-2432 1560 1098 0
-2518 945 -513 0
2809 -3184 -3784 0
-2740 -4821 -2425 0
-4030 -4513 -2219 0
-4405 3056 3112 0
378 -567 -3726 0
-505 -4663 -4055 0
4327 -732 3095 0
4468 -3240 -3039 0
-2081 504 3357 0
-2748 4475 3023 0
1669 2129 1396 0
-3778 1711 -3859 0
-4934 -1521 3423 0
1007 -723 2720 0
-1662 4975 1584 0
3961 -4664 -1680 0
-4878 -3874 3175 0
-2940 -2116 568 0
2616 2259 2823 0
-964 3469 -3163 0
-3335 -3157 -54 0
3345 4687 4499 0
740 1071 2837 0
-4017 -3637 -4601 0
-1042 -2833 -4346 0
4129 1163 4804 0
-1707 2400 2255 0
3196 -4648 -4998 0
3476 -481 -4968 0
2436 -2127 4776 0
-4720 -764 4977 0
4792 1673 -4076 0
392 3268 4244 0
-1560 -4517 -833 0
2459 -228 -3167 0
3498 -3965 -4941 0
-593 136 -1607 0
4424 620 4412 0
2360 -3206 -189 0
1917 -1726 3771 0
-1273 2992 -2869 0
-1048 -1277 835 0
312 4593 894 0
-2459 1451 -4388 0
2922 1069 2842 0
1048 -1140 3622 0
4138 -4184 -4927 0
4542 3841 1631 0
934 -2100 -517 0
-2440 -3117 -3464 0
-4336 -3525 399 0
3380 701 -1964 0
185 4279 2383 0
2203 -764 -2138 0
-4198 -1320 2905 0
620 -529 -3305 0
808 -4985 43 0
1051 -4839 -2435 0
1414 -3462 3930 0
381 -1125 -473 0
4585 1783 2532 0
-1443 -4394 -4399 0
-1291 -2517 4144 0
1808 -2244 -4990 0
-2285 2803 388 0
1210 3471 -4688 0
-2788 -1741 4958 0
-1748 -4840 1487 0
-2578 -2563 3462 0
-660 2715 2588 0
-842 -497 4448 0
-2148 -1866 -4795 0
4734 2665 130 0
-3820 680 -4119 0
-2544 -1228 2316 0
-1415 3798 221 0
-2302 -3807 -2524 0
4491 -219 -562 0
4676 3513 -644 0
4980 -4153 896 0
416 2807 -23 0
4140 -604 -1314 0
-4667 -2809 -4870 0
431 4111 -4159 0
-1189 -2524 3920 0
1520 995 -1953 0
1837 2972 -2532 0
-1946 -2099 798 0
-2810 3317 4348 0
-1390 845 -4640 0
1274 -4783 -1964 0
-4915 -4465 1706 0
4429 -2948 616 0
816 3682 4770 0
3070 1654 3811 0
-1062 3579 4398 0
1990 -4988 645 0
-1175 -3130 4024 0
747 -2542 1062 0
3894 1861 -2679 0
-688 4182 -3682 0
-729 4144 -3145 0
1262 87 -684 0
-4962 -1102 1591 0
3499 -4970 -4183 0
4048 -230 1409 0
-716 -3497 4370 0
-2605 -2132 2413 0
324 -2705 488 0
-4831 4854 1756 0
4604 -665 1444 0
2385 -3635 1878 0
1728 -4913 4299 0
4191 3641 4180 0
-2830 1935 -1922 0
1182 -1396 4713 0
-1704 713 2107 0
-2054 4420 -3548 0
-4625 -1934 -2502 0
4777 3100 1797 0
-1955 -1492 -1415 0
3493 4316 -3902 0
-1513 -815 431 0
-1654 1886 3504 0
-3961 349 -3733 0
1212 3185 3059 0
331 -3862 -4982 0
4723 1254 4986 0
2031 -2065 -1978 0
1130 -1769 -2499 0
-1457 -881 -2786 0
-3643 -4218 -939 0
3522 4771 757 0
2160 -4384 1699 0
-215 3322 -4364 0
-1420 193 -4263 0
-1146 -918 -337 0
2482 -2914 -3756 0
-585 1849 2880 0
-4933 3197 -1942 0
3500 -4275 1783 0
4536 -4302 4144 0
3029 -1234 4007 0
3178 2 -3921 0
-2106 -2965 -4399 0
-3877 1827 -2414 0
-2215 -179 -3796 0
-4050 1806 4021 0
917 799 -4526 0
-300 -1192 4899 0
-3003 2471 -2272 0
-498 3414 1446 0
2404 2651 2761 0
117 3753 1935 0
872 1614 -2214 0
-2246 1179 3718 0
1138 -3312 -4289 0
1399 1220 1606 0
4895 4024 4422 0
2770 1013 -294 0
4326 4394 941 0
2022 3799 3841 0
510 2067 3173 0
-2786 -2804 -1495 0
-4035 3557 2017 0
145 545 -4623 0
4059 -607 1768 0
2637 2031 1646 0
-421 -3685 -2550 0
-4676 4640 -3095 0
3450 -1548 3293 0
441 -1894 3951 0
-3135 -1495 358 0
-978 -4914 -1070 0
4653 856 -3193 0
-1857 1348 -2349 0
-1995 -1649 -3172 0
-4872 -2309 1572 0
-4062 -1198 562 0
-2426 -3982 1649 0
2739 3657 1982 0
4557 -1819 -1251 0
3351 -3262 2296 0
-3519 -118 -212 0
-639 584 4470 0
-2899 1361 -2902 0
-2998 -4256 -705 0
229 -190 944 0
3331 -4481 437 0
2467 -4992 -1280 0
-1099 2827 2024 0
3658 -1797 -3504 0
619 -1382 246 0
-3734 -461 -4474 0
2583 -2293 3817 0
-4939 -1943 -4987 0
2652 -3739 3434 0
4761 4535 3828 0
998 -4904 2040 0
-3875 -2507 -1670 0
-3525 -838 -3459 0
2766 -3228 407 0
3513 -665 2480 0
3830 4663 990 0
3332 -4364 3235 0
-3759 -764 -2233 0
-3948 2668 3637 0
3311 600 3253 0
-4468 -1212 -3328 0
-3009 -2509 853 0
-954 -4398 4834 0
2924 -3249 -1197 0
2686 -545 -58 0
-993 -3631 4944 0
2658 3422 -4700 0
4990 2743 -162 0
2579 500 -1179 0
-525 4464 -1338 0
1138 -3956 -677 0
54 -227 -1846 0
-2400 375 -121 0
4078 2849 1168 0
2234 545 -2474 0
2888 1488 -2829 0
-3208 3775 4862 0
-1093 2178 3215 0
-4054 -3200 -4990 0
2559 -4732 31 0
-2684 2433 24 0
1513 1712 1441 0
-4611 -2504 -3311 0
1635 -814 -535 0
2037 -183 3408 0
-2764 -3514 -584 0
-2916 -3639 877 0
1190 -4146 3778 0
-652 -1779 -2737 0
3796 3168 2282 0
2285 -4705 4406 0
-4874 2137 -3310 0
-3641 -2551 1763 0
-1011 1656 -1579 0
271 -2934 -2214 0
-3976 832 2146 0
-12 3186 -581 0
-3973 -3120 3791 0
1195 -4774 4613 0
4603 -3006 -1225 0
-962 4174 4223 0
995 -237 -2092 0
-4368 4717 -3227 0
-3945 517 -2023 0
22 -86 -3809 0
2448 3715 680 0
1688 540 -1580 0
-2572 -4377 -2507 0
-2768 3245 -3653 0
-2464 4802 -4436 0
-4817 -1957 -2573 0
1557 1165 2288 0
-4593 3246 363 0
221 -2877 337 0
-2683 -2291 -3030 0
3926 2426 1552 0
4714 3563 -4302 0
-2581 2493 -4518 0
-1461 2371 -956 0
1902 953 2987 0
1055 4884 4727 0
760 -74 1430 0
3044 705 2244 0
2316 -1991 -1633 0
3140 2952 -4550 0
-1320 -3981 3155 0
4965 -1351 -4051 0
-1466 -3291 2629 0
-4253 -2121 1676 0
3526 1525 -1075 0
-1631 -4653 -436 0
-2376 2541 -633 0
1908 1422 -3114 0
-4516 2233 2864 0
3146 2730 1869 0
4926 -2489 1074 0
-677 -1401 4831 0
3359 3069 2595 0
-2702 2043 -1431 0
-232 1132 -2006 0
-2048 -2963 2242 0
3460 -2091 -3592 0
-4786 -1455 -826 0
103 2116 4013 0
-787 -231 67 0
-4885 -3241 -3219 0
-4828 -234 -3617 0
2562 2317 1240 0
-158 1652 -1999 0
1213 666 -3366 0
491 -2153 4527 0
-2389 -4659 -486 0
3197 2142 1712 0
3851 -2610 -4444 0
-4098 1099 269 0
4358 -2491 -2702 0
-2144 -3062 -130 0
3403 4093 -3250 0
1975 -4016 -362 0
4770 -1636 -832 0
3174 4135 3349 0
166 -3146 1539 0
1091 -574 -2523 0
-1759 3531 1618 0
3012 4484 -1720 0
2411 3264 1729 0
153 1490 4537 0
2058 3510 399 0
1441 2869 2527 0
3456 -948 -4040 0
3942 337 2865 0
3165 -4143 -3321 0
-3270 -1176 4119 0
-1723 -3513 -4608 0
-4583 -3768 -1876 0
104 4135 1999 0
4746 -1747 4893 0
-569 3222 3910 0
1122 -3441 -2601 0
3135 3152 415 0
1629 -120 1099 0
4992 3289 1143 0
-4570 2665 -2789 0
-1127 4111 2049 0
1733 3887 4145 0
-1375 812 -1768 0
-267 -548 -2410 0
2152 1289 -113 0
-4028 2131 4798 0
1590 -2503 -3049 0
-971 -398 -4312 0
-3421 -4984 -4814 0
3362 366 2995 0
-722 -2786 551 0
4015 -1162 -1594 0
268 4358 -1121 0
2415 -4304 1672 0
230 -3648 -2049 0
-4214 756 1121 0
2198 -4093 501 0
4517 -4509 2472 0
-2922 4704 -2206 0
-1661 1817 3663 0
-4204 -2693 1773 0
3906 4873 -3044 0
-919 95 939 0
848 1805 -2634 0
2157 770 -1210 0
274 -204 -2912 0
-2249 -2291 -1555 0
-1671 -3529 -1166 0
-2138 -4763 3919 0
4668 3750 -594 0
2834 -1831 -865 0
-639 -2284 -3327 0
3074 -1219 2360 0
1483 1986 -1855 0
-1375 -4957 -4590 0
-4045 4324 -4628 0
1838 3417 -4311 0
2454 -4777 42 0
2128 1413 -1629 0
-3420 2479 -2932 0
319 884 -3751 0
-2698 2009 -863 0
3519 3217 -2378 0
308 -2304 -149 0
-2670 -423 1980 0
2888 -4655 257 0
-139 4625 3982 0
-1526 -2132 -2638 0
-2208 -3402 4871 0
-2293 2547 3231 0
3191 1114 425 0
-888 4090 -3480 0
-2366 12 -721 0
4030 2891 -2176 0
3015 4844 3130 0
82 -392 1526 0
2231 -3882 512 0
1183 1852 -1210 0
1451 3159 -4970 0
3545 -4131 -3959 0
-8 3786 1639 0
1843 -1661 -1776 0
4396 -129 -1204 0
1791 4145 -4409 0
-543 3352 1744 0
479 -4277 1768 0
1036 347 -1947 0
-3305 -3299 -2842 0
-1423 -4902 -117 0
-2481 -223 2513 0
1625 -342 -4429 0
-3328 -2686 786 0
3841 -1385 -3141 0
2772 -1270 -3610 0
3604 -2253 2012 0
-3135 3023 -3468 0
-1140 1438 -4896 0
2051 3306 -227 0
-2516 -2867 -140 0
-1653 -4620 -2379 0
2733 -423 3230 0
4953 4082 -1494 0
4799 -3002 -3677 0
102 4196 -1583 0
1548 -2032 -1637 0
2650 4217 -3120 0
-1463 -2189 2665 0
-2356 -2403 -582 0
4296 -2513 892 0
-297 1089 -1330 0
2549 -3203 3453 0
-2172 -903 3742 0
1353 -1590 -778 0
101 1209 4422 0
-4141 3398 932 0
-2668 1829 -2128 0
424 774 -3862 0
-4423 -4554 405 0
-1795 1785 -4305 0
881 4590 348 0
1040 4010 -4001 0
1667 -142 1223 0
721 1804 467 0
-1003 1390 -548 0
2680 -2581 -956 0
-4023 -1435 -3559 0
4719 2165 3762 0
4360 -773 -1791 0
-1606 910 -4901 0
902 3222 1717 0
2808 2405 3971 0
1666 2336 2609 0
-2021 -4066 -4714 0
-4577 3291 2564 0
-3340 1653 -4981 0
-1461 -2754 1986 0
4193 4506 4026 0
882 -46 -660 0
-1593 -4665 1373 0
-3164 204 2845 0
612 3428 4936 0
414 -594 3725 0
3098 -2128 -1133 0
2468 2753 2208 0
4781 -4605 -1149 0
4792 -799 1724 0
2426 4102 881 0
1534 295 -86 0
-2543 -3387 3923 0
587 2599 161 0
-3262 -3600 -4462 0
-2816 329 -2252 0
1392 265 906 0
-2364 -2172 4616 0
-3826 -3479 1390 0
3454 -3262 -1229 0
496 -318 -3694 0
-3098 412 -3573 0
-4406 682 -2758 0
3709 -4434 4030 0
4465 4562 342 0
-1683 3512 -2161 0
-4598 4533 4238 0
-4349 385 2572 0
-713 -1432 835 0
2075 4356 -1224 0
-2809 83 -669 0
1085 -3294 -1615 0
-3845 -4878 16 0
2415 -1618 1215 0
1121 -4830 2558 0
-1304 -3327 1380 0
1221 4958 -229 0
-1811 -546 879 0
4986 3361 -2299 0
-3358 1402 -2021 0
3038 746 -1035 0
806 -296 -764 0
-4082 -2684 -2235 0
-1190 -4502 -1641 0
163 2858 -1075 0
1018 -513 4293 0
-301 2184 -2435 0
4132 3314 2459 0
-178 2113 -1646 0
-2713 3774 -3632 0
-2180 -2412 -3482 0
2665 982 163 0
-1547 4845 -861 0
-1950 4877 648 0
-3582 -2974 -2747 0
-2864 3219 3925 0
-1539 588 -345 0
-2945 -3192 -2130 0
2027 4936 485 0
-116 -331 3206 0
-4865 -3310 -2155 0
2366 3981 -338 0
2089 2775 1921 0
227 1007 -3844 0
-3134 3041 3060 0
3970 -2466 -3562 0
3310 2985 3256 0
-1777 1598 -3438 0
-416 -1522 163 0
1482 -2114 2243 0
3975 -3841 -1714 0
4951 3175 -3233 0
-4090 2603 -4687 0
2779 -4283 1712 0
-2272 2260 3245 0
-1774 15 823 0
-887 2987 1297 0
-84 1307 4072 0
-3104 1997 -3393 0
-4537 389 4436 0
1867 -4613 -4778 0
-3536 2400 -1563 0
-4490 -883 359 0
201 3799 549 0
-33 -2647 3684 0
4174 -489 -2594 0
-591 1158 2872 0
4074 -760 -2522 0
-451 -4311 2204 0
-4097 996 -1800 0
-2638 2853 -2173 0
-84 832 2832 0
2327 -39 3904 0
-4470 4230 3101 0
4047 -3651 -3787 0
-594 382 4094 0
-4528 -3375 -1674 0
-2330 612 -2511 0
451 -1298 -1476 0
1631 2664 -1620 0
164 -2376 -2067 0
-4049 -2422 4469 0
-4028 -3559 -957 0
-2418 2419 4839 0
4519 -1799 -3543 0
4799 3548 -798 0
-4376 -943 1920 0
-4277 3973 4756 0
2557 3440 -1229 0
-196 4369 -2954 0
-992 -1064 -2650 0
2833 4492 -3412 0
-47 3728 -4141 0
1690 -3293 -2141 0
-4321 987 3962 0
-3886 4386 2853 0
63 -2716 -4263 0
-4192 4294 -4719 0
-3148 4248 2127 0
-3371 2556 -4101 0
3341 -4836 -4105 0
3766 -1116 -110 0
1073 -3647 -4166 0
3941 -1162 2824 0
-355 -2876 -2421 0
106 -1434 636 0
-3314 -851 1731 0
-311 -4057 -3335 0
-3875 -3504 -2665 0
-2370 4376 4558 0
106 -1431 -2301 0
4660 -3081 2167 0
4608 -1223 1822 0
365 1731 -149 0
4074 -3223 -3055 0
4716 2014 2087 0
741 -715 1797 0
2272 2463 3430 0
4412 -491 -3451 0
-4103 1317 -2491 0
3554 2248 -3392 0
-4641 4042 2708 0
-1269 -3696 3241 0
-457 4678 822 0
-555 394 -2401 0
-498 -4125 -227 0
684 -1789 456 0
-630 -3240 -1022 0
1072 4679 -3483 0
-4071 48 -4010 0
3026 -2 -3228 0
-796 2772 -1186 0
-4972 -4870 1020 0
-3640 -3382 -1801 0
2032 -1927 -4548 0
-2752 -1827 -1213 0
-3527 -4704 -4636 0
-885 3344 -2311 0
1561 -961 1167 0
-2173 -3871 1929 0
4117 4865 -2773 0
-2722 4037 1272 0
1230 -1021 2826 0
26 4020 -1708 0
-3876 3289 32 0
1305 2956 555 0
4293 3407 4097 0
391 -1883 4619 0
-3690 3773 4086 0
56 4667 -2041 0
4366 -324 4945 0
-2194 -4993 3299 0
-1997 2861 -1615 0
-409 4114 4706 0
1370 4859 -1017 0
-860 -1911 3660 0
3144 1186 -14 0
-3990 4994 -1565 0
3404 -2995 -2618 0
3437 156 -1111 0
3232 -2832 -2849 0
-3007 2016 -286 0
2073 -94 848 0
-1633 2068 -3529 0
-295 683 -4422 0
-4888 -3376 -2455 0
-1745 -236 -2698 0
-2175 -2370 1591 0
2051 4133 2975 0
-1691 -4546 -1897 0
-3231 1673 -1469 0
1352 -3036 2540 0
2962 3713 -2427 0
-3881 -1795 -1776 0
-1884 981 4260 0
4625 894 3825 0
1697 3119 3646 0
-1872 -4074 3148 0
3892 2261 -2702 0
-2715 -4978 4200 0
4575 -4465 3830 0
372 2688 -2815 0
3142 -268 -1516 0
-4456 -4823 3275 0
-1146 -1385 4 0
-1618 -468 1388 0
3152 1867 3119 0
-695 -3043 -4784 0
-1651 -4401 -2239 0
-326 4633 3227 0
1121 1683 2251 0
-1575 662 -4495 0
-3806 -1006 -3227 0
2321 -4971 2338 0
-1575 -7 -2786 0
-2583 3413 -2666 0
1170 3919 4587 0
3937 -2130 -4024 0
3338 -4068 4610 0
2576 2412 -4505 0
1347 -2594 -596 0
3509 1123 342 0
713 -3649 3489 0
4391 -2265 1848 0
-1309 3143 2484 0
-2506 -146 3573 0
4346 -4817 -3406 0
-653 446 -663 0
3149 -281 -3247 0
-2303 3928 3011 0
-3169 310 -1868 0
-2976 -3064 4277 0
-1358 -775 789 0
3252 3747 3171 0
-4288 4079 -3726 0
-3293 3014 3176 0
234 2879 3540 0
3971 -2959 315 0
4766 -2610 4603 0
-3635 -1426 -606 0
-2771 -4013 4111 0
3868 -3672 4305 0
-2942 -3263 -3593 0
-3513 -1969 4297 0
3056 -4670 -2609 0
-1068 -637 -4135 0
-1855 988 1023 0
735 -115 1868 0
4025 4575 3635 0
3240 1756 -3220 0
3419 -3814 -4137 0
-439 -77 -3546 0
-2772 1264 -3023 0
-4809 2951 2330 0
-3782 4028 -2055 0
-3148 1806 -2672 0
-3825 -3159 -1346 0
-3098 3569 4349 0
2447 3200 13 0
756 1122 462 0
179 -3809 -2919 0
-3540 -3348 -4112 0
4368 -2511 3942 0
2515 -1768 1711 0
-3128 -2738 -1938 0
2313 4676 -1265 0
1923 -2000 -4801 0
-3882 -3544 -3626 0
-2402 607 1700 0
3632 -1708 2546 0
-566 2336 -725 0
4779 251 -2557 0
-3580 -3292 -1042 0
2325 -1854 3549 0
-1772 4431 -2954 0
4124 -3279 2180 0
-1748 -1309 -3172 0
-2922 -2338 -1941 0
-2085 -4801 1842 0
4647 4064 3585 0
4689 -2129 -2882 0
-4452 4571 -2358 0
-4367 -514 3947 0
1395 -4203 -4608 0
-1623 -3204 2774 0
3501 -2950 -4719 0
-4757 -4937 1079 0
2897 -1685 4681 0
4746 -4909 -909 0
-2685 2511 -2772 0
-4228 -3999 2550 0
3755 -4713 -488 0
3736 1347 -1895 0
-1118 604 -333 0
-948 38 -3721 0
3870 -1247 1640 0
1774 -3830 1522 0
661 1486 -2693 0
2142 2168 2314 0
35 4196 337 0
2880 3774 359 0
1887 4246 1005 0
2587 4500 -1443 0
2215 -1772 -1092 0
-699 3314 -4954 0
-783 -4686 -709 0
-252 -4327 -3186 0
-244 -3654 -4698 0
-4509 54 732 0
2562 -4579 2440 0
-1086 -758 -4794 0
3631 -3979 -4675 0
3708 3369 2292 0
4784 -2129 426 0
4759 -3488 -4620 0
2723 2116 3959 0
-4606 -1918 -3208 0
4490 -84 -3738 0
-4308 -4446 -919 0
3778 -4004 785 0
-4152 -4689 2903 0
-3677 -2286 -1190 0
3983 718 580 0
-1051 2276 -3473 0
201 -3815 -4604 0
-2321 4215 3533 0
91 977 -1308 0
-1074 -1963 -4062 0
4957 2130 -4784 0
4186 4009 3408 0
-392 -1908 -2984 0
-4509 146 -3944 0
4805 4213 175 0
-661 853 1026 0
-3693 25 567 0
2477 1623 2904 0
724 633 1096 0
3997 420 -4771 0
-1479 -4937 4970 0
-2899 -2077 3688 0
-132 961 -1448 0
1841 4051 -2343 0
3018 -4840 1058 0
3105 3725 4024 0
-2730 -4593 1456 0
1311 4038 829 0
1375 -2054 692 0
1788 -1944 547 0
-1558 1875 1923 0
-4072 4849 3602 0
-1283 1251 -2604 0
-1176 -4076 -3099 0
-3268 2824 -3597 0
4329 2219 -753 0
-4510 2335 2675 0
-4980 -4044 567 0
-2287 619 -1914 0
3532 276 2963 0
4113 -830 -2421 0
2720 594 -3304 0
1234 -2423 -2689 0
4948 -4928 3492 0
668 -4443 3160 0
-3913 745 -4599 0
888 -4206 3379 0
1687 874 -3004 0
-2318 -267 2461 0
-3659 -2109 -264 0
-3172 -4239 -2614 0
3395 -411 4899 0
-2098 -173 1498 0
647 -2193 -1888 0
2687 892 535 0
3166 -145 4858 0
-452 1878 -4979 0
346 -87 -2739 0
-2172 -3665 4411 0
1841 -727 1050 0
1766 4714 3550 0
-132 -2512 -4540 0
4583 -3349 1669 0
-623 4507 -1199 0
1527 -2544 -4326 0
-381 -702 -718 0
1981 1403 1522 0
1971 1590 2926 0
-1928 -4128 -256 0
2322 1118 -2221 0
112 -4175 -1381 0
-3957 -4599 -357 0
1947 2341 -360 0
2965 -4763 -4683 0
-2615 1922 337 0
-3243 2716 -2305 0
1382 -3188 -64 0
-3685 393 3889 0
4302 -2644 1113 0
244 -4317 3819 0
2379 -1374 1827 0
-110 -2623 2287 0
-1545 -4679 -4282 0
2482 -374 -1510 0
3350 -2533 4117 0
-709 -550 975 0
-1383 -168 2163 0
-4792 -3045 -2474 0
2454 1784 -638 0
-4576 -1735 3279 0
1225 1570 1504 0
-4548 -2211 610 0
-2417 2917 -4374 0
4789 -235 4643 0
773 -1922 -1085 0
3652 1889 -2821 0
-3134 4403 4602 0
918 -3335 -4381 0
1901 -194 -979 0
4491 4865 -1819 0
2772 1804 -392 0
-1030 4496 -1327 0
4964 -4055 -705 0
-3824 1476 4892 0
-2753 -3033 -2543 0
-2008 904 1161 0
1827 -2576 170 0
3322 -2202 -1558 0
-3443 3727 -17 0
4719 -1996 -1537 0
-1372 4954 -1823 0
-2676 436 -1187 0
-2316 -560 233 0
1528 -101 -1450 0
2534 1058 572 0
-2615 4874 -681 0
4407 -1008 2307 0
-4741 -4433 -2652 0
-3558 -715 4258 0
1816 4588 -856 0
-2591 -2742 1016 0
-4024 -3998 2458 0
-835 -769 2451 0
-2858 2981 1680 0
1406 1694 -1082 0
-2707 -3310 -4618 0
-753 2298 -4908 0
-1070 2787 1878 0
2392 -1132 -2113 0
2176 2975 670 0
4052 -2990 3636 0
-1356 -608 -2591 0
-128 4362 166 0
4945 -3409 -771 0
1966 4425 -2196 0
1053 1399 4569 0
689 2268 511 0
3440 286 -2933 0
3004 3638 -1561 0
501 3029 -3314 0
-1039 4160 4516 0
1733 4872 -3942 0
-3448 -1805 2311 0
-1109 -1571 -4550 0
3985 -4950 -4002 0
2616 3354 3683 0
-3565 -1537 -3893 0
-4110 3151 3687 0
4381 3395 -2240 0
-2674 4126 3510 0
-4908 737 786 0
-25 2144 2916 0
2596 -2770 -1546 0
-4249 3537 210 0
-4128 2473 962 0
-1078 2818 4099 0
-1432 1588 315 0
1660 3551 1480 0
1011 1669 3831 0
611 1777 -2794 0
-4434 -405 2956 0
3625 1958 2080 0
-156 1490 -46 0
-247 2456 3107 0
4002 -3902 828 0
3798 3209 -4578 0
-4912 -1104 -377 0
-4272 2296 -2761 0
1230 1982 2650 0
1298 568 3759 0
-731 -2868 -4226 0
693 -894 -32 0
4061 1870 4586 0
4164 2207 1616 0
111 3777 -888 0
-2339 3045 3762 0
3069 3133 -205 0
-800 -114 -3927 0
2365 684 2485 0
-390 -3114 2026 0
-3488 -4721 -3215 0
-4136 -2225 4326 0
-4715 3122 -541 0
-2322 1442 108 0
1680 676 4289 0
1986 4022 -220 0
3328 -3023 4648 0
-3577 2453 537 0
3086 798 2294 0
2320 -1098 4328 0
820 -2406 -4138 0
-285 -2302 4440 0
-3744 3570 -4011 0
1057 2861 -903 0
-4286 3560 3291 0
4932 -4979 753 0
3939 2891 2840 0
-4609 1861 -4954 0
-240 -442 -2147 0
-342 3819 -3486 0
-3758 -278 -1159 0
-2042 3208 -2190 0
3492 3411 -3005 0
4085 3898 -4575 0
-1566 3100 -1647 0
2193 2012 3387 0
-2382 3550 1533 0
221 3316 4652 0
1813 754 -2173 0
-1404 201 -4143 0
2857 -732 -1049 0
-182 2407 3252 0
4643 4234 -4555 0
-1568 4752 -2838 0
3634 696 180 0
-2069 2792 1724 0
640 -343 866 0
3798 1442 868 0
-2102 -1861 -997 0
-1991 -423 434 0
3111 -1236 1870 0
-1545 1891 2799 0
1873 1333 1323 0
4389 -2027 936 0
-22 20 -4222 0
3206 858 370 0
593 4036 -2627 0
2480 679 -2193 0
-503 4588 -2658 0
717 -4967 2987 0
3206 791 -1934 0
-80 -3550 -2672 0
3521 -1541 4842 0
4144 1367 1515 0
-2563 -2759 2332 0
2665 -982 -1760 0
2445 657 4494 0
-800 520 -2008 0
296 1730 -2403 0
260 361 4798 0
-1599 -3373 -2678 0
4491 -2498 -1266 0
2024 2501 -4736 0
-4859 -4885 -2802 0
-2058 477 -4513 0
18 -144 1639 0
3100 2345 -4759 0
-3640 -2341 -1593 0
927 -360 -4289 0
454 -4726 -3408 0
-4016 2373 2520 0
2582 2677 -4690 0
-1858 23 -2110 0
3720 -1546 1375 0
1605 -4968 -2103 0
4930 13 470 0
1384 -1413 2047 0
-4260 3997 4904 0
709 -2175 3681 0
4537 -3023 -3101 0
-1559 2730 1952 0
-4707 919 -3113 0
3936 3180 -3622 0
2439 3336 1026 0
1660 1750 -3143 0
-330 278 -1081 0
-2453 90 -4151 0
581 3741 1197 0
1835 2985 -318 0
-4396 -3218 3861 0
-3684 1878 -1985 0
2292 -1786 -2681 0
-1935 -4048 -2772 0
3882 -2718 113 0
-1859 -4349 -2286 0
1902 4208 -1533 0
2860 -1013 -881 0
4016 1817 1674 0
4440 2778 -2307 0
4344 -252 -3050 0
14 2130 -297 0
-4428 3625 -967 0
-2460 -261 -2580 0
-1063 4007 -2612 0
2953 1111 -2069 0
1023 4308 -4008 0
396 1509 -2357 0
3523 -797 1840 0
1202 -2657 4749 0
-4200 -1985 -2066 0
-4862 2084 974 0
4519 4141 -77 0
4788 -1346 3077 0
4088 1462 3402 0
1813 1883 -2010 0
4397 2293 578 0
1032 686 612 0
-2535 -982 -1477 0
3637 1855 2288 0
-3702 -2324 1358 0
2661 4762 -3375 0
-1526 -2782 1113 0
-2673 3259 -103 0
686 1046 -4691 0
1009 -4540 -4119 0
4236 -3685 4957 0
1660 -3062 2004 0
-394 -1767 -2078 0
1483 2789 -1466 0
-3478 4084 3094 0
-525 3467 1040 0
-3115 4943 4808 0
1861 -2321 509 0
4485 2330 -4992 0
3938 -2967 -894 0
-644 682 4700 0
-146 141 2890 0
-3163 -4125 2380 0
2753 -3442 4404 0
-4447 -2073 4117 0
3734 -4881 4272 0
4639 -1148 3139 0
-4601 2153 -672 0
4596 4645 2838 0
-2929 -2574 -4021 0
2959 2712 -4321 0
59 2556 2472 0
-4312 325 -408 0
-1991 2513 -3738 0
-3829 4857 -4338 0
-2353 2814 4500 0
-2 1227 1482 0
1940 -2536 3100 0
3119 -1363 -1474 0
-2115 3642 4327 0
-1945 -724 -410 0
-4309 3808 -4426 0
-1743 -4495 2004 0
-1479 464 -3129 0
1795 -799 4504 0
230 3472 245 0
-2615 3891 3828 0
-4309 -4773 2927 0
-909 280 -1395 0
2478 261 1367 0
1023 -1578 -4883 0
-3180 -3018 -4429 0
-4524 813 3941 0
4059 3469 1434 0
4633 -316 840 0
93 -4109 1480 0
-2624 4215 -4788 0
285 -3726 3079 0
4662 3584 -2474 0
-1028 1109 1514 0
522 -1651 -3353 0
3401 -2703 2454 0
4957 -3525 -1306 0
-1370 -290 2604 0
-1324 3828 -645 0
-2873 -3714 2658 0
77 -3813 2158 0
4832 3600 1419 0
2289 4439 -4480 0
-4496 4424 4488 0
574 -1676 4367 0
-1840 -159 -4787 0
-1378 -830 -869 0
4353 -4603 3108 0
1207 -4266 -3309 0
2364 193 -4422 0
1605 570 -4497 0
-3798 3460 -704 0
-4580 -2419 -80 0
2473 -469 4234 0
3649 2887 -2223 0
658 -4706 809 0
894 -3914 -800 0
459 -4292 442 0
2558 -2620 791 0
2091 3536 3422 0
-147 -3865 2718 0
2329 -4100 -3094 0
-4939 -4156 -4803 0
-2932 190 4388 0
4185 -3338 -2865 0
1514 -2813 1699 0
-1909 -2622 389 0
2550 -2852 3230 0
-4847 -2987 -2325 0
-2618 4036 -4627 0
-3571 -1272 1883 0
-12 4427 -1800 0
-4739 241 2571 0
-4269 4382 -3627 0
-603 2779 -3359 0
4700 2023 -1161 0
1216 -4332 4324 0
23 3162 810 0
-2228 4839 -285 0
4595 -1025 2918 0
1468 -1014 -1465 0
2707 -2712 -2928 0
-2094 -444 -3324 0
-1403 -325 -385 0
2688 -4101 -4328 0
3852 4036 3004 0
-1980 1060 -42 0
-130 -3400 -1831 0
1889 293 2921 0
4686 4309 3718 0
-239 2065 3317 0
-511 -730 858 0
-1235 4575 -4499 0
-2964 1185 224 0
-1396 -950 2564 0
-4741 -250 4078 0
-1073 -3682 702 0
1367 -4078 -1887 0
-3293 4763 1369 0
639 -1691 168 0
-2981 -3896 4964 0
-2851 -1296 -3420 0
1802 3376 -4497 0
-3321 3928 -4054 0
4074 -3519 3671 0
-4034 -1166 1661 0
4755 1456 -3954 0
3675 -112 -4693 0
182 -1764 1438 0
4486 1576 4857 0
-1980 -1573 -4797 0
-4980 3519 393 0
-2824 -3572 2974 0
-3958 -671 -3549 0
3351 -735 -4428 0
1114 -3369 3783 0
2772 -3650 126 0
-2432 -4654 3461 0
2845 -2139 -4789 0
4655 992 -1474 0
2647 -80 -3292 0
-3295 -2251 2000 0
2415 -4200 1431 0
-1790 3619 -1494 0
3083 -4550 288 0
-4582 1623 164 0
-3051 -3473 -173 0
-1567 4125 2115 0
-672 -3100 -362 0
4801 4244 3041 0
-2482 3611 -3422 0
1390 -3474 -3292 0
556 2905 3521 0
3541 4415 -4637 0
-3587 2072 -2975 0
-2311 -770 -3361 0
86 -4936 -4208 0
-4782 34 4633 0
-477 -2359 3662 0
3986 -748 174 0
914 4803 -4982 0
-4338 -910 -3272 0
-2162 1644 405 0
-348 -268 -3448 0
4482 -3185 -4683 0
3776 -1933 -3375 0
-2476 3131 -3172 0
3637 4972 2312 0
4665 -2925 4867 0
-3347 2225 -2365 0
-4415 -2301 -4277 0
4985 1478 2906 0
3517 -2513 -3020 0
3297 598 -1480 0
3080 4982 -3093 0
-3583 3974 -2121 0
-321 2066 2063 0
578 311 2769 0
1009 -3136 -3627 0
-4802 -2318 -4565 0
-5 3992 539 0
-418 127 -4866 0
-1874 -4464 4782 0
-3452 -1413 1275 0
4445 2319 -1895 0
-1442 380 2784 0
4473 950 930 0
3977 -1126 3788 0
4726 4020 2346 0
731 1429 632 0
-3645 -1643 -1559 0
-785 -4579 3493 0
-4893 4734 3247 0
2320 -3334 -1124 0
1195 2074 1735 0
-2038 -1168 -657 0
4273 -2503 4716 0
-4375 -4654 -4682 0
-768 -4143 -4239 0
-316 1180 797 0
-2661 3497 -4434 0
1880 -2966 3323 0
-1863 -2421 4272 0
-628 -3025 -222 0
-4542 -2301 -246 0
-928 3460 -515 0
-2303 598 1931 0
3522 -1784 -3655 0
763 893 -2317 0
-4313 -591 2003 0
1247 2546 -3124 0
1576 -1386 2778 0
2390 -878 2310 0
4434 -836 -925 0
-4609 -4627 -3107 0
-3199 -117 2120 0
-1404 -2202 1762 0
1475 652 3041 0
3438 2559 1028 0
2133 -2182 1482 0
-930 2173 -3900 0
-1279 -839 597 0
4393 -227 -2151 0
-4970 2671 -4843 0
2775 3041 -2503 0
1457 -2283 -209 0
1410 4311 -2336 0
1202 -181 1164 0
-4772 1055 2529 0
-3161 -585 -947 0
-2184 39 -30 0
867 4939 2780 0
-2580 -2981 -4337 0
816 -2466 -3790 0
3031 3410 -252 0
2846 4417 1795 0
714 182 -1188 0
-3912 1501 -2662 0
3741 4943 4318 0
-4545 -3762 -655 0
-2928 2850 -2262 0
-837 -4997 2685 0
-2922 -920 -3149 0
-2571 -2849 -3037 0
-2180 115 -3636 0
528 879 4802 0
-2162 553 -3862 0
4283 251 -1871 0
-3746 2688 -3800 0
-693 -2357 -3995 0
-1915 -3662 -3933 0
-2857 -3795 -817 0
-2468 -2647 4088 0
2837 457 -1426 0
103 844 -4697 0
4699 -920 2881 0
1392 -982 -1801 0
2250 4857 2977 0
-104 283 -1689 0
-2508 -3716 4210 0
4608 4407 1783 0
-3317 4259 -1575 0
-107 662 -3396 0
-3097 4671 -3195 0
2749 -4036 2935 0
-4985 -4733 -235 0
1326 -2986 -1932 0
1110 3415 -4754 0
1757 2293 507 0
-3848 296 -4225 0
-622 -1650 -4439 0
-1619 4337 -623 0
-3454 1543 1170 0
664 3915 4955 0
-1459 -810 -1088 0
4455 400 -919 0
4376 4925 118 0
3365 3078 -1402 0
-3374 -4400 -4615 0
-4471 1134 3226 0
309 -1292 4162 0
-2835 1622 -4968 0
-2571 -2307 -455 0
2982 3255 516 0
-777 2955 -3156 0
1463 3078 -310 0
2867 723 -4861 0
4813 1569 3303 0
-4007 2356 -3044 0
-1703 3759 3254 0
1136 -1121 4581 0
-305 1843 -1397 0
1243 -3905 -3123 0
2609 1221 191 0
-4993 -1952 2992 0
-4872 1666 -2612 0
-4907 -873 -4286 0
2347 -4719 1024 0
-3994 -991 587 0
-4797 -834 -2682 0
4646 4260 -4979 0
-2567 1834 3527 0
39 -21 947 0
3933 -3013 3913 0
4511 2843 -3133 0
1440 2571 3547 0
2157 4882 3135 0
-250 1307 1405 0
4703 -1014 4874 0
-2670 -3523 -1534 0
-1524 -4726 -3200 0
469 1589 4138 0
-1345 -432 864 0
-1055 -924 -821 0
-1201 41 -2747 0
3574 -216 -3823 0
3550 4305 145 0
-1880 -62 -2544 0
36 -4854 -2053 0
3676 -4800 3479 0
-1101 -1474 272 0
-2591 3916 -837 0
-4662 -2715 4124 0
665 -3188 658 0
752 -1065 -4754 0
4783 -2613 3337 0
-2340 -3050 -2668 0
1171 -2073 2838 0
2061 -3144 762 0
2339 -363 2409 0
-3452 -4028 -3839 0
1450 1115 4319 0
-533 -3250 2887 0
-972 2966 2036 0
3006 -3284 -435 0
718 698 1069 0
-2612 -4921 -4063 0
557 -4827 -3777 0
1949 -270 -2315 0
1347 4624 4917 0
-763 4218 -2775 0
-1347 -1133 1497 0
753 1836 -2256 0
-3077 -4018 3147 0
535 -1735 -2609 0
-4738 135 -1334 0
2700 347 -1752 0
4569 -3484 2488 0
161 -2579 4982 0
2558 2247 3249 0
-2175 -1094 4039 0
-3217 820 2333 0
4271 -1754 2322 0
-4765 3615 3111 0
2942 -2396 -4527 0
1592 840 -2591 0
-4538 -3923 -106 0
594 -2397 -189 0
-2011 1310 2313 0
2685 -4404 2475 0
2132 4490 3659 0
-1566 -4806 1300 0
-2946 -2662 3136 0
46 3603 3832 0
3298 -3839 2841 0
2550 -3763 -3007 0
911 -2628 -2136 0
-3972 -3333 4054 0
2414 2915 2897 0
2649 -4782 3305 0
-177 -4245 -4688 0
-1622 -4751 -2798 0
-2855 2126 -315 0
-3698 -3920 1196 0
-4674 1084 -2188 0
-1190 4142 -901 0
4014 -315 -2512 0
-3105 3322 -3064 0
2974 4973 798 0
-1744 -3180 -4421 0
-2729 -3391 -2731 0
3423 -3970 1080 0
1888 3577 -619 0
-4407 4370 772 0
-16 1908 2693 0
803 4106 -4325 0
-2792 2306 3153 0
-2084 1479 1449 0
-1442 -3245 870 0
-1770 -1235 -4121 0
3312 -2723 4175 0
3854 1151 2596 0
1098 -3162 -1842 0
-3140 3784 -1844 0
4120 2653 3642 0
-2427 1840 1280 0
3340 548 -1528 0
1192 -2734 3618 0
2514 3781 2284 0
-4819 -198 4216 0
-4473 -3065 3507 0
-1573 3672 -4881 0
4907 -2305 4047 0
868 1808 -2602 0
-83 1235 3641 0
4953 1902 4952 0
4433 2631 -2336 0
1816 1702 -3677 0
475 2168 -27 0
-4645 1721 4886 0
-2185 1839 -3396 0
-1204 4690 -3681 0
-1810 383 -529 0
-3316 3025 3802 0
-4792 3881 3429 0
-2642 882 -4731 0
-2085 -418 -4507 0
-3779 3221 478 0
-1165 -2976 2256 0
4193 -4514 4238 0
-4633 -4340 2424 0
-240 -4698 -3873 0
1076 2476 1773 0
2566 -778 300 0
-1743 3998 1847 0
1358 2258 -358 0
-2322 -2225 1162 0
3565 -283 4972 0
784 4933 -4173 0
1034 -3070 488 0
-2469 1875 633 0
-185 -2046 3972 0
1209 116 -1700 0
-2558 3785 3020 0
-26 840 3009 0
-2152 -1804 4876 0
2169 4266 -4753 0
2088 -4047 -697 0
4625 4966 2 0
3757 -3525 4553 0
-3944 -1439 4248 0
-1955 2766 -4752 0
-3922 2847 4041 0
-3199 711 4644 0
-1212 -96 -1342 0
396 -4821 -3325 0
2949 -3597 -1135 0
193 -1409 -1536 0
-1558 -4288 3927 0
2679 1917 -1256 0
2090 -3821 -768 0
-2779 -1153 4170 0
3352 4857 2685 0
4854 4631 4829 0
2798 -3809 1642 0
377 -4569 539 0
4188 -971 52 0
4635 -4963 3098 0
-303 2034 -179 0
751 -896 -987 0
4136 -4564 4398 0
-4168 3134 -2782 0
3888 -3895 -2250 0
1937 -2349 3338 0
-4048 73 2872 0
-1902 -834 4842 0
871 2345 -781 0
-3520 -4023 -1659 0
4075 -2985 -202 0
-4213 -2246 -2717 0
1728 -698 784 0
-706 989 -2966 0
4993 3714 -532 0
2631 -1617 -3325 0
3342 -1642 2261 0
3675 2129 -3127 0
-4364 3783 -4324 0
1993 -3154 -751 0
2127 2735 2731 0
1811 4118 4619 0
1602 4034 -1694 0
-3061 -1759 4325 0
4026 3302 4195 0
-4276 4908 -4444 0
592 3391 -2835 0
2600 -204 -3396 0
-4733 -1454 -1220 0
-366 -4478 -3708 0
1094 4270 -3804 0
655 936 -4717 0
4720 -3558 3030 0
-3044 547 2834 0
2291 3230 252 0
-2026 576 -4524 0
-844 1863 -349 0
-841 4302 2882 0
-4091 -1260 4972 0
2849 2296 2352 0
2952 2228 377 0
2998 1426 -996 0
1713 2912 -1868 0
4097 -1973 616 0
-1940 -3883 -3336 0
-833 -4229 1499 0
-33 4511 635 0
-4033 -4561 -4514 0
4377 -3862 -4575 0
-254 -2629 4109 0
2924 3028 -303 0
2630 1538 -1564 0
2393 -3588 678 0
-2440 -1327 -1157 0
1998 4440 -809 0
-1404 -3924 -2345 0
2885 -3976 145 0
-560 2256 2881 0
-536 1917 -4398 0
-1493 -1130 -2785 0
-996 -165 -2572 0
1711 1621 -4092 0
4822 -4105 3572 0
3793 -2958 4560 0
-1115 -4275 -1302 0
3310 3422 686 0
3374 -1377 1681 0
1638 -4656 1490 0
2751 -4423 -3197 0
2730 2271 23 0
64 -2484 3683 0
3638 -2350 1375 0
-4124 -805 3697 0
-2131 4938 4532 0
963 -2655 -3792 0
664 -3918 -1951 0
-4165 4781 4146 0
1639 3345 4150 0
-4430 3212 422 0
-4854 -1120 2197 0
-4552 -4456 -2323 0
2454 -4225 -2578 0
2199 1467 1093 0
-1092 1049 -2363 0
-4464 -4485 2139 0
1644 3293 2884 0
2427 -1145 1432 0
3699 2254 -3980 0
-4299 -4884 624 0
1095 3684 -2927 0
383 3986 4047 0
-2939 1549 -1365 0
-3545 1651 -2722 0
-3 3784 2145 0
3062 560 2297 0
3315 -1530 3143 0
2420 668 828 0
1152 4118 -581 0
536 2798 -256 0
3089 3616 3928 0
2464 -3154 -4239 0
-4853 -3146 3248 0
-4220 -1268 -1118 0
-3528 -2012 -4137 0
596 3614 -3319 0
-3950 5 -1785 0
-4439 1471 -4444 0
-1146 -4788 -2613 0
912 3403 -4687 0
-4589 -3846 4226 0
-3399 -1912 737 0
-2616 2433 1361 0
-3993 -3287 -1429 0
-2623 -2756 3751 0
-532 4656 1472 0
-1766 3390 -3898 0
2816 3269 838 0
2078 -1475 -4809 0
-1851 1004 -1472 0
-1499 -4411 -4677 0
-3687 2341 1614 0
4946 4714 -3935 0
-1796 -2608 -1038 0
1620 -4336 -3646 0
2057 2832 -4914 0
4113 -2502 -1492 0
-3149 -4479 -3034 0
1988 -4703 3815 0
3390 3073 -2588 0
4129 4950 -1590 0
-4813 2023 -2863 0
-33 -1324 -3616 0
4873 -2747 4366 0
3231 -911 -1444 0
2104 3725 -2931 0
956 -3789 2783 0
-3770 -3427 -1635 0
-3360 3070 2115 0
-35 969 4431 0
-3343 -4173 4546 0
-1436 1929 -2730 0
230 1275 4826 0
4350 -3373 -271 0
-4931 -4308 4367 0
1143 3493 4566 0
-362 -2666 -4900 0
-2576 2605 -2992 0
-2873 3668 1999 0
-2706 4900 -4532 0
3612 -3463 -1579 0
4681 604 2703 0
3520 -2165 3007 0
3532 2915 2512 0
2444 -2996 -2224 0
1187 -3702 -1787 0
2662 -2062 4662 0
-3442 3198 -2101 0
4316 1773 -4317 0
-489 2446 -3488 0
-3465 4664 1267 0
1871 -4633 2667 0
3155 -4982 2817 0
579 1019 -2286 0
2363 3374 254 0
3842 -3189 -1847 0
-70 -1342 997 0
-707 1576 2482 0
2506 3826 -4609 0
2321 142 -3431 0
-1701 -2910 44 0
3701 576 -2758 0
1137 3643 -2347 0
-4173 2350 -2008 0
-4727 -3769 1997 0
1490 -1973 129 0
-2531 -1646 4502 0
-2382 -2318 2904 0
-1012 -2694 1120 0
-411 -1669 1973 0
-639 -3806 -3652 0
-3489 -2441 1979 0
-4287 -2384 -1238 0
-4386 5000 2484 0
1180 -1836 -3856 0
1670 1382 -4452 0
3554 3674 -3551 0
4970 -2654 4121 0
-897 -3646 1487 0
2482 2052 1327 0
149 -3254 1559 0
3499 -3466 1733 0
4963 475 -1355 0
-3412 1733 -475 0
-1587 393 4154 0
876 -3521 -4699 0
-1978 -2367 141 0
-4818 -4512 4823 0
2920 -3920 4278 0
1842 4474 2471 0
-1062 2044 -757 0
-3041 -2809 4498 0
-4739 2662 176 0
2735 -2675 1256 0
4747 3029 1385 0
532 -3842 -4612 0
1894 2470 -4753 0
3852 2262 2491 0
-1262 -4642 -2098 0
2754 -3331 694 0
-3818 -2205 3492 0
4198 3940 558 0
921 -3800 -4591 0
172 1307 -636 0
-1278 -3997 -2232 0
-1104 -4105 2294 0
-947 2781 -2067 0
-1287 3930 2808 0
3348 -2681 4459 0
-2217 1318 1278 0
-3322 1555 -379 0
-4531 4087 658 0
4392 3137 -3274 0
538 -2410 205 0
2588 4243 4873 0
3100 1698 4275 0
3143 272 4945 0
4182 1922 -4613 0
2561 -4348 -4361 0
1440 2798 -1568 0
4754 4215 3301 0
1286 -3769 -4402 0
-3639 3858 2144 0
4248 3630 -4104 0
-4094 -3360 4026 0
1002 -669 -140 0
-108 -3985 -534 0
340 -2937 -687 0
-2480 4020 127 0
-2803 -2516 -2136 0
-4052 -1369 1949 0
752 -1793 4697 0
-3056 -2064 4299 0
1984 -1041 4692 0
-4422 -2617 3741 0
3317 2502 -279 0
-1202 -2383 -2023 0
2674 3999 3748 0
4124 -3308 3808 0
4067 1040 4010 0
-191 -693 901 0
2662 -1292 1813 0
-1368 -3745 4089 0
-3780 2500 2795 0
4942 -4360 -4872 0
-3420 423 435 0
3334 4658 -1400 0
-1632 -2970 -4277 0
-2535 747 1861 0
-331 -2762 -805 0
-4729 977 1840 0
2401 4453 3705 0
1648 -220 -3087 0
1790 -838 2742 0
586 1081 -2773 0
-4153 1622 2488 0
1338 -1070 -770 0
-3335 -2144 3657 0
2321 4940 -2107 0
-831 -1499 4737 0
3024 -4142 -280 0
-2182 3681 -1633 0
-4651 -2423 -3889 0
4343 1029 3379 0
-4822 -1302 4411 0
2493 -165 -2233 0
-2055 2723 -19 0
2001 -3324 258 0
-1236 4848 -3114 0
-1575 -1178 -2184 0
-3725 1956 1549 0
-797 -2749 -3278 0
1616 1488 1867 0
-1756 -4981 491 0
-1022 -647 -1280 0
-135 -2705 2427 0
320 -3787 -2543 0
867 1993 1420 0
-2503 -1972 -512 0
-1793 -1804 -1885 0
-2302 1525 3921 0
4058 1049 -2883 0
-4148 648 3713 0
-2174 925 -4030 0
-1959 -2088 895 0
4048 2502 -1729 0
-3738 1400 3074 0
2399 3487 -1432 0
2303 3862 805 0
-3875 2999 -4965 0
-4031 1005 -3581 0
-4917 1710 -387 0
-4112 3531 531 0
-3165 3247 -989 0
1222 4043 3909 0
-4833 2596 3628 0
-184 -2999 -945 0
4263 4427 -1758 0
3749 -3151 -1834 0
4048 -2543 -40 0
-335 1441 -4542 0
-2084 -2514 -454 0
4344 3395 -476 0
1978 -3412 -1146 0
-3185 -4922 -841 0
-2250 2467 3914 0
4396 196 2448 0
14 -2783 1400 0
-489 -687 2107 0
-1123 4740 -673 0
4947 936 4023 0
-2749 4546 3123 0
3756 -3797 -1564 0
2427 3532 -527 0
2064 -1171 2341 0
-4521 -4778 -4949 0
2981 -4742 4837 0
-2258 -353 -255 0
3389 -868 -1272 0
-641 4976 514 0
3198 147 -4117 0
-3661 -3777 -3082 0
-816 -4902 4262 0
-72 -1965 202 0
-607 -4010 4102 0
4789 4838 -3769 0
57 -929 3928 0
4431 247 -586 0
-4672 4394 -4255 0
2729 -2253 2325 0
952 -3992 80 0
-2440 -2897 309 0
-4728 3362 -362 0
-3162 -1792 -1462 0
2444 4892 4020 0
1436 4622 595 0
3583 3309 -1393 0
2024 -2813 -472 0
3085 4400 -4571 0
4906 -3773 4325 0
1755 281 641 0
4418 -3596 4526 0
2837 3710 -2407 0
1422 4482 3774 0
-3546 -924 3149 0
2290 -1613 1653 0
-1778 3113 -462 0
-1408 1798 2019 0
401 -4857 4230 0
583 -3600 -1492 0
-2625 1029 -3256 0
-2858 -2762 91 0
-4621 -2752 1498 0
-3204 -373 -3228 0
4210 -3174 3441 0
4262 -3855 -3866 0
-4950 739 -2551 0
2966 -1591 -154 0
-2042 -1145 -4207 0
3888 -4224 -2896 0
446 -2251 -479 0
-3942 -4523 -6 0
-2429 -335 -4977 0
3916 4296 -3955 0
-3599 4859 1108 0
-1345 -3981 1340 0
1491 -1066 -2269 0
-2738 -2059 2597 0
3599 -3223 57 0
1454 -3793 1280 0
-3266 -4118 -4065 0
1153 4143 -3015 0
4068 2997 2151 0
597 1633 2179 0
4344 -2928 -73 0
-3864 -4230 -3435 0
-2486 -2845 762 0
-1245 140 4496 0
-1555 -2834 -3915 0
308 2751 -1060 0
-1865 -4753 2485 0
-558 3801 1620 0
-3845 -4520 -3827 0
-3085 -1315 -1380 0
1804 -3410 -3729 0
3297 2029 1151 0
523 -1269 157 0
3802 -1118 2920 0
2641 1761 2207 0
4072 3932 -1513 0
857 -1823 270 0
3795 -370 -613 0
-2489 1259 -4321 0
-2876 1181 -2806 0
-2814 -489 1558 0
4584 -2304 -4607 0
-1053 -1708 -4646 0
-4784 4946 1752 0
-2298 -3627 -1914 0
2703 2230 4623 0
-4606 2915 1837 0
3643 926 -4051 0
2170 -214 3202 0
833 -4037 4245 0
-1820 2005 1993 0
4786 348 4665 0
4392 4048 3412 0
-3093 2425 -479 0
184 4903 2723 0
-1204 -1737 1773 0
3657 -4359 -218 0
651 2422 1915 0
1248 3258 3747 0
-1745 -3941 3373 0
3778 -4033 1616 0
618 914 -2452 0
4243 259 -2759 0
-3356 -254 -4266 0
-1800 -4999 1104 0
-2693 -1731 -2562 0
-4750 -1979 3310 0
-2434 820 -3469 0
339 -3375 -2853 0
3597 164 159 0
-3323 4957 -2538 0
-63 -324 3922 0
-767 -3857 334 0
-3652 -2305 4523 0
1029 4342 4957 0
1183 664 -1181 0
1060 468 1254 0
-736 -2101 -1165 0
4090 1792 -3329 0
-2392 -311 -1350 0
-1303 2318 -1610 0
-1199 -1505 2892 0
2424 -1072 -2935 0
363 -3857 4781 0
-39 1599 575 0
-3122 -210 4415 0
4657 4223 3170 0
212 4828 -4913 0
3769 2659 180 0
-1356 3761 -533 0
1596 -1261 1717 0
2354 -3641 -2177 0
-14 -3586 -1429 0
-788 2075 -2174 0
3417 316 513 0
1986 -3092 -604 0
502 -2417 4025 0
-3728 -3358 3850 0
866 -927 98 0
4437 -2342 3768 0
958 -1500 -1931 0
-742 2059 2622 0
-1162 3881 -919 0
90 2513 -3783 0
1412 4327 4318 0
739 4765 -1777 0
-2519 3038 -984 0
-4557 3894 4941 0
1904 1378 3645 0
-4506 -2643 -1253 0
4911 1820 -3930 0
-1540 4542 -3456 0
-4472 3443 -151 0
-3974 -4751 -1109 0
1407 -2972 2233 0
-1458 3890 -4168 0
-3982 -271 -2766 0
-3106 -951 -829 0
1415 1192 -820 0
-1952 343 -3584 0
232 -4991 3588 0
3970 2336 1828 0
-341 4950 -1692 0
4024 3115 4861 0
-2175 -4301 185 0
1105 -2519 -2937 0
4599 -190 1408 0
4240 4875 -2507 0
3507 -1551 1343 0
1764 4651 -3982 0
1141 -3512 2644 0
4482 2314 2985 0
-2940 -1521 3831 0
4443 1773 -1175 0
4039 -878 -3620 0
826 -525 4135 0
-163 1679 1747 0
848 -4430 -142 0
3641 1117 501 0
-835 -2015 -1737 0
-1665 2464 135 0
2086 -4069 -420 0
-1114 1405 2676 0
-2445 1577 -1718 0
-3303 870 2207 0
1130 1869 -4 0
2639 -2855 1720 0
-2375 3683 -1100 0
4118 -2180 -1855 0
-3525 4588 3960 0
-1149 -2947 -418 0
-2541 2552 -2110 0
149 -1450 -1162 0
2759 -3808 -31 0
-371 1803 -2382 0
816 -522 3913 0
-3913 3072 2636 0
4211 3248 -1517 0
4717 4187 -3700 0
-101 2250 678 0
-4951 2043 273 0
4135 -4676 4573 0
-1388 -474 -4266 0
4227 -2922 1963 0
-624 -2326 4158 0
4192 -4801 3875 0
199 -4607 4774 0
-100 681 -1545 0
-2557 709 -2201 0
-224 4087 -4376 0
1697 -3215 4942 0
4937 715 -4988 0
-2950 -3363 -2222 0
1538 4317 4341 0
-1446 -1539 4643 0
1135 757 -644 0
-3703 -1998 -1921 0
3751 1073 -2725 0
2440 -1286 1509 0
3743 901 -3214 0
-3015 3041 -240 0
1103 -4576 481 0
-1793 -3207 -2156 0
-3378 2117 1877 0
-2954 -4970 -1032 0
-2002 -1706 -713 0
-2929 1182 -4873 0
2809 -1331 1557 0
1128 -471 -2099 0
1027 1746 -4543 0
-2591 4827 4580 0
-3552 3001 3033 0
-4633 -3863 1285 0
-4380 3827 888 0
3874 -2449 3567 0
2188 -3616 -2854 0
4977 767 -162 0
2878 -2705 1451 0
-3805 -985 2886 0
-4668 -131 -2958 0
769 2783 2372 0
-3800 -330 4654 0
228 25 -4561 0
-1001 1775 2864 0
201 3833 940 0
4258 -1991 -2051 0
3468 867 -501 0
746 -4634 4691 0
-3325 -3730 4412 0
-569 1647 2055 0
-741 2831 -340 0
863 -1949 -3577 0
-3218 2051 -2039 0
3686 4889 -3159 0
-71 3053 -459 0
3868 -2834 -3356 0
495 -1499 -2951 0
-4499 -2591 -4038 0
571 4381 -761 0
4176 -2516 3504 0
-2338 1907 2156 0
853 3287 -3744 0
3385 244 -2479 0
-478 -4574 -2984 0
-1377 1820 -1730 0
-2997 3387 1591 0
4105 3337 -2418 0
-1555 2768 -3202 0
1859 -66 2617 0
1734 1499 -1548 0
384 -2317 -565 0
1274 -4972 2669 0
3658 1810 -485 0
-1551 150 -2640 0
780 -3814 -1080 0
4695 4653 2457 0
-2807 4622 -4141 0
-1986 888 -2933 0
3325 -1633 399 0
-1388 -4248 -4907 0
2184 -2639 -3719 0
4558 -1285 2867 0
205 1734 -1968 0
1727 945 -218 0
1137 -2129 1828 0
-3186 -2401 -3320 0
-970 -3208 -3047 0
1306 -1223 -1258 0
-2020 650 4131 0
3443 4134 -1514 0
3092 4362 3083 0
-3573 1207 1281 0
2533 -1883 810 0
3270 3988 -815 0
-3279 -2694 1891 0
-518 -3003 1206 0
-1153 -4295 -2593 0
-2028 4398 2109 0
-4658 -974 2760 0
-1905 -4884 3739 0
3595 -3031 4615 0
1983 1405 -2002 0
-4126 -3169 -418 0
2882 -577 1038 0
1582 4509 2197 0
-3314 -2814 -3838 0
795 1710 3212 0
-1791 3624 -1512 0
647 -1878 1498 0
-3653 -3157 2260 0
-864 -2906 3786 0
-84 -2617 1998 0
-2726 4496 453 0
1614 -2811 250 0
-4314 -4785 2812 0
-2906 4708 -3567 0
594 -2049 -4397 0
1510 2973 623 0
-1859 2071 -3084 0
95 -3847 -4950 0
-4730 3137 -1048 0
-3065 1585 1638 0
373 -3986 1274 0
3196 4352 -3605 0
-4855 -3990 -811 0
3290 -4989 -3764 0
-2364 -2805 -3840 0
-3945 -1556 2971 0
-3243 2756 3792 0
-4197 -465 479 0
-3767 4948 -4280 0
-3032 2000 -705 0
-7 11 3329 0
1232 -1965 1453 0
4234 -2740 1804 0
2721 2704 894 0
1753 879 -3851 0
-1272 -296 -2703 0
-3540 -2233 -4457 0
635 -61 3795 0
2477 2336 1620 0
-403 -1109 -4549 0
-1799 -611 4967 0
-3422 -4036 -3929 0
3434 -4455 -1412 0
-4652 -2993 3061 0
742 -3225 4553 0
-1142 -479 2927 0
-1911 3325 4292 0
-332 3884 -1211 0
-4644 -4779 4518 0
3594 -1871 4996 0
-1138 2300 1299 0
-2435 -1866 -4834 0
2099 1300 -3897 0
-3222 -2090 -3704 0
-2039 4479 2559 0
2580 -2642 -4588 0
-2097 2708 4499 0
1214 -1895 673 0
738 -4640 4466 0
2886 -1592 575 0
2901 972 2870 0
-1369 -4813 274 0
-327 -359 1135 0
2700 4503 -2315 0
-3474 110 -1010 0
2843 -4163 -788 0
-1197 -4099 -22 0
-2889 3653 296 0
-4232 -1726 -1150 0
-4128 -2956 3854 0
-2828 -3137 -2180 0
-1056 41 1829 0
-938 511 -1424 0
-3335 -4336 -529 0
4751 -2762 4245 0
-3385 -2826 3323 0
1398 -4759 -1230 0
-667 3031 -4971 0
2893 2776 -1037 0
-4942 -4330 -4463 0
-1611 3022 -2765 0
2351 2325 -3630 0
3213 1383 3604 0
-4290 -4417 -2520 0
-461 1047 -2072 0
-2078 4904 -1722 0
-2142 -684 3506 0
-2990 -4646 4095 0
1716 3770 1780 0
3467 -2637 -4937 0
88 1331 3248 0
105 -583 4680 0
-9 3751 -3164 0
4472 3397 -337 0
-3758 3187 -4592 0
4392 4260 -2582 0
3177 768 -3286 0
3752 -82 -3549 0
-4249 -633 -4695 0
789 503 4850 0
-2276 1790 -2916 0
4985 -963 -4589 0
2384 -4894 -6 0
-1754 -1327 3335 0
4265 608 -1097 0
78 2527 -4476 0
2670 -3464 -2794 0
-4489 -3897 1015 0
2368 1934 2795 0
-1765 -1925 2578 0
1647 -612 4934 0
2664 -2079 4598 0
213 2511 -44 0
-2736 -4860 727 0
3750 166 -2510 0
3147 -1719 -4379 0
-1043 1376 3599 0
1589 -2565 -457 0
-424 4299 679 0
3491 -1202 484 0
-3872 1217 1167 0
3567 1629 -3970 0
-3321 -4822 132 0
1765 -2802 -3400 0
392 1373 4756 0
-3637 -4085 4644 0
2846 -3080 -4230 0
1955 588 -3551 0
3278 -3013 932 0
450 1198 1955 0
-733 2146 553 0
4365 523 -2971 0
-4944 -47 4537 0
-3340 -1513 -2827 0
844 1631 3516 0
2035 -2307 4158 0
1666 3717 4559 0
1258 -1981 1138 0
1910 1868 -4368 0
1344 3381 94 0
-4470 -2669 1052 0
3991 3147 -3351 0
-1626 4169 1395 0
-4380 -773 2465 0
-88 509 -2837 0
1137 4526 -3979 0
-3454 3542 3630 0
-2560 1988 -170 0
2027 2097 -3986 0
1715 -2878 1355 0
-3903 -2780 -2196 0
-311 -1975 -2698 0
146 -1616 -4027 0
-4845 1113 -952 0
2885 -3402 -3868 0
2757 -1373 3097 0
-874 -1238 1282 0
-1425 3631 2005 0
3064 3915 -529 0
-4631 -1152 -176 0
3737 1227 4894 0
4445 -324 645 0
-63 3056 -3490 0
-3041 -3419 4690 0
447 244 -215 0
-1665 3398 3899 0
-3840 -3929 -908 0
-4142 989 -2642 0
3912 4403 -104 0
251 4551 -4173 0
-1406 504 4605 0
-2841 -1538 443 0
-1020 -1351 -2917 0
-1165 -4536 2558 0
4312 -3594 2758 0
3007 -4119 -215 0
2881 3762 -1783 0
970 -1006 4243 0
4017 -2903 -1786 0
3422 3403 1261 0
-167 -2502 899 0
-3684 -1189 2618 0
1051 3056 -2839 0
2026 1222 -1419 0
-2439 -4375 -3 0
3980 -4906 1206 0
-264 -3226 -731 0
-1706 4133 4137 0
4117 -2725 -2209 0
935 4897 3627 0
434 -1430 2299 0
734 -3980 -1862 0
-3508 -771 4070 0
1149 -4193 3129 0
-170 3677 -1225 0
900 -4826 -2249 0
-3524 1958 3191 0
-3277 2716 3429 0
-152 -3262 -2191 0
-3513 4095 -2667 0
-763 3159 -3183 0
-3017 -2180 4694 0
2911 -2336 2918 0
3298 3965 -852 0
409 4955 3748 0
-2650 4472 2360 0
-464 4705 4540 0
-343 -636 -4302 0
1752 1585 -4651 0
613 2449 -2220 0
1103 2447 -3663 0
78 2651 1890 0
2220 -840 4648 0
1362 -1880 -434 0
4682 -1240 4226 0
4953 2111 4806 0
3491 -4429 -1299 0
3246 3995 4803 0
4655 -2049 -2527 0
-4206 -2350 -2169 0
246 4886 -338 0
1171 2600 1879 0
-4979 1082 -1931 0
3987 -1486 2314 0
4366 345 -709 0
-2079 332 -3805 0
945 -1970 1437 0
-88 -4076 -4648 0
3713 3856 -2567 0
1878 970 -3139 0
-54 115 1467 0
-563 2134 215 0
33 3519 2454 0
711 4710 -4980 0
3858 -1726 2115 0
-3319 -4990 -3815 0
-4329 4901 3838 0
-4246 1993 -387 0
-4598 -2137 -2387 0
-3094 2939 -3903 0
4389 601 -673 0
1237 -4576 1760 0
3236 4776 4298 0
-3758 -2735 321 0
2118 -338 -3498 0
1578 3570 2563 0
3103 2759 3698 0
-2110 2420 3838 0
-2574 3378 445 0
2204 -3101 906 0
-488 -632 414 0
4467 1536 -4195 0
-772 -1927 4518 0
-343 -1432 4077 0
-2877 -2023 -3004 0
-2599 336 4129 0
-1338 1995 784 0
-4392 4281 3149 0
-4802 1804 -1894 0
-438 1689 -3957 0
-506 -4945 -4419 0
875 1105 -3077 0
1452 211 2566 0
1194 -2446 1614 0
-3569 3763 1246 0
4370 4759 -1091 0
-4596 1248 -1319 0
715 2049 -425 0
-3152 3203 -3285 0
-2052 -1844 3428 0
4445 -188 3418 0
-3755 -4876 4261 0
1582 -2229 -2520 0
72 3180 -2089 0
2422 -2950 3503 0
3428 -3089 1865 0
-46 -1345 -1135 0
-4291 4601 -2331 0
4912 2989 1153 0
-4837 3492 -4828 0
3653 -4447 2916 0
-718 309 -1104 0
-3681 -4053 2112 0
-3495 -1741 -925 0
4706 -95 -4326 0
4543 -4715 2573 0
4415 -4868 -1027 0
-4953 451 3535 0
-3674 4228 -5000 0
1294 1759 -4512 0
-3481 -2182 -107 0
950 644 -241 0
-4135 1927 1340 0
-4183 4253 -596 0
-4302 192 1225 0
-2334 -1908 -2490 0
676 -1194 2159 0
1307 -2537 97 0
-3503 3953 -2604 0
2730 3166 268 0
3202 86 3559 0
1126 -4995 -2764 0
-3963 -2916 600 0
-4783 3002 2978 0
2523 -1257 870 0
2364 -2198 -3806 0
-2121 2908 2101 0
633 -384 -410 0
-817 4854 794 0
-494 -1237 -2541 0
3978 1735 4660 0
-2341 -3763 3057 0
4109 620 3794 0
2069 -2859 -2982 0
-1360 3650 -852 0
-3321 952 -670 0
-2384 -1190 4744 0
-2082 -2702 966 0
-1440 4972 2133 0
-3279 -761 -4270 0
664 1310 -3810 0
1978 3744 1709 0
298 3003 4154 0
-2826 -1798 -3638 0
3940 1274 3011 0
801 -1700 -1713 0
-1975 -676 915 0
-3790 -863 790 0
-747 798 -4927 0
97 3876 2183 0
-626 4933 -2772 0
2340 -507 -1161 0
3255 -1021 -4212 0
-2986 2655 24 0
3818 -4177 1337 0
1675 -3665 -1272 0
1920 2937 4731 0
3945 1364 -2546 0
345 -4460 4060 0
1404 -4532 -1908 0
3372 2469 3563 0
-2642 2715 -3533 0
1144 2821 177 0
-579 -3233 -4393 0
2762 3010 -391 0
-4330 -3118 1147 0
1335 -4400 3140 0
-771 -2744 2263 0
3622 -130 -3157 0
-864 -1231 -4982 0
-1279 -1477 -4227 0
-863 4616 1249 0
1821 3088 -1216 0
-2729 321 -3259 0
4183 -480 2051 0
-4828 4274 -2037 0
677 -4566 -4321 0
-1915 -2289 -4807 0
4623 -4036 472 0
-2700 4137 2162 0
-3578 -2149 1480 0
3182 896 -3781 0
-1095 -3181 2306 0
-721 1282 -2132 0
-2225 -614 3761 0
1175 3558 -4997 0
302 3226 -1907 0
1340 -3334 -4544 0
-295 1120 -1759 0
1229 -591 777 0
-190 -4482 2873 0
-3442 -3476 2850 0
-722 -3570 1402 0
261 4411 650 0
-328 3702 -373 0
1023 4348 -2796 0
-4467 245 3245 0
-3163 -3375 2495 0
-908 3824 444 0
-2956 1489 265 0
4687 4040 4273 0
1251 2812 4516 0
3805 -3851 -232 0
2564 -711 -2020 0
-3072 -4801 1629 0
3829 -793 -66 0
1522 946 -2580 0
3450 736 1997 0
3379 2928 3783 0
-588 -2987 -1334 0
2708 -2422 1787 0
1022 1234 3638 0
-3065 -4341 3345 0
-2552 -625 -3962 0
-2929 4777 1712 0
1589 2740 -2447 0
1953 310 -4133 0
-1050 -406 -4472 0
339 -2089 -4649 0
3477 -973 -1740 0
4595 -1076 2789 0
4912 629 -1791 0
3373 4205 3181 0
-1322 -1581 4220 0
-3817 -914 -1336 0
4994 184 752 0
1334 1946 -1624 0
2737 -4143 -1562 0
-4855 1439 -4549 0
4707 -2839 -1212 0
-2527 314 -841 0
-1988 -4181 1541 0
1830 4612 -1399 0
1930 4690 2159 0
-40 -3721 3297 0
-1368 -1423 -4829 0
-2748 4524 3043 0
1807 -2254 -2551 0
-1655 2542 1373 0
-1095 -4982 -3361 0
-4203 4525 -1912 0
786 1003 -1031 0
4134 413 3751 0
-1428 -3087 64 0
19 4920 3757 0
3771 4904 298 0
-3571 -4606 207 0
2821 832 3791 0
1227 -290 -4636 0
-4872 -4074 459 0
-1114 3987 1486 0
1731 -1808 3913 0
196 -538 -1792 0
2907 2503 -4525 0
-2391 4088 4569 0
-1021 145 2543 0
887 -3038 2302 0
-3832 1716 -2548 0
-181 -1462 -4224 0
-2025 -292 -280 0
-2491 -2877 1188 0
-2299 -1511 3126 0
511 -4226 -266 0
-2016 -8 -4003 0
923 -4847 -1720 0
-2573 4313 -529 0
4708 3939 381 0
2951 4120 4984 0
4436 3511 1211 0
3459 2804 -893 0
267 3056 -351 0
-2314 4853 2211 0
-4138 1391 2506 0
-3831 3770 4062 0
797 -624 2516 0
-2484 -81 1865 0
4941 -1608 1581 0
3144 34 -1586 0
3635 1238 2117 0
-3654 417 -2647 0
-4427 635 4107 0
-3856 3318 3085 0
3246 -4512 3956 0
3541 -544 4929 0
4564 -4226 -3614 0
3513 3716 4076 0
-4244 -3541 2140 0
-1851 -2034 -4047 0
3323 -1760 -2066 0
-1163 -3502 -198 0
-4250 -1890 -2413 0
-3564 -3670 3242 0
827 -404 -3071 0
-4748 -2706 -1025 0
-1588 -807 3167 0
-3766 -3459 -1235 0
-4885 395 2396 0
67 4043 4775 0
1862 -1797 1964 0
-2299 1343 2835 0
-77 -2011 -2687 0
4713 -1135 -4509 0
2066 2698 -1054 0
-705 -808 -508 0
402 -4974 -2174 0
-4248 4821 2580 0
3343 4355 2566 0
-4066 -3490 -4072 0
4866 -2640 44 0
-1111 4682 2127 0
67 -3520 -2119 0
2270 -3994 2940 0
2691 4390 -187 0
3330 -484 1355 0
2998 710 -4674 0
4467 198 -1872 0
-4387 -506 3808 0
-1526 -1109 612 0
-417 -3676 -644 0
-443 -1664 92 0
-3988 -266 -3946 0
1635 4259 -2304 0
-1235 -2491 -4685 0
-2723 2264 182 0
3061 4857 -3640 0
262 -762 2668 0
1533 -423 -1676 0
-2754 -445 4242 0
1715 451 -4589 0
-1139 -3646 1772 0
-1180 -349 -818 0
1542 4896 4962 0
-1838 4758 -1099 0
-1838 3994 -910 0
-2055 3037 -798 0
-4919 -4057 3390 0
4115 4406 -1620 0
-2558 -3271 3497 0
-3012 -2700 -4171 0
823 3201 1349 0
4027 4968 -2701 0
-3947 -1738 -3034 0
3626 3174 -2842 0
630 4779 2468 0
-2146 -3062 369 0
-4951 -2907 2786 0
125 2012 419 0
-834 3378 -3196 0
-3307 -1165 -2889 0
-1604 3557 853 0
3068 1247 3886 0
-3917 3561 -3300 0
1820 2529 326 0
-4577 3996 4878 0
-3428 4812 -3761 0
2579 -4209 -1192 0
637 -2075 -3129 0
1674 3284 2477 0
832 -3617 4091 0
4139 -3789 -3477 0
-4601 -1830 -1289 0
3619 1555 3827 0
-1054 2987 4369 0
3781 2188 1774 0
2912 -4816 -1869 0
2507 -4148 -464 0
-1737 -2830 183 0
-3714 1105 1187 0
-1158 -1807 -2507 0
188 376 -1163 0
-1234 33 2949 0
4604 2456 3119 0
986 -3904 2634 0
4041 4539 -970 0
-4700 2706 -56 0
1522 4755 560 0
3768 -4412 1931 0
-3821 4919 -4764 0
3046 -4152 -2940 0
-1269 827 2745 0
-2191 -3674 4441 0
3102 -541 -4959 0
4476 -485 -1960 0
-1298 2190 1977 0
2683 -4466 3059 0
-4501 3286 2125 0
-405 349 -3724 0
3418 -2249 -3849 0
-1179 4944 303 0
-4218 2760 -4734 0
2263 2011 4901 0
2048 4414 -2572 0
-2221 -111 2259 0
1245 -1151 913 0
4525 935 1827 0
1866 -1292 -983 0
-2140 3590 -2067 0
4560 2521 -4844 0
-4761 3730 -3072 0
1248 1962 -4537 0
-3714 1798 -532 0
-569 -3641 21 0
-102 -2420 3805 0
320 242 940 0
-2999 1500 3859 0
-3055 -993 2263 0
-1672 -176 3571 0
-2472 152 1244 0
-906 -2651 2025 0
4436 -1148 -623 0
-995 205 -4650 0
-4644 -1238 -1840 0
3886 4960 827 0
-4669 1497 1016 0
950 4536 4209 0
4942 -2725 3503 0
-2168 2854 4388 0
4144 -5 -3489 0
-1804 3830 1453 0
-4724 -697 -4176 0
-3891 1289 -3239 0
-3128 -1671 -3873 0
1808 1690 -1623 0
3620 -2336 -3810 0
4120 3433 828 0
-1121 -1647 -4505 0
4422 15 -500 0
-3748 1199 -967 0
1878 3611 3872 0
-3483 2319 4487 0
2748 -2047 1502 0
1094 4607 4360 0
2711 -3993 2065 0
1961 1625 3578 0
-256 4382 146 0
-2776 4337 -3245 0
844 -4931 4350 0
-2685 1173 2692 0
986 -1659 1320 0
3423 -106 2382 0
-145 1603 -1384 0
4961 4119 2694 0
1187 4105 1446 0
424 2873 3876 0
4832 -4628 -4358 0
1232 -1286 -4965 0
4243 -17 -434 0
4198 822 -1460 0
4622 1713 -4319 0
3773 -4903 -99 0
-3182 3171 -3271 0
1114 1663 -4398 0
219 -4164 -2049 0
-1541 -3774 -3572 0
-4256 3370 109 0
-4513 4144 -2481 0
474 1888 -26 0
-4297 2411 1000 0
-2802 3684 3411 0
2986 2500 4063 0
-2123 -3219 2388 0
4029 -4853 1838 0
1032 -4810 -3176 0
-2697 -1904 4632 0
-4328 1551 429 0
2339 -4166 1142 0
-2934 -548 2564 0
-3268 -4049 -1130 0
2368 -1964 3791 0
4316 -1135 2520 0
-4861 -3736 2465 0
-659 4264 -246 0
-4343 3844 -4520 0
1485 3196 421 0
2332 4558 988 0
-836 1938 -1028 0
3695 3415 -3057 0
2192 3824 1186 0
4956 -1019 -458 0
-2091 490 4736 0
-1148 -3971 -1362 0
2394 4974 2160 0
-2133 -3777 -4168 0
-2022 2809 2020 0
-56 -4499 3837 0
2876 1465 -1393 0
2256 -2003 1531 0
4943 3221 -3788 0
-3343 -608 -378 0
4079 -1884 3737 0
446 2149 4631 0
-416 282 -215 0
1664 -4836 3368 0
-4764 -1874 -2045 0
2013 -4128 3443 0
-4097 -1832 -1495 0
-1511 -976 3655 0
-3224 4594 -2853 0
-3180 3303 1367 0
1871 1859 -735 0
2971 3801 4910 0
-1949 1678 -3268 0
893 -726 3819 0
-797 -817 -1328 0
4607 4074 4693 0
3426 20 -4288 0
2328 1220 -4819 0
-2985 -2673 3431 0
-1216 -4211 967 0
-4825 935 4930 0
-3979 -4899 -2610 0
-3599 426 -30 0
-2449 2212 2628 0
-3148 -2870 -4120 0
-440 -1727 -2225 0
-3807 2447 3888 0
3054 3961 -136 0
-1715 4490 1591 0
3862 -112 1762 0
1771 2151 1543 0
-4255 -3630 -1017 0
-4456 274 4888 0
-3699 -3582 3463 0
4897 2747 -224 0
-233 -3261 -3867 0
571 -2338 100 0
2398 -1586 -3125 0
4011 981 -4964 0
1464 -738 3230 0
4479 867 -1559 0
-1458 1671 -253 0
4808 -2677 1401 0
4923 4897 -23 0
2045 -883 -4879 0
3752 -2729 1363 0
2073 -1977 2466 0
2360 -1451 871 0
37 -1893 1098 0
-4330 -1715 -4696 0
-2737 -4708 1913 0
-2855 2731 4950 0
-4625 -349 2991 0
4520 -3052 -4886 0
2875 -1767 -1459 0
2932 1831 -1762 0
-2430 -1178 1186 0
-4051 1839 -1857 0
2540 -2224 942 0
-816 -3752 -3607 0
-3879 4271 -4029 0
2187 339 -3185 0
-54 -4528 -3143 0
3159 -407 3439 0
1351 193 3225 0
2940 -1956 3580 0
-1139 -2361 -2131 0
735 2877 3211 0
-1852 782 -119 0
-2305 -4522 -3248 0
-1414 4644 -2098 0
-3850 1090 4973 0
-1160 1953 1788 0
4714 215 1960 0
-921 4677 968 0
3829 4702 3824 0
-4952 2926 1801 0
2093 347 1370 0
-3627 -2718 973 0
-372 -2494 4484 0
4579 -2405 3024 0
-3944 2507 3357 0
336 227 2789 0
-2651 54 -1542 0
-4015 -3239 1742 0
1856 33 -1693 0
-3779 95 228 0
74 2994 -420 0
-1541 -4713 -3932 0
-2338 -1448 1809 0
-1383 2494 455 0
3575 3293 -1288 0
3209 2292 -343 0
3629 -3947 -1806 0
-2541 3231 -3583 0
4530 2340 -805 0
3040 -2149 -1925 0
535 275 4518 0
3156 3092 -4185 0
2289 -2770 -3456 0
-4061 -1401 1403 0
-74 -631 -2809 0
4018 48 1952 0
-276 -3227 -1464 0
-166 2162 592 0
-2032 -1791 -4045 0
-4221 -3278 -3883 0
14 -4624 3016 0
2095 -1120 4708 0
-558 3761 -4836 0
-4092 4828 -2780 0
-3235 2188 1138 0
66 3114 -2831 0
-2541 1272 -2234 0
2584 -1470 1209 0
-3804 2126 4307 0
-3227 30 -332 0
3248 1720 4087 0
-3399 926 2140 0
2808 -4689 3611 0
2217 4528 -3720 0
-1202 1976 -1283 0
2124 3233 -2060 0
-3391 3230 993 0
2247 -680 -691 0
-1242 -3857 1720 0
4739 -2873 -382 0
4360 -4063 1684 0
-4275 -3071 -4226 0
-4687 3817 -1898 0
-3623 -645 1589 0
4233 -827 2490 0
4373 3136 1628 0
-1387 -3696 3440 0
2596 1486 -3683 0
-3281 1444 -3014 0
-2309 -1981 1420 0
-1113 422 3910 0
2266 -580 1380 0
-2204 2446 -3241 0
494 3148 -4345 0
4029 1405 1426 0
2664 -2192 2734 0
2777 -3682 -4795 0
-389 3843 -3314 0
-4177 2079 -4294 0
336 1143 -1432 0
-3575 869 -3497 0
2567 -1576 -3048 0
-3992 517 271 0
-4840 -4443 -734 0
4322 3253 -4190 0
-1374 -2341 -3287 0
2364 -4161 -4356 0
-3534 -3661 862 0
3950 4447 -4067 0
2135 -2018 214 0
2583 -2517 2508 0
-2423 1204 3746 0
557 2841 2542 0
1299 -3865 -2739 0
1675 -4866 1656 0
-2702 3598 -4347 0
-3291 -3189 -4914 0
-135 1679 847 0
3646 -3074 -2953 0
3322 -2685 1131 0
3059 -144 4154 0
2329 3918 -4988 0
3512 3021 2675 0
4292 -4246 2416 0
-2246 1435 4002 0
4505 3928 -683 0
3937 509 4867 0
-44 -3318 -4727 0
4738 -3138 -2080 0
-4182 -1199 2343 0
-136 -1611 4417 0
-2405 -4525 4235 0
1535 -3587 648 0
1271 -1370 -4363 0
-3683 -4655 1253 0
-4726 2019 -541 0
-4524 -4462 -560 0
2651 519 1543 0
568 3134 -2114 0
117 2 -4687 0
2642 -867 -3508 0
-2615 1138 -2329 0
4871 1378 -2498 0
-366 1506 255 0
4878 -1215 2427 0
3403 -95 -159 0
-4933 3626 4336 0
2748 2485 1606 0
-107 -189 -329 0
-2726 -731 2656 0
-2988 -311 -1442 0
-4846 -3132 3551 0
-3009 1902 -4817 0
-4928 3514 -2650 0
3 -1017 2761 0
2863 2364 4798 0
4501 -4780 439 0
-3711 -629 1034 0
-3269 -2450 3802 0
4446 -4708 4809 0
-1904 3813 -4171 0
-2978 -4554 1496 0
95 2581 1366 0
-35 -3879 675 0
1188 -1439 4061 0
-701 141 -2013 0
-4694 -95 669 0
-3707 -3959 -4700 0
-1743 2520 223 0
1559 1660 2617 0
1624 -744 -164 0
4561 646 -1296 0
2042 888 3763 0
3834 2876 -3327 0
4326 -3989 -3171 0
-824 2041 -3901 0
-4508 -1317 -2608 0
-4337 3825 4737 0
-2164 3315 -578 0
4203 439 -1619 0
-1304 3176 -2533 0
-2948 1269 668 0
2018 4903 2614 0
1030 1206 168 0
-4404 2216 3968 0
2061 -2494 4948 0
889 1607 4719 0
-141 1235 3268 0
-787 -4825 4487 0
1499 1965 4580 0
4972 -2829 -4468 0
-4444 1142 3364 0
-1062 2283 -828 0
-3613 -4237 2877 0
-3401 1113 -4922 0
2024 3579 -4104 0
-4436 -4405 2689 0
259 271 -3735 0
-9 196 2775 0
-153 4292 -3211 0
1711 4961 3538 0
1304 -1072 470 0
-4400 -3917 -4850 0
-1532 4287 540 0
-187 75 1281 0
2856 611 1969 0
4187 -1986 -2234 0
683 -3496 -3746 0
-625 3309 1821 0
1874 -3263 -3388 0
-3233 1028 -4434 0
-2234 3455 254 0
-4351 -993 405 0
-1011 -3442 -4448 0
3537 -1151 476 0
3816 2997 2417 0
-1264 -1134 -1844 0
2599 3512 -4181 0
-1053 1387 1782 0
213 26 506 0
-1946 1632 2826 0
-1995 4550 1744 0
-3471 2341 4560 0
3164 -4148 232 0
-1043 4495 451 0
861 -3783 1544 0
-4802 4714 -2203 0
-1264 -2805 4072 0
-1705 877 -4258 0
2070 -2220 2723 0
-4034 -888 -3085 0
-1487 1740 -2345 0
120 -2311 -4779 0
917 9 -4665 0
107 -4539 2687 0
3100 4748 -3156 0
-4701 -1909 4766 0
-4446 -2112 4602 0
-2880 -730 4127 0
4489 4018 4561 0
3355 -2455 2448 0
-2676 -1912 2907 0
3738 -1241 -1726 0
28 -3008 -2100 0
401 -3583 709 0
-3018 -3310 -2031 0
-4020 2845 4157 0
-3979 992 -1952 0
-733 -4451 -1716 0
-2359 4312 -4367 0
-511 306 -4726 0
-1686 -4420 -3129 0
-4771 -93 -1195 0
-526 -2397 -991 0
979 3350 -2672 0
1594 2298 -3705 0
4161 4704 -4414 0
3558 -3970 -903 0
3133 -1157 1255 0
-4202 -3334 -2010 0
-2982 -941 -746 0
-4531 -2325 202 0
-606 1733 -3380 0
1249 -4502 3109 0
-3746 -1344 2099 0
1399 2957 2280 0
-2458 4609 -4784 0
-1228 -4061 -1264 0
-3849 1669 4369 0
390 321 -734 0
-4090 -2849 3751 0
-4640 1073 711 0
798 -4195 -3539 0
-2340 3143 -3673 0
-4713 -2564 -4151 0
-3344 -874 2347 0
455 -3736 -242 0
-2975 -1956 -2662 0
-4251 2289 -210 0
-1965 4500 -3918 0
1177 3387 4795 0
-3666 -583 1517 0
-3335 -107 3230 0
832 -3060 3838 0
1632 -2784 -3146 0
1830 2873 1435 0
-3806 -2816 3571 0
-1374 -2849 3587 0
823 1456 4584 0
-83 1826 1611 0
2411 3256 -4753 0
-558 -2630 -1702 0
1314 -2564 2837 0
-885 -707 -4429 0
-4824 74 3556 0
-1574 4077 4064 0
3979 -2175 -2144 0
2573 2742 4816 0
1566 1798 -3610 0
3260 -4500 -4122 0
-2477 -738 1392 0
956 1634 737 0
632 1166 2021 0
4847 140 3908 0
-4619 381 4825 0
-1366 -94 -216 0
3289 -3349 4136 0
121 2549 -2966 0
4350 1283 3903 0
-2459 4716 2386 0
-1815 1064 -3417 0
-3083 -2390 -290 0
-1515 -1030 4528 0
-1683 -2219 2600 0
-2666 -4220 2619 0
-970 2567 1819 0
1107 -332 -4649 0
2445 -1285 -4567 0
2758 -1328 4183 0
-3114 -3171 -2692 0
-835 2228 4071 0
4222 -2145 -2834 0
1828 1299 274 0
-4254 -3410 4642 0
-1726 1676 -3024 0
1523 2897 2525 0
-4688 -2670 4224 0
-1724 -366 1830 0
-3322 -4066 757 0
-689 -1600 -2608 0
-3387 913 2503 0
-2289 -4895 -45 0
-1889 4998 1449 0
-74 -1310 -1553 0
2303 2829 -833 0
-2545 -4531 427 0
4465 -3732 -3387 0
-1463 3360 4687 0
-1543 4602 4898 0
4374 3391 4732 0
297 1820 -1558 0
690 122 -2080 0
-2841 -68 -3218 0
-3280 -2009 -154 0
4432 697 173 0
-260 -4479 -3912 0
-1935 -132 -3788 0
3360 -1379 4192 0
841 1185 -3954 0
3974 2146 1368 0
577 -1477 -776 0
1121 -4421 4259 0
4215 3682 -2931 0
-1067 -3395 -2815 0
4865 4980 -1811 0
2945 -1997 -2029 0
-4096 1120 -1033 0
3934 712 4749 0
1922 2234 1835 0
-3476 1608 4278 0
-741 -4968 1099 0
249 -3756 4383 0
-2651 -3121 366 0
3940 -1182 1975 0
3655 3363 3424 0
954 1740 1265 0
3650 -2164 4431 0
4887 1964 -4037 0
-4342 -4932 -2090 0
-1992 767 286 0
3708 -3517 3486 0
-1295 3838 2897 0
889 -4223 2013 0
4268 -405 -2845 0
1308 4995 3133 0
1363 -439 758 0
-3118 2233 -892 0
-1794 315 -4854 0
-4284 -4567 -3774 0
1179 -922 592 0
-1023 -4266 -3123 0
2273 -838 2286 0
-413 427 692 0
3042 -1456 4141 0
-3866 -4253 -4728 0
4241 1604 3251 0
-718 1814 4375 0
2067 -4508 -1044 0
324 -3855 -1800 0
-1177 -1046 -1833 0
-3239 -604 3872 0
2957 3757 -3495 0
2587 -565 1729 0
576 3285 -788 0
-2602 -1208 -3900 0
625 -849 -4228 0
4172 -2018 3498 0
162 -2048 -911 0
-999 -1755 3897 0
3449 1408 1588 0
921 -1607 1512 0
794 3432 4427 0
-2391 -2688 -3284 0
986 -3946 1556 0
-2285 437 1841 0
545 -4646 -2732 0
-3178 -1573 2310 0
3992 -3246 -2752 0
3571 4106 -4512 0
-1346 -1021 -2200 0
4073 -2843 -3258 0
3285 3762 -3839 0
-1566 -3306 -3814 0
3499 184 1537 0
1537 -1078 1682 0
-4587 -3723 -4081 0
3644 -3227 4014 0
1953 -893 -3133 0
-3296 -1684 4528 0
-3163 1151 2214 0
-1550 2016 -642 0
3190 -1969 -1261 0
1673 2113 -1137 0
3846 -845 -2560 0
-1780 -2157 -2637 0
905 4817 -1916 0
-4745 -4388 -4026 0
2826 -4876 4178 0
4866 3632 2227 0
3883 -2522 -1678 0
-700 -3100 -3360 0
4872 -4273 -1840 0
1201 132 844 0
-4296 -933 1456 0
-4924 1570 -3081 0
-3958 -3063 4981 0
677 3946 2696 0
-3717 2537 2248 0
-2725 3273 3660 0
1878 141 -3027 0
-4299 -3540 -1452 0
-1621 -1887 -2845 0
4567 905 -4694 0
4519 3825 -2726 0
3729 -3537 1694 0
3827 254 481 0
-4585 -1913 971 0
1048 -2577 -3577 0
-2065 -2471 -1715 0
-2007 -2573 3107 0
-3920 -4806 -1561 0
939 -3358 -1603 0
-711 -490 3008 0
-3414 3558 -232 0
-4139 -2284 885 0
871 2681 -1310 0
-1212 -2381 2464 0
2670 -4974 -1652 0
3751 3998 4094 0
-2169 3588 -4517 0
61 -2929 -2116 0
-4062 3552 -3825 0
-2148 -4270 1887 0
-1932 4072 -1230 0
1388 -589 3156 0
3453 3241 2812 0
-4628 -621 3062 0
2518 3575 -2291 0
167 -4793 228 0
-609 -2880 3774 0
-3723 -1871 -3946 0
-211 -4215 881 0
3856 -2966 -4345 0
2771 3007 -1239 0
659 -3876 -3492 0
3854 -2044 1515 0
4686 -3162 3901 0
1322 -4333 3742 0
-3776 1573 -744 0
-1376 -4733 462 0
-1504 -3745 2190 0
-4129 -2069 1472 0
-2782 -1664 1504 0
3966 -4085 -4725 0
4827 3472 3229 0
4332 1842 -3010 0
481 2483 31 0
496 -3121 -1494 0
-552 2579 -1160 0
-716 4781 -3878 0
-3041 -1060 -1266 0
1854 -3092 1343 0
-1677 -1792 1472 0
1261 2741 4457 0
1741 -4433 1119 0
-696 -1845 -3957 0
-1670 -3093 2949 0
-3291 -2800 -3632 0
593 1340 -589 0
3904 -2272 1228 0
-1762 -3177 -1741 0
-2961 4221 4728 0
1649 -759 140 0
3730 -3201 752 0
4515 -1760 -304 0
-3580 -1349 2207 0
-795 -3722 3103 0
4713 -2790 1884 0
-1132 3412 -951 0
-4610 -1061 -1053 0
3744 4926 4817 0
-3353 -1443 4565 0
-435 1962 3588 0
-63 4802 625 0
636 3967 -1304 0
1957 -4782 -1230 0
431 -2293 -1006 0
-3530 2319 3904 0
1725 -2370 -2096 0
-4618 -43 644 0
3666 4558 -39 0
4576 355 -807 0
-1746 1937 4330 0
4429 -2823 -584 0
3852 -265 -956 0
-3371 -776 -1518 0
1230 -1208 3467 0
4825 -4881 2698 0
-202 2051 -3952 0
-2621 1983 400 0
-4817 -191 250 0
-224 1087 -1226 0
-4597 1984 -4516 0
2381 -1883 -366 0
-2680 4670 4044 0
-3050 2471 3147 0
-2262 929 3872 0
4438 -3379 1955 0
-1926 -1721 1806 0
-148 1537 3205 0
4952 -3292 -2765 0
-2166 -1575 1758 0
2580 813 -880 0
-278 4718 192 0
836 -2 -2654 0
-4382 2676 -3126 0
3618 271 3819 0
4503 -380 2917 0
-3026 3239 1385 0
-2333 -3956 1088 0
3123 2019 -2881 0
3790 -2020 1895 0
-3595 -2210 3524 0
3272 1564 -1171 0
3096 -3929 4868 0
1974 -703 -4037 0
16 -1145 261 0
-456 -4393 3110 0
1996 -127 -10 0
1640 -2367 3662 0
-4967 -4873 -3902 0
-3657 -738 3081 0
2323 -1089 -4753 0
552 169 -3180 0
4890 3169 -849 0
4493 676 -3882 0
-3211 2165 -1412 0
2729 2706 -1488 0
-3990 559 919 0
-754 -1409 3089 0
1638 -594 -3762 0
-564 -898 -4836 0
-2931 -2595 3283 0
1250 -3638 -71 0
2211 4497 -568 0
-2335 3807 -3843 0
-3111 2374 3636 0
4879 4441 -2346 0
2029 -504 411 0
-4009 -4884 -3299 0
-3422 257 -3253 0
2129 -4048 3104 0
1632 -2330 4517 0
2655 3569 779 0
-3091 -3899 -3787 0
-2791 -2360 1983 0
2945 -1702 -2306 0
4399 -2804 2310 0
2856 2488 -2644 0
133 4750 -1153 0
3808 -3790 -1526 0
-4672 1477 3043 0
656 -2357 481 0
-4995 -3245 3370 0
3404 416 3322 0
-3306 -3652 -1018 0
-2715 3112 -1332 0
-1879 1732 -1735 0
391 -2270 4427 0
1232 -4875 -4037 0
4650 -4018 1439 0
-2067 2331 3188 0
-1370 3234 -4966 0
-1364 3811 1308 0
-3838 3848 -4616 0
-439 3778 -2728 0
-4893 4078 1161 0
-4511 -933 4346 0
67 -2975 -1915 0
-321 1170 -2191 0
964 -2988 2854 0
1938 -3450 -1784 0
-4842 -3758 -804 0
-1622 4656 -3077 0
1325 -3816 -785 0
3022 1883 -642 0
-4090 -2851 -4578 0
-103 -2062 1543 0
-167 3142 3612 0
2579 -2376 -209 0
144 2441 2554 0
4065 -3857 -1359 0
1258 3422 -3408 0
4132 3988 -2042 0
-3964 3332 3226 0
-4795 1756 -4318 0
-2688 -3091 340 0
4285 390 -3720 0
760 4979 4146 0
1978 412 -4466 0
-1412 2474 2154 0
696 4336 2595 0
-1593 -1194 -1516 0
-812 -3995 -800 0
-3043 -327 3830 0
1493 66 -750 0
-2482 -4165 -1775 0
-2620 2585 -2577 0
-2892 -3840 -2410 0
-334 62 2535 0
3587 732 1831 0
2680 3891 149 0
-2730 -2880 -4586 0
3759 -2989 -35 0
-198 -3332 2498 0
-267 -116 1890 0
4268 -767 2260 0
3867 -3209 -3802 0
4140 -1500 2605 0
-1978 1026 -2866 0
4850 -4215 3012 0
-976 688 1897 0
3580 3485 -2367 0
600 -4939 -3006 0
-2379 -4205 -4062 0
-2340 612 668 0
2237 3865 -114 0
-124 2347 -1425 0
-4227 -1081 -246 0
-3843 3493 311 0
-368 173 721 0
1441 2529 1990 0
-1527 -1374 4690 0
1587 1558 2215 0
-4359 -3165 -3541 0
-3312 -3257 -3585 0
2671 2141 -4804 0
2606 -2235 3354 0
-3692 -4426 -2284 0
2812 2049 -3855 0
2426 2190 1502 0
3280 -3917 -3083 0
-283 4022 64 0
-4500 -610 -226 0
3308 -4309 2463 0
1028 -2812 -4528 0
-3386 -3549 -3259 0
2426 -1915 -4122 0
3795 -2705 4841 0
2817 -4033 -3874 0
-4400 -1401 -1910 0
4181 904 90 0
-2213 -10 60 0
-2821 3149 3066 0
1428 3070 483 0
1340 -3512 493 0
-1009 -462 -821 0
660 4614 -518 0
-4624 -157 -2020 0
-492 -2653 -1286 0
-3068 4847 463 0
-1074 4320 -3199 0
-4194 2859 -4182 0
-1733 1399 2023 0
826 4504 -2011 0
117 -4968 -1765 0
3226 -1739 4848 0
4385 -4271 -4029 0
4499 2775 3186 0
2919 -259 3888 0
-929 -887 -4034 0
2365 3993 2462 0
1841 -2363 -3943 0
1216 -1877 -4747 0
-4936 -472 -4007 0
3088 3786 664 0
-2271 -4540 2212 0
110 -3886 -2844 0
-2482 -1339 4668 0
-1116 2848 -2308 0
4855 -4088 -3442 0
2681 -4208 -2661 0
-4537 -4068 -3146 0
-3607 -3278 -3854 0
2077 -1030 2260 0
-1176 3313 3513 0
-825 -2396 -3319 0
2414 -641 -1412 0
-2230 -956 3766 0
-483 3726 1423 0
889 -1072 130 0
2962 -4982 1793 0
971 629 -3898 0
-4935 671 -3673 0
-2315 -4588 -2989 0
-1968 -182 -2246 0
2561 4223 -902 0
4217 -4133 -2183 0
4143 -4 -792 0
3381 4355 -925 0
4135 1766 3447 0
4219 -2401 2362 0
-3270 -4275 1632 0
2479 -3299 -3369 0
-3 -2964 4262 0
-425 -3497 -3876 0
-1778 -3522 -894 0
-375 -1466 3233 0
1074 117 4395 0
-3556 -1393 4783 0
-77 -4760 4921 0
2116 4473 4727 0
3222 4109 338 0
-1922 -2250 4796 0
3469 -4120 4703 0
-3830 -2062 74 0
617 3306 -73 0
4792 -2003 -1637 0
-2153 991 2295 0
-621 3488 -4155 0
-2246 -1319 2531 0
735 1270 -4252 0
-2309 -1858 1350 0
791 -682 566 0
988 -1987 -3900 0
-456 -222 1168 0
3035 2937 -619 0
-1266 -34 1927 0
-4376 -4901 -2686 0
-1945 152 -4874 0
3979 -1120 -4140 0
-3274 1731 3651 0
-4978 -3771 -3744 0
2171 2254 -644 0
4940 -3599 -146 0
-2205 2657 -4569 0
2666 -4733 -379 0
528 3446 -2661 0
-4039 1837 -3814 0
506 2900 -4007 0
1269 -1941 -3806 0
-3947 -1628 -3177 0
1490 -4387 2266 0
3704 2747 4293 0
-2118 -3821 3551 0
3636 -3066 2053 0
-3050 400 4519 0
4915 3332 1382 0
-2759 -228 -3710 0
1405 -3273 -3697 0
-1964 742 3760 0
2492 2261 4952 0
1145 3134 -1431 0
-463 3116 2695 0
-1040 4686 -1295 0
-2418 2258 2184 0
3330 3501 -3067 0
-2873 -962 -2523 0
-2179 -2324 4656 0
1609 838 -4821 0
1114 -1817 -1184 0
-4414 764 645 0
763 -500 -638 0
105 -3318 2975 0
-977 73 -4658 0
160 1610 4674 0
-2008 2434 -426 0
3274 -957 -4653 0
-1645 4647 4783 0
2413 1277 2355 0
-2849 -1928 -2200 0
-3282 2408 4509 0
-1196 1017 -2179 0
-1125 -3815 -3579 0
-4423 242 -3010 0
-1502 -2056 1999 0
-1566 279 2481 0
1584 -2406 -1664 0
1339 -4906 4107 0
4185 -2190 -2137 0
-3714 2154 -3631 0
4722 -4775 -3104 0
-3430 2120 -2667 0
1463 -3146 -2655 0
1606 -3376 832 0
4629 2159 3583 0
580 4477 3839 0
880 4494 3046 0
-3113 -4251 2728 0
3626 -1216 -3387 0
-1554 2904 -747 0
2885 -4183 -1781 0
-3518 -1693 -3617 0
-4500 -282 -1352 0
605 3373 -1151 0
-1213 -4166 -3132 0
-2186 -4340 -2427 0
3184 -3525 3641 0
-4916 3813 2649 0
3481 1013 -491 0
3677 4935 -923 0
4446 -4476 3657 0
-3305 1914 -309 0
3836 -927 1002 0
-2940 -2222 -719 0
-4069 709 -1037 0
-3521 2020 -3678 0
3368 2803 3556 0
-1803 -1376 -3181 0
-4007 1016 2334 0
2496 -4162 -982 0
-3279 -1026 -1927 0
4196 3429 243 0
1692 2587 -4101 0
-1926 -1305 -2241 0
3731 2163 -3843 0
4949 -4378 2882 0
-3889 262 70 0
-4694 4571 1271 0
3457 -3688 -574 0
-4667 4725 3296 0
452 -1489 2340 0
4787 -2049 3705 0
2134 2633 -4216 0
-911 4242 -2616 0
2359 -2930 1044 0
-3957 3472 -2215 0
4650 1069 3286 0
2899 -1206 -853 0
1786 1957 -4686 0
-2485 2519 -233 0
4821 -3180 -1487 0
-231 1002 -1943 0
3072 -4243 -602 0
3605 1371 -2269 0
3331 623 208 0
-256 -4839 4303 0
-835 3908 3177 0
1276 -496 306 0
2792 3697 478 0
1579 -1985 -4006 0
-532 -3486 -28 0
-1051 54 779 0
4136 3367 -2495 0
-788 767 3955 0
98 -1888 -3200 0
705 2854 3020 0
38 1891 3396 0
-3647 736 -3967 0
1069 4060 1413 0
3808 -4808 -4938 0
-2000 -4628 -3967 0
-4930 -3864 -2752 0
4934 -4762 -1792 0
-4389 2878 -1632 0
3411 3507 826 0
109 -985 -2814 0
-4415 2889 1754 0
-482 4019 -2636 0
-594 1455 -2634 0
769 -4512 -891 0
3534 -4382 -2960 0
-1598 -2267 1074 0
1569 -3725 -2028 0
-3045 3340 -437 0
-2282 767 3248 0
-4758 4100 -143 0
4105 -1792 2840 0
-3034 1447 -1745 0
3847 -2656 -4324 0
1337 -2761 -1824 0
3692 1371 -991 0
-1717 -3431 -814 0
4829 470 -2027 0
-2455 -2987 -2330 0
4071 -4002 -4271 0
3452 229 4612 0
4679 766 -706 0
-197 3217 -3901 0
1963 345 -4739 0
-4233 -3012 2918 0
-3969 861 -377 0
-3788 -2926 1987 0
-2129 146 -1534 0
2648 1288 2340 0
-3948 -3377 -2711 0
1662 -3966 -2063 0
3160 962 2793 0
4131 -4190 -410 0
4075 -355 -1327 0
-2079 -4047 4865 0
-2050 4103 -2307 0
2742 -4255 4156 0
1188 -3502 3711 0
-792 12 4249 0
3646 -3351 -1631 0
1492 -3387 1479 0
3191 3512 4397 0
4443 4793 -1333 0
-1066 -4955 -150 0
3896 346 -1270 0
1279 2394 -2885 0
-2060 -46 4888 0
1093 -3882 4667 0
-3238 -3459 -1683 0
2828 1738 -1160 0
-3719 -3870 889 0
-329 -1408 1368 0
4572 -1949 4444 0
3109 -3546 2977 0
-2601 2679 -3763 0
435 -4364 -2830 0
-3477 421 2784 0
2233 -1619 1137 0
-3909 4235 1234 0
3848 -2146 4532 0
-3389 2473 4865 0
-2559 128 -51 0
-3470 -4180 724 0
-3089 1961 160 0
984 -2896 3749 0
-3707 3846 992 0
1575 -1999 660 0
-1081 -3760 -1066 0
3148 -362 815 0
-3484 3184 3306 0
-274 -5000 -4253 0
-3623 3264 -219 0
-4153 -3848 -209 0
2536 -2299 3225 0
3364 2644 -3547 0
3282 2973 1439 0
-1224 1527 2323 0
-3933 -2161 -540 0
-3654 -3947 1394 0
-2569 2914 3543 0
2721 2744 -2219 0
-3046 3972 1227 0
4379 939 2933 0
-4497 -2832 4848 0
-1579 -4605 46 0
2244 2773 1326 0
-2749 -742 4008 0
503 -65 1965 0
-4142 -4588 2537 0
3084 852 1612 0
-3774 -18 3009 0
1110 4694 -3359 0
1125 -3941 1197 0
219 -3209 1986 0
2976 2313 2253 0
3976 -4609 -2415 0
3648 352 202 0
4214 4123 171 0
-3922 1776 4094 0
634 4539 -4237 0
-3310 1437 264 0
-2934 -1212 -4184 0
4620 -3122 -1140 0
970 -1085 4435 0
-886 3044 -42 0
-2157 374 -3894 0
-4833 4437 1847 0
4305 -4979 4737 0
4591 393 381 0
1317 774 3407 0
2498 3526 -2564 0
-1594 -4776 -4959 0
-929 -4045 2988 0
1979 -4464 403 0
190 640 4728 0
-3289 4530 -2714 0
-595 -1115 -2569 0
-4590 2288 2953 0
-3630 -192 2561 0
-232 -1034 3367 0
-2275 -2431 3023 0
1632 -4406 -2578 0
-4863 -3130 1745 0
2017 -4683 3091 0
4893 681 4047 0
993 1737 598 0
817 -1141 -2526 0
2989 -3408 125 0
4306 507 567 0
-2888 -276 -3508 0
-171 -263 3724 0
13 1991 2314 0
-656 -4637 4886 0
940 -2724 4843 0
-1232 -4526 -2989 0
1250 977 4442 0
-739 4297 -1156 0
3834 2897 3918 0
3265 4965 4156 0
-800 -2180 2915 0
3506 -2884 4676 0
-3161 -296 -4548 0
-1981 2600 2309 0
2893 -389 -1957 0
4157 -4289 -3958 0
-2630 1738 4180 0
-3919 -3694 3042 0
2542 2693 669 0
-1599 1583 -1257 0
4808 -518 -1131 0
1133 511 2735 0
950 2714 -510 0
-1664 1522 3373 0
-3737 -383 -4035 0
-3834 -3980 -2906 0
1962 2077 -4821 0
-4645 -4288 1862 0
-2638 -1622 -358 0
-3956 -1237 2262 0
-1639 4046 -2228 0
2856 -3002 156 0
-1563 1903 4538 0
3306 -2093 69 0
4635 -1329 -1199 0
-1785 2470 22 0
-1671 2065 766 0
4417 2170 -1664 0
-454 3865 8 0
-1321 -3072 -4666 0
-2781 3611 -657 0
3682 3295 451 0
-1596 -1097 2516 0
-635 -3422 -806 0
-1531 1056 -21 0
3476 -3011 -3936 0
1244 467 -1434 0
667 -121 -4716 0
-1889 3490 -4746 0
4037 -2230 3293 0
3081 4618 2617 0
3694 662 -1307 0
-4594 1980 -3200 0
-791 -295 1070 0
992 -907 3778 0
1620 1495 2472 0
-1319 2619 -2781 0
-276 2065 4404 0
-1379 -1706 4012 0
-844 -4367 29 0
-2715 -1269 2640 0
2611 3880 4574 0
3870 625 1195 0
-2005 3279 708 0
3634 -1627 -25 0
-2664 -3183 2715 0
-4120 -3164 3362 0
-1772 -4040 -1638 0
1426 2552 342 0
4221 -1896 4179 0
713 -3068 3188 0
-4776 3323 361 0
2436 -988 -4274 0
3792 -2955 -4388 0
-1556 2351 4036 0
-597 -4335 2383 0
-4730 4792 -3857 0
834 -2327 2842 0
2687 4891 184 0
-713 -4606 3981 0
-1281 -1304 -1278 0
2895 -206 131 0
-200 477 4296 0
1438 -1193 -1342 0
-4927 22 -983 0
2761 4250 -4092 0
-3790 -1729 2907 0
2028 585 4319 0
-470 -744 -2167 0
2771 3289 -4261 0
-3370 -1869 1235 0
-3853 2230 -632 0
-2332 -4151 -2733 0
385 -1185 -3800 0
3164 -1044 1776 0
-2541 -4907 2721 0
3117 1686 1252 0
1374 4188 787 0
-4193 2098 -4197 0
3652 1752 1905 0
2355 2553 -1862 0
-4686 -803 -403 0
-1784 -1811 -3838 0
-2225 -2071 -1586 0
-1690 -1557 122 0
-501 1074 -668 0
68 4963 4112 0
1776 -295 -4170 0
-2651 -2534 2851 0
4955 1250 -1182 0
283 -4735 3718 0
533 4841 3196 0
3935 -4075 -4744 0
-3987 -3341 203 0
58 -4527 -275 0
928 3562 -4944 0
-3617 -3790 728 0
2429 2837 -1122 0
-2541 2131 -1253 0
-1077 4978 -803 0
-3626 -3178 -880 0
2964 -2362 3109 0
-30 136 -4530 0
-601 -4762 -490 0
-2544 4391 1792 0
1936 -2883 4187 0
887 -343 -1141 0
2630 -3738 4107 0
3451 261 4172 0
4050 -1064 3474 0
2663 -677 -1984 0
-4224 -291 1223 0
1412 830 4583 0
361 -4069 394 0
332 -1036 4284 0
3560 4114 1392 0
3767 -67 -504 0
4956 -18 2834 0
-2405 -3016 3006 0
36 -1840 -3884 0
-1923 -2381 -4012 0
-3113 -4733 4630 0
1680 2846 2975 0
573 -3848 111 0
2737 -3248 3584 0
-3481 1427 1730 0
-2628 1256 4554 0
603 590 -3302 0
-4258 4874 2800 0
-2424 867 -3350 0
-4299 -3612 666 0
-2490 -3015 -2722 0
4824 922 2777 0
-3674 -4744 -4299 0
1581 -1881 3333 0
4530 -2678 -125 0
98 3191 3643 0
-493 -3913 -4837 0
-1193 2111 702 0
-2548 2973 3236 0
-46 1029 2563 0
-489 4919 -4728 0
2326 -75 -3552 0
-2027 4198 4698 0
357 -2208 -4063 0
-1197 -2553 770 0
-2879 -2357 1666 0
-4275 1958 -3730 0
-2751 -2409 -2737 0
2604 1882 -4214 0
4974 -2738 -3373 0
-3512 4392 1352 0
115 4353 -3501 0
-1642 2292 -4168 0
-2956 -4173 4936 0
2147 2875 -3379 0
1116 2757 -648 0
3922 -3875 1394 0
-1423 -4773 -2516 0
1163 -4147 -1298 0
-2382 -2727 2130 0
4956 1956 -3209 0
-801 -1272 458 0
3002 -781 -4006 0
1064 2286 3569 0
-2997 -2087 2339 0
3761 971 -2658 0
-1396 -4849 -3127 0
-3972 -1674 -1430 0
-1970 -3877 4246 0
-3838 -1627 -2487 0
-367 1593 3573 0
-2816 692 1530 0
-2487 575 -2803 0
-4099 3993 -2968 0
-3140 3660 -2452 0
1420 -65 3262 0
2686 -1422 -122 0
-1852 4783 -811 0
1323 -4336 2340 0
4831 -3300 -2465 0
1859 561 -3208 0
-1216 -2519 -2131 0
2837 3171 -619 0
4577 -4063 -2011 0
-106 -994 3825 0
4731 2124 3046 0
-1741 1979 -2662 0
-4073 682 4429 0
-1349 -3021 646 0
3417 1566 -1573 0
-681 -4477 2871 0
4989 -1956 -2211 0
-3469 361 -4929 0
1269 4133 -3089 0
-4152 -4704 -839 0
-3877 -1073 2363 0
3227 240 -806 0
-1967 -1809 3393 0
-2096 -2378 -4453 0
444 4948 4030 0
-2458 2696 3499 0
-3159 -1723 -405 0
2986 54 -3250 0
1622 -333 1136 0
-3814 -4080 -3035 0
-3822 -1360 3909 0
2942 3387 1818 0
75 -4200 -1294 0
-2555 -1472 1691 0
4302 -595 4315 0
-2759 2580 885 0
3312 4830 -4405 0
3605 3693 -1841 0
2885 -4487 4666 0
3059 -1337 2166 0
3631 2884 -1964 0
-4955 -4333 1715 0
4742 -1267 -1258 0
1300 4712 942 0
2685 -1380 -2444 0
3041 -4302 3302 0
651 1212 -3256 0
2588 -2348 -4525 0
-3783 -4977 859 0
725 2702 3628 0
-3793 -1533 -971 0
-729 -328 -3060 0
-3417 -1801 -4251 0
-4879 4460 -2378 0
-184 -2593 961 0
812 -2210 4851 0
1701 -923 -301 0
-1268 -2117 2958 0
912 2220 -1597 0
3471 -4893 -4470 0
1449 1041 287 0
2589 575 435 0
-1649 3086 55 0
3477 2536 1445 0
1182 -1803 -1650 0
-4287 -547 4408 0
4140 -4901 1639 0
-2309 -3555 -2436 0
2616 -3832 4616 0
3036 -3003 3906 0
-22 4804 1908 0
4563 150 243 0
2392 -449 -551 0
-4497 -625 -4583 0
3917 -2257 3559 0
1283 -3165 -3046 0
1440 -2694 -2224 0
-2438 -4997 -907 0
4202 478 1994 0
1593 2603 3498 0
-2491 638 -1569 0
-818 -878 2998 0
4443 1154 -3036 0
-830 4851 -11 0
672 -3982 4022 0
2704 -3337 4085 0
3585 -4079 -190 0
3662 -1042 -4128 0
1795 2959 2797 0
1051 -4933 4059 0
-330 -1763 -25 0
644 4543 1419 0
3923 24 471 0
-467 685 2736 0
4797 -1739 -429 0
83 -3032 -3774 0
2456 4767 -2212 0
1699 3884 1766 0
-2930 -4354 841 0
-2608 4164 2501 0
-51 -1758 -4398 0
3922 4315 -3206 0
-2485 -2390 3146 0
4004 -4591 -77 0
-4452 571 -3610 0
-1796 2547 144 0
-3196 4117 2891 0
390 3321 -4442 0
-1904 -942 -84 0
4548 -2123 -4725 0
3407 69 -1529 0
3125 -237 -1712 0
2828 2554 3382 0
4448 2177 -4553 0
-1916 -1372 3776 0
1976 3703 -138 0
4408 3958 2199 0
-2922 2611 -1223 0
-4252 -3695 -415 0
4735 -819 -3054 0
-2378 -217 -810 0
1455 -1095 264 0
63 -4880 2547 0
-4095 -885 3790 0
-3081 -654 3721 0
-3835 -2860 380 0
3350 -1984 2617 0
1281 4176 -4083 0
-4490 -31 -4931 0
604 2800 758 0
-2811 -3546 -2199 0
-4847 -1096 2266 0
1794 -947 1274 0
2948 1681 1996 0
-1272 -4184 2667 0
-2621 -2273 -2214 0
774 1222 1856 0
-3424 -2016 -4874 0
-724 3120 -1655 0
-2233 -422 4247 0
2351 -3133 -1526 0
1149 -2913 -3194 0
671 -3031 -1866 0
-4718 1828 3150 0
3436 3996 4727 0
-2462 3906 482 0
-341 2691 2053 0
3990 -2786 -1806 0
-4386 4784 -2761 0
-1931 -1760 839 0
-819 -471 -4261 0
1438 -3744 924 0
965 708 1142 0
728 -4727 4964 0
-2510 -3734 3268 0
-1012 -3385 3064 0
1620 -972 3133 0
-3952 -957 -1671 0
-2235 -1182 -449 0
-2417 2381 -1952 0
-4549 2026 -2048 0
-489 -2308 3052 0
-855 -4809 1556 0
3626 2681 -1065 0
458 4047 -1190 0
2833 -1622 238 0
-841 -3091 -4198 0
-3381 2983 -689 0
-3465 -4189 4739 0
4698 -288 574 0
4948 -2121 4855 0
3230 -2394 1180 0
-4935 2378 -3422 0
1494 512 4633 0
-466 3438 -4570 0
-3405 -4735 -3784 0
938 -836 -2282 0
4306 24 2642 0
-4815 227 1598 0
-4724 -3049 -4876 0
1573 -3748 772 0
-4739 -4904 3352 0
-4745 4539 -2241 0
3696 -2511 -199 0
4579 -260 -4862 0
-3559 -2881 2648 0
3707 461 -1223 0
4725 1436 4 0
3832 4166 2446 0
4693 -3983 4374 0
3740 4241 -2798 0
-4244 -844 -1157 0
-3706 2468 3557 0
3454 -4012 -2451 0
1460 2306 -2184 0
773 -1409 -1864 0
2172 -1475 -3773 0
3469 2202 -4899 0
-4175 1122 -4997 0
2215 1375 -207 0
2677 3251 -1091 0
-4882 3345 -4309 0
-4726 -627 -1902 0
-2133 2531 -4323 0
4043 -2060 -4385 0
2046 1818 -1060 0
-4592 1403 -1898 0
-1017 4140 2627 0
1285 1183 -2673 0
344 -3097 1278 0
2514 -3552 839 0
4207 4254 -4905 0
248 2370 -1992 0
-846 -4174 512 0
347 4164 -2527 0
-1668 -1918 -4379 0
826 2536 3697 0
-2994 1983 3930 0
4019 2687 -515 0
-1123 -1665 3397 0
-4133 -4776 3486 0
3833 2751 4924 0
2394 3521 3680 0
-3979 2144 1254 0
-4099 3848 4215 0
-4370 -2143 2226 0
-1949 762 -912 0
4501 -1724 2616 0
-4640 245 -3887 0
2784 -3078 54 0
-1055 -1161 -2741 0
-2277 -204 406 0
-2065 -2673 4388 0
-452 -4919 3841 0
299 -2606 2409 0
-231 -3060 -1142 0
-2132 -401 1766 0
-3949 -3722 -1071 0
-4499 2510 3052 0
-4627 -2313 -154 0
-527 -1568 -53 0
-4759 3839 -2019 0
-3640 -1691 -2577 0
2493 -3018 890 0
620 2959 1231 0
-1872 -2767 3037 0
2051 -772 4367 0
-1877 2474 -1451 0
607 -3004 338 0
842 -3601 -4789 0
-3144 -2562 2144 0
-1636 -4149 -632 0
3266 -1943 -1442 0
-2716 3231 2498 0
-3224 3089 -3458 0
-4226 -3434 2357 0
-145 -3722 211 0
-4389 -949 2677 0
3699 -3754 -4849 0
-229 2912 -3212 0
-560 3996 4362 0
-2332 2909 -728 0
-1672 2358 2586 0
1112 -719 -4597 0
-3657 -610 -1513 0
2583 3869 4908 0
-3237 3122 -857 0
3274 1826 -4723 0
2468 398 103 0
1399 223 -1013 0
-4038 3336 -2033 0
-1887 -3109 1273 0
-2780 4010 3401 0
-1756 -2605 -2849 0
-3013 -1005 -2446 0
908 -560 -458 0
-1973 -4230 1721 0
4795 -4987 -2999 0
2440 -1 2709 0
-890 -2949 1105 0
4909 1599 -2362 0
-4468 429 2934 0
-140 -4045 1687 0
-2125 1927 -3722 0
1372 2724 231 0
1961 3187 1415 0
-2237 -1756 2803 0
-1823 1852 -2033 0
-137 -2490 -2510 0
-3644 2455 -63 0
599 296 -838 0
-2010 3098 -1132 0
3867 878 2704 0
348 2520 3127 0
4414 3525 -4644 0
-40 1925 2252 0
4250 2230 -4412 0
-4824 -2639 439 0
2906 3961 1175 0
1268 -4940 -1576 0
-4363 4712 -28 0
488 -3416 -1693 0
1495 794 1582 0
702 -3588 -2581 0
4686 2352 2876 0
-1355 3463 2864 0
3059 971 -3390 0
-1779 -3464 817 0
-1857 1402 1257 0
-3035 -4467 -2535 0
1107 897 1541 0
-311 -383 3481 0
3727 427 2037 0
-1553 -3558 1223 0
1084 -4377 3569 0
1068 559 -834 0
-670 -4615 -4479 0
-3349 802 -3051 0
-4309 4399 2411 0
-1062 834 -1976 0
-3920 -1628 -804 0
1311 4848 1475 0
3383 1020 -2350 0
3054 -366 1362 0
3925 -309 2381 0
3993 -1512 -106 0
3586 -2693 4718 0
3036 -1197 -3652 0
-1800 2857 -1183 0
266 1930 4305 0
-3395 1949 -135 0
175 -622 4863 0
4950 158 -2923 0
4606 -3033 -2737 0
4494 285 -2562 0
2928 -597 -4598 0
-4215 4196 -2258 0
-4296 1897 4472 0
-4536 1344 3519 0
1103 4408 -3668 0
-4639 -501 4997 0
-1577 2134 -2048 0
-4808 -3306 1707 0
3399 923 -853 0
-3522 4850 3373 0
-4472 -4842 -1613 0
-1827 1155 -4162 0
-4181 4437 -503 0
-3605 -3595 1278 0
2394 -1788 -2531 0
-1506 -3906 -3316 0
2621 -1433 1790 0
-3107 470 -4263 0
3551 -1186 -4586 0
-1417 -3489 -1683 0
-3396 -2422 -52 0
4761 -4162 1324 0
3382 -1933 -2093 0
2673 2376 4044 0
2962 639 -1979 0
2015 -2816 1788 0
695 2270 3691 0
646 2763 -2586 0
1618 -1028 -2050 0
-2436 3002 -4352 0
-4890 1041 -3911 0
-1614 -638 -2991 0
4931 -3497 -290 0
-2281 824 2994 0
1841 -1073 4181 0
-2525 -4461 -4425 0
-376 1267 -1662 0
-2107 -1635 3220 0
-2023 -4052 -3542 0
-2859 4191 1672 0
2335 -795 -4842 0
-2420 -3927 -3113 0
-3716 1691 4122 0
-24 -4933 -443 0
2081 363 2673 0
3603 -4375 2501 0
-3692 -4316 2439 0
823 -4935 -2232 0
4870 52 -1511 0
-1674 -3333 -115 0
2629 3915 3682 0
614 708 4507 0
-4460 260 4187 0
-2118 -570 3457 0
4908 -4903 -4989 0
4288 4375 -4771 0
2680 3458 -3764 0
-4326 -874 1389 0
-2582 632 3485 0
2341 1183 -2812 0
345 -3422 3408 0
-4633 4173 35 0
4857 -1296 1286 0
2941 -2554 -3439 0
-4529 654 -2815 0
-3181 -4934 4427 0
4810 900 142 0
3653 2410 -731 0
1182 -1802 -1747 0
144 1105 279 0
-3080 -3507 -1886 0
-4088 2614 -3122 0
-424 -3088 3001 0
-2407 2594 -3946 0
54 -4833 3117 0
800 -2023 4409 0
2793 2697 1892 0
4224 123 1661 0
221 2758 2960 0
781 -2290 -1299 0
-2691 -3375 4225 0
3427 -4300 -2516 0
48 3940 -2756 0
2326 2154 3896 0
764 -3867 1260 0
-4899 3343 2921 0
-870 60 -3781 0
147 -749 4353 0
324 2176 -4363 0
-768 821 4174 0
4242 -744 551 0
-438 3646 723 0
2577 541 1384 0
-4408 1141 -2229 0
3922 761 -4066 0
4679 3686 -2490 0
-4923 -134 2957 0
-1394 -3986 954 0
-2078 -4360 2718 0
-4050 444 -2733 0
3301 2378 -3389 0
-253 -4283 -4256 0
-4111 -1981 2195 0
-4068 4570 -2085 0
-2414 2405 2452 0
4395 2 4806 0
4385 3584 3399 0
2969 2954 -229 0
3627 -709 -623 0
-3055 1809 -2388 0
-1085 108 -1868 0
2685 -3287 904 0
3296 4756 4565 0
-2066 4509 4241 0
4313 4711 4699 0
3423 2496 2323 0
-1914 -3202 1081 0
3568 -88 621 0
-599 2719 3999 0
-608 3824 -1462 0
-4409 -180 -51 0
-2458 4814 -3939 0
-2189 -3704 -543 0
-2979 2247 1636 0
872 1774 1481 0
3133 1851 -2686 0
165 -570 -2255 0
3505 494 1376 0
-321 -913 -2657 0
2436 -1842 -2865 0
602 -348 -4766 0
2703 2414 3357 0
3103 206 4272 0
1804 2809 -2874 0
-2727 -3949 -191 0
-3896 -1170 3582 0
4954 4564 -2578 0
-1834 3485 -1926 0
237 -2986 -4080 0
-3789 -3736 -3088 0
1010 59 2001 0
2638 1152 222 0
2466 1089 4277 0
4645 -1647 4023 0
-468 4471 1686 0
3377 -4637 -2267 0
-796 -4203 3563 0
-1796 3360 -1488 0
1603 1131 -3345 0
-2072 -4562 66 0
1699 -837 4229 0
-1077 4409 1033 0
3964 -2687 -2887 0
-439 -2250 -2455 0
148 612 -2285 0
-27 -3430 -1233 0
2517 4118 3058 0
-1999 1576 -3512 0
3313 3858 -2576 0
-3595 2312 1325 0
2594 303 2000 0
-389 -4679 -3165 0
4232 -154 -2175 0
-3969 -4060 1660 0
2564 -2509 -2148 0
-4337 1638 1164 0
-1766 566 1595 0
-636 690 3955 0
-4924 -2506 -1080 0
2060 3253 613 0
-135 -2033 -1643 0
2333 1596 3957 0
1734 4278 3483 0
-4130 -2077 3001 0
1249 -855 -4102 0
3954 -1971 3241 0
1277 627 365 0
1289 4848 143 0
-4554 3670 -4958 0
-4343 -814 2809 0
2889 -4318 2105 0
4538 -1519 1540 0
-719 112 4173 0
269 1898 -3283 0
-2739 -2837 3196 0
-2133 -2094 -3030 0
-2856 -2174 4122 0
527 -105 3040 0
3840 -2350 -1576 0
-1188 1160 -3540 0
-90 -2327 -1293 0
708 916 2640 0
2363 4454 -3153 0
-152 1240 3783 0
1531 -1061 -4013 0
1842 -4787 -2061 0
-1319 1304 2053 0
-440 -1737 2052 0
-2726 4880 -2963 0
2048 4384 -2770 0
-2887 -815 3146 0
-423 -3047 -2659 0
-852 -2242 2075 0
98 2611 2851 0
-3137 1411 -3497 0
872 4551 -3507 0
349 3873 1134 0
-4824 -2842 -1717 0
-1665 -1363 -1324 0
2024 -504 -3794 0
-1532 2334 -3123 0
923 1203 -2648 0
-3160 -4092 -3803 0
4859 -4313 -3913 0
-1956 -1098 -4753 0
4721 2764 4293 0
-527 4150 1748 0
-3125 -769 167 0
-183 -4401 -659 0
-1811 -2401 2039 0
1090 -2533 339 0
4806 2482 2816 0
-3764 4384 -1436 0
2094 -2556 1707 0
2706 -4954 512 0
3823 1553 1191 0
-245 -4751 -1633 0
3357 1758 2610 0
114 -293 -4405 0
114 -1834 4427 0
1404 -673 2835 0
-2160 -535 -240 0
1311 4894 -398 0
1485 -1897 -4562 0
3413 3487 -1732 0
-4941 -1830 -2295 0
-123 3660 -1846 0
716 2725 -660 0
903 1358 2769 0
-202 1376 89 0
-1650 1585 -4442 0
-2919 4568 -1392 0
4788 -4999 3536 0
-4872 724 -432 0
2801 4914 1831 0
-2021 -4099 4443 0
3409 2054 -2271 0
-2999 1205 3411 0
2035 -4080 188 0
-2247 -2585 -1751 0
1991 3659 -4876 0
3885 1549 -2804 0
-594 1452 4366 0
3324 -1745 -367 0
1294 1454 -1496 0
1634 4173 -2219 0
2977 1869 1894 0
1118 4109 2292 0
646 -365 -2416 0
-4408 -195 -4777 0
1299 -2889 85 0
3384 1439 4253 0
-4490 1860 -4528 0
4686 -1165 389 0
-4832 -3896 -3375 0
2223 3408 1599 0
1566 3036 -3028 0
-2914 -4914 946 0
-4718 -4172 -3660 0
-3604 4321 -2265 0
-984 -3398 4430 0
-3621 -164 -54 0
-2228 307 -1881 0
-4691 -3770 2875 0
-3475 4903 -2691 0
132 144 -3547 0
-4947 768 3704 0
-1820 2699 33 0
2443 2003 4390 0
4061 4637 358 0
-1689 -2935 -4896 0
1723 718 -21 0
-4963 3874 -4876 0
-3047 -4095 4140 0
641 2783 1069 0
322 3899 -2439 0
1356 -4430 1253 0
-4648 3644 2973 0
-1633 -4071 -3539 0
3240 -2437 -2069 0
1348 4907 328 0
1861 49 -1886 0
1606 -1061 942 0
154 -174 -126 0
1182 4011 -4492 0
1922 -1516 -4275 0
2082 1223 -216 0
-1698 -3808 2325 0
-4215 -4278 -1659 0
3890 3008 -4478 0
-3928 268 3601 0
-61 2023 4440 0
4501 -4020 -4980 0
949 -4118 291 0
2361 3394 -1820 0
1801 -4491 3481 0
-3047 -4927 -2399 0
-1298 -239 -2984 0
2052 -216 2043 0
-3461 3734 2540 0
-4201 1466 2239 0
-1080 3184 -3961 0
-695 -1623 -37 0
-4051 -3112 2148 0
4321 646 2216 0
-1157 4471 -999 0
1313 877 -1659 0
4148 -1121 -2537 0
732 -1404 -4183 0
1371 3349 2551 0
-4148 670 2723 0
-895 2974 -1365 0
4997 4366 -4795 0
-298 -4391 -2760 0
4411 3389 121 0
3236 966 -4255 0
1569 -1747 -3790 0
-1447 -596 1714 0
4138 -3424 -3699 0
-1644 1496 -3773 0
3775 3082 -3987 0
388 1527 1739 0
-859 -2905 -1017 0
3371 374 -2542 0
-1088 1278 -1484 0
-2695 3835 1073 0
-3702 3238 -705 0
-1660 -4343 4687 0
4368 3514 1547 0
1129 -1185 4325 0
1411 154 -4463 0
-1297 3525 -707 0
3217 -1234 -2991 0
-4101 -3571 2741 0
4477 -3899 4634 0
919 -585 3730 0
-2871 -719 -1702 0
-4480 2364 4548 0
405 -4028 -1734 0
-3094 -2648 552 0
-4306 -2404 -1855 0
4979 -772 -2276 0
-4772 -4541 3626 0
3036 -2401 1593 0
2610 -2585 -3736 0
-3034 -4484 4616 0
4726 -676 -3085 0
2123 -573 -4383 0
-3733 2761 608 0
3255 2736 -2293 0
-1615 2314 -3050 0
494 -4437 3946 0
4470 1821 1377 0
-1803 428 2551 0
-3069 -3454 4169 0
-2734 -2713 1686 0
-1858 -4935 3562 0
325 -1045 -2680 0
3089 3617 4983 0
1944 4160 -4868 0
-135 1328 -623 0
-3242 2036 572 0
-4483 759 4975 0
2627 -3731 2243 0
4123 -2088 -4146 0
2267 -64 -2257 0
2580 -3708 2044 0
-4991 1288 3734 0
3662 1901 -1564 0
-2116 3522 -4492 0
3059 -1039 -2451 0
4278 -4380 1819 0
-3752 2903 4050 0
3418 4572 -314 0
-1402 -3291 -3628 0
-3611 -4509 -3837 0
-1498 -3448 271 0
-2643 -104 3511 0
-3315 -848 -2066 0
-2022 1136 518 0
-3313 1024 -4002 0
-4655 -1917 500 0
4951 4748 -3537 0
2680 2434 1139 0
2027 -45 -4239 0
2703 -1827 -4967 0
-877 1273 -2416 0
3634 2165 -688 0
-284 -1472 -2569 0
-2460 -3119 -3965 0
-1284 1986 -2144 0
-2979 -2175 -2857 0
-2122 858 92 0
2708 595 -4104 0
2281 -27 -3426 0
1495 4712 -3777 0
2192 471 -3945 0
-1991 4120 -281 0
869 -622 3071 0
-3353 1489 -2431 0
-2357 3278 3982 0
-894 101 532 0
2410 2900 -2859 0
2183 -374 2150 0
3332 -512 238 0
-2344 918 4940 0
4102 1259 2866 0
1357 -958 -1864 0
-2501 2465 1500 0
-1491 -1657 2171 0
4003 3026 -2364 0
1619 -4170 -1647 0
1120 2463 -2232 0
2364 4163 886 0
-3443 3312 1725 0
3859 2764 -674 0
2355 4509 -3779 0
2795 -4209 -4112 0
99 -2974 4759 0
1228 -1192 -4236 0
-3774 1608 4107 0
-1858 -3660 750 0
4640 1838 -3106 0
4237 -933 1381 0
989 3969 4751 0
-164 4774 3832 0
2115 -3479 -905 0
4250 2910 2456 0
1753 2068 -3631 0
-3087 -1506 1912 0
1957 480 -2895 0
3943 -2761 2660 0
-585 3496 -47 0
-1745 -721 3359 0
-3473 -719 -4899 0
-2694 -4749 3664 0
-4459 -3301 -3829 0
1257 -465 2482 0
1238 2731 2684 0
2695 4182 4935 0
315 -2791 -4002 0
1072 -502 -2467 0
-2640 -4146 4144 0
3766 4818 -2001 0
2339 -2079 -4286 0
81 -1548 662 0
-1754 4898 2602 0
4062 4276 3803 0
-257 3605 882 0
-652 3592 -4540 0
-3726 -1423 3110 0
-2972 -415 3714 0
1687 -2805 -676 0
-1484 -4183 154 0
3874 1585 -2591 0
335 -964 417 0
2459 2779 293 0
-454 2519 753 0
-959 -552 490 0
-4642 157 -1400 0
4991 3031 -1374 0
464 4420 435 0
194 143 2186 0
-3643 -147 4333 0
-238 -2723 -1566 0
-3916 -3081 1672 0
-4322 -2457 -1981 0
1817 -934 1571 0
-2086 2004 4004 0
-1878 2811 -3798 0
-382 88 -542 0
-2504 311 3418 0
3119 -169 -4771 0
-4782 -2787 2385 0
3382 2009 4930 0
-3650 1495 -4102 0
3527 4275 4250 0
1432 1532 1950 0
-3558 2716 1924 0
2836 1789 -4700 0
2304 4919 4008 0
3292 1611 -2767 0
1923 1609 -1766 0
-1837 -1987 -3483 0
2019 1344 -2228 0
101 -2411 4567 0
53 2881 -5000 0
-2663 -206 -821 0
732 197 617 0
-4453 -2098 -2139 0
-121 3140 -1806 0
-2913 503 -2555 0
3937 4520 807 0
-3997 4653 -4309 0
455 1289 4282 0
4207 2475 733 0
2592 -3381 703 0
1803 -2968 206 0
1213 -1587 -4656 0
-1420 620 -4482 0
-3744 -43 2015 0
-616 -3927 -1973 0
-3102 -1112 -1277 0
-4605 -4564 3813 0
-902 -3370 -3937 0
-462 221 155 0
-2199 -4425 1573 0
3291 -2186 -1350 0
464 -998 3342 0
-763 1926 -2830 0
764 -4952 -1273 0
-1866 3746 1903 0
4471 -1245 59 0
455 113 -184 0
-3361 1685 1815 0
-2441 3987 -3049 0
3268 3305 -2458 0
1543 287 1104 0
-2309 -3853 1501 0
3993 4862 907 0
-3577 -3063 916 0
4874 2862 -1445 0
1108 3523 3925 0
-3206 3457 -1318 0
-1113 2357 -4447 0
-308 1855 1339 0
906 4667 4300 0
-4949 -1695 4714 0
-3867 1885 4280 0
-3246 -1787 2606 0
2404 -2243 -2410 0
1837 -3168 -3709 0
-3515 -4603 -2313 0
2241 1841 4863 0
-2062 -3382 -186 0
715 470 351 0
860 2872 -3618 0
3231 -1824 -2224 0
2539 3030 4182 0
1663 -4275 885 0
-4663 1015 -3854 0
-4584 2472 -2711 0
4795 3225 -2066 0
1683 1998 4239 0
-1926 -1816 -3236 0
4747 -4943 -951 0
2206 2487 -3810 0
-1876 2324 -3735 0
1410 -314 -2810 0
-3930 -89 -935 0
3402 4126 4846 0
-3957 -3936 -4977 0
-1737 -2 1323 0
-3525 -4001 4002 0
4983 -1588 -2003 0
-1957 1946 4568 0
-3219 3769 -2353 0
-1659 -367 -3889 0
-1361 2614 -2192 0
-1225 2368 -1044 0
-1035 868 -264 0
3925 1092 4881 0
-1296 -4754 -1392 0
580 -4687 -2088 0
2603 -1246 4501 0
-2643 1460 -879 0
-1173 4681 -2277 0
2847 -1968 3206 0
24 2337 4970 0
3990 -1635 -4178 0
1887 4959 3137 0
-2838 -4220 -590 0
-1347 3685 3808 0
-351 -905 2513 0
-493 -2202 2780 0
1248 3344 -2641 0
4382 -1406 -2036 0
-4957 -3255 -1776 0
-4234 -1594 -3454 0
-3175 453 1798 0
1588 -4779 2764 0
813 -4532 1134 0
3816 3676 -2248 0
4466 3944 2329 0
-1198 -4650 -320 0
1539 2391 -4849 0
2835 -2151 3890 0
-2891 1758 2778 0
713 771 -1849 0
-4014 4449 4341 0
2339 2312 -1893 0
-833 -2824 2718 0
-1112 2115 2627 0
4520 -260 1354 0
3748 3255 1757 0
3637 1240 4860 0
-3551 120 4735 0
-51 2180 -3458 0
606 4210 800 0
3130 4797 2388 0
-2064 -1013 -2573 0
-2368 2276 -1762 0
-2447 3114 433 0
4087 473 901 0
3856 -2760 3898 0
-2302 4814 2818 0
288 -2796 4839 0
3701 4881 -2087 0
-784 3459 2368 0
-4621 -300 2743 0
1287 -3396 4725 0
-4047 4101 4842 0
2493 -3508 -731 0
-803 -200 1249 0
4852 -1797 -3717 0
-380 -4709 4733 0
4282 870 -2865 0
4176 1740 -18 0
-3340 4232 -4451 0
-3187 4930 3689 0
1337 2403 2547 0
-2470 1127 4693 0
387 150 -4054 0
3752 3658 3542 0
-2131 -3567 4457 0
4007 4449 2074 0
-3432 3751 -4869 0
4630 -2515 -1116 0
-842 -871 2230 0
-2407 4139 -694 0
1463 -3106 2824 0
4368 -3720 -3530 0
2978 -132 891 0
-3906 -2101 4691 0
4025 -4189 -4840 0
970 -4516 -2993 0
-4687 835 4155 0
-2633 4527 3437 0
621 4282 -22 0
2127 -1081 2229 0
2327 4215 2838 0
-373 -3471 -4832 0
-1236 3360 -825 0
2739 1305 1242 0
-3952 2838 1770 0
-449 -1831 -844 0
-1063 -2944 3452 0
2971 4647 -3648 0
-4642 2945 -812 0
3441 -4532 -1423 0
-60 -1005 -2352 0
2266 1315 3371 0
1371 1723 -553 0
3701 -108 -3763 0
1975 -4127 1826 0
2392 -3079 -4234 0
-3936 -529 343 0
2106 -310 -716 0
2179 2661 -4276 0
3479 342 -3357 0
-1309 -1280 1237 0
4175 -4399 2242 0
3750 4215 -2801 0
-217 2524 3835 0
-707 48 4374 0
-4685 2532 1177 0
-3133 2647 394 0
4035 -4226 1828 0
1515 -4984 -3334 0
1624 3717 -3911 0
3394 -3985 -594 0
-2943 150 -3723 0
-1615 -4130 1345 0
-2789 -988 -2159 0
-1360 -294 1235 0
-3842 248 -2477 0
3235 -4179 3840 0
-1334 -1176 -2729 0
3226 2442 92 0
271 2553 1988 0
-3913 3580 -1263 0
474 -4617 2971 0
-3514 2431 -3481 0
3480 -4385 2658 0
2713 -2727 -2081 0
2155 -3147 4306 0
-1081 -4385 -3118 0
-109 -3800 -928 0
2754 3213 -2433 0
3150 -1278 -1671 0
-3453 -1078 -3805 0
-947 -300 887 0
1242 1097 1600 0
-1872 3382 -1005 0
3082 -842 -4744 0
-3065 -351 -1971 0
1548 2015 -1690 0
-4717 903 -339 0
-4837 4016 2656 0
2164 3882 -2294 0
-12 -2580 1151 0
2903 -4604 1944 0
-1504 933 1693 0
3732 4070 4030 0
800 -1263 2443 0
-2947 -4879 4803 0
4817 4686 721 0
4020 -2314 2217 0
4891 2575 913 0
150 2485 2924 0
2199 1576 -1727 0
1034 -1175 -4009 0
-4240 -2121 1953 0
-4410 -3995 -2952 0
-1631 64 -3047 0
14 2731 210 0
1841 2525 -2915 0
-1848 1588 349 0
-1401 -3699 4395 0
3693 -1994 961 0
465 -2046 1740 0
222 -2707 -2905 0
4929 -374 -4206 0
-4565 -2567 -415 0
4245 2305 1139 0
-4679 37 2641 0
2781 1391 -1981 0
1649 3010 1823 0
-4466 3292 -3242 0
222 700 -2258 0
-3046 1764 -377 0
1762 -4837 -4080 0
3898 -3269 -4590 0
4379 -1655 726 0
-749 4013 448 0
3075 -259 -3113 0
-883 4239 -2108 0
-447 -2947 -1715 0
-4555 2481 -813 0
17 -2899 908 0
3018 1791 -1087 0
1919 1466 -151 0
-3302 4187 2548 0
-3906 -908 1188 0
-3355 -3324 2874 0
823 -3619 4968 0
-2778 -49 -3284 0
4795 -2162 3153 0
-3907 1079 -3138 0
2222 4569 3533 0
1771 582 2134 0
4347 1797 -3617 0
-539 3346 -1596 0
517 1905 -3447 0
108 -1492 -1061 0
1466 3037 -411 0
516 1425 1871 0
-1139 -4915 -4501 0
-4493 2712 2367 0
403 -3301 -1096 0
1155 -3043 -1264 0
2543 2455 3856 0
-4216 -4465 -3387 0
-1952 -3452 1466 0
-2678 1526 -4942 0
3001 4899 1147 0
268 -3058 408 0
3304 4869 -4437 0
326 2700 -3385 0
1087 -1068 995 0
-1011 -895 -2895 0
2230 911 -3893 0
-2442 -4254 4063 0
2659 154 64 0
-4197 -3573 2296 0
-3129 -4055 -2771 0
-775 -4142 -3223 0
-3119 -957 1916 0
4421 1095 1110 0
-2767 2390 3212 0
-4637 2557 4123 0
1842 1692 462 0
2917 1978 2685 0
4365 4718 4602 0
-4037 -4448 -1789 0
-623 2340 3824 0
-2328 587 -2945 0
-1312 -1000 364 0
2276 -3428 -569 0
-2807 3999 -3452 0
-1337 4677 3706 0
-334 3985 -4258 0
96 1893 -1807 0
4499 -425 4298 0
964 -3547 -1425 0
-3884 2255 -3764 0
2477 -4088 -160 0
3677 -1568 545 0
-3840 3035 4894 0
4075 2055 -2440 0
-2675 -1993 -471 0
4660 4568 -4478 0
2977 -3622 3416 0
-3322 -3016 -1426 0
-4759 3069 -2214 0
-4172 -916 2889 0
-4180 -1121 3417 0
-1233 -3048 534 0
-2978 1050 -3914 0
1611 742 -3427 0
116 -4817 4459 0
-2307 2354 -4118 0
-4823 -4838 1688 0
-2167 -196 2440 0
1717 -3445 849 0
-2607 2767 1922 0
-3712 4135 -2716 0
-3465 4672 -3074 0
-3857 -4123 2532 0
1607 1168 82 0
668 2314 -2762 0
3241 -2609 3214 0
-3228 3812 -527 0
-4311 -2130 -1685 0
2618 577 4646 0
-1546 -1739 -4245 0
-2884 -457 1674 0
-3258 -3458 1631 0
4485 2954 62 0
-3365 4971 -4108 0
-4521 -228 4773 0
4479 -1012 -3650 0
-2842 -4623 -4961 0
4010 -3775 -2618 0
-1933 -2099 -1972 0
-2379 2205 -4256 0
4967 4416 97 0
144 -4454 1398 0
2944 -4238 4189 0
-4093 -3339 -1051 0
-810 2091 965 0
4685 -4155 -650 0
1649 1921 491 0
449 2919 2867 0
4008 -3590 -1370 0
-749 1810 590 0
-2481 -3320 4958 0
-3626 -2351 -4076 0
-4553 -1818 -603 0
2832 2148 3323 0
-125 4439 1317 0
-2371 -1313 -4651 0
2277 -4920 2649 0
1444 1861 2570 0
-4563 3822 -1383 0
-3958 1961 2637 0
4425 470 3287 0
3624 -3841 3875 0
-3254 426 -572 0
-85 -2006 -888 0
-1205 1892 4830 0
-1469 -2719 -2722 0
420 4240 -2408 0
-1541 -611 3845 0
-1041 -3303 1333 0
-1771 -3282 1857 0
2667 -173 1229 0
-3196 1018 -3777 0
4794 4612 -4754 0
-4178 -2152 145 0
-1875 3314 826 0
-1907 2141 -170 0
-1776 3497 -1612 0
-590 -1228 -3098 0
-4957 1078 1002 0
1440 -4420 4414 0
2954 2907 -2031 0
981 4442 591 0
-4975 -2396 3921 0
416 2449 -1843 0
-942 1410 1820 0
-4418 -2201 -4301 0
-2199 -4530 589 0
-1390 -1767 -3285 0
4243 -95 -2874 0
2025 -4709 4887 0
-3944 -3692 2367 0
-500 -3582 -4620 0
3012 -1086 1991 0
-687 3464 4281 0
-3183 75 3414 0
4163 131 -1188 0
-3191 -2207 -59 0
-1118 2811 3878 0
-308 903 -902 0
3603 2777 1454 0
-1313 3550 497 0
3261 4694 2660 0
-2592 4923 -3715 0
-1140 -1742 -4278 0
-2154 1267 673 0
-1799 2094 4008 0
3384 -2606 -33 0
-3608 3225 -4510 0
161 -4868 -4470 0
2366 -2033 -3312 0
681 -2392 750 0
-143 3208 1368 0
-4275 -1369 383 0
-4214 3480 -1236 0
4996 -3613 -3813 0
-3248 -646 -3556 0
2317 3398 -1249 0
-2662 -1762 -3234 0
3228 -2970 1534 0
3599 -2774 2549 0
3350 1769 2672 0
1306 -3226 -4135 0
-4244 -1826 -2607 0
-1403 607 4236 0
198 -4431 3751 0
4806 -3475 1731 0
-1224 3387 1054 0
851 2062 1877 0
2780 1886 499 0
358 -2134 2132 0
1370 44 4073 0
-651 285 2620 0
-2191 4064 650 0
-2319 2228 -1812 0
-857 4230 2677 0
2372 -2321 -1466 0
-2075 -4875 2765 0
2401 -810 -3058 0
-3071 -4661 -4211 0
471 -4336 3843 0
-2104 3266 257 0
-4027 432 -4253 0
4854 2439 -4374 0
-4335 -4083 -2090 0
-1109 -3015 3299 0
1297 -858 433 0
2728 4067 -484 0
4944 1210 2470 0
-1085 1148 -4494 0
-80 1367 2861 0
2455 3970 114 0
-3734 -3674 2602 0
-3728 -2221 507 0
-3932 1794 2804 0
-783 -1540 -1458 0
860 2101 2708 0
1761 1588 1396 0
-3118 -780 -3115 0
1372 -4597 -538 0
4968 -2926 3292 0
2278 -1540 -1956 0
2791 -3286 3256 0
-2080 3322 656 0
-2844 -3932 4322 0
4585 702 -2934 0
-3879 4911 -872 0
-1851 -710 -3363 0
-3933 2370 2985 0
-4545 -2662 -1999 0
4794 -2572 -2292 0
1951 -515 -4885 0
673 4683 1153 0
-487 2611 -1065 0
475 -2225 4579 0
2971 4870 -2871 0
2315 -1964 4365 0
-2931 -2316 3336 0
-4628 4864 -3729 0
3738 -4484 3451 0
4158 767 3740 0
-3700 143 -3221 0
-2730 1994 -10 0
1945 1706 151 0
-4147 3642 -4410 0
3688 -2048 -2795 0
-4412 -1002 -3332 0
-1927 149 -2544 0
4646 485 3787 0
-83 294 4253 0
2440 2995 -730 0
-329 -4463 -2686 0
-4659 -2940 3695 0
3736 4202 1557 0
-48 2373 -844 0
1723 -2213 -4333 0
-4985 4336 1025 0
56 -1296 4686 0
1919 -331 2317 0
1857 -3707 4906 0
2404 4983 2794 0
-2174 -4345 1197 0
-601 -2330 3598 0
947 -1774 577 0
-3337 -4278 3725 0
3334 -1508 -2696 0
140 -4491 -4063 0
-645 3636 4717 0
849 2054 -4252 0
-1316 -4778 -1505 0
461 522 -3250 0
-4782 918 3440 0
4244 -4434 -1954 0
68 -4459 -2451 0
1679 4476 -4646 0
1132 -4104 3252 0
-1003 393 1538 0
3517 -2003 -4964 0
4483 1019 -3992 0
-2325 -1727 4940 0
-293 -4257 -1592 0
-2263 2025 3740 0
4795 4997 -3666 0
-222 -2816 1521 0
-4962 -3203 839 0
-3472 -4334 -1717 0
-2146 2153 -4378 0
-1425 1016 2371 0
-1827 -3416 613 0
-3707 4757 4354 0
-4849 4830 2891 0
-1243 1184 39 0
-4599 -1190 -2362 0
-914 -4813 -424 0
-4743 4019 -1930 0
4563 -1915 -3561 0
2021 -2145 -1194 0
3507 -3535 2035 0
438 -109 -3911 0
-1615 1527 -4410 0
1708 -342 3435 0
-3055 168 -4992 0
3610 1003 -161 0
-2460 -746 -523 0
1974 4731 -4630 0
-3046 -2113 3656 0
-3976 3621 3350 0
2282 3196 620 0
3897 -4703 4563 0
1365 2828 -4534 0
-4144 4047 -3316 0
-2921 -3912 386 0
-23 914 2303 0
1085 -4466 -4893 0
695 4824 4132 0
-969 -1434 1736 0
-2837 4890 4089 0
-1573 -1575 408 0
-3266 -2547 -2148 0
-159 -4766 -2449 0
1589 -617 -3773 0
1006 3205 -1776 0
-4534 3234 -4384 0
1846 729 1248 0
318 1801 4823 0
-2327 4445 700 0
-4639 -263 -2316 0
1134 -1604 -2526 0
-3458 -1572 4447 0
-3835 175 1826 0
3424 -3988 -2419 0
1073 4702 4921 0
-25 -4000 3001 0
-67 -3473 3766 0
1235 269 -327 0
3437 -3773 165 0
2025 -3232 -2434 0
-1262 4890 903 0
-1657 -4716 2141 0
-4822 -1586 -3440 0
-3519 4831 -1113 0
-906 2128 392 0
1400 -4857 -3521 0
4427 1664 -1457 0
-3724 -958 2894 0
4869 135 -430 0
-63 4048 -983 0
-3460 2671 -179 0
4209 -4153 1241 0
358 -832 -907 0
2528 3115 1417 0
2547 4169 -3819 0
-4995 4226 -2141 0
3145 -3992 2920 0
-1225 -3054 -520 0
3131 1408 -4613 0
2385 646 -1946 0
-1124 4679 -1865 0
-1366 3494 -1412 0
173 2597 -2599 0
2607 -319 -115 0
3692 539 -3023 0
1030 -2458 3277 0
-3349 4966 -3809 0
-622 2465 2368 0
-1889 125 -194 0
3529 2498 -2271 0
4748 -129 1250 0
2863 -560 -3209 0
4773 840 429 0
-1830 3201 -571 0
1190 694 -693 0
-2147 4194 -4997 0
3432 4255 680 0
-2220 -2080 1941 0
2558 -3982 -943 0
-946 -1624 3915 0
-2126 450 -876 0
-1458 -117 -4813 0
-2773 4381 4220 0
4537 2184 4170 0
-20 1564 128 0
4441 1163 1483 0
4348 -2000 4975 0
-3156 -4253 1435 0
4482 3650 -2585 0
-3802 -3635 1881 0
2237 -2369 773 0
-1615 4891 1942 0
-1234 4750 -3150 0
4506 1875 1490 0
504 -1324 2123 0
-1610 -570 -47 0
-2250 3218 -2322 0
-1427 2733 338 0
1297 1229 -2669 0
211 372 -3497 0
571 1972 -1236 0
-692 867 267 0
-785 -3547 3877 0
4292 -3452 810 0
-2962 -1727 -1516 0
4865 1587 3849 0
203 -174 -3539 0
78 -2365 -3670 0
1614 -1894 -1941 0
3472 1464 1493 0
-2696 -3110 1195 0
4587 -948 1317 0
-2451 -3615 1507 0
-2686 -4727 270 0
2062 1983 2539 0
-3327 1904 -419 0
-890 -4224 441 0
2782 -2446 -3442 0
3236 -1989 -3646 0
1250 2765 -4878 0
3115 2655 751 0
490 2951 107 0
-3087 -4371 4061 0
1340 -3099 -218 0
2270 -2972 1617 0
3123 -3915 4212 0
4171 798 -1192 0
1463 -812 181 0
-549 -2421 -1807 0
-2613 -1098 3380 0
4673 1631 4089 0
-2295 -2826 -2227 0
-638 -4123 91 0
1752 4168 18 0
-1497 4672 -3599 0
-1024 4908 -4343 0
-4744 4289 2703 0
-3262 4291 -3143 0
-2930 131 -710 0
-344 112 -1599 0
-4797 -3312 1430 0
-3236 386 3051 0
-4089 681 -3712 0
-700 641 4522 0
-2134 -2959 -860 0
-829 1200 -3859 0
3642 -1765 -4271 0
501 1795 303 0
-1460 -1332 4162 0
4128 -3302 4086 0
2282 4938 -1537 0
1078 -3345 2102 0
-2520 1726 2605 0
81 2791 1849 0
-325 1342 2670 0
-3041 -3025 4350 0
781 -331 -2440 0
2483 1583 2257 0
-4955 1499 2249 0
442 -1216 -1715 0
-3659 -2748 -1318 0
-4258 -163 984 0
204 3772 -2404 0
864 -3074 -716 0
2428 -2573 -2347 0
-11 -2146 2553 0
-4421 2014 -3862 0
522 300 1311 0
-1434 1487 -942 0
-4107 256 -1876 0
4264 -3914 -225 0
-547 866 2434 0
3656 -1951 -3376 0
-1692 -166 -4788 0
965 -516 2001 0
985 -4137 4313 0
-4013 -3536 -3092 0
-2525 -3035 -537 0
1759 2177 2406 0
-4928 2261 4324 0
-133 -2370 -1119 0
-68 -3475 -3860 0
-2577 -4252 970 0
-1547 -2686 -1210 0
1448 1799 1473 0
-2106 -3466 2224 0
-2357 -1129 1514 0
-141 4466 -931 0
4795 -4840 3136 0
-360 722 -2183 0
2829 3464 -2366 0
-60 -904 3451 0
4241 1996 4337 0
-4151 -626 -2482 0
431 4913 4591 0
1225 -4 4904 0
-1091 13 -2237 0
3463 -1346 1969 0
-550 -2073 812 0
4771 1633 -2471 0
-506 -3583 -2788 0
3668 3665 -4576 0
1397 -3456 -1509 0
-30 3145 940 0
-3004 704 1512 0
2785 -4305 -4673 0
-1521 -3343 -311 0
493 -2059 4391 0
-768 -3593 54 0
-3148 -3563 -2236 0
447 -460 -799 0
-2288 3921 -4338 0
-907 4337 4990 0
3262 -4995 -4151 0
4770 -2535 -4531 0
1007 -4637 4573 0
3664 -3846 4075 0
3218 1715 -1749 0
3167 1916 4268 0
-1824 -1239 -2102 0
-4814 3038 56 0
-281 3344 1220 0
1666 4652 -2872 0
-4487 -4978 1811 0
2406 -1370 4852 0
-4828 -4240 1831 0
-180 3189 -3598 0
911 3795 2357 0
-4833 -3176 -1500 0
2193 -1041 -4816 0
-4742 -4066 796 0
-1607 -2970 4004 0
476 1338 2874 0
-1411 -3696 -2511 0
4200 -3858 79 0
3017 -4245 4658 0
-3039 2256 -3061 0
-3690 1971 2925 0
4998 -2335 4489 0
2212 -634 492 0
-326 -1874 -2043 0
2749 3788 -626 0
3353 -4785 -227 0
1198 -1563 -137 0
-1468 1615 -2589 0
-2648 2078 -826 0
1079 -1588 -4282 0
-4360 -2830 127 0
-423 3693 498 0
-3350 2429 -4610 0
3645 4673 1404 0
-4788 221 1783 0
1907 1695 -4816 0
-2517 -403 1890 0
-2104 -3063 -4066 0
-3265 651 -3483 0
-3310 -4173 647 0
3072 2092 -2475 0
-4277 3609 -2690 0
1612 -926 -3540 0
3662 4967 -2305 0
1781 2361 -329 0
4512 -1025 -2413 0
-317 -463 3538 0
2946 4567 -2002 0
-3883 -2858 1097 0
201 2802 2637 0
3795 3517 4004 0
1756 1612 -2916 0
-2443 330 4220 0
-852 -3497 -4619 0
572 4579 -3633 0
-3836 -1984 1402 0
525 -350 -2790 0
-331 3067 3711 0
2824 2601 1682 0
-4954 3513 2914 0
609 93 -3656 0
4315 2823 2087 0
-3933 5 2977 0
-918 1608 4664 0
2244 -2875 -2743 0
345 1726 1092 0
4473 2909 -4180 0
-4604 3194 3635 0
-2211 1119 -4852 0
4253 -1352 -2090 0
511 -1947 4090 0
-4913 -921 3056 0
1345 4841 -1901 0
-4428 -273 -4144 0
125 -578 3321 0
-3252 3997 1032 0
-4660 -316 1878 0
-970 955 -4350 0
3590 -2674 -1635 0
1573 2732 3040 0
3401 -3272 -1609 0
-1881 1391 -3476 0
-2684 4963 1688 0
199 3934 3985 0
-2788 290 -3491 0
2616 -3640 -1957 0
3166 -4134 1712 0
2106 -4141 3888 0
4610 -2384 -810 0
-137 2052 2060 0
-2324 -3730 -4844 0
-899 4399 -2668 0
580 2762 -4925 0
-448 -2956 390 0
3549 3365 -2825 0
-3896 2239 -2170 0
459 -4591 1776 0
2170 330 -2368 0
-3451 2818 2845 0
-1266 2359 -2199 0
1418 2474 -4901 0
2341 -4622 503 0
4087 1160 -896 0
-743 125 -3706 0
3385 2001 -2268 0
-2310 4825 -543 0
-940 961 -4679 0
-3737 -1093 3370 0
3697 -2271 3066 0
4688 -1849 -750 0
2088 3257 3033 0
736 -4051 -1992 0
4179 4334 394 0
-2954 -2099 1492 0
-3193 -1516 597 0
-2582 -1001 1201 0
-3642 -3250 -4652 0
2970 1909 4553 0
-1722 4664 2502 0
1395 -774 1075 0
4734 818 461 0
-4691 58 -3490 0
-1477 -365 -4654 0
-3361 -1366 -3453 0
4142 1203 -4350 0
-710 1339 -4217 0
-1753 3561 -1200 0
1463 1102 -1669 0
-4593 -2472 -2557 0
-1883 -2375 -3958 0
1569 -2041 1708 0
4549 -666 -4622 0
19 4916 4866 0
2650 -1665 3106 0
-315 -901 -1106 0
-4112 802 2019 0
-1172 2699 1655 0
785 4316 -2983 0
916 1140 -644 0
388 744 1543 0
3700 -1446 221 0
-3461 -2650 -4334 0
-1841 -4853 3188 0
-1070 -3735 377 0
-1603 1804 -2832 0
-2589 -2627 -71 0
-4262 3119 -2099 0
-85 -2895 504 0
-1144 420 3801 0
-3047 -157 -124 0
2092 4883 356 0
-758 2240 4371 0
-3158 -4491 4777 0
1828 4012 -451 0
4906 2057 -3031 0
-3003 -1687 -2260 0
-3002 -624 -815 0
-2209 4247 -1622 0
-3792 -1228 2383 0
-1805 2627 2881 0
-4802 -825 411 0
1694 -3107 2444 0
-797 -1504 -813 0
3688 -2955 -702 0
-3156 -3866 3984 0
4769 -252 -2552 0
-1956 -1289 -3280 0
432 -1404 -2702 0
-4597 316 -1863 0
1646 -1570 -2679 0
-368 -4925 -4219 0
-872 1379 4599 0
4097 -4061 3214 0
3033 4385 2817 0
4527 3658 4342 0
-1963 -3042 -4180 0
919 747 473 0
-4556 618 3596 0
3292 3927 35 0
-4736 -3245 -3736 0
1248 -4181 -1906 0
3457 -4425 1578 0
-4296 2544 2143 0
-1771 -835 3766 0
408 3567 3359 0
1678 -1729 -4450 0
-1753 1647 2481 0
-4546 1954 -394 0
-4980 -3115 3790 0
-275 -222 2315 0
151 -371 3255 0
-3790 -3380 2098 0
4558 4943 2108 0
1851 402 -4411 0
-3591 -704 -1155 0
-3108 1922 2061 0
-1086 1836 2576 0
-2290 -3111 4551 0
-2798 3168 -3566 0
3511 20 -4673 0
-4977 928 -225 0
-3023 4227 2333 0
-4146 1981 -4917 0
4352 4725 -1986 0
3549 -4761 1311 0
3049 84 2256 0
2073 3125 3645 0
-4299 1035 3813 0
50 -292 -4761 0
-1750 -3737 9 0
-4164 -1570 -2532 0
-2194 2269 1799 0
-4458 1080 -3939 0
-1050 4910 2656 0
631 4793 -1977 0
-4027 -4855 4959 0
498 -4128 245 0
2454 2927 -1178 0
3079 -2573 1293 0
1759 -3791 -1949 0
-395 4275 4383 0
2815 1385 4865 0
-3093 -2279 -1187 0
4679 1898 -611 0
1144 847 -1439 0
-3558 1893 -3572 0
-4136 -3279 -307 0
-2061 -1539 -1951 0
792 -1729 -3546 0
-1848 2549 -1899 0
4282 -3902 803 0
-721 2495 4622 0
2906 2448 -3067 0
-1843 2382 1228 0
-2122 -4474 -3373 0
1343 931 -4754 0
-1045 3680 -3405 0
-4082 -2834 4807 0
-177 -4571 4531 0
-10 2571 1116 0
3549 705 912 0
2524 -614 4017 0
-3333 3125 -1104 0
2297 -1994 4342 0
-1300 3800 -805 0
-3893 -2698 3787 0
3236 -850 1221 0
3067 -4149 490 0
-878 508 -1866 0
-3570 2444 -1567 0
1207 -1047 -3540 0
-983 -1961 2030 0
2035 2121 4548 0
-783 4269 2257 0
-25 4071 3873 0
-1691 4117 -3914 0
-4964 -3093 -413 0
318 772 -425 0
-230 -3503 4396 0
3344 3620 2166 0
-1455 1460 -4345 0
-1909 3762 -2356 0
3120 -497 -1529 0
-3918 515 2804 0
1287 -1400 -1159 0
-3089 -508 4464 0
3777 -1589 -2648 0
-1569 -2300 -1034 0
-1516 -4613 -1579 0
2478 -1982 -1469 0
-3896 4518 -1097 0
1670 2528 4540 0
-4979 -288 246 0
1048 3243 -3026 0
1861 -1138 4074 0
1803 201 -3893 0
-2721 -2885 5000 0
2599 -3159 2124 0
4622 -293 -3242 0
1939 942 -4104 0
-3780 -1427 3707 0
-3264 3641 3429 0
3727 -4780 101 0
1170 -531 -2446 0
271 2411 -4600 0
-1232 4800 -4475 0
2612 -2776 858 0
-4215 1446 2530 0
-1488 2744 82 0
1804 3638 -954 0
-4844 -4311 4444 0
4324 3028 -2908 0
3577 -4971 -1725 0
2725 3958 -4129 0
4993 4533 -2190 0
2562 -2488 2697 0
4068 -1476 4256 0
-3730 654 -2232 0
-3386 -9 -2190 0
-4843 274 1539 0
4439 3164 -4131 0
-4548 -1147 3345 0
-2443 2035 3821 0
-1845 1474 1349 0
-4785 2601 3760 0
2506 -804 -535 0
-2999 3267 2983 0
1701 1182 4528 0
3218 3550 -4405 0
-3839 3327 -1936 0
1755 -4120 -2053 0
-3613 2865 -409 0
-1631 3622 -1007 0
4490 532 2164 0
782 -3620 2427 0
2946 2642 -3954 0
2715 3409 -538 0
3890 -4468 28 0
2777 -4671 -3587 0
141 -206 4909 0
-2272 3609 1244 0
-557 2477 -286 0
3136 -2070 -4217 0
-3380 -1277 368 0
-2185 2273 -2626 0
-2976 -2746 -3435 0
196 510 3483 0
4561 4288 495 0
-2432 -1061 2988 0
-3167 -1537 2772 0
3295 4995 1103 0
654 -2532 -4574 0
3961 -3191 -73 0
-1600 4149 -2753 0
1535 3954 2161 0
-729 4749 2874 0
4485 -1391 -2395 0
2825 -3850 -4576 0
-45 -356 -3024 0
4619 3275 -168 0
-946 -4200 -3143 0
2199 -1759 -1014 0
-3249 1466 1649 0
514 -2172 559 0
4802 -1263 -3684 0
3038 -3539 -2571 0
-1321 -2967 457 0
3859 -3304 -3468 0
1013 -1074 -1395 0
-1074 -224 -1366 0
-3903 -3925 -3906 0
-11 -3480 -3083 0
-1105 -1602 -2532 0
3379 -4480 1629 0
-1043 -3528 -3659 0
-4631 3911 -4157 0
-377 1416 1142 0
-981 -4035 -3376 0
-2116 -2553 -30 0
-3460 -1201 3379 0
2682 1259 -2050 0
888 1745 -660 0
-2414 -2332 -3031 0
-3399 -1981 2878 0
-2021 3988 -3575 0
-4788 3635 -1263 0
-2088 1146 462 0
2297 -2745 4586 0
809 4718 -3222 0
1955 1559 1639 0
4598 2080 -3410 0
-3143 3518 3375 0
2242 -2378 -1794 0
-598 3547 3009 0
-1781 2735 2249 0
2084 4784 3609 0
4647 2873 3192 0
-2862 -269 -3411 0
-2725 -3292 887 0
1453 -4928 2511 0
-2195 4249 957 0
-2465 -2302 -2813 0
-598 4285 -1826 0
114 -4783 4308 0
-108 -1674 1359 0
923 -4097 1570 0
1157 441 -1555 0
-1125 4172 -3246 0
4526 -1437 -900 0
-2304 4131 -3278 0
-3455 -1045 3949 0
-1656 1190 511 0
3759 -4766 1268 0
3902 2583 112 0
-913 3255 1033 0
3078 1276 -1124 0
-44 -3492 -1733 0
-3874 4704 3243 0
1781 2964 64 0
4554 2388 -2064 0
1965 -1587 4843 0
-1837 -302 2002 0
560 4175 1680 0
-3030 -3854 -3862 0
1885 -3524 229 0
-3909 2197 3728 0
996 -2225 -1416 0
-2494 -4336 4072 0
573 4357 -4055 0
1480 -1166 759 0
-4953 882 -947 0
3028 -3207 -865 0
-889 -1478 -3133 0
2723 -2844 -2030 0
-1843 -2049 2604 0
-3687 1777 -915 0
2154 -4141 -2857 0
-4158 1442 -4293 0
-2196 4709 -3124 0
4567 -2640 1039 0
1458 -2302 4845 0
-528 -1144 -296 0
-1461 1042 -2474 0
3364 1752 -4242 0
1420 1870 -2632 0
1131 -2209 1859 0
2490 -2811 -4691 0
-2605 16 -4141 0
-3855 -4344 -1737 0
-4727 4354 4882 0
-1437 -4661 1925 0
-2881 3336 -4861 0
-507 -2471 1114 0
-1764 2210 1429 0
559 2479 -3106 0
3985 -1728 -4564 0
-2226 293 -2418 0
587 3664 -665 0
-980 4065 3913 0
3693 -1123 -3757 0
-4668 -1485 -1943 0
-4685 4795 -4682 0
-2951 1619 -3869 0
1162 -839 -3192 0
3246 225 -1453 0
2613 3011 -3062 0
174 -2640 4007 0
2584 1826 1219 0
3563 -3875 -3164 0
-4684 3588 661 0
1748 -1065 -1253 0
-4085 -1913 2815 0
-3368 596 -480 0
-1098 -741 -808 0
990 2306 1 0
-1762 2434 2208 0
-4324 4241 -3623 0
-348 -3753 2570 0
924 -496 4853 0
1861 -3400 -3585 0
-205 -3140 153 0
320 3806 1728 0
164 1775 1083 0
210 4362 2557 0
-3216 1112 4083 0
2384 1729 -3493 0
4669 2848 -3133 0
-4648 -2810 -3356 0
2260 -4680 3806 0
2476 -758 1535 0
2665 -2144 -1300 0
4965 2178 1950 0
2187 -1594 1338 0
-1145 400 4322 0
1695 690 -65 0
883 -1532 -3523 0
-4738 -33 -3710 0
-1931 1317 4506 0
619 -4168 2293 0
-2568 -3115 3155 0
3662 -3482 -2947 0
46 -3678 -1069 0
-1828 4135 2379 0
1696 -534 1259 0
-3806 -3214 -4776 0
1340 1924 2996 0
-3029 2807 909 0
3033 -96 -2867 0
1586 -34 981 0
4929 -375 1697 0
-3976 1118 -4655 0
-885 740 4730 0
-3337 2056 -2482 0
-2080 4459 4188 0
-593 228 -998 0
4767 333 3079 0
3079 2001 519 0
4907 -1865 -655 0
3423 -2282 -1264 0
4637 220 -3780 0
3630 3388 -809 0
-3279 2562 -923 0
2039 4765 727 0
2769 3757 1139 0
837 570 4433 0
4861 -3722 3452 0
885 4978 4427 0
1066 -4571 1312 0
-4661 -2999 2794 0
-992 2738 -935 0
4153 -2598 3527 0
3813 2064 -4528 0
748 421 -4530 0
1306 90 -4500 0
3271 -1358 -1918 0
-925 2042 -2311 0
3822 -3698 1642 0
-2203 97 2652 0
2078 4907 2386 0
3180 -3906 -3492 0
2174 -3443 -541 0
4003 -2840 1330 0
-1510 -2144 -3537 0
1424 2318 -1646 0
4099 -215 -4015 0
3893 -3040 -2339 0
4968 3795 -4731 0
183 -4293 4192 0
4519 -4220 1634 0
-1825 4810 -4941 0
-1822 4146 -3180 0
-3097 647 4359 0
-1289 -1124 -3137 0
2197 -2373 4856 0
1967 -443 -3706 0
-4391 3732 1135 0
-1720 3511 1269 0
1896 4750 2054 0
4493 -819 4795 0
-1124 4337 597 0
-4301 1470 -975 0
-4683 4224 346 0
-2481 342 3833 0
-1007 1407 -4110 0
4457 1770 -4103 0
2160 -4894 841 0
-687 3582 3072 0
4512 2934 -4723 0
1866 -3829 2894 0
4180 -2086 750 0
-1005 -2600 -4468 0
-3192 4995 -2480 0
4792 1753 1304 0
3061 -3245 2806 0
-2008 58 3897 0
-2987 3956 1822 0
-4579 2371 4463 0
-858 -3836 2543 0
-776 576 670 0
2069 1478 -2345 0
-3314 3431 -4773 0
-2857 -457 1500 0
-3155 -2622 -1277 0
3657 1221 -741 0
3559 148 1848 0
2213 91 -2110 0
-2068 1564 3128 0
-390 -3715 -1325 0
1645 -1530 1572 0
-1938 -4855 -2604 0
-100 1326 -4095 0
4425 1006 -2426 0
-2918 -1699 -4781 0
-3013 1321 -1436 0
-3735 -696 -4047 0
-3607 -13 -4795 0
4897 -4472 4445 0
815 -843 -1575 0
-4325 207 2061 0
1427 -4267 1217 0
-1995 2335 -4046 0
-3644 -461 -2226 0
-1692 -1323 -1142 0
-1877 3923 -3038 0
4984 -4584 904 0
-657 -1494 -3714 0
-915 -2256 412 0
-205 3670 -3097 0
-4520 -3041 -2554 0
-4443 -4245 3939 0
1820 -1884 1228 0
3979 3327 4973 0
-2265 3164 1345 0
-1113 -3698 2999 0
-448 404 -3032 0
-2376 1559 -166 0
366 -2889 -3996 0
4374 -3910 709 0
-2467 -3474 295 0
646 -2996 -4863 0
1110 -987 2875 0
481 638 -1618 0
-913 -2228 -1929 0
719 -1389 -1675 0
4019 4199 3804 0
-2430 -807 -166 0
3704 3762 2219 0
-4318 -4594 229 0
4003 418 3463 0
-4039 -2242 -93 0
-38 -4951 141 0
3416 -751 -175 0
1303 -440 4959 0
3816 -1125 -1344 0
-2788 -2010 -1061 0
4166 -1962 -1360 0
-2734 3788 -3578 0
2458 3553 4775 0
39 -4004 -2732 0
4577 -992 2259 0
4711 -3000 4263 0
-4366 -3142 -3951 0
2068 2339 1958 0
4629 -4102 -3867 0
946 -1672 3644 0
2290 -3995 -4211 0
3581 500 2289 0
3015 -945 -2274 0
3229 -1254 3549 0
2596 -3420 -3644 0
-4776 -4906 1121 0
-2394 -3550 2038 0
-374 -4104 -204 0
-1665 -1243 4171 0
803 -2515 -2012 0
3595 3061 129 0
-178 -2786 3922 0
2902 -3925 737 0
4372 -1450 3041 0
-2033 4347 -1092 0
4400 -4498 880 0
-870 576 1193 0
3170 -2230 3918 0
-99 3956 -2540 0
1122 -4598 4435 0
-3190 1804 4810 0
1412 -753 4966 0
-1524 -360 737 0
-1739 4430 -1154 0
189 331 2566 0
-1786 4297 1480 0
-4868 -1089 -1997 0
-259 244 -2567 0
-1441 -3682 -4572 0
3817 -4166 3340 0
-3228 -2255 4078 0
2980 -3222 -3107 0
545 511 3635 0
130 -3926 -2957 0
1282 1084 -2218 0
2743 3205 3959 0
-3683 612 -4012 0
-4070 4225 -3122 0
-709 -3920 -2172 0
3982 -4362 -2596 0
-2858 -1025 4449 0
-4617 2823 -1582 0
-966 2023 3066 0
-2587 1530 873 0
3450 -3770 -3927 0
-1156 -2412 2202 0
-2876 -159 -1902 0
2960 -2244 397 0
-1163 4549 2600 0
-1848 -1172 -114 0
492 -4017 651 0
-2749 2266 2553 0
-2050 676 2420 0
-1680 1877 4761 0
-3064 -3860 1431 0
-3628 -4613 -773 0
498 -4409 619 0
1818 3906 3602 0
-680 3629 4019 0
1053 -79 -4970 0
2268 -4229 -3541 0
-4297 -2139 -4692 0
3856 -3990 -609 0
3520 -360 -4641 0
4884 4416 -2442 0
-160 1176 1606 0
-3064 1182 -4048 0
-1172 2735 -4989 0
-1939 -588 -4434 0
1465 -4788 -4191 0
1325 -4748 -1110 0
-3360 1305 -1196 0
3644 -2625 2438 0
-4131 4346 -1454 0
453 933 4218 0
273 -4808 4395 0
4974 1841 -2560 0
-3344 -2824 -3347 0
4149 -4317 4458 0
-707 2495 -3099 0
-245 -3535 -544 0
3479 698 1800 0
3427 -1064 -4044 0
2163 4180 346 0
-2914 -4419 -852 0
-1091 315 -724 0
-3569 -3587 1603 0
1783 -1141 -3533 0
-2693 -2968 3806 0
-4614 -1174 -3948 0
-2638 1823 4818 0
793 1421 2164 0
3733 -1581 3644 0
-4416 -4789 2326 0
630 4648 4258 0
687 1972 -3596 0
459 3960 -4618 0
4250 969 4206 0
962 3356 -4521 0
2475 -1538 -2655 0
-2930 4191 4399 0
1707 3899 3838 0
2990 2249 4738 0
2227 -2143 -2186 0
-3733 -2060 -1428 0
293 -4975 -2774 0
4295 -192 -4535 0
-4552 -1980 2065 0
-4653 3254 4457 0
-2457 3838 -4833 0
3569 -4852 1184 0
-965 231 -2963 0
480 -1625 1479 0
405 -3192 3110 0
3695 2338 1070 0
-322 2681 -4636 0
3793 -3287 -3045 0
-3745 -2376 -550 0
4193 1952 1823 0
1412 1920 -4522 0
4354 -2190 4885 0
-311 -2369 -3499 0
-2228 -853 -3554 0
-1291 4435 1720 0
-3431 -4035 2215 0
-3063 -4313 2951 0
-2415 -538 -261 0
-1150 -2514 2735 0
-4985 -4273 -3858 0
3538 1046 2170 0
-2074 685 4227 0
4989 1147 1562 0
1222 3250 -4483 0
2250 -273 2568 0
440 -819 4091 0
-1176 1529 -3845 0
2793 4738 4244 0
-1583 -4215 1213 0
2160 3488 2147 0
1526 -3562 1460 0
2506 4465 4022 0
-2577 -1989 973 0
-1473 3451 4985 0
-3671 3463 851 0
2164 856 -2725 0
3181 -4051 2797 0
2374 2419 -4638 0
2923 -3980 -1371 0
4715 -1664 -3476 0
3922 219 -4791 0
-4520 -251 4504 0
448 -2984 -1243 0
2468 -3680 2169 0
-6 4378 3444 0
-4125 4970 4280 0
-2501 -78 -1463 0
4650 2940 4507 0
3292 -2039 644 0
3819 -525 4484 0
3133 760 1840 0
1047 2541 -4897 0
-4088 337 1200 0
2504 -2875 609 0
-3539 -272 -1481 0
3991 2915 -2595 0
63 4780 -2779 0
-1214 -4979 -3529 0
-2298 -1713 4094 0
-4849 2819 -4958 0
3526 535 -1715 0
2810 2377 -930 0
-242 2653 -4548 0
-3045 2937 504 0
-1539 1057 -3465 0
-78 1540 4528 0
-312 133 3736 0
-3594 -721 4860 0
4093 2296 -4021 0
-2925 -1812 2260 0
2051 132 -1821 0
4908 -1049 -4572 0
2769 -3540 4193 0
1798 -3652 448 0
4710 -1689 765 0
-4435 2946 2827 0
-2176 -2368 3792 0
2908 3891 4463 0
1443 -1990 -5 0
-2460 -3065 1152 0
2792 242 2379 0
-4316 2885 633 0
3098 -4682 3635 0
325 3133 2663 0
4466 843 4842 0
-4119 2654 -4013 0
-1511 3549 348 0
3982 4701 -3645 0
-3635 3583 -4205 0
170 3082 1830 0
2472 -4956 -236 0
-2503 -4084 -1977 0
-706 826 2834 0
1303 4014 1248 0
785 1256 -4168 0
1879 -1772 66 0
-868 661 -4254 0
3401 -2780 -3854 0
-1371 -4860 4467 0
-3384 -4510 -346 0
951 -750 884 0
2699 -794 1455 0
-335 2259 -432 0
-1498 -2252 -3391 0
1862 -1330 -950 0
-2398 2212 3097 0
-3443 -3358 -2594 0
-1468 -3639 1460 0
-4696 -1489 -3792 0
2622 -3841 -1482 0
-1805 -3613 4931 0
4031 -4463 -3892 0
2395 -51 -2655 0
3109 851 -132 0
3266 3118 -24 0
953 1296 2097 0
4 2744 4306 0
-232 447 1951 0
-2927 4546 -2493 0
-3984 -1736 4768 0
-3921 -2282 3905 0
3651 -3736 -3565 0
-3219 2916 -4391 0
1169 2904 2708 0
924 -762 -2083 0
-2874 1626 3116 0
4060 2886 -4716 0
322 -2707 -1314 0
-4960 -1266 474 0
219 -1225 4630 0
848 -1083 2034 0
4603 1847 584 0
-1928 505 3319 0
-4477 4684 -1728 0
-1471 4106 1658 0
-2094 1422 2660 0
-3991 2960 -2563 0
2349 -3326 -1507 0
-903 -4939 -3918 0
3258 1219 -4623 0
-2837 -4433 -1025 0
-585 1292 318 0
4683 1978 3772 0
2172 -599 -290 0
-2468 1978 4829 0
-2183 1047 475 0
-3227 3833 -3283 0
-1599 1345 248 0
3562 825 -3777 0
4610 1632 -2705 0
248 1889 -1632 0
-3930 588 1271 0
-636 -4710 -2003 0
-3995 2305 -4490 0
-2566 4980 10 0
2863 -3515 4702 0
3187 1175 2617 0
-1242 534 -4536 0
-734 3147 -2272 0
-4142 1544 -1830 0
-4748 3515 1505 0
-2528 4545 2849 0
-2795 -777 -4140 0
4170 -3121 179 0
1371 -4362 4686 0
1990 3009 -4728 0
-2371 -3548 -3030 0
-2459 18 -3123 0
-3441 1006 3622 0
3984 3400 4914 0
-2077 1069 311 0
1684 -424 -112 0
-187 3859 2590 0
-4258 -2750 -2078 0
2161 -2147 -3555 0
955 -3258 -1740 0
-4592 -2653 4940 0
3522 -1155 758 0
1961 1299 4302 0
-668 -4511 -2365 0
-4473 -1075 -4840 0
-1029 2506 -2344 0
-1992 2098 -647 0
-2138 449 4538 0
281 266 -3852 0
-1171 2392 -586 0
-1688 323 -2676 0
4696 -26 -3347 0
1973 -4561 -2520 0
-590 -3012 -78 0
4502 4182 -1011 0
236 -2009 4911 0
-4834 2281 -1781 0
-2621 -1533 3018 0
4074 1939 2186 0
3025 -2416 890 0
9 -758 609 0
1559 125 3255 0
-4975 -2042 -651 0
3890 -2123 4070 0
-4961 4444 13 0
-4448 1852 4164 0
-3313 4448 3878 0
-1855 -472 -2276 0
-994 1298 4324 0
-3166 -4852 3361 0
-1682 -2097 -4831 0
-1213 -2933 331 0
-3779 -4792 -384 0
-4554 4281 -4960 0
-4732 214 -3916 0
1484 4661 -4128 0
479 2944 -2508 0
-864 -3192 -1693 0
-343 -4050 -2172 0
2605 -715 -459 0
3575 4361 -87 0
4155 -2867 -2061 0
-29 -4397 1356 0
1386 -4412 -1578 0
3962 697 -4777 0
-4915 1614 1416 0
-556 2516 1082 0
-4662 2326 2597 0
-4273 -3333 2123 0
-1479 2739 -4002 0
1083 4101 4122 0
-1879 3674 1592 0
-651 1181 -3837 0
-2845 -1861 2131 0
530 2855 -1148 0
-4400 -1524 -991 0
-4083 -3875 -1266 0
2008 440 -1589 0
-2267 1040 3523 0
-1852 4556 2606 0
1705 3677 2468 0
-3301 -1795 2990 0
-4286 1452 2112 0
-18 1982 2845 0
3687 -180 4972 0
-1392 -1777 -2723 0
2619 4162 1715 0
3041 -930 -160 0
712 -3147 -2357 0
-2876 4499 -87 0
-139 -1613 2161 0
-1466 -386 -490 0
1375 -1679 4888 0
-174 -4740 -3995 0
-3772 -1282 -1062 0
883 -4315 -4921 0
3804 839 -118 0
-2164 -2386 -2912 0
-1731 -4041 2500 0
-3309 2268 2056 0
3346 -2675 1949 0
-2707 4227 4238 0
-520 -791 4867 0
4194 -3157 -152 0
16 3596 -1810 0
-2145 -2338 4409 0
-3960 -2562 3174 0
-2321 4641 -2351 0
-975 891 2580 0
-1923 -632 2375 0
-4605 4968 15 0
-2152 1968 -2009 0
-1914 -4861 -2774 0
-2243 2932 3206 0
-4371 4373 3485 0
-845 1402 -4614 0
1942 106 135 0
-3147 3118 1016 0
-3930 -3918 -4742 0
267 1004 4810 0
4367 1196 884 0
-4902 -4861 -4253 0
2574 -844 -2158 0
256 -726 -3426 0
4338 -1445 3814 0
-199 -3492 884 0
-453 -4996 239 0
-4497 -2931 4672 0
-4288 -574 -979 0
-4700 424 -356 0
778 1149 -1143 0
4109 252 -2907 0
216 -4901 -272 0
-3942 3248 -1495 0
-3025 2939 1678 0
-1144 1714 -2653 0
4881 4760 -1747 0
153 -801 -2694 0
169 -1315 -3446 0
-2693 543 -1968 0
-4500 -574 -2373 0
211 -204 -1132 0
2696 2285 -2286 0
-23 3469 2493 0
82 2410 615 0
4039 -1072 2022 0
-3761 -2877 961 0
1396 -3979 1609 0
2850 2876 1512 0
295 3398 2490 0
-4363 -3931 2015 0
-1173 4758 -683 0
617 744 4792 0
-3233 2 -199 0
2715 -882 1762 0
-1266 1873 -1298 0
-682 842 2769 0
2910 -4372 4610 0
1696 -4726 784 0
-836 22 -3918 0
-4267 3572 1317 0
-4906 -866 -2555 0
4466 1310 -3348 0
3619 2345 833 0
-4473 -2396 -2311 0
-2582 -2570 -3187 0
-4979 -4713 2638 0
-4499 -4196 -2505 0
1684 4671 -2611 0
-115 3917 402 0
2362 -1118 809 0
-3899 -474 3092 0
619 4587 2709 0
357 10 -320 0
3659 4767 6 0
3085 4046 1948 0
1709 3556 3575 0
-3373 -2883 703 0
-2025 2306 -4195 0
-3870 2054 1530 0
-1388 -4369 2122 0
2104 -4815 -741 0
-4479 1964 1300 0
-1365 -2601 -2869 0
-1634 -836 3116 0
3847 -3470 -3808 0
4121 -844 -761 0
-3355 -2270 -4497 0
-18 -4794 -2865 0
-1790 2223 1190 0
341 -4948 2308 0
-1866 4467 935 0
-1295 -786 4950 0
-3525 2590 -2691 0
-4847 401 -4262 0
4737 2581 -3788 0
1240 4760 1944 0
-500 137 294 0
4432 -3534 1469 0
3124 -3098 2364 0
749 882 -1569 0
-3201 4607 -68 0
2862 4735 -2484 0
-1539 2843 3159 0
-862 -2120 810 0
3820 705 4829 0
1703 673 -2540 0
2317 -1895 3759 0
-1913 1484 1016 0
4865 -4847 -4113 0
1882 -2657 -4468 0
-4597 -2429 -1885 0
-1847 -4985 -2482 0
432 -3489 -3238 0
-2956 848 1348 0
2625 4750 -1713 0
-1980 -1226 -4203 0
1823 894 3328 0
3709 -2469 -1907 0
598 4842 1550 0
1027 -3461 4886 0
-392 -3098 4231 0
1283 3243 -1128 0
3166 722 -4391 0
2959 2655 -4439 0
-3731 3638 4019 0
-4996 402 4597 0
24 62 -3697 0
2919 1061 -4120 0
4405 228 -4072 0
-2249 975 -1733 0
-3784 3300 -3148 0
-2118 -3188 -3956 0
4121 1291 4371 0
-3790 -2728 4399 0
3216 4535 -1236 0
-1164 1621 844 0
-2528 -2745 -1662 0
-1866 -3708 -1471 0
730 -4097 -1283 0
985 -1316 1507 0
2658 3037 -3838 0
-4233 565 -608 0
-2707 1982 4372 0
-3467 764 -986 0
786 3793 -1991 0
912 -1331 1718 0
4560 3374 -4597 0
764 -819 -2396 0
-1090 1402 -3117 0
732 2642 -2149 0
4444 -2595 4400 0
2726 -708 -1430 0
-535 284 -4474 0
2825 4809 3299 0
-4640 18 -2155 0
-3850 -274 3423 0
-3862 4802 4819 0
-1610 4115 1798 0
-1267 -2968 2712 0
-2365 -380 -2563 0
2873 3191 3435 0
4632 -4158 1202 0
2841 -3391 4475 0
-1876 -703 -4622 0
-525 -22 -2993 0
-4946 -3345 4557 0
-4949 3837 2675 0
-3389 -3895 2480 0
4064 -2789 4212 0
4885 332 -280 0
-1585 -4601 3871 0
2127 -4919 -2763 0
-2966 -4581 976 0
-332 -4168 80 0
745 -4447 3344 0
3979 -2465 3315 0
-4734 1913 1519 0
4469 3751 3629 0
-650 2297 4812 0
-2004 -2252 2903 0
-1497 -3001 -963 0
4538 3468 3867 0
-2331 -988 1148 0
-440 -1772 3828 0
-2574 2519 -3652 0
52 -3026 357 0
122 2253 -2304 0
2354 3109 -1505 0
-3754 -2955 758 0
792 -2760 -145 0
-3894 1338 -38 0
2976 -565 3041 0
-3228 4658 3762 0
-2150 4168 -4432 0
1308 4682 -2131 0
3935 -2080 3093 0
384 4098 581 0
-1484 4627 693 0
1327 1287 4351 0
816 -614 -4208 0
2224 -3200 3378 0
-787 -1384 -4216 0
-4102 342 2444 0
-1000 4528 3053 0
-1680 2922 753 0
-1101 -1074 1812 0
1734 2751 -3460 0
-4396 -1822 -3529 0
-3095 1329 -2505 0
-3720 1630 4942 0
4325 2327 -2746 0
4180 1614 -80 0
1515 -2292 -4873 0
2862 3957 4319 0
-3114 -2520 -2242 0
1942 3798 1908 0
-3441 -4581 -901 0
696 -3130 3894 0
1234 4185 -786 0
4327 -3922 3638 0
1662 -3652 -810 0
1098 2645 -839 0
3871 -816 -2422 0
-4427 4162 1040 0
-1918 781 -1215 0
3634 -4311 1313 0
4941 2182 126 0
278 1658 3429 0
-3981 2410 3336 0
-2028 3961 4299 0
-1405 -4167 1541 0
-4177 3347 -4505 0
3272 -795 -67 0
-2142 -1285 3980 0
-1089 -3607 4443 0
3599 3521 -1567 0
1628 -615 1188 0
-1863 68 -4458 0
-4270 3373 4967 0
4363 696 -2853 0
611 2956 -2180 0
-169 2502 -3600 0
-4590 3828 3238 0
-134 -3432 -1205 0
-769 -2890 2272 0
-1903 4920 3138 0
3250 -466 296 0
-4533 4161 -2146 0
2565 273 -1714 0
4479 3013 -3509 0
2260 2420 -4600 0
3876 328 -3077 0
3467 1645 -2755 0
4929 4777 -1670 0
1888 -4676 2045 0
3455 2117 2869 0
-2282 -2242 1937 0
3294 4681 917 0
-3413 858 274 0
1149 1128 2080 0
-2736 -3584 -4020 0
-57 -4436 530 0
-1360 1175 -1555 0
-3917 -4597 -4343 0
3209 1057 827 0
-3086 -2777 617 0
189 -3150 161 0
-4641 -2003 -686 0
4 2203 1955 0
4103 4355 -3529 0
-4862 2209 -3088 0
2418 -4127 2751 0
-4640 -2118 -1027 0
1437 3287 -478 0
2544 1136 4647 0
4304 1124 4128 0
3246 923 -2118 0
3683 -2987 320 0
-2344 -2807 -2743 0
-441 2707 1657 0
2169 -2743 -2730 0
-3403 -1464 -4100 0
-1933 2071 2921 0
-57 1784 -1329 0
2235 -2446 4693 0
1158 2191 -1957 0
1419 -1244 -410 0
-2687 3485 3546 0
-1545 -2581 -3358 0
3015 4987 -2802 0
506 -1933 -606 0
2195 -2064 4109 0
2337 -1918 1493 0
-3527 -1772 -1708 0
3357 -1220 1390 0
4367 -391 498 0
-2632 4988 2981 0
-4809 -1652 -2652 0
1092 4668 4568 0
1896 4255 4740 0
-257 4043 939 0
3120 4156 4693 0
1400 4154 2916 0
-3614 1996 -3447 0
-68 2553 4651 0
867 -1732 -2092 0
4375 -3317 -2183 0
1140 -2417 -1538 0
1085 -1716 -664 0
-4654 -2430 3341 0
890 -676 -399 0
-4370 2278 1881 0
-3527 2490 -4611 0
-3153 -4281 -3791 0
-1349 -4556 -3549 0
982 -3871 -1338 0
-4579 -73 -504 0
2126 4093 -4735 0
-1995 -4687 -1322 0
-102 2697 80 0
4697 -1362 -2378 0
-1198 1303 1081 0
-367 -650 -746 0
800 -2372 -1388 0
-1236 1149 1380 0
4590 -2096 -4487 0
16 -2937 840 0
-1792 -4783 -3840 0
2732 2420 -420 0
247 554 402 0
3079 1363 2530 0
2398 -140 -1073 0
-2111 1782 -3570 0
-953 -1233 3696 0
-681 -1976 -3221 0
2098 -1924 880 0
-278 2401 -2570 0
-1926 3393 119 0
-4857 3573 -1372 0
-4046 -3140 -2131 0
-1278 -2983 2332 0
-319 -1031 3693 0
-1996 2921 -2393 0
-4747 -1866 -4161 0
4222 2981 1286 0
3026 3893 -336 0
3938 3885 -1818 0
1997 -1631 -3111 0
2115 1905 4113 0
-3353 1845 -4255 0
4714 2795 4040 0
4059 310 4886 0
1171 -374 1819 0
-294 351 -1371 0
2157 -4572 2339 0
-2273 2478 1501 0
3443 -2434 -4828 0
4502 -970 -4286 0
-1210 -2017 3515 0
-3691 1012 -305 0
2917 -4646 563 0
3970 1255 1304 0
-3653 1735 595 0
-699 4096 -739 0
-923 2927 -4728 0
429 -3531 3764 0
-4216 -3957 429 0
-2706 -2165 -616 0
4197 4458 2303 0
-1993 -4231 -4497 0
2560 4443 -206 0
-3035 -1541 -2890 0
-102 2743 -1128 0
-2860 -939 -1879 0
3373 -3535 -4026 0
1497 1770 4316 0
350 -3743 3600 0
-1606 -3788 -73 0
3946 -1296 -2405 0
428 2088 -749 0
2471 383 4150 0
4612 2099 -3770 0
4491 3529 732 0
-1298 3956 1814 0
-4105 -42 -3665 0
3105 2032 2282 0
-285 675 -1666 0
1738 -3351 2701 0
-3873 -4796 -4887 0
512 -3042 -1681 0
-3453 2722 -3566 0
-4855 15 3029 0
81 -1335 -3563 0
-2772 627 -16 0
-749 4519 1144 0
1537 -54 -535 0
1860 2615 3260 0
2583 1619 -2263 0
105 196 -2873 0
2743 -3483 712 0
-781 3666 -1908 0
-67 2731 69 0
4934 1165 2540 0
-1592 462 -758 0
4096 -4416 -1020 0
4517 -2496 -4531 0
-4385 1697 -2837 0
2398 -2693 -4613 0
1751 -950 1563 0
-1162 2716 2431 0
2363 1930 -4544 0
-2518 4690 4647 0
-945 2768 1508 0
-3694 2795 236 0
-3631 -2881 -701 0
-859 2481 1627 0
2634 582 790 0
4754 -4605 -3022 0
3855 -4578 1199 0
531 -4158 -3229 0
3737 -2780 910 0
4019 3057 -1112 0
841 -4640 354 0
-984 1316 -2831 0
2552 278 -4523 0
3756 2393 -4253 0
-421 1594 -278 0
-4338 1932 -1056 0
-4606 2840 -3648 0
-112 -2104 1135 0
4493 4543 485 0
-189 3773 4138 0
-4418 4789 654 0
-127 -3544 3759 0
1587 4054 2718 0
798 2986 3109 0
-194 -2210 2608 0
-2126 3417 -3803 0
-61 -718 3712 0
668 -375 -989 0
2336 -2633 -896 0
4102 -1824 4438 0
-4471 -3956 -2572 0
-1680 -4792 -2827 0
-2154 567 -2260 0
2496 2979 1999 0
1763 -2386 4204 0
3963 3932 -2934 0
-1342 1529 2319 0
-4455 3668 -4701 0
-3935 3247 -473 0
-3392 -4078 -4216 0
-4528 2684 -2932 0
-3909 -678 1661 0
3954 861 2219 0
2095 -179 -608 0
-2677 -932 3372 0
-3238 2139 55 0
-891 -3453 -2021 0
2714 -3907 1648 0
-1052 -2173 2711 0
361 -2150 -689 0
1880 -4193 3085 0
1895 2795 568 0
-2041 -2300 -2412 0
-3123 -3938 1953 0
-2347 -2757 -2988 0
236 2910 -1088 0
-3066 2794 -1601 0
790 508 4965 0
3244 1900 1889 0
-406 -82 4612 0
1525 -1992 -2554 0
2091 -929 -738 0
4639 4299 3351 0
10 -3874 -4715 0
-1641 131 -1511 0
-262 2654 282 0
3969 -2744 3967 0
29 741 -541 0
307 3216 -4421 0
752 87 4830 0
-2433 -1858 3411 0
2564 4177 -3425 0
-1189 -1817 1826 0
-2945 -667 625 0
-1150 1629 -1187 0
387 2109 1961 0
1792 2078 -293 0
-536 -4625 -2217 0
-3032 3402 2620 0
-93 -209 -4583 0
-1189 -1097 -4229 0
-958 -3713 -2999 0
-2502 3374 1332 0
-2810 2638 -686 0
-3660 -3877 92 0
918 1693 -1581 0
-3975 277 2241 0
787 -868 -351 0
-2362 1615 -3020 0
-1861 -426 -645 0
-4278 963 -577 0
2204 -2844 243 0
1286 3176 4422 0
-1434 -4509 4851 0
-4441 2806 -3899 0
-1329 1541 3540 0
-520 3117 -579 0
3087 3875 4213 0
1743 40 -3410 0
-2320 -675 -1269 0
-2608 -467 3583 0
-4987 1336 -211 0
2925 1948 -4727 0
164 -1783 -3403 0
4774 636 2563 0
1661 -1977 -1165 0
3456 1780 -3186 0
4178 437 4275 0
-4399 -1819 -4884 0
-1006 -4818 306 0
-1250 2290 -2651 0
-2296 -2850 2522 0
2934 1460 -1889 0
1453 537 -3511 0
-3402 4144 2135 0
-154 -2682 4482 0
-2644 -2021 -4341 0
-3358 -2641 1497 0
1274 3458 -578 0
-4246 -4975 -1554 0
1666 -165 -4746 0
2261 2097 -2364 0
665 6 2562 0
3748 -981 4929 0
2745 3375 -4007 0
3784 4291 -2391 0
-2249 -4871 3166 0
-4937 -1336 -3724 0
-1253 -1981 -4320 0
1717 -2983 3636 0
-754 1551 -2857 0
1830 -1210 -3452 0
2960 -2275 3477 0
-3704 925 -1138 0
-4228 619 -3545 0
-56 -575 -3284 0
-2692 -1375 775 0
414 -1247 -2680 0
-4799 -3116 -2853 0
-1376 -1163 -2544 0
548 -4097 475 0
-2560 -3799 -1258 0
4873 -4515 -2965 0
1117 -258 1920 0
3554 2893 -4621 0
1478 3399 -949 0
-4476 -1566 35 0
-2282 -3187 1550 0
1549 2080 -2677 0
3754 -3313 1372 0
3421 -1573 -652 0
-3916 -3967 -398 0
-2734 4854 1564 0
576 -1348 -340 0
3066 -1955 554 0
-231 2400 -1349 0
53 2910 -1442 0
-1613 908 -2774 0
-2931 -1760 -3752 0
-3905 -169 -1384 0
1036 2015 2542 0
3446 1572 -723 0
3612 2004 -4686 0
-3813 3111 -4124 0
2479 -378 3859 0
3557 1112 -2475 0
-4115 4235 -3490 0
4863 -4211 3515 0
1161 623 -4938 0
-104 -4174 -4647 0
4400 -2663 1023 0
-4620 -4666 -4959 0
375 4757 -4432 0
-1215 -4142 -3704 0
3050 3434 -1376 0
-3502 -4019 -2815 0
-84 -2869 1902 0
-773 3600 4437 0
-3543 4104 -534 0
3937 138 1421 0
-1553 -3757 -2090 0
-2486 -952 3274 0
-4095 -3281 2543 0
442 1522 4261 0
2193 -2388 34 0
-2397 -2128 1356 0
3518 -4745 -928 0
-2044 -3943 3504 0
-1144 -4534 -861 0
543 4059 4855 0
-4940 -3003 2457 0
2732 -4128 -2632 0
428 -3467 -3664 0
4754 361 -1451 0
582 257 -4830 0
-1173 -3509 -3081 0
-1169 2943 3461 0
-4186 4330 -2368 0
-3332 2386 553 0
-2441 2330 4617 0
198 4393 -3641 0
4007 -2370 -55 0
3753 4841 829 0
-3207 -3640 -4676 0
3845 10 -146 0
-2040 -2561 -4611 0
851 -289 30 0
2228 -1161 452 0
-625 1804 -2946 0
617 -776 628 0
3068 2789 4031 0
4411 -1229 334 0
-2170 -3060 2250 0
-4244 -3680 -3845 0
-4091 2206 3300 0
-4696 -1751 -4566 0
522 -2932 -2636 0
2727 876 -4811 0
-357 186 -3844 0
-1328 353 4830 0
-3555 3830 1587 0
2520 -2310 -4834 0
-3484 -2599 531 0
3667 380 -1519 0
-3486 -3428 -4289 0
-1677 3855 1190 0
-3480 726 -2365 0
-2348 4282 615 0
-2308 -4757 -3159 0
2127 -4720 -3625 0
4165 -949 4661 0
-4629 -3906 4913 0
1920 -4844 -3181 0
2943 4410 1905 0
1069 -3495 2167 0
-3967 273 -320 0
-2877 -3935 -1540 0
1128 3318 -2597 0
-2108 -994 -3414 0
-1960 -4494 1754 0
-4272 -3472 -1266 0
-4736 3098 -3822 0
3101 -591 553 0
-3396 -2492 3160 0
-3508 665 -784 0
-3697 1751 -912 0
249 4718 -3514 0
1062 76 777 0
-749 40 -1761 0
2254 2270 -1336 0
-3007 -903 670 0
910 157 3056 0
2656 -1855 1301 0
2713 -4612 -4071 0
4248 2773 4364 0
-3906 4270 -4663 0
1517 -1841 2103 0
3475 -3892 -3641 0
-3568 -4065 4951 0
-657 -1707 2135 0
-2686 -2113 -4266 0
-2420 -901 -4478 0
-556 -1452 -2767 0
381 924 3651 0
3434 -1533 -2824 0
-405 -1142 4568 0
-4608 301 -4602 0
3682 3446 -3405 0
3153 -2738 -1198 0
652 -2000 -2798 0
-1044 -2179 1287 0
-588 2712 3169 0
844 3097 -3486 0
3106 -2856 1061 0
2127 -3338 -3169 0
1690 -4413 -2151 0
-3614 -1417 -3278 0
4230 -4129 2990 0
-3343 -471 4161 0
1207 -4230 -1287 0
-1732 1688 3536 0
1709 -1463 -4640 0
3133 4404 -1936 0
-3271 3103 595 0
-2548 -2080 -1324 0
-1960 -4667 235 0
-2110 86 -675 0
62 539 14 0
4177 -1261 -2485 0
-3821 49 4430 0
-1540 -2711 -831 0
-1616 1166 3295 0
407 3606 -2100 0
4078 4591 4122 0
-806 -1651 -832 0
-1153 3273 -362 0
2192 -3062 -368 0
-800 2414 -4372 0
4463 1942 -2488 0
984 2442 -1758 0
-3996 623 4365 0
-3525 4944 -1639 0
-388 -4077 -160 0
2734 -1140 512 0
-276 -12 2884 0
3479 3700 -2393 0
1131 -4545 4864 0
467 1650 1431 0
3502 1690 -3258 0
-567 2527 3842 0
-3927 -1837 -4803 0
-3404 -4196 2062 0
4189 2432 -4011 0
-803 1721 -4329 0
3008 -4229 407 0
1732 -3297 -4493 0
2517 2156 -3327 0
-384 -2449 -3336 0
-2514 -4988 635 0
-4883 1501 1366 0
-2669 -4979 -3171 0
1463 -429 3502 0
3636 4475 492 0
3801 -996 -3695 0
-1425 -2143 -4959 0
-2920 -3677 -127 0
-1561 -3479 1927 0
683 1520 1107 0
-1879 4266 4957 0
4433 4362 -93 0
-3924 2776 2577 0
4110 -68 1692 0
-2219 -2608 -2833 0
3706 -4944 -2906 0
878 763 -1957 0
4009 1186 -1342 0
2869 1489 -230 0
754 -305 -3677 0
1182 -2572 3043 0
3302 -817 -766 0
-3039 963 3625 0
1042 -1931 3626 0
3193 -289 1756 0
-4775 -122 4696 0
4908 2161 2963 0
654 4325 -3810 0
1163 2012 4493 0
4257 4767 3066 0
-100 -2800 -2753 0
1235 1458 -1264 0
-2127 3748 3292 0
1974 852 2121 0
-49 3905 2879 0
-2386 -285 -1095 0
-374 -3169 -1343 0
-1280 1293 -4459 0
-1256 -2825 -1585 0
-820 1883 -3564 0
-4212 -2537 775 0
1517 1134 4942 0
-3710 2055 2112 0
-2006 -4544 3502 0
-954 -197 2728 0
-1207 3558 -2449 0
-1307 -3824 3012 0
2157 -810 -2111 0
-238 -3724 3380 0
-1717 4975 -1429 0
-2344 -4751 3937 0
-2664 -3671 4790 0
-3908 3040 3171 0
-3679 -779 -4242 0
-4360 -701 -2772 0
-2697 3778 -3662 0
-1362 460 1877 0
3257 -1082 806 0
4618 319 3574 0
-2789 1635 485 0
-181 154 405 0
1709 -3823 2717 0
3558 4578 -4137 0
2690 1053 55 0
-1978 -538 -2022 0
-2749 4044 -4030 0
1559 2314 2517 0
-3451 3854 3614 0
-4793 -1188 -332 0
-2924 -69 1803 0
4944 488 4775 0
1840 -3390 -3081 0
2823 4398 4210 0
-2161 1682 -1230 0
2921 -1913 699 0
3134 -4969 3354 0
3808 -1396 -1460 0
-3459 -2138 1245 0
-1241 -3766 4273 0
-1855 2840 4251 0
-3472 -4045 3148 0
2492 3528 -2065 0
-4582 -3189 -326 0
2829 4940 -3483 0
-2423 -2808 -617 0
-1311 4343 -1939 0
4096 -4989 4959 0
-350 3763 -3804 0
709 -2569 4429 0
3504 3940 3203 0
-2202 -1028 -1909 0
1945 -2191 4491 0
1995 -1357 4305 0
-4630 -132 3169 0
-4975 -1359 -2012 0
1584 1459 975 0
-1127 -2566 -4959 0
-1282 4997 -443 0
1307 -484 -3111 0
2058 -4098 3 0
-1243 -582 4942 0
5 -1112 -4853 0
-2360 -4771 -2270 0
-3934 -1589 665 0
-3500 2995 4107 0
2761 -1928 2669 0
-4510 -1626 3193 0
4427 4727 2355 0
2548 -4663 -1579 0
2058 -4653 -1486 0
4225 -225 -3027 0
-1461 3117 -3688 0
2130 -66 -3962 0
1407 -1113 2552 0
660 -2935 3366 0
-2410 -2017 -3764 0
2946 -3682 -1442 0
4631 528 2142 0
-2785 -2858 -4677 0
4370 -3081 4940 0
-3809 3718 4579 0
-1700 4375 652 0
-4895 -1783 -1244 0
2307 -4707 -2554 0
-483 -1263 3901 0
-3701 -1885 -2656 0
-1107 -2995 -350 0
-4865 -1022 -1867 0
1183 -2590 4513 0
-179 -415 3996 0
1120 -1668 4030 0
1532 -2396 1279 0
3881 -4965 -4481 0
-3821 -3879 3378 0
1931 3293 -4287 0
-4783 -4850 4006 0
4082 3469 -72 0
2544 4634 -4234 0
-2475 -4814 -2292 0
572 -499 -2865 0
-4817 1274 3234 0
2274 642 1936 0
-2450 3051 -4443 0
-1837 -2107 -3261 0
29 -2425 1177 0
4108 2160 -2710 0
-2490 -3721 -4690 0
301 -2871 -1141 0
4854 -3647 -1613 0
-3010 -3496 -3392 0
-4747 2531 315 0
-3000 -582 -2730 0
-1238 4125 -2378 0
1336 -144 -3870 0
-1531 -4662 -3475 0
-2327 1508 -4194 0
4161 4041 1621 0
1078 -1303 2881 0
-1820 -4621 3667 0
-3656 -964 552 0
-4449 -613 4935 0
2069 -1046 -1839 0
4360 2504 -1225 0
2517 -2200 -4897 0
4957 -2898 2878 0
3052 -2389 2759 0
-3050 -2202 -512 0
4896 -1363 1694 0
2521 2053 579 0
-343 -4699 -3001 0
1422 2667 285 0
-771 3865 3399 0
4833 4518 -4859 0
-4691 -3627 4703 0
-3972 -1215 -565 0
4208 -3125 3837 0
171 4828 3521 0
65 3995 3728 0
773 -3691 157 0
-1561 3003 2915 0
751 -2586 1939 0
-2 -2890 -4098 0
2676 -2921 -4375 0
-2361 -2582 -467 0
1758 -429 4501 0
-1276 -1749 -950 0
-317 -1283 -4862 0
1582 2072 4026 0
3284 3947 3531 0
1705 -1173 3927 0
-186 3427 1888 0
-386 611 -4002 0
-429 -3793 -1911 0
217 3227 1187 0
4965 4604 4526 0
10 1550 3507 0
-4661 4000 4112 0
1441 4462 2767 0
1396 -4531 1148 0
3004 2847 -1338 0
4167 3116 -2476 0
4831 2042 -3471 0
-2427 3470 -3407 0
1358 391 3970 0
3110 2233 4522 0
-4572 -2726 -885 0
-1155 3443 -2077 0
-942 -2785 2630 0
-4123 1709 799 0
2002 3559 -59 0
366 -358 4191 0
4824 -3915 1499 0
4502 -2220 3402 0
4025 -2309 -2690 0
-4815 -3878 388 0
-449 2928 695 0
119 569 4914 0
-2087 -1686 -3541 0
4223 -4618 4167 0
-1946 4289 2672 0
3259 -3269 -1916 0
862 2801 2820 0
-246 -1788 811 0
-4749 -2891 1176 0
-2900 1251 1380 0
1765 4243 -2559 0
841 2611 4526 0
-861 -4741 -1459 0
2807 2941 -300 0
-3984 485 701 0
-3191 1695 -68 0
-3182 -1023 114 0
-450 -3804 2838 0
-2230 -2724 -1705 0
-4440 -3767 -4444 0
2162 2464 -4941 0
-4195 -3737 4065 0
1994 -3071 -2202 0
-2245 544 1898 0
868 4956 -3697 0
1921 -2212 1881 0
519 -3222 -1103 0
-1499 476 -2921 0
-1919 -3334 -1909 0
-3939 2786 4158 0
-2098 -4528 -2846 0
2288 3408 -3950 0
4703 4074 2291 0
4668 2514 -739 0
2135 -2795 3394 0
3285 4229 1325 0
2276 1683 2040 0
-3399 -142 3647 0
4124 -938 2616 0
3018 3754 -3553 0
-584 3202 -1818 0
-4983 -389 818 0
3571 4410 1281 0
-3680 987 -2751 0
-2033 4333 4195 0
-4402 2688 -709 0
-472 -3133 2315 0
-4810 -1686 4633 0
-4216 -4013 1575 0
-3819 -3407 2403 0
1691 2357 3642 0
3024 -1372 3802 0
-2350 -638 932 0
-3021 2644 3104 0
-2656 900 4103 0
4402 3078 -4911 0
4270 -1630 319 0
-4052 477 315 0
-2589 -3363 -756 0
2381 4041 3825 0
-2527 -3805 1421 0
-1684 -838 1990 0
685 -710 -300 0
3446 4235 -3612 0
-369 1897 -4199 0
-2189 4593 -3454 0
-3294 1746 4608 0
-3550 2102 -2658 0
-3367 -468 -573 0
-3839 -495 -4860 0
871 2461 -54 0
1277 -4575 -371 0
4797 -3246 -3851 0
-3831 -4903 3080 0
4189 4289 190 0
-61 -84 4247 0
2754 -4264 3513 0
364 2718 -3964 0
-3092 -453 -2597 0
484 -3606 -4113 0
1092 -1294 4709 0
-1441 -1131 2492 0
-313 -4779 -1124 0
-1758 -4405 -770 0
1096 3015 -922 0
4114 806 4940 0
-4028 -4428 449 0
-1157 3851 -2230 0
3748 3425 2237 0
-3946 4217 -4855 0
-1732 868 1486 0
-615 568 -158 0
-2941 1880 3314 0
-1403 4735 -1495 0
1347 -3161 1417 0
-4605 4891 -1590 0
1077 2989 3899 0
2363 4597 3013 0
-1395 4199 4645 0
-2711 176 3516 0
-4584 -2003 -257 0
-4674 1581 3378 0
-2395 -1420 505 0
3409 -3671 -2075 0
4964 707 -265 0
1652 -2380 629 0
-2442 4533 1595 0
-2609 3312 -3366 0
-3519 1750 1971 0
-2119 -970 -3082 0
-4720 2883 2342 0
-3 1849 3366 0
3219 -2114 -3493 0
-4563 532 2964 0
-1051 -3336 -1929 0
-3702 4608 -478 0
4931 -689 2567 0
-1094 -1421 1499 0
2900 -3601 -435 0
1501 -986 -796 0
1271 3389 803 0
-1171 2661 3814 0
-3902 2066 -3520 0
1206 1824 3297 0
386 -4684 640 0
3206 -1348 3661 0
-1523 2954 -2003 0
2266 3521 -2135 0
1478 -776 978 0
-4245 243 -129 0
-904 426 -4459 0
2427 -2963 -506 0
75 -631 3938 0
3085 4035 991 0
4974 1121 -3118 0
2650 4946 -1597 0
348 2814 -2401 0
-2406 -4604 -3524 0
1493 3386 -811 0
-2875 3386 -239 0
4114 -4024 3923 0
308 4602 -4498 0
3609 -624 -81 0
1678 -3814 -1605 0
1574 -3496 -4899 0
3860 -291 -688 0
-3544 -393 1736 0
-2834 -900 66 0
-4811 -956 4598 0
-4726 -879 1379 0
2673 -1527 3359 0
-3613 -118 2882 0
-1612 1258 1150 0
2637 -4972 -1501 0
4584 -2564 722 0
1577 -4823 -863 0
-1236 -346 -2928 0
-4121 847 766 0
2545 -4149 599 0
3135 -4256 1573 0
1039 2768 1429 0
1131 4250 1877 0
-3521 -2878 -23 0
-379 -692 3889 0
1489 4282 -4630 0
3105 -2364 -1097 0
-959 3081 -632 0
-3978 4314 3782 0
354 3905 -1996 0
-2207 -2048 1407 0
-3306 -649 -1985 0
-4652 2265 4526 0
-2841 2893 2426 0
-3393 -1813 -3261 0
138 3996 4787 0
-1239 3983 -1752 0
2297 2767 -2194 0
-2922 -3607 -4343 0
-1579 -1256 -1610 0
3104 -249 2854 0
664 4635 3323 0
824 -3038 958 0
-967 -2783 2539 0
-783 -1926 224 0
1951 -186 3550 0
2338 2156 2126 0
2634 49 1583 0
197 1733 1071 0
885 4438 1603 0
-2644 3440 -1757 0
-1935 2307 4075 0
2574 -155 2629 0
-1426 -1715 -2383 0
-3219 3131 -3612 0
1326 -4094 -2460 0
-551 -4515 -2299 0
-4483 -2904 -3201 0
-205 696 -2219 0
-182 2160 -1609 0
2904 -1293 560 0
3737 4436 -4049 0
-1486 -3339 -1415 0
-3341 176 1999 0
3132 -1036 1079 0
2173 1559 2874 0
-168 -2270 -2082 0
4910 -862 -4545 0
2794 -3903 4458 0
-2529 -3263 -2667 0
-3970 2351 -3602 0
1677 -1377 -336 0
-4235 -4072 -4282 0
-3956 2581 -4483 0
2980 4060 4829 0
-867 2860 -4177 0
-4348 4922 -490 0
-1944 -3033 4738 0
2503 -2817 -3326 0
-3721 2319 -1767 0
-959 -1391 1352 0
-4033 -2016 1616 0
-697 767 -4573 0
1054 1086 -944 0
1047 4830 2203 0
-1315 -4612 3931 0
2626 1968 3840 0
2447 -3531 -4640 0
3584 1056 -1536 0
-1046 2400 -2725 0
1686 -312 -4619 0
-2982 -4035 -1767 0
2211 2205 674 0
3517 4894 -4610 0
-4242 2828 3547 0
4268 4007 -3081 0
-195 -2179 2080 0
4583 3126 2015 0
4311 1413 3154 0
4605 -2125 -1367 0
-3398 -2233 -3217 0
708 -3632 4005 0
-310 -606 -4781 0
1809 -1006 2092 0
565 1792 2507 0
-2722 -3075 -625 0
-3543 4468 -697 0
-3237 -3625 -3680 0
-4935 -3626 -755 0
1476 -354 -1725 0
-1275 -3568 -2778 0
1320 3135 4880 0
-422 -1803 -4982 0
-3469 -721 -2995 0
4162 1551 -2686 0
1898 1228 -4293 0
551 -2908 -3506 0
1587 -1479 -4384 0
-2190 -3548 1907 0
-4428 -4124 -2364 0
-1406 -2898 -1764 0
260 4227 -2706 0
2940 1847 -1303 0
-2114 1495 -4486 0
-288 -486 1660 0
519 -4516 -4050 0
-668 -2011 2864 0
-583 -1068 -3283 0
-2491 4269 4546 0
-2586 2143 4631 0
1299 -2049 4820 0
-3614 3856 1717 0
-2172 -4387 -4039 0
-3445 -3157 -2059 0
3081 -3161 -1286 0
-4188 3025 1160 0
2207 -4198 -4099 0
-4149 -1620 -603 0
2015 846 -2739 0
631 -3196 107 0
148 -4897 -996 0
-3389 2737 -436 0
-364 1951 -1493 0
-3531 556 -1920 0
572 880 -2561 0
4847 -791 -798 0
-4645 -2160 4291 0
-2303 -667 -447 0
-1728 -4639 -9 0
1751 1814 3583 0
2109 924 3399 0
4729 -3388 -452 0
-375 -1907 3639 0
-2207 -1444 -4975 0
-1168 -1316 1849 0
568 4739 3046 0
4881 2099 -1323 0
1797 -589 -425 0
472 -2590 -917 0
3250 -1376 1562 0
4701 3197 1470 0
-1330 -35 3735 0
-4786 3960 3643 0
-4674 -1283 2501 0
-756 2310 -4672 0
-278 3370 -1425 0
4388 -2819 -4749 0
1687 420 -2133 0
-2306 1466 1805 0
-3769 -836 -2843 0
-3104 1440 3462 0
2289 -2624 1022 0
-3764 2417 279 0
2915 -383 3313 0
756 580 2372 0
-495 -2691 -2622 0
-307 3293 1336 0
3501 550 -2941 0
-3035 4338 -1027 0
-1170 -4218 -3560 0
-1 -4274 4782 0
-3488 3871 1438 0
4873 4131 -2171 0
-3972 -3918 4644 0
44 1398 2943 0
4541 -1173 -1588 0
733 970 -1099 0
-4122 4005 3985 0
-4775 -3937 1189 0
-4405 2671 -1399 0
-1797 -4646 -881 0
448 3261 -2723 0
420 -3236 -3643 0
1531 794 4682 0
639 -2727 -1408 0
-4923 -3141 3740 0
-4655 581 -4941 0
-2709 4505 -3319 0
2841 2196 -3545 0
1232 2129 2814 0
124 -2504 -1974 0
-1394 -1337 497 0
3000 4748 -3684 0
3755 1030 3022 0
2833 1084 -1542 0
2931 974 3354 0
-4917 117 4015 0
4807 519 -1475 0
-2954 -1697 -4229 0
-3134 4029 4943 0
3369 -3748 -1392 0
-2550 -1691 -1462 0
-299 -3319 -943 0
697 2483 -3999 0
3419 -1334 -4257 0
-2162 -1103 -3715 0
-1713 768 4270 0
3101 -3569 1035 0
1157 -1337 4226 0
-435 3458 -2609 0
-3128 1424 3829 0
-850 4616 -987 0
1933 63 -4193 0
2061 -1620 2457 0
-868 410 -3639 0
1200 4733 -4098 0
-1726 -2525 -3415 0
1648 -1892 -1538 0
1406 4761 -582 0
3402 -1897 539 0
1860 4546 -695 0
4478 -3235 3765 0
-1142 -3433 591 0
-3966 -438 2921 0
-855 -3915 379 0
4980 4885 3004 0
2226 -2738 -1918 0
3356 -4863 4621 0
-938 -2463 -3806 0
-3891 3999 -3473 0
-3561 443 -2467 0
-2799 3573 -4842 0
-3138 -3521 967 0
2139 -817 -3878 0
1438 -34 -2007 0
21 995 3609 0
-1127 4293 3248 0
1302 221 -733 0
3106 1415 12 0
-4940 -4061 3011 0
-47 2615 4227 0
-130 2863 -3298 0
-694 408 -4978 0
4812 1466 -1237 0
1707 -4999 1108 0
3568 -2440 -4538 0
3691 -4389 2854 0
4258 -622 1851 0
591 -4985 2260 0
-2343 -4449 2133 0
-2918 -1534 184 0
-4179 -2516 1650 0
2048 2879 -666 0
-1143 -168 -1728 0
2966 -1450 -4659 0
-436 -4441 -4676 0
651 2210 3999 0
-4288 4874 -4802 0
-460 1232 3541 0
-3891 -419 2482 0
3464 4372 -1809 0
-2768 -2272 4177 0
-3857 1064 -775 0
3828 -892 3287 0
4405 4950 363 0
3679 -1918 3345 0
3765 -4244 4578 0
2065 3776 -3890 0
3067 -3979 -2906 0
-2152 -1755 3917 0
195 3380 1471 0
-4427 2615 3271 0
28 -520 871 0
2089 -2820 -3702 0
4959 -4309 2462 0
2943 2172 -352 0
-359 -4605 -3265 0
3532 -1826 -1904 0
4551 1208 2395 0
-2214 3157 4175 0
3253 3170 -706 0
-4917 -516 4282 0
4923 2298 2604 0
2033 -93 -698 0
1443 -1205 -2482 0
-4557 2795 792 0
-1323 -1870 -2489 0
-53 -4025 1288 0
-4879 -4101 -2874 0
1793 3993 -3146 0
-2004 4384 -3637 0
-1738 -3369 2417 0
-1011 -396 -902 0
2062 3316 2204 0
-2971 3939 1999 0
-1787 -263 -2936 0
-263 -2125 -2699 0
-2385 3250 -825 0
3115 -4017 3977 0
1028 2672 4233 0
-1297 -2859 -2652 0
-916 114 2582 0
3013 -2515 3673 0
225 -1116 -551 0
-647 -594 4875 0
-2648 640 345 0
-288 -1175 -1681 0
-4460 3558 3137 0
4509 160 -2447 0
-645 1253 -1976 0
2843 31 4818 0
-11 -2203 -474 0
-4750 -571 -4187 0
-1267 2345 -2825 0
2758 -2766 -4355 0
2523 3796 819 0
3743 4009 4633 0
-119 -3301 -3738 0
4659 671 4846 0
178 2230 -1697 0
-4698 -1019 1506 0
-3086 -2920 2816 0
2267 4158 387 0
1695 -4300 -2857 0
2065 -491 -4278 0
661 4454 3366 0
-2623 1121 4279 0
541 1454 4228 0
2391 4333 -3935 0
1167 1977 -1795 0
1066 -4877 -1728 0
-3630 1722 -4056 0
82 485 2095 0
-1964 -1528 3484 0
-2308 1428 1763 0
-3633 4805 -3293 0
-392 -1388 1223 0
706 65 -4011 0
2434 4376 -3359 0
4538 -3746 -4430 0
-2726 -1983 4087 0
200 3039 4319 0
3822 -1987 3789 0
-534 -4990 4300 0
-269 -4272 3463 0
-2307 -3846 162 0
4827 2892 1190 0
-3903 -2582 1045 0
-2238 -774 3725 0
639 -2116 -2810 0
1394 -338 -3829 0
3919 -787 -2564 0
-2916 4956 -1797 0
4378 -2885 3769 0
-4472 3417 4576 0
508 -3352 2868 0
-3010 -2749 221 0
188 -3378 -1037 0
4522 1685 -2234 0
-797 -1114 -373 0
-4103 2520 -4785 0
3298 4577 -3317 0
-3868 -3384 -3885 0
4272 -4430 -263 0
2495 4533 -1880 0
1129 -1306 -3610 0
-1597 -3770 -3544 0
4602 1369 -2978 0
-2958 1154 3844 0
876 -1632 2908 0
-1164 -1858 -2515 0
3885 -4365 -3088 0
2738 4244 4982 0
-1174 1014 -1882 0
4562 3391 -3678 0
2508 -990 -2392 0
3670 987 534 0
1206 3721 3392 0
4984 -952 4356 0
1220 -2519 -1530 0
809 4075 2568 0
-4457 -2947 1540 0
606 -3161 2647 0
2674 2957 1985 0
4515 3436 2685 0
-2637 -1034 -1753 0
1181 -2758 3515 0
-816 4379 -4903 0
2387 4741 -4410 0
-3760 2353 -3512 0
1434 3655 -4157 0
-4828 -871 -4480 0
-1430 -4569 2192 0
2148 -4678 2513 0
3518 110 -3964 0
4593 2143 -3433 0
1281 916 2538 0
-1987 2025 3593 0
-3573 -2312 2164 0
-4622 1680 -923 0
4527 890 4029 0
-1384 -4476 2027 0
501 -1936 -3964 0
26 3297 2874 0
1602 -2156 4031 0
-102 3196 -1491 0
-1596 -1098 -3251 0
593 619 2951 0
2877 4956 -2039 0
1231 -2981 -3794 0
2320 -3526 -3075 0
-2766 -1089 -4339 0
-104 2795 751 0
1141 413 2275 0
-2858 220 -1406 0
1889 -1659 539 0
2805 591 3196 0
-1084 3671 729 0
-2744 -4968 3618 0
3502 -3173 -3986 0
-4183 -1626 -33 0
-3741 -4530 1170 0
-1278 331 1273 0
3725 4724 1214 0
-3774 4405 2970 0
-3384 -1540 4140 0
1043 -158 2561 0
-3590 3404 -1892 0
-4775 3558 4385 0
3993 2529 1124 0
-2795 3376 -3791 0
-4137 1265 2624 0
-2482 -4572 3913 0
-2599 869 4467 0
1898 2102 -335 0
-4293 1925 2349 0
-1035 997 -4160 0
2155 442 4552 0
-3839 2138 4060 0
-2454 -3679 2512 0
-3779 -1344 -3024 0
4404 387 1618 0
1489 -490 -2475 0
-93 -31 349 0
-4830 -2862 4424 0
-3097 -4686 1529 0
2029 740 1376 0
-2177 2927 3349 0
2135 -3446 1290 0
4969 3802 -3972 0
-441 3538 -3374 0
4110 1833 -3015 0
-3111 -4619 529 0
-4138 1725 1191 0
-606 -330 1861 0
-1045 -3258 2068 0
1154 -2694 4920 0
-2049 335 1628 0
1127 -22 -713 0
1733 1388 -2651 0
92 642 630 0
4649 -1659 -1546 0
-653 403 -1313 0
-3080 4790 -1197 0
-392 -3942 2952 0
1229 -2061 -3446 0
2575 -4914 3888 0
-1874 -392 1149 0
-1882 -1149 -1310 0
2042 -984 -763 0
2262 -2862 -3918 0
2003 3301 2692 0
4543 2064 1405 0
-2730 4587 -447 0
2966 -1821 -3697 0
4689 -3957 -2236 0
-1011 1955 -608 0
1143 3292 381 0
3430 -226 -1803 0
3064 399 -4257 0
-2806 3204 -1351 0
-2838 722 3900 0
-4086 -4056 3037 0
-3841 -4744 2384 0
-49 -3060 -3950 0
-3694 -4188 -2308 0
-1050 -4236 -946 0
2739 3188 -3487 0
-2624 -3617 -951 0
-3953 2982 1203 0
-4407 3903 -657 0
-266 3722 -263 0
-1 -875 -2423 0
705 -1608 2120 0
3432 3602 4938 0
3681 950 -1248 0
-407 910 1771 0
-2622 1133 -4731 0
-2670 1809 -4407 0
3161 -2447 936 0
2360 -3641 -2731 0
3909 -4496 -4118 0
-40 1461 -1220 0
1250 -1829 1286 0
-794 -4131 -1432 0
-4544 -1983 -1987 0
1251 3687 -4608 0
-2395 578 95 0
-1894 3621 2743 0
2644 -3751 -2448 0
-3241 2398 1172 0
-4572 -2480 4535 0
-2305 -4771 792 0
-1793 1674 -1021 0
2088 4962 4619 0
-4559 2737 1302 0
1168 -412 3445 0
-3348 -4654 -2590 0
-946 -890 -3361 0
-4794 809 -4282 0
3554 -389 -2929 0
-1979 -3575 3083 0
2224 -698 -2291 0
-21 4793 2160 0
1635 628 1695 0
600 -2850 4189 0
-1635 -3011 -2433 0
3239 -2791 921 0
-2904 -775 1333 0
1270 -874 1636 0
791 -4617 -1423 0
415 -4167 980 0
-1944 -3863 3387 0
2575 4073 -1247 0
-749 -937 -4967 0
-3380 -3781 -3600 0
3681 3713 3628 0
2007 3334 672 0
-1673 -3284 -376 0
2907 4515 1759 0
-806 -4653 127 0
-3768 3633 3315 0
-2561 1194 -2697 0
3562 3524 3136 0
-1042 3551 -1404 0
1399 4645 -4992 0
1134 2247 -4817 0
-3099 -2118 -2736 0
-4188 -962 -2526 0
-1604 1250 777 0
-1544 -2926 -883 0
1130 -137 2549 0
4355 -1978 -1466 0
4846 -4438 2364 0
-3759 2795 2856 0
-1942 953 -4595 0
937 -4443 3492 0
1936 4731 -728 0
-1559 -3556 -1148 0
1987 -2266 -4294 0
-4459 1090 3720 0
-4 -626 -1351 0
43 -2486 -1375 0
2439 -3081 -4117 0
-4648 169 -1791 0
-2419 2798 -380 0
-1324 -914 3644 0
-2188 976 4875 0
-1235 1349 4886 0
1564 3809 436 0
816 -2134 -1976 0
-1438 2599 -3590 0
2482 -4729 1861 0
-1022 -3680 -2118 0
1187 610 3760 0
1972 312 -2675 0
-5 -3096 -4102 0
-4703 2214 -1674 0
3727 -1473 -1318 0
-867 -2605 -4151 0
3382 3333 4582 0
-4974 200 -3120 0
-3826 -2139 -4086 0
2736 -1715 2039 0
1765 2888 4804 0
4871 2423 2063 0
2824 3658 -1289 0
3913 -4227 -762 0
2369 268 4244 0
1976 2273 -259 0
512 1339 2873 0
-2315 -2515 282 0
-226 -1858 4852 0
2263 -4400 1790 0
-3097 3852 1235 0
3273 -2045 2468 0
-1522 2469 -1978 0
-160 4347 -3823 0
3858 -1494 -1595 0
-3277 -1754 -3888 0
949 2653 -4808 0
-4742 -1846 -1520 0
2781 3394 3018 0
-3634 356 -3196 0
-2591 -1076 1468 0
744 4499 1697 0
-1216 -4505 58 0
-3035 -1894 2844 0
1430 -4014 -2642 0
3122 761 -4893 0
-3429 4907 2339 0
4537 3210 2276 0
-4777 -256 4447 0
2827 -657 3227 0
522 1579 3055 0
4696 1379 -2869 0
550 -3214 -2068 0
-769 293 1565 0
-1916 1407 -2669 0
-3451 648 -1325 0
-1020 1245 -4970 0
1986 -887 -1785 0
-2885 4558 2091 0
-4725 -1469 513 0
-659 37 -4502 0
-2468 -1281 4900 0
-4705 309 1733 0
-667 3709 3321 0
-534 2481 3316 0
-3199 -3890 -429 0
2383 -2998 -1615 0
1987 2305 -4389 0
287 -662 -1334 0
2543 -2229 -1793 0
1563 -3409 -2812 0
3028 -594 3135 0
-303 2742 3705 0
4134 3637 2447 0
4209 1202 -1759 0
-1524 -401 -2073 0
-1917 -4141 -1186 0
-2197 4683 -1501 0
-801 832 -716 0
3883 -4731 -652 0
4887 -3657 2931 0
2246 2729 4687 0
-2434 -3102 -3300 0
4142 -3854 -4497 0
-3354 -1330 2386 0
-1411 -2717 1618 0
-691 -948 238 0
-2884 4510 -2679 0
-2764 -3885 1861 0
-1415 -3560 2485 0
-237 1587 -3076 0
907 242 -3119 0
-3981 3856 -1822 0
-1917 1095 -3392 0
2347 3249 -2002 0
-3464 -1837 3 0
-866 3258 2711 0
-1357 -4046 -3317 0
-2016 -3275 2238 0
-4335 -2534 -4999 0
-2337 4559 -3300 0
-4245 -586 -576 0
1900 4309 -2750 0
4268 3581 3356 0
2245 3595 -4310 0
-645 -37 4349 0
-3196 785 1347 0
-2584 316 -4055 0
-3953 -3014 485 0
-2041 -1223 -286 0
-2289 4548 4889 0
4786 -872 3851 0
-4840 814 -4443 0
3801 1353 -2257 0
1621 1232 517 0
218 -942 823 0
-675 4434 4751 0
1989 706 -1378 0
-1131 -1576 -3223 0
-2282 4075 -1394 0
-4422 -4275 2857 0
1234 4904 -472 0
75 273 -1299 0
1243 3469 3607 0
2205 -1272 2064 0
2270 -2877 2122 0
-2577 -4277 62 0
2592 147 269 0
-1920 1814 -3228 0
583 -3669 585 0
3936 380 -1916 0
3477 -3662 4176 0
4911 -3123 -3135 0
-2410 -1113 4972 0
1313 -3277 2220 0
2101 1737 1230 0
-1839 551 -609 0
843 4894 -4604 0
4132 -2583 -2786 0
57 -2512 -4075 0
-2504 4968 -1243 0
3666 -3495 4175 0
-3697 -1005 3053 0
-2854 -3243 4005 0
1020 -1361 3130 0
-4810 573 3732 0
4198 2103 -3791 0
-1405 1444 -3893 0
-187 -2773 -306 0
1236 2212 3875 0
-1964 1771 2635 0
-2754 2240 -2583 0
-3932 4757 3138 0
-3385 4652 1147 0
1567 2666 164 0
-1403 4398 2927 0
-3574 863 -3384 0
2422 1996 4950 0
-1848 875 2771 0
1283 -4435 -3858 0
-4615 -1285 2848 0
-4940 1582 4463 0
96 3198 -1781 0
3294 -2636 -2317 0
-4324 2194 3726 0
1324 -788 1818 0
-1237 -1899 4040 0
-305 -2974 324 0
3290 -4385 -2148 0
-3347 2356 -4681 0
-710 -3048 4690 0
2366 -1300 4584 0
3342 3239 2647 0
599 1366 306 0
-4241 -1209 2059 0
243 2676 -431 0
-119 3689 3986 0
705 2289 -915 0
-4513 -1265 -4013 0
1933 2237 1846 0
2868 -1452 -1743 0
512 -4850 2383 0
1914 -1676 1363 0
4273 1678 -397 0
4381 -168 2436 0
-4154 4252 1356 0
2579 2840 -961 0
-3845 3110 3512 0
-433 1759 -1181 0
2225 -571 2694 0
4411 -1743 -2815 0
819 -1958 -1714 0
2379 365 -878 0
3337 737 -3356 0
2636 -609 -2506 0
-1785 4085 1193 0
1486 3180 -2302 0
-3524 -1302 -982 0
3973 -1490 92 0
-1425 -4284 375 0
2688 -787 -4750 0
-514 -78 1762 0
2759 32 -4983 0
1354 993 -945 0
-202 -4303 -2837 0
4168 2828 -219 0
-1449 -4104 -76 0
2538 -3730 -4956 0
-3655 3020 2190 0
-2282 -2327 2275 0
824 1592 250 0
-3568 3550 -4449 0
1610 4442 -2862 0
-4327 -955 -283 0
-4464 1378 -1684 0
3934 4223 4042 0
2022 4500 -2732 0
3609 -1451 2400 0
-347 4842 2070 0
1875 -4440 -1928 0
2125 -3844 -4487 0
1781 -4064 2031 0
2424 3136 150 0
3507 1572 -4302 0
4174 -1415 -3093 0
-3343 1602 -2428 0
3872 -3009 906 0
346 -4636 4542 0
-2809 -1562 -4387 0
1826 -363 307 0
-4305 -2945 -3075 0
1843 1460 -3637 0
1236 -1501 1722 0
2201 -4332 4333 0
1572 707 4989 0
508 -4326 -576 0
3914 4713 -3942 0
1106 -610 -792 0
-1262 2232 3668 0
-2356 -4450 -610 0
-3520 3288 1793 0
-3109 -944 -3871 0
-2895 4682 3768 0
-3109 2130 -4657 0
-136 446 1227 0
-2084 -809 -2007 0
-4692 -4812 4542 0
-3363 2906 -752 0
-1888 -4805 2348 0
-2802 3564 4194 0
3170 4067 -662 0
-3302 491 -4184 0
4385 3946 2113 0
1006 -3393 2870 0
-4214 3627 3476 0
-1789 3351 -2848 0
-1095 194 1499 0
-3711 82 447 0
-3937 -3938 2932 0
-2167 1405 -3609 0
-3877 2683 -2456 0
-4464 -2082 4196 0
4034 -3544 3408 0
3669 -4424 -4083 0
-1853 -1631 -1412 0
728 -3561 3811 0
-4948 -795 4010 0
-3916 274 -677 0
-3335 4683 671 0
-264 -2976 -488 0
-1223 -1053 -534 0
4812 2748 1136 0
2247 -4350 -2686 0
-4970 -1702 3399 0
1049 2571 4191 0
-1784 -4020 3608 0
-1048 -4059 3797 0
1001 4758 -4914 0
-2425 4077 -1218 0
1524 -1171 3058 0
4542 -1326 -1113 0
-3462 -3263 -628 0
-3139 -2773 2512 0
-2448 -2320 -1050 0
2001 -556 -609 0
-3917 1107 -4197 0
