c Large 3-SAT formula for GPU testing
c 1000 variables, 4300 clauses (ratio: 4.3)
p cnf 1000 4300
89 -526 -444 0
433 307 79 0
-150 -561 565 0
-827 -83 -382 0
322 967 585 0
145 -166 550 0
-250 312 -426 0
-760 -568 -958 0
-267 -755 -319 0
292 146 644 0
515 980 -249 0
451 116 -556 0
-739 795 118 0
-43 -109 369 0
364 158 973 0
-378 -910 756 0
975 -459 -411 0
798 560 740 0
-407 19 -521 0
875 466 681 0
132 378 -501 0
-838 775 -88 0
-113 -834 458 0
349 464 1000 0
153 16 -84 0
420 929 967 0
-717 -498 -556 0
-619 -707 -325 0
-557 326 -949 0
-329 195 755 0
-977 -288 634 0
-340 988 -568 0
444 -87 799 0
-490 374 -787 0
527 -815 838 0
-763 41 62 0
-149 957 -92 0
-995 336 123 0
31 -749 -389 0
-378 107 -270 0
-654 -466 234 0
314 -141 -681 0
-563 -38 -552 0
-228 -10 -867 0
-466 -829 641 0
780 -744 -734 0
-43 86 -299 0
464 -345 -950 0
-676 -367 -649 0
-763 -476 -572 0
-546 -563 -901 0
329 705 588 0
410 261 917 0
996 -216 -963 0
-390 -828 -487 0
-884 -765 -657 0
262 -594 715 0
208 -268 341 0
-115 330 -147 0
-788 -70 617 0
-187 54 -611 0
584 673 -337 0
209 602 -266 0
-420 530 611 0
-788 -384 761 0
-291 -796 950 0
621 886 -919 0
684 -932 -223 0
-139 -115 -606 0
646 338 -727 0
439 981 -69 0
626 318 -457 0
133 696 858 0
-667 -839 -177 0
-711 924 -385 0
-135 406 210 0
-593 -529 -979 0
-172 -955 445 0
-586 880 -774 0
110 847 947 0
578 333 958 0
-884 -873 812 0
292 158 42 0
168 -341 694 0
-529 -348 89 0
-218 -540 -101 0
39 210 825 0
725 219 710 0
656 97 -446 0
-155 -853 90 0
-688 573 -888 0
638 38 559 0
484 -576 -40 0
-106 -132 -524 0
-293 515 328 0
162 -251 -464 0
440 -731 -915 0
-473 -365 -144 0
343 438 722 0
-761 575 -360 0
718 -14 -601 0
-969 566 -515 0
246 -729 -676 0
48 -862 -724 0
-165 -68 736 0
-798 147 76 0
-241 -953 -59 0
401 -184 405 0
502 436 -721 0
-31 364 960 0
-258 710 197 0
-300 -67 -925 0
-97 755 736 0
-371 192 218 0
-112 530 -731 0
-766 -970 -437 0
-44 -202 -886 0
-474 897 -300 0
416 -160 616 0
456 -570 727 0
-952 23 702 0
-2 -852 -128 0
579 682 137 0
-345 -566 -160 0
76 -670 -764 0
-969 -272 216 0
389 -782 -926 0
-308 974 836 0
-839 -791 532 0
104 -395 866 0
128 785 -173 0
150 -594 816 0
403 -229 99 0
916 -434 560 0
626 286 -134 0
-559 -795 873 0
404 127 318 0
55 302 -624 0
763 -541 630 0
861 -135 -683 0
-881 183 552 0
933 177 -986 0
-607 -269 150 0
41 22 -380 0
-794 -915 496 0
546 -676 56 0
-353 82 -350 0
-445 723 681 0
-539 -969 -410 0
940 -5 -699 0
-900 -957 -782 0
794 -409 -111 0
-815 275 430 0
675 -105 -800 0
-928 -577 806 0
968 384 436 0
-141 9 81 0
-955 -404 196 0
-94 188 -78 0
517 -965 543 0
261 867 -877 0
174 964 341 0
834 -671 -413 0
-541 -580 -837 0
384 -687 -187 0
-673 693 616 0
-701 -431 821 0
246 -6 -823 0
284 846 302 0
-792 601 -227 0
589 116 -68 0
-593 826 -65 0
545 -240 756 0
-978 -621 923 0
129 -308 -289 0
-678 366 798 0
845 -888 526 0
-484 -132 686 0
-389 -685 -249 0
721 -568 988 0
-219 598 847 0
-220 -659 -769 0
648 68 -147 0
-959 82 -276 0
-792 -213 -433 0
271 915 4 0
-201 417 152 0
-431 -412 964 0
-253 530 -206 0
-159 532 -804 0
-994 793 884 0
-63 -615 -384 0
423 571 -882 0
56 412 -704 0
647 -514 -474 0
-963 843 907 0
493 298 94 0
14 -474 590 0
475 771 -669 0
181 -681 669 0
-737 723 -417 0
-101 -336 -148 0
-425 -926 -966 0
-186 -173 248 0
-248 423 225 0
-391 -908 225 0
-156 696 577 0
-405 -191 -387 0
420 948 538 0
-384 364 -210 0
13 -30 -681 0
303 736 -717 0
-278 611 513 0
-994 615 3 0
279 783 49 0
851 572 864 0
-709 592 426 0
-907 -361 845 0
490 814 763 0
-739 369 -66 0
-174 259 491 0
-13 -405 -669 0
-676 219 -373 0
-294 998 603 0
-374 437 -269 0
318 375 359 0
446 855 871 0
-368 -482 -402 0
-138 843 -881 0
-811 854 325 0
41 -547 966 0
-401 977 -43 0
9 -637 306 0
446 136 -859 0
155 206 853 0
769 -128 402 0
603 565 -407 0
-206 720 682 0
192 124 -570 0
-287 690 -77 0
950 236 90 0
512 157 -727 0
-467 857 249 0
-548 550 -138 0
701 -793 -144 0
471 841 38 0
-13 373 -216 0
520 -869 766 0
-929 -846 -301 0
122 181 -165 0
-780 333 -848 0
-605 -43 831 0
-787 -886 620 0
471 687 699 0
734 699 -261 0
466 -391 -713 0
168 -427 896 0
-364 272 236 0
-546 285 372 0
-320 -76 619 0
464 -647 -320 0
477 585 806 0
-156 -442 -211 0
407 788 -51 0
406 347 -723 0
-726 991 -406 0
652 449 -149 0
-825 -918 329 0
-225 63 463 0
538 -335 769 0
269 -248 775 0
-598 166 -579 0
-330 583 572 0
609 -493 304 0
-384 -107 945 0
322 -821 -963 0
572 871 -855 0
-486 -986 -249 0
887 -486 541 0
-859 137 715 0
-315 -272 700 0
91 843 -916 0
373 -832 -158 0
66 169 -839 0
230 -882 614 0
56 -195 216 0
-706 -313 57 0
-557 999 12 0
-481 783 -531 0
777 -552 -118 0
593 -977 459 0
22 -422 284 0
-811 -783 -169 0
345 -958 121 0
-606 -950 422 0
-35 -927 -197 0
-112 -403 -962 0
709 134 954 0
-188 692 -203 0
668 -838 -97 0
-322 -235 229 0
-929 906 616 0
827 305 -865 0
-912 -250 710 0
648 586 984 0
28 296 427 0
770 216 -622 0
766 463 -64 0
-228 -513 41 0
125 451 523 0
806 -457 430 0
227 420 -117 0
596 -130 -353 0
812 906 -804 0
669 518 -988 0
-453 183 -156 0
639 909 -586 0
-667 568 162 0
-265 -659 104 0
897 926 -648 0
702 538 -346 0
646 -69 842 0
367 -196 280 0
685 975 -79 0
880 -996 158 0
145 305 -708 0
-39 -160 -296 0
-275 553 209 0
793 768 -781 0
-444 314 626 0
-283 301 -347 0
-600 -198 926 0
898 -29 134 0
-474 665 -52 0
-607 882 -417 0
562 424 993 0
331 -165 -437 0
-196 -976 -773 0
-853 810 722 0
-117 865 721 0
-833 -534 -392 0
-422 321 141 0
205 -216 522 0
378 -304 580 0
-97 -757 -461 0
379 852 -562 0
73 243 323 0
190 -888 -976 0
-670 909 209 0
269 994 -234 0
724 151 523 0
17 591 -774 0
-21 244 -252 0
591 -502 885 0
-638 -409 554 0
-167 159 880 0
689 606 -611 0
185 -372 -485 0
943 354 -198 0
993 829 -930 0
-119 91 -308 0
-685 553 857 0
189 25 439 0
-552 -619 549 0
623 114 885 0
-837 65 -231 0
863 217 242 0
-758 401 -528 0
831 248 -555 0
-214 -738 -26 0
537 -586 -198 0
-169 609 -87 0
450 127 398 0
-278 479 738 0
122 241 -287 0
-342 -932 -306 0
919 427 -212 0
805 -73 -444 0
553 442 -56 0
302 275 786 0
-943 -840 -391 0
-329 -169 -685 0
995 -742 -659 0
-877 134 257 0
-417 161 -78 0
679 -168 276 0
569 880 -210 0
-540 -726 -450 0
-497 290 -608 0
419 947 670 0
-209 -456 269 0
-751 967 -112 0
-670 -123 -668 0
771 -851 373 0
668 -596 -315 0
-941 -165 -815 0
374 -807 -163 0
434 -321 -75 0
-793 341 801 0
-155 -177 369 0
945 -669 -208 0
-21 181 792 0
376 -748 -199 0
57 483 887 0
795 865 835 0
203 864 31 0
808 526 -394 0
391 -680 -246 0
89 -824 -834 0
365 -988 -120 0
653 335 550 0
129 624 318 0
890 820 278 0
-788 -131 686 0
-766 -481 -80 0
-51 591 -135 0
876 -6 -858 0
-382 -561 -722 0
708 595 -704 0
-645 -746 -358 0
187 698 -835 0
657 722 -56 0
-185 967 754 0
364 -360 -314 0
376 -400 123 0
507 -795 67 0
-346 380 568 0
830 -250 -888 0
375 -891 16 0
814 935 231 0
446 -640 620 0
37 62 750 0
-819 645 998 0
548 832 322 0
-61 -332 -1000 0
-499 517 431 0
-391 -762 -549 0
196 -857 454 0
358 346 680 0
-224 -331 310 0
-224 -761 179 0
-871 180 462 0
67 -543 -984 0
178 48 991 0
473 708 818 0
887 -464 839 0
352 -274 443 0
781 -777 -363 0
-731 776 -329 0
-748 -923 393 0
-686 931 276 0
-452 -954 -795 0
-74 996 -101 0
-304 429 293 0
19 -521 324 0
699 -948 245 0
18 -338 -512 0
-923 -412 547 0
706 -453 -325 0
-771 -647 -572 0
-552 825 -507 0
768 -85 -544 0
-142 776 -818 0
-378 -219 312 0
-915 -585 -708 0
-300 423 860 0
803 807 356 0
47 65 249 0
680 637 -650 0
778 542 485 0
-386 -472 -971 0
396 348 687 0
-80 497 -191 0
-16 681 -821 0
-569 870 989 0
144 -571 629 0
-739 595 622 0
327 832 -415 0
-742 74 -329 0
-555 316 -762 0
-622 -811 -76 0
-197 441 -787 0
909 290 256 0
349 645 236 0
569 876 -351 0
-870 487 -969 0
-710 29 38 0
326 277 18 0
-105 203 -413 0
720 204 -379 0
596 664 -346 0
-497 554 -35 0
853 539 -886 0
581 198 564 0
-459 -16 -401 0
-871 -826 -629 0
941 -986 256 0
-612 41 -369 0
335 -893 -727 0
683 -24 -216 0
-253 -736 -846 0
-786 784 822 0
720 -597 609 0
-731 801 -572 0
-119 -249 831 0
-482 -496 -403 0
-407 854 -382 0
-600 669 548 0
-883 568 986 0
-424 -829 -59 0
-528 -689 356 0
445 717 -316 0
397 202 637 0
951 293 -749 0
44 918 106 0
-144 9 -332 0
-423 -302 994 0
-67 546 -580 0
658 460 745 0
-739 306 426 0
-142 -877 460 0
564 78 -388 0
388 -61 828 0
710 -117 -987 0
-295 -710 -383 0
542 -512 -23 0
-815 -485 -410 0
-269 -276 972 0
-721 177 219 0
-470 -769 -39 0
623 -973 -354 0
102 -364 125 0
-345 -464 150 0
-296 -895 -94 0
-332 302 -785 0
652 -266 -954 0
885 -878 -402 0
-846 -337 632 0
-957 -938 374 0
-348 352 -988 0
-880 -254 472 0
-608 11 25 0
427 182 122 0
563 939 193 0
-582 92 750 0
821 33 45 0
330 33 922 0
320 -704 -836 0
668 -819 901 0
-570 -654 -169 0
502 862 859 0
-397 111 -616 0
-577 435 172 0
-60 929 -643 0
960 72 -528 0
-140 -912 -334 0
478 -603 856 0
-277 62 353 0
776 494 273 0
-63 98 -122 0
812 -481 -259 0
-110 -422 424 0
541 38 854 0
217 51 704 0
451 -24 595 0
832 101 -655 0
233 296 443 0
372 -359 -380 0
-111 872 -296 0
86 64 129 0
771 -982 597 0
284 959 -187 0
611 528 -612 0
458 793 782 0
963 -90 -693 0
-194 876 106 0
-829 327 -51 0
-130 741 -62 0
517 -341 -968 0
527 -433 -327 0
373 -201 590 0
-646 359 608 0
-220 -152 664 0
-911 -54 620 0
-782 -638 -433 0
-930 -612 -887 0
-994 -250 -633 0
253 389 -932 0
638 776 -905 0
-914 -494 -99 0
-655 301 -69 0
-835 662 546 0
209 -555 845 0
628 490 579 0
-273 -364 -644 0
-805 928 283 0
-800 -940 823 0
-55 -853 -726 0
838 -12 -250 0
-470 836 -691 0
906 446 373 0
-805 373 -734 0
145 777 740 0
-281 -956 -346 0
553 -640 -415 0
377 376 -788 0
-9 -901 -715 0
32 -555 566 0
-72 841 -6 0
197 -552 -876 0
-483 -389 -352 0
6 -79 663 0
644 663 829 0
-428 -202 -815 0
22 140 345 0
948 172 650 0
590 17 220 0
185 -109 -560 0
175 173 919 0
654 -582 -904 0
-759 -713 -59 0
950 710 -693 0
-461 -218 -617 0
930 -713 -284 0
-481 996 538 0
-851 -21 -169 0
-502 722 -518 0
-954 -494 346 0
-753 597 -268 0
478 138 -956 0
-455 -39 -688 0
963 268 129 0
624 412 75 0
341 -582 -579 0
715 -64 168 0
97 -755 -632 0
-941 -18 -115 0
678 831 744 0
336 -55 -924 0
322 -115 -795 0
-470 648 964 0
47 -17 -456 0
-258 814 599 0
-119 939 337 0
-262 691 902 0
202 -213 440 0
-610 -851 -268 0
718 922 -275 0
979 -844 -49 0
-113 -906 28 0
265 -329 -91 0
-957 -235 -384 0
490 -335 -149 0
-889 -37 36 0
997 223 62 0
511 -499 -788 0
138 894 -67 0
486 -149 79 0
618 -604 565 0
851 444 -585 0
-607 -247 -497 0
-660 -606 -353 0
167 150 386 0
176 -851 -268 0
-263 616 243 0
521 -304 -873 0
-154 -153 926 0
665 -408 -7 0
-973 -990 981 0
-574 558 700 0
549 304 -521 0
-218 274 234 0
-125 856 312 0
345 645 -96 0
-203 406 -997 0
-851 181 82 0
774 479 169 0
748 -441 608 0
-809 928 -613 0
-952 85 549 0
-742 695 170 0
-680 -54 302 0
-666 -631 -56 0
3 573 -871 0
-252 681 860 0
249 -315 67 0
917 -487 677 0
59 876 -537 0
816 -522 -342 0
621 734 150 0
180 267 -54 0
749 -325 405 0
-678 6 307 0
-660 -558 -77 0
-493 903 -725 0
223 -839 88 0
-158 -312 -198 0
-336 -575 -695 0
978 705 -825 0
289 -401 -106 0
-765 670 -163 0
295 -249 637 0
-877 -432 -173 0
763 -582 859 0
845 167 704 0
-920 -833 -450 0
-575 846 -598 0
783 454 782 0
-209 -339 -232 0
-595 -789 434 0
-549 65 791 0
79 46 -623 0
659 832 182 0
-425 725 10 0
-713 28 -814 0
609 309 658 0
-1000 -963 -257 0
-173 -699 391 0
825 -102 -329 0
-978 -243 -100 0
140 542 -639 0
566 197 674 0
177 360 780 0
-404 -692 -439 0
-924 -572 13 0
355 333 -864 0
475 -893 -143 0
-871 141 635 0
877 226 -503 0
295 447 930 0
996 -426 -117 0
-221 -289 -785 0
118 -98 549 0
-659 -839 356 0
-374 445 351 0
343 173 848 0
-475 -616 726 0
755 535 -660 0
221 318 606 0
159 925 -17 0
-419 -207 -600 0
-291 261 -823 0
909 -830 248 0
110 592 92 0
-188 -980 841 0
-127 -434 -131 0
560 281 436 0
-440 -884 657 0
-104 139 935 0
592 530 -813 0
90 166 -286 0
-909 -968 -443 0
562 447 -301 0
-885 173 694 0
-783 -741 -596 0
124 -422 -13 0
-911 535 7 0
375 -512 430 0
912 986 891 0
332 -273 707 0
60 985 886 0
270 89 421 0
885 -207 196 0
963 786 -627 0
250 769 964 0
816 -186 289 0
-114 47 -564 0
649 -395 -763 0
763 965 200 0
-804 312 -5 0
-260 -860 -73 0
976 -605 -813 0
248 354 517 0
566 -323 12 0
-556 -574 -205 0
77 -828 155 0
-860 -576 800 0
-99 -57 957 0
645 935 -753 0
-436 194 -265 0
872 354 502 0
-320 -3 -464 0
619 -747 -256 0
188 128 -67 0
-19 -93 593 0
818 6 502 0
966 -229 525 0
836 -788 -4 0
-961 -696 207 0
408 -803 938 0
716 -41 679 0
91 -469 278 0
-90 -793 -835 0
-501 -552 -601 0
106 -974 615 0
911 -912 797 0
-457 -288 105 0
-817 -982 -919 0
481 -355 424 0
-195 933 159 0
-944 821 -731 0
277 -395 -122 0
352 413 822 0
-508 -128 485 0
944 -572 612 0
706 386 458 0
436 864 -95 0
641 593 436 0
477 32 -524 0
674 -172 -161 0
491 35 -247 0
-624 225 -138 0
833 -340 -451 0
751 196 -197 0
865 114 490 0
312 -542 -402 0
-13 -608 270 0
-53 -448 -653 0
-405 852 88 0
-414 -449 -331 0
247 -268 -423 0
-73 740 -379 0
-589 -959 458 0
722 696 -938 0
228 467 256 0
82 -573 -340 0
-912 -347 -711 0
829 -994 598 0
21 -56 460 0
-754 -868 -130 0
-296 -888 5 0
-322 -292 579 0
22 609 -330 0
-143 -750 195 0
-701 541 775 0
293 -207 -711 0
-147 670 510 0
708 564 585 0
-879 -678 -278 0
805 610 116 0
-235 -708 -643 0
-880 -994 685 0
-342 -170 368 0
2 -975 -121 0
-489 280 -355 0
977 -885 -634 0
726 129 -708 0
-692 -301 934 0
463 344 -696 0
-857 829 44 0
492 -934 -807 0
683 -548 346 0
-559 494 235 0
777 558 841 0
-220 -401 -169 0
-243 281 995 0
326 118 -366 0
-353 -201 864 0
-699 610 42 0
-227 163 -857 0
-531 63 302 0
-972 -332 51 0
412 -203 854 0
-1 -987 -8 0
-744 -663 -912 0
-703 381 934 0
822 -929 -844 0
-469 -262 -92 0
-288 -977 103 0
-127 -602 385 0
-327 -210 82 0
-321 259 -147 0
-124 558 -230 0
95 -777 -233 0
952 -742 838 0
-503 -447 -93 0
336 689 -491 0
637 -433 677 0
-129 -220 -155 0
154 -268 624 0
-681 209 -847 0
-106 230 765 0
-72 -486 -321 0
970 248 767 0
5 -122 469 0
-872 -613 212 0
-569 789 -437 0
468 -654 -510 0
-814 -920 -590 0
-998 -942 370 0
637 276 -144 0
871 -583 890 0
490 -220 -892 0
-204 -337 -382 0
950 750 -783 0
-249 -80 732 0
-7 -538 -425 0
-260 -532 -452 0
-527 367 208 0
-29 422 -418 0
-30 740 -543 0
358 -563 -934 0
-865 885 -975 0
367 999 -91 0
-418 803 -760 0
-842 -470 999 0
-582 -493 427 0
961 -951 -83 0
-861 259 840 0
-537 -564 461 0
371 -997 -53 0
-298 -669 838 0
42 -758 -663 0
-413 771 -349 0
929 896 -450 0
-421 21 766 0
539 326 225 0
-893 693 724 0
696 505 136 0
-904 -654 88 0
-184 -680 -343 0
740 5 -534 0
607 972 540 0
-30 898 33 0
330 409 484 0
238 872 -996 0
-183 -442 473 0
-131 275 132 0
121 672 -501 0
810 552 -543 0
-467 831 135 0
852 -539 527 0
-220 -662 725 0
611 -336 -950 0
-196 -370 87 0
-48 -238 -987 0
-823 731 -972 0
585 482 362 0
732 -845 610 0
500 -750 -23 0
314 173 98 0
628 -367 -664 0
-939 -459 609 0
995 398 552 0
-126 68 92 0
896 336 302 0
-527 -706 243 0
969 -723 -316 0
-475 -248 -550 0
514 -179 595 0
-502 871 903 0
-739 -648 -506 0
614 -592 647 0
54 459 28 0
380 922 -425 0
595 286 -731 0
-795 807 -504 0
349 402 -268 0
-164 747 723 0
556 867 462 0
-541 -666 390 0
-34 810 155 0
956 -963 -455 0
-783 320 528 0
21 -298 114 0
996 -650 -966 0
-548 -272 698 0
854 -335 180 0
-221 615 -631 0
-683 126 -868 0
612 -608 -361 0
703 -90 392 0
-335 48 -134 0
685 -809 -40 0
628 -343 -241 0
606 -2 609 0
660 -812 -215 0
887 -434 201 0
953 474 -787 0
-395 851 839 0
-412 479 -435 0
60 712 -661 0
540 -55 916 0
-252 804 -482 0
773 -992 401 0
-634 -539 -472 0
-666 -751 -192 0
-415 -834 795 0
544 -312 -50 0
-570 -317 -2 0
-488 650 -775 0
-860 666 -440 0
-978 907 -873 0
-664 312 -841 0
-21 988 826 0
196 -212 590 0
-837 -977 -299 0
-24 139 523 0
99 224 -391 0
-546 930 513 0
-353 723 -533 0
138 -776 233 0
834 126 -863 0
-728 829 123 0
493 -68 -371 0
-907 952 -246 0
939 150 115 0
-127 912 592 0
76 227 449 0
183 763 -848 0
-78 -528 642 0
993 -961 -640 0
242 212 -34 0
-447 -335 -683 0
-211 -514 810 0
-961 -447 -701 0
30 131 960 0
-584 -317 703 0
-933 672 307 0
-350 -520 731 0
-805 -946 428 0
700 163 894 0
-579 -59 917 0
424 -244 338 0
-974 -989 -466 0
398 582 -818 0
909 509 -466 0
112 14 -944 0
552 -209 -396 0
286 -543 475 0
-421 1000 -768 0
-67 581 -120 0
-2 -922 -930 0
59 -703 882 0
-756 400 -57 0
-992 -158 864 0
955 -452 -333 0
-853 787 572 0
-970 576 239 0
513 -416 -951 0
243 496 -605 0
679 927 -764 0
585 -804 826 0
679 -968 -607 0
-59 716 106 0
798 197 -757 0
218 -496 -752 0
710 -668 483 0
188 45 -619 0
-175 -720 87 0
-506 940 -367 0
280 -812 -291 0
552 -446 864 0
703 140 -863 0
351 -843 982 0
-786 775 -754 0
-337 -803 -823 0
-86 960 254 0
381 -935 124 0
-792 503 851 0
335 440 -587 0
-529 305 244 0
-339 59 495 0
-532 -333 670 0
-179 -797 314 0
509 -954 -434 0
677 533 -653 0
391 532 560 0
62 298 -26 0
-392 -148 274 0
480 -885 -184 0
565 -253 -1000 0
-844 104 -809 0
-373 -72 956 0
-602 -638 -692 0
-6 146 461 0
437 -327 233 0
-86 295 48 0
887 -246 641 0
930 -791 -237 0
885 510 -611 0
788 818 348 0
-446 975 -208 0
876 555 -288 0
952 910 -433 0
-761 632 -598 0
996 -299 -365 0
-716 959 906 0
-989 -952 634 0
-976 -379 -62 0
647 750 608 0
-30 -895 -151 0
43 -281 129 0
309 17 108 0
197 -460 103 0
-93 -145 441 0
-332 594 -120 0
-920 -447 278 0
-399 -736 300 0
-741 -837 793 0
-847 -192 -454 0
-217 553 592 0
-461 990 355 0
699 681 773 0
122 -983 199 0
638 -393 687 0
55 590 -136 0
880 -391 -306 0
-550 514 -347 0
328 -818 -538 0
-316 393 -141 0
-989 -436 -759 0
962 -362 -737 0
6 -413 -793 0
861 574 853 0
56 508 47 0
-624 949 -908 0
711 883 34 0
-908 720 -260 0
-703 -692 -109 0
586 -580 989 0
-16 -645 937 0
700 -286 -176 0
218 -100 -661 0
-261 -81 -290 0
487 406 -997 0
-452 791 -762 0
-707 977 665 0
-484 251 438 0
561 -435 -145 0
638 484 60 0
-283 575 387 0
469 -539 -970 0
-841 -301 548 0
-647 -975 -207 0
-711 -37 551 0
722 -723 -299 0
-618 542 -258 0
785 -341 -156 0
815 -416 754 0
-869 -350 -899 0
-686 -15 517 0
570 -848 -780 0
-817 98 771 0
184 660 70 0
-335 218 -908 0
978 -675 -101 0
-190 472 724 0
-888 -374 -156 0
-330 -962 238 0
848 -281 852 0
668 -784 267 0
435 -501 745 0
-845 -3 904 0
-757 -574 759 0
-419 870 644 0
532 -810 -495 0
230 372 -413 0
888 -339 -484 0
-913 862 -628 0
667 586 -318 0
889 -443 696 0
547 -404 521 0
-847 533 -138 0
311 203 526 0
-811 940 -192 0
-450 111 -177 0
273 -3 887 0
-410 476 -953 0
-504 176 -572 0
-663 -668 149 0
-935 740 -232 0
-605 -126 449 0
399 597 -663 0
385 -811 727 0
649 524 547 0
242 -858 -922 0
-497 94 99 0
-852 -574 740 0
531 667 431 0
793 782 -531 0
-109 -699 -545 0
847 505 94 0
-38 23 396 0
367 86 -306 0
925 408 940 0
354 763 -759 0
-480 -490 126 0
101 543 -745 0
-60 -324 -274 0
465 999 -61 0
-280 -786 -450 0
-723 677 -479 0
-736 -785 479 0
-681 994 515 0
-820 827 344 0
25 -393 382 0
636 -228 -536 0
715 -959 -432 0
-105 30 288 0
169 -939 -525 0
251 -150 185 0
-251 -142 358 0
-802 318 -688 0
-132 29 586 0
229 394 -162 0
552 257 -389 0
938 -95 -775 0
-841 -594 662 0
778 477 833 0
73 -774 -696 0
-191 478 -93 0
-86 -633 15 0
435 -308 490 0
-643 496 -997 0
-942 732 -911 0
-889 94 -975 0
697 -332 328 0
315 -31 17 0
665 258 187 0
-633 -629 659 0
741 609 -867 0
-747 622 -449 0
266 -576 -685 0
998 -308 -918 0
-7 -149 870 0
-171 584 -983 0
-39 682 649 0
-155 516 133 0
329 -244 328 0
-514 788 868 0
-923 -954 -58 0
-714 -69 294 0
-191 223 498 0
-617 734 -317 0
-824 86 -238 0
486 346 566 0
-11 -605 819 0
645 166 475 0
119 225 731 0
-355 467 223 0
5 502 -610 0
-995 443 -472 0
-44 830 -713 0
-385 746 501 0
-66 704 -271 0
-83 -785 -50 0
838 92 -713 0
725 -541 -245 0
77 -621 827 0
839 -913 -891 0
776 -241 187 0
-834 713 556 0
-517 -957 -78 0
988 287 999 0
-437 393 529 0
730 253 520 0
834 842 848 0
916 201 -751 0
545 -684 113 0
-228 546 821 0
163 -240 -492 0
-398 -244 -925 0
154 -684 520 0
987 111 -996 0
-37 150 -163 0
844 638 695 0
733 -29 770 0
655 -328 -205 0
252 586 673 0
499 952 -517 0
-584 -839 -558 0
561 -788 -716 0
-933 -599 368 0
58 -633 -22 0
-218 638 -924 0
221 -164 -214 0
-126 -358 216 0
885 66 206 0
-737 196 633 0
-572 286 -279 0
-96 950 -716 0
21 835 -552 0
-575 991 -125 0
575 730 266 0
653 325 9 0
-589 670 -207 0
-220 -88 -910 0
320 574 415 0
-753 687 57 0
351 988 477 0
-569 676 -346 0
603 -553 -259 0
-638 65 554 0
-905 -455 -668 0
-153 -270 267 0
875 163 -723 0
92 -838 -545 0
-966 -683 198 0
503 509 606 0
611 263 -135 0
359 -242 -111 0
980 -953 -240 0
838 -962 -31 0
-102 279 -365 0
709 93 -406 0
764 290 -454 0
549 -195 282 0
-389 -576 289 0
-26 752 -347 0
316 571 564 0
650 998 -944 0
-985 -967 -197 0
-595 -491 -104 0
-158 -159 733 0
-199 -801 205 0
-5 -92 -317 0
989 -255 851 0
-186 -66 -649 0
-736 -470 -273 0
-892 -161 912 0
-828 -113 -706 0
438 756 -818 0
106 -475 -196 0
-338 -540 6 0
700 -167 220 0
199 -260 -880 0
-353 -216 97 0
473 289 812 0
-863 -854 -41 0
108 -952 -871 0
-271 -134 712 0
-432 -688 -799 0
333 700 -321 0
242 155 -366 0
159 733 664 0
-560 -794 -639 0
-711 348 119 0
-716 912 622 0
-311 -304 -896 0
-884 -18 -492 0
-23 -972 667 0
-398 628 836 0
493 -323 284 0
340 411 89 0
-943 417 -314 0
-741 147 525 0
255 645 813 0
-71 -371 -916 0
-992 222 -169 0
151 -217 974 0
37 -920 815 0
288 784 -262 0
114 637 -617 0
131 -422 283 0
-751 410 377 0
-980 303 763 0
157 93 391 0
740 159 -689 0
720 707 961 0
301 -983 258 0
-44 -971 409 0
-67 518 198 0
-626 -556 310 0
-524 641 488 0
-444 -387 -386 0
352 902 806 0
-317 881 -834 0
-128 -796 -135 0
608 -479 381 0
782 -982 138 0
204 841 -385 0
-373 -681 -171 0
-806 -930 -927 0
-289 705 -974 0
-442 806 341 0
-898 -550 -200 0
642 553 -209 0
-630 -345 799 0
-114 296 508 0
-134 -227 110 0
888 -690 -861 0
945 200 -34 0
-519 -594 -534 0
649 120 -184 0
-862 -569 176 0
610 -791 -109 0
-389 -262 512 0
759 749 497 0
-129 -743 652 0
776 602 589 0
789 946 989 0
-286 535 877 0
-322 99 -511 0
819 334 841 0
144 199 -671 0
-10 -757 671 0
745 -201 122 0
890 665 485 0
-504 -8 -192 0
-724 245 597 0
-669 220 -526 0
-752 368 -190 0
439 256 -875 0
75 760 724 0
-471 865 383 0
785 -476 -857 0
912 -717 630 0
-939 273 -484 0
147 -614 -966 0
-617 -541 -836 0
-748 -486 989 0
761 644 -664 0
-471 220 992 0
-492 172 459 0
-380 521 957 0
942 -984 -607 0
-50 -333 -780 0
828 174 -635 0
-863 -180 -367 0
-745 410 -727 0
927 -563 -70 0
-145 -690 146 0
-216 507 -186 0
-767 150 883 0
-718 -213 -709 0
-727 788 143 0
-828 -658 -795 0
422 112 293 0
-897 57 516 0
93 -918 330 0
-576 -191 -764 0
-400 -434 -361 0
426 408 -435 0
-520 747 -25 0
155 185 622 0
865 -249 965 0
193 -212 -94 0
947 -10 -514 0
-1 82 -80 0
-995 -687 -117 0
792 655 -777 0
-21 574 -958 0
-941 682 -820 0
38 -47 327 0
949 391 903 0
-442 -522 -726 0
242 -729 -522 0
-247 -387 291 0
-624 312 -494 0
90 999 -455 0
240 877 935 0
471 -563 889 0
426 -966 69 0
121 -590 137 0
588 -614 601 0
-296 744 -945 0
675 434 -562 0
-384 -945 -41 0
-203 -959 -131 0
175 471 -638 0
-507 -28 740 0
-156 273 101 0
-603 107 -13 0
-686 -841 -378 0
786 -565 502 0
527 -883 -757 0
230 647 -285 0
-609 -252 875 0
-835 176 887 0
-135 209 33 0
445 666 -760 0
-615 979 586 0
-702 -166 472 0
-180 532 633 0
-687 -365 640 0
100 91 990 0
202 -736 715 0
850 56 -999 0
578 700 492 0
111 -757 765 0
90 -744 -674 0
-321 537 -589 0
832 -458 803 0
995 -778 -929 0
-350 158 163 0
-502 -517 409 0
-877 284 -157 0
567 758 385 0
-752 24 961 0
-967 -695 848 0
851 -168 425 0
649 -926 -762 0
459 -993 804 0
469 814 922 0
532 -570 395 0
-394 435 -947 0
-442 213 630 0
-190 -782 -881 0
-674 874 160 0
1000 520 -152 0
-778 651 845 0
9 -264 -629 0
714 -77 -368 0
708 657 -676 0
-45 -996 902 0
-983 639 35 0
-117 -820 -356 0
205 274 -897 0
643 636 -105 0
839 -269 -402 0
-145 917 -388 0
-99 589 122 0
839 -848 -430 0
928 -47 311 0
-254 -988 338 0
-703 557 -782 0
-536 -746 873 0
-408 819 -526 0
-962 896 687 0
997 796 96 0
-22 -478 439 0
325 746 -200 0
-580 -92 -571 0
852 -661 685 0
930 371 989 0
-854 319 610 0
12 -580 178 0
-948 -85 -24 0
520 88 -757 0
-3 -108 -849 0
-363 482 901 0
-827 -64 501 0
518 891 503 0
-815 857 587 0
522 -630 414 0
-236 86 233 0
-215 -68 -480 0
-184 227 216 0
406 -1000 -599 0
-538 -504 -898 0
547 324 204 0
812 979 -348 0
-750 19 -614 0
467 -18 865 0
-302 29 -247 0
203 614 668 0
49 391 777 0
-785 458 798 0
-709 348 -835 0
236 657 19 0
869 420 -203 0
-489 -128 849 0
-237 -586 294 0
-478 651 -967 0
992 -869 169 0
451 -99 -95 0
7 -746 -584 0
586 58 454 0
824 -611 76 0
-827 335 51 0
964 783 186 0
-733 -745 639 0
18 -546 163 0
3 846 -92 0
978 -121 -328 0
-575 -316 -643 0
-973 572 591 0
-798 32 691 0
357 827 -314 0
658 261 -741 0
829 -988 888 0
240 609 -55 0
-946 -688 157 0
249 -614 -491 0
4 -407 46 0
-109 801 -515 0
423 -450 384 0
460 -979 -912 0
-161 -957 -636 0
-159 -652 405 0
818 -23 670 0
245 623 173 0
-154 480 -284 0
564 -895 -945 0
70 449 81 0
759 693 942 0
91 -907 622 0
-522 487 -59 0
-321 714 -884 0
547 286 -819 0
-657 902 634 0
-427 -262 -48 0
-103 505 28 0
-601 559 60 0
503 -627 550 0
393 476 996 0
-447 557 364 0
271 562 -904 0
424 -47 -608 0
535 -344 633 0
569 703 862 0
-249 554 -688 0
-526 -741 543 0
987 -989 937 0
778 297 -736 0
-538 216 -619 0
-958 -678 221 0
327 -293 -147 0
198 349 -867 0
432 276 481 0
405 839 35 0
816 -923 -369 0
-920 344 462 0
-439 83 -496 0
-950 365 -652 0
-449 247 -344 0
-484 370 -82 0
745 -587 354 0
-752 544 -458 0
946 -109 178 0
910 -175 156 0
-412 -729 369 0
170 637 -514 0
-979 825 928 0
-40 -763 -549 0
330 -795 743 0
878 979 3 0
-329 589 335 0
62 648 -528 0
-690 -431 -325 0
-388 -421 580 0
631 -637 882 0
-303 -638 -776 0
-966 -360 960 0
514 -223 634 0
-173 -732 -82 0
117 186 -679 0
-437 -970 188 0
-662 -200 113 0
-96 -594 441 0
928 -436 544 0
90 56 596 0
-762 -780 -122 0
-752 686 552 0
160 -810 113 0
-425 -166 551 0
862 430 -138 0
272 -430 -556 0
-656 -382 814 0
-285 -959 -561 0
-61 -180 840 0
-851 834 -450 0
617 -75 -578 0
863 -32 -750 0
393 -944 -468 0
84 881 932 0
-381 466 705 0
599 376 -517 0
149 -274 -86 0
-325 880 680 0
-314 -878 -797 0
-296 925 -808 0
-283 959 -227 0
189 377 876 0
369 552 243 0
-138 -856 -42 0
-608 250 -597 0
396 9 216 0
898 -669 -652 0
-179 463 -261 0
-742 721 825 0
332 -946 -869 0
-935 -46 720 0
637 -767 -146 0
-287 -245 152 0
-398 -59 -206 0
-154 610 -50 0
-310 368 15 0
-63 -527 -957 0
-847 850 -298 0
-914 -775 55 0
632 881 -819 0
-776 -161 -425 0
465 -854 -473 0
-127 -781 967 0
-959 -397 789 0
118 -370 -764 0
-651 53 -692 0
627 157 578 0
430 735 215 0
476 -296 -876 0
886 -114 264 0
168 -941 -916 0
-703 -881 -780 0
281 -188 -699 0
-85 844 674 0
-567 -958 -179 0
452 261 -162 0
589 700 543 0
-93 90 -53 0
436 131 -406 0
934 956 968 0
161 948 777 0
-654 -664 674 0
366 677 537 0
-156 -486 310 0
45 584 -719 0
984 761 -67 0
-381 -953 290 0
-67 -183 278 0
-259 448 956 0
-116 -834 -255 0
846 -134 631 0
-370 -63 616 0
95 -914 44 0
-344 -765 432 0
105 -773 469 0
784 857 756 0
-954 928 -88 0
323 -545 -875 0
824 21 65 0
785 -739 -251 0
519 274 893 0
764 229 -777 0
-989 -349 -928 0
-725 113 620 0
796 -116 273 0
-380 -156 -635 0
482 -266 -523 0
-224 90 803 0
-399 -75 -903 0
356 -218 214 0
-71 -132 -155 0
-873 369 609 0
-162 468 -338 0
394 -109 922 0
90 180 875 0
-824 265 553 0
-358 254 638 0
456 -236 -138 0
-266 59 152 0
11 -340 -149 0
-884 -63 -362 0
733 258 -302 0
194 -975 -493 0
838 873 353 0
-272 323 876 0
-99 308 -424 0
493 -810 -732 0
-11 -200 -537 0
-218 426 835 0
783 450 -536 0
-344 -149 -318 0
-239 -740 907 0
681 -321 -863 0
37 -801 -729 0
-806 -300 91 0
610 -752 -57 0
-736 395 291 0
425 -440 216 0
-177 -147 -800 0
32 409 774 0
-228 -171 980 0
698 -8 -814 0
497 -544 22 0
91 888 -452 0
-510 193 -858 0
305 -639 1 0
-835 -848 -885 0
-588 -21 719 0
407 -634 -501 0
133 382 140 0
-734 274 -47 0
-663 -819 682 0
-179 -360 225 0
-417 300 1000 0
-494 298 -74 0
318 -20 -865 0
-307 459 944 0
471 -306 -69 0
899 -313 830 0
-893 123 -556 0
-261 -225 -810 0
-241 -219 -588 0
781 515 -514 0
77 -34 -583 0
-61 -510 -183 0
-446 -948 80 0
-785 333 263 0
173 457 499 0
-976 207 746 0
117 -376 77 0
937 304 -829 0
718 884 487 0
-515 529 850 0
-348 883 -302 0
936 -852 -871 0
970 169 794 0
223 703 391 0
486 -790 533 0
410 -236 -536 0
-93 130 -104 0
926 853 -875 0
679 -964 -225 0
-94 -668 -330 0
-656 -887 -415 0
703 -16 -578 0
137 -519 586 0
458 76 -937 0
268 -651 -426 0
172 94 -70 0
786 600 547 0
-141 300 -322 0
-908 371 -76 0
336 434 446 0
-330 -862 385 0
-538 -877 670 0
-641 -32 808 0
-87 -852 164 0
-560 -728 -7 0
872 590 -503 0
-932 832 781 0
-614 655 -480 0
19 -847 -809 0
260 -881 872 0
835 -216 -700 0
-809 -612 912 0
93 757 819 0
-935 846 124 0
-376 367 -28 0
827 -732 83 0
-287 83 -163 0
-469 -337 -605 0
-379 -528 -678 0
399 713 85 0
-191 392 -404 0
650 -57 -700 0
54 158 834 0
643 684 599 0
-337 988 -241 0
236 951 -565 0
-88 825 595 0
-990 -927 233 0
999 372 19 0
-812 -820 -394 0
984 -201 -647 0
624 122 -12 0
-605 -295 451 0
-215 66 765 0
-172 961 -762 0
156 354 -514 0
-323 -19 -817 0
-633 -844 -987 0
-87 -760 940 0
-674 -204 -664 0
-940 -193 562 0
-571 665 503 0
-76 -317 -741 0
-944 -264 416 0
-324 -896 -262 0
-114 63 257 0
97 -410 88 0
-979 -231 -949 0
87 300 -206 0
-847 -334 29 0
-227 -253 -257 0
544 -129 271 0
-444 335 -7 0
-398 -440 598 0
495 109 703 0
-461 747 131 0
311 661 -87 0
-56 707 426 0
853 278 196 0
98 378 127 0
-773 574 -239 0
-269 308 -837 0
408 397 -546 0
-535 -891 867 0
371 -35 876 0
152 -579 -885 0
-987 142 -840 0
-21 457 516 0
957 -379 -406 0
941 -94 60 0
477 -575 -683 0
-644 -683 980 0
-622 716 950 0
-191 447 567 0
-727 275 833 0
761 590 -947 0
761 180 -346 0
-932 -55 -647 0
717 -705 171 0
394 165 943 0
292 788 -52 0
-263 -553 725 0
-433 920 863 0
729 88 -387 0
820 -933 -387 0
-825 792 -526 0
727 -118 655 0
433 -633 -758 0
128 -750 -274 0
553 324 197 0
-181 -335 457 0
460 -245 103 0
536 -4 930 0
189 -248 184 0
-920 371 105 0
-989 551 -845 0
837 547 715 0
-760 -115 769 0
-85 -435 -408 0
391 497 -548 0
-723 163 -751 0
-782 -495 -281 0
-964 630 -362 0
40 -760 7 0
-636 506 -509 0
-521 -457 427 0
-596 844 455 0
-834 -601 -53 0
-287 570 -793 0
830 479 701 0
-72 -33 342 0
-109 533 500 0
-277 116 -87 0
-285 -872 674 0
-745 226 809 0
838 -202 851 0
-386 -527 -585 0
371 496 -517 0
-596 -762 -835 0
294 741 -420 0
387 -580 -101 0
780 -675 -143 0
-109 -84 341 0
1000 78 -6 0
-295 766 -874 0
625 159 -483 0
-812 206 -724 0
399 846 361 0
-248 739 760 0
107 802 918 0
-541 -821 -424 0
-709 290 525 0
968 -495 -351 0
-242 364 427 0
138 108 -209 0
-306 185 -575 0
-81 -215 -245 0
-643 -198 -497 0
-498 185 414 0
103 117 254 0
478 81 534 0
226 469 136 0
737 -383 405 0
-540 290 678 0
745 -31 -451 0
-470 977 362 0
-592 -343 211 0
-710 685 539 0
-604 533 805 0
249 -591 904 0
313 115 -600 0
-25 597 -34 0
-753 -737 3 0
-143 695 830 0
-84 501 153 0
-575 751 358 0
-962 -498 -29 0
802 -827 -8 0
148 296 -275 0
-531 638 -760 0
19 400 -460 0
-352 738 -228 0
-107 994 812 0
90 960 -738 0
-209 937 -594 0
-407 -187 -640 0
-665 -184 876 0
160 884 -885 0
552 179 -996 0
809 -14 127 0
589 -699 781 0
572 -894 -58 0
452 -276 128 0
443 526 -239 0
-517 -636 806 0
-49 -203 400 0
-736 839 708 0
508 812 902 0
-567 -949 -709 0
-726 940 66 0
-1000 100 -714 0
-484 -476 384 0
-495 252 413 0
-818 500 -415 0
937 597 -297 0
-172 -690 -936 0
-813 -427 511 0
207 428 -33 0
894 287 724 0
-491 851 -394 0
-780 -788 38 0
112 -484 -494 0
533 958 -744 0
-71 430 545 0
293 -994 469 0
846 720 -201 0
60 387 -942 0
-229 372 -502 0
94 548 722 0
-112 321 175 0
-997 -870 -361 0
-561 205 -920 0
271 817 617 0
455 62 -798 0
-750 761 -24 0
-117 955 -333 0
-5 604 -94 0
-421 -500 -338 0
-305 -815 560 0
-415 -770 -613 0
259 296 166 0
-621 435 589 0
206 577 194 0
309 -537 709 0
-101 551 -544 0
-754 918 795 0
-209 -256 137 0
152 509 714 0
-211 -648 -754 0
383 -312 259 0
-746 -315 947 0
-584 -798 85 0
422 -442 -719 0
-980 -202 -121 0
220 -378 -990 0
-840 759 976 0
-681 706 -507 0
-821 960 225 0
627 -134 -839 0
-9 -498 886 0
61 858 174 0
-212 -372 276 0
-964 410 36 0
44 286 961 0
-547 568 -539 0
-649 354 -741 0
814 -20 290 0
-480 -344 -442 0
834 189 -530 0
146 774 663 0
494 29 -742 0
-599 351 247 0
-645 -361 -225 0
257 480 -304 0
440 493 800 0
855 394 48 0
-488 793 -319 0
-885 -400 678 0
-795 299 -220 0
928 -696 883 0
344 -594 206 0
523 396 655 0
155 -166 -11 0
-948 575 -521 0
-709 -207 -361 0
-663 436 -191 0
860 -22 897 0
-337 -227 -597 0
717 763 -282 0
189 963 -357 0
473 -783 442 0
224 -843 -725 0
-828 -606 -633 0
-388 -956 -704 0
-712 -78 -879 0
167 322 924 0
10 -867 -525 0
-676 -911 -238 0
575 680 272 0
194 588 -46 0
498 -629 -398 0
-104 527 301 0
-130 629 -644 0
-691 551 682 0
-771 529 -533 0
-296 -338 372 0
-724 426 653 0
-900 544 -24 0
466 135 -481 0
655 198 65 0
21 816 -481 0
14 41 710 0
88 -831 995 0
415 996 -662 0
-748 618 -356 0
-193 -775 -731 0
-920 -721 870 0
-558 -636 420 0
1000 -600 -130 0
-338 -538 -568 0
755 54 228 0
113 -27 -680 0
-251 118 -32 0
-561 679 -402 0
-485 -911 -777 0
-717 385 744 0
-624 -750 -592 0
-702 391 -496 0
-163 -761 997 0
30 310 378 0
71 -790 -185 0
-956 434 -553 0
-736 929 378 0
-930 -876 203 0
718 -535 -40 0
727 246 -241 0
-706 -476 -554 0
-602 831 -317 0
-332 864 -136 0
-881 991 -154 0
146 -726 348 0
302 -150 -2 0
153 -21 -652 0
170 -456 655 0
76 -826 -486 0
924 -472 -480 0
-33 572 -136 0
-242 329 672 0
584 -751 -569 0
694 -994 -137 0
950 -2 -808 0
-185 -890 789 0
-138 421 -38 0
407 328 118 0
262 -266 930 0
990 -447 -7 0
9 -799 -923 0
-290 -507 -979 0
-189 -990 -185 0
645 668 -882 0
72 -13 470 0
-64 -121 159 0
582 -731 350 0
591 332 396 0
218 -368 -723 0
789 842 563 0
-937 -607 -519 0
-565 -504 -768 0
181 -128 480 0
950 257 181 0
793 -582 928 0
465 -450 -988 0
75 955 -26 0
-258 -456 -645 0
-631 -611 670 0
804 758 612 0
-745 29 -924 0
-538 628 343 0
412 140 -418 0
-992 353 244 0
834 -722 47 0
-365 -372 987 0
-339 283 -685 0
-548 901 957 0
-307 6 788 0
-162 -292 530 0
-383 -290 -218 0
123 -173 -550 0
273 429 241 0
-52 404 633 0
1000 307 -825 0
100 -143 216 0
-705 -107 104 0
-581 885 -695 0
200 9 -107 0
-631 457 -79 0
-140 380 -927 0
-162 -209 104 0
-153 -914 -851 0
67 210 333 0
-644 -330 648 0
221 544 -417 0
385 671 94 0
-989 -340 -808 0
132 -810 -721 0
313 -151 -498 0
-223 -799 -510 0
-888 484 -454 0
441 -796 270 0
898 -725 102 0
-491 656 761 0
428 -919 -542 0
702 -963 262 0
-314 -781 357 0
614 549 -570 0
717 519 -690 0
-225 737 219 0
864 -36 234 0
383 156 -530 0
815 -233 -264 0
889 774 -475 0
-292 -392 -312 0
-820 -801 289 0
-788 599 -119 0
835 927 73 0
280 -829 870 0
810 -153 414 0
969 453 -795 0
58 172 895 0
-970 -910 -405 0
-947 944 -334 0
332 -258 71 0
298 144 -119 0
-301 -499 225 0
-877 262 400 0
-723 -803 105 0
261 87 367 0
-745 -26 969 0
24 -285 191 0
428 -725 -231 0
-80 356 826 0
647 -753 -931 0
889 116 -241 0
-305 -695 722 0
103 694 169 0
-471 559 -738 0
-237 930 46 0
-481 68 -125 0
606 311 810 0
417 -990 -64 0
-1000 -434 763 0
-467 -13 696 0
-73 285 -299 0
-856 -714 308 0
-176 412 -169 0
874 725 999 0
910 -736 390 0
-308 861 890 0
372 -113 -428 0
-574 -856 707 0
-222 522 496 0
-172 36 -604 0
241 -464 379 0
467 -261 952 0
524 734 -210 0
163 524 627 0
-450 -177 -430 0
650 -386 986 0
-35 630 795 0
546 642 239 0
-733 -70 -380 0
793 740 -491 0
-876 -200 -842 0
-524 -155 22 0
631 741 -895 0
-562 -733 -200 0
406 -233 899 0
-432 -466 2 0
-608 -740 56 0
335 463 -756 0
667 955 -653 0
577 -209 -717 0
959 158 -924 0
-644 -557 498 0
-354 462 666 0
-936 -124 48 0
339 -14 911 0
410 880 158 0
282 -140 914 0
998 -512 -11 0
-120 515 -341 0
-442 -271 282 0
581 -279 -27 0
274 47 85 0
-908 437 79 0
-636 -472 273 0
588 -969 91 0
711 205 -8 0
-262 767 668 0
401 -786 -78 0
948 839 650 0
-49 611 -603 0
813 511 -803 0
331 -79 842 0
-508 976 532 0
-943 874 -270 0
246 404 -948 0
-390 -812 3 0
810 263 -543 0
276 708 -842 0
464 138 -81 0
812 324 864 0
976 949 205 0
195 -539 260 0
-873 -451 -727 0
77 195 547 0
-37 173 348 0
288 -205 -858 0
-224 757 351 0
718 -351 871 0
880 -141 312 0
-678 -313 294 0
899 -907 559 0
441 -84 -573 0
-20 874 355 0
-694 755 958 0
-763 -807 146 0
-513 55 729 0
322 -433 -384 0
-101 -426 528 0
-916 -961 -213 0
-364 -595 -931 0
-898 -173 -101 0
78 -230 -789 0
705 846 -327 0
444 -50 340 0
210 -865 225 0
940 -768 303 0
176 721 24 0
471 777 858 0
885 46 782 0
394 -364 -340 0
38 477 -349 0
-470 876 -378 0
-827 -161 720 0
-515 720 -471 0
-962 -317 464 0
-491 -895 856 0
-49 -228 -660 0
374 780 -931 0
618 -72 -396 0
-860 909 -302 0
885 -88 -900 0
-734 -283 -730 0
283 657 -250 0
-413 -843 -695 0
52 679 812 0
-1 -25 -357 0
711 835 190 0
-131 -115 627 0
-562 166 130 0
-112 402 -196 0
834 -256 -537 0
-939 -395 572 0
960 849 -214 0
584 -740 -537 0
-203 138 296 0
720 -419 147 0
643 538 481 0
497 -71 352 0
753 -56 825 0
-230 677 893 0
130 332 -767 0
125 500 410 0
-669 -335 862 0
123 145 688 0
530 -535 689 0
-518 -631 -954 0
897 -341 193 0
356 -528 -243 0
-292 877 -543 0
-285 -388 -764 0
195 312 -211 0
-731 -506 -959 0
720 -174 623 0
-976 267 -827 0
886 432 864 0
893 458 -421 0
-333 640 286 0
-130 -3 220 0
385 -658 135 0
306 266 -705 0
927 -830 -749 0
-480 -936 -872 0
376 796 -396 0
139 -122 418 0
76 -960 184 0
-930 -444 697 0
-26 -719 -651 0
632 -719 -886 0
609 599 640 0
120 137 754 0
562 670 769 0
493 894 -987 0
193 -828 -785 0
400 -882 870 0
166 198 571 0
547 -736 365 0
-475 -696 931 0
-293 795 -416 0
-27 746 863 0
-327 71 605 0
756 -360 -14 0
611 692 713 0
-676 514 -381 0
-704 -185 -981 0
-445 -948 549 0
-450 359 581 0
-803 -454 197 0
635 -84 -894 0
681 -197 588 0
-131 -71 926 0
-144 981 137 0
-923 -107 418 0
543 -52 -301 0
-355 662 -459 0
990 947 954 0
-357 -360 -39 0
-632 -872 -753 0
-608 -45 604 0
-326 -699 -188 0
-453 -977 176 0
391 830 -639 0
-560 991 -993 0
282 -757 -510 0
57 -590 -487 0
-620 134 846 0
-74 -266 -378 0
864 -609 854 0
95 -57 626 0
-54 844 -197 0
-804 -125 -759 0
-449 6 -142 0
-493 -752 976 0
488 947 964 0
610 678 -609 0
-524 108 -931 0
81 932 -244 0
-697 -674 412 0
563 493 -355 0
-930 -845 -785 0
84 -947 760 0
-73 126 -682 0
-173 -233 -924 0
-746 842 434 0
385 484 370 0
-708 -99 240 0
1000 -968 -915 0
295 712 -73 0
-689 67 -804 0
806 454 706 0
-810 -334 -547 0
-90 813 -260 0
-412 -84 836 0
518 599 -476 0
488 358 904 0
-518 253 383 0
-712 183 -371 0
423 151 -605 0
384 -5 324 0
-335 -498 -192 0
127 404 -321 0
634 134 -522 0
177 -757 811 0
324 166 -818 0
476 -776 688 0
780 -862 -149 0
-965 851 -481 0
78 -934 200 0
-980 379 147 0
303 433 463 0
561 288 109 0
586 -724 480 0
-915 61 -92 0
-623 -573 63 0
264 734 743 0
439 759 286 0
256 463 186 0
453 256 -235 0
635 -727 63 0
788 999 -417 0
775 214 916 0
-191 -182 447 0
131 -734 319 0
-103 373 225 0
145 89 -3 0
414 -435 421 0
873 -390 19 0
380 347 -60 0
128 -513 528 0
83 363 474 0
-395 841 730 0
131 -87 -43 0
-201 876 773 0
182 320 398 0
187 652 -218 0
602 737 -803 0
-497 -363 882 0
851 467 383 0
-371 338 160 0
-32 -601 -625 0
-284 277 487 0
-435 457 -781 0
722 -124 70 0
352 828 -132 0
-187 -982 260 0
-444 421 415 0
-656 -508 -393 0
-78 959 864 0
-830 -308 261 0
-52 -776 350 0
552 667 -804 0
683 -150 315 0
-944 -638 -491 0
340 850 847 0
566 -935 -451 0
324 -15 -394 0
-617 -616 -496 0
814 -775 604 0
707 -80 900 0
273 -276 139 0
-269 -381 -389 0
-804 -993 586 0
464 621 721 0
-571 -71 773 0
105 52 182 0
736 608 -248 0
208 236 -433 0
-839 831 768 0
-781 960 -792 0
379 266 -815 0
-479 -903 293 0
-133 -727 -291 0
-221 987 693 0
-983 241 419 0
566 543 -600 0
44 240 -530 0
159 545 439 0
486 -353 520 0
-662 -669 -20 0
-396 136 -757 0
-147 120 -167 0
-351 -325 -639 0
-71 884 -242 0
506 -892 920 0
500 108 605 0
57 409 770 0
787 255 882 0
-166 -449 -60 0
-975 -929 -944 0
-753 -353 429 0
-383 714 -295 0
313 446 911 0
-671 72 557 0
-797 -1000 -858 0
190 -718 -756 0
-890 -70 389 0
254 -524 -563 0
496 485 -239 0
913 602 505 0
829 241 854 0
676 -570 367 0
-758 -619 743 0
-134 -62 642 0
-243 401 -53 0
-372 -877 564 0
-805 727 50 0
-646 147 -880 0
-237 -930 677 0
769 688 528 0
-387 -523 -169 0
-27 307 12 0
-276 870 708 0
-86 -806 165 0
880 767 819 0
443 -89 471 0
-504 730 866 0
364 -243 279 0
-372 -361 -698 0
-256 -435 -663 0
-106 -394 232 0
-256 -798 -324 0
-416 -961 -820 0
475 -835 -524 0
708 -90 355 0
-960 432 313 0
-473 -606 498 0
168 -500 -431 0
-170 288 -752 0
-782 -529 836 0
-920 721 -258 0
666 676 447 0
-563 -388 616 0
-252 -863 -558 0
-142 -941 149 0
-155 636 -399 0
-292 441 -114 0
-45 819 -691 0
-981 67 806 0
-70 846 -992 0
379 -446 90 0
-448 330 664 0
891 -424 -669 0
-557 720 883 0
635 987 -585 0
431 -905 471 0
379 300 -505 0
898 -616 -375 0
174 -889 567 0
38 -25 -222 0
-396 778 866 0
198 349 532 0
-867 -101 -215 0
-423 -427 605 0
936 922 748 0
242 681 78 0
513 836 59 0
-480 -309 -18 0
-822 57 482 0
95 -872 -754 0
691 -510 -596 0
-334 259 -224 0
-518 154 -308 0
-357 676 -388 0
502 -721 -564 0
-876 -78 969 0
-486 -958 -437 0
-30 -328 50 0
715 -29 768 0
-34 740 777 0
-239 631 613 0
506 115 371 0
-917 -328 436 0
701 236 45 0
-168 -259 -216 0
-790 194 415 0
-525 919 166 0
-962 -659 -537 0
-441 874 857 0
-215 953 -808 0
-526 491 -72 0
272 -493 687 0
-423 535 -192 0
237 380 -538 0
755 390 -622 0
763 878 -292 0
303 -550 -220 0
647 -469 -243 0
787 -972 -567 0
15 -84 -680 0
-698 -766 993 0
-292 346 813 0
-122 776 321 0
473 270 400 0
-146 575 -690 0
643 -662 -331 0
432 568 31 0
-279 -484 343 0
-416 -274 -867 0
809 150 -539 0
210 -531 -591 0
-498 -199 -368 0
-883 -529 952 0
-318 827 156 0
-398 403 -931 0
728 267 -190 0
-553 450 469 0
-772 259 718 0
-556 549 -767 0
743 646 -350 0
-996 -588 578 0
-434 603 -270 0
470 954 418 0
-502 541 -741 0
-494 -919 -226 0
895 331 -224 0
838 -507 946 0
366 -448 123 0
-430 752 544 0
759 873 596 0
-273 813 -542 0
-988 -104 -923 0
316 360 105 0
646 -893 -425 0
-570 -883 959 0
437 592 -706 0
-396 -801 30 0
-804 -896 -292 0
369 698 -81 0
369 831 -34 0
78 559 957 0
217 881 571 0
543 77 229 0
-954 -423 -15 0
923 531 944 0
-401 -214 735 0
-467 -975 547 0
980 -606 -480 0
-598 866 -66 0
-707 -631 931 0
-784 -807 -252 0
-515 252 -833 0
441 -411 -494 0
-115 606 -878 0
-228 250 325 0
-122 86 631 0
790 986 613 0
-461 -626 218 0
-509 137 356 0
-91 -700 795 0
365 -133 -203 0
-790 550 -866 0
590 990 -65 0
-825 33 -949 0
399 357 -209 0
333 726 -774 0
276 136 711 0
245 413 -954 0
-244 -989 594 0
-328 -578 159 0
449 815 978 0
170 -609 95 0
218 -295 -70 0
-266 285 222 0
-455 -422 750 0
249 -372 -201 0
-160 -640 647 0
-335 -410 463 0
-997 -943 393 0
808 -223 858 0
178 637 421 0
373 852 -711 0
761 -256 720 0
-650 -800 654 0
-44 -425 933 0
-155 53 49 0
365 836 -191 0
249 336 -331 0
-559 518 372 0
-546 326 586 0
623 669 -627 0
569 -232 -282 0
-107 514 -935 0
-115 546 721 0
619 -586 -114 0
441 -858 -910 0
-450 10 -196 0
267 -399 -213 0
274 -597 -791 0
303 -594 -491 0
844 -432 -98 0
30 -469 -350 0
542 -22 438 0
499 -536 965 0
195 208 728 0
823 679 685 0
79 730 -15 0
-188 -771 875 0
-734 -396 306 0
515 471 956 0
425 -712 -520 0
338 -940 -251 0
610 -321 128 0
328 -526 590 0
-931 -260 -195 0
841 -870 -372 0
382 -341 59 0
-797 325 291 0
536 -726 -615 0
-309 -795 -905 0
266 -379 697 0
791 -943 -150 0
-87 -156 309 0
-588 -743 482 0
-643 610 889 0
557 288 892 0
-41 -216 832 0
208 -478 671 0
-872 -927 286 0
783 -590 -364 0
-827 -487 -206 0
-994 71 548 0
-810 644 539 0
-262 -959 840 0
279 -258 -175 0
190 -269 -765 0
-980 617 -655 0
-941 71 894 0
293 -818 762 0
104 -164 -203 0
-905 -159 471 0
339 146 665 0
-675 -402 731 0
-734 474 179 0
42 510 -409 0
-716 721 384 0
717 -712 773 0
-83 -986 307 0
83 -695 -979 0
227 116 -890 0
363 -532 -973 0
-205 716 -648 0
25 253 -558 0
944 -610 266 0
412 568 -144 0
235 799 467 0
590 537 659 0
-465 -868 564 0
-828 -907 -121 0
649 660 812 0
237 831 -637 0
856 -614 -860 0
294 -176 -5 0
939 -205 931 0
-888 -346 -149 0
351 534 -699 0
574 548 -30 0
550 552 592 0
-684 -398 -224 0
537 -322 -37 0
294 -665 -543 0
68 -517 -578 0
519 -434 -418 0
-148 479 500 0
942 42 262 0
-868 167 691 0
401 -893 746 0
-966 945 -678 0
542 -190 447 0
-828 -32 319 0
60 -859 -526 0
372 210 -106 0
-244 -772 231 0
436 518 -498 0
-567 68 583 0
504 921 190 0
-81 -186 770 0
-382 950 938 0
-618 -693 -183 0
199 -151 -983 0
-451 289 -708 0
413 536 601 0
-195 -705 -285 0
477 294 352 0
945 -930 613 0
25 233 -300 0
138 -134 -353 0
-618 -636 -33 0
819 -48 687 0
431 18 -526 0
-733 -327 864 0
192 191 -48 0
757 59 -99 0
2 579 149 0
-342 858 841 0
-170 296 -824 0
471 -943 -540 0
940 891 902 0
-538 518 -330 0
249 -857 203 0
364 429 938 0
-201 -252 134 0
367 -532 626 0
-57 -283 -303 0
772 -635 601 0
65 254 -643 0
424 490 255 0
329 744 212 0
774 -43 -414 0
526 -389 -125 0
-758 913 -970 0
-346 -886 723 0
197 -825 45 0
879 -580 482 0
-794 791 -625 0
-584 977 291 0
-690 -315 720 0
-496 916 -206 0
-1 -636 713 0
815 27 -829 0
-654 464 -997 0
-800 277 973 0
-929 458 -411 0
161 -279 -78 0
-553 -661 -47 0
-420 658 171 0
769 -233 -376 0
722 -647 -791 0
-398 -245 95 0
-88 -618 941 0
736 -757 -583 0
-191 655 -472 0
305 787 -503 0
-345 -669 -421 0
-809 -28 557 0
971 907 -707 0
-113 -670 164 0
-582 -808 142 0
191 370 153 0
639 943 -306 0
-449 208 -721 0
-729 -869 852 0
623 996 -205 0
-725 713 571 0
-452 -665 311 0
623 871 296 0
773 -22 -434 0
647 -82 512 0
-734 -559 -539 0
-43 736 914 0
-794 -610 -284 0
964 662 -240 0
-28 -44 720 0
-908 -877 269 0
371 911 51 0
138 -146 32 0
326 581 82 0
-20 297 -931 0
-487 257 -184 0
-370 -65 761 0
-317 -643 -272 0
930 253 -490 0
-541 39 764 0
-444 876 555 0
813 111 -406 0
-21 -562 -275 0
50 -584 -341 0
-478 -818 -706 0
329 723 -433 0
-900 6 -21 0
269 -17 -657 0
357 945 -186 0
185 -217 836 0
254 976 -532 0
921 74 167 0
-561 907 -29 0
-436 -739 790 0
319 765 659 0
115 86 942 0
197 626 401 0
316 421 -284 0
-54 207 596 0
128 898 113 0
630 698 65 0
45 -84 -689 0
-36 425 -806 0
218 -806 183 0
-781 166 -391 0
481 -564 -108 0
-102 425 732 0
546 -395 -617 0
-916 440 977 0
-175 484 267 0
780 895 897 0
560 604 104 0
306 571 725 0
377 -695 295 0
348 816 685 0
597 -603 -876 0
-276 -278 677 0
-49 -353 -598 0
269 -10 614 0
981 -483 545 0
-958 -508 727 0
833 -580 -582 0
861 606 -445 0
-692 -821 -80 0
962 -308 188 0
-640 -634 -874 0
-756 -183 -354 0
-215 -691 -30 0
620 169 651 0
-289 -777 -124 0
330 -786 -991 0
-853 -165 -787 0
-287 -185 471 0
211 -416 -865 0
540 829 -473 0
-780 -684 -839 0
233 -491 -333 0
-346 -96 122 0
-563 -353 -149 0
38 741 -199 0
752 616 -288 0
550 -52 865 0
573 -944 -993 0
-123 727 768 0
261 759 450 0
808 -200 -469 0
-582 -885 -917 0
434 -855 531 0
-690 720 -244 0
-416 -398 454 0
616 707 -469 0
850 -442 -77 0
823 222 -154 0
31 752 -959 0
-416 -199 452 0
-454 -834 -73 0
373 -61 -515 0
549 74 706 0
844 854 -887 0
-412 -189 71 0
71 -451 -916 0
910 -65 792 0
-617 -445 -743 0
355 944 976 0
2 214 -658 0
-514 -480 623 0
-417 614 -45 0
930 150 665 0
-473 520 -839 0
284 -47 -779 0
881 649 955 0
-345 -19 -921 0
524 -195 915 0
-992 -171 869 0
-463 896 861 0
177 -876 378 0
-96 -156 352 0
-428 -410 -243 0
-631 -646 -883 0
-661 -481 408 0
-190 -503 -580 0
-60 626 -410 0
974 -870 675 0
318 -365 542 0
-26 -231 -758 0
-652 768 285 0
776 -333 352 0
91 -787 -975 0
-364 851 -271 0
-900 -998 804 0
-708 37 941 0
-222 756 627 0
-147 854 672 0
-241 -276 -523 0
628 -68 -561 0
226 911 -687 0
-819 627 338 0
-54 -101 -99 0
-506 -776 -459 0
805 -705 822 0
832 867 96 0
402 209 -939 0
-43 -463 -879 0
-839 13 -688 0
-118 126 -556 0
-274 291 -277 0
-306 25 -828 0
-1 423 -934 0
867 -221 816 0
-760 -818 -475 0
623 -203 -187 0
-730 144 280 0
870 882 86 0
64 -547 665 0
865 871 186 0
381 -850 846 0
-452 -442 -242 0
-218 -142 -586 0
546 599 660 0
-623 509 796 0
-454 856 513 0
322 -726 -781 0
-105 -986 -406 0
-998 422 501 0
-417 194 591 0
576 72 556 0
-689 -382 780 0
-141 669 132 0
-852 -822 -727 0
537 -153 131 0
729 -155 -978 0
450 694 182 0
-983 -595 -81 0
-294 -744 -300 0
855 -846 -517 0
129 368 -437 0
-432 -25 -216 0
202 42 -220 0
-333 679 997 0
924 -344 989 0
909 -754 888 0
-304 -423 470 0
58 -834 538 0
707 152 -849 0
695 -839 235 0
488 -227 781 0
-740 -159 259 0
56 -418 -132 0
328 -864 -228 0
99 -792 -906 0
767 -37 619 0
843 377 692 0
905 -34 -250 0
862 -962 342 0
512 -7 -54 0
377 156 614 0
687 -398 556 0
919 569 430 0
-666 854 527 0
727 242 860 0
613 567 560 0
-411 661 761 0
-358 -666 795 0
-62 964 -149 0
59 -332 -468 0
399 430 -703 0
182 862 165 0
765 954 399 0
680 -98 548 0
264 101 245 0
776 849 54 0
575 -344 91 0
108 -812 380 0
116 622 104 0
327 964 -429 0
534 -24 7 0
-269 -680 -738 0
941 794 587 0
937 -388 -571 0
734 874 802 0
859 -908 -574 0
634 -667 579 0
-903 792 761 0
-740 983 247 0
683 -94 -960 0
-399 771 -378 0
-62 -773 -403 0
486 92 647 0
-993 300 -654 0
265 -339 349 0
842 962 -935 0
929 -365 -612 0
-837 147 -85 0
187 -460 6 0
423 975 453 0
497 -999 476 0
-917 190 -611 0
612 424 -300 0
315 331 708 0
-384 -476 321 0
-515 -171 946 0
191 574 -322 0
-379 745 -230 0
803 375 628 0
-315 600 -255 0
-71 -500 101 0
-968 758 894 0
-690 -503 -443 0
314 538 -109 0
-769 232 -495 0
771 -683 369 0
508 38 647 0
937 -331 -531 0
-251 -910 706 0
937 -235 -797 0
608 -413 595 0
-193 154 917 0
-989 383 -128 0
-314 -945 122 0
-633 241 -521 0
171 20 823 0
-507 56 204 0
48 -929 228 0
-834 126 409 0
-760 -319 -469 0
997 668 394 0
-407 -642 37 0
-379 -826 167 0
212 990 -724 0
1 838 564 0
733 -422 420 0
47 -487 -857 0
-663 142 -746 0
-427 -829 258 0
-436 779 -290 0
75 -762 -410 0
-473 -414 992 0
202 -849 -546 0
-880 -125 829 0
794 -951 199 0
-688 749 -948 0
-705 709 309 0
609 -73 469 0
279 -339 -534 0
-229 864 524 0
-636 -866 16 0
975 -862 383 0
307 -161 -748 0
-1 -548 624 0
-205 248 -851 0
-383 -143 104 0
-624 352 192 0
-475 346 413 0
-175 -467 -938 0
-968 57 117 0
465 826 -761 0
923 -264 439 0
100 830 -663 0
-763 -758 676 0
-455 516 933 0
-14 -809 319 0
275 3 -302 0
937 948 193 0
758 -155 395 0
548 -926 -978 0
677 -12 717 0
5 -813 629 0
-629 -195 284 0
-434 -940 287 0
-189 894 270 0
966 933 125 0
153 -133 999 0
-788 775 13 0
466 541 -840 0
553 -388 395 0
725 -529 -582 0
882 210 -558 0
-163 -700 -920 0
-496 306 -806 0
-417 770 38 0
358 351 646 0
677 178 -700 0
-746 -812 -20 0
496 -904 -771 0
948 974 -382 0
899 337 451 0
886 160 661 0
395 -758 -972 0
-576 -452 -938 0
732 771 44 0
759 -347 145 0
-48 -661 -612 0
833 124 692 0
-394 -733 398 0
198 341 -561 0
-398 215 -923 0
160 -139 -259 0
347 806 654 0
-119 619 569 0
784 -723 299 0
362 -412 209 0
392 -232 144 0
441 -448 -787 0
799 -979 -520 0
18 882 107 0
761 -258 -191 0
-736 -836 574 0
603 -811 -602 0
-156 633 -873 0
-60 758 502 0
-863 438 -576 0
-90 990 -604 0
107 -483 503 0
142 -380 131 0
-623 159 -602 0
-278 -34 -87 0
-59 -613 -196 0
-551 290 987 0
411 232 -244 0
544 -118 -246 0
-593 -962 -354 0
499 -330 -344 0
341 -96 463 0
195 872 -50 0
215 120 801 0
-426 -848 -111 0
693 -691 206 0
-176 -771 194 0
-499 493 -637 0
745 463 -288 0
-277 768 -25 0
91 164 862 0
-680 31 -837 0
175 340 106 0
-831 272 -663 0
169 -114 757 0
563 779 -465 0
-640 641 536 0
-926 576 543 0
-878 94 -206 0
-289 881 -47 0
-521 672 -887 0
-68 -184 637 0
711 -700 -784 0
-911 -299 -913 0
847 293 331 0
712 -152 479 0
331 263 -214 0
-718 682 -842 0
628 -299 -73 0
-879 -134 362 0
-418 -580 307 0
279 -824 -922 0
-103 -296 -723 0
-275 523 489 0
574 -626 674 0
493 323 -194 0
932 351 -348 0
-486 -412 876 0
-110 -676 393 0
-112 -880 -910 0
-888 116 21 0
-999 387 -292 0
853 -359 -794 0
-601 -918 -468 0
90 -359 -517 0
-494 4 -506 0
541 -285 -981 0
-490 -395 540 0
-244 927 -569 0
-957 352 586 0
-951 959 -638 0
-908 -157 -30 0
548 652 250 0
-250 -326 -311 0
246 439 601 0
975 326 179 0
777 -532 864 0
773 218 967 0
312 145 -192 0
-788 266 -100 0
161 231 293 0
873 -977 -226 0
-737 -865 933 0
-107 -588 778 0
-487 75 -932 0
-989 677 653 0
955 665 -917 0
103 -655 297 0
-389 -87 139 0
607 783 911 0
-725 937 354 0
-12 -905 932 0
571 -234 -823 0
202 491 -17 0
690 -273 -346 0
802 -428 685 0
357 -294 -768 0
126 689 780 0
-762 -48 864 0
337 719 785 0
-582 170 1000 0
-976 465 27 0
734 -396 -66 0
154 162 -475 0
892 354 -88 0
-270 -31 873 0
821 359 -1000 0
388 913 659 0
435 450 818 0
604 744 -103 0
-430 -28 -341 0
-270 169 -667 0
560 118 -107 0
655 968 242 0
711 373 536 0
68 -218 586 0
287 -319 794 0
-233 -594 -252 0
466 862 144 0
-777 425 -916 0
178 610 644 0
234 531 -589 0
493 -132 -502 0
-380 -96 780 0
-467 -708 -905 0
-208 -97 103 0
871 707 46 0
504 306 -826 0
-641 -489 -548 0
-583 -739 802 0
189 -906 748 0
-726 47 -653 0
-103 -715 -987 0
394 36 -79 0
-579 -150 -301 0
812 974 -687 0
-910 908 -223 0
-949 648 -520 0
-789 562 276 0
339 -35 -9 0
-577 627 190 0
-331 -879 582 0
254 -726 406 0
-33 40 -615 0
-17 118 -999 0
-717 -9 947 0
369 12 -946 0
770 750 -491 0
-978 985 -999 0
-561 702 -382 0
603 -90 -656 0
727 750 515 0
833 -297 168 0
407 23 983 0
-831 -199 -44 0
236 359 -396 0
-657 646 405 0
785 842 -788 0
-328 789 -342 0
487 -502 546 0
589 538 85 0
141 833 700 0
-306 103 -985 0
-607 -873 -423 0
-130 173 253 0
-227 943 619 0
-299 -613 -585 0
936 507 783 0
289 -175 -561 0
-956 -261 294 0
-746 -880 297 0
883 309 333 0
-74 -422 -910 0
276 -94 -825 0
157 137 706 0
606 229 280 0
-409 263 131 0
-50 75 -497 0
-5 745 -835 0
434 819 337 0
-63 65 845 0
218 -712 -254 0
-752 -657 940 0
-635 750 -520 0
911 885 -382 0
100 -517 -81 0
550 720 947 0
-425 -658 -600 0
-324 138 425 0
-307 658 222 0
-461 77 -812 0
247 -533 779 0
-82 -631 393 0
-27 -725 -844 0
-690 59 662 0
-668 -328 96 0
-743 973 -850 0
861 447 595 0
-962 205 513 0
-293 -321 498 0
133 234 -764 0
-844 443 323 0
651 744 -329 0
747 99 -897 0
-60 921 116 0
270 -978 467 0
-657 -174 -607 0
-679 543 724 0
-609 -784 928 0
-436 -738 928 0
712 22 986 0
25 300 22 0
-244 -845 -146 0
855 -889 -92 0
-903 -613 -222 0
390 -885 299 0
476 604 445 0
-203 869 -259 0
-28 56 -60 0
224 -7 -710 0
-877 -966 -885 0
441 -53 -734 0
214 35 93 0
67 -880 -89 0
587 -565 293 0
428 453 385 0
641 281 -893 0
-110 -678 -377 0
814 -498 651 0
743 -97 910 0
-825 -502 621 0
-934 991 210 0
729 -764 -114 0
-411 140 -786 0
481 906 465 0
185 -985 619 0
-693 705 335 0
582 540 357 0
76 958 -347 0
-589 -722 -307 0
-872 -921 263 0
163 -12 656 0
650 -723 -683 0
695 -176 312 0
340 -268 -147 0
-972 730 70 0
-788 -285 397 0
-574 -566 -688 0
-956 -991 664 0
-160 594 392 0
-162 868 -432 0
133 -261 -410 0
-411 -51 -519 0
220 508 824 0
118 -346 237 0
-869 -607 -28 0
638 -868 -960 0
951 148 -551 0
-712 -909 798 0
629 859 -235 0
-662 274 -918 0
413 -352 634 0
-623 896 -50 0
518 288 397 0
-349 -708 423 0
-281 -205 -956 0
503 559 -602 0
767 -315 378 0
-100 -517 893 0
549 793 607 0
553 -637 -308 0
-983 -796 686 0
-4 -840 -43 0
-392 787 -51 0
272 -712 555 0
-195 511 -302 0
-904 -499 155 0
317 -389 578 0
-618 -34 -994 0
617 -124 -321 0
-262 156 -410 0
-973 537 -53 0
588 56 854 0
324 -924 -933 0
443 -308 -286 0
203 65 737 0
625 600 -894 0
817 -438 -430 0
630 157 558 0
118 122 -626 0
-357 12 998 0
-688 -547 -170 0
-41 -825 -14 0
-566 -800 673 0
270 -534 -380 0
946 299 -857 0
-661 -767 87 0
-566 106 -165 0
697 779 279 0
371 571 795 0
-310 514 502 0
-763 688 749 0
-408 -228 867 0
-2 855 462 0
-39 676 -539 0
380 19 59 0
491 -971 451 0
146 -427 -565 0
-5 -440 292 0
-665 52 -519 0
-290 -295 -572 0
754 457 985 0
175 399 308 0
-293 -707 82 0
913 -277 302 0
681 -485 162 0
-807 667 322 0
-96 640 258 0
-61 -709 -281 0
-757 501 -856 0
-32 -273 -256 0
436 -376 217 0
895 905 140 0
-640 290 -36 0
86 -198 -998 0
514 -834 -685 0
220 -97 -780 0
899 984 -890 0
-411 154 447 0
881 108 263 0
-782 -687 -258 0
307 263 559 0
-758 -572 -221 0
-406 -787 516 0
159 -775 656 0
-888 132 -249 0
977 732 -878 0
364 -222 159 0
927 -914 -171 0
488 377 635 0
-229 676 954 0
768 905 -550 0
421 -434 -466 0
289 578 -734 0
-827 -773 -523 0
214 682 966 0
208 889 954 0
610 354 -988 0
266 480 -841 0
-460 -875 340 0
-5 150 -395 0
-896 200 625 0
-698 62 -116 0
476 101 697 0
6 -491 828 0
-48 246 82 0
233 -81 557 0
-496 613 380 0
800 832 -152 0
-730 -566 -159 0
-50 655 -967 0
110 636 783 0
-345 556 332 0
-666 -156 300 0
313 -780 -6 0
571 -277 -299 0
-314 -779 503 0
587 178 927 0
593 -488 120 0
779 -254 528 0
-432 -475 354 0
108 -294 -52 0
-294 322 475 0
-34 -894 603 0
-42 743 -855 0
33 -981 58 0
-123 -311 19 0
-829 -910 -398 0
-729 858 573 0
-816 -935 345 0
-828 925 281 0
926 -296 863 0
-650 555 805 0
-961 954 275 0
966 -985 508 0
-241 160 -883 0
-442 577 -379 0
916 905 -259 0
-932 -710 694 0
772 599 -275 0
33 -107 852 0
835 176 -729 0
-95 -227 789 0
-337 727 135 0
16 400 -108 0
-533 435 806 0
-356 394 -646 0
-337 -43 405 0
-293 -617 -500 0
-190 677 -658 0
77 908 826 0
274 -637 600 0
640 831 201 0
-181 -868 717 0
543 215 387 0
712 794 907 0
597 860 413 0
712 348 -958 0
-707 61 189 0
-711 -868 991 0
-101 659 -947 0
-574 855 -900 0
353 492 582 0
-360 -311 680 0
334 24 216 0
901 -506 273 0
-380 -439 445 0
-311 -284 38 0
-268 -149 -464 0
-266 -808 -207 0
13 628 537 0
735 30 33 0
-751 -493 -364 0
-590 -253 275 0
45 389 -634 0
827 554 89 0
96 355 229 0
380 37 -868 0
313 834 624 0
-214 -818 -797 0
337 843 -845 0
-897 -709 -182 0
766 -981 -939 0
921 326 718 0
-44 -567 963 0
645 900 286 0
-71 806 -694 0
847 -593 325 0
-980 -999 -343 0
829 -971 -258 0
464 390 647 0
-278 -641 941 0
-353 826 623 0
-582 368 107 0
221 816 187 0
-82 783 -773 0
-521 -503 -17 0
-874 -345 461 0
-545 -136 224 0
518 -581 463 0
941 -695 546 0
-883 636 642 0
-877 485 -617 0
440 759 -128 0
584 390 866 0
649 144 -64 0
-275 172 -806 0
-495 -209 595 0
35 -822 820 0
-534 150 -79 0
-670 89 -440 0
-722 -291 -729 0
-525 193 958 0
-275 488 958 0
-215 -950 -778 0
557 -538 -835 0
-455 544 251 0
19 -360 448 0
514 -325 -998 0
-440 389 -841 0
398 913 287 0
-472 769 798 0
443 201 -827 0
874 234 -532 0
777 -844 604 0
-758 -256 -218 0
-893 916 -694 0
-551 -851 841 0
135 -728 331 0
-537 435 577 0
395 773 -986 0
-414 198 312 0
116 -533 -130 0
879 -917 118 0
-22 368 641 0
756 622 -122 0
-358 300 -226 0
854 109 -507 0
-829 417 -256 0
-368 350 -773 0
-133 -716 -255 0
-163 568 -492 0
325 1 -978 0
-18 -717 -523 0
627 605 463 0
-429 899 710 0
-366 368 683 0
605 -997 -141 0
-966 -464 757 0
-667 -636 323 0
-846 -11 744 0
-391 396 123 0
-459 -301 -90 0
651 832 -196 0
847 837 931 0
-195 242 -372 0
-277 284 20 0
-164 -852 -378 0
-246 49 -974 0
44 537 -695 0
171 -637 763 0
445 -219 -151 0
-22 -556 44 0
221 -631 960 0
-994 -8 -975 0
-892 -243 -312 0
584 986 325 0
-729 53 -249 0
743 -794 32 0
350 -326 152 0
657 -66 -345 0
-245 -462 879 0
70 339 -505 0
-330 818 -930 0
-396 -259 -332 0
18 62 901 0
-145 282 969 0
789 -218 -206 0
-742 -352 34 0
85 345 -744 0
-715 260 458 0
132 -998 -81 0
736 -758 997 0
315 254 790 0
68 190 665 0
-274 -493 898 0
-309 285 412 0
87 -815 338 0
982 -461 826 0
-409 -842 803 0
-493 -356 -884 0
977 -394 -679 0
-472 -687 493 0
827 -396 182 0
369 -123 665 0
737 331 -78 0
10 -302 335 0
-757 -968 683 0
-877 792 252 0
-794 -688 881 0
935 -288 -571 0
875 476 -748 0
971 817 370 0
893 876 -299 0
438 -506 175 0
-124 439 -894 0
-519 -774 327 0
-596 832 -400 0
377 -14 293 0
347 688 -994 0
-556 -221 85 0
777 -459 -457 0
649 612 -815 0
892 -743 -1000 0
362 -790 844 0
293 -917 145 0
-711 392 -390 0
904 -884 407 0
-841 621 -844 0
-673 497 -307 0
727 504 -753 0
-426 -275 461 0
454 -876 -648 0
-538 701 -354 0
-226 923 797 0
783 174 -580 0
-434 -711 -192 0
930 -630 -909 0
-488 557 993 0
-708 -364 -820 0
-964 753 583 0
-61 -484 318 0
718 673 603 0
-94 589 932 0
6 -130 631 0
721 -448 888 0
111 -640 461 0
-722 271 835 0
-749 642 -355 0
-570 367 -373 0
332 -457 657 0
925 239 -204 0
327 618 7 0
-849 -272 -426 0
-17 117 731 0
-788 -174 9 0
431 596 180 0
644 130 -701 0
-687 974 93 0
756 374 -731 0
-671 -23 863 0
905 650 -670 0
-279 -892 -762 0
-866 53 90 0
-364 -189 -714 0
-982 -599 253 0
987 -107 414 0
-643 -328 297 0
141 97 -539 0
-433 -907 476 0
642 450 -76 0
-467 999 -850 0
-136 -552 938 0
413 782 299 0
-45 -461 -57 0
50 617 217 0
801 -733 424 0
899 -456 484 0
408 -282 634 0
-818 116 123 0
373 -711 -426 0
638 197 -869 0
386 432 -851 0
296 649 -125 0
-799 -778 -239 0
210 812 599 0
980 -788 249 0
-620 399 -580 0
45 936 866 0
-592 282 -142 0
-521 -969 -337 0
-210 -323 -965 0
-162 -2 237 0
206 209 -139 0
912 546 -587 0
-1000 4 428 0
-423 -388 108 0
-409 497 161 0
-927 -8 -672 0
-880 365 930 0
-115 -544 -907 0
560 -649 759 0
788 240 -820 0
393 530 -408 0
826 741 -16 0
316 -683 405 0
689 1000 575 0
81 -910 270 0
-643 445 -868 0
74 -265 889 0
907 -938 -802 0
-932 458 112 0
-942 -108 -888 0
-102 427 -832 0
-770 -763 748 0
-726 711 -627 0
931 -489 -528 0
612 345 260 0
745 -668 354 0
46 -796 -824 0
35 347 -50 0
744 -37 -735 0
-141 503 -80 0
-143 -388 511 0
982 -740 338 0
-183 612 -465 0
-625 659 -203 0
-901 -611 612 0
-451 414 196 0
987 -90 642 0
-508 295 604 0
-25 751 -162 0
-178 -747 -723 0
-775 564 -150 0
992 634 948 0
208 26 447 0
-817 132 -934 0
-396 -213 257 0
-351 -886 -687 0
-379 85 404 0
953 -510 43 0
490 -850 97 0
71 -506 -477 0
128 816 -422 0
807 893 811 0
217 -309 855 0
-276 -965 -662 0
-157 8 -262 0
-959 14 127 0
19 -932 -149 0
223 150 57 0
10 -278 -342 0
-758 -136 367 0
601 -611 -335 0
471 -985 869 0
-473 935 -909 0
-469 -725 862 0
727 -874 134 0
-898 432 497 0
-893 77 1000 0
337 -927 666 0
-860 -311 -67 0
-359 -723 -550 0
680 911 889 0
-573 681 -47 0
103 307 -713 0
-692 555 -252 0
122 999 46 0
771 -556 -215 0
-735 499 -11 0
21 -355 -562 0
-265 -498 -700 0
-80 -968 236 0
880 -72 397 0
108 -799 336 0
-181 -666 -11 0
24 104 706 0
606 -736 818 0
303 594 694 0
-802 -47 882 0
829 330 675 0
787 348 -419 0
-327 981 -422 0
791 428 -826 0
785 737 -132 0
708 -536 398 0
469 782 -853 0
-348 -657 -346 0
-31 -870 -638 0
314 -263 466 0
946 -25 13 0
-807 90 783 0
369 407 -578 0
593 -191 132 0
-656 -1 -253 0
-753 -678 -790 0
759 -685 36 0
701 -885 944 0
801 272 425 0
466 -162 -852 0
572 454 90 0
-107 517 -83 0
-823 -546 895 0
364 -761 433 0
-755 -333 -419 0
-424 242 608 0
388 -400 -887 0
-602 -941 -369 0
-627 -505 -953 0
549 -28 -61 0
101 564 -282 0
624 675 -236 0
256 -239 434 0
-694 -892 -696 0
-166 835 -327 0
-536 -389 593 0
395 300 193 0
-939 -336 812 0
167 -304 -406 0
460 141 -979 0
700 -195 -165 0
983 225 799 0
-603 -350 -333 0
-521 313 -415 0
92 -118 -357 0
10 -927 -203 0
862 197 -754 0
-252 150 533 0
-629 -623 166 0
-725 260 213 0
833 -180 627 0
372 -180 -273 0
-146 632 -239 0
-928 -161 516 0
-601 467 -156 0
-485 -611 440 0
-501 -628 101 0
796 -521 -368 0
915 77 890 0
-5 897 -637 0
-548 123 -646 0
369 -981 642 0
-4 -421 -836 0
-949 380 -998 0
231 896 -972 0
336 481 -910 0
-40 -72 154 0
271 469 -414 0
918 841 969 0
260 542 615 0
160 146 -34 0
-10 -799 -616 0
62 700 680 0
688 -463 -418 0
885 952 205 0
-371 -631 -717 0
-664 358 -837 0
-6 736 180 0
-60 -795 36 0
-311 -726 -460 0
849 585 726 0
-35 944 -411 0
916 953 -825 0
-275 -307 -57 0
320 471 225 0
921 -284 -917 0
-145 505 -273 0
-783 -466 74 0
709 -917 482 0
848 -736 -366 0
-636 301 -546 0
269 -964 802 0
423 -682 -236 0
296 -787 864 0
-750 765 526 0
357 -583 815 0
-724 -823 498 0
729 178 438 0
-212 50 896 0
64 -850 66 0
-852 -951 -60 0
-945 -444 220 0
392 413 124 0
215 -274 56 0
-724 -132 -760 0
-678 -534 -685 0
385 -9 627 0
-613 744 -489 0
308 -632 377 0
224 705 -344 0
891 -443 -268 0
351 922 35 0
-485 -545 618 0
556 -585 -159 0
402 -256 -542 0
-88 -656 -891 0
-110 -101 119 0
875 16 737 0
-579 -492 -160 0
7 -906 -643 0
207 513 -943 0
-676 -883 707 0
685 275 562 0
-231 -886 294 0
-498 -907 652 0
-276 144 840 0
-882 631 -122 0
951 -955 697 0
-961 898 96 0
725 -818 -135 0
-939 993 -768 0
-956 762 900 0
-250 -982 -411 0
934 588 -942 0
-469 -658 -714 0
163 -91 826 0
121 -316 -616 0
350 -398 49 0
-2 445 -222 0
-383 712 748 0
-441 69 -423 0
633 572 -667 0
-454 -190 110 0
991 -60 -819 0
-860 -954 912 0
131 -597 398 0
236 813 108 0
677 -89 -79 0
391 -414 -442 0
647 -789 -257 0
-678 153 -371 0
-858 -672 193 0
-92 -593 -517 0
69 878 -532 0
-128 -52 185 0
-222 -887 314 0
740 -639 -23 0
80 310 890 0
369 -484 -99 0
592 -953 676 0
-973 784 232 0
-918 687 -194 0
38 179 -363 0
-326 -574 961 0
-598 -398 -913 0
-938 584 -949 0
-484 -378 752 0
164 -997 193 0
204 -540 850 0
617 1000 893 0
-6 -615 -166 0
744 79 913 0
839 -113 118 0
660 24 -355 0
839 -486 151 0
-945 -539 -191 0
-139 558 -112 0
335 572 952 0
753 584 901 0
79 -631 -728 0
634 10 -489 0
-729 664 -853 0
-67 982 -975 0
-484 -11 679 0
74 232 998 0
235 -670 241 0
-100 556 169 0
186 -145 852 0
993 -598 626 0
-5 11 -500 0
532 -784 221 0
-379 617 583 0
-779 -36 -509 0
637 800 743 0
247 -506 981 0
797 -430 -282 0
-633 -606 -897 0
387 732 627 0
125 29 -24 0
422 578 117 0
575 -304 4 0
-732 -197 -917 0
-731 546 387 0
430 -926 951 0
-565 543 560 0
198 435 55 0
943 523 526 0
718 994 218 0
-274 770 455 0
-284 -249 -158 0
151 734 308 0
250 -878 -647 0
122 -550 -507 0
924 -871 684 0
618 735 -750 0
-697 -402 -51 0
194 164 -41 0
-213 134 -421 0
-277 402 510 0
814 746 -979 0
-495 151 -946 0
278 778 903 0
647 236 64 0
-309 337 -763 0
-907 -277 -816 0
7 753 -952 0
815 743 -862 0
-944 -384 -185 0
632 -136 -752 0
217 -563 -214 0
531 656 942 0
-504 -358 757 0
662 789 -791 0
-908 -89 -926 0
947 733 -468 0
282 -309 -987 0
-455 -107 -301 0
65 386 -558 0
-158 -384 -219 0
165 -395 -836 0
159 41 -341 0
-528 -767 273 0
-536 461 -489 0
-62 -525 -265 0
90 717 -599 0
484 719 -699 0
-762 765 610 0
-689 -770 394 0
-428 -366 594 0
-232 750 421 0
-949 -592 -108 0
-767 803 380 0
-547 97 -874 0
21 560 423 0
-208 -413 -323 0
-328 197 767 0
-342 512 929 0
218 248 378 0
-751 -490 529 0
-896 -127 376 0
-65 -525 439 0
72 -524 -460 0
-556 -599 442 0
862 2 -424 0
811 853 -531 0
-69 -914 951 0
-349 360 287 0
-433 -802 411 0
343 955 972 0
-789 -878 481 0
968 402 490 0
-699 759 -581 0
896 947 648 0
267 -594 70 0
-872 -706 -479 0
-943 4 -928 0
-839 -937 371 0
986 -497 811 0
-411 759 720 0
-183 -960 -202 0
319 385 -243 0
742 -720 -552 0
686 546 571 0
6 -375 -132 0
361 736 406 0
156 537 -746 0
93 -643 680 0
-786 406 -852 0
-471 952 -475 0
192 22 -179 0
-987 -861 103 0
131 684 16 0
584 123 776 0
191 60 127 0
-99 -386 417 0
-883 739 -379 0
-839 647 924 0
590 116 -660 0
448 -967 881 0
239 473 -5 0
-713 572 590 0
-623 440 904 0
255 -626 -649 0
839 -38 -988 0
326 471 -88 0
-919 -368 923 0
747 -341 830 0
238 -279 -782 0
-575 666 -316 0
-970 743 339 0
900 -147 -636 0
-14 -567 -925 0
-474 384 862 0
38 204 -911 0
-674 235 914 0
770 -236 -488 0
93 -843 -507 0
770 80 -401 0
619 -514 -795 0
297 502 -901 0
138 -679 -526 0
-561 -925 634 0
759 -512 803 0
591 991 183 0
810 -731 -511 0
306 -987 407 0
310 933 262 0
456 226 126 0
-312 357 92 0
403 8 556 0
-968 278 -157 0
-297 461 733 0
-689 -181 -279 0
-32 -47 -143 0
18 -707 -615 0
-453 -984 -18 0
889 657 368 0
-506 425 -996 0
14 994 -118 0
-259 540 -832 0
