c Random CNF with variable clause sizes (2-7)
c 500 variables, 1750 clauses
p cnf 500 1750
353 -311 -86 381 -421 484 407 0
388 256 -300 -270 14 0
185 443 0
129 437 -417 -433 309 0
52 43 0
-452 278 -186 0
325 -134 -125 0
310 -265 475 -314 0
-461 132 -169 73 373 0
-32 264 477 492 5 0
364 -217 -253 132 -86 240 27 0
87 -349 -196 152 0
-221 -124 0
38 403 50 -178 -464 0
-438 -38 -325 -215 -180 282 0
447 158 -78 94 0
-227 -231 279 67 -345 0
364 -317 -495 0
-402 -57 193 0
-472 181 399 0
78 -296 70 0
179 -418 160 0
-1 158 -341 403 -264 -96 -205 0
474 -92 0
-142 -332 0
-310 357 362 179 0
79 -498 -93 -495 -377 -464 -400 0
221 -247 70 0
255 -178 214 -429 -462 -406 0
193 -487 -37 0
-173 -175 359 -441 -363 -178 -39 0
-412 288 -291 -250 -443 415 -66 0
-228 -429 488 -199 -5 0
24 -208 0
-143 -164 428 404 -392 140 0
-84 -82 -332 124 -448 0
-406 127 -168 94 214 160 0
48 -177 -495 -28 200 162 23 0
158 327 310 0
406 -187 0
140 323 0
-319 418 447 321 0
418 175 166 283 117 1 0
-464 265 245 -284 -4 -370 29 0
-231 -235 122 268 -466 -471 0
70 -379 -223 267 488 -413 0
-239 -167 145 41 0
114 -487 401 -174 -189 -435 0
-460 -491 0
-196 238 -275 -294 437 486 -122 0
-316 266 486 -281 -199 0
-62 -167 77 0
-10 186 8 243 0
-183 433 -413 -384 -141 0
-36 -86 189 0
378 267 0
402 388 157 -161 455 0
-400 369 -391 -251 336 0
-406 -169 342 -260 88 0
218 489 379 -497 1 -287 0
-392 -266 324 -436 124 0
404 -390 71 -13 117 0
-346 223 358 0
-478 -436 118 -107 -415 -150 0
-217 -279 250 9 33 -109 0
344 65 228 -468 7 0
63 208 29 223 100 0
19 -499 0
374 -422 -201 -290 -482 -442 0
-58 28 0
-402 -418 0
-196 -25 -225 0
-182 -396 70 145 211 -374 -369 0
2 402 -261 -205 -480 -96 78 0
-8 -276 -402 -257 132 -187 -401 0
-448 -453 -339 232 224 106 0
240 413 -443 -303 -316 0
202 488 -227 -80 -193 59 0
-46 -76 210 316 -125 0
216 -413 297 313 0
-78 -421 263 0
-268 -434 356 0
-350 -445 -261 -64 0
204 120 285 -357 -265 189 324 0
143 357 -462 -9 -201 463 196 0
-259 427 458 0
-205 -317 -348 -239 159 0
-458 500 0
498 497 -156 413 -114 117 0
139 64 -479 -448 -141 -177 0
276 -56 184 0
460 64 344 -114 0
1 -355 0
131 182 0
-150 133 306 141 -32 -375 277 0
50 -39 65 -70 31 0
119 100 334 0
279 -449 -3 0
5 -132 -490 0
-57 432 372 0
189 -113 15 272 471 -385 0
-257 316 -108 194 455 362 0
-93 97 0
-191 -5 189 -343 -486 370 0
180 105 -18 -297 460 0
-5 154 -346 -61 -364 -331 365 0
-297 384 459 98 131 -431 0
-468 -131 0
242 -154 124 -334 0
-103 -358 488 -34 -296 0
130 -301 0
141 408 0
-242 318 138 27 77 0
-9 379 -458 30 365 -207 0
-245 -247 0
-81 -355 448 124 357 -330 -195 0
-488 171 202 -47 0
478 -422 0
-72 218 33 -5 326 -24 -387 0
-166 499 -423 332 -431 -341 0
79 284 110 0
47 71 0
241 135 -409 458 0
-9 60 -109 -417 236 416 -201 0
36 140 319 198 238 -116 0
407 -479 -362 -335 0
-473 231 0
-382 327 195 61 368 0
317 -80 -486 117 12 291 -315 0
453 -83 383 0
428 -500 -335 -72 -90 -132 134 0
-113 -215 93 -156 -190 0
-499 -10 -248 0
-31 -442 -233 324 18 0
-179 -28 0
-126 -362 31 217 294 0
123 14 -347 0
127 -319 461 256 0
335 -15 229 398 -376 169 -35 0
370 -304 158 -452 -306 0
-35 -176 -138 473 260 0
-264 -219 470 -412 -213 231 421 0
314 -97 -291 227 0
380 -290 59 366 0
-345 458 361 13 -71 0
-429 -83 260 4 -377 -301 0
13 -366 -453 104 213 454 98 0
-111 462 0
319 -275 17 -99 0
-304 330 0
-489 252 284 1 -400 -365 0
-245 -163 -279 -241 0
-219 -317 0
-375 234 -259 -326 -372 32 0
107 459 -398 0
-45 310 0
-309 -251 313 0
269 -324 210 92 0
169 -275 -355 -157 -471 0
137 -248 318 0
474 333 -495 491 294 -198 467 0
-33 -355 190 253 19 -481 -235 0
-152 -223 128 -447 -382 281 0
-457 138 0
291 293 -53 389 122 -134 0
148 -440 0
50 -457 87 -125 496 -300 0
172 110 -410 483 373 219 474 0
-181 201 -223 -157 -45 0
-437 49 -205 125 -203 0
-399 -12 388 -323 -94 0
-122 389 28 0
175 82 0
76 -107 347 0
58 -223 486 75 328 71 108 0
26 -14 -333 -243 153 -159 0
-341 253 457 -333 0
119 143 -61 0
-84 -316 358 -116 0
245 414 0
-429 -254 132 335 -265 -287 448 0
92 -422 0
403 -480 -302 316 51 0
315 -13 283 0
-90 -471 0
253 430 80 348 -6 0
-17 -367 -147 -341 -485 -173 0
445 490 156 -68 491 341 0
294 327 269 378 340 0
-372 -251 100 -272 -491 -191 0
-280 411 491 141 0
-191 174 -400 -466 -410 -327 -210 0
173 -323 -487 -491 464 -78 0
368 -75 0
145 345 0
465 -461 -238 61 359 -309 0
445 83 -140 374 135 37 0
-204 276 -442 -359 -472 122 0
-55 -37 348 0
322 -60 -256 166 -316 160 -451 0
-18 -339 121 0
33 -333 275 390 456 223 0
127 -149 -89 -300 0
229 240 146 -330 318 0
-18 -132 227 115 38 188 0
454 -250 0
334 431 -405 167 0
396 332 -67 0
-211 54 0
323 418 -1 163 -441 426 0
-151 -115 337 68 0
-114 -378 -415 0
-274 -257 436 -64 208 -463 0
-198 -362 467 113 -218 117 -335 0
-1 -373 -374 0
195 469 -342 188 258 70 132 0
-436 -88 -468 -2 0
127 344 391 362 -46 397 0
2 -243 23 0
-469 -355 160 -143 394 -425 -55 0
97 -229 69 0
207 106 20 -132 -367 0
446 412 199 0
475 -294 373 -158 270 10 0
405 91 284 240 -146 411 0
46 325 23 -348 0
-190 -302 -196 0
-71 -188 144 -16 -162 -416 182 0
198 319 442 316 1 126 366 0
-59 -211 336 99 -353 219 0
332 255 -285 -458 269 496 0
-379 -54 -483 0
279 325 51 -332 368 84 0
-197 71 98 -22 0
-237 -252 462 158 -25 0
500 -226 -321 259 -350 0
-414 -245 127 333 0
-316 182 0
-146 270 0
-51 -294 223 -80 0
-452 -285 0
352 180 446 -267 0
-367 -378 -398 500 -155 0
133 -61 62 256 -439 0
262 -186 -450 50 -102 -181 0
170 130 0
-321 138 -377 -454 -77 431 18 0
315 -215 -380 272 0
316 435 -53 -309 0
-118 272 447 289 -425 0
167 -409 0
28 -205 41 383 428 -420 -314 0
-131 136 228 -321 0
-394 -330 91 75 -460 110 -160 0
-116 158 -299 307 -276 345 465 0
-357 358 67 -41 393 0
132 284 0
-25 -382 101 0
-68 -135 298 -249 92 -365 0
-486 381 -91 -137 242 0
450 218 -372 156 -208 0
-471 188 -68 -205 -114 -455 0
290 -289 -190 340 455 90 0
478 -143 434 439 -476 28 0
243 -449 -296 -336 -135 63 0
476 -313 287 0
-231 -261 -66 295 361 321 0
17 -409 481 140 -166 0
15 111 0
307 -444 0
218 -138 -107 -102 402 -344 -122 0
-128 370 -250 -374 -47 466 65 0
-430 42 -232 -483 -462 138 0
-13 50 263 374 0
-411 238 469 188 0
405 -491 -30 -303 242 210 0
-178 278 -120 230 -426 0
-8 -217 0
-26 131 200 370 -297 360 0
283 94 323 -44 269 0
-264 435 348 418 -496 413 395 0
-109 497 -135 -230 122 -52 0
-455 186 -407 181 454 -408 0
-336 -481 -440 -69 -447 0
-249 2 362 0
-169 -447 298 -462 12 436 0
140 -407 389 -133 -147 -205 0
461 -317 95 152 483 331 0
-496 -486 239 -443 53 35 0
-60 -443 0
-265 -300 -459 0
334 -487 446 337 310 -13 -100 0
-137 396 280 151 0
186 -461 0
361 -144 -230 18 -430 0
384 -239 -454 404 424 15 0
313 -164 -20 -319 199 -160 0
218 -34 0
-298 -330 47 -364 0
58 -370 -405 -213 472 -408 85 0
363 472 450 -275 0
251 -319 -42 489 0
-288 498 -62 144 -250 39 -133 0
81 -421 284 357 -51 -12 0
-349 84 0
-283 -396 -213 152 -342 -156 78 0
192 422 430 -452 -13 -266 169 0
204 39 -440 -65 463 -143 -62 0
-249 131 -218 417 -418 48 52 0
333 -248 128 101 -392 -395 -185 0
-212 372 36 -266 248 0
380 -435 262 220 -110 202 0
169 -262 -414 -53 -442 -250 0
-388 280 0
160 -359 381 -217 0
31 -1 132 40 0
51 95 -172 -493 -299 -202 -106 0
263 135 254 209 298 0
113 459 -298 291 -302 -79 252 0
403 246 254 0
220 324 -325 225 -226 -411 0
410 -292 -367 0
351 -455 -322 315 129 86 369 0
-487 480 231 434 0
-187 439 -440 -73 119 472 260 0
55 -203 263 -247 49 0
-147 363 374 -298 -97 -459 27 0
109 194 226 313 350 306 0
311 -9 -14 -361 0
-281 423 181 -297 372 -184 259 0
234 -89 212 -157 435 -174 -313 0
-326 117 0
-354 51 -31 199 0
108 -119 367 -465 -6 412 0
197 446 -478 381 0
236 -217 -158 -322 -91 0
33 -361 -95 -56 0
-86 313 272 -147 -498 -483 0
-480 -329 0
-179 66 -318 0
423 130 184 0
-310 -449 -480 -492 -269 214 -400 0
-69 -1 -21 0
286 -106 -41 231 0
-265 -223 0
13 120 0
-142 -261 167 109 -371 -333 0
-81 120 -263 -273 262 0
-24 -65 -48 -479 0
-297 -6 149 -157 26 -83 -388 0
-137 -283 20 -384 450 0
347 -291 -304 157 0
130 357 0
260 163 -48 -26 0
198 -495 -202 -162 307 0
-217 330 0
241 -132 -221 -416 167 0
471 323 215 -106 -183 0
-285 -472 -95 0
-255 232 -209 -382 -422 221 95 0
-301 239 322 -411 0
-43 285 -125 240 -349 284 0
267 214 11 -368 -330 30 0
460 -101 0
-246 -479 0
193 412 212 -176 -357 302 274 0
-138 193 0
-215 498 473 -102 0
-236 -176 -87 -266 -272 0
282 331 310 -413 0
374 69 -285 0
-393 286 439 461 -448 142 0
287 -180 471 -472 -350 -309 0
-215 -353 0
-379 -5 494 0
-33 -434 -324 -464 183 0
-322 -83 0
306 -227 128 242 -271 230 -156 0
244 150 0
439 366 409 0
315 -200 -108 214 -95 -335 264 0
486 -271 265 3 0
307 185 -33 319 -423 0
8 128 357 0
83 89 352 460 -306 0
-232 177 -124 398 283 0
-248 -259 314 -360 0
187 474 0
-361 314 315 98 -419 -88 11 0
382 405 0
281 492 370 212 -213 0
-159 -210 215 458 -448 0
246 340 306 120 0
46 1 102 444 -319 -427 0
-336 4 -161 0
-255 54 447 -449 -284 429 325 0
416 434 -61 -289 -342 0
-325 -389 0
-173 399 -2 360 -4 97 0
-435 -359 184 -486 -41 0
-243 471 -495 -202 390 0
-259 316 261 286 -324 0
395 -21 -198 167 130 6 0
-295 -66 -324 100 246 0
-2 283 -419 484 485 0
11 -390 -415 395 -137 -482 323 0
18 421 299 45 123 344 0
-280 -334 281 268 0
-135 -443 65 -267 -214 -347 0
17 451 -388 -112 0
-181 -484 417 -224 -289 23 0
248 -258 463 0
-211 261 -428 77 -404 -87 -326 0
340 6 0
335 -401 234 -194 0
-74 425 99 -436 -277 0
-282 436 308 0
-184 -55 406 0
-93 -390 0
165 -256 0
461 -67 160 62 144 -319 0
58 -434 341 -146 100 0
250 -239 -144 -120 -339 356 -316 0
409 284 51 0
-496 241 302 -169 0
-104 342 260 -230 0
182 -137 0
-356 -109 -116 225 0
-473 269 0
-490 -175 -407 254 -103 269 0
-227 -322 0
89 -298 -448 162 -494 468 26 0
397 50 -478 -410 273 479 60 0
381 324 332 399 0
452 -443 -369 -101 -71 199 0
-228 230 -227 0
4 -426 0
465 -278 374 189 317 -91 0
327 25 -497 0
430 -194 0
169 -392 123 -2 440 274 0
-412 -312 -4 306 -493 -80 0
-379 -213 85 1 0
460 490 343 473 -438 0
224 -465 -368 323 0
254 456 -176 32 -6 28 0
407 39 400 0
-111 314 -169 156 0
-190 92 -308 211 161 0
-269 -53 124 490 -362 -110 -477 0
284 -42 325 14 0
134 -65 469 304 0
-169 203 -369 85 19 52 0
-447 -255 0
-247 -410 368 -321 -251 10 -407 0
-438 -477 312 363 -294 -174 214 0
-69 160 450 331 259 -459 0
227 -69 -228 0
433 -48 -206 167 0
415 439 413 174 -368 197 -211 0
51 -97 -219 14 0
-456 -120 -253 0
229 -85 -401 -113 -59 207 -253 0
-111 272 -239 0
238 -272 20 -124 0
448 -410 409 0
323 -325 -65 -70 424 382 475 0
328 329 -412 -448 -77 -143 332 0
-403 94 -119 88 139 0
-421 10 122 372 23 319 0
384 -352 395 0
79 282 0
-225 -300 0
-71 393 312 -149 134 0
-472 265 65 0
-387 -469 -120 -325 0
-15 147 415 -205 52 0
58 -108 0
-199 -253 240 0
398 172 400 45 0
-173 -296 -375 -15 -322 61 -144 0
425 94 304 -9 213 0
-127 -324 -260 0
-446 -103 -23 -261 0
-206 -100 0
-28 -54 149 103 -337 0
467 -360 19 -203 0
424 -34 497 474 -313 0
-255 -137 319 81 228 -88 0
190 38 486 -46 -246 0
-81 158 0
289 -104 139 -319 -176 0
449 261 218 133 0
494 188 -423 -45 0
5 -299 -120 -293 -301 -402 0
-153 -250 -19 -285 407 100 -114 0
175 315 -392 -492 76 -69 0
-429 -276 0
-257 -93 445 436 -497 0
-98 432 348 -54 -422 -207 144 0
-5 380 0
-436 268 -261 -336 -24 -486 -291 0
223 208 -218 -337 -288 -14 -43 0
-92 18 -165 -49 -490 0
152 -368 0
-214 486 0
-126 112 465 282 348 321 159 0
-53 -473 -92 0
24 -58 -342 57 252 0
246 231 0
197 312 238 -360 -293 -74 181 0
-320 265 324 -62 310 -383 -364 0
-109 211 -328 -181 0
100 -296 -157 471 -92 0
26 -252 369 -235 229 0
-460 251 -49 219 119 -402 0
41 405 -130 342 -396 346 0
-200 -294 36 399 281 -143 -450 0
432 178 -27 213 -211 45 0
-308 -442 -123 -57 211 -280 -438 0
-434 136 -417 0
209 -180 470 178 -205 -266 0
-234 -320 232 249 -212 -250 176 0
110 124 -387 -197 86 -217 0
-284 -233 -56 -202 469 359 355 0
-466 10 -209 0
-306 317 -355 481 145 0
-166 -45 358 147 -242 249 -477 0
-124 390 361 0
-352 298 -394 0
-215 -116 0
232 492 -390 -170 -240 0
-58 -473 226 256 482 -172 155 0
-64 54 -116 -12 469 0
-99 461 457 -297 -62 0
-89 -196 -73 -442 286 -166 0
322 146 63 352 0
342 84 -384 -82 -321 114 -388 0
381 -330 -25 -4 -66 0
118 -262 -2 298 496 0
-193 186 44 232 0
-112 263 420 -174 0
425 438 398 136 167 -114 0
22 101 57 255 -23 0
14 -116 353 30 0
-162 -431 276 28 0
189 352 0
391 -216 240 0
-408 -6 304 -17 -293 -420 -62 0
168 140 0
75 -53 0
-154 -267 -373 54 127 -415 426 0
100 -292 311 242 0
-167 -406 -158 499 -95 -408 -14 0
-12 -60 -133 0
-246 250 -395 0
-50 10 393 -151 -490 -268 -387 0
174 472 425 310 -280 0
342 344 -25 -157 218 0
-129 262 456 -381 0
39 -152 93 336 141 -494 0
-126 404 -339 -324 0
-40 320 384 0
372 -172 129 0
-195 179 490 -48 -466 0
-11 -319 134 466 -24 243 0
-115 192 236 -489 2 -12 0
-421 467 91 41 109 0
422 192 -112 -456 199 -177 0
56 358 414 345 0
372 -174 36 128 -54 0
-53 -91 0
-285 450 -20 0
-390 -482 -225 0
-333 -217 0
474 -101 0
-409 -297 0
197 -1 161 264 0
-471 -59 -37 202 362 276 -292 0
285 -322 0
216 23 -426 39 384 -472 0
-184 -346 -234 -15 283 -373 0
-250 74 469 179 0
407 226 0
-301 -8 249 0
-268 151 -57 0
-204 -106 36 -105 0
-170 8 -243 0
-253 177 494 352 83 -343 0
-438 -74 0
488 -363 -385 2 -432 453 0
-211 -214 0
205 116 225 174 316 0
375 -422 -14 0
-442 307 -82 -15 18 -85 414 0
-482 144 148 163 239 -119 -287 0
-135 46 383 432 -332 149 0
444 15 305 26 -111 0
-214 -164 -356 199 0
381 218 -123 -219 0
208 -44 148 -21 270 328 0
-252 -17 -384 26 -181 0
-413 388 -438 89 -456 170 107 0
-31 100 -125 466 -142 -414 475 0
132 427 416 160 206 -480 0
-194 -350 -248 -372 -190 165 -277 0
190 346 381 -258 0
373 152 57 23 124 200 0
-340 -99 -34 0
366 -121 -79 -122 -140 0
435 -285 -440 0
-466 -493 418 322 309 0
437 153 219 0
186 126 22 -221 184 278 -179 0
-396 168 469 436 -201 -322 0
302 405 -142 -213 232 410 0
35 -125 247 0
250 234 -128 0
-248 499 273 -342 81 190 -11 0
345 320 -293 -123 -444 303 0
158 -116 386 473 30 228 0
-239 -360 165 382 117 4 377 0
188 -335 -255 53 466 419 0
-119 -139 255 -23 0
-213 -251 0
-220 -290 2 -152 0
-296 -406 0
-378 -478 -351 0
165 7 170 0
17 -415 256 134 0
-437 74 351 -167 256 0
-384 -238 -69 0
-174 -367 334 65 -207 41 -72 0
-79 407 -228 0
202 -358 65 -346 362 -311 -36 0
193 157 0
-246 -318 211 247 220 239 0
-136 317 -491 -242 343 -169 0
70 -442 -195 0
380 57 457 455 -226 102 113 0
364 32 -25 0
429 -392 361 0
-422 -388 132 0
-379 -409 -271 125 0
120 -500 4 -242 467 0
-256 -497 185 206 29 -193 150 0
262 -117 369 29 490 0
-148 95 200 -108 82 0
497 -20 -320 453 -9 0
-117 219 347 -198 298 0
262 -46 243 298 -451 -204 0
-222 -348 -129 -225 0
-54 452 -479 -258 214 0
-125 -437 -338 -326 0
19 -359 123 197 -211 227 0
-400 174 46 -349 -497 479 0
427 -459 0
27 -137 -400 -185 -330 376 0
67 214 -411 128 0
229 286 -254 456 -214 -408 0
-88 -203 -51 -473 -419 0
302 -326 295 -303 214 453 -311 0
-30 -311 168 -457 -433 22 0
148 -169 0
-325 290 241 0
-316 -217 -47 -165 0
-448 -283 254 -480 -418 -203 0
-237 104 -426 275 359 -132 0
164 -436 -91 -334 7 0
492 -259 434 495 42 -494 442 0
469 437 254 158 38 -152 0
282 -118 399 432 -311 202 0
-442 490 0
-247 -279 0
-244 -226 51 0
483 -15 0
-408 8 383 -180 101 255 0
432 -172 0
-286 -82 25 -353 -145 403 455 0
-94 296 -236 245 -258 0
-303 -455 -273 -168 -60 -488 0
-179 -214 0
-35 89 0
-497 -45 0
168 -69 -495 20 -31 142 -455 0
-329 -94 -21 -150 348 0
-421 -50 11 290 308 -154 0
-363 183 337 -204 0
-114 -185 303 0
-271 -92 -340 406 -202 0
110 -466 408 70 -365 -497 -428 0
-24 -88 0
-477 -167 221 -356 -472 284 485 0
23 -132 -158 234 0
-235 -189 -361 0
-388 247 251 163 -109 -367 0
286 18 0
387 67 327 440 459 -70 0
-90 -487 -347 296 -404 151 0
-457 -315 -477 467 -389 414 0
-277 71 53 82 -282 49 -224 0
88 132 -337 214 -449 -242 142 0
207 484 -436 206 -77 0
257 17 186 265 0
-168 -500 111 -349 221 -79 0
245 80 0
82 69 397 -308 -95 233 0
-32 -355 39 0
421 470 14 -149 0
317 -96 164 -466 354 149 220 0
-468 -419 -352 463 -174 0
15 3 -34 0
194 404 476 499 -44 0
55 1 -130 -129 0
228 -39 -245 53 -342 347 0
50 472 -457 196 0
178 3 40 112 0
202 52 0
299 -101 -237 19 399 0
57 -304 13 0
-238 112 494 -384 -261 119 -221 0
260 -488 100 0
-135 499 214 4 0
180 191 -356 402 250 -258 0
-344 -89 247 -242 320 0
-115 242 405 -370 -356 279 0
28 15 87 107 425 -99 0
-93 298 0
126 246 -238 0
484 -321 365 -373 17 0
-84 214 -351 370 0
129 -127 -264 0
163 -372 0
-219 -128 0
-399 430 -424 -180 281 -226 154 0
309 -467 170 270 -140 0
-309 -66 181 0
57 254 226 52 472 0
-19 336 -345 -377 -420 -96 139 0
-14 -122 -166 -8 -369 -136 -107 0
-355 436 30 -422 215 160 0
-331 276 288 482 82 112 0
-190 236 -210 157 292 0
-196 -243 493 478 -332 247 -211 0
-162 201 -114 0
-97 51 333 -143 -127 0
322 -68 -114 445 -299 149 -187 0
-95 -253 -160 -402 266 0
62 -69 366 209 0
-179 -453 391 84 -149 323 -339 0
-343 -24 10 -50 -232 0
-88 -306 -46 -219 0
-137 230 -55 374 0
305 -384 -105 30 0
-11 -188 0
-79 137 223 0
472 -270 -469 0
246 -256 0
-401 137 372 338 -260 0
-329 308 -342 -305 -427 271 413 0
-300 -440 308 -133 -95 -78 0
-99 -24 383 244 241 268 472 0
-202 -478 -76 -41 0
485 359 0
379 -288 -118 0
31 346 -57 -446 0
399 477 478 100 18 -247 -11 0
113 225 -452 273 423 -412 -477 0
-486 -171 85 212 -105 95 45 0
84 -72 428 -159 291 47 50 0
300 437 -299 0
451 -206 -142 -30 -233 -37 0
75 430 309 284 497 0
201 -40 374 -116 -305 -152 0
-102 -422 -82 -176 0
364 -479 -451 -279 157 -489 -64 0
395 152 60 -20 -158 115 -213 0
-430 -76 -473 0
176 405 253 0
446 58 456 -215 -498 0
-96 -82 -195 143 214 397 0
57 -334 -333 165 0
-66 -125 -350 0
397 -88 46 -269 0
100 74 445 279 0
228 -468 38 292 -357 -107 -52 0
-362 210 -310 340 330 0
272 -383 0
491 384 387 -334 -172 45 127 0
-446 459 0
-220 -316 0
-361 320 365 0
-55 -301 314 -389 0
151 225 0
-334 396 -307 0
457 37 -312 -459 73 -103 -207 0
-329 283 0
-475 -35 0
-487 -313 -133 -394 334 401 -235 0
-19 -158 377 0
185 370 -62 83 0
-204 444 -282 231 0
200 -253 87 176 95 309 -242 0
-91 -365 172 -438 358 0
-1 -29 497 0
340 -138 0
463 -266 9 -195 -257 0
-300 -87 0
-345 420 -446 -50 0
-485 -148 -107 -421 -291 159 0
-293 281 -228 0
494 -446 205 -223 0
167 -229 -280 166 0
474 -31 0
75 309 0
197 457 486 147 -109 -188 132 0
275 -135 -95 0
251 275 3 378 -298 0
112 191 285 -403 -30 437 0
-211 34 0
-38 125 -145 198 -393 0
453 -128 86 -301 310 134 0
-216 350 203 139 -56 253 0
-160 150 -78 0
205 -282 -298 209 441 460 132 0
313 140 192 -257 0
136 -219 10 331 0
232 281 221 399 56 0
139 55 -366 0
245 342 0
29 -426 28 -48 9 -410 0
-105 -363 -165 8 118 109 -47 0
400 325 160 -242 -454 0
466 -232 0
125 413 117 45 460 -180 154 0
197 -427 -206 -407 373 -368 343 0
186 234 453 0
442 425 65 0
267 -381 -402 191 -363 75 -58 0
-164 -441 120 324 -326 -465 -336 0
-133 -377 65 -383 0
-298 -320 -399 295 0
-398 78 -364 366 278 -463 -39 0
-78 499 -88 -498 128 -411 43 0
139 94 0
147 165 -303 32 0
41 -388 262 -479 343 401 49 0
472 -276 0
-211 -73 34 349 318 -400 0
-241 -470 -93 -97 0
235 -308 389 0
-171 394 -62 301 -292 275 0
43 -238 -389 -247 0
462 -206 413 342 66 0
-332 -479 -350 293 -227 -494 0
-313 346 151 -417 119 175 -305 0
393 337 -468 145 0
212 458 0
-274 150 13 10 -206 168 159 0
-477 405 0
420 -210 -242 434 0
-267 4 -459 314 0
106 275 201 0
181 -396 198 360 211 -409 -94 0
-287 101 0
273 -459 -104 236 272 -358 47 0
-319 -198 -418 0
-134 497 -104 191 475 0
-280 -154 0
358 -5 -49 0
473 -37 -321 138 127 -278 -420 0
-226 -320 -160 418 -309 -287 -206 0
78 -106 77 365 0
-205 -93 114 0
376 365 13 0
-500 52 352 98 0
29 183 -371 0
-149 300 -303 249 158 470 319 0
18 -276 29 0
358 217 163 209 474 30 0
-375 209 -111 461 178 0
-361 -331 -152 0
-306 41 0
286 352 441 0
-440 211 -307 190 -41 -275 -402 0
444 -404 -297 398 0
357 459 327 -383 -112 -132 163 0
219 467 416 -457 0
154 -389 292 94 271 0
4 402 -274 253 0
170 -204 48 11 449 -300 21 0
141 -436 0
-258 96 -206 -492 453 -435 0
-180 -268 -94 -310 0
-282 278 0
330 468 -119 0
-475 166 183 401 420 342 0
405 -407 0
-164 -240 -40 321 0
89 -387 200 -149 -425 409 -165 0
54 -288 -424 343 0
363 -273 -295 0
236 -76 -117 0
-395 489 -282 21 344 234 414 0
-341 392 7 0
-458 -36 -170 348 0
245 12 -59 290 377 -271 -79 0
70 386 241 14 476 -474 298 0
-252 -298 -20 199 183 261 0
147 477 497 -479 0
320 449 -332 -231 113 0
289 167 478 0
117 -188 55 -121 -421 106 0
-23 -400 96 -208 -420 430 -425 0
-170 -441 0
335 -193 0
197 42 -241 0
-80 232 49 -402 177 0
-385 -373 343 -388 -431 -18 233 0
-236 271 385 465 442 -3 0
-139 155 313 -69 29 0
-135 232 0
440 -1 -299 16 0
-461 157 -1 28 272 0
361 42 0
-330 -42 0
-122 347 74 57 0
-24 -102 363 -380 0
-298 -359 292 -459 -443 -387 225 0
446 137 0
-242 -184 -323 18 -407 -391 0
-340 284 -419 -322 -192 -429 0
65 94 -392 -188 496 -53 0
-191 -448 438 371 0
-16 234 1 0
-241 74 180 -486 -444 37 0
181 322 -448 -69 66 -458 0
61 -157 -114 0
-497 -348 0
122 -52 -401 0
-235 -254 -18 -203 -289 -15 0
35 -112 44 -293 398 0
-73 -95 423 -209 -89 274 0
388 233 -45 -312 -221 71 80 0
-19 318 209 83 0
489 -204 -341 317 255 -202 -213 0
329 -361 -39 0
-114 -358 145 -326 -168 -47 0
-478 -435 122 -7 263 -21 0
-239 -460 478 360 -95 0
118 142 0
100 371 442 0
125 257 -409 0
-408 -336 479 -164 -251 0
-130 -308 139 21 0
-94 -494 -401 -238 -470 -285 33 0
263 162 0
-113 -191 0
-158 -423 -201 -284 -462 0
232 -471 -205 0
294 127 -156 24 408 214 279 0
-163 38 0
-238 454 69 380 -235 146 119 0
-83 106 0
-39 133 -427 175 -239 291 0
204 40 430 185 0
340 -157 -290 9 160 418 -293 0
397 -34 460 -163 382 -220 99 0
-73 -246 -377 8 0
295 345 -176 -228 -338 422 -125 0
-103 490 -314 -460 -309 434 0
313 287 -207 -278 0
400 -460 0
162 -247 308 -221 318 476 0
-462 -492 -23 495 -458 0
-380 -93 -275 0
474 453 0
464 346 -206 493 -295 -235 362 0
447 145 -118 160 -399 0
-165 365 306 178 0
-449 282 0
-332 -497 462 -300 -213 -52 132 0
-375 -332 0
-114 217 -326 -151 0
-179 -482 -369 -81 -111 0
249 216 0
-317 -316 350 -335 0
-99 -396 232 -163 187 0
111 100 -335 -250 91 340 -30 0
-173 -400 -497 -169 0
5 -222 3 345 0
-47 -84 -295 -179 483 -330 0
-57 458 155 0
-108 -7 0
-114 -80 -444 40 0
-354 214 302 0
-133 -182 0
-253 38 0
140 -415 -106 182 -499 230 -26 0
31 -141 0
226 -12 14 178 0
-134 97 -347 493 -94 0
-406 -120 0
314 -19 -474 -496 0
-80 -178 0
248 -475 -486 389 -461 0
-300 -143 0
-296 -378 0
130 -267 -79 -409 0
89 -477 0
-5 377 378 151 -203 240 -243 0
498 -205 -57 -376 356 271 0
223 159 -129 -413 0
-195 163 356 278 6 0
174 145 0
481 -302 344 -138 42 337 490 0
-110 -350 247 -59 404 0
192 44 -310 120 -286 -257 148 0
-174 23 193 410 0
150 99 67 -316 0
474 -60 357 487 -22 443 353 0
478 346 -494 74 80 95 0
-333 1 0
-158 224 225 0
286 -370 -309 0
432 -295 0
-495 -447 -295 359 -235 -135 56 0
311 429 302 0
-487 -338 0
116 322 -26 0
-446 -189 0
427 125 202 -314 -339 -119 0
-466 205 -469 -186 -102 -345 360 0
473 -342 462 -387 -66 10 0
-17 43 0
212 341 422 -423 -260 -130 -464 0
-120 -66 -339 -130 444 -346 0
435 288 -170 0
173 -152 150 -101 0
-225 229 -12 482 329 -223 -45 0
-210 -292 -199 -328 0
-1 -408 320 -428 -232 0
-452 146 393 12 0
-256 -379 -133 -75 0
-428 9 81 -283 0
256 495 -396 20 0
279 -100 -274 87 165 109 471 0
-437 -275 0
-50 -123 457 94 -238 280 -388 0
-492 -268 -206 0
477 -171 211 98 -343 -329 -409 0
-211 440 -462 0
-341 -208 -49 386 190 483 0
-217 -284 0
-163 -265 -44 -21 467 -109 -60 0
-33 396 -293 -437 0
-213 180 -424 0
6 -20 244 330 -344 0
14 -215 474 397 -237 0
235 343 0
239 -18 145 268 0
435 89 -342 54 -8 0
473 -376 477 -308 186 427 235 0
-315 -354 483 72 251 -433 0
-410 323 -381 143 379 368 421 0
-283 -20 0
-245 406 35 386 -253 -324 0
-305 -410 117 -35 198 -59 0
-475 -191 452 -437 368 -7 -374 0
13 -70 -408 -465 492 0
424 43 34 -357 -306 360 0
248 -149 196 -256 -19 0
331 -326 291 -199 0
344 -107 -266 474 0
255 24 207 -295 -217 0
-389 -349 0
-68 -9 113 0
-322 -199 -352 380 -499 -111 0
358 -124 -248 213 115 0
413 268 0
-312 293 -488 -239 -224 23 32 0
9 246 -26 0
325 451 7 330 67 406 0
266 -374 484 0
-499 -268 180 0
-105 184 -313 317 303 194 -270 0
472 -282 236 -55 267 280 0
-454 -76 0
223 468 -304 340 291 0
-226 196 -328 0
210 184 -228 0
269 -376 -147 455 355 0
-409 198 -351 0
207 492 375 -40 0
-263 130 423 -4 -78 0
-108 453 320 -3 102 268 -319 0
76 263 -217 -467 -149 0
-38 482 -435 278 0
122 -326 -379 -212 35 0
352 -140 -204 77 -337 -296 244 0
208 404 -484 17 16 365 0
-68 189 263 -192 178 0
377 256 -97 -280 0
-247 -423 -343 -87 -421 77 0
466 485 -198 284 -277 107 326 0
-32 -259 -285 478 0
-281 -27 196 70 -89 -69 0
157 303 27 0
-136 196 248 0
211 316 152 0
-180 479 369 387 73 -49 46 0
-286 -218 -159 -98 146 43 0
434 -74 216 487 0
-156 -130 -131 0
-143 157 301 336 -109 0
130 241 352 434 0
466 -454 253 0
122 -188 0
-349 -443 -33 85 -336 0
-201 497 -349 115 0
72 461 53 -199 -306 -292 144 0
362 -356 -304 -255 310 -400 -155 0
184 87 136 0
271 498 -103 -113 173 0
441 463 113 0
-460 480 -490 0
-97 331 -27 -148 18 108 0
-470 253 0
499 -430 -23 0
494 -303 161 450 113 -235 0
-492 175 414 -484 390 0
-148 100 -96 -471 0
-257 18 0
-448 430 0
369 -96 0
251 -20 -245 -331 -255 0
353 374 -31 283 0
254 461 -451 0
-122 -179 0
170 -387 29 478 0
-107 -94 270 0
-125 241 59 335 0
-308 -248 -397 -211 197 0
473 -315 -442 -413 420 -218 0
-146 -197 0
-61 -360 0
-368 -30 -144 -289 202 -79 -425 0
-123 69 -353 450 81 0
-37 -95 -391 -286 355 320 250 0
-436 -40 0
-178 24 -201 244 374 150 0
-247 -108 -22 96 55 -359 392 0
239 -230 -406 110 0
196 -209 245 -385 -404 0
-498 250 -24 0
272 238 0
-416 404 259 172 -70 -461 0
305 361 445 0
338 485 413 464 -130 -436 0
-498 158 0
198 -210 -464 -269 -170 173 0
96 209 249 466 365 453 0
22 -378 0
28 364 296 0
66 272 408 -277 -490 0
330 254 289 220 -383 79 110 0
-306 -482 147 0
-135 219 -463 -26 0
-458 -417 373 267 0
237 461 -53 0
-195 -270 39 0
102 -199 282 17 0
-486 -467 -305 73 0
-244 -296 0
-352 318 -285 -69 -387 -475 0
289 -139 0
-68 296 -179 357 0
-226 476 -317 -2 104 -347 -94 0
19 13 6 272 405 0
447 385 0
235 411 -383 216 0
-250 198 -195 0
277 264 0
445 298 400 273 -286 -488 -145 0
-490 -385 0
-165 482 412 -42 -149 -226 0
-124 -13 468 -192 119 0
-370 24 -130 -36 0
227 -388 -284 158 345 -187 0
238 330 194 0
62 -42 -478 -72 -159 -289 0
-139 -477 219 27 6 0
165 332 264 0
269 -275 268 0
-437 -360 0
-144 -264 -138 0
-169 -263 0
-442 -237 -465 -440 33 0
206 38 -182 -418 0
408 429 206 -361 20 0
208 367 -123 -448 -69 -40 0
-385 321 -221 217 -48 0
303 -262 77 0
260 -50 -209 -41 181 -155 0
458 246 46 -359 250 -375 28 0
-189 102 404 -107 -335 0
476 233 358 -194 -493 0
-80 -78 0
153 235 401 -498 -196 0
-313 -95 195 0
-325 -25 39 438 -23 180 0
-240 32 400 -482 33 0
189 -420 0
426 149 -45 190 -27 167 0
355 -400 78 0
389 208 0
-432 -3 -137 128 138 136 371 0
-81 -109 125 144 0
116 312 4 451 -406 0
-124 375 -23 149 296 271 0
-498 -249 479 136 201 0
135 -426 172 -209 -464 0
308 307 59 -135 -232 379 0
306 -409 1 -338 -115 -460 0
381 471 -181 0
-96 75 -498 94 0
350 -410 0
-172 -166 -167 150 0
66 347 -238 -314 0
13 -370 461 0
390 -356 -263 -183 462 0
324 -121 -172 -455 495 -387 -28 0
53 219 132 -241 -18 -469 457 0
-180 428 -441 410 0
51 -356 0
332 51 187 329 0
26 112 -375 217 0
-252 337 -460 0
274 -188 372 -86 -417 0
-225 411 427 -364 0
-39 -244 -455 294 50 362 0
-18 -492 431 293 0
-235 -67 -405 -338 288 153 0
276 222 369 -441 197 462 -347 0
-426 -10 0
-268 145 -402 -175 133 311 -43 0
462 -164 0
-383 -421 212 0
284 -323 0
107 -359 113 0
145 -148 0
-413 494 -290 -161 0
87 -263 -360 -321 -26 350 0
-294 310 -166 -268 -488 0
-248 -366 109 -432 0
32 396 -68 0
410 319 331 -488 0
225 58 0
281 224 25 -188 396 0
-206 -323 -457 -279 -181 -458 0
-93 -358 -223 0
458 -54 -143 64 0
-450 183 -43 0
167 -366 421 326 184 -36 15 0
-47 -220 -170 -1 0
-317 52 165 -326 400 0
33 110 138 0
80 433 -37 0
-451 -237 -15 38 -285 0
-308 480 477 0
-397 -6 -445 -420 13 -115 0
493 -16 312 0
428 57 0
-33 -100 -347 42 -118 0
-212 425 -277 -247 452 0
83 -120 -355 0
499 -491 0
-112 498 0
386 -66 -48 499 0
168 263 0
233 276 -5 -292 -79 -298 -274 0
223 380 270 269 -335 82 374 0
163 314 459 178 -196 0
-370 -482 -51 211 119 0
-304 375 180 -483 384 150 0
-360 378 289 -199 -385 0
-275 321 -281 0
-228 14 113 79 33 15 -4 0
297 -279 154 419 -102 290 -57 0
329 217 174 212 -417 0
-189 -446 -374 -107 0
206 -68 106 155 370 0
-249 -263 -347 -3 -260 9 411 0
-425 -98 0
287 -81 0
363 -460 493 0
48 -10 0
-269 454 -297 0
-132 152 -21 0
-280 457 123 0
-225 -126 -296 -338 -377 9 188 0
-178 33 369 427 149 -439 0
-486 -15 -325 393 0
361 479 -163 0
143 53 8 0
-427 -251 -215 459 0
29 35 -105 -355 83 268 199 0
209 498 443 -47 0
185 28 37 0
-265 29 -151 -133 71 445 428 0
-262 -321 191 449 0
-227 -373 451 494 -88 130 0
-225 172 -41 -331 333 -433 0
376 -50 161 -3 259 0
320 -106 172 64 0
-420 -20 364 130 0
-251 337 -12 -203 236 0
-155 174 -469 -274 240 0
-209 -89 49 0
144 298 240 475 -455 0
-147 -444 -148 369 152 430 0
-425 -426 -160 0
100 319 274 407 0
289 99 220 -237 0
444 -405 450 -140 226 81 370 0
336 456 0
-157 215 -3 -500 81 -372 101 0
62 -310 468 388 -376 0
-89 -195 -438 -498 219 -496 -119 0
26 459 51 0
-64 487 173 0
-229 286 -120 6 -129 0
-469 -472 -473 0
377 -493 0
119 413 209 -447 0
-176 265 346 -276 136 199 0
333 80 -479 -154 0
-175 386 231 -449 316 0
-5 332 0
15 432 -52 -88 0
108 172 -128 203 -482 312 6 0
384 -156 -299 177 375 464 -83 0
-350 274 -181 -332 -252 349 -195 0
-292 -369 0
-215 166 452 326 -160 0
-489 149 399 487 -89 -428 0
37 -413 -97 0
458 164 0
56 28 479 0
-223 -487 -330 353 -158 50 0
-408 -78 9 -271 0
135 324 382 -478 -236 406 -482 0
477 319 441 158 -328 0
237 56 370 213 -75 -187 0
258 420 -381 0
-458 -206 -352 301 227 0
430 174 58 207 0
172 -64 -49 -235 452 0
447 -178 202 -93 0
-303 373 -165 -1 0
357 325 148 67 245 298 -265 0
156 -73 469 -247 0
-439 326 46 0
-415 -478 363 -197 0
-430 -345 491 71 132 1 51 0
124 -450 -373 0
132 -293 0
206 122 -273 453 444 168 -64 0
-385 -276 225 -47 -314 0
-457 -439 209 0
-87 102 139 304 315 -218 -25 0
-481 219 -197 0
170 -263 -266 -473 -279 0
-57 -10 0
264 -4 41 79 0
-197 -17 -277 -475 446 0
-320 491 -112 -475 445 366 -88 0
-274 208 119 -143 0
394 -35 -295 -468 171 -398 0
442 -404 432 40 0
368 -32 422 213 122 38 -66 0
-477 27 -118 0
267 495 0
143 -203 -162 172 307 -136 371 0
-477 281 -329 493 490 -200 9 0
379 -229 0
353 486 -173 0
-101 -464 397 69 388 277 0
213 -1 11 -96 275 -435 -227 0
171 -465 307 0
168 -267 -189 -323 161 0
-494 308 53 249 397 204 89 0
-168 -353 -495 -11 116 66 269 0
153 413 0
-53 -160 107 -271 -102 61 -361 0
-137 -105 -36 -310 0
266 -116 443 350 0
-204 -88 257 441 0
-225 339 106 381 0
176 -437 0
425 499 -434 0
64 -237 -267 211 -71 494 0
-476 -286 369 168 -157 0
247 222 -229 -157 442 248 0
-294 157 203 -213 448 0
-325 70 45 438 0
-271 -10 340 321 0
-232 228 154 95 249 -428 497 0
444 -197 177 372 -43 471 0
426 147 425 433 10 -364 0
83 -13 -287 -269 -413 0
228 -443 451 0
365 479 -468 0
357 -84 344 470 425 -360 72 0
-469 -41 -169 0
-319 397 409 454 153 0
319 200 -140 305 0
-375 -303 -166 162 253 419 -391 0
-421 -195 -322 0
344 38 -496 0
254 -347 0
-63 251 13 -438 283 -9 0
355 -72 279 0
-6 37 5 -394 174 -274 -260 0
-67 -10 187 -47 150 0
-450 -386 -285 198 -49 -27 -2 0
-369 300 149 0
-45 -107 16 -24 399 -302 -120 0
-306 119 -300 0
30 -228 356 -249 99 446 209 0
9 151 -311 -368 308 70 26 0
-169 -279 0
-372 -400 -361 169 0
146 284 477 58 -475 -327 0
-32 280 -350 -144 0
11 354 -440 86 0
94 197 212 -342 -392 -174 0
199 -433 -374 341 265 303 0
-123 362 0
251 128 333 352 -265 145 -498 0
-220 416 -203 266 129 -227 -39 0
499 287 301 220 0
76 291 390 -66 -432 -60 0
-136 268 231 -208 258 0
438 -53 -33 0
350 198 90 275 -245 34 0
348 -158 247 310 0
-211 185 -1 0
-31 472 -232 -20 376 0
4 -406 -49 -66 145 0
-450 195 99 278 130 487 0
412 32 -146 -354 0
-58 -161 -420 373 -247 0
180 343 298 0
-10 -184 0
-105 -110 0
-287 229 0
-479 -361 265 209 179 208 -411 0
-167 261 -226 -252 -383 -234 0
156 -178 487 -246 461 0
220 184 -399 287 266 415 0
-392 -333 17 0
138 160 316 -497 -351 58 0
131 269 -442 493 -444 -16 0
331 7 0
164 439 0
385 -154 -488 371 0
421 -356 281 0
-109 -418 -20 0
432 24 8 -269 327 70 205 0
358 -141 -403 335 -116 0
5 -160 330 65 245 0
-436 87 0
81 219 224 119 -110 375 0
413 111 -72 -493 500 0
-470 -384 -63 -78 0
113 247 -12 -115 -197 180 0
216 -223 65 299 439 0
289 472 -10 111 0
-472 -370 405 -156 0
-361 30 -332 -84 0
-294 -16 -136 -323 -171 0
234 228 165 0
304 -70 -9 177 0
86 -228 -352 6 112 -34 0
-348 -283 -198 -312 136 0
-2 80 382 417 -21 0
437 -422 0
-95 276 -70 0
-255 -49 -211 432 0
-23 463 116 32 0
-407 13 183 480 -173 69 0
271 17 -377 0
403 -380 32 -3 0
-218 224 13 313 -214 446 172 0
-138 -394 453 133 -191 445 428 0
352 -98 -214 -338 -271 478 223 0
-111 -146 0
-244 108 -34 0
212 197 314 0
-41 -170 -294 462 309 489 0
385 -240 396 153 0
-292 -466 -118 -251 0
140 187 352 366 374 0
13 112 -71 0
408 -338 216 0
-31 -262 426 158 0
-64 171 185 489 0
293 152 -492 218 -85 497 -405 0
493 -428 383 -268 0
-284 -355 -9 386 448 0
-415 -370 261 0
272 -412 314 300 0
406 -138 87 -166 -267 234 124 0
-428 446 322 104 -343 -97 0
-83 -32 51 -212 -86 326 0
-258 394 93 50 -298 130 447 0
-78 -306 -183 172 0
-364 -402 295 343 255 0
-113 53 -341 46 295 345 361 0
-35 92 -84 -32 0
-468 -20 -206 0
-150 300 -174 0
-213 -150 72 145 0
-37 173 -170 -168 0
61 -345 -452 -464 481 -330 461 0
-284 -55 -347 -233 230 344 -248 0
-114 -108 313 244 0
101 160 0
241 493 0
377 -25 214 125 -391 191 0
-320 255 -31 324 -107 -46 0
-19 -292 -238 467 438 -260 -387 0
113 -140 438 -290 0
-495 67 236 -137 0
492 308 0
489 -86 171 -143 193 0
-235 485 283 0
283 -484 0
-340 -440 288 -438 0
-400 425 0
198 335 0
41 -145 236 396 336 0
198 487 143 -461 -64 276 418 0
407 -284 73 319 0
489 191 28 71 276 393 0
442 -46 -219 -441 0
123 -374 453 0
-288 478 -70 -109 -498 310 0
464 97 118 101 272 -124 0
-67 -87 0
223 -166 -194 -172 -267 122 0
-346 154 -26 0
-227 -58 -362 249 64 -19 -465 0
409 -443 -34 232 -350 -59 0
388 -217 -365 0
-358 -461 -248 -283 -165 -348 0
-131 -224 -261 0
-332 -290 -254 36 9 243 455 0
-158 -17 0
-415 362 330 98 0
241 -145 89 48 -289 231 0
-220 326 430 490 420 41 -214 0
-227 331 0
-151 -487 360 -182 344 -446 -294 0
109 -73 397 -413 -181 0
-421 -168 0
240 183 39 142 0
-126 -494 -85 78 426 230 -265 0
274 -483 116 150 10 -248 471 0
-87 89 -2 167 -65 457 418 0
367 345 -76 228 -192 -44 0
202 -452 -244 -307 213 -249 0
-379 81 -101 -463 -217 -58 207 0
-364 215 -359 241 0
-178 180 0
-287 34 -117 43 482 0
131 -242 389 375 300 -189 -207 0
452 148 401 447 -168 -169 0
-395 -183 -207 416 -270 0
113 386 0
-63 -99 408 0
126 347 363 13 0
-241 -10 -165 0
-300 -388 365 132 199 0
309 449 -213 -433 -160 -129 -431 0
-109 442 -82 -215 34 184 0
22 -421 -78 -312 -2 0
74 -346 0
74 -402 -276 -103 0
-394 108 55 -3 -54 273 22 0
353 202 344 -29 -50 0
-327 127 -307 -372 50 0
488 15 244 0
-122 -355 261 -163 -303 0
58 -391 0
336 309 -123 45 360 -373 0
494 427 77 473 -271 0
-87 476 -34 407 100 9 -453 0
432 293 317 -322 323 0
-388 -124 -47 278 -415 -8 0
-321 314 301 145 0
-97 210 467 26 0
428 -179 232 -153 0
-219 -144 406 0
-12 -287 208 169 0
253 -498 291 478 -339 -423 0
279 -475 -132 269 214 314 0
218 -162 -477 139 243 -73 169 0
320 82 54 -232 0
150 -189 30 -383 -110 79 -314 0
57 42 110 54 -449 -160 0
106 -350 161 387 0
-261 138 262 192 15 76 0
-182 -258 -143 194 229 393 0
40 -479 -80 277 390 0
362 -444 0
149 -363 366 0
89 215 461 -326 -397 -122 0
308 313 179 -227 0
328 -145 -378 -103 0
-165 129 0
-460 -118 -179 -58 -86 -403 -478 0
-268 -440 419 0
-331 -108 20 -432 -354 286 0
94 -435 0
-393 -345 0
83 332 -248 0
461 -147 0
76 -152 -216 -316 -205 -464 -284 0
-444 -435 267 286 126 125 343 0
471 -258 -495 -289 -232 0
232 -256 -378 0
230 -241 0
133 -131 -2 -418 108 444 0
290 -470 -179 55 -246 -404 0
-421 -415 298 181 0
382 -471 31 302 0
206 119 -90 -243 77 -319 0
-292 -93 -278 213 410 350 0
341 306 147 -200 189 38 0
370 -431 -155 -64 0
-157 123 -169 360 47 -63 0
-178 -336 -360 0
341 -202 406 -302 0
-307 463 146 -349 417 -157 0
399 397 43 -411 -417 0
199 -426 113 165 0
309 236 -78 104 63 -405 0
294 -434 0
-163 -194 -135 488 -146 0
-365 -65 -349 449 -105 -341 0
-402 424 36 -265 -337 0
323 -153 -271 -291 -465 471 0
-449 292 413 -251 289 0
-422 -363 294 286 0
330 342 225 139 0
450 429 -222 -251 291 -60 0
-385 479 406 99 0
71 376 0
-260 -148 60 256 -195 -33 257 0
-171 -301 0
463 374 -158 50 -214 149 -495 0
295 118 0
-388 -99 -122 -318 0
-223 280 -245 96 0
231 38 -386 0
-312 -450 -473 -157 -261 0
59 -306 274 499 54 366 0
-463 263 -92 -406 0
-303 438 -472 0
74 -340 -371 314 -199 186 -116 0
-448 477 285 175 298 0
209 461 0
-333 -51 70 0
168 -484 27 112 0
-311 154 -44 0
-272 -297 -218 -306 468 428 0
-105 453 -325 -287 -256 -89 0
-362 218 0
-379 -374 321 -269 352 -223 0
141 -69 0
144 316 -341 -477 -398 164 147 0
-358 12 -36 320 164 200 0
31 317 -138 394 0
-313 194 158 430 -316 0
-8 270 114 161 335 124 0
286 293 108 131 296 -73 150 0
90 2 -188 -237 111 273 0
354 125 0
-304 99 333 -64 -361 25 145 0
127 15 387 260 -298 396 493 0
274 -289 465 446 172 0
-97 -375 -494 0
-484 414 307 -325 -36 0
327 97 -199 0
-235 -227 -387 -437 0
-163 -257 38 -338 -445 -487 0
-124 6 -184 130 128 0
-246 72 0
-177 -338 14 0
-265 -39 -196 -459 -413 0
-494 257 188 0
224 355 97 -327 0
240 -493 204 0
-134 395 0
-62 162 331 -441 -288 -461 0
190 159 350 304 -233 290 0
-492 397 199 -402 201 -357 0
-327 453 -386 -339 457 305 0
120 338 0
-133 -58 0
-21 -382 -467 -267 0
206 463 336 -248 104 -164 0
-81 316 75 405 -213 -487 0
-95 42 -462 -132 0
284 -359 0
-29 -115 0
-436 362 -158 87 0
-142 58 0
174 27 498 0
-487 468 376 130 75 59 17 0
-177 246 211 75 -5 94 0
-8 -354 5 0
50 213 0
373 356 0
-67 100 107 -394 0
-496 465 -413 -460 0
412 71 235 380 -149 269 0
-89 -264 -200 -154 -467 0
-428 247 399 0
-449 33 -304 155 230 151 211 0
246 -145 0
490 281 238 -99 0
-267 -421 -232 -96 -378 -235 0
-149 -116 54 450 -387 0
-464 -375 12 -41 298 0
7 221 -160 475 142 371 -28 0
109 -229 342 -280 14 -442 0
-378 -15 327 -482 -189 -52 -268 0
-35 -480 254 -469 -121 0
153 -347 361 -107 474 99 0
345 -226 -289 0
5 -324 0
-44 391 292 0
-322 -213 -361 12 163 0
-374 485 -41 -281 493 14 164 0
-383 396 404 -413 210 0
-188 -279 222 0
296 169 0
