c Random CNF with variable clause sizes (2-7)
c 2000 variables, 7000 clauses
p cnf 2000 7000
-606 182 1341 -505 0
298 -1847 984 602 1025 -560 1692 0
396 1218 -1581 1852 0
52 -1250 1892 -1048 934 0
-628 483 0
1030 -1516 -584 721 70 0
-346 1621 0
-858 -1586 433 0
-89 -250 -1314 -694 0
895 960 101 -657 629 1521 0
787 1165 -131 0
820 6 22 -1661 0
853 -1392 1645 19 0
1775 -508 642 1321 948 0
1830 39 322 -1902 0
-1904 -854 1270 217 1937 0
-388 1029 815 1977 -383 0
604 -274 590 523 785 -169 0
-1346 -1815 -1390 1191 32 0
1844 -1419 0
1381 -214 942 0
-888 1074 416 -1718 1424 0
-1008 1038 281 -1817 0
-847 -1179 -357 401 883 0
1304 1874 1327 502 0
-304 -1182 -1040 1329 780 -1795 0
1172 -1819 1533 -901 -1345 -800 -841 0
671 1277 1196 1567 -1725 -300 0
1131 -354 0
-1694 -1640 -1454 -1303 452 1960 0
396 -1291 0
1584 344 0
-681 -1133 0
828 -1501 -1861 0
-1266 1389 -1190 -374 1291 -1808 0
476 -1878 48 -602 -445 0
888 -1895 -1966 440 -1700 0
301 1105 -164 1414 0
1443 -1865 -1394 -1961 430 0
-676 176 0
-1566 -1692 1572 510 0
-961 -1447 -1943 -615 0
1172 879 0
-166 -756 -614 1264 0
-457 579 0
-1256 -1125 -259 0
-1663 36 -399 29 806 0
614 -438 1107 593 -1060 1838 0
-77 454 9 -1321 0
-133 -913 761 1202 -1765 1142 -1665 0
-869 939 1640 0
-675 1788 -590 1681 -1545 630 0
-1936 918 0
-1978 1496 178 1937 -35 0
203 185 -1794 484 1485 -944 0
7 457 -1046 -1928 631 -139 1762 0
1754 252 0
828 -911 1179 691 333 0
1186 -888 1556 -1980 1190 519 1720 0
-1689 1991 -693 380 1906 -1420 0
1876 -290 0
-687 1336 -1741 -1415 1771 1832 0
1912 924 -212 1630 -714 -459 0
307 1764 0
-1242 538 1423 -394 -1472 1421 0
408 24 1168 1886 0
-1595 -814 -981 0
543 -763 0
217 -529 1553 0
-452 -229 1160 -209 -1630 1948 0
-42 -1367 -807 1291 0
-214 934 0
394 -1146 935 1734 -508 0
-70 -1331 -1378 1282 -1703 1008 0
901 739 -1513 -232 771 -1363 0
697 -1939 -1642 -1311 -1424 766 0
464 1370 -1908 426 -552 -501 0
438 1395 1192 -430 195 854 0
-1837 1778 962 674 713 -1360 -556 0
-1234 1686 1811 -927 1368 0
-1555 -804 -363 0
874 1000 1852 -1328 -604 0
-321 -936 0
-1917 349 -1874 0
-289 -81 1280 1362 0
578 803 -1382 -738 -271 -435 1091 0
1122 1164 0
1590 549 -1582 0
-198 -970 1160 0
1148 1644 0
-207 -836 0
225 -975 -11 -573 614 495 683 0
609 -72 -1592 1200 -1103 1980 -1662 0
1164 -896 391 633 -1974 0
-19 -611 -777 -1412 -1615 -79 0
-1180 1117 -548 0
-1198 -742 635 1275 -1137 1115 0
867 -869 -1512 1926 0
1484 -1487 -1451 1283 1629 -1068 -1509 0
643 955 0
1447 -791 0
998 482 -1370 954 -902 0
63 240 -418 194 924 0
-562 -1718 1773 -252 -1562 -1372 0
-1701 142 1366 465 -391 0
-1669 8 0
-1659 345 0
987 1801 0
-89 800 -1360 118 -218 -1136 -1905 0
-623 754 1112 0
-317 -1912 793 -1246 -832 -1078 -1290 0
1634 -404 1930 0
-919 460 -435 811 1993 0
-1464 1086 -1035 669 867 0
1438 1412 1984 -865 382 -310 0
72 -512 286 0
375 1751 0
1631 1155 -1257 -1563 -260 0
1291 1841 1327 0
-488 1515 -1125 0
852 231 1920 335 -1064 1755 0
1420 198 -973 -909 0
588 -451 -885 -1095 0
1093 -216 0
1702 1748 0
650 209 845 -1108 1533 0
-1346 -596 0
-1273 -820 1485 0
-937 -626 -171 -826 -596 -753 -1374 0
529 1246 -1520 -323 -959 877 0
-486 256 -1544 246 0
-68 888 -555 -493 1741 0
-312 -561 -1506 -1530 0
1756 100 -190 1777 -432 -265 0
-1888 277 -891 -391 0
1874 535 -360 0
-1151 -500 -1114 0
-1160 -961 765 -972 -894 1201 0
-1349 -564 -1926 0
-1116 -569 0
871 451 -167 53 -1980 -1162 -1799 0
-1732 1088 -1108 213 130 1398 1540 0
362 -590 1838 1574 384 0
-149 1060 -1614 -667 -1666 95 0
795 -807 1170 1858 0
1556 -695 49 0
1226 -511 905 907 425 -377 0
-781 -162 -1215 0
165 -19 0
-890 -677 -1423 -1241 -1541 -1155 1759 0
813 1142 -1468 138 0
1525 -1328 0
-1482 1877 -1627 1622 0
458 567 0
949 997 1371 1628 0
-404 -820 590 -1477 1437 0
198 1627 297 839 -108 0
1016 1547 -295 0
443 1501 1918 1496 0
849 -909 0
-843 99 0
13 -1237 -1419 104 -1243 0
-1319 -1425 852 -762 0
1235 1442 1466 0
-1298 -1208 0
-1669 692 -1270 -1343 -925 367 849 0
-1680 -1195 0
650 -1672 -1484 1016 1906 -481 0
1142 662 1982 173 -1907 0
-801 712 -1253 -1808 1219 71 0
1957 1846 -197 0
-561 443 -241 0
43 -733 0
1959 1562 1705 -576 -1565 -188 1008 0
-1606 1304 0
-1389 446 1685 0
-228 -731 -1134 0
146 -725 448 -639 -1400 -569 0
-1566 951 1117 0
-1008 776 214 30 122 1327 1234 0
29 158 1954 0
-65 1284 -1913 1965 -923 1728 0
-1603 1832 1014 -582 -864 224 0
-231 703 954 -764 0
178 -155 -422 -1547 -1209 0
957 -318 1103 0
-755 -1363 277 1669 -1284 -1077 0
-530 -1336 815 1990 -1367 0
-48 -1768 -716 0
1610 -915 1017 0
-360 -1305 661 1142 0
-1772 -346 1142 479 -263 -601 0
1670 757 1010 -1708 0
-1770 -1582 260 -1804 237 0
1542 1779 -194 237 0
-1207 -1939 -1551 -1801 -1570 0
1561 789 -962 -1102 1462 0
-334 -1192 -182 1982 0
-251 965 1129 0
102 916 0
381 -1339 -1467 -954 -1132 -663 0
-1803 1504 1296 0
730 1949 0
835 -1382 1267 0
173 1362 -1477 918 0
1010 47 1844 -1939 -1862 -1593 0
560 1554 35 1120 -409 -1900 0
835 -1983 720 -738 0
1160 -1994 0
972 969 -1712 1981 1281 -69 272 0
512 -241 1321 -1932 -1681 689 -314 0
-658 -877 984 1857 1543 853 0
380 -1060 -558 -1944 0
-76 602 -251 235 1790 -72 0
-175 -1397 1992 1728 1436 -1560 -775 0
1993 1195 -430 0
-916 -1025 0
-392 -1232 -1728 93 0
-1808 1179 0
1045 345 895 1032 -1745 0
1629 -1415 0
-905 -675 167 0
325 1078 -1609 0
899 1853 -631 -922 -1435 0
-1038 1881 0
-1666 -1861 654 1045 -354 -1796 0
-64 -55 1154 -858 0
359 1825 1090 -306 167 0
-667 -216 -720 -1298 -125 1494 1171 0
-903 519 10 -1451 -1213 256 0
-774 1927 -409 1107 1296 1031 -311 0
646 -597 1565 -633 0
1006 1261 -701 -1908 1662 0
-1570 1392 -1050 0
868 -779 -1362 -1514 0
1638 1857 247 1691 0
1794 1491 13 0
-1339 -1418 1965 -1975 -574 0
573 -782 1710 381 457 0
978 -529 -1297 -1289 0
-790 -1082 908 1089 0
-1166 -901 0
1085 -332 -1908 -1256 -1974 1 0
1171 1351 0
634 -253 -1498 1838 -294 -1922 0
1908 611 -1220 -1604 -714 0
1536 1017 0
644 -791 0
849 1482 268 0
-882 1377 0
-515 -1409 644 -1187 -1465 -1171 307 0
-708 1985 -1051 -272 1540 -698 0
1828 -1881 1296 139 0
1741 -1539 -359 0
-1829 -1230 878 -1081 1149 0
-1004 1448 -1394 -1323 1160 -1423 0
-202 1486 0
-1029 -626 -937 455 1735 -1400 0
-1234 -617 -500 0
-1042 -1859 1523 0
-1455 198 -1433 1255 0
602 -858 -1418 0
683 -1605 -554 -383 -863 -345 -1965 0
1903 -1737 -1169 785 431 -373 -1126 0
-627 -1423 -1187 0
1289 -1353 734 -1478 -995 -1418 0
-1123 136 -734 -1135 1498 -790 -141 0
487 -1920 -1143 0
-1223 533 -1290 -1963 -1605 0
331 625 -637 0
-1355 -522 61 1980 330 -1829 0
779 1075 0
1278 -1815 1717 -806 -420 1121 0
698 1571 -1088 -1319 -786 834 0
1867 -1461 0
-669 -1278 -15 -1215 0
650 1206 -1657 -364 0
1870 -126 -1381 1741 0
-1026 101 1804 -1444 0
-870 -1326 215 -1522 147 52 1744 0
-1237 -716 -599 1179 0
1449 1466 1156 -242 214 0
-1854 272 553 -1567 0
-415 -1904 0
402 1460 -1191 1347 -1126 -674 0
577 1820 1246 0
1229 1811 1247 -171 -184 0
-35 -1478 435 933 -272 -1576 0
-613 1467 1924 0
845 -717 -757 0
-1486 -420 1500 -5 1724 -62 0
306 -1658 211 57 1087 964 0
-1808 1393 -1424 278 -1083 341 391 0
-395 -11 1649 425 -269 1343 0
-1688 312 836 1909 -1205 1399 -1590 0
-561 191 -1445 1639 0
673 -88 1024 225 -338 0
1038 722 1753 0
-610 160 0
-195 -1516 0
-524 36 1925 1884 821 1087 -42 0
-1830 380 -1909 0
1257 -1470 -955 1336 -811 0
-1117 1692 0
-1432 -1553 1302 -1388 0
-261 -1656 1158 -1003 0
-187 179 -1889 0
146 1033 -1050 -1786 -1901 368 -1244 0
-37 -1598 91 -866 1435 -27 -1944 0
-1344 1847 1659 -1401 1950 -416 1804 0
1156 252 -393 0
1577 1912 -761 -241 1879 270 0
1997 -283 -1754 -591 0
1233 -740 1293 758 -1478 782 -1849 0
412 599 0
-488 -12 0
983 -1412 1206 0
922 282 -1452 -1820 -1182 -292 1402 0
122 -20 467 492 0
-1853 418 -1815 0
1031 1791 -1638 594 -1489 -871 -1675 0
1436 -1055 1821 425 -1080 0
-1979 1763 669 -1869 911 717 -1721 0
1471 1793 845 -1637 0
-863 655 183 1672 1394 1442 792 0
173 -1953 1358 -811 0
254 -825 1421 -17 -1781 -414 0
-935 -13 1511 1013 1796 -1190 1942 0
261 273 -490 0
566 510 898 -1624 51 -778 -399 0
-372 -1968 1163 378 -13 0
827 77 1743 -1286 0
159 1834 1112 -465 0
-1074 -289 -1733 -1138 404 0
1809 -1192 -956 1428 0
1843 317 1937 -906 1550 1320 -1636 0
1659 21 -1037 1622 -126 1281 0
-1454 774 1360 1499 1568 -1314 0
-214 -178 978 0
1929 1744 -1872 0
1544 -47 842 -477 861 581 1770 0
-1789 -1956 166 0
-763 681 137 180 1316 0
280 1421 -1994 -731 431 0
-23 579 1067 1542 -1787 0
-1569 1649 998 1141 1254 -1375 1749 0
1331 1617 1095 432 1482 58 0
-130 1341 114 -30 1604 0
1373 -357 -403 1340 1039 0
-25 532 0
-890 -1590 843 -1452 1272 -500 1604 0
-1945 1702 1705 -202 -1342 1390 -2 0
1387 -74 574 137 452 213 65 0
362 -754 1139 1230 0
-1466 530 42 882 -1376 0
-1265 1631 -760 1718 0
32 -705 1151 -1991 1562 1720 0
-832 662 0
1928 1848 1684 237 276 -737 -344 0
-249 376 522 1572 1598 -1574 21 0
-347 -1264 -1025 734 1905 146 -1921 0
-1075 616 1875 -1397 -102 1422 0
927 -1597 -1246 394 0
274 20 -388 0
797 -426 1094 0
1433 1252 918 0
-1204 1551 1950 0
-940 -372 0
-185 1177 189 303 -513 1990 0
88 -1567 -400 -83 1705 -309 -1597 0
-1300 1413 0
680 1721 -286 -1534 -271 -155 -1936 0
-1051 1614 -841 -869 1471 -133 -1993 0
650 -1943 711 0
1260 -769 1388 217 0
957 1765 0
-339 1528 1235 -1461 1967 269 0
527 -1813 -1020 18 -956 -214 -598 0
-1800 -68 1551 1968 -639 1921 0
-1330 -1808 -748 668 -180 1538 0
-1208 1790 1396 0
119 -1533 16 519 0
-1176 -822 1368 1174 299 -1491 -1967 0
1802 -754 -92 0
-769 -1338 -1681 -414 -756 0
-993 811 -1735 0
-100 371 1642 1870 257 1270 162 0
1104 269 609 -1695 -1124 1276 0
219 343 -1693 -1184 1488 0
-667 -933 1459 -1113 -1222 0
835 -1192 -859 988 0
314 -1685 -533 1459 663 0
1444 -1365 -463 74 1624 1204 0
-1948 1475 -789 31 313 959 -1626 0
-226 823 415 -971 -1271 -1248 -92 0
496 -1199 0
-290 1391 -1889 -303 0
-1216 -1863 -477 0
-1151 -473 0
-1667 1280 0
-69 1348 1993 881 0
319 448 -31 1498 574 0
189 -1305 1270 -1638 -1451 1070 980 0
1531 792 648 -992 -556 -1904 0
-1532 1169 -38 372 1451 1564 0
-499 -1291 -311 0
1672 -1775 -1604 303 1740 0
958 -1009 0
161 1566 1890 591 0
-491 691 -652 78 -1158 1395 0
1868 -250 -950 890 0
-923 -976 0
1335 560 -1410 1661 -204 320 0
-58 -41 -985 779 1507 276 0
1489 -782 569 -1399 -1086 1266 572 0
-887 -462 0
-627 317 0
1969 -1813 -1435 -831 1249 329 1670 0
-1257 1933 -653 -1581 864 -725 0
-931 959 -622 -740 -65 0
32 -1336 1600 1718 0
1798 -1011 1640 0
309 1846 0
1633 1911 395 0
-1564 -578 -1716 153 467 -784 0
824 -1302 679 544 1712 310 0
1251 -277 1872 1295 0
-315 -1826 -401 1365 378 -506 0
1993 1136 63 1094 -812 691 1516 0
774 1801 -1295 -93 134 0
-1940 1653 1956 913 903 0
1254 471 0
1455 445 -1325 491 0
151 1342 -1265 822 -172 1766 0
-1013 -1917 665 1659 481 -473 -891 0
483 -524 -1020 0
1967 -1072 1989 1469 -1702 0
-759 -210 -1914 -1994 -1340 -904 -526 0
1787 -1812 1711 0
1985 -699 -1078 1490 26 0
1392 -431 -1110 -387 -1717 253 987 0
-789 -284 42 920 -1201 0
712 -1546 0
-798 1539 -1204 -997 685 -1056 1422 0
189 1718 -1307 0
-1926 847 993 -202 -223 734 -248 0
-740 -1481 -720 785 714 -711 233 0
-383 766 1940 -1960 -1578 0
-712 9 -508 0
-1946 -915 470 0
-1412 -540 -1093 1726 -514 -1090 0
561 1554 1045 -1491 0
-571 1554 -111 788 0
-1098 -778 1941 0
-1102 -1160 362 -1323 1178 1193 -1864 0
-916 -1860 1045 1614 -74 0
584 -1117 -1458 1473 -1160 996 0
-281 -1334 -471 0
1010 -1757 1950 -1023 -1013 1650 1876 0
-763 309 1173 0
-518 803 -3 1374 1479 0
1697 -391 1711 0
1552 -1851 0
1626 -20 -5 0
-883 1493 607 -873 1934 0
-399 1838 0
-590 1413 -1592 -1470 1119 670 0
-1475 604 -392 259 1336 -495 0
-1350 -1170 -739 -1830 1766 0
1549 -980 1056 -501 -1181 -290 0
1255 916 1535 -1861 1828 0
-192 1246 -479 197 -1438 -1191 981 0
-1848 164 -1788 521 -1870 -631 -1668 0
-1223 -849 -1267 -1926 0
1445 185 126 1142 -679 -353 0
94 -959 -1099 700 -184 0
1830 1656 -162 -217 -1587 -1719 145 0
-773 321 -318 -1738 1875 -955 698 0
-144 767 -1896 0
1878 -1403 1408 0
-1790 -1976 -1391 -1416 768 960 -1508 0
987 1359 1606 1285 0
2 -1333 -471 -502 1439 1764 0
-367 -46 0
-1229 1357 213 -1139 -617 -40 0
-50 -569 -776 2 1460 -1328 -1061 0
1929 -425 1808 -1626 -72 -352 0
-1386 1792 50 0
1385 -840 -1749 -1300 -522 -331 -1061 0
1746 -137 -1120 0
-891 1088 909 724 -119 851 345 0
1973 564 1499 -19 -1800 -1830 0
-161 575 -954 -1750 0
849 1901 0
-1339 -450 314 0
596 -456 1841 0
1161 -1337 -1736 -1699 787 -1796 0
1924 1732 -714 0
-1838 -29 -1670 -1101 -486 -1866 0
-1602 -690 -1870 -30 -470 -1286 0
-82 1240 -1328 -783 518 0
-434 -1566 -80 0
858 -649 808 1926 -1483 1348 1992 0
-1716 -547 0
-1650 -1892 0
-240 -1127 -1988 -1597 1261 -1352 0
1724 -1767 1605 0
1427 278 -1177 0
-1909 -57 830 0
1658 -499 1473 0
-655 1052 1579 0
1744 -306 1075 0
426 -1652 546 -933 0
1420 -1490 0
1489 495 -1507 1708 1012 -1535 1413 0
-843 -1020 -713 1184 0
503 1148 0
-118 1189 417 -1812 0
-713 -953 1910 112 1149 0
-1685 667 -1841 0
-1450 -580 -294 603 21 0
854 -1723 0
115 -1998 647 356 0
-1046 -917 0
-471 -1348 -1820 -409 1097 -291 -1933 0
-1933 907 1033 -984 0
-1285 348 952 0
1897 773 -1965 -355 -1710 -1716 50 0
-1076 -1732 517 0
-847 -852 1500 158 0
1116 387 -326 1661 0
-167 322 -1010 372 -1066 -357 0
-1727 -1473 -959 1525 -1579 -1959 0
199 923 576 -1592 1113 -1005 0
-1394 1555 1018 -756 0
-528 510 -625 -1057 1559 -214 0
11 688 -972 1162 -512 0
1412 1240 -919 -254 -1686 -1118 0
1870 -1692 1287 -1795 -769 -162 0
1431 970 1299 -993 487 195 0
148 -748 1562 744 -472 -1 1735 0
-514 307 -97 741 181 1284 -988 0
848 684 0
-492 -448 -892 -830 0
1408 -1836 -596 -1336 -254 -1150 -67 0
815 -1516 -532 919 619 166 0
-1553 -980 1362 -1380 473 -214 -199 0
-11 566 -812 -230 0
-1303 872 1951 0
-238 -1855 -210 0
318 -7 -75 0
-590 1653 365 0
1255 406 -1710 -337 0
-1274 -1149 -478 1440 0
-740 -1904 683 -479 -23 0
1654 1725 0
1217 -830 -630 -1407 516 365 0
1663 -1878 -1636 427 526 1070 -1024 0
910 -1019 281 -978 1467 0
-437 -1322 0
1710 1713 1949 -100 -1127 -887 987 0
91 619 0
-857 -1516 0
-794 763 1533 -1281 -1106 0
1742 -672 1098 592 -1948 1898 0
103 1081 -431 -330 0
1810 -65 1187 0
242 1732 1088 234 0
516 -749 0
-1561 -525 0
-1659 280 828 -1036 1516 858 1562 0
1672 -1662 -343 -242 1195 467 -1569 0
1805 810 1935 1647 0
-962 -1371 -440 -970 690 -595 203 0
-1034 194 -283 -1715 1774 -533 1623 0
1343 638 0
-905 1084 0
-783 313 -199 -1014 793 -1007 0
-380 1560 -1879 757 0
-1280 -1714 1221 0
814 1713 0
-317 1095 -1050 0
-872 922 -998 -1207 1682 1277 0
482 -718 1978 1023 867 0
-1155 1097 -3 949 -23 1375 -608 0
1298 677 -914 644 0
771 -1058 1985 563 0
1916 49 -1226 933 1691 0
1186 -1976 0
190 -1912 -1712 602 1036 -595 0
1769 1453 -1448 325 0
-950 -1845 941 -1093 1912 0
-466 778 964 -1976 -1604 0
162 -65 10 1676 -244 -1770 1063 0
127 -1290 -1867 28 998 -460 992 0
951 -123 998 1824 0
-663 1864 -1237 1695 168 767 0
1626 808 635 -146 -444 1348 0
872 341 0
1116 -191 0
-309 1106 1544 0
1360 972 -1148 841 0
-1023 603 -1320 542 0
588 -837 -1921 -1311 915 -362 1267 0
1526 497 -1198 1004 -987 0
-1525 -598 675 1440 984 -1142 0
1354 408 0
-1432 853 -1788 0
-1265 1619 0
878 -486 1225 0
-1681 -380 236 961 0
485 -1653 130 1961 -465 37 0
-816 -1638 1737 -550 -661 829 -1472 0
48 1880 0
-1273 1648 574 -1792 0
371 1451 -887 0
1131 1079 1195 1560 217 -1169 1200 0
-413 -1727 827 37 1396 -1303 0
863 446 427 -1579 -1488 114 -1683 0
397 1344 -1799 -220 -205 -79 717 0
778 619 214 0
-1416 851 -1139 845 -1870 0
1636 -1183 767 -1061 0
-1914 646 237 -437 0
1989 -1563 433 -1274 73 0
923 -688 -238 -1635 420 710 0
1874 -455 1968 785 1365 0
-920 -706 1803 -726 -1331 -907 0
-1029 -1615 -656 -214 71 1333 57 0
312 -1528 -454 -1039 -741 -243 0
-1629 -1980 0
-662 683 1971 -1762 -1356 0
-441 1165 372 137 -613 584 -680 0
388 -1485 -929 1870 1630 0
-1113 313 1395 961 -1091 -238 1235 0
362 -759 1620 -770 1167 0
-1250 -1471 673 1708 131 -116 0
538 -238 -1659 0
-3 234 -699 0
1194 -1990 -708 271 796 1730 1615 0
734 -388 1082 -1865 1360 -1750 26 0
-1153 -176 -988 -1991 131 0
658 897 -423 -68 0
-680 -38 0
-1882 -1928 1793 818 1424 1589 -1605 0
89 100 235 -1336 727 0
1449 1288 1602 1133 0
-236 975 -617 -1582 1269 1743 0
-204 -1294 0
-1116 -36 -213 1006 914 98 0
124 -1011 -1832 0
1138 1661 0
-965 -1734 -1257 0
-1003 -268 -1590 395 466 225 -796 0
-308 960 787 -269 -1615 -740 0
1516 -1575 70 -1612 0
-120 -25 -750 566 -82 0
-1640 -1292 1038 -578 -1627 0
1785 425 951 777 -264 -1122 -1729 0
563 1217 -1261 1579 187 0
1529 -1353 395 0
1812 -1223 0
327 1033 1611 -505 -1594 416 0
887 1082 560 0
1125 -1904 227 -1729 1081 0
-1551 -203 -1640 -1457 -1164 0
904 940 0
-251 207 788 -493 1858 -239 0
1374 -1355 1954 -1057 -1340 0
449 649 -1385 0
593 1323 0
-557 1070 -1049 -1658 -1480 0
1703 1571 967 0
-1133 -1357 1231 -752 918 -815 0
-370 257 1849 769 246 0
-1997 -870 -1285 747 -780 1320 1512 0
-1331 -448 0
-1640 293 -370 1284 -1715 -1156 -1620 0
-1826 -1761 0
1872 1519 1356 159 386 743 0
1884 1949 -1841 1028 481 1007 -1769 0
-759 76 -1633 1395 1298 0
1721 155 1469 -674 -390 -270 1200 0
-794 34 -341 0
-227 795 -1282 -221 613 1162 -1852 0
341 -491 -1206 439 0
-1185 1677 -1998 0
260 88 1800 -600 1163 -996 1835 0
-1412 55 991 -134 310 1024 0
979 1677 -1402 839 1264 0
-816 336 0
183 106 896 975 1478 297 -1201 0
1409 917 1042 150 206 -1237 1011 0
207 -855 1047 -60 -837 -1321 1097 0
-902 1837 0
494 920 -1755 0
1689 -11 1198 1978 1252 -307 -1609 0
415 -185 -1664 -1868 -49 0
1512 -1021 902 0
-965 -208 1729 -1800 -1491 0
-1603 1202 -1952 815 893 -537 0
773 1242 -424 342 1830 -315 -1641 0
1010 -439 -1066 581 -1528 0
-1074 683 291 1649 -1072 0
1810 434 -1781 0
-1259 -357 0
1041 -1622 1262 0
-549 897 -1593 -1890 720 0
-1155 1469 -379 -1290 -1999 932 0
283 -1505 -1861 -1397 -1914 863 279 0
-236 1335 1344 277 1152 1241 0
-895 1298 56 1693 1104 979 0
-1054 -1720 -604 -1889 1597 0
601 -377 1313 479 0
1690 -896 0
-504 983 787 0
-1178 1918 0
1920 1042 776 0
-734 964 883 -1892 1339 -841 0
1905 -796 198 -197 172 43 0
-1597 -716 472 926 1808 0
-869 -1242 915 -177 478 -840 0
1542 -1541 931 -1513 0
-1179 1272 996 -1632 -753 1864 -1991 0
-1931 -1011 894 -1452 -920 584 -429 0
-546 -1233 144 1485 0
194 1621 -1025 -1416 1380 882 -931 0
-1675 1248 0
-1349 -749 290 -1718 0
1188 1977 -1287 0
1193 1195 0
-1941 520 374 -770 1171 0
-873 944 1964 -1010 -1281 0
819 -1614 1235 0
-1469 808 1458 1027 -922 0
-969 -1331 0
-1727 -1121 0
1748 -1362 0
-264 -82 -898 321 1550 -261 0
584 -1862 0
-818 336 -1575 754 -1320 1821 0
-992 -1785 189 0
-43 -1969 -114 300 973 0
1482 -889 259 -1856 1822 558 -433 0
160 1649 -1750 -706 641 0
-682 -923 1829 -776 0
1682 62 -109 -1072 883 1353 1597 0
1406 -1215 204 0
-1744 762 783 471 0
575 -751 410 -1308 1405 -1924 1560 0
1311 -1979 829 178 476 -1282 0
30 -1519 -1301 1638 1391 -1600 0
-1673 -621 94 1083 0
-1094 -368 -1624 1577 -1656 0
493 706 -915 -912 1735 0
-1657 -1186 -1896 38 156 0
-1387 -858 1067 -1027 378 1724 -1040 0
-851 783 -1651 -1299 -1009 327 -1262 0
296 -1456 605 0
-1056 180 -1039 0
26 -504 718 949 1749 1073 -1459 0
579 1931 1829 307 1638 428 292 0
-606 -922 1706 887 627 -1665 0
-1277 -77 238 0
200 683 286 1654 1302 1943 -1690 0
882 1681 438 494 540 897 1870 0
1614 -779 0
394 524 -683 1287 -494 0
-979 1233 0
-1548 -385 1201 0
851 1195 -1886 -949 0
-1009 -170 -622 0
282 -1800 272 1964 1922 -466 0
-714 -1149 -502 0
-1062 522 -362 160 -924 0
-1852 1479 -1136 1472 -541 0
-302 1612 373 795 0
-254 -249 149 842 -1371 0
-587 838 684 875 -415 1352 0
1418 1038 -1148 789 -1211 1706 0
-82 -462 991 -735 905 -655 0
1013 -1942 0
-1758 555 948 0
-1518 198 -1004 0
-1613 -1031 1188 576 -339 0
-532 -849 1494 0
-365 -1595 -885 -549 -1742 -1018 452 0
-369 -1130 1433 1645 1839 437 0
155 -396 -1809 0
-701 326 -1273 827 893 -1326 0
1800 1925 862 -1320 -1816 0
40 1381 -1475 -376 0
-423 1134 -468 1453 0
-481 1964 313 -1990 0
-168 -311 0
-38 1094 1332 -407 0
608 649 415 -727 0
-1817 -1434 247 -175 0
1609 -929 -584 -778 694 0
16 -1267 1705 -954 -984 1456 0
1926 -922 -1645 -1251 689 0
357 -909 -309 1030 0
907 1587 1483 0
-1771 1155 -699 832 998 0
-321 618 350 0
-1864 -132 -755 0
1198 393 -256 0
-1209 1720 1002 -1172 5 1387 0
1952 -1160 1839 -1781 0
-1208 -1892 -801 779 -1245 0
726 1844 -1196 -1071 1105 0
1806 1211 -1345 -1900 231 1814 1935 0
785 -357 -95 -1598 912 1716 -1503 0
57 -1659 -1947 -196 0
-1113 1422 1031 -696 1645 0
733 951 -1699 -516 1093 164 0
-617 562 1133 0
1341 1594 0
1117 -1531 0
-1083 -622 -1864 -1701 292 -1175 0
1257 -523 1809 107 394 1096 0
1560 484 1967 213 1664 1615 0
859 -66 -448 0
1416 -127 -878 1787 1513 -1205 0
209 1325 -582 -325 -549 -602 148 0
-1936 206 0
-526 -760 -195 0
-873 -1475 0
1471 1016 -562 162 711 479 0
1199 -1730 0
40 -769 0
-963 -823 342 1388 0
1186 -934 0
1032 -1743 -1083 1938 621 0
1793 1810 -1048 0
-326 -527 -195 -703 -450 0
967 305 -997 0
421 1184 1512 0
-1927 1256 218 -1731 -1712 -402 -1746 0
676 -13 1444 1417 -220 0
986 -1183 -1379 -80 0
700 -1150 0
1706 519 0
432 1278 964 1328 1387 0
-907 -32 1216 -1957 0
426 944 416 159 723 -1619 1666 0
1101 1883 -63 0
-1754 1667 308 -1675 -1533 -466 -660 0
1343 1056 352 0
-78 -489 -1874 388 758 0
348 484 0
-973 832 1257 -945 -292 1632 -266 0
-1267 1742 568 -618 -646 -1174 0
304 -249 -91 1342 -368 0
1375 128 937 -1505 1584 718 0
902 663 -585 -715 418 -1470 152 0
1519 -1266 449 0
-374 -1494 1044 1798 0
-1731 -1606 0
-778 -704 -825 -1214 -1549 0
1261 895 -154 -677 0
-1526 -1911 536 -68 -43 0
-486 569 -1418 -1291 0
410 1623 -651 0
1049 1852 0
1558 126 291 1274 666 1249 619 0
1023 -33 1067 -61 -1932 0
-1274 -244 -579 0
-178 1534 964 -1366 0
1658 1684 1975 1571 450 -1941 0
678 -100 0
-520 -972 -463 -1408 0
1611 727 1286 -1765 -1143 0
331 -1741 958 1219 505 0
-940 1187 0
1564 -61 -767 1976 -1268 -1455 0
1125 -1812 453 354 -79 923 0
1330 694 -310 836 536 719 -713 0
-1095 -1443 0
-681 -551 0
1040 -1797 0
-1770 -923 0
-416 -1234 0
1637 -686 506 1063 1257 -1730 0
250 -221 924 -150 0
-929 446 -438 -1995 0
1045 -1864 1371 0
-1042 -1836 -1281 499 -1587 -1380 490 0
1975 39 585 622 -1006 -412 0
1075 -1789 0
354 379 0
368 1155 1730 569 -187 -1300 0
936 1843 879 0
1982 -505 -1843 -400 1851 -1130 793 0
-1935 -363 220 0
-177 -1071 0
1677 1257 -444 1566 -1737 0
-199 -1533 1781 -1259 0
-1451 -1344 -268 1127 1141 0
811 -631 -254 334 0
-878 -282 192 0
10 386 -207 0
-357 -1484 -1288 -378 -627 0
1509 355 -1799 243 -1677 25 1569 0
-608 -713 968 -1372 -453 916 0
-1770 -618 -791 -1051 -34 -1572 0
-212 710 -1041 -1212 -1577 1128 -1971 0
1698 -1297 1840 1450 -249 -1856 -329 0
326 -1681 415 1200 1019 1050 -868 0
1715 -165 1164 368 -1902 -1437 0
1827 1559 940 0
-178 -696 875 949 0
1311 693 -64 -1776 -65 -1794 0
148 -1938 0
-429 -1563 966 1946 0
-25 -154 -1795 1593 417 -316 426 0
1863 -822 806 443 1486 -1076 36 0
-188 1757 -676 0
-806 528 0
792 -1683 215 -147 0
1858 -487 -1053 1640 -257 -319 0
-283 -1796 0
1096 142 416 -847 1793 0
1450 -522 0
1460 14 1444 -1228 0
1405 1733 80 -1500 -661 0
853 -1287 -1351 0
498 -1288 -13 417 1512 1427 0
-488 1256 0
355 1387 16 1369 1312 0
-1158 236 -262 1584 -1212 1605 0
1236 889 -1489 -1774 -148 344 0
329 1900 1395 -1250 -1284 0
-759 791 812 -1577 0
922 -1193 -1679 -1698 0
-1654 -1220 1835 619 0
1689 -1174 536 1223 453 1920 701 0
-976 771 24 -1478 1717 392 1607 0
530 -370 -1859 926 490 -488 945 0
-326 -1734 0
-934 -1312 348 1874 0
122 -331 0
1628 -1151 0
-771 1126 472 1430 -453 0
1917 1294 805 0
1221 -748 1509 -1953 499 -902 0
-1351 -1562 0
-1434 937 -742 -86 800 0
-910 -961 -1974 1752 866 1904 0
-1416 1087 -540 0
-789 1645 1794 1934 1515 -1137 0
1833 766 -754 -1828 0
1845 784 106 440 81 0
-227 196 1136 -1329 236 0
1268 371 -1710 888 0
-263 750 786 -1771 268 0
391 -21 -1078 -117 1599 0
1306 1742 953 -1110 -465 -618 0
906 417 0
-581 705 1568 1091 -55 -1566 824 0
1776 -581 -1092 -428 -368 87 -962 0
-388 1120 -555 0
-366 1322 -9 1373 0
-1664 -1223 1375 0
-883 -137 0
717 1618 -1862 0
1156 -1453 193 -1676 -1254 718 -1025 0
-1792 716 1370 1985 -831 823 0
-159 -949 -722 0
1304 -1421 -854 -213 1590 -1118 -683 0
-1393 477 1262 1979 667 0
378 -913 -1125 382 -1091 0
1034 75 687 257 -1315 -1294 624 0
-134 1028 0
658 -1450 -1918 -843 -1977 0
-1390 1342 930 813 0
963 934 -591 -680 0
648 1102 1559 -1763 1076 0
1686 -1237 1627 -786 1965 -1754 0
1788 -1298 -586 0
1808 164 -1882 1345 117 -585 0
-1796 930 1161 -145 -769 -1467 0
-1131 204 1691 -1290 1204 1991 946 0
1831 -417 0
-1917 1701 0
-1806 -896 0
-1964 -1280 359 784 -1070 0
-214 -650 0
287 -1485 -1906 -1732 921 -380 0
-1932 -721 -115 -1218 -514 733 0
-368 1072 1466 -326 1626 899 0
-1891 -1893 1907 -220 -704 -1061 0
-1060 -1007 1200 -1154 -1333 -1869 0
208 -1375 -294 0
1243 -335 0
1098 227 -1941 996 0
-418 -528 51 0
-1110 -1774 -190 652 -1891 -1673 0
288 1023 0
37 984 -11 0
984 1450 -1505 0
1332 -879 565 0
-1248 -1812 1352 1637 -374 -1725 841 0
1711 -626 276 0
-1957 1806 0
-914 1699 0
981 -1940 64 -48 0
1987 1139 498 -1938 -1007 -1190 572 0
-652 -84 452 -924 1824 1826 0
-693 1102 0
878 1183 716 430 -1925 -1381 141 0
169 1863 -209 0
1466 -1113 -298 -1971 250 0
-920 1031 -675 983 -467 598 639 0
-666 -1273 9 -974 0
288 35 1852 -23 -867 0
-1515 1610 -1500 1120 1912 0
941 1525 -678 -1072 -1825 -626 -1565 0
501 -1680 -1783 0
-1133 -1022 -1193 0
1891 1666 0
1220 1265 116 -1298 0
-1517 -729 1985 0
1384 1207 -250 -895 629 1494 0
-1783 660 617 -132 761 -1657 -940 0
1075 -1908 1387 1497 -1333 0
-679 1545 -24 -1510 0
620 1894 1758 -879 -106 -1388 129 0
-1240 173 622 -765 854 0
400 -332 -1563 -755 -1153 0
-1615 1598 -1097 -671 -827 -881 1843 0
-1281 914 581 680 843 -1400 0
1874 -775 -103 809 0
1704 277 0
-198 1738 0
-326 1307 -1091 1027 1605 0
-1010 -87 0
-1629 -1428 1256 0
506 -622 -153 467 -125 -697 1596 0
1914 -262 -1135 1380 -869 394 862 0
1895 1337 -200 0
-1410 1856 0
-943 -213 1728 1032 121 0
-513 387 0
416 -1059 1991 111 1332 0
201 1263 1448 0
95 -1016 -565 0
-1709 1468 243 -359 0
-1845 -1558 -298 172 1136 0
538 -812 220 524 -1458 0
1978 848 1302 0
705 608 -262 1589 -719 1395 522 0
1360 1304 1600 1396 -1160 0
609 245 717 -1420 1155 162 0
661 1728 0
-1806 565 0
1082 -1712 -1596 -1290 0
-490 -1123 1702 869 -730 1755 0
445 -1498 -659 -1386 0
602 -279 1034 1438 -119 -379 1994 0
826 203 -992 -294 666 545 -1805 0
-1228 721 -817 -909 1960 -1902 787 0
1172 -840 0
1085 -1142 1810 -1336 1804 -589 0
-1621 -1319 -1197 -1706 697 1345 0
-1855 1091 0
-395 1543 -299 0
-1521 276 -142 0
1060 415 1863 -819 -552 -1075 1043 0
317 121 0
770 413 702 0
523 64 0
1571 634 1688 0
-906 1559 0
-1042 860 -515 -1208 0
-1513 -602 -1425 0
-996 1146 1990 0
1762 -1581 34 1825 1921 1300 0
1353 993 873 0
-1724 227 1922 -1309 -420 1344 0
-120 -31 0
1873 -1651 1201 -63 0
1954 1386 1163 -837 0
-769 -354 -313 32 0
1565 -1172 -1014 -454 0
818 17 1515 -1749 1499 0
1363 -526 470 -46 1589 1630 -242 0
1570 543 -697 -1457 0
595 1904 0
-1435 1164 -261 -859 -1658 -104 -232 0
1279 1302 -121 -496 -820 0
-155 -1696 171 20 -734 1764 0
275 -1142 -92 1768 -202 0
64 -553 -708 -1242 -1327 0
-768 -488 -57 -1582 -1736 -849 -874 0
-575 -1021 0
-1932 1760 -217 0
-908 -211 -1555 280 1557 -929 0
433 -62 -330 1108 1325 -1861 -1425 0
1163 -426 -804 275 5 0
1593 -1070 597 0
507 126 -802 1170 0
-817 1430 1255 1494 1638 -1305 0
658 -1858 -53 602 -1954 -1312 -845 0
1947 785 -878 887 656 0
487 -1958 -538 -1475 -128 396 0
1156 1617 560 -486 874 0
774 379 -1165 1704 -724 106 -751 0
-51 -382 -230 -102 -1831 8 0
1065 1463 -1454 0
840 -491 -228 -613 0
-76 334 1176 0
1146 929 302 -1721 0
-1481 675 1940 -1445 1996 0
-1952 615 788 -311 1761 764 0
70 -1937 -744 -1715 0
-564 -1254 -141 -506 -1785 -140 1982 0
1737 479 -1596 0
1528 1187 -637 1310 942 -822 0
-759 1151 1619 77 1319 1569 0
227 191 1631 104 1513 0
-1427 -39 0
-204 620 1577 0
-717 -1827 -1786 -873 566 0
-370 1413 -8 -61 -1969 -1797 0
-780 -675 -497 1761 -947 -410 1222 0
-1275 617 -940 802 637 244 -7 0
-730 854 -1228 1923 -341 874 -15 0
-23 -1869 -660 916 0
1534 -497 -1347 0
1411 1144 262 1805 -876 0
-996 -1770 1908 0
1231 -1331 -1291 610 -1581 -1500 0
-628 -1750 865 0
-1992 -1158 1901 -556 0
-841 1259 1080 -1967 0
1881 1124 694 -29 -780 941 0
1945 415 -390 -674 613 0
-398 -281 -1092 1225 0
-1529 -921 -1128 -1396 1210 440 0
-1346 1097 229 0
-573 1556 0
917 1797 0
1680 -1844 -585 -1086 0
-475 46 0
-151 -523 70 -1753 -719 1748 0
459 -1383 -179 -381 1785 1391 0
960 -718 -52 1657 0
-21 572 -720 626 0
6 -597 1596 0
-663 1185 1784 1322 1884 -1270 0
478 975 1358 0
219 695 1784 -1597 0
816 -1633 0
1661 -333 786 -1687 1125 -1720 1844 0
1068 1668 -469 -1405 1141 0
1590 -1211 0
-1763 1288 471 323 0
534 -466 1938 14 -670 0
-376 183 924 -1383 -1766 217 0
601 -420 0
-745 -1220 -1556 0
-1955 -1643 0
165 358 173 -1656 -1557 818 0
502 576 464 713 1328 -1868 -666 0
159 -12 -1719 582 1456 840 0
-543 756 0
1708 -1687 -996 -1362 919 0
1571 199 -431 0
201 -260 204 -184 0
1119 222 0
-16 -1074 1918 568 659 454 949 0
1035 -1808 -1876 0
1228 1178 405 1031 -140 1909 0
-1866 1078 1003 -1982 1464 0
-1036 1075 -803 0
-80 116 -1839 -689 536 -1989 0
1698 -507 -714 0
1019 -1063 -1424 747 439 0
-1794 -839 0
-1894 757 -171 146 1061 225 0
900 43 432 -1303 -386 0
-833 -1277 -1752 1356 -1397 0
18 446 0
1980 -1905 657 -329 -1044 -436 888 0
1111 -1314 -594 1332 -949 1561 -921 0
-1657 1314 0
-89 -1830 411 1567 440 -1815 0
1451 793 -1198 -1197 0
-1126 768 1818 -252 659 1865 -1297 0
1719 -1336 571 -261 1570 -1086 -1011 0
-274 -1967 1534 271 841 0
-1425 1354 -751 -1732 634 0
-996 -1845 -268 -908 0
-563 593 -29 -396 -1545 1087 0
-1289 -190 1584 0
-706 -231 -1848 0
1233 -1575 -178 -1374 -697 -1875 -1158 0
-220 -576 -1108 -402 301 -1283 627 0
-751 -1420 -12 -596 1898 -1842 -1522 0
-1811 -1571 -70 -1927 1594 0
1130 -817 -1814 0
-1173 -1310 1313 807 43 -1048 287 0
-494 1673 1518 7 292 1139 1883 0
-1132 1939 0
-976 -1655 -293 0
-931 1171 -295 0
-932 -107 972 1179 1379 0
-832 1850 -1110 -1297 -531 1321 0
774 1448 754 -843 1180 154 -147 0
337 -505 156 0
1721 1008 610 -1861 -401 -1897 0
552 1634 -67 1068 219 -1217 830 0
154 1794 0
-1762 1890 1747 458 -315 1637 0
-1817 80 255 0
-1454 728 0
1553 -55 1380 1273 1695 1008 0
-1629 -1538 1831 1994 -487 0
233 -1570 1915 -1004 0
1008 1098 -692 -1126 1788 347 -636 0
1741 -105 731 0
1033 421 -1106 -581 -738 -860 -226 0
179 -1747 0
-898 1310 100 1922 -1702 0
628 365 -1961 0
-482 -1870 -1437 -1071 -317 0
-313 -1958 -484 1373 214 738 -1622 0
1115 -491 -1592 -1048 -1549 -1094 0
421 285 -56 -1446 -60 -776 0
-105 930 225 712 0
1876 -1666 160 -514 0
-1675 -1934 562 1164 982 606 -297 0
437 -807 0
-1155 197 497 -1859 171 0
-298 -1602 1156 1809 -933 0
1481 -1598 1627 0
-281 -157 410 1937 -1204 0
-961 -1207 1472 1022 -57 0
-1978 822 523 14 0
-323 1555 0
-168 847 1474 145 -339 0
-1501 553 -1358 -289 -529 1896 0
-551 628 -345 1516 57 691 0
-624 1634 -149 -1109 -1550 0
-1039 814 -1392 829 -974 1599 0
-517 924 1452 1860 -656 -165 0
-236 -485 -14 1713 -1602 -313 0
-1138 287 -377 76 1638 1686 1151 0
1406 -733 -1108 1808 0
310 -1603 -477 0
1507 -1443 0
297 581 -2000 49 -1220 141 0
-1071 1762 1563 1726 -1328 1028 611 0
-1640 -1606 1135 44 -847 0
-697 -388 1809 1046 0
-774 -760 -16 1082 1848 0
845 -1615 0
-156 -882 1188 97 0
-978 1193 -1266 751 0
-1204 221 0
-1716 -619 0
-1457 1907 1469 -331 0
1047 1564 -993 -1455 1405 0
285 178 1566 0
785 1367 -1374 0
-1093 -1497 -1731 -1362 399 -258 1384 0
1549 -206 1524 1522 0
-1743 407 1240 440 -879 0
-726 -1989 0
1591 204 -1570 -440 0
1775 -1339 1061 0
-264 -1339 -1922 -399 -1170 635 -1934 0
-1755 -938 1436 0
137 774 1604 1147 -61 1504 0
-1006 -551 819 948 0
1652 545 1736 -408 -805 -1644 0
-1043 243 -1011 -976 1289 0
530 1240 1512 -750 1197 0
-330 1330 1457 1295 0
-147 -1472 436 0
1167 801 211 1498 -346 -1892 263 0
439 264 830 1047 -71 -1431 207 0
-478 -392 0
1473 1387 1897 437 1662 -101 -1499 0
-1609 -1684 -1784 -899 819 1651 -337 0
1049 1275 -564 -21 -1234 0
-1012 1890 1528 -1186 937 1759 0
841 520 1800 -1256 0
-131 192 0
1037 1048 363 0
1210 1673 -886 -596 -1040 0
1297 -1060 83 -1017 -192 -26 -31 0
-542 -374 -941 -629 0
-1123 -783 0
1250 -1538 -143 -1939 871 245 0
-688 33 -1475 -1149 825 1583 -480 0
-1561 643 -492 0
150 -1692 -234 -874 -924 -1471 0
-1542 -1495 -1564 -406 1088 1283 0
-1372 -701 1501 -1166 664 0
1693 1712 544 -1717 0
1689 -1270 301 352 -619 1450 0
-964 -370 836 -857 0
533 1042 783 1085 0
-282 -778 0
-1465 -951 0
-330 523 -17 579 0
-1759 175 955 -914 354 0
-1544 1182 0
1121 739 -783 -890 50 0
150 -1452 -250 -490 -1100 0
-1904 -491 -1824 1584 -1035 1527 1336 0
1044 -701 -1621 -1382 -1007 879 -1502 0
414 -1157 1387 1418 1292 1275 -851 0
1719 -808 0
854 -1637 -63 1235 106 1932 520 0
-942 224 -89 1360 77 0
-1324 -1788 1256 0
1871 177 1820 1197 757 0
1516 -1596 1391 0
1245 -642 -713 -1888 0
1474 -1644 -1269 1227 -756 596 0
1935 1899 1949 0
-638 -1779 0
813 1547 990 -740 1615 495 -1507 0
963 -1499 -1081 -824 -955 -1035 -1328 0
-802 -467 -744 -889 1584 589 -803 0
-1096 -1865 -352 -1590 -1862 -17 1090 0
562 -1409 -1042 695 -942 0
-1965 -599 0
-1442 1051 -167 1841 970 1679 144 0
324 803 1780 1146 -1201 -595 0
210 -1355 520 175 0
1726 -1918 1154 -872 8 0
-665 1582 670 -373 -1310 -437 -1971 0
74 -364 487 1314 14 -167 0
1069 850 848 1548 0
396 -1822 0
-1884 1015 -1424 199 -1458 869 291 0
-504 -1720 -732 -1449 722 0
-272 -1051 1956 -1311 0
-1594 351 -172 -1560 -1257 -1903 0
1154 445 1254 -91 -624 928 0
-550 -868 -225 897 921 0
1222 -1094 0
-347 1382 0
-504 256 -450 -1707 -49 1168 0
1359 766 -1927 328 -1090 0
1315 -934 1875 1961 188 1098 1732 0
1225 291 0
390 103 506 -1353 1017 -1713 -1614 0
-1344 475 -1487 0
-378 725 -1573 1095 1137 -373 0
78 -1872 536 -484 -1518 1546 0
1834 1918 -11 0
1483 -87 0
472 -75 -206 0
834 1893 0
40 1699 -997 1999 -1855 0
1887 -1995 0
-980 -116 0
-1060 -30 473 -845 0
1490 677 -1494 -1382 -1302 -1519 363 0
-89 1470 620 -383 1294 -27 0
599 -985 714 -421 1294 -466 0
-1751 -929 0
-826 -417 1226 1808 0
1561 -1704 -444 -503 66 0
-1099 1189 0
762 1346 0
1815 295 -499 -587 1421 -1529 243 0
-80 626 -393 282 255 -1163 0
829 -282 1916 -765 -930 1595 1913 0
909 1503 0
-41 -1690 1951 1333 -1708 -480 0
339 50 -249 728 -1695 0
-1122 1573 982 320 -559 -960 1908 0
-1 -1958 0
1754 1399 548 1167 1133 950 -1923 0
-878 -173 -344 0
947 -1225 0
1772 -894 619 765 -1823 555 -227 0
-437 1965 -1039 1352 1435 1590 0
218 -1954 0
-1199 -1141 0
-900 1923 115 0
-780 997 0
-323 -350 0
-1357 -757 -1819 0
1228 1610 207 1517 0
-981 1683 -1665 -1785 0
1832 1355 75 1703 -1671 -1369 -1114 0
334 -244 0
-719 -189 0
-1536 1329 -1062 951 0
-1650 1324 1446 1349 1909 0
-1659 688 -1661 689 1413 0
-1398 -631 437 447 0
-1867 899 1391 0
-169 -650 -1460 184 501 -1258 1912 0
-155 594 -1211 1849 43 -1122 0
1062 400 1900 1616 330 1250 0
-1952 439 -764 -1053 1142 1383 203 0
-122 748 -35 -1467 -1599 760 -1538 0
1623 698 1572 1219 0
152 -1837 -1625 352 1017 1601 0
-1431 1966 1723 -936 0
-1585 118 -655 603 -1013 -1072 -521 0
1046 218 0
-1402 -23 738 1985 -1854 -683 1991 0
258 -1238 393 0
-442 703 -159 -1979 1454 647 0
386 540 533 1806 1237 466 0
301 53 -1736 -1443 455 -1064 -1560 0
1426 -918 377 191 -39 1703 0
-637 673 -1798 0
-434 517 0
1762 1916 0
-169 -1065 575 -509 0
-950 529 -687 0
-902 115 1968 221 0
951 -414 0
278 -1265 227 -1050 1952 0
112 -634 0
-1564 -240 0
1264 388 0
280 1891 782 -1860 0
1429 706 1488 -407 1059 1438 0
1343 -1817 -1310 0
-1878 -874 0
1538 -725 -1767 462 -1070 1073 0
-1524 -1083 0
858 -1013 -152 1925 -875 0
233 448 1501 1169 445 595 0
1961 -713 -1946 0
-1361 -478 113 0
1146 -1154 -1525 -40 403 0
-46 335 0
-205 -51 484 -1415 0
56 -894 -2000 0
-1880 1010 1791 -1854 -1768 -1411 -1779 0
-1252 492 0
1871 219 0
-764 25 -356 -1567 -868 0
-1339 1914 889 1911 0
-1371 389 0
-778 -825 304 1425 -1702 -292 0
-854 -770 0
237 -879 0
-1090 139 1069 -346 -1464 -1191 0
25 511 0
1885 -1976 1858 -46 -1365 1290 -1492 0
459 259 1528 1783 0
852 -1817 251 0
1335 -878 -744 -1284 0
1237 -544 -810 -374 -53 771 0
-90 -1486 -649 123 0
1687 840 645 -175 1781 0
-1824 -1039 1990 0
-1114 1052 -1601 -607 0
212 97 0
38 -859 1104 0
-68 36 -1879 -562 -1254 0
-462 1712 0
-1585 1771 1587 0
955 -1845 -12 -1470 1774 -203 -926 0
-768 1524 -341 646 -1199 416 0
709 217 1863 -702 -1312 374 0
1608 357 -372 0
-973 667 -1474 321 -1007 -1017 1717 0
-1076 715 1344 0
909 988 -792 370 14 1809 0
-1223 686 -1920 -1025 842 0
1877 150 -1444 716 1289 -1308 0
-1989 -147 957 -256 1186 0
109 219 -1015 867 -1751 -1432 -1623 0
1535 45 -540 0
1524 57 -657 -1215 -653 1034 0
-1309 250 1345 -648 -339 544 -174 0
248 -830 532 0
-321 1550 -474 1182 0
1586 -848 -1827 1149 579 1254 -1288 0
1331 -1094 1663 690 0
-1574 -473 -660 -971 0
76 -1968 -818 1595 0
-126 -541 1285 1474 -358 303 1163 0
125 1561 -1312 1075 -1781 -1635 222 0
910 229 -556 0
-678 1131 0
1183 -143 1505 -1333 -443 0
498 -1184 -695 -1132 743 -319 1910 0
-1592 -1208 0
-1044 -1792 -1259 0
-777 1032 -1629 -1536 -636 0
1711 -1085 -1648 1002 299 241 -1474 0
-74 -326 661 1728 -1739 0
490 867 0
1689 663 -318 -1028 1191 0
926 -41 -1335 -1703 393 1741 196 0
-1774 1456 -484 -1633 63 0
1379 1530 1515 -1123 0
-1115 -1741 -1662 0
-1065 1777 -578 922 1421 -667 -1354 0
1195 631 -982 -1114 -561 2 1959 0
-46 1522 1015 -1123 0
1800 -422 -1047 -547 -819 -1832 1169 0
-978 229 1867 45 -1242 -883 -787 0
-1162 1771 -195 773 636 -1231 0
-328 -796 881 1049 -1876 0
1640 1035 607 -1130 0
-335 1611 -1077 -71 -1354 0
1068 -932 -1352 446 287 -556 -100 0
-1747 951 -407 0
502 191 -1822 559 0
264 300 -1125 -58 0
407 -1115 -1626 0
-642 434 401 -892 345 0
684 86 -1558 -120 93 -388 0
-250 264 1089 -1874 1460 200 0
85 1507 -712 -868 -1314 365 -186 0
1187 -1548 1169 -764 1965 -1939 -1622 0
-660 349 767 1724 1508 -1456 292 0
1707 559 -1009 0
-142 1988 1742 0
-1711 963 -1477 0
1356 -1803 1457 495 691 -1473 -38 0
-875 -590 0
-347 820 -1940 -1055 1212 0
-1486 343 -1146 72 0
-362 887 0
1110 1778 0
1467 -1742 -394 1492 -222 0
-265 1063 1986 128 1819 1458 1300 0
228 887 1829 1972 0
1873 -608 751 -911 1753 1405 0
1854 1362 0
562 778 1289 0
-1682 1972 0
290 1815 1799 -1391 1097 -17 86 0
1012 677 681 -1507 783 0
-148 99 0
-144 1284 1349 307 0
1442 378 -1005 -1796 -1427 -736 174 0
442 62 -794 -749 -1454 -1378 0
1428 -752 0
1715 -17 26 -1541 1658 1597 0
833 -1724 0
1220 -1908 0
-1244 264 0
1800 -1121 1946 0
1270 520 -564 0
1313 -53 -554 521 -1092 628 0
-602 -906 943 0
-96 -836 -91 234 1111 0
1405 -1062 856 617 -1200 0
692 770 -128 -188 211 0
-821 1426 1545 968 -1764 -1095 -865 0
-1889 993 -1473 -1134 -526 0
877 -527 1184 0
450 -1515 -45 -1591 -910 -829 -1910 0
1162 652 996 1244 1466 0
1392 -1196 -1013 -688 482 959 0
-1939 951 -1461 894 -1211 0
476 -1193 521 -772 620 0
-1327 -1174 1207 1536 -906 663 -108 0
1409 854 -1495 -1415 73 116 0
947 -518 -481 1084 0
-1960 589 0
518 -53 350 -1970 879 1837 0
1438 1621 433 -25 1001 672 190 0
1085 -355 -475 0
990 -1313 -991 -811 113 1755 1780 0
1253 327 1250 93 1784 1171 0
35 612 228 -789 -1027 0
-613 50 651 -322 0
-1607 501 0
-531 -1706 -1517 0
267 -693 -1908 277 1781 0
-1521 1878 990 -1100 0
1942 453 260 -1059 -360 1676 0
-538 -517 79 -1275 919 -1037 11 0
1542 -917 -1864 -1367 0
1495 1960 1938 935 -57 0
1693 -548 1217 206 1698 0
-845 357 -396 1470 -1263 0
454 1456 1365 478 0
-1092 -611 -328 794 -1553 0
-1301 -1886 366 0
-296 1722 592 -340 -101 -752 -415 0
1669 -418 37 0
1278 89 1603 -456 -1669 -667 0
808 368 -76 1763 -232 0
-24 1820 746 0
-1637 576 -434 -1368 513 -1069 -562 0
-434 -829 -1184 1812 -235 1477 -1710 0
955 -123 0
-1136 1942 1780 -1734 -742 -415 -786 0
-1445 898 230 0
1025 740 -1507 0
1680 225 319 -1977 662 -1472 0
-1616 520 1606 0
-245 1345 -1635 0
935 361 -655 -1849 1202 -450 0
-1654 1020 1229 0
-505 -715 1778 -1398 -1174 -24 0
947 159 0
-2000 1946 -798 1988 849 614 0
-1199 1705 -1647 271 -1372 -1179 0
-1786 -507 1664 306 0
177 -1085 1598 1604 -1099 0
-106 -346 600 0
-62 -1494 1595 0
1195 -131 -1399 1819 348 1423 0
-1286 1284 1270 0
320 1212 429 0
-1510 -265 914 1740 -1123 -219 -593 0
1198 1845 -1002 -1694 630 1560 0
594 -484 1029 0
-8 -1587 -1303 -1268 613 -1255 -230 0
1953 371 -625 0
-1281 1 145 890 -1689 198 -1916 0
-265 804 1107 1279 0
1940 -356 -426 0
-865 -1194 -240 790 1225 -1326 0
-1477 1378 0
-1032 -1 -1772 -492 -1258 0
1310 294 728 0
1267 1038 -1824 0
1973 -1956 -981 -1511 -1723 -618 0
-1717 1842 609 -33 -331 -1236 -1259 0
-289 1319 195 -705 973 -1529 197 0
1645 -231 1268 0
650 -1804 -958 1224 205 854 1855 0
878 74 -627 -1122 -1707 0
1129 1520 -1765 -499 758 -776 0
574 1687 -1037 1515 0
-1047 490 1445 801 0
417 21 662 -434 1784 0
1983 -1489 -346 -427 340 0
446 13 1416 -447 -821 -642 0
449 1938 -639 0
-258 1777 1419 1064 799 -1447 0
-1533 136 654 -1152 0
1139 451 0
1649 899 0
837 -1872 0
1009 -1556 0
-979 226 1904 1242 1455 -1739 0
336 978 234 -1871 -474 183 1949 0
-109 -1575 -1106 1089 604 -1693 1254 0
-1060 -1776 -556 -1310 0
1901 -1039 -106 -797 -375 0
-295 -440 -954 1328 1412 -181 0
-652 310 521 -1684 -1330 0
1395 302 -1910 -701 -1481 -1704 0
-1572 1575 0
1546 1251 1271 -1287 -1846 0
-131 1931 -1846 -215 -142 1783 0
1228 1894 648 1664 1689 708 718 0
1750 -1334 -174 0
849 644 -1726 -31 0
1907 -1932 -1152 0
-1803 176 796 18 0
1742 71 782 1211 -1966 1634 0
1059 -1928 554 1503 0
-1736 -891 631 -224 1610 -1856 -1783 0
121 471 296 -512 0
260 -407 -798 1688 -1573 0
-1595 -18 1824 -883 -1882 1597 1057 0
330 296 1566 1293 1667 0
1010 160 -815 719 376 874 0
725 -187 201 1313 559 0
-250 -1817 -85 -363 1987 1333 594 0
-1226 1323 -1625 1170 1535 0
616 435 1945 507 -1268 1161 0
-995 1542 986 -82 -1851 1720 0
172 1020 -1797 -379 -1446 747 0
-888 -1579 0
-1917 -1191 0
-1922 -1236 1232 0
634 -1227 -113 0
-1400 -1417 -1566 1726 -831 1225 812 0
-722 -471 -1692 -1177 1407 644 0
-1633 216 -363 -590 0
-1546 -589 1318 -1262 1944 -857 0
872 -1521 -1295 -579 10 773 1088 0
1301 282 1811 1971 -1678 149 0
-938 -883 -1398 0
-301 67 -102 1650 1400 0
-730 -1242 291 967 -655 277 1663 0
1048 -647 -1351 772 -882 1297 1497 0
-225 -1134 0
-1679 -224 1278 -936 966 0
-1185 756 0
-437 985 211 1492 -656 0
-949 37 1721 558 1737 -1187 1931 0
-1233 -1885 0
1630 688 -617 -1232 -1928 1409 -179 0
-1937 -1675 1557 0
-1051 217 1682 1506 -1881 1228 0
-405 89 1895 -946 0
622 1656 41 0
-535 878 0
1763 -1200 443 0
-349 -1346 -1440 -1117 781 258 0
-274 696 -1322 -1274 1441 -53 -374 0
1192 -238 0
-1913 -1138 1715 1638 0
380 698 1958 1921 427 781 1307 0
-1280 884 -77 -259 0
-621 -680 -92 -1795 1922 -1194 -1224 0
-1548 -126 -365 -266 -227 599 0
-1123 -1555 901 -1279 0
-54 -113 1682 -718 0
-1217 -281 0
1169 -1278 -1232 427 0
1852 1205 1225 1024 -1210 -791 -474 0
1234 -505 763 1504 -1132 0
-523 1256 1430 1609 773 -1266 0
1180 311 -1615 -1801 -381 0
-40 747 1761 0
969 -1281 -1912 329 1736 1872 0
-149 -770 -80 -1338 -376 1487 1551 0
165 176 0
-648 70 208 1904 -443 0
1801 1913 0
-1189 -1940 901 1295 944 -1142 1486 0
212 -430 -871 0
1560 1288 190 1842 -789 -1148 0
1407 -1580 629 -314 807 0
-1183 -1769 0
1406 -1572 384 -483 67 0
-1517 -1511 -1179 779 -1152 1667 0
99 1409 648 1779 -706 1706 -416 0
-423 -592 -1353 1216 -587 -1251 0
1915 1397 1201 0
1587 1279 1426 480 -185 -686 0
813 1384 1789 956 -1766 -1444 -1189 0
1919 -844 466 1492 -87 -23 0
-159 -1330 -311 1950 110 -331 -1104 0
398 -1765 -615 0
1538 -1699 -1661 -1316 0
-1598 401 -1840 1311 0
-1209 -403 1347 -1601 615 0
453 1928 1084 -775 527 -859 -666 0
-293 97 0
1849 1525 0
-1164 -446 0
-1149 1626 1493 -911 -742 0
-1482 -1713 0
1128 284 0
814 309 -1919 1468 0
-1599 1246 1104 0
1898 -430 1882 174 -1426 156 0
-1974 -1232 -449 552 0
1116 -285 -595 -410 -245 -964 0
-298 1013 0
-1127 -1804 -1816 262 0
-1713 1141 -381 0
-787 -887 235 0
1839 615 0
1214 399 -166 1412 -389 0
-1180 -983 -966 0
187 -1445 1786 -1391 -184 0
468 1745 -91 1301 -846 0
878 640 260 744 0
30 59 242 0
-1988 -1860 1185 -76 -1207 0
-1274 1426 0
-300 -205 -1249 1080 0
-1012 -345 -239 1856 -1193 418 0
225 1034 1077 -373 -1212 -1123 0
700 777 835 0
-1018 346 452 1635 -405 591 0
-147 1840 1707 -1878 25 0
583 -1219 0
1101 -1634 173 0
-476 -691 -1239 -829 0
-820 1318 0
-1482 1797 0
-312 816 1464 73 -1248 1533 0
822 125 -684 -520 -189 75 0
-111 -989 -1244 780 1386 -701 -88 0
-1716 -713 -575 -165 0
234 164 1775 1630 -180 0
-182 -1529 1822 -1351 -326 0
-952 288 0
-1411 -959 12 0
1549 255 -34 0
928 -133 182 1000 0
549 -581 -1607 1795 -1996 0
1561 -625 1396 -1412 1750 429 -1487 0
38 919 993 978 -1287 -1404 44 0
1467 1908 1858 -700 0
694 606 -259 0
-1953 1734 299 -669 0
-1286 -1112 -1753 -1587 929 -141 1271 0
605 261 0
1170 862 754 0
1238 1708 419 -1236 0
-1684 -965 -1372 -1622 -1312 248 1832 0
-1329 1828 -876 862 -1681 -1239 0
138 -1062 -396 135 -1569 0
1116 1787 0
-722 959 0
1023 -807 1749 1864 1049 -136 -3 0
-151 -170 -22 1555 -868 1713 -360 0
-399 813 -1802 -1655 0
166 1176 0
-436 1903 369 531 0
-1214 -1588 0
-356 -1519 -1167 1914 0
-469 729 -1109 -1578 -1557 -508 1197 0
1581 -1157 0
-909 -1918 1581 -538 0
-1623 -829 0
175 -549 94 -1003 1676 1427 0
1457 -1328 0
1599 -320 510 1802 89 0
953 -101 0
1574 890 -1749 -1155 -1979 0
-895 -76 1529 0
-62 320 1289 -1769 1918 0
1147 -1764 0
-512 1103 -198 -432 1185 -299 0
488 908 1310 -182 1629 269 1365 0
1411 985 -1808 0
-187 524 0
1822 1476 -1649 -1437 1839 0
107 625 -1971 1407 569 0
1974 395 968 1669 0
-1743 -821 -847 -1035 -1509 -1250 -1138 0
-140 890 1022 0
1937 -1204 1340 0
-1942 -1575 782 973 478 0
-211 -1097 0
1874 -405 1502 967 0
1018 774 -1537 0
-5 1720 -381 -615 -772 -943 1540 0
-535 1219 1176 0
23 1492 0
-557 -1376 1105 -1687 1079 1364 941 0
1991 79 24 0
1409 460 -1363 920 1741 -513 875 0
989 1242 -267 974 0
-1057 118 703 1473 2000 0
524 -1785 401 -128 -1202 1968 330 0
1054 -1591 1100 -1098 -1461 538 0
-571 590 1634 -1816 0
-905 -725 -1946 -1529 1334 -1597 -1488 0
683 -1995 -869 -540 0
-1282 -1989 -1271 0
1869 1787 834 564 -435 0
1193 -928 0
1822 -1778 1660 -1741 -661 -1246 -601 0
-642 -280 1919 -1084 1557 -1219 0
-1382 -321 -1854 1765 -1260 389 0
886 58 0
-1394 1033 -1454 1522 311 -1544 0
784 941 935 1541 455 -889 0
-1095 339 1880 -1875 1371 0
-1836 77 0
-1789 1151 -1076 873 1089 -1100 0
-296 -1497 -778 -1663 -536 0
259 -768 -363 1560 0
-1037 1217 0
-461 -1731 -1521 433 322 0
558 1212 -284 -617 0
1481 1346 1666 1501 0
-1947 1807 -1636 -1614 1545 -1672 0
1541 587 497 1778 0
-235 294 1144 -1296 -289 444 0
1632 -1614 753 91 110 -1021 0
-8 1563 0
1692 1253 -833 1078 -1603 -1310 1707 0
1403 1602 157 1008 -985 -1574 301 0
1685 -1223 0
-1770 -662 -1176 -1305 442 753 0
-1753 1844 -865 0
1662 -1504 -660 -1181 -981 -545 1802 0
-1310 191 -1890 0
1220 870 -1866 926 -520 1571 -663 0
-1300 -1679 -1230 0
-1051 -1510 703 -718 -137 -235 -675 0
-781 -335 114 -59 0
-892 -331 0
335 1457 -1653 -117 0
108 -374 -1588 0
-51 631 819 -53 1511 -1770 0
1176 -600 1478 866 -1968 -155 0
-409 -75 1553 -462 177 0
1246 1456 0
-1075 1431 1315 -859 -1401 0
1059 -305 0
-1573 1972 578 1681 1995 1530 671 0
1188 -917 1728 1300 -914 -469 1256 0
-1566 -105 1091 638 -202 0
-1012 -698 800 -1475 0
-1418 -1848 849 -1160 -321 -409 0
-1083 1468 0
1674 -557 -1415 1301 0
-598 -597 349 0
903 527 -1754 0
-404 -92 -779 -871 0
683 380 -1175 756 0
820 -1867 -799 -1206 -1186 1255 0
-1507 498 -1718 -1232 0
-477 -387 1280 0
-343 755 0
808 562 -1222 664 -483 0
1682 -1466 699 870 1609 0
-1735 -444 -717 -1363 1752 0
-1497 -1824 1793 -1516 1573 0
1730 -923 -966 1935 1749 584 1458 0
-1658 790 332 1092 0
-1407 -1849 780 1224 0
-856 -715 -502 -959 0
831 887 -1712 1039 567 -482 -1935 0
1584 -437 1075 -127 0
-1407 -612 -1850 -127 -779 1526 0
1320 -41 1697 -1577 -500 0
-871 -1614 -1266 -363 -1480 -749 1283 0
1053 -1963 661 1572 812 1868 -1187 0
-1948 472 0
-419 -734 505 250 1553 0
180 936 1235 0
151 -1185 -1204 -850 0
1389 643 -1551 -1548 -1067 1726 0
769 -502 794 1318 -1847 1349 840 0
-468 180 1756 -409 1877 0
-1392 1738 -199 181 379 1656 -983 0
-1469 877 88 965 1231 0
-404 -106 -1127 0
-215 461 0
628 304 -783 353 0
-1030 -1066 0
-1947 1495 -204 0
1288 184 0
-1315 -1920 1583 1832 399 0
-1909 -1763 180 -1422 0
1089 -1112 304 295 -1967 446 1357 0
1665 -263 992 1874 -1047 0
294 1563 1308 536 -1485 1887 0
-1707 1163 29 -1107 1412 1007 -1511 0
-764 1472 -940 -628 0
-1149 492 -1456 -714 -1442 -1564 1318 0
-1786 213 -1427 -1521 0
1642 180 366 -342 1323 1765 0
-905 -639 1219 -1064 0
285 1880 1200 885 1650 -1845 -405 0
-451 -537 1717 -757 1056 -3 1801 0
222 1055 -463 -856 605 -1522 0
1398 223 696 0
-454 405 -1221 -946 0
-1606 -1065 -980 0
1219 119 -1989 1998 695 263 0
1899 1524 1112 -720 -1735 -1916 -263 0
1214 -1072 -540 0
1671 -117 -611 257 749 230 0
-1950 -1348 1750 1737 -1979 0
-948 1024 -462 -811 -1489 529 0
1321 217 517 1500 0
281 220 0
-881 1614 1088 1733 -1708 -1932 0
-492 1882 0
-1489 -1261 1960 -517 0
-1960 1089 -401 0
-1631 -304 0
1804 -1922 1955 1374 -1647 1388 0
885 -1611 0
-940 -1571 535 -1413 0
-510 -976 1878 -164 0
1864 -1246 -1162 1051 -1040 0
438 -1372 451 -185 0
-1907 1923 1337 -1051 -1235 -1471 939 0
1335 1492 0
1343 165 -294 0
-612 1549 0
1086 1479 -1467 1988 -285 1533 -658 0
367 -1856 79 -1094 0
714 1555 -401 -1214 -696 -1724 -1124 0
-632 1032 1848 0
1281 -522 1770 242 0
-1305 132 -756 608 0
1444 1460 355 1913 511 0
1805 195 907 1366 -980 1552 0
544 1207 0
1075 -1713 -1366 -1398 0
-351 1737 470 -1124 -840 -639 0
-1807 962 1168 1387 1241 0
-577 -437 0
-695 -1914 1449 1862 -105 591 0
-846 1032 -1881 0
1499 -1518 1353 0
-1611 361 -763 929 0
1830 788 0
1470 513 -174 1840 0
-576 -1774 -125 0
-523 969 679 1471 0
-120 247 444 -65 0
-1900 277 -852 -1219 -1781 -1107 1252 0
-1031 847 0
-1383 72 -11 146 -471 0
844 1125 0
487 -1746 0
136 1006 -671 1446 -837 1349 0
-1078 -1360 -1377 1886 0
-1051 -258 1762 -1337 -1263 1194 -101 0
1424 1729 -396 1595 -1020 290 0
64 -269 175 705 -461 286 0
438 -204 0
-1321 -1758 289 -1467 -723 -1997 0
1215 -1719 0
925 1849 -1984 1245 540 -1458 0
365 1903 -659 650 168 0
428 -45 -387 542 -65 -494 -1621 0
-1537 160 -176 -895 -1890 282 -902 0
868 1036 1933 -591 0
-932 -1691 0
463 234 -30 1262 -1463 0
1407 -1385 -1844 1692 -1840 -779 0
416 1025 0
1250 -1473 -1246 0
-1007 -1537 76 1758 1824 -1135 0
335 449 -498 -1188 -1476 0
1489 1887 1302 -1133 0
1764 513 -584 -540 -11 0
259 290 578 -1857 -689 -108 0
-858 -906 -1860 688 -1900 0
-1314 1944 195 682 416 -1709 0
1899 1652 0
-300 1936 1454 0
-72 1147 -1855 437 0
-1857 25 -245 -1231 1814 -1587 0
-994 -803 -655 1365 -1327 715 -1582 0
-784 -189 -356 1701 0
630 147 1757 -554 -14 -1095 -1864 0
-1588 790 -691 1625 97 538 -1019 0
-642 1426 0
-1684 -315 1815 -1863 -1027 1427 15 0
-1020 936 71 0
-1662 148 -1712 1032 -890 -424 -1384 0
518 -323 0
-1939 594 -1782 1769 1112 0
1751 1899 -990 -1996 0
-146 -1198 -1475 -1034 1599 -1393 750 0
-1572 322 502 1382 -341 0
235 984 1795 -452 -1501 1028 -465 0
1010 -402 -595 1577 1165 -1946 486 0
-552 376 0
1034 939 -1779 -990 0
479 -894 -360 -153 1912 0
-1316 -1892 0
-411 1784 713 124 -129 0
-141 1709 0
1441 884 881 525 -891 0
1944 1353 976 1001 748 999 -190 0
-933 -1481 -804 1425 -997 1091 560 0
-287 936 1782 0
84 464 1161 -1632 -1545 -715 0
15 -1853 -1983 568 924 0
1944 -1453 -354 0
773 1487 -89 32 1923 445 -7 0
1975 -689 860 -384 -1042 0
-1541 -1557 0
210 -1120 -23 -910 0
-599 -1255 -905 1358 527 425 -1191 0
-1120 1635 1262 -1623 0
185 1386 1303 323 821 971 560 0
1909 -911 63 -1286 1742 -752 134 0
-227 -233 1625 0
455 657 0
-1244 -344 1582 -124 523 66 0
522 279 1663 -1779 1665 -1560 177 0
893 485 -1453 614 -50 0
-1253 -40 839 -1353 0
-1052 1771 -1826 562 1843 -1041 0
1557 -562 -1245 -148 0
1276 -270 -1759 0
-543 47 0
1162 -1876 0
-1983 590 963 -1745 142 0
-1826 -700 0
-180 -1383 -1251 1757 10 1443 0
1848 679 -1026 -63 186 982 970 0
1350 -799 0
224 1190 -6 -76 -887 63 0
334 -492 1278 -738 -1960 1925 0
744 542 1674 350 0
-671 1194 -1963 -165 -1145 -696 0
-1144 -781 0
510 1210 -882 -1533 -1911 1035 0
-495 1566 -1061 -595 -1312 1134 0
785 51 0
1848 1694 -1388 989 1339 1383 0
728 -611 0
647 1477 -1076 -581 0
682 -251 -412 0
821 -811 -239 0
1304 -1784 -870 -1621 -704 -366 -1458 0
1377 -92 -96 1688 1059 0
839 936 1623 -1787 -873 0
1868 -1503 171 -668 -364 1806 -55 0
1822 361 0
-285 -1787 0
630 -1251 -469 1702 -1277 38 771 0
-621 -1003 751 -1979 1939 135 0
-1110 -1176 -1208 398 234 1591 -220 0
-90 -727 716 -380 477 444 -828 0
-348 -1766 1607 -342 -1552 0
1469 326 -659 1233 -509 -669 12 0
-980 -440 -1529 -1890 0
1155 -1132 -453 69 0
325 -293 1202 -471 1252 -1719 1575 0
-1660 -1700 0
-1712 1808 1560 262 1361 0
-84 1957 1932 922 1251 0
-1752 631 810 -1347 -860 8 -82 0
1364 -148 1393 -1 0
-1451 976 -1386 -1727 1002 0
-112 1922 0
1917 -265 -1311 -1528 960 730 721 0
-1446 -165 -446 535 603 -8 1628 0
-1440 -677 -282 369 1059 0
575 1012 -970 -730 38 858 1667 0
1328 1714 504 1317 -891 0
-518 235 1830 4 -83 -909 1295 0
-461 -248 1023 -1534 1371 -606 0
1657 366 0
-1730 1168 0
442 -1477 1522 -203 238 -1806 0
-1068 691 1401 -674 -414 -1048 0
-1207 220 -1075 8 1934 0
445 1215 1642 795 1050 -1707 0
-1590 -1117 1360 -1675 1806 -843 0
-358 1962 -1648 -1340 1745 0
886 -1866 1147 0
1014 627 263 -771 104 1264 -220 0
-2 -79 -1132 1031 -1594 -1451 0
451 1781 1007 -605 0
1356 -758 1286 -717 -1371 0
-352 -669 1616 573 888 0
-828 1053 213 -1604 517 0
765 1688 884 733 -1280 0
-200 -346 323 590 0
-1282 -1611 1400 1852 -1755 333 1017 0
-1018 -1493 0
-1895 1553 299 600 330 -1577 0
-1924 -271 0
269 -1433 -700 359 839 1597 0
-150 275 1032 0
1281 675 1856 0
-881 576 333 616 -199 0
-1210 347 422 0
-399 1068 -1917 667 1613 1554 0
-1075 -463 0
-607 482 -1831 -1425 1424 -1026 0
1318 65 -1730 -933 0
699 -1811 -818 -489 0
1674 -731 -758 -1641 1712 -152 0
-1030 1211 -1821 -1855 295 469 -988 0
-1124 -1426 1917 1186 62 -1362 0
-1089 -584 -1332 830 83 942 0
-300 -384 -1751 0
1121 -1594 -764 503 6 0
1182 -1156 1579 203 64 -1585 1556 0
-851 360 486 850 1469 -1433 0
1109 1763 -717 1443 0
951 -1612 958 -1003 -834 0
-1975 555 792 -1147 0
-701 -1226 -632 816 0
-1507 1299 52 -1732 1520 0
156 -1260 701 -1816 -815 0
1546 -1821 1989 1131 0
991 351 917 -1869 0
796 1167 -1284 619 -1953 0
1590 -1471 0
634 1198 -350 796 1059 -501 0
617 1348 0
63 -1817 1578 -1204 0
-1364 -1565 -1895 0
559 1736 -298 -834 -1297 -1016 0
684 -471 -661 -1047 0
-1387 -124 0
92 -695 1481 -716 0
-519 -1200 1264 -1608 919 0
1329 -1920 -378 -1875 -1987 1326 0
472 -892 -1332 0
1198 -948 0
-1242 1772 814 -919 769 -1914 0
1021 77 -1589 900 -520 0
-1813 -1388 -445 -1358 1022 -1721 1035 0
-798 -984 0
432 -778 -745 0
-1508 1009 0
1216 1564 -1360 -488 -322 -905 0
1170 -256 382 -1958 1244 -744 212 0
937 36 -1631 1813 -734 -10 0
917 191 -696 -1448 -690 -1317 1925 0
-84 745 -865 1028 812 0
-400 1701 0
692 1662 -1489 528 776 1294 0
-1525 -18 1732 -1350 1379 0
-1343 1290 0
-1436 1462 1757 1636 -628 -1563 0
788 1166 1713 267 1535 22 0
70 -1463 -580 -83 1934 -1524 226 0
-255 117 -1748 -1515 -1189 0
60 1444 0
-1511 1935 1582 0
689 -1431 -837 -1142 0
1991 1527 0
-1547 1069 -958 425 -1577 63 -1147 0
-91 -172 1606 0
-1080 -1634 -395 -692 0
522 246 -1278 -1713 -646 562 911 0
-517 990 932 -639 1003 0
-21 2 -1290 18 -413 -1607 -1551 0
-1366 -1768 0
-1409 1904 -228 0
529 -1974 0
1688 1348 -1742 -1644 63 0
-53 -1160 564 -16 1988 1038 0
1080 436 677 -1011 0
-1752 -1432 -1869 -228 -377 38 0
-1039 484 -511 1722 0
343 630 -1877 0
586 -1637 -1623 -1270 0
796 1007 1826 534 365 0
1489 -1362 0
164 621 0
-1213 3 -1394 1564 302 -247 -39 0
1405 821 -1551 -1131 0
-649 -1386 0
685 1454 -103 410 0
-596 -1760 1963 0
1456 505 -150 1876 191 -609 0
812 -30 1761 -1867 0
1369 1457 0
-206 181 832 -1789 -1305 0
1449 1596 -1530 773 -677 0
-1575 -912 0
146 -819 1911 -1008 1244 1770 1902 0
-1476 -1755 513 625 0
-1184 -1027 989 1706 0
942 -269 1396 0
1464 -451 139 1242 1597 235 0
919 378 1451 1418 -910 1865 -16 0
-712 -1206 1716 913 1929 0
-1862 438 0
1481 1672 393 1500 -676 0
-830 77 -1969 0
1196 1016 1694 704 0
1868 1839 -9 0
-684 1876 -390 0
1559 -1825 0
1899 -213 0
-1069 322 1257 1964 0
1160 1855 368 0
396 -817 272 464 1002 370 986 0
296 -605 -146 935 0
799 1352 -1717 -1558 1269 1654 -1397 0
944 730 864 0
1783 -1206 903 1121 0
-1321 -20 1090 -867 0
-707 303 1777 -637 159 1537 1189 0
243 -700 846 459 -494 -1004 0
-1331 -992 -1713 528 248 623 0
774 -146 1313 273 0
106 1191 -1362 -192 -199 304 -1867 0
1140 -218 42 -881 0
-676 -877 -1800 -800 -972 -477 -150 0
1023 -1530 0
1952 100 0
-252 -457 539 578 -167 -307 0
-479 176 637 -398 -493 812 -329 0
-1268 -525 1884 0
-834 1803 1859 60 0
1862 1124 385 -470 100 260 -691 0
1909 -96 179 0
-852 -1515 -1575 -504 1221 636 0
-721 -1131 -1198 1626 -101 0
951 -1704 0
1449 517 1127 -179 -1582 0
-242 1228 -1613 0
-973 -1705 1855 1296 -399 456 0
1031 -1242 138 -1573 696 0
-1239 441 1868 -955 0
620 -393 0
-1802 -545 1569 0
753 1788 -1794 -688 -514 -298 460 0
1240 439 0
-596 -835 0
1698 56 1356 -1769 -1027 0
745 1873 1237 1913 -1973 0
-448 -1612 -544 -459 -797 1350 0
1641 -616 -1481 -760 253 768 -1849 0
-260 -613 -1010 -259 997 0
1391 -828 -734 820 1722 0
-1651 -1847 77 599 0
1506 -1430 1236 1217 0
-1243 -123 1379 1425 428 1953 -888 0
1755 -942 1410 -122 0
488 1605 1779 0
-52 -1196 1481 -38 458 0
1723 413 1024 -657 942 -884 0
-562 1302 903 -1100 0
1621 1371 -1990 -545 610 0
944 -155 323 -834 0
-1732 -1908 595 741 1003 0
-924 -711 -425 258 -1469 0
-1448 -1497 8 -430 131 0
1492 917 1522 0
1390 1787 0
-706 -1527 481 -856 -214 1461 0
-1956 -640 -1669 0
-1516 301 0
-1713 649 -1813 0
43 -148 -1403 0
-299 -1806 0
-144 -387 -208 0
-1323 667 1387 -145 0
-311 -417 -1966 0
-1996 -419 -1002 1369 0
-1228 -1632 -1 -1915 0
-1647 -1154 1710 -1205 -893 0
-658 -935 0
1651 -1874 0
1570 -1594 -1231 1921 1420 -780 1717 0
-760 -973 1438 0
-817 -267 987 1798 0
-820 -1972 721 1098 417 695 102 0
-1432 11 -659 0
-677 -1208 -463 0
-143 812 0
683 -131 1452 686 0
-1043 1156 1700 -1888 1293 0
1114 -15 -1286 744 -1510 -1822 674 0
-14 139 755 0
-1819 -1132 -1472 -460 0
-1009 1721 -1730 -1405 1087 -1599 614 0
1297 1266 0
891 -1513 -1153 -1475 -1000 -1243 0
1446 -1951 0
21 -1693 438 0
-1455 -1843 -947 -1331 0
1844 253 -1398 909 0
-1235 1735 -801 0
-238 673 0
20 -555 748 -359 -1329 0
1981 -114 -1134 -1595 -476 1208 0
1785 -1510 689 324 0
560 17 0
1311 1132 -654 0
959 1196 0
24 736 -862 456 0
-1510 -1935 -973 810 99 455 0
-1202 1933 0
984 935 -1346 -1611 1685 1850 738 0
747 -253 240 0
-199 208 1839 0
1488 -655 0
1834 -240 -1219 0
1993 -1763 -1349 1215 636 0
1676 1025 1936 -1466 1718 0
-1396 -1149 -30 0
-1092 1820 -1662 1367 -1669 484 625 0
138 145 664 1769 725 713 1002 0
1229 -1273 -284 1594 1520 -450 0
-619 -1426 411 0
687 -1794 1582 0
-979 448 -1257 0
918 -377 0
-1820 -688 0
-832 756 54 -1606 0
24 1320 394 -919 840 0
-1386 731 -1180 -1357 1516 -797 0
-974 -221 606 -1204 0
1080 309 -1087 1924 -265 -1258 1534 0
-1358 694 -534 1454 1433 0
-689 -1113 1229 0
1610 -231 1760 -1329 0
650 1006 1983 -683 316 1536 0
1095 -812 -265 -1820 -734 -370 802 0
39 545 -334 -1331 -263 1973 0
-1558 -431 549 -1598 219 0
112 -434 -1002 -169 175 208 0
1039 46 632 0
47 605 0
706 1991 636 -1257 287 1567 0
-775 379 1973 -680 -1093 0
1337 -1267 -1396 405 1868 0
1843 -1163 -1448 -310 660 0
1168 -809 1604 -298 1997 0
1811 -1779 -1836 1967 0
-1844 -1400 -289 826 1529 935 1575 0
370 633 -20 0
1469 275 -1559 -629 -93 621 0
-678 264 1227 894 0
-32 -1795 -1123 229 1074 0
-958 1503 468 0
281 -1174 -1937 751 0
319 -947 847 817 -1857 -155 0
-1138 -1787 205 361 385 0
1994 289 -1588 1361 0
-1350 1701 1138 -1185 0
-654 1176 -298 -76 1454 0
717 -1855 0
1308 400 -1711 0
-1066 1612 -849 -1393 1908 0
1736 -612 0
-197 1879 -1895 0
-382 341 -1398 1467 1048 136 0
1552 -209 -1081 1704 0
1863 -1292 1688 -1285 -1189 -1072 38 0
-769 -219 0
-330 820 0
-657 1230 -1583 47 42 -584 0
-1653 -262 1383 798 -251 1758 0
229 -339 460 1576 1157 0
-244 1919 1924 0
-907 -1415 -444 -386 0
-1073 1184 -209 -664 426 1870 0
1565 -177 -1984 -1951 189 0
1534 -56 -149 998 -1569 -752 -9 0
1248 822 -1349 331 -1242 -1791 -1731 0
-1899 328 0
949 125 594 -501 0
-1854 182 -1411 -1195 568 1542 0
1804 -71 -420 -364 -782 262 -1604 0
555 1569 489 0
-95 62 -1718 -521 1854 -224 0
-1540 -1724 -45 0
-1674 -1947 0
-134 851 858 41 0
1841 1234 1712 0
-1752 -1303 0
990 600 -1663 70 1223 -1763 0
437 -882 1378 373 0
-508 -1138 -1591 0
1864 -872 -563 -1074 1153 -402 1745 0
118 16 603 883 -617 -160 0
1943 -1588 0
664 606 1830 1502 0
-129 -1551 1223 -253 0
-1731 1368 -1637 -1563 -944 0
-938 -1733 0
-453 1020 -2 0
-1244 -1425 1232 1126 0
1014 -1227 -1310 745 -571 747 0
699 -1249 264 0
1705 858 235 -824 0
-1785 -1803 0
-1557 -1286 -620 1088 1767 1577 0
1044 1098 806 0
363 944 126 1248 897 667 1906 0
-1676 8 1571 1746 0
899 -1507 -797 1638 -1663 -575 -1881 0
1499 -1052 1752 -1282 406 0
-1562 -1995 -1136 688 -671 -1869 1143 0
-46 912 1913 -1485 -1747 -1285 0
153 -792 -1317 -1703 1851 0
1012 1183 813 0
-973 -88 -1279 161 -331 1463 1896 0
833 -1256 -549 0
-533 -1259 927 945 -190 -1495 654 0
-1827 -1026 142 -544 -713 -1476 0
932 1624 1747 816 -1885 0
-593 223 1767 1663 1698 0
1336 -1995 0
-1910 1013 0
1866 1542 0
-755 1521 -1306 0
-1810 -187 638 172 1019 -754 0
1483 -648 0
922 109 1280 0
1128 -440 1886 1527 -1651 447 0
-1769 -877 0
360 -1516 1930 1012 -1125 0
1927 -872 502 -1664 -441 -1033 -403 0
1290 1816 1730 -449 1045 0
-1957 1258 0
-248 268 1534 0
460 -596 0
1842 -349 1276 1486 1541 -20 0
1218 151 -368 0
746 1050 -1119 -962 12 -1070 -775 0
-1585 -1597 -1164 505 0
-1874 -1594 -478 1550 1554 1928 1661 0
1456 161 956 -1110 0
755 -245 -1553 126 532 368 -1759 0
-462 -104 -1891 1583 -1302 0
693 -1801 1003 558 -1617 0
-1119 -1048 -1704 917 -1737 0
-504 -496 -1731 -135 939 1704 -1780 0
486 -231 -70 -461 605 -981 -1901 0
399 694 0
-1980 -17 1743 -1231 -671 -841 0
-314 1082 17 1249 0
-109 667 -1450 -143 0
-473 -1405 1698 943 905 -1332 -707 0
1372 783 1504 -273 1288 -124 112 0
714 841 -1899 297 280 -1768 -394 0
1037 -1142 -1128 -1583 0
-29 -730 195 0
896 -624 0
344 -163 -1011 933 0
930 793 -1801 -1435 -1640 -1241 0
-1355 1764 -932 -1562 142 -363 0
641 -22 -1634 0
1788 178 -200 -1010 0
-520 87 0
1494 1885 -1672 -219 -1805 -1949 0
218 710 1625 886 0
-951 1344 -1901 0
1798 -470 -1575 98 411 216 -375 0
1213 -816 1619 -42 0
-1584 -320 350 1888 -477 1394 0
-1273 394 0
832 -391 0
628 1786 -837 -1878 243 0
-1490 -1867 1984 -360 1976 1247 -1566 0
-95 332 1148 1452 0
1063 -376 0
-1321 1180 -150 859 -816 1693 1927 0
-56 -272 -1025 -1172 0
81 677 689 0
-975 -1870 -1036 1768 478 0
-990 -302 304 -1760 1443 528 1139 0
-1269 -1386 571 -576 0
-601 1730 0
-1108 391 988 -1613 643 840 -1085 0
1601 738 819 -1476 -362 1676 4 0
-1480 -703 0
863 -1122 1369 577 -1574 0
-914 -1390 51 -716 -1047 0
931 119 -305 727 739 0
512 402 -683 1133 -1043 408 -1504 0
-212 176 -1973 -1845 682 467 0
-53 -1826 0
-1575 -1034 -1023 0
42 -724 -1350 -640 881 0
31 749 1096 -1889 139 -255 801 0
578 1274 0
-1859 -1769 810 93 1963 -827 0
-540 -467 -689 1148 1493 0
456 -677 1314 1223 177 -1566 -328 0
-213 -1261 1609 -570 -1825 326 0
86 657 1621 0
-559 350 349 532 -1522 0
84 -1009 -15 0
1629 418 0
1173 -1680 759 993 376 0
-847 -1105 -1571 -1682 603 -1532 0
1228 1308 1937 0
-1656 -1451 993 -907 -972 -1580 699 0
-857 317 0
1380 -1596 -1445 -64 -108 0
-1819 1347 1827 0
1225 1487 1752 1243 0
37 -1137 -1926 -657 1561 -1750 -546 0
1349 1982 631 -585 11 -128 0
1819 1419 -154 -141 784 0
-1877 -400 -1956 1672 -1471 -988 0
-32 450 1993 0
-1042 -1143 589 -705 1743 225 0
553 -265 -47 1687 0
-1517 631 374 -1153 720 -1190 -1701 0
1815 -1704 1481 328 0
-1672 -341 1883 0
-878 -1592 -353 1568 -912 0
1876 1987 304 -15 1055 0
-72 748 384 142 904 -1082 289 0
-904 1934 -1789 -668 -834 0
70 -598 903 0
-1380 -1128 1635 -1599 0
-252 465 -825 -655 1478 0
1006 608 0
-117 1261 -1547 648 0
-267 -855 -1644 -1947 -411 -136 0
-716 -577 -1032 -391 1229 1854 360 0
-517 1241 0
1444 -1604 -1036 0
1304 1860 0
-235 -756 -1082 960 1772 -1999 1279 0
453 114 -738 76 505 -715 -705 0
-655 -242 -1878 -1411 0
1488 -571 0
-151 -499 616 -1536 -1037 -1026 0
-1590 1214 492 1596 -1843 -281 0
-90 -1365 376 -791 -903 -671 0
-945 -719 -631 596 560 -597 0
1860 1427 504 465 0
-644 1506 -1908 0
1535 681 0
1597 1789 954 -487 -1751 -786 0
-406 -645 -1777 -1994 -1425 611 1403 0
958 1133 -95 1232 0
-121 -1332 -230 0
1741 1142 -1453 -201 1294 0
171 -1771 653 -1725 876 0
184 780 914 -622 0
-520 -1443 0
1483 -1378 -1444 1736 0
1093 727 0
598 -685 -78 1418 -1301 0
-1141 1749 -1875 831 0
-824 -1190 -228 72 -883 -836 -53 0
1634 -1075 1833 -989 0
-1013 -1535 1553 0
1483 -154 -1151 273 -1833 997 0
845 65 -1760 -24 0
-1261 1602 579 394 1598 1633 0
-940 -1310 -701 0
-1860 -362 0
-1922 -1414 0
-902 -364 1952 0
125 -243 0
-1088 763 1732 -1526 -1318 988 -890 0
-1802 -1012 0
-184 1551 -602 -344 -323 0
1 -1017 1255 371 567 0
-950 -1048 -968 -833 1119 52 0
580 11 -88 1135 1789 0
-996 -814 1820 -1457 0
-844 739 -486 -1353 -890 0
-151 -1103 -200 125 -919 205 0
-1490 -952 513 -1501 986 1491 128 0
1701 1955 980 1904 0
702 -1613 0
-1706 -42 -502 271 -1816 -1729 0
1250 -1891 1254 1371 605 588 -957 0
1050 -22 -1730 -1960 1359 -1114 0
-1761 -1277 561 1787 1993 255 0
-677 1156 161 -1414 -840 1736 1758 0
-996 -513 718 578 -1124 -1789 1658 0
175 328 -443 348 -1607 0
1615 279 -1195 -1071 120 0
1634 604 1310 -1946 0
-1459 1314 463 1036 -1136 -1804 0
-338 695 0
1069 -1660 1679 -1337 0
-496 -1642 722 1979 0
-1222 -341 552 -578 0
1347 -1650 372 1406 -1835 -134 -1507 0
-803 -564 348 1364 -1937 -669 0
585 -1786 -1628 0
1393 292 -1690 774 1213 1500 0
-946 -238 -1156 -295 -442 408 0
1597 767 829 -1825 -1319 244 0
74 -800 1561 -133 -999 -393 0
-805 -1488 0
493 1528 1551 1939 -1800 -952 0
-1940 1174 1507 -810 0
541 461 -103 -368 1217 1468 602 0
1234 895 0
834 472 719 749 751 1586 0
312 -960 -217 -1098 222 -1290 0
-613 -1855 1346 162 -355 -333 0
-886 1620 1090 -1987 -1387 0
1151 -196 1327 -1347 -1482 -447 0
583 -1906 0
-596 -1704 1071 -46 666 1007 0
1621 37 1639 376 1690 903 -1868 0
-460 1114 1532 -1107 -318 -1698 0
-1008 -988 971 0
-237 -1027 1361 1098 1346 -1041 0
307 423 0
673 -1683 -317 0
-1474 -202 0
-1453 -1732 -238 313 0
1692 -284 -506 -1586 358 0
-23 -1959 324 455 -1004 -735 0
-530 -1809 1736 1308 -319 -967 878 0
1383 -327 0
-738 354 1330 339 1608 -310 1145 0
919 778 -736 -945 0
1249 799 0
-1010 -1957 -1092 1690 1692 -740 1768 0
30 934 1103 1459 329 -93 0
-740 -1971 -1181 -1049 0
-1939 945 -652 1163 904 132 -1766 0
978 1940 1191 668 0
573 -1711 1510 1877 -1335 207 0
-819 -1341 706 -1594 398 -699 0
1018 -881 -1839 -335 1585 754 -1646 0
302 1068 -1305 1037 0
692 40 0
1212 1759 -743 0
-1977 136 -706 -467 -155 0
1583 -1200 1956 0
526 -475 791 0
-1230 1548 0
739 -1513 1994 1986 0
184 1126 1879 -114 -908 1975 230 0
-938 1739 -777 0
-1218 -998 -428 0
-994 -1014 -1866 1010 642 -262 -455 0
-448 139 1823 -1908 776 0
-1701 680 -1184 -1058 72 0
-476 861 -1330 1455 0
-1602 1766 -812 -556 28 1491 -1431 0
-1623 1428 490 535 0
-377 -1087 -433 -651 0
-1847 -835 915 532 576 0
-1788 813 571 -1835 -902 -460 0
1902 450 -1610 530 -670 -937 0
1627 -362 0
1679 -1576 0
-1571 1212 208 1068 1386 -405 0
753 -339 -895 0
658 -1466 -1971 172 231 -454 -1392 0
547 139 1334 -1101 1342 -288 0
-75 -1024 1118 0
1037 642 -1785 -1844 0
-1467 1503 1558 439 -1398 -151 0
-487 -895 0
750 1025 -153 0
1895 -1627 987 37 957 0
-1246 -1223 -1165 118 0
1060 1222 -119 -1055 -1599 -792 0
1534 -1674 -1249 1936 1967 50 20 0
-912 -1388 1868 0
1939 682 507 -1889 -549 0
-1844 233 -1951 694 -1714 -656 0
1046 -942 0
1728 1527 0
821 649 -1981 224 1895 1281 498 0
-1270 -699 0
1282 -139 1798 0
1055 1222 1521 0
149 -213 -1017 -733 -334 -1858 -1545 0
-563 -39 0
-1818 663 -1667 0
-1151 -288 478 -64 -1989 -891 -659 0
-1018 1928 -229 -1038 0
1303 1537 -1968 1362 0
666 1503 1949 0
147 1970 -445 -1924 0
53 -265 -86 0
443 1475 -1242 477 1259 -708 0
1159 192 -1259 -1724 -873 0
1197 -567 1470 166 1709 50 72 0
1322 100 -499 -1115 0
-934 -1412 -1722 0
-891 957 -1270 -1000 0
-1319 -49 1032 0
-1270 130 0
-186 -1439 -1489 212 285 0
-168 1518 -90 0
-117 509 -970 0
268 -457 0
-1732 533 0
1477 1773 -1290 1704 678 -601 0
96 252 709 0
-377 71 512 -547 1273 0
1091 13 1176 0
1402 -799 -19 -340 834 909 -212 0
-1135 -1641 -121 503 -971 -981 0
1683 531 0
1211 1289 -1037 0
-499 -295 0
-1512 -1375 352 0
-232 -1064 -1385 1474 -619 177 0
1127 -856 -681 912 1691 850 1430 0
-1510 1369 0
-1752 -1049 1579 161 -1184 0
-1190 1692 0
1094 -621 -1328 -1627 -362 -570 1331 0
1888 259 0
1247 1733 -276 -171 0
-747 1066 918 109 -163 1099 0
410 1112 0
1072 1027 -1610 1974 -601 -1623 0
-1172 1538 0
206 805 -1416 592 -1938 738 0
1604 1857 -827 1263 1047 1926 0
1202 -1518 1372 0
-1242 1743 -1566 0
1915 -1273 -1655 0
-1749 -1793 0
919 -82 305 567 1047 0
209 -8 1916 -880 -1202 -1534 1196 0
-1637 -359 -153 0
-1528 -482 -100 0
-520 -538 -414 669 1542 -208 0
1954 318 -1129 -586 0
1375 -890 0
1447 1802 611 0
790 580 195 0
-1239 -890 -153 1280 -1648 -1578 1836 0
7 -1908 -1321 998 0
1033 1953 0
1359 97 500 -1259 1380 -537 0
-1450 -1013 1139 0
1163 -1952 1492 -754 -1321 0
1982 -1423 1392 0
-1094 -175 -1235 0
1126 283 1105 -717 0
685 1678 578 1034 0
-1732 -1709 -494 914 1656 -1431 644 0
-840 -1976 -1163 -37 -1036 660 0
-1007 928 -579 -1011 -1388 -1888 -234 0
-459 973 0
290 125 -778 935 0
578 -1257 -906 -1331 -1180 0
1415 1796 0
-1048 1691 653 -942 302 1175 1051 0
-1137 1926 0
-209 733 -439 -74 -671 -358 271 0
1001 330 -545 0
304 -481 656 499 -1838 -997 0
373 356 1578 1814 -316 1291 1249 0
-1001 -852 1148 -1686 0
297 -381 275 -74 0
926 -1120 -548 1204 536 -1771 -1852 0
-47 -778 461 1513 -46 905 0
1397 890 -300 -976 761 872 0
239 -288 1348 0
-878 1793 646 0
688 -1817 -1251 202 -1929 -964 -211 0
-1662 -409 -1026 0
616 1883 499 -1057 0
-1157 1302 1740 0
1174 128 -1191 -889 162 8 0
1707 -1390 0
-1785 133 47 -891 0
-1313 426 -514 1162 -160 0
-566 -1960 -1858 1266 1777 0
-571 -81 -891 -99 -391 1865 0
-176 286 1012 545 -856 -1147 -832 0
-543 1596 1369 1630 1944 -437 526 0
737 314 0
1191 1727 1163 -1713 -1073 -146 0
-95 266 152 1902 -440 934 682 0
-1807 -487 1599 1162 0
-105 -1302 -495 0
-1438 796 947 1783 -770 -1201 0
-616 -32 86 -1015 -452 0
331 540 1410 1689 1661 0
-440 -450 474 -824 303 0
-1702 1767 0
-775 -904 0
-1878 -1276 581 575 0
94 1316 -958 -81 1161 241 0
-817 168 -710 -800 901 1000 1214 0
199 -1507 410 94 0
-1146 477 -720 0
-990 -1321 1607 1389 1419 711 1834 0
1279 52 0
680 -1900 -1424 0
-1501 -1415 1479 11 1616 -1825 0
426 1549 1003 -556 -558 0
712 -1580 1104 691 0
516 -1900 -247 -1388 0
-30 946 -988 1055 -1008 0
802 -1672 727 1563 1011 -743 0
162 -1961 1229 -597 1108 0
1853 1342 -1812 -1135 1293 0
-1798 1353 -887 -1485 -1612 1708 0
-249 -319 916 0
-1837 1730 -1244 0
1665 -361 1922 0
-1491 -1851 -572 264 -3 -11 0
540 -1110 0
-1837 1052 266 -1518 1310 -1164 0
-1080 -1982 -229 -1178 -659 0
1414 -1281 728 689 -1391 0
-874 780 1778 1899 0
-1192 1989 719 -1637 -1445 -87 0
-1105 -432 1444 0
-1985 -339 1108 1878 -1440 1395 0
62 -759 1907 346 -1575 -291 0
-769 -60 -323 150 1262 -1591 1642 0
-1340 1126 -1379 -1572 1795 0
1579 1660 -1909 -1065 -354 1826 1122 0
50 1317 1160 1180 0
-1068 -687 -1434 0
-830 802 0
1570 865 514 -1292 1142 1938 0
954 716 -445 0
-315 -312 -1885 1557 588 -880 -464 0
400 -1247 -1518 1469 1963 927 0
-1244 1684 -899 335 0
1960 212 -1237 1755 0
1259 -1572 692 0
1898 1724 272 1235 -1589 1317 1789 0
-1356 -1201 -1967 1146 -1419 0
-42 1917 1038 1707 310 -1093 0
909 1624 742 -4 701 -1544 -49 0
-359 646 -586 -1318 -917 -1635 0
-872 -1515 0
1092 1329 -1070 315 0
-76 1925 -1988 1475 0
564 1272 0
1393 -664 -1446 -114 0
1431 663 1624 0
-1569 919 -177 0
-955 277 767 -96 -1534 -1090 -54 0
269 1526 0
-1889 -677 -645 -962 -1152 -897 202 0
929 -1194 -890 -1151 -565 1077 0
1781 -1567 -1688 0
-727 791 1263 1172 -2 -338 0
418 23 -888 591 -1957 -793 0
1922 1429 0
-322 918 -589 -200 0
943 812 -1575 0
-1059 -143 802 1296 1169 1627 0
933 -1881 1045 -372 -603 -826 0
1330 1489 -1151 -1714 1094 1708 -1420 0
1746 1670 583 102 -84 0
928 -1000 -316 -349 0
1005 1270 -611 -718 0
141 869 -698 0
-49 -1216 -1950 406 -1847 0
-1422 -1483 1429 -24 -1532 0
-1675 1721 1283 0
1171 1187 -617 1318 995 -655 1994 0
-1712 -714 593 0
743 1050 1178 93 -479 -1556 317 0
-951 1565 564 1782 -339 1226 1356 0
1820 1569 1437 -760 1432 0
1821 1904 -1158 -236 -1825 -826 0
218 1330 -358 -1356 -2000 498 387 0
-1609 -744 0
1911 204 1070 -636 0
1301 731 0
1020 -1306 0
-828 1830 -455 1543 0
1713 -1782 252 0
-1248 568 -1343 -285 1030 0
1409 -375 226 951 1791 0
241 1462 1300 -1890 695 -1519 1195 0
463 194 -1060 -1577 1445 0
-563 -937 1547 0
-1452 1189 406 -635 -38 -342 0
-909 198 0
264 -1192 -1460 389 -111 0
1580 1404 -1672 1438 707 -270 1207 0
-1880 1044 -339 54 -934 1916 0
1802 -892 42 -1656 1707 -119 -1188 0
429 -1256 -1913 -134 348 1513 779 0
-234 -1164 684 947 -1468 870 0
-1706 1582 -532 1969 1817 0
-1307 -879 -1251 -1917 1275 159 809 0
1711 -32 616 -1359 0
1846 1443 0
-1788 -88 0
344 -1059 217 -1743 0
-1624 54 523 -428 775 1214 -673 0
-1767 318 1003 784 -1986 -1716 0
1200 1257 0
1416 -1879 -1885 0
1634 -1437 0
-653 -919 0
-875 163 -914 -185 0
728 -1777 -1341 0
451 1679 0
-1967 -810 -482 673 0
-1058 687 373 -1736 -942 -376 -1590 0
-293 1193 -1761 0
-517 -1708 1196 0
1759 152 1190 230 0
-1076 1431 -1584 1906 -586 -876 63 0
-1294 -164 -737 -767 1297 1 0
-913 193 0
-1656 -1279 -787 1965 0
517 1007 0
1791 -1814 1430 0
1909 1828 1738 -1663 -1777 -67 0
-589 1298 -1608 103 0
34 -1987 -186 729 -625 516 -96 0
1070 -62 416 1881 -616 1552 0
520 -559 806 -1414 0
-1065 1979 1854 880 -266 0
1945 -1881 -1449 0
-760 -516 244 1565 1944 -273 0
-1491 -199 0
1598 359 -1152 0
-6 1016 0
-1549 704 546 0
427 -1418 867 -81 -84 -76 0
157 500 0
-918 779 508 -1029 0
557 1253 -1619 0
-1123 578 1214 0
-287 1011 -1781 1822 -1232 851 -411 0
-1644 -1959 1195 1552 1548 1474 1665 0
1187 1384 0
1738 1928 -1061 0
-1476 1018 -409 0
1020 -118 1991 0
432 -853 -1645 133 1650 0
-1888 1740 -1037 -135 -1317 -479 -1741 0
559 -1342 0
-1112 420 -746 1877 937 -1257 465 0
-781 466 1037 805 0
-28 -943 -1493 -1623 476 -1362 0
879 318 0
-1240 -1918 0
1343 -1134 0
917 -1507 -1791 0
-893 1956 778 0
-997 1872 -1721 0
300 1626 787 -1925 0
-49 800 19 -602 -1925 0
1288 705 -724 -460 763 677 760 0
-655 276 -327 -6 768 631 1375 0
-1858 430 698 -1203 0
219 1275 -269 -1116 0
-169 1509 -1050 -484 1218 -761 0
1020 1965 -1412 1138 300 0
-1887 1722 -1147 -1633 -464 0
1265 -127 -1450 -479 537 0
-1181 -110 1538 925 828 -1100 171 0
75 483 -1650 -168 1267 933 0
-521 244 -194 1460 -586 0
-1321 -811 1641 1232 680 1490 0
940 -782 1085 -982 0
-984 -1035 -130 -1536 1136 -942 565 0
-628 125 -270 1396 737 1026 0
-1370 1212 1109 -1584 717 1230 0
812 1628 0
1779 1091 -1290 -395 -679 -70 1641 0
-1647 1507 0
-1560 -265 0
1070 481 0
-792 3 -1916 0
671 -1466 1628 0
446 -76 -98 313 -1651 0
-1933 -514 0
-617 -1055 1917 -959 0
1128 1110 -410 -482 1208 0
-700 -376 -1444 -970 -790 -1309 -30 0
1385 1848 -1930 110 -798 0
-1889 -1836 -588 1796 -1044 0
-468 -1206 0
1838 -274 -63 -377 0
790 150 -1987 0
922 507 59 813 0
-713 -200 -911 877 1362 527 0
-1240 570 150 -492 603 0
-1316 -957 556 -1393 -132 0
1139 -152 0
-163 -1693 -413 -146 -886 -1676 -1658 0
-346 -1735 -495 55 1361 0
832 1912 1836 627 -1475 -207 0
-470 -846 -1811 -658 -1664 -1808 0
1299 1502 -1408 -1496 819 691 0
-782 1511 -1824 -416 0
-816 -1938 -1265 -862 0
368 -938 -1982 977 -1889 -1891 0
-630 265 -1086 536 -267 1170 0
-243 -1946 -271 0
1106 783 420 -1403 0
252 339 -1343 1290 -1593 -412 63 0
1471 1585 -1346 0
-800 1799 1471 0
-1154 1043 -678 57 -1817 0
1078 -1014 -781 -678 94 516 -1719 0
-932 -1555 -187 -283 -1085 -1484 1985 0
-567 525 -475 1478 870 840 871 0
-639 -1290 1584 -42 0
-736 1981 1051 0
1060 -771 165 0
417 -1548 -1267 -190 0
-1800 -1308 1049 885 -1878 -1193 0
1029 1137 -59 -181 -105 -303 1055 0
263 497 -31 809 1520 1367 0
-1466 1441 -1778 -1386 0
1652 1641 -1895 939 1924 -787 191 0
1746 -738 0
-225 63 -1250 65 612 1642 -641 0
-1305 -337 1862 0
-911 274 405 -1073 -1175 0
-1395 358 0
-1514 1582 0
-469 1679 460 1746 0
1389 -1630 1907 -1408 1277 0
-843 1114 -431 955 -1948 -440 0
674 289 1122 -904 0
650 -1603 -355 0
-1253 74 1646 0
620 1782 -1008 405 1092 -791 -748 0
-941 -124 -1117 1341 645 0
-1441 -1323 0
-1337 -620 0
-489 363 0
267 25 -588 0
-1756 -1409 392 0
81 142 291 0
394 -858 -1591 1796 946 1457 317 0
1001 -1522 903 -731 234 0
770 1100 -1171 -715 -545 0
-826 -838 1879 1162 0
-689 -947 -1008 0
948 329 1593 -231 1898 781 0
-153 -905 972 1662 661 0
905 -560 1792 1237 -394 -1559 0
-1910 -1099 1865 -435 -1166 -1713 1019 0
167 1245 -512 923 0
-1748 -42 1334 -483 -1782 -1395 -526 0
-542 -1240 -474 101 872 716 -1222 0
1881 -922 1019 1257 358 -1455 0
722 877 1543 0
-1679 -1761 206 -1339 -1041 0
-682 854 1415 -1077 181 0
-1879 -79 -1049 -1565 1771 0
-188 147 159 -306 -214 1716 -1128 0
1346 1199 0
-604 1142 -1683 0
447 -1468 940 1969 0
1199 -552 1563 174 315 417 798 0
428 845 -1147 0
-904 776 1688 -317 0
-1889 1438 0
442 -294 -529 0
-1514 -1105 894 828 1694 0
1484 -1570 -1220 -1817 0
390 1566 0
-946 173 -605 0
70 -1555 -1276 -1975 123 169 0
1105 -1362 -1794 592 -1200 0
577 -311 657 -807 -91 -1165 -1183 0
-985 -1663 0
-161 1595 0
172 -358 0
-248 -1143 0
1571 300 -133 -1726 1728 0
372 1449 -418 -477 -15 949 1178 0
283 -1157 115 0
-521 1302 0
1344 -297 -1672 308 -1072 0
1696 -1592 -1336 1398 0
-676 1028 -475 71 1630 585 -1762 0
-698 -1364 1574 -863 0
-392 1456 1172 0
702 -1302 0
-1901 1587 0
721 1523 0
746 -863 -205 0
254 1908 913 1080 -560 547 0
-336 -1030 -972 416 0
-150 -1682 0
177 -1220 -891 -1982 1624 -1565 530 0
1690 1736 0
-578 1303 546 0
606 589 -1931 0
651 252 0
-1474 -23 -1879 1107 -556 -1592 1148 0
-1125 -538 1259 1771 460 0
1236 -347 507 -954 0
-1067 948 -1044 0
1805 -167 0
-208 992 -1019 -764 -1808 0
475 -485 0
-1355 -720 1452 -558 1140 -442 -276 0
184 -651 -804 1325 0
-1009 -1809 253 -993 -1001 0
60 720 0
-1970 -1961 832 1307 616 776 1787 0
1521 -1087 1357 1513 0
-1573 34 0
905 -204 -573 -157 0
1995 -1586 1053 1418 0
-1379 -1878 1174 1590 0
-74 -1143 -1454 -359 808 0
643 -213 -982 306 741 0
427 -238 154 1618 -8 0
1338 815 0
292 392 -483 697 1354 0
1673 -54 642 160 -1265 1511 0
-1800 -176 820 -707 1010 0
777 311 -1872 -1668 0
-1883 -454 0
-1714 1083 0
1713 -1996 178 -1384 0
-1379 -363 0
-788 188 -521 1390 739 0
-45 910 -52 1023 258 0
880 757 -39 -800 497 0
763 1411 1032 0
-1588 1206 0
-1943 1318 1331 0
-1167 -406 1283 -1893 1463 906 -1438 0
-885 -429 -1262 362 0
1683 -1612 -1537 677 914 -1652 0
-25 -1618 1845 -1868 1767 -1848 -599 0
-1724 574 -135 -1160 -1415 1015 0
795 -736 0
1922 -1309 -1299 611 -1056 -1843 -1928 0
-1114 468 1923 -437 0
-1267 -1304 -1563 1021 -1966 0
-1176 -1723 -1133 0
-1206 -427 -1726 618 1160 0
-805 -1643 834 460 -1131 0
-1625 -1268 -1662 -1196 1124 -359 1154 0
-1871 1971 -336 1795 1213 956 0
726 1002 -739 0
-517 1345 -129 1992 767 1350 -995 0
1956 1235 108 0
1363 -1770 1863 533 -1576 -1947 0
14 1988 873 1939 1514 0
-443 -1464 0
68 -372 -401 831 1661 754 345 0
-1488 1642 -1297 -1353 923 756 0
1653 346 0
-471 1019 -1099 1905 1300 576 440 0
-1200 1582 -490 1936 0
979 487 190 -1504 -1573 0
1776 1701 -1240 -1213 -192 31 0
-51 -1328 1500 0
-365 1679 -661 0
590 -1222 -713 -1080 -707 967 0
453 1566 1638 1236 945 0
-1678 395 -1146 -1211 1793 0
-1356 -364 0
-1574 646 -1192 1562 0
1606 26 0
359 -279 1463 0
1542 1600 -1439 527 0
-1181 1619 -785 -628 0
-42 -1991 1229 -497 0
-58 -1045 -54 699 1989 461 -478 0
1576 374 -779 1760 0
-512 1870 -1194 1349 0
1225 -1493 763 1823 -376 0
207 1619 626 1433 -1770 -398 0
1427 -795 1806 0
-440 -1848 966 -1496 -1425 0
-1916 1722 0
284 1173 470 1897 -1779 -515 -1055 0
478 -43 746 259 0
-839 -682 1777 -400 809 0
-795 1048 -562 0
-1842 1276 836 -695 1248 0
532 1098 927 1618 -867 -502 -1914 0
1272 -1498 21 502 0
-1191 917 -94 0
-209 1322 -157 -448 -828 339 0
-1520 -1897 1743 1075 0
439 1562 0
-238 1634 0
1361 -560 -420 -358 -1708 1741 596 0
-54 -404 -1720 312 -621 273 0
-922 -1790 -1696 1762 0
-221 -1634 0
-1600 -1006 -1721 1285 -134 174 416 0
250 1433 1383 -1205 0
-445 -1896 717 -45 115 0
295 -1156 -1315 1763 108 0
-650 1626 1823 291 -1462 0
-1105 -1352 0
-340 -855 1909 -1744 -567 -1807 0
-812 951 637 -1358 -254 0
1287 638 -883 1338 -710 0
-1375 -814 368 -799 0
-424 -1406 -518 367 0
67 -1328 -107 -874 555 -74 907 0
1662 -235 -515 -1784 531 -1892 0
-765 282 0
-652 -1606 1989 -1211 0
-1799 830 1034 1320 -753 1781 0
-765 7 -1204 -1035 0
-1054 -1329 64 546 0
-691 1032 0
-1329 -1874 -351 -914 1682 227 0
1178 381 805 1762 987 0
120 -1458 -1119 -1576 -167 -1384 0
-137 148 -1632 0
-218 -1092 382 -1790 -1493 0
1068 242 1304 403 -860 0
861 192 0
1367 1548 1221 547 -805 892 -1745 0
-235 755 166 0
1950 44 -1700 0
-997 206 -1562 -580 -1597 -285 396 0
-1620 -1611 -1324 -433 -1202 -799 715 0
-1613 -1811 -662 1609 -1845 867 0
-400 -68 1848 -1494 240 -815 0
-1085 1952 786 -591 -847 0
943 -1125 428 0
1653 -833 -140 0
-1998 -1928 -363 -1048 -1442 1495 -379 0
-1315 488 -114 656 -1450 -205 -1785 0
1345 -1671 472 -250 1207 345 0
-1673 499 0
1420 -1672 -976 -1662 -176 -1457 0
-714 794 11 -1375 0
-1880 -1125 1625 0
-124 -501 0
111 1724 240 -380 1421 0
-1764 -1386 1866 212 -1579 -188 0
906 1678 -1894 -1735 0
-286 -634 -321 1872 -1718 1020 124 0
-679 -1643 0
-227 -1996 -1423 133 1167 0
-464 330 1534 -1670 0
-1431 949 -314 916 -1727 -1960 0
-570 1914 0
785 394 -577 -717 -1672 0
-590 493 -686 0
1377 -757 1744 182 -1226 0
-881 -1035 144 0
-109 457 0
-1420 1951 -264 -758 0
1883 407 255 0
855 -1022 1690 -905 0
986 528 0
-558 1317 165 -1395 0
-800 18 34 -838 0
1282 -561 -1703 -1761 1691 242 0
-1670 1188 -376 0
1054 547 0
1778 -1337 -26 44 0
814 -947 1160 -564 0
-149 -1705 672 1395 305 328 1251 0
696 876 182 0
-809 391 -596 0
-239 1577 1641 -830 674 450 0
1038 634 0
974 -1182 728 0
-1353 -1124 -1385 -1521 -1622 1007 0
-1804 -1136 1442 -1984 0
-1105 -1900 414 -1122 -1515 0
212 -1865 -1283 -1371 1949 472 -299 0
-865 1202 -1391 0
-1321 1283 -636 1612 0
-724 -807 -395 -1958 -1414 1792 0
-1618 -1930 1044 -185 -991 1387 -1286 0
737 -1191 0
-1163 -593 -373 1859 -275 -1478 0
1064 -52 -746 501 1156 -13 0
-113 1734 -643 0
-1400 -1248 1757 1511 -368 190 0
-1319 -860 0
-1593 810 82 -1254 -1569 363 -222 0
-48 -650 47 0
-331 311 0
-1760 -777 1035 1501 1448 0
1007 116 340 -772 1539 0
-1447 -693 0
-1575 675 331 -449 0
89 -1444 -1867 0
773 1183 -838 0
920 -1547 -149 760 -443 632 -851 0
-1260 1256 1466 876 -437 -1509 0
-1255 975 0
1547 -515 0
1373 -802 -1057 33 0
-214 1468 1013 -996 591 0
-647 -1177 -1349 -1477 -172 -1393 -766 0
421 1066 0
685 1861 0
-1040 -725 707 429 -953 0
-990 1705 -789 600 -1655 0
1153 -722 582 1087 0
-603 -815 1112 302 1460 803 0
1223 1340 1713 -529 0
848 157 -1849 -485 538 60 -1474 0
349 -326 -66 402 832 1520 0
1382 1146 -1018 -2000 -1904 1128 -1707 0
68 166 127 1013 -1559 639 0
1085 -1614 1797 -85 -1072 0
-1230 756 50 222 0
-312 -479 1984 0
1581 -226 0
731 1374 -374 -259 1201 0
445 975 0
40 1418 -412 -1624 -611 1773 -1523 0
316 -488 0
-1762 1534 -806 1864 -569 328 0
-1327 1163 1549 -1786 859 135 -648 0
1826 -560 -1200 -73 1274 -337 0
-1559 -2000 -356 0
-542 933 1360 -40 1685 870 0
-1789 152 -117 0
-911 -1494 92 -1076 1766 -987 0
-574 -1676 -736 -890 -926 1990 669 0
1842 -1730 -1400 958 -788 -1820 0
1400 -681 1225 -1567 -1970 1188 862 0
-951 -1398 1441 -1105 133 488 -394 0
-1052 1414 -1055 -455 181 298 0
1622 1879 -1316 0
1950 235 0
743 1499 1569 -1226 0
-1363 -1685 -1762 169 -580 -1365 0
-1906 -1676 1904 33 -1691 -1596 -1592 0
1062 1068 -221 -1026 80 0
-709 -1505 -344 1751 -1460 1749 0
-484 1721 0
1928 384 1053 0
974 1508 -1847 0
1090 1637 -859 0
172 1954 0
858 53 427 625 0
1323 1374 690 16 565 0
1630 -457 0
1390 -180 -910 -335 0
1388 -866 1118 1522 -1896 -922 1768 0
171 946 -965 1497 0
-1935 -1012 -352 761 0
1401 322 -1452 0
-81 1075 1710 -1871 -902 -110 1192 0
460 1315 -822 -1804 -1508 0
-733 1228 -1811 0
634 -1217 -1384 -1122 0
48 -53 1504 -649 1977 -38 388 0
-1519 1848 -1063 1107 -582 -1921 0
400 573 -1876 1527 -750 0
1494 -1174 1888 1914 -795 0
1898 -173 468 814 270 859 0
189 -1997 -1947 0
-995 -369 560 908 -1684 -1349 1280 0
1296 828 -867 -142 -1284 -1103 -248 0
-855 -1450 -784 -966 433 0
415 1703 -1782 1944 0
1570 376 0
-107 1909 0
1716 679 364 1499 167 1333 0
-862 1754 -442 0
-190 195 848 0
1688 -1346 -1888 113 515 679 -1663 0
780 -452 -1053 1039 460 398 0
1293 885 0
-365 -548 0
7 -45 -1716 -1727 0
-509 -1029 1637 503 792 488 0
906 1265 459 -731 1322 1704 0
921 -1425 -1549 -443 1166 1025 1795 0
-1088 -664 7 661 524 0
977 -1068 -1562 1988 1875 0
-1625 -791 -1763 0
-1857 1250 689 1662 -1325 1495 -843 0
483 -204 -283 -1700 0
399 -268 -1960 1035 0
1534 -741 208 1318 1427 -167 0
-203 284 -383 -448 1462 -633 0
1297 572 -1753 1723 1036 1030 0
-1257 1303 1354 -1392 0
-998 1181 1852 1911 1762 412 0
163 1594 758 -1352 0
-621 1381 -1473 288 -387 504 -149 0
-441 1952 133 -36 -1797 463 320 0
1150 -934 -738 1257 -786 0
-1597 1974 1529 -1116 1425 0
990 -234 -322 -384 -1246 0
324 -863 708 1306 1225 350 0
1649 -1250 -1813 951 158 1298 0
319 1085 -510 1461 0
-1888 -1102 -1394 1806 -144 -1083 0
730 835 -1696 -1545 0
270 483 1954 -725 -748 -692 0
-721 -391 1016 -1590 468 -1491 -765 0
-437 1550 1014 1522 -912 -1178 -1478 0
-207 -340 -837 -83 -283 522 -1864 0
255 -283 1998 975 -74 0
1448 -1965 -1955 1436 -1748 -1248 0
-557 -250 0
1555 -744 1204 0
1745 -656 786 1003 1133 1919 0
937 1258 1717 1732 -1069 1023 0
-1110 758 -611 0
618 -1944 -1699 1079 0
1536 1662 1976 -236 584 -1148 1942 0
-1362 529 502 -1689 259 304 0
-1652 570 -1087 -1547 1901 0
728 -1562 1885 -1550 1212 1686 1871 0
-1544 -1764 1805 169 0
1340 -77 1399 -1318 -23 0
1102 -1154 1191 0
-324 -1833 -839 1697 0
-1196 -1322 -645 0
-507 -458 0
-570 774 -813 0
1911 -1159 0
854 -146 1723 -747 -1036 1729 0
-1374 1913 -1605 -866 0
-625 1884 -399 -1548 0
757 1936 -782 -894 0
820 -191 -1079 384 1905 0
672 1956 767 -661 0
-1366 -685 361 -664 0
1833 -1181 -187 1262 0
-499 -73 -290 1391 182 0
-211 -1948 1785 0
-731 355 1446 -1203 0
1391 1135 423 -527 0
-519 -1492 145 0
274 1021 732 866 -760 0
-474 1094 -810 1356 0
-808 1362 -1856 1076 0
-1337 134 1561 -1033 -996 -1597 -1345 0
-105 1451 756 528 -859 0
-1342 1215 683 1740 -157 23 686 0
1635 -1897 -341 486 -1501 113 1223 0
-1408 1330 0
1934 -1276 673 881 0
-768 -592 -1260 302 -1823 -777 -1169 0
719 -1492 -252 0
-1143 1152 0
-1810 -1229 -1754 -28 1579 -1145 -857 0
1625 -1449 1533 1259 702 823 104 0
-274 1457 -1190 378 0
-179 524 -353 -1867 -827 0
-1011 627 -987 -976 53 0
-1211 -1376 1567 0
-1566 -1828 -344 130 0
297 136 1811 1774 1970 -32 0
-19 -1556 -300 -899 1855 -392 0
352 961 1146 -875 1161 1399 0
682 1102 -1061 -1071 -1295 0
-1276 824 -1329 -1938 259 -203 0
-747 925 0
532 -1273 648 0
-1267 -712 1649 760 -795 1370 0
-401 91 -267 479 746 1219 -1271 0
1335 1030 261 0
-443 367 -1421 -251 0
-414 -362 0
-1622 169 0
-1570 1065 -1340 70 1169 167 1053 0
1775 -1655 929 1567 -479 0
832 -1840 1586 1482 -1589 1298 1832 0
-498 -1645 1465 0
91 601 1248 989 -582 -992 460 0
-397 -537 0
1926 1954 -812 -270 0
-1023 328 0
-20 868 -1095 803 -1694 -670 0
144 1825 1263 1596 149 1852 97 0
-1930 -526 0
-563 963 0
-1474 -1069 407 360 555 0
-964 -957 1974 1869 -1834 0
-427 378 1411 -399 -118 -33 -1737 0
846 -1018 -1395 -1253 -1164 0
-532 -357 -842 1554 50 1204 0
1430 1337 51 -875 0
-1368 -985 -1560 0
-1276 163 1311 -1546 0
1229 1664 682 -1687 -1114 1529 -1106 0
1127 -1747 0
-1143 -427 -1648 0
1073 -749 -259 0
132 -533 1687 0
1016 -1572 -1437 -1223 -178 0
-755 935 -71 -892 605 0
-37 1050 -648 652 0
-1221 1511 0
1053 -1910 -437 1137 -1130 -1925 0
56 1362 -951 528 1662 0
-939 -141 25 0
-1332 -1341 -1170 512 -837 1920 1658 0
603 -152 -888 -111 -1359 1151 -1044 0
1943 1271 0
465 -419 -356 -1282 1175 -1238 0
1019 -999 -1895 525 -774 1082 -1613 0
-1424 1079 1896 0
-962 -278 1867 1987 467 -1365 -1963 0
-1750 -308 -315 661 0
243 1006 796 -490 1375 1485 0
-462 -1107 -1157 564 0
790 506 0
-1358 1373 0
-524 -619 -260 -560 416 966 -1780 0
-1209 986 955 0
468 -1029 90 139 814 0
-1427 -466 1335 -409 432 510 -718 0
299 -97 0
-485 792 -681 175 0
-88 -568 0
1626 1472 296 -1687 581 0
-688 -607 1833 0
1458 1761 -78 1439 1931 1339 0
1089 648 0
-1927 661 488 1017 984 1661 0
-1864 1733 433 -1326 637 1606 1699 0
-1624 1818 -1970 1086 399 1648 0
592 1903 -1287 653 0
-818 -306 1676 944 0
-1743 138 1477 0
-668 -794 0
-1669 -704 1996 -1506 -233 -99 0
-16 230 1869 -43 -1604 -1695 -1546 0
-982 451 -1884 -960 0
-680 1065 -158 0
-699 853 1730 0
742 336 -14 0
-1239 189 -992 1289 -1441 0
-1201 -1389 -1274 887 -1784 0
-1680 1249 -1341 0
1155 -563 0
-1745 486 -1066 0
-688 512 178 1703 1908 0
98 -1954 -1336 0
1667 927 1920 1172 -1549 1183 -1422 0
-159 -1056 1178 -1766 -1996 -1438 0
1168 -1022 -11 -326 1554 -1264 0
-20 36 894 0
-1485 892 -1683 -103 0
131 1371 -1875 -859 -1341 0
26 1253 -511 0
769 653 -383 -1464 692 0
901 1771 285 1742 1839 1008 231 0
-862 20 -479 416 0
119 -813 575 -884 -1405 1592 -326 0
-745 -1925 0
24 651 0
-1025 -1397 -790 1426 1006 316 0
-1068 -1509 1261 -91 347 1898 0
900 1657 10 -803 -219 -1098 -1410 0
-1179 1700 0
1901 -657 -1103 -1726 -555 -1536 0
1451 1598 -9 -772 -1849 1625 -87 0
1270 1852 1421 186 0
97 1147 1705 0
-820 661 -1019 0
1836 -1933 -77 0
102 747 0
1093 -236 1226 -1116 -1022 332 1379 0
-334 1492 1205 -1410 840 -1787 -1341 0
-188 -1264 0
-1056 -1267 1940 -156 -1110 1233 1224 0
1534 281 1610 -1998 0
-835 -32 451 169 1622 1869 1190 0
61 -1546 -291 0
-1524 710 1358 -1120 -1621 -1227 0
-1293 -957 257 1115 1657 0
1614 -741 923 0
-1739 1476 142 -1354 -1673 189 0
-598 689 1424 -1558 911 0
81 774 765 685 -983 1038 -663 0
238 908 1355 60 1478 0
-274 1707 1430 659 -701 -1040 0
197 -1493 -178 -445 -1830 15 0
1256 -348 1441 175 -1307 785 0
-217 1678 -1587 1337 561 0
-384 -1240 -1215 967 -1344 -1314 -1237 0
-1312 -1677 -903 0
1197 -486 -835 639 -760 1402 594 0
798 -187 -1924 -1592 52 120 -233 0
1216 -1965 1708 1253 0
-942 -374 -1587 -128 1510 1326 -1822 0
-515 -1956 1565 792 1776 0
-959 -299 0
-537 -1288 -1089 -213 -1474 1544 -1424 0
-475 1463 -1498 1077 -1314 -1078 -768 0
260 -897 167 0
-1604 -379 -1061 -969 1576 0
1896 1050 -1074 0
446 526 -979 -111 1524 0
-74 -81 1420 458 705 0
-438 -1042 -397 -448 0
-225 -1736 -600 1129 0
813 1499 -1370 0
739 -9 0
-1490 -994 -528 -247 0
1908 -1937 -440 313 -986 54 -1077 0
1686 858 -33 0
-129 1403 1779 1034 851 0
-1457 -462 -1044 1552 -1608 -781 0
-1674 -730 1478 804 0
-1433 -1661 1225 370 -848 355 -1023 0
240 -191 -1825 -760 1688 0
-713 1667 1849 0
-1061 654 0
937 -1780 1000 0
-45 629 88 437 -208 -149 -1019 0
1594 -415 -1161 1591 722 524 -632 0
-969 -592 -151 -1789 -1795 337 -1438 0
-132 -1594 -1443 0
-1834 813 0
-1318 -493 1682 1517 823 -1700 -819 0
1612 -1390 0
-1730 765 0
1022 -1357 -13 -1183 1437 0
1691 -547 0
-994 -1052 1044 1570 -1915 0
1244 -1654 1933 1678 -1953 0
-1673 -1500 131 519 230 -182 0
1267 1354 -1142 0
-1170 -923 -1242 520 198 0
1127 88 1605 618 -516 1265 1090 0
175 1135 353 0
172 888 -646 -881 0
1902 -861 842 0
1995 1704 0
-1472 287 1740 -395 -1338 0
-1661 980 650 -782 186 4 0
-1057 890 -1090 840 0
345 1404 -516 487 -119 0
1824 -1761 114 1854 558 -1325 0
-1852 813 -255 0
599 -144 -167 -1204 0
-1316 1801 1888 -1406 0
-1427 -1034 0
-1882 -855 -1567 0
-1587 -834 -1713 1168 0
95 -809 -1631 0
-1859 1813 -317 -1944 1488 0
628 -1222 -634 -615 1219 126 0
308 1399 0
-1395 1804 264 -1514 609 87 0
-659 -395 1964 -900 -1635 0
-237 1909 -708 1183 0
-1516 -923 756 1747 0
-554 -1081 914 1429 0
1537 420 849 0
-1237 583 1684 1056 0
1380 1094 0
785 -687 61 0
129 97 360 325 0
-268 1202 1547 651 0
-71 -694 202 0
595 -447 -66 1149 -410 -891 0
-927 -1549 -1762 0
1939 -1226 -610 0
-622 -1695 0
634 479 1957 -180 627 1032 0
1878 634 -968 905 -329 -708 0
-1385 -75 -627 -1902 -980 -120 1679 0
1557 -643 0
1472 121 597 9 -1479 -203 0
255 -37 -360 -1036 1278 0
-280 628 492 -1054 305 -1431 0
1839 67 1272 0
-452 -364 1513 907 0
-1858 -59 -481 -17 1658 1313 0
287 -1837 0
-1273 759 1888 1491 -1776 -1038 0
1540 1706 -1352 -214 1960 1170 0
1284 -414 -1013 -1989 1691 777 -304 0
1838 -1291 0
195 -1480 275 1907 0
-523 86 381 1083 943 -349 0
444 319 0
620 1074 392 -424 1723 0
292 -1822 -1074 -742 1368 523 0
-1857 489 0
-1942 -1342 -1295 0
-988 -177 1339 0
-98 1668 -1393 -40 1258 0
926 158 -240 0
-1271 -719 0
-568 1936 1104 0
-1164 1329 1833 -1870 0
-800 192 167 -597 -1815 0
594 -555 0
-1268 -591 -1000 1632 1342 1602 0
883 59 -1701 -442 1935 -99 0
1533 -1927 1154 -44 0
570 368 0
-1029 1235 1620 -1642 664 1051 0
-137 -1028 0
1905 -848 -773 -1122 838 867 0
-1335 1103 0
-1694 1857 998 -393 -882 -1083 -1919 0
1950 1682 836 -691 1379 -965 197 0
545 -1931 0
-1212 -1938 -1194 -1136 -953 920 0
1517 -1252 0
-1872 -777 -1837 -894 -1217 0
-596 -893 1129 -935 -114 0
311 -1098 -190 0
-1961 -1872 1376 -1102 1075 1046 0
1321 -1692 1027 -1490 907 -626 -1322 0
1681 -559 0
-1233 1520 -1526 -671 1625 -1278 1732 0
-718 130 0
1731 -946 -1882 0
1446 1581 631 0
-432 -1527 -1584 1374 0
1243 555 1491 -851 -1400 1447 0
1528 -826 0
-1245 -619 1647 591 -515 -361 -1017 0
-226 -1236 0
1982 -1548 1152 1074 1065 1126 1057 0
1697 1659 0
349 1109 1744 1691 1734 0
1606 1276 -315 -1344 -1517 0
1737 -90 124 197 0
935 -1664 1077 0
-1671 -251 933 1694 -76 1867 0
932 -65 1016 -312 -490 0
1186 -1028 -1412 0
1465 1146 420 0
1452 -899 -1561 1628 -1411 0
1577 1212 -572 -1697 929 1093 1991 0
1134 -620 954 74 1583 1495 0
-852 -1850 -357 836 0
-1311 769 816 1093 1956 -1793 -1348 0
-1345 341 0
-558 1247 895 211 292 372 -276 0
-1816 -624 1781 1357 0
-961 -1375 43 -1495 0
-1250 556 92 1839 197 786 750 0
-937 -1305 0
-56 1330 -114 1803 -1362 0
293 -1010 -1009 -1708 -815 -1025 -1340 0
274 173 -1902 1701 -660 0
343 -292 24 574 0
-1713 208 -801 1154 -1581 0
-659 -105 -277 843 0
1445 -898 1149 559 1954 0
-1340 -1696 -556 1324 1779 900 0
-265 -698 1842 1156 0
871 -1046 127 -1388 1663 0
1942 -1093 -521 1761 296 563 0
-1835 -111 370 1147 1436 0
-1964 -293 0
-1516 -1079 -190 -1297 0
1870 -1314 0
1996 354 0
1584 1949 1509 -178 -1259 1964 0
1466 -219 -1318 -1690 0
-329 -392 -1898 670 0
163 247 911 514 1972 0
1743 315 -428 49 1034 1774 0
-160 378 -389 -1440 593 847 -916 0
1133 -243 -1262 495 0
715 333 -810 903 113 0
1471 -993 790 0
5 1569 313 -409 -247 828 -149 0
-1446 1339 1757 588 1540 243 0
1669 198 0
1524 101 129 66 -10 912 0
-2 -299 1950 0
-323 1500 0
1171 -1664 -83 -1977 -919 0
847 -1135 747 -644 1184 -1375 -461 0
-1614 -287 0
-233 1902 0
1629 1453 -1321 -1262 0
1489 -50 101 -791 -1672 0
3 -356 -1343 1455 0
-1113 -1986 -1984 1111 -1272 0
694 -1409 1786 754 -1090 0
1443 240 -543 192 790 763 0
-316 -1829 -104 399 1594 -132 0
26 610 -298 738 0
1415 1887 1159 0
-1736 -1603 1843 249 53 -1975 0
-1300 1490 979 0
330 1329 502 -895 -1870 -642 -106 0
1653 -784 184 0
-457 642 -1087 -1928 0
-732 988 -1166 -604 -1386 706 0
1162 -142 0
-643 -55 -1166 0
524 -920 0
-1502 1519 -548 858 0
-30 -865 193 -828 0
-26 242 337 1996 0
-858 980 1566 -1579 -1471 0
642 -238 1878 0
686 1754 -1825 -517 0
10 109 -221 -1006 1877 -1461 1321 0
325 -1968 0
-519 -1342 0
852 230 199 -1010 857 -1229 -1016 0
1275 -736 103 -1237 148 -42 0
-43 -1598 -1478 0
1887 -500 -1945 -816 0
494 1363 -32 466 0
1667 -281 -119 -977 -1430 503 0
-890 1071 390 -225 667 0
663 1764 -1354 1360 -1469 0
130 -525 20 1737 -1165 1689 0
1482 600 664 1005 0
-1924 1618 0
962 -1475 -896 -1157 -1508 0
328 366 -1886 1972 591 -864 678 0
-782 831 40 -1609 -1396 0
-1839 1726 1569 218 0
-472 788 1793 210 761 1865 1495 0
-1887 -769 604 -543 0
1820 1885 810 -1207 -62 1219 -1035 0
-1054 1754 744 0
944 1136 248 0
-1001 52 1927 0
549 -33 -1248 0
-864 -176 1608 1847 1751 565 0
-1167 1955 -1596 -542 1487 0
-1565 -1239 -548 520 -1141 0
-1556 -1120 1899 -1888 49 1689 0
1408 -1089 935 0
-1575 -531 -1753 0
1325 193 0
399 -1931 -214 1892 -42 -1240 -1225 0
-834 1743 -998 1705 -1071 -1309 0
1613 -646 -1735 0
-940 -1294 0
139 -428 -1445 812 749 1941 1157 0
-617 580 -1223 -1181 -1257 685 0
503 955 -876 1683 1049 1219 -1394 0
-1852 536 778 -265 0
413 1814 -1843 1373 232 0
648 -1708 934 -247 719 -1944 -1063 0
-1205 -1300 -1810 -483 -745 0
-1306 1589 900 0
307 -208 -239 -1623 -1986 0
565 719 -1682 1403 -28 382 -1496 0
-1820 1539 1582 0
-1612 854 -135 -1105 0
-1516 845 -1281 38 -138 0
-140 1228 1721 1182 316 1245 0
1108 1441 920 0
-320 987 0
-1669 -1598 1705 463 -1189 0
267 -1088 -1616 -324 0
210 -141 -677 769 0
-298 847 392 0
170 495 1586 -1547 0
-1916 -137 0
-863 -916 0
153 -1189 -1457 1124 163 -1243 0
1757 -1692 0
-1672 -1188 1470 -723 1545 0
394 488 1936 0
-1345 -1950 -179 222 1166 1816 0
-1097 997 1432 -1333 1463 0
-989 144 -1974 526 1958 1536 0
-1701 -189 -1717 -873 1814 1122 264 0
-1556 1846 1723 1734 1808 0
454 -1497 0
1466 -223 0
-1054 -1273 -57 884 651 0
1495 1723 1720 605 1790 0
-1289 -932 -1678 1065 146 -1568 -1506 0
229 -1232 640 1244 0
-1918 141 884 -1877 1373 -905 0
-394 1160 -309 -900 -1712 -1717 0
-713 -112 0
632 1942 -250 0
-442 -1773 0
-1282 1905 1973 -1815 -1169 1212 -1747 0
1951 1475 948 -703 1094 -353 294 0
-343 1546 979 -1636 -1776 -318 0
203 -1146 633 580 -991 -1140 1421 0
240 -1109 1286 -1277 -677 0
380 -795 -1044 -1842 -1167 -1479 0
-732 554 -1916 0
-440 -800 664 -1085 163 0
113 -1522 434 -1439 0
-1117 1613 1577 1540 -1973 1165 0
19 1169 -1931 -1583 121 -1400 -16 0
1009 -318 0
-292 149 1923 0
-1164 -107 1781 0
1667 -677 -1072 494 388 1169 0
392 -1350 -582 0
-1089 1874 -1545 0
-933 1265 -898 -880 1070 -1799 0
1605 -789 560 808 1614 -1211 0
-687 -144 0
-1613 -1897 1079 -197 -1628 162 110 0
1786 1556 -646 -1460 -1512 0
-1942 -307 -1520 -1834 291 -326 0
-621 -1865 34 -458 0
362 669 36 1398 0
-1803 1969 0
-1877 -475 1953 -1144 0
-1625 -1128 1294 1635 1106 321 -369 0
-277 1252 -320 1563 -347 0
-833 -850 1375 1205 1771 1080 257 0
-1041 -1545 -1309 -632 0
42 -1254 1248 899 -1995 -1067 0
956 -1212 -1045 1376 786 584 1620 0
765 1284 -1443 0
-104 1554 -1516 4 0
-1064 1814 -905 796 521 1540 -203 0
1562 -1689 1926 0
1607 -608 1278 1006 -110 0
-156 -1823 1057 -358 1997 -1640 -20 0
858 -587 -477 1901 -1436 0
154 -1955 0
-812 -943 1565 0
1801 -1118 -1500 1539 -1794 0
996 699 1920 -1311 -1262 440 1208 0
81 1773 -976 0
-595 -780 -333 -1368 1433 -1952 -9 0
821 76 -1092 0
432 1439 1639 0
-1720 -1733 -324 -1257 1420 0
1750 1960 1465 350 290 0
-777 1078 -925 -1393 -1850 -629 0
-1136 -1833 -1819 0
-1698 1027 -152 -1252 0
964 1402 0
96 438 0
150 1570 -1406 -153 1048 -1212 -1275 0
-206 -633 1065 0
1168 1013 -1149 -107 -1442 1316 -1736 0
-600 444 0
-1967 -1650 1122 0
-93 -304 473 0
1865 -775 -537 -1819 815 -730 0
-1388 1826 1294 1828 0
234 637 -617 0
1523 642 -1611 1075 1260 1686 -1754 0
-1025 -1936 1948 1602 0
428 -311 -1039 -1787 -1043 0
-1689 -900 -1029 1909 1233 353 0
-83 279 1971 1054 -409 132 -1361 0
122 -488 1519 -817 1266 -59 1602 0
1659 -1009 -1174 639 888 -1486 -190 0
230 662 -327 0
581 1750 -1443 0
428 1406 0
1466 688 -1945 -1425 -902 0
-538 -1648 -782 37 -1174 0
-671 1308 -1860 -1052 1242 0
400 -1029 -833 0
1894 -1634 547 1373 1565 -1351 -396 0
922 -1856 -1638 -1916 0
-1634 -385 -523 0
770 254 1994 0
-227 75 1562 657 1411 295 0
1746 1194 1983 -594 -330 1762 0
-1164 -1727 1988 0
1811 -58 211 -1233 999 0
-620 97 0
-55 1205 0
1860 -1302 -1430 0
-679 -1688 0
-1561 -251 1689 0
-1258 -814 1218 193 0
-1788 -348 757 427 -61 0
1648 1919 989 272 -1966 0
-1644 -128 1982 0
-143 1074 799 1447 999 1562 0
-1231 -166 0
1561 1677 -133 871 936 -528 -1464 0
-459 -1828 1805 0
-1218 -1913 1008 894 -744 144 1780 0
-1169 -699 493 986 1722 0
-835 -634 0
-105 -1736 238 1193 702 -1591 0
1919 210 0
1590 -808 1204 -967 0
925 1656 0
359 -1227 1611 0
-783 -31 -869 -801 0
85 322 155 1019 0
-256 -1709 1831 1923 -1802 654 -206 0
-1250 -1930 401 0
-1581 -1139 1810 0
143 154 597 1278 1783 1658 258 0
-1594 -815 -434 56 0
-995 1230 -1150 811 1721 939 -1764 0
426 262 859 1523 0
-1833 -1407 1552 -1379 1359 0
-1361 -1337 113 0
-1563 395 0
-1511 -64 796 1769 1184 1366 -1851 0
-908 -752 -207 -1386 -323 -826 0
1645 174 29 -1634 0
-1074 -986 -1143 1330 -1790 1978 -1006 0
-1948 1750 467 0
240 -288 -1858 692 -1477 -81 -1229 0
913 1677 0
-769 1922 -102 1428 1682 -97 0
1892 -1620 -1006 -364 1845 -1335 0
739 903 0
1700 485 703 1854 -1739 0
1926 432 192 0
-1180 -1106 1865 -906 0
681 1011 469 1785 1963 0
-1570 1741 1509 1683 1958 0
-1948 -49 -988 -1536 -14 124 -1506 0
-1271 -1097 812 64 -1797 1135 -1881 0
1468 1466 -721 0
1888 -1699 -1374 494 216 904 0
210 701 159 -1485 -1964 -1919 0
-333 -1176 -310 -800 0
-1374 1638 -1434 1831 1688 -274 0
-1487 -1533 -921 1737 -1313 723 0
-750 501 753 688 -12 1891 0
1604 -626 0
-1842 1580 792 102 -1511 0
-476 -1836 1085 0
-1817 229 448 0
-177 1934 -1300 -1369 907 1760 152 0
1309 1803 -1477 1759 0
890 397 1675 -379 0
769 1327 -803 1690 -868 1439 -683 0
1378 -466 0
-1892 -1132 104 664 -1258 0
1430 1630 0
1812 -53 1373 -1541 -1034 1836 0
-1210 876 -1880 0
6 743 1984 895 1308 -1248 0
-1040 572 340 -1134 -1020 112 0
-1621 -1738 -426 -129 -539 37 387 0
-940 1187 301 -1982 -1433 -1740 -744 0
724 -780 1172 -108 0
281 -514 0
-764 -347 1018 0
-1596 -1914 -945 -1996 1517 716 0
-783 -1154 -115 0
-423 -131 872 113 372 -1641 0
760 462 -1911 1041 -1706 -872 360 0
-1032 808 0
278 680 0
857 -268 1054 -1999 0
-1350 388 -404 -1911 1292 -1929 -1692 0
-947 -1780 281 1094 -1949 241 721 0
-925 53 0
-865 354 254 0
-1144 -1417 1701 -308 -1946 716 1861 0
364 -1725 -1287 0
323 -1251 70 -1925 -1038 353 0
-891 484 0
524 -1498 596 1569 -1694 1677 -345 0
-1717 -152 1758 1178 0
1221 -897 205 745 1664 0
-404 1320 244 1998 1910 0
-1514 31 -902 -229 313 360 0
1480 -1581 1601 120 0
-385 1490 0
1554 -281 -773 1548 24 -37 -1649 0
1427 -154 127 -1715 254 -207 0
54 1504 236 0
1178 1373 0
688 963 929 0
1776 1169 0
-496 71 -1125 1809 0
337 664 -1294 -188 0
256 -443 858 1922 586 1163 1655 0
144 -930 -1017 1503 0
22 1882 1399 -354 44 0
-471 116 -921 1063 -1722 0
-710 -491 1560 0
-1447 446 0
422 784 0
1224 -16 -291 0
1939 659 1376 130 1630 633 0
593 1125 763 -1652 803 188 0
-125 1137 -1794 1704 1998 -607 0
-1228 -1194 931 -331 -1504 -28 0
-1611 -1577 198 1081 -1598 234 0
-1480 -1289 1339 0
-834 -817 -880 378 -82 1289 0
624 -991 929 -153 -357 0
215 651 1189 748 1567 -400 267 0
-1793 1981 -74 0
-1396 887 -681 -169 1521 0
325 -1860 -1817 1474 -1986 -1206 0
-1534 419 -478 -606 -1004 0
-444 134 973 -1245 0
-1801 -1943 0
542 1042 202 437 1281 -1971 0
-120 -1556 559 -1560 498 0
832 1347 0
-1337 413 -52 -299 1865 -1657 669 0
620 576 536 1058 0
412 -1662 898 732 -1830 806 1022 0
-1828 -271 1997 -96 0
-1579 1684 0
195 -1021 -1059 1027 857 210 0
-365 1198 0
1760 1677 -1925 0
1318 -1537 0
25 -64 763 1385 622 1111 0
-1819 -1717 -1785 903 0
-545 1220 834 1180 -1497 -1161 -944 0
7 -871 644 -658 262 1373 -391 0
1961 429 -485 -536 615 0
-1109 -899 1341 378 -1951 -1238 0
-1920 -949 -1167 -1459 431 -1182 -575 0
-1442 576 -346 -579 -1961 343 0
-648 1303 0
-1604 -72 0
898 1691 -170 0
1398 326 1920 1265 -263 1121 -918 0
1625 1680 1461 617 0
817 -1039 -210 112 0
187 541 -787 0
1622 -473 -430 143 -1787 -893 -549 0
-752 1585 -59 1269 -782 -1451 0
-1997 258 0
1286 568 -960 1283 -999 -237 1623 0
1828 -1969 299 828 1642 -922 0
591 1340 -1926 -803 -295 -1629 1472 0
-299 -1881 1802 0
859 -304 -1082 -838 1450 0
-1570 -1870 0
939 -1029 1179 -1479 -237 374 0
-1940 -135 59 0
467 1015 -1476 -1307 0
-916 983 529 -470 294 -1236 0
1626 -124 -1404 1364 0
667 -1481 473 -1192 1846 0
1457 -1360 0
-1729 -413 1555 1007 -1255 0
1555 192 -1534 0
1725 429 0
924 -1354 0
-1879 1663 1913 762 1095 -1033 1030 0
-1831 1396 -669 -1229 0
-1417 150 -1600 1111 519 -423 438 0
1503 411 -1107 -1978 -744 1231 0
-591 -1378 1462 0
738 493 -860 -1302 -195 0
-1699 211 62 -1907 -1378 306 1702 0
-1997 -130 1352 119 524 764 0
1998 -929 -1456 855 -1269 919 1838 0
1490 -1745 1618 -854 959 1019 635 0
550 1038 -730 1893 458 -364 539 0
-1428 -484 -1059 -1089 0
-509 787 91 -1053 0
1432 -329 79 1387 -1564 -1013 0
-1262 1994 0
1606 982 710 -1253 -122 -886 0
1328 -893 494 1577 0
772 -701 -1739 -972 1773 -827 0
-1423 559 -388 365 740 -1714 0
553 86 -1360 -1107 0
1663 -1132 1759 -1031 0
239 921 -254 1889 209 0
-301 -763 1087 1992 1576 744 1411 0
1384 1342 1738 1855 0
1369 -1866 632 -1685 -1104 -410 1554 0
-1554 -203 1125 -1148 -1775 1296 1089 0
-1532 1574 0
-1363 -1835 -1516 0
1391 -451 0
-1822 277 -588 99 1649 -263 0
1083 -672 453 -1688 1025 618 0
-1218 1679 -1193 1800 -106 0
1134 -660 -1636 1804 0
-261 1259 -1381 -670 0
507 -106 290 716 335 1614 124 0
-1020 1046 0
-1752 1634 1494 -762 -924 832 -980 0
-1446 708 1315 -1123 -1624 0
-882 431 -565 -409 392 0
127 895 500 -1803 1659 -677 0
-297 -1260 -1174 1227 0
-489 1202 1678 -1389 -1361 1433 0
-684 -751 1145 1005 271 0
-337 873 1837 0
1800 1477 813 -403 -1894 1645 1926 0
-1190 1739 0
-306 10 1590 -501 1319 -1141 0
-519 128 -403 1668 1386 -1042 0
-737 194 0
260 1471 1714 -349 -1772 0
-1417 -1350 65 646 -1236 -1635 0
-1205 -601 1372 -1112 0
375 -316 1955 0
-670 776 1345 1735 0
691 870 -1381 0
1347 1540 -170 5 -27 1237 263 0
1587 1541 -303 0
-1822 1728 -343 -597 -1333 -742 1770 0
-1895 742 -1991 0
-1960 -1866 1619 470 0
-1139 -1614 0
-553 -378 158 966 -1119 -457 -238 0
1485 -101 1415 -299 265 -119 -1268 0
-934 1192 -115 900 -1090 1769 -1430 0
496 1377 1091 -1034 -1493 0
1014 -1997 -225 0
-614 -342 465 1396 -1087 1814 0
-104 1876 -1769 0
500 1979 -350 0
-1534 748 -1122 0
1549 1063 1103 1437 -20 -1023 0
1137 1295 746 394 812 -480 0
118 1795 -754 0
-588 235 -1933 0
539 1129 -313 -1737 -581 -265 0
-125 -181 0
24 -1025 0
1685 467 0
65 721 -1535 1796 -78 0
-1867 -1109 0
-1787 149 -300 1050 -1011 705 -1668 0
1085 419 245 1553 1019 0
-958 -803 0
-868 -1601 0
-1835 -1141 30 48 -1160 -1288 0
-484 128 756 -1851 0
-1506 499 0
-1421 -811 1969 -1880 493 1464 -1257 0
-304 1189 1013 1343 -142 -290 298 0
489 1104 689 -1006 -1063 0
1793 -577 -1757 -912 0
1736 -340 -755 0
-1175 676 -1869 -1547 0
-1331 -1914 -1607 0
-537 1669 649 0
713 -530 -1682 839 -620 0
1192 -103 -1177 0
-920 -332 738 1410 0
1480 -1456 959 0
774 -1695 1496 533 683 0
849 146 1446 -617 -558 -1470 -742 0
-262 1487 1554 951 -522 -659 0
-561 -745 -1239 850 -1937 0
1933 9 -1167 -1582 -1528 0
1894 1688 1923 53 -996 1161 -592 0
853 -1838 1847 -1907 -976 -387 -1088 0
1739 -1910 -266 897 0
-1328 -1018 0
-629 1654 870 -481 1919 0
1087 590 644 1399 -652 1853 -1066 0
519 1083 -650 1364 1686 304 0
1235 805 -228 -1517 57 1020 0
1408 -1105 -151 1226 -725 -1648 -1157 0
-1498 1494 -483 -706 -1850 1796 0
7 -846 -323 973 1680 0
-66 -569 -1127 233 1702 -202 82 0
-1450 1501 -615 1209 51 0
-391 -1033 1371 -904 0
-1175 -862 221 -134 -908 0
-1469 -1305 -446 720 0
-1901 -1982 0
895 817 -1883 650 104 0
1758 -1458 515 194 -1349 -538 -198 0
-1870 -1408 0
1169 1634 1362 0
440 847 -900 -1653 -1328 0
-42 -1473 854 1183 -996 -690 0
-1214 -1389 -136 0
-145 -1395 -136 -653 1747 1633 381 0
593 -1735 1057 -1320 -949 1731 0
-1183 -1548 1241 -1046 0
-1565 1727 0
1878 473 -351 -929 1053 -829 186 0
1893 1306 1433 0
-429 -1789 -1715 875 -130 0
1257 1060 0
-1833 -602 643 -1254 0
-1489 -300 1582 558 0
-966 -139 -1862 1902 -211 -328 261 0
-1925 -1972 -858 643 1654 757 1436 0
-452 1502 -1740 -686 406 -1480 0
1052 -456 216 0
-105 -288 0
1817 -671 1260 -1978 1530 0
-1292 -252 667 1307 -1799 1925 0
554 -1830 459 1509 0
1981 -731 -1248 821 1805 -1457 0
1470 306 -1331 -1387 0
293 -1903 304 -708 0
206 1794 1646 -82 867 0
-472 1124 447 1793 0
442 -972 -999 0
-1481 -943 -1458 0
676 -1249 -1074 -1977 1714 1836 -33 0
-567 1434 690 1984 603 -1131 0
-24 -274 913 0
-1458 483 -1324 -468 0
-11 1520 -795 974 874 -1055 -1937 0
-419 -2 -700 911 755 1683 -501 0
955 93 1285 1673 1194 1670 723 0
1702 1795 -1792 662 0
-579 1053 -1251 0
-1188 -1780 1156 -276 -1477 1551 -832 0
1699 1 1163 1879 0
710 -1215 1379 1489 -885 0
23 468 -925 0
-1750 949 -427 0
329 1115 0
-1164 -340 359 1543 -1192 1452 -8 0
637 -210 1738 526 0
1851 -1607 -1959 0
-230 -1950 899 1750 397 0
-1869 -1728 -1170 -281 207 1749 0
-1103 1451 0
-1999 -775 1106 -746 -1958 495 -911 0
-1725 772 379 1216 -1820 0
83 -357 0
483 -177 0
988 -1386 -1173 -1353 0
-39 1118 1426 -934 0
845 -342 -330 0
129 679 88 384 0
-298 953 -823 316 408 -529 -29 0
-862 -1106 1683 0
1423 516 -1815 -1758 -467 0
184 1295 -1364 0
1811 -421 -1056 0
-343 85 1425 0
-362 1365 482 352 1377 77 0
1934 -476 -936 431 0
-1096 1787 0
-288 -1979 -1071 1180 -1654 -1084 0
121 -1205 782 0
1241 -1239 0
1599 -1729 122 -1469 1581 -404 0
-959 -1990 -399 0
-885 -439 -1811 -1476 0
-1224 1500 1488 -1573 330 0
-1485 1776 -1645 -1517 -340 -1768 -284 0
-1961 774 341 204 -1689 358 0
-1447 351 209 0
-50 672 -1518 489 344 0
1834 1791 -1997 1527 0
1301 -1144 967 1112 -40 -1169 -130 0
1120 -176 94 1040 -709 -1872 0
-830 -1083 -935 -1321 -1500 1823 1702 0
1611 160 -1566 0
-491 -1494 0
-958 -1678 -533 53 0
157 -391 1966 -87 0
442 -1733 275 -266 -1152 0
1322 -758 1294 251 1563 -633 849 0
395 146 1470 1338 1916 0
698 1207 1217 0
-863 -39 -1087 -1381 1459 975 -553 0
-538 -1911 -793 0
-1102 -528 0
88 262 668 -621 -1064 0
223 -811 339 -1545 -877 1326 0
1430 698 1006 -1578 0
-998 1142 1020 0
856 1381 -1032 1964 294 -1428 0
-1196 -1032 964 -1228 1435 612 0
-563 1050 914 -1440 -1848 0
-1428 400 0
32 67 1306 916 -1774 0
1676 -1170 895 1942 0
-668 152 -287 -334 -1955 1050 0
968 -679 0
-1224 -766 -714 -1826 -1246 -418 0
-1800 -1934 -508 -1126 1115 0
-307 -529 1687 727 1709 999 -256 0
1012 443 -916 31 -1134 23 370 0
-571 1362 -1750 995 -1949 -1018 1335 0
765 -14 497 933 0
-1916 1252 1266 525 0
-956 1559 -535 -935 0
-981 238 762 100 0
-365 -958 -1475 1578 1285 46 -356 0
-1254 -1570 -1448 0
-1373 1496 -269 -54 0
-424 629 -1508 681 -1790 1866 0
1963 794 -260 -1764 -135 0
1945 -29 1845 -755 319 -1501 -211 0
281 -1239 0
-1029 175 1853 1766 384 0
348 771 0
1543 -207 1663 0
13 -802 353 -1163 -1057 1792 -821 0
-1753 201 -1513 -325 -1919 -222 -1865 0
326 1573 1674 0
550 -596 -1274 1373 620 -1146 134 0
770 -1791 156 -1197 -912 814 0
814 -1883 -1200 1830 1040 1034 1522 0
-1767 1243 -362 -233 1990 -121 0
259 -374 1239 -852 0
-137 1796 357 1568 -1456 -986 0
-1097 371 169 661 -111 596 -1660 0
-1264 1836 0
585 -787 -1955 1172 -1423 0
264 -1718 -236 -899 638 0
1047 -929 -293 100 1699 -1161 -1086 0
-226 -305 1539 -966 308 -1409 371 0
-1171 -1265 0
-1993 -1464 -1906 -1209 580 1544 0
1105 25 -1080 175 124 0
-550 -1597 -25 1 0
981 1268 -1300 1705 135 -418 325 0
-351 -1934 -278 12 304 0
1046 1648 1149 -1753 995 1632 0
1469 -849 -1281 279 0
-950 -1993 -156 1312 0
-402 1795 1320 0
-1165 -1383 1393 1487 -1676 1208 -71 0
619 977 0
-1136 -988 1715 0
1743 1530 1447 -685 -1462 -1907 0
950 1275 -758 1769 -519 0
-1004 1371 380 -1900 -1538 1811 0
562 -239 0
-1846 -1627 504 1353 -1516 0
-1932 -655 -1045 1763 -522 -1351 1121 0
1021 -1444 0
-1314 1882 -318 -752 0
1542 -1072 1665 0
863 -666 1802 -903 -1673 0
775 -1109 0
-1677 1223 670 0
-317 414 1561 -833 0
-1417 1463 -445 -1542 0
684 510 -226 923 0
-1429 -1055 0
368 -1120 1607 -737 1501 -1775 0
-1936 -1590 -1045 0
-1021 -952 409 1685 1100 0
563 1662 -1232 1413 -875 0
746 -946 1954 812 1986 0
1403 752 -154 888 0
-1304 407 -1946 -1881 -1764 1556 0
-565 503 795 0
529 220 -434 0
1451 1881 0
1121 453 0
1124 -713 0
-329 1571 -805 0
680 311 -1859 -662 1895 -949 55 0
1031 790 1625 478 -132 -661 0
1925 -638 153 -573 -1984 -663 1504 0
1867 -1713 -365 1207 0
-76 -1415 0
-890 1170 1946 -289 -1023 -1677 1331 0
-247 1253 0
-1277 599 0
-178 1249 -71 -1793 -1310 0
-131 187 -1494 0
260 1394 -236 -284 0
-1135 1365 -577 0
1698 937 0
-1193 -1701 -1191 -720 -814 0
-970 -1175 645 -1228 0
-567 1029 751 411 0
-366 1498 1930 296 1804 -1862 294 0
-739 693 1726 0
-1405 1953 -243 1166 -442 0
399 1606 1387 1356 -1011 0
953 -275 1541 1644 -827 0
1684 -1177 139 -1901 -1388 -1236 0
1527 152 -1460 -1744 792 -1463 581 0
-1379 1745 1629 0
1757 -1558 -148 0
1302 -1384 -1721 -592 1145 0
1455 -905 790 -1194 0
303 -226 1205 603 -931 0
-1472 682 666 688 1593 -1117 0
-535 1103 -781 -919 153 1298 0
564 216 43 -434 -1744 0
1942 -1328 1051 1538 1654 670 0
-1591 420 -1352 -1992 -78 -289 0
205 -1294 -1166 0
-404 236 1277 -1667 294 0
519 916 548 -816 0
-580 -1796 456 -104 1884 0
-63 1126 528 1854 -887 0
908 1802 780 -1140 1452 -995 0
-812 744 1881 -221 906 274 0
53 -1994 -293 1705 0
1198 -489 1832 1940 0
2 921 -235 371 1204 1658 0
-969 -508 -199 1845 -983 -425 629 0
404 -1552 389 -1442 -1575 1046 0
171 -1498 1431 -1702 -1749 0
235 -372 -1610 0
295 870 -619 1403 -1925 1506 1483 0
496 -1599 906 -693 0
-1105 1781 -955 -1624 0
-1038 1217 0
96 -577 1392 -1114 1997 725 111 0
1435 1358 -371 660 0
-1124 -330 300 -1311 1688 0
-1505 -1365 0
-881 786 0
-378 -179 1214 0
-1636 -1408 1772 -402 -390 0
514 1908 1311 -964 306 696 1339 0
1065 501 992 1842 -1981 0
1644 -1805 -1594 0
315 -1611 0
-36 1411 -1249 -1952 -1538 1376 0
-1332 1697 -287 256 -596 610 -888 0
-1732 1216 581 309 -343 1352 0
1867 527 1690 -783 1962 -1157 0
663 949 93 0
-1375 1670 -1350 0
1634 473 -1939 0
-1458 -647 0
250 1314 -1124 1682 1877 0
1950 754 0
-870 354 1931 -109 889 0
-1792 -1549 -1659 956 -1581 794 0
-1741 1441 0
1849 1800 1585 -673 -576 482 -1255 0
-1835 1706 -858 -1891 1282 0
-790 1678 0
1984 245 1296 -445 -434 317 0
-1731 1225 1495 -1980 -1318 116 0
1016 1767 0
-1410 -1160 -1332 0
13 -895 1876 -918 190 266 0
1307 747 0
625 -973 0
-438 -1636 -491 -975 0
1160 -111 0
1684 -1223 -1580 -602 -1185 -380 0
1275 418 -752 1698 1461 0
541 -591 1154 1722 -273 0
-1536 -951 983 0
1174 1325 -149 0
718 353 663 25 271 1481 0
-713 503 -1382 -762 815 0
685 -1894 0
1287 -444 1316 -629 -1581 -1809 0
-1624 65 -670 -532 0
807 -1715 0
1324 1319 0
-1157 -88 -1158 1385 0
1673 206 -1838 419 -245 0
-35 1020 980 -699 0
-1550 -1853 472 0
-1781 -1611 -527 1299 246 184 0
745 422 109 554 207 0
-434 972 -1469 -1406 0
-836 1789 0
800 -136 -348 -844 1301 1447 0
1989 1950 -284 0
936 1228 -515 1315 1579 -959 673 0
-1148 -856 -424 -1743 1608 65 -71 0
-624 -668 0
-1318 -136 1170 -225 1073 -1214 0
-1986 447 866 424 54 0
1513 -277 0
860 123 -8 -892 -347 0
-627 -1229 615 -494 279 172 1511 0
-1275 -1282 0
1957 -517 644 -909 -701 1912 0
1733 -576 -1287 588 -391 1803 360 0
1192 -1705 1027 1758 -851 1969 -1844 0
-388 -1415 -1696 -954 0
489 118 731 1188 0
-799 815 1844 1199 0
-323 -1954 -1764 58 1742 0
-541 675 -1935 -546 41 -1672 0
539 -432 1661 0
1365 -1692 0
1845 -1619 1362 779 1340 -1594 506 0
349 -502 -305 0
-1826 -1992 -264 210 0
-1598 1314 0
1999 1524 -1525 -1605 1699 1555 -1690 0
103 -902 -78 1133 932 0
1560 -1608 -234 641 -1141 -1902 0
1654 -1351 1562 1216 1496 -1374 0
298 101 -365 -80 -361 1250 -1976 0
-1306 855 0
22 1215 0
495 -1067 1225 -1934 -1868 -1499 1297 0
647 -852 352 -1982 0
-1795 1720 1215 284 -167 0
1608 1679 -1180 0
-1550 -345 -1088 0
49 280 -1634 86 -1777 1399 617 0
1031 -713 103 0
-1814 746 1812 1984 0
-1375 -1202 0
-448 -504 1709 -1738 737 368 0
-568 501 0
-1101 565 1586 -1838 539 -29 -443 0
-768 -426 -233 -1470 -846 529 230 0
-1446 1697 -1412 0
-690 1762 0
-992 1612 -1368 -1871 1617 -1798 -55 0
-1551 434 0
-1695 -1166 678 0
1578 1258 1822 0
-716 -70 -247 -1384 0
-906 -443 621 1736 -1292 -70 1717 0
-1265 1146 0
1326 -1686 1434 1481 1495 -745 1611 0
904 -731 546 1580 0
391 -1275 0
1329 -697 -402 0
399 -189 0
348 1815 0
-1659 -1309 200 -853 376 304 0
439 -961 760 -749 -697 -1300 0
-1741 1054 -252 -238 0
-1254 -898 -801 -579 0
625 1470 -239 -13 -1162 0
659 689 0
158 -1277 0
-1514 -446 139 -1908 1163 0
-926 815 1896 -1878 1630 -1211 0
-1506 488 -538 0
213 -545 -1385 -117 -1673 1741 1661 0
461 -399 -1211 262 -1660 -708 0
-890 1614 -457 -503 0
237 591 -31 -1960 -409 -1807 0
728 -1826 1537 711 835 0
-1525 13 -840 -1544 -505 0
1661 -498 0
283 -1683 -1450 -1657 -1564 526 0
1436 -105 1566 0
-1020 1328 -58 -182 -1301 -159 0
-1371 -432 163 -618 0
-970 -1004 -721 1601 -628 1462 0
-588 249 1332 -235 735 -752 0
738 -1301 0
-1277 -1752 -1961 1466 1676 575 -1071 0
-99 206 782 276 -675 -78 496 0
1734 784 -1136 863 -1919 -640 1892 0
1232 1552 0
1058 -1392 60 0
1548 1695 1303 0
-1038 -1040 -39 -153 0
-481 1061 1653 -768 -1016 -363 0
1483 89 894 -743 0
-284 855 1042 -1240 1196 753 0
-709 -912 1801 867 1797 0
-48 1792 358 129 0
-1017 283 690 1155 -1164 -1757 -1075 0
1356 537 0
1648 1104 -1319 0
-1568 -1961 -296 1171 -1378 0
-1648 594 1508 338 -568 -1813 1791 0
-831 -1252 -810 -1657 115 39 1491 0
711 -1798 430 1527 -1491 0
-632 1177 1615 -351 0
126 -571 0
1354 1420 -132 -732 0
1640 -184 -1096 1148 142 -1729 1896 0
-880 -1475 135 -1522 0
-1141 742 485 1507 1376 1960 894 0
-1334 1689 -201 -428 1451 1427 0
1640 1630 0
-1515 1142 -1826 1002 -820 783 0
-1730 -914 -903 1748 -1181 0
394 -647 0
625 -1884 65 0
-1192 -1306 636 -1951 1903 0
-1391 -57 637 -1056 -461 712 737 0
-901 -1132 -1098 1882 593 1859 0
112 -1380 -50 -785 -271 0
966 1713 1167 -107 1423 0
1401 -62 0
857 1645 0
-937 -424 -1133 943 0
-1043 -1297 0
1752 -922 -1554 0
1591 -83 0
54 1688 158 678 0
-48 605 100 1576 -61 -132 0
-980 -780 1637 -1203 -656 0
-83 1428 442 0
-1748 954 1116 0
1268 -54 1175 0
1464 -1360 -1481 -1346 0
-694 -1750 0
-921 1196 1600 -1371 -740 1298 0
1220 -44 1972 0
-871 -92 0
-1696 -1761 1541 0
611 63 0
1418 1964 1808 0
-1260 685 -303 -1254 -122 0
1069 387 -1785 0
507 -849 509 1851 1789 -863 0
-996 -647 -861 -487 905 0
312 502 45 128 -1923 0
1316 886 1102 1054 45 1620 -294 0
-48 1497 -1389 -72 615 0
-952 -866 1819 0
-353 1265 -1681 -601 -877 1376 -1287 0
1555 948 -1431 451 -1634 -1002 -666 0
-1809 -1942 -762 -523 -21 0
781 1971 311 -924 0
1967 861 0
-575 -241 786 0
1951 -1271 -1706 -823 599 427 0
104 -865 -738 1562 -516 0
1359 -1055 -48 -34 -760 1962 0
-921 -1553 0
946 -257 -1635 0
341 -86 247 1840 -232 385 0
8 1100 0
1975 -101 -319 -724 1494 -1132 0
-982 -1828 0
-1231 -1507 1614 682 1649 0
1996 1397 -13 -391 0
-1091 638 -994 45 -79 -1320 -1496 0
571 -559 842 0
-45 30 -884 1498 -935 195 568 0
-688 -216 810 -1872 1600 0
-1206 -1643 -1775 -441 -1340 0
355 -1876 -1260 1416 1339 0
-411 -1335 1977 1940 -597 0
-139 -181 1124 -1260 0
1148 1014 -968 1437 1608 -1788 -1593 0
-1384 723 0
-28 -1740 1776 -1217 -1630 -714 0
-1500 -948 86 -670 -979 -195 1021 0
-1347 -590 1814 -760 -1695 1436 0
-257 636 193 280 -624 -1458 640 0
472 1470 1093 -1514 412 -438 0
-118 1934 331 -963 587 -272 0
-1313 1978 -688 1391 -280 -901 0
-1364 1975 642 0
915 97 1089 -129 0
-1926 -948 288 -1796 -442 0
24 1235 307 -1420 0
1407 707 204 0
-1125 1635 -1474 273 820 1261 0
1755 -199 -1562 28 -1746 0
-1925 -1462 150 343 1199 -1017 0
-830 -1450 1899 -914 -195 -1056 -1796 0
1802 -144 350 0
-292 -1974 0
1340 1691 1236 0
273 1621 -1991 -568 -1425 522 1526 0
56 -409 -911 0
1848 97 128 0
-1326 -1149 -1123 -515 -1743 -1574 -1388 0
-1041 634 0
-1531 -1086 1722 654 1708 -472 225 0
320 707 0
1292 -1209 170 -1315 1960 1943 0
-334 -1319 416 0
-1940 1341 262 788 0
428 1009 88 71 482 -1718 -805 0
1830 -1858 -83 599 -1985 0
-1697 -571 607 1710 1237 1258 0
778 -521 626 -524 -931 1646 0
1687 1000 630 -1836 973 -1334 0
-1525 -977 1111 -993 -1932 1862 0
-1994 -666 -1589 558 431 118 0
-1732 -323 1593 -1152 -494 -1724 0
1132 855 0
677 1367 -717 1322 0
1071 -1237 292 -643 781 0
-165 1253 -1358 889 -2 1928 -1347 0
-1646 1756 -353 -1847 -124 706 0
-615 -1474 -1793 0
-1724 -991 -718 0
-607 -277 -1476 755 -1831 -258 0
407 1599 -1476 1062 1293 -318 963 0
-679 423 1877 -783 436 -1812 0
719 -1331 0
-1438 109 -1829 -1738 0
-409 110 1877 0
1305 964 -972 -1432 1784 -230 0
1443 -296 -1191 1166 1869 1339 1582 0
-454 1390 929 -1570 1740 -386 0
-344 -10 192 615 1378 1874 1397 0
1517 1677 -936 -993 520 913 0
1068 308 -1253 -22 0
4 423 845 1631 1760 1194 1353 0
46 -1192 0
-1584 -81 285 -1030 -1744 0
18 -1923 1797 -1959 -152 0
246 -124 0
468 -1870 -1029 0
239 -580 0
1664 19 1475 1399 -1022 0
1470 -692 -512 -1467 0
1165 1991 101 -1708 944 414 -628 0
-136 1782 933 -1572 697 -216 1504 0
-1991 683 366 945 -1968 0
599 -1127 1236 0
680 -1969 1788 0
-476 79 -342 -1024 0
-198 -55 -661 -1150 0
-596 911 1196 -113 -1093 1889 824 0
1811 309 -1256 -1419 1584 0
908 -1809 -429 1994 0
-347 -228 -1264 395 270 383 -1130 0
1607 -1475 0
-1381 1864 -1510 982 -121 0
-204 1410 454 0
-969 452 0
-1270 1982 0
712 -702 1525 1842 -472 0
742 -667 1616 -903 -1577 -1323 46 0
1103 -1172 -1520 0
439 -830 256 735 -601 -1921 0
1063 1270 -1768 -401 1 1275 1591 0
216 -984 169 -1412 1164 0
1742 -103 657 -1678 242 -797 1909 0
1327 981 -476 0
1841 -696 -1212 0
-1935 -284 -280 1409 -1472 383 1593 0
374 19 155 0
1532 526 -1393 -1948 0
-729 107 -327 822 0
1075 76 -1019 1757 1544 1238 -270 0
1603 170 -67 -380 -1234 375 0
-1927 -1420 391 -1089 1390 1151 0
-482 -955 137 129 -1860 -394 -1176 0
-779 -1895 548 0
1794 1166 617 1468 0
1569 -855 1673 1067 101 707 0
1042 1179 152 830 11 -1471 -285 0
-1893 786 0
-1685 -957 -1928 59 668 -447 -551 0
-1914 -1253 -97 374 -922 -862 1764 0
116 -1514 -1229 -241 -973 -284 0
-826 1298 -301 0
83 -1380 -1861 0
1737 1610 0
-419 -517 0
-405 258 1225 0
-1903 -1685 1148 1277 -1601 -1378 -322 0
1716 -942 250 -334 1688 -1516 -653 0
226 690 -900 383 -1489 1132 0
1020 1838 0
1939 1255 317 -193 1678 -1124 -854 0
1272 1797 -1943 1914 -982 1933 -336 0
1878 1512 0
-833 -757 -925 -1184 -776 1777 1068 0
1280 572 1373 0
1134 642 1116 -144 595 1287 1948 0
-1954 -1440 1031 -1195 2000 0
1762 -1710 -1950 0
-1047 -420 -284 0
1864 887 1406 794 655 1389 -1913 0
374 1651 -1092 1437 -1627 1972 1667 0
-609 -1966 -930 -1932 0
1133 212 -554 -1987 -1736 1543 0
930 1130 -1292 -786 594 -387 1714 0
1774 49 189 -729 209 -1381 0
-800 -879 -133 0
-372 235 0
-1530 1126 1157 -82 -712 563 0
558 -1446 0
1400 769 0
1455 1977 0
1842 -1876 0
-1027 -414 -1159 0
947 1391 400 934 0
-1267 -1460 -1130 -1668 -935 1713 0
-527 932 0
1986 484 -1572 1620 407 -15 0
1091 -1088 1154 0
350 1297 1670 -1988 1290 0
987 -54 -459 1182 190 0
1262 -811 -738 -457 913 0
668 1764 -1847 1090 1852 0
1544 -1272 -1787 0
602 -85 0
-824 -127 0
-766 1038 -1486 -1297 1725 0
-735 -1948 1319 0
1241 -103 364 197 -710 0
1412 826 0
-1647 -438 0
-138 -1152 1699 967 -535 0
-1165 -797 -683 -1627 1776 -1354 0
-80 1470 1556 -590 0
-1132 137 -164 -125 73 0
-529 684 -1181 -1745 -1486 1304 0
-652 -1866 -932 -337 -979 -923 989 0
-460 651 980 0
1557 1960 1336 1600 -1586 -302 0
212 -1242 233 1525 -17 0
133 905 1514 -168 0
-1938 929 -810 -219 0
-680 -604 -1992 -1654 1715 0
-1512 1231 0
608 88 102 0
-992 -915 903 995 -1514 669 0
1831 725 0
451 -1370 522 1755 963 -1328 0
-1480 765 858 -933 -965 1065 322 0
1087 -1908 1367 -684 0
-1407 -370 1613 -1832 314 -82 0
1984 1048 1074 1645 1860 0
-1071 -1314 837 -15 -97 -1804 0
-742 -1142 -1881 102 170 0
987 1115 1657 104 0
-696 -1256 1415 751 0
1387 671 1409 1183 840 1898 577 0
-1452 182 -159 1349 0
88 -1819 -1251 369 1326 826 0
714 577 -722 -1472 -1604 -1407 1747 0
163 1845 1613 1344 -1756 0
-1518 -963 1295 1748 0
-976 -361 391 1552 0
-927 1295 -939 -714 0
-1919 654 1846 -747 -1402 12 1557 0
1036 991 1820 0
789 -283 1337 -1031 -799 1301 0
-1935 1961 1887 -633 -924 0
1569 -623 -360 0
1200 1360 1566 0
-1477 828 468 1973 -185 1696 0
-692 816 -1284 0
-728 -13 -1856 -441 -1444 -360 0
1292 -1313 0
155 -1078 1676 -1254 0
-610 -1798 -1684 0
346 1225 458 0
-1567 198 543 -1348 595 -1841 1988 0
-222 -1744 863 0
1981 1876 -1607 1152 0
-1260 -1540 67 725 0
-683 1023 -809 548 0
4 1210 458 -1798 1162 0
947 -836 0
-977 1434 0
678 1011 0
500 -367 -738 0
-632 -1222 -52 -1157 0
-1361 -560 -1317 0
1029 -274 -1733 -52 678 0
311 34 -154 1433 -1092 0
1699 1329 872 935 576 -1583 0
177 -850 0
589 -516 -613 945 310 -1270 195 0
819 1603 -1103 -518 -1399 846 0
1891 -1710 0
-1050 -529 451 -1473 539 1732 0
1380 1486 926 0
-1198 -784 1499 0
-44 -955 -1226 1439 -1224 39 0
1593 286 -1741 -14 486 141 1320 0
-240 806 1109 205 0
-516 1106 -657 57 199 1730 0
-420 -1728 -563 -1847 1558 -421 -212 0
-1644 1122 869 -459 1235 253 903 0
1050 1539 -132 -413 0
-1312 228 0
1089 1532 1314 -1713 -1999 -777 -23 0
-79 1781 1625 -807 -830 0
284 1038 1610 -477 0
1771 1808 1028 -1985 102 0
-40 -843 1089 536 -1453 -720 -351 0
803 -250 -431 1808 0
-1206 -1114 0
-667 -1801 -1808 -1195 -1330 -1759 0
-1661 -1507 1188 -351 0
-1002 208 -1128 0
1236 -27 -1943 32 0
1525 519 -841 0
-710 1832 0
242 1332 0
-1423 -694 -1155 104 0
1669 859 -210 445 0
344 -470 -1774 -111 973 -1664 -785 0
976 -614 0
-686 -411 -883 0
-1976 -1049 461 115 1225 -225 0
588 -118 -490 -1193 -285 -1944 0
-1926 -1424 0
210 -1327 0
150 -478 0
720 -241 468 0
-1859 1180 1494 -1626 0
471 60 -139 0
-168 -546 -1659 284 -111 -1427 0
688 -1632 0
1652 919 0
-59 -249 1652 66 -781 0
659 -1067 -1359 1441 -1904 -440 0
-498 -991 -1122 -511 -1653 0
419 -529 -1742 1370 0
1639 -1617 365 950 828 797 -1167 0
803 -1330 -741 897 452 1802 0
-1282 638 1191 -1109 191 -1437 876 0
-150 553 -1861 552 0
699 1017 1858 1033 0
-1732 147 1198 -234 0
1204 765 600 -838 1928 0
675 1519 -551 -1687 0
-649 291 131 -684 -1678 934 1867 0
195 244 1134 116 -489 0
1293 -1475 1086 0
-14 -523 -1314 1379 0
-1366 343 0
1718 909 -455 106 0
923 -980 1909 1999 410 1817 -1503 0
958 1331 -1467 1019 -1681 1886 0
-594 771 275 -1914 595 -922 -436 0
1959 81 -570 669 27 37 0
753 -290 -217 0
143 1470 -1687 1994 0
-258 -902 476 0
921 916 -1452 -1744 1377 1812 0
-1298 1683 580 0
425 1544 0
-1543 -1636 0
1773 -1074 670 1229 -316 0
825 -160 -458 0
-1446 -1524 -1828 563 0
1444 1193 -1828 -1757 1965 -971 0
-1550 1232 -573 0
867 1447 -982 -75 0
-1737 -1129 1265 -386 550 0
-1212 -1848 -1338 0
-14 1145 0
-1944 489 1777 0
213 -621 -1163 1119 0
-1037 -1671 576 551 587 -441 1641 0
571 303 1583 13 0
1142 -1799 -254 1307 -1100 1998 0
-235 919 0
914 280 1194 721 0
-663 627 1432 75 993 0
-278 1167 1318 -857 0
216 -628 0
315 867 -780 -1419 -1779 -1276 -1960 0
-665 802 1548 0
-1704 -873 0
-557 1552 -1112 -157 106 0
-1212 1690 408 1409 -617 361 0
1625 -597 -722 -1646 2000 -1361 0
-1396 -938 0
714 95 1714 0
828 -1683 1511 1892 0
1492 611 730 -854 0
-260 1945 -1665 1615 0
978 576 -428 0
758 627 479 -1800 0
-1204 -693 -558 800 1995 1407 621 0
1560 1467 -18 -282 -257 1426 0
-1571 1599 1364 -95 1518 0
-526 -1123 1224 -581 1104 -1468 436 0
113 1793 1341 0
614 -1574 1724 274 -1100 453 0
-1851 447 1862 -4 0
1472 -1854 -704 -243 1409 1721 0
1392 1850 0
-1257 -372 427 0
993 -1382 395 -683 0
341 9 0
1065 -1259 0
-799 -1404 328 -136 118 0
-1786 1619 0
-1006 503 949 970 1396 -837 0
1661 373 224 -731 -1486 1505 0
-1141 738 1452 0
-1290 367 -373 -1176 1766 0
1204 422 1422 1255 -215 830 1140 0
-1913 -1774 -1119 0
-1578 1058 0
72 987 -1612 1515 1637 -437 -994 0
171 677 -1998 881 363 0
121 -491 0
939 -504 969 -566 1204 -785 0
10 674 1243 -1153 0
325 631 -375 554 0
294 483 -1297 -830 -1207 0
844 1415 -879 609 -1248 0
-1074 1819 -1779 0
456 619 1018 184 0
434 1177 -712 1629 1582 1559 -1786 0
177 -1463 -1815 -1883 0
-1424 -1379 -1448 951 -1407 0
1358 122 -563 -799 163 -862 -712 0
1573 1943 -1491 -106 0
-75 747 -494 0
694 1390 1447 0
22 -1588 -1948 918 915 -1738 0
-986 -649 407 0
-1771 1836 0
-1008 -551 -218 -949 0
261 -1248 -1451 0
-1279 -1895 1367 1377 -870 1839 0
-399 1787 -1951 328 0
-1330 154 -1134 1070 0
-1917 1196 1238 -558 0
933 1366 -1679 -1654 425 0
122 1036 1525 0
1562 -1139 1082 -1288 0
-171 1921 978 -1582 816 0
-1595 564 -1058 0
1350 1595 -282 -1981 0
-1552 -1107 -996 1217 803 0
-863 238 -982 0
-1317 -257 -1896 1345 0
-1663 -1128 757 0
1472 -1640 131 0
-1644 -21 -137 -1876 -49 -471 859 0
1358 -1823 1756 -1455 595 -889 0
1122 911 1843 -1766 0
-1492 748 -1324 -1429 -947 -268 0
637 -1007 344 1136 0
-1444 859 1977 -1572 889 0
-911 1728 -1925 0
-1329 1596 0
-1214 -1593 0
754 -1458 525 1255 -1749 0
-1563 -866 -1171 1770 0
-1864 95 0
1201 83 0
134 447 -1637 -226 0
681 1047 -515 -1209 0
-149 1912 955 -1732 0
291 -1879 -1538 18 0
788 635 -1504 626 17 0
1389 -145 1339 0
1213 -741 -1274 -1300 -1680 0
1397 9 0
-1488 450 902 -905 -921 0
-1467 -1506 1622 1554 1521 -1681 878 0
420 -620 0
-382 530 -1133 1312 1028 0
-1126 -1520 0
-1798 864 0
1198 126 -1728 0
875 -1949 -735 0
1114 483 769 888 684 807 0
-452 208 -850 525 630 -1230 0
704 -115 -1316 1594 -1989 -49 0
144 -862 -896 -1783 0
1729 -719 -1297 73 0
971 -1820 -431 1401 585 -526 -280 0
1279 163 1937 1494 1890 902 1167 0
-1399 1838 656 733 842 0
887 763 794 1838 -966 -117 -1289 0
669 1265 -972 278 -22 -591 0
-1556 999 1684 584 0
955 709 -633 1475 -1312 141 -5 0
150 732 -1671 0
1093 -1228 -453 -1889 -1419 999 0
-910 -1320 -12 423 -343 433 0
-1771 1558 535 655 -38 0
-107 1443 -744 1208 157 0
-492 -1562 1096 618 -394 -1293 -778 0
1497 1250 1975 -1027 0
517 -189 1141 493 1247 0
-1200 1166 -1905 -1239 -1355 0
-130 1323 -618 568 -252 -1544 190 0
-1592 1622 -1965 558 0
1408 745 -643 -888 820 0
1628 -1602 985 -206 -1023 0
-1219 -1281 -332 0
-20 1536 -836 1432 -974 0
98 -1408 0
148 1191 -40 1616 -865 0
514 -80 -1676 -200 1700 0
-1391 1388 1255 1339 1672 0
-996 -1556 288 1027 0
813 1130 -1142 1970 -1086 0
929 -49 1043 520 0
455 -1002 -705 -587 1945 -965 0
-348 1508 -1823 -1831 -1573 400 0
-106 1414 -899 -1520 0
-1833 781 -1933 0
1064 818 1726 -1119 0
-210 854 670 396 1864 808 0
824 779 -1762 -1238 -40 766 -942 0
1742 546 0
-842 -394 0
-699 1832 0
-1878 -1173 1606 320 -1711 -1683 -246 0
-1927 1586 1369 -1150 1684 -282 0
-1251 551 -468 1247 763 1342 0
-20 -1432 -996 1606 535 -51 0
1597 -1769 -778 841 201 1672 0
289 1919 0
695 -1047 -1340 121 -1206 -16 0
1297 -490 0
-395 -766 37 1196 -1989 -473 787 0
-620 -301 0
-1063 -1581 723 35 -1603 515 682 0
-1167 1302 0
-1704 1596 1117 -1131 -117 56 0
-1565 96 -532 581 917 0
32 1124 1059 -762 1867 -1259 1176 0
-1436 -1121 1760 1932 598 0
1649 1273 -1510 -1987 352 1467 0
730 1294 -656 -1825 0
-1686 -1907 1906 1650 1432 -1099 -1125 0
989 1332 992 1635 -1398 950 0
882 -1688 1211 0
-1429 598 1319 -785 0
-99 -1236 1339 -1258 0
1675 -1525 0
1432 1190 -1034 220 953 -1181 0
86 142 0
-945 327 -745 1367 -374 0
572 866 -1560 1280 0
793 -532 1347 1326 0
414 -40 -3 782 729 -60 1424 0
1703 -1687 -1370 0
1720 397 1246 1826 -520 -688 331 0
-1218 -1775 -522 -348 0
397 -494 1154 -1465 -587 1419 268 0
-100 1493 -987 -56 389 -714 0
-1974 -1257 0
-519 -720 -1809 -812 1350 0
221 264 1678 0
-711 648 -1718 148 1440 -631 0
-254 948 1500 0
-1555 1017 -85 -1970 -504 0
533 882 1329 -1960 1029 -1169 0
-1589 1400 -1271 1222 749 -504 0
1654 253 70 -1718 0
-1416 1157 0
965 -166 764 0
-346 1514 -711 -1322 0
-113 -219 -469 -1168 1062 1162 -1259 0
1516 -1220 361 -1523 228 0
-1044 1479 0
947 1129 -1545 1321 -1476 305 0
-93 636 -1896 1630 -1991 -1056 0
-1432 -1890 1137 646 0
-859 -484 -1159 0
760 -1244 0
127 -299 0
225 -1989 0
-792 -167 1875 0
735 -1442 54 -419 503 -936 -566 0
1998 -96 457 786 0
-19 -1899 -510 -323 -78 967 0
-1704 -631 0
-807 226 81 -674 1414 0
-1486 -537 -130 -1250 23 1377 0
-803 -1181 0
890 1123 -506 0
-1070 -171 591 -1432 0
1745 1079 0
-1710 -356 -676 940 0
1132 553 -191 0
333 829 1064 -660 0
-1710 -1068 0
-1768 1948 731 0
-1669 1591 1701 1948 398 805 924 0
1315 -89 0
-872 -733 0
-862 326 1661 0
1700 469 0
320 1674 1426 1628 -737 0
1738 -1534 0
-1743 -883 -1046 389 -1602 1456 0
-852 1524 858 650 -870 -1691 -1700 0
1591 1414 -996 -611 0
-1533 110 785 -59 -313 0
1228 769 1009 -1723 8 0
512 -1 -951 1609 1695 643 1289 0
567 690 1326 35 -608 0
1325 714 1656 70 213 -522 0
-1959 737 -1303 1912 0
400 -470 429 -1335 1380 0
-1735 -1957 -539 915 1560 1224 0
-912 1622 -1232 471 0
-1181 1456 1258 274 1601 0
552 823 -680 -1106 -28 -1823 0
964 1350 0
-175 -1892 -546 597 1428 -1865 598 0
-1950 485 1101 344 -274 1317 0
947 1980 -656 -1024 -1886 -1222 1351 0
-487 -953 -511 -1798 1773 0
-237 1584 0
-1182 -975 -850 -1521 -855 -123 -1259 0
-646 1262 -79 1141 -523 0
1496 -1919 -1391 0
-150 726 -473 -666 0
1001 -1826 623 1825 0
-1468 -1014 566 0
-1761 -1640 -830 3 0
-1099 -512 -595 -496 -531 1525 -78 0
300 1655 -631 -1330 0
-187 562 -490 -1448 -925 -145 -1504 0
459 276 1756 1250 -1700 -1925 752 0
1456 -173 1379 -15 0
-751 1866 1792 0
1043 1104 1102 0
765 384 1908 0
387 1402 1125 -1770 -1165 -1588 715 0
1708 1532 481 1602 -1505 -1100 -964 0
-802 -1004 -997 -831 -1573 411 0
10 -1974 1933 0
-556 867 0
-1921 -483 476 1122 -1674 -1301 0
1345 790 782 835 -944 0
1240 -803 -1493 0
-431 -589 349 -1202 1663 117 0
-1790 1152 986 0
1494 1185 785 1348 -589 0
-132 -720 0
-205 -1618 810 -245 30 0
1411 -1812 0
-52 -1083 -1793 148 1201 0
-1319 741 0
1583 -17 1515 -1609 -1013 -1320 0
-1983 109 1496 -1805 -985 1676 0
-1690 -1779 267 -1137 -868 0
371 672 -357 -1868 -182 -623 0
-206 78 0
-1507 1772 884 1118 -1867 0
-3 1164 0
-1101 624 0
-1141 -1891 436 -1585 -1377 1970 0
-131 1330 378 1966 1216 -563 0
-781 -1321 1818 0
175 53 398 0
1686 -1566 48 1794 -1631 582 1156 0
866 -747 -278 224 0
1691 -1569 1873 -147 0
-1075 590 1432 0
1985 1881 -1187 0
-735 -1362 -1877 839 16 -1495 1041 0
-1420 -124 1978 -113 539 1290 0
542 1455 -191 -550 0
-314 -958 -197 -587 -1550 0
535 256 -1901 0
-305 -1713 1043 1266 0
-440 -1072 -936 -93 0
-822 830 0
-1367 632 -180 234 310 1387 460 0
-409 -1164 318 0
1278 1150 -1257 0
957 -1056 0
-1492 -1519 -383 -503 1959 0
-1121 -1043 1205 1071 -33 -462 -1103 0
579 -1108 0
1743 -1286 1511 0
1436 -958 0
1187 -1635 1559 -1779 -1391 0
655 1615 1307 809 -1645 781 -1970 0
-1311 1248 1682 12 0
978 1249 0
-721 284 1057 -1625 -1011 0
-1695 -439 -937 1173 0
-1351 -968 -1961 1077 -1818 -816 0
-125 1254 -32 1111 -1399 757 584 0
151 -1241 931 -50 1666 -1871 0
113 -399 1855 -1898 -1529 0
1843 147 -1618 0
-157 1802 -779 -67 -1446 -10 -60 0
-581 844 0
1190 -521 0
1153 -1571 0
-1697 1674 -275 -659 713 -1632 0
1862 767 873 -1075 21 -327 -1371 0
-1311 -1023 1270 -1418 261 -1182 546 0
1915 1093 0
-504 1707 0
-906 -568 -1223 -1993 -291 0
1166 665 1121 0
-1261 1187 0
346 1462 940 -1995 -1068 0
-1524 1793 -1263 -291 1074 -490 0
155 109 -885 20 -1712 515 -835 0
-399 -60 856 -1252 -1321 -1858 0
1063 -893 1868 -1408 -1561 0
393 1414 1179 -1563 892 0
-945 -1260 1656 -1373 0
311 -1424 -1226 1244 -1744 -454 0
1275 407 1204 1739 -1292 113 -1801 0
-1051 174 -994 -965 0
-991 1666 1613 1806 -276 0
1408 1646 -52 612 711 -1354 -389 0
1675 1928 104 1898 -230 -1629 1097 0
-194 429 -1393 -1184 -1099 0
-53 -1467 -1836 0
-1173 -808 -412 614 639 1135 0
-1668 485 -1572 -451 0
-1243 1177 0
-533 -1673 -1371 1388 0
83 493 800 -761 -1756 0
798 -699 -1349 768 177 0
-795 -858 1829 0
1675 -794 -1762 -409 -1889 -1364 0
-1239 229 1100 0
1529 948 144 1849 1567 -1413 1982 0
-1207 875 0
1160 77 -1574 1056 1006 -611 0
188 -256 1733 -1576 -755 359 242 0
1968 -48 -1352 219 -720 -147 1727 0
-684 933 1079 -222 0
-557 -656 -1021 194 -1314 -293 947 0
-1145 -732 -903 608 1292 -542 0
940 1898 -1597 -1607 971 640 0
1618 -1741 0
-584 1972 569 0
-1736 -265 730 -1373 -1424 -362 962 0
991 1360 -18 0
-421 886 -1351 0
1120 1955 -985 0
-1575 -940 512 -1013 1320 488 -308 0
-1605 1158 0
120 -1635 362 -1263 0
-105 -1261 -1723 429 0
247 691 -464 1844 -1391 951 0
-1779 -1033 -858 528 -1371 391 423 0
743 1521 -752 321 0
669 1039 -415 369 1894 190 -721 0
-986 214 1270 0
347 -241 185 1741 444 0
972 44 0
18 1548 689 0
1206 1016 -1630 206 -1269 -675 0
602 513 -1671 624 1296 0
400 232 0
1008 -722 -1808 0
393 -698 -1084 -719 -125 0
1558 1787 818 107 137 0
-833 -1897 -148 -1238 -1269 0
-212 -755 -1869 -928 36 1741 0
380 1720 1515 954 -1245 0
-547 1225 -1516 1340 -607 0
1497 -702 364 -1747 -1445 -603 0
1503 948 -86 0
-604 961 61 161 694 -1626 184 0
379 834 -1374 427 786 0
995 -1729 0
-1403 -122 0
1335 725 -585 1340 1125 252 0
1533 -1998 1455 878 1029 -142 -572 0
-923 860 -1270 -63 0
-1459 310 -1108 -1106 230 -332 1383 0
-1000 -1652 597 -1415 -1101 -26 158 0
-1719 1502 -420 -1269 0
992 1440 789 -711 0
-612 1312 1667 0
63 -1076 0
1529 1370 0
-1088 -1633 -1786 1860 0
-752 -1956 0
-521 -386 -1965 410 -403 0
1203 -645 -1924 0
-1527 -757 -1625 0
-884 1704 312 1616 -899 0
-1226 -991 1070 -227 0
-991 -292 1910 -1659 1679 0
1736 1224 0
167 -1319 1275 -1976 629 -123 1030 0
1297 -1318 -521 1955 -1015 -1078 506 0
282 -1974 0
1487 -1485 596 545 -1318 -37 0
403 -1303 417 0
389 1721 1153 813 1935 0
941 1921 -879 0
-1732 1172 0
1977 -614 153 35 1116 -1101 0
1431 1780 1120 -207 -590 0
-1513 553 -242 628 -1227 0
-1007 924 683 500 1924 1959 1422 0
1246 -232 0
667 4 414 -1637 0
-386 1688 58 -1690 -1964 0
528 -1355 -1532 -205 1472 0
-631 1984 1935 275 14 1676 -1601 0
-1984 1296 -811 0
-143 -1368 0
1188 -1576 76 727 297 -1918 -1896 0
-540 -1483 0
422 -1374 605 0
-1891 -1876 755 -1089 -1738 -99 -1629 0
934 -1573 -164 0
-1420 1164 -1897 419 0
-202 -1426 1864 -1842 -1264 0
1273 -52 1780 1042 0
-1104 -344 -1200 660 -1128 -1734 0
11 510 -673 -25 111 0
-1413 -1524 1720 -211 -1435 376 -1893 0
-1342 1588 1240 -990 0
-387 1792 -1787 -1207 -182 1884 202 0
-1017 -1576 1500 -875 -1261 0
534 991 -1032 -517 1526 15 1777 0
402 -933 296 406 566 1153 52 0
-1510 1929 243 0
729 1779 -308 -1793 1889 0
1609 759 448 1584 1615 1965 1650 0
-1419 578 1735 -365 -921 324 783 0
1542 125 -381 -138 1065 -1406 -271 0
1688 23 1824 -604 1528 0
1939 -955 318 -1070 -645 0
717 -324 0
-278 561 1878 -46 -1908 698 0
397 -117 1815 1989 1498 692 -33 0
487 -1880 -64 1540 653 651 0
-1059 -339 0
896 1117 1703 0
1778 -349 -896 1127 0
1988 1155 0
-1300 -556 -924 -33 0
-1682 -1062 391 -1074 1924 1059 1425 0
-1694 1483 -1445 0
-890 1396 750 -35 -1212 0
1227 1152 1113 1215 0
-2 1940 666 -679 1917 0
78 908 -374 -425 1614 0
174 976 1284 0
983 1409 -1293 -21 -610 1258 0
920 1503 1964 -1840 0
701 -1164 1759 -335 -983 0
-1716 1231 1705 -1985 1209 0
-1410 860 1376 1453 0
-626 -1240 1219 -123 0
461 414 1161 -1180 -889 -1099 319 0
-1300 -1419 -450 0
-316 -1941 1063 1676 -431 1285 0
486 -1244 0
944 249 1670 0
437 1181 -1990 627 0
-1379 -1031 -797 0
1558 -1226 1452 -766 475 0
-606 746 -1022 1115 0
378 434 -1035 -425 1769 431 -356 0
-1382 1975 492 767 460 -897 0
618 69 958 0
378 188 -1548 1283 0
114 56 -923 -660 1772 230 0
1157 1107 960 -1700 -1310 -1924 0
1823 880 -382 0
1219 -1621 1023 326 -1348 1995 699 0
166 -1854 378 1306 0
905 -331 0
1633 1161 1078 -655 616 0
1121 -35 824 -148 -1949 1749 -807 0
1203 120 722 0
1602 180 0
-709 1858 609 -886 -610 41 0
633 -908 -1940 1886 -426 0
504 1136 1473 -293 0
861 -1295 0
-763 -1553 1315 1578 -1989 0
-168 1761 -1130 0
-1437 259 0
-60 -229 61 -472 -218 0
1507 -618 -1021 0
599 -946 533 -1862 -780 973 1761 0
1319 -1867 0
-480 1965 -1909 1862 -1033 592 0
1094 972 1879 -905 379 515 0
1713 1548 437 927 -1402 1332 0
1920 1016 909 -1433 0
-202 367 -1961 1423 -1907 0
-1264 720 225 -620 1615 0
-125 1116 320 283 -1604 1402 -1727 0
-1756 1384 111 0
653 540 -955 482 -989 -265 -1004 0
-1870 601 -1205 1122 0
213 1371 -970 303 436 0
283 257 647 -861 323 0
629 1152 -945 1047 147 1184 0
-789 -1622 -1054 -1000 797 812 -856 0
489 1782 -1298 1801 0
-291 1049 1250 608 857 -685 0
1489 -1606 -1716 365 -608 0
-1526 1782 -1716 0
-931 -851 -27 -1156 1765 -513 0
-290 1801 -1583 -426 -1181 1140 0
506 1384 280 0
-1440 621 1854 -1719 -684 -1314 -469 0
-1791 -1688 1804 897 -383 1569 -1342 0
-1125 525 0
-1564 1163 -1735 0
-1395 1350 0
890 -1632 0
1488 -120 -1269 -996 0
-643 -313 392 0
749 -1365 1633 1197 -1121 0
-26 1093 503 -590 0
901 -301 836 1605 0
-749 974 651 488 1515 150 0
118 -436 1374 654 -1346 0
890 -984 268 1305 1386 0
911 1118 0
-1102 1851 -194 0
538 133 1750 -980 1997 0
-727 -1258 1082 -50 0
489 1520 -1663 -1591 0
1655 -253 -1622 -216 0
-306 1015 -915 -1363 1605 1619 0
1881 -700 1163 375 0
-1448 -786 -1920 -112 0
-1817 1663 1083 102 0
-1883 24 565 -1239 -58 -940 0
-753 497 952 800 1353 -874 38 0
-1726 166 1142 -353 -1783 -1828 -920 0
-226 -889 1438 0
-1526 1248 0
565 -888 -1271 -181 154 0
-215 -186 -1329 1184 0
-1133 1224 308 0
-1064 618 -349 227 -867 1739 0
227 -925 -1600 0
-1902 -887 -1349 1334 0
-1169 379 -232 -919 795 0
208 -1916 0
-1444 -1379 462 1443 61 -1097 0
1578 -1293 -722 1630 -615 0
-434 610 0
-209 -1117 -1334 1867 -1706 452 1103 0
205 1243 -1882 -1157 439 -359 0
-184 -13 171 112 0
-747 -951 1353 0
1316 1828 -1276 -956 1112 1978 -200 0
971 617 0
1455 -647 43 -1500 1437 0
-16 1929 -1002 -1673 34 0
-1013 -1370 -1547 1460 -201 0
971 -1014 1163 1204 -367 -1123 0
-1366 1965 0
-1736 -885 -1196 -1261 580 1015 195 0
-1702 -1574 -367 0
1103 675 912 -1638 0
-561 723 -1680 1258 1673 0
1117 -410 1145 227 667 716 0
-1637 1372 130 0
1679 -1283 -803 -1350 0
1455 -922 1866 1728 1688 829 -1501 0
-891 -1457 0
-157 -1820 -1683 -1688 1163 0
-1126 -57 -173 1901 1836 1536 -114 0
-888 -839 399 -1259 20 -415 1683 0
-690 -920 0
-823 1976 -1048 252 0
-271 -1100 1269 307 0
-86 1571 0
-841 358 0
613 1773 562 -1140 1045 633 0
1892 -850 165 1596 -985 912 1828 0
292 1795 1292 1273 892 0
-1772 437 -1670 0
1067 -1076 795 -667 1922 1148 -1913 0
-294 351 64 -41 0
-557 993 -232 -613 0
636 405 -1244 286 0
-1291 -901 -1891 -1114 -128 -725 1006 0
-1746 -380 1722 -517 -374 0
708 1578 472 -1321 -8 -1931 965 0
-1937 -1655 -123 0
1090 960 709 0
-833 1878 -971 0
582 319 1905 427 360 0
1246 -625 1959 0
1635 -390 -427 -482 -1231 -457 0
-1428 -547 -185 633 -1058 0
-490 -770 46 -936 -1055 1226 0
-280 1648 -1825 0
611 -1428 1617 0
-6 1746 0
535 1414 0
-1315 1834 -1291 1383 -653 0
-1995 -1410 163 934 -444 -1520 -706 0
-347 450 -777 0
-299 -225 0
324 335 -1762 -1896 -473 -963 -637 0
-1706 765 -879 -790 -1794 -651 0
-514 -1051 535 -1827 -1928 292 0
-1289 1857 1346 849 1834 0
-809 1783 1197 -1994 -1231 -749 -1970 0
1479 -1469 960 -83 1486 -1749 212 0
1745 1244 916 1700 -1369 746 0
-1118 1559 825 0
-435 1741 -490 134 0
-891 -454 -528 1340 -1276 0
-1594 -746 1393 1600 1174 0
-276 -1787 -249 32 -1575 -1543 0
690 -493 340 -1659 -1294 -90 -163 0
261 -1180 -1311 377 0
-1934 -1329 0
-1362 430 -292 0
-624 -1960 -1914 29 0
-1032 1594 -1029 -1741 -416 1561 -1048 0
126 1055 -930 0
-979 59 0
417 -267 1742 0
18 -426 0
-1071 -5 -256 -1687 739 156 0
-743 894 -939 445 0
1381 -1382 -767 -883 80 0
-1176 -147 922 0
-466 89 0
-1874 -167 1935 -1442 -1711 1431 1268 0
1453 -357 872 1065 0
1610 -1479 183 881 -1144 -1095 0
-320 -1578 -1605 -218 1106 -1400 -189 0
1676 670 -1735 431 634 -1032 0
-1165 1631 1237 -100 -124 -720 0
518 1561 -57 633 -1252 0
196 -930 716 132 0
-1044 -335 1962 452 -968 1136 559 0
-1470 -1511 -1090 314 -672 546 0
-1911 -1451 15 1337 1779 193 0
-1626 582 -1437 0
546 -1470 -460 -1533 -1835 0
-41 10 -110 -444 308 0
-414 1024 -1534 -125 0
1656 705 -1109 969 531 -1378 260 0
329 961 -560 0
810 968 969 1159 546 1028 -778 0
460 -1463 115 -1524 -1060 1048 1930 0
723 -1667 446 0
217 -118 -1945 922 0
-356 1496 1950 -958 3 0
1027 1873 1956 1208 0
364 910 -399 -715 600 -38 0
-498 1847 -1046 199 -1692 -180 -1877 0
-829 -1072 1080 1856 -436 0
1727 -1822 1168 1790 -1313 1122 -1107 0
1607 769 -683 264 -1017 -936 0
-407 -867 307 -831 -647 -1289 0
240 1153 1900 594 1725 767 0
1742 1867 416 -693 -1299 1386 0
-824 -1419 -1662 539 252 0
1661 862 -314 0
-889 -1688 158 342 -176 -73 0
829 1333 -910 1197 -357 -824 532 0
430 910 -1053 1089 -1075 0
1233 848 -392 915 -537 -1297 0
1376 -28 -1327 -270 -1088 1626 -1372 0
858 -1449 359 0
-1155 349 -799 1847 0
1123 -460 -1155 1676 -1409 0
1904 765 0
-163 1917 -1339 1909 1802 1033 0
-1449 1513 -1771 0
1880 1270 -929 0
-534 1351 442 0
-1130 1837 1777 -1062 0
1390 555 -1435 -1620 0
-1794 1568 193 -1066 1093 864 369 0
-859 1328 -1708 0
-1929 -999 0
61 598 1429 722 -1856 0
-1803 -626 -1632 1359 0
-749 -1394 -456 0
525 -859 1232 -1654 0
-709 -1526 0
744 -1557 651 -1509 -407 -1953 0
-391 -968 406 1821 0
-1351 -745 0
1626 -1435 -291 1472 1581 -229 890 0
-814 846 1199 -1688 0
-151 -362 1358 375 -1079 -960 -162 0
-1319 -923 206 0
-1592 1223 -965 468 0
339 614 123 0
1933 403 0
1824 1002 -1642 1953 -1461 0
1500 900 -830 71 1935 0
978 -109 -1258 0
597 -1237 -1564 187 0
-727 -633 658 336 0
-1763 1316 -590 1621 0
1495 -1173 -1927 0
5 493 931 -1403 726 -1259 0
-1879 1674 -1072 0
-1928 998 -1894 771 0
366 -1927 1842 -699 1665 -948 0
-498 1449 -759 -1569 -934 -114 482 0
1194 -592 -304 -1404 1290 1846 -1439 0
1575 -1796 -637 0
-545 452 -246 0
1909 -773 797 -606 520 0
21 1160 -1658 0
1158 1170 318 1151 -1894 -1362 0
220 147 -258 -900 893 289 1859 0
578 -1425 0
-1691 1216 -1484 232 -1 -1884 0
361 218 -600 -1956 1500 1420 -246 0
-1242 -1528 -425 0
375 -193 -510 -1540 851 0
-583 -829 1817 711 0
883 825 -840 0
139 1532 -556 -232 730 0
-1485 -1746 -546 -1962 0
-1798 -500 -209 488 -432 -1739 -1602 0
-967 -1686 -625 1090 0
-585 1437 1064 -1604 -1336 754 0
-1058 -360 0
-688 -468 -1102 983 -1817 0
1154 -63 0
1987 1949 162 -1934 63 0
-312 -1501 -149 423 0
105 157 -696 1081 -1929 0
1741 -310 569 -1960 8 -1993 0
1917 1769 -640 -1356 -1057 1965 -636 0
227 824 -158 0
1044 -1724 474 -1363 287 0
-1965 1609 -1227 -629 953 674 0
1440 895 0
1343 -973 1379 0
32 309 -1292 -1721 1561 268 859 0
1685 -1967 0
825 -1521 1557 0
1831 1724 -869 -1785 -767 -233 1974 0
1505 -1460 0
-569 547 -1513 0
-580 -189 -676 884 -1998 -1188 1098 0
-744 876 1032 1406 -1337 -941 -1704 0
-487 279 -722 -430 0
-1428 1075 0
-673 -112 -898 -1773 108 0
-1031 1491 477 991 318 -1109 1310 0
-1143 170 633 307 43 -318 1000 0
-1550 -103 -520 -777 0
-241 1984 1456 41 -590 -1882 -1728 0
1871 1123 -1651 0
1580 1107 -555 -910 -23 152 0
1163 -1829 1253 1502 652 1501 0
983 -1034 1095 -746 0
-510 -1686 -419 0
-194 -1376 0
401 -273 -1426 0
1386 -198 -990 0
772 1470 -44 -1413 -1098 0
-1577 -1952 1461 1923 -865 -1281 0
1832 666 -1310 -564 1963 0
-1738 -1000 1122 -156 -1705 0
-826 1077 0
460 -1116 0
-1189 -1989 -918 788 382 0
1214 -505 1931 0
-526 -1539 0
-1738 -469 -1161 442 207 -1273 0
-349 -8 252 -1592 103 0
459 -260 0
967 1760 912 1664 1614 1125 0
348 1776 1810 -1202 -1521 1751 0
567 917 0
1926 -1700 -533 1204 1216 0
-1234 1530 234 -1474 -1181 481 0
-1626 753 -136 -1913 -1372 0
-243 1425 0
641 647 431 349 1430 28 -1975 0
818 803 -456 -1215 974 394 0
1334 1998 -1369 1707 0
239 112 0
-414 113 1256 1015 0
142 -1434 -328 1737 -161 0
-719 1628 -626 0
-1288 79 -675 794 36 0
-1365 -781 -101 520 -1465 -1421 0
1775 118 0
1086 -1720 832 0
-1807 1509 4 69 0
-749 -1576 1588 0
-349 -1925 0
32 -1531 0
394 1963 1304 -569 0
148 -1531 -1536 0
-1069 -770 -361 -1667 -1397 1194 1062 0
-679 1626 -982 -1258 1487 1019 0
-1677 999 924 -305 1675 178 -78 0
-205 -81 -1285 713 0
-803 -242 564 553 1934 -679 0
134 -561 0
-736 -1825 -1128 1995 218 0
1950 -579 -1482 1395 -280 0
-1732 -1645 0
1655 715 1081 -26 862 0
931 -122 397 27 1624 -766 0
1322 -1387 -435 -688 1220 986 -351 0
26 1694 1456 -1529 3 -765 1027 0
419 -955 -1986 -220 -1725 -1906 0
-1829 -1107 -1676 -656 0
-344 -491 -667 0
-1770 1564 725 171 191 1247 0
135 286 1185 835 -205 0
-1141 -340 0
-382 1672 1292 1634 297 0
506 1181 1526 -702 -1961 0
-1675 332 0
526 -747 -1711 0
24 -863 -143 577 0
-1696 -330 767 0
615 -439 0
-1342 -592 -1431 175 0
1697 830 0
678 1171 29 -1117 0
1416 290 0
-925 915 -1380 0
1100 -1906 -1154 488 152 0
-881 -1318 -1717 1881 659 -341 0
1117 1964 -376 1612 0
-1746 1480 1212 1191 -3 -729 1937 0
1931 -1232 -67 -1739 -738 0
-47 -1682 1075 5 871 0
-638 -681 -488 486 0
1630 1603 -729 375 -504 -2000 0
1817 358 -1166 0
-411 -1653 -1628 215 1624 0
-1736 1244 0
-602 84 -1516 -1946 -1247 1026 167 0
1505 833 -1079 -462 1165 1471 1251 0
-909 657 1005 825 -1644 69 0
130 582 -951 38 -1849 644 0
-1581 1032 -1981 0
-1337 -867 -1696 0
381 -1095 883 0
849 -1653 -735 166 -102 -1174 0
-897 1222 0
-1570 -1031 -1372 -1643 622 1383 -1628 0
-1136 -1911 -315 -909 497 0
453 -1376 -465 -138 1872 0
1116 -543 1327 1737 244 0
539 567 -527 -538 -200 0
-108 -885 -1703 -319 -672 -1833 0
-479 -588 0
506 28 1048 -1634 0
-533 -1431 0
-1322 -849 -36 -697 -1253 0
-1849 -1518 15 -1419 -1660 -1290 0
-390 -943 -247 191 -445 -541 0
1017 44 406 -1061 1365 1162 0
1266 1673 -1871 -1193 -185 837 285 0
-124 -1484 0
1023 -1273 -1535 30 -503 -694 166 0
-88 1961 1169 -1812 -843 783 1495 0
-9 -795 -284 1042 -249 316 0
700 1569 626 157 1306 0
374 63 115 -636 -271 0
-1699 -1047 141 1750 -1031 798 0
1917 1517 -648 -1468 1474 809 -398 0
287 -741 -1897 -284 0
-1537 127 -432 0
-1367 -1885 1102 0
-679 -475 -764 138 -549 0
-1505 1601 899 0
-770 -1729 -581 -335 -1716 -1774 -1965 0
-1954 -1980 -1668 814 0
328 531 -773 -1698 -1650 0
-934 1815 1877 -1011 -1971 0
-980 -1886 1670 -1121 0
-280 -1599 -463 0
1605 -946 -327 0
-1298 1221 256 1388 1033 0
1227 687 1191 -1056 0
-497 1281 0
-525 765 843 0
1050 634 -1505 406 0
1616 -1985 -1365 -1825 209 1016 -1583 0
1547 -1215 -1906 -272 1314 566 -980 0
59 1722 0
1080 1070 -1381 -200 -1588 -739 0
420 621 226 0
-1747 -1501 0
-1758 -312 -1114 1750 1991 1622 -36 0
-1373 -1347 0
-530 -1427 1914 -1537 0
166 679 1829 1386 -120 -365 88 0
-790 1798 -929 219 -1552 0
-1902 -1417 0
1361 1248 1159 -334 1420 0
1431 -73 924 660 1553 -1024 0
-1704 1825 1029 -79 1502 0
-1027 -615 1381 -1101 0
-211 1561 694 -1952 -236 -28 625 0
-1615 187 0
-1769 -133 277 776 1482 0
-955 -497 -1175 795 0
-1829 -1068 151 1802 0
164 1871 1049 0
-479 -819 755 0
601 1077 -353 0
820 887 -25 -1221 -1555 -899 1684 0
-1224 723 1896 486 1801 1540 0
1543 -738 -503 312 930 -277 -1363 0
1957 -1859 777 0
-403 1087 -1990 -395 0
675 1461 -1547 0
1258 -1587 343 -191 0
844 1107 73 860 -1932 0
-668 -1438 320 -1485 0
1778 -1300 327 -121 176 0
-562 779 823 446 1404 1113 0
84 -427 1277 1741 1039 -1521 491 0
795 -316 700 1323 354 9 -1962 0
420 21 0
697 -750 -702 0
601 -496 0
346 596 0
-212 -1961 -1456 0
-1503 -1601 122 -659 29 -468 1339 0
-302 852 1619 411 -1759 1274 1539 0
-1275 1799 137 0
-1352 -461 -393 1121 -1080 -1192 0
991 841 -607 -1112 19 1873 898 0
-1860 726 0
1697 -704 1513 0
1802 760 -1229 1571 0
-1957 -470 1559 -1551 -1287 1672 0
1056 -1293 0
-282 930 1070 -675 1214 -1558 0
232 -1432 -954 331 1164 131 246 0
1822 330 273 0
632 -1753 1329 1205 -12 0
352 1507 206 -83 -975 0
317 -1041 250 1477 1729 164 0
-749 -1297 1298 1508 -317 1215 -797 0
580 154 188 -1698 0
-139 -305 -56 -1062 -1892 587 -776 0
-776 -1115 1293 0
1956 -969 0
-6 -1446 -581 -1816 -260 255 1663 0
-56 1792 -976 -879 0
626 -1455 -335 977 1531 -314 -21 0
760 -168 -1035 -849 1425 -1696 0
-683 1034 1133 872 1692 0
-166 -825 245 0
-704 -295 -1147 -1465 0
276 -1733 1093 0
521 -1361 -1215 -366 -1049 0
-1363 -630 1368 -122 0
-357 -40 0
563 195 0
12 31 -1891 0
658 -693 977 1252 -1373 860 1515 0
-1180 344 859 -1509 512 1648 0
1927 -565 236 -1324 1566 -936 -531 0
527 -1529 -7 279 -769 0
545 -1788 -1955 -797 1223 769 0
-705 184 0
186 -361 -914 162 0
-334 -160 -1899 -1893 -1702 0
1679 -1309 178 -243 1771 -631 1910 0
1346 856 -1889 621 -934 -1021 0
-439 -1039 -605 0
-1807 -1883 0
186 -1521 0
1730 1320 0
1199 -1160 507 709 -894 -430 1062 0
-64 -1384 629 630 0
116 188 -738 0
1742 658 -664 0
-1155 -394 -1901 -1032 0
98 -1607 531 1845 0
55 -1480 724 -1954 932 -1315 874 0
399 1650 -640 -310 0
90 -1463 1283 -478 1770 -409 -222 0
329 -177 979 0
1570 1638 -451 1793 -859 210 -758 0
161 871 765 120 -986 1974 -15 0
934 -1112 -829 1856 0
-297 -37 1913 0
520 448 619 1131 0
-261 1611 0
-1385 -559 298 -1957 -1714 -1329 0
-1758 1886 1625 828 -690 1670 -1678 0
1488 1193 36 -776 -24 0
-1452 -1285 -1011 -1217 0
495 1341 0
313 -573 -731 -1316 -951 0
-1540 -808 -110 1173 1023 1671 0
1484 449 -813 -928 648 0
-1555 -1058 1324 0
-51 -1538 828 189 -25 1272 -1797 0
-203 -1709 0
457 -287 -976 1549 -455 -1012 0
174 -1074 0
688 -1876 -1241 -578 0
344 175 -36 1181 1403 0
-1285 1338 -179 -1015 0
275 -1296 -861 0
69 -1616 715 -1459 1650 0
684 183 775 379 -425 0
1489 33 -402 1807 782 -998 1376 0
1117 -948 1881 0
960 1148 1085 -115 0
204 -1138 0
-1433 1330 0
75 -844 1122 -461 1502 470 -505 0
-1834 1911 671 549 -512 -928 0
1570 -1945 1477 0
1333 -553 1263 1050 -1577 0
1146 -633 -1126 363 -487 1266 0
1617 1383 1015 280 1594 1938 0
-606 -1722 -1630 -1788 -1528 -1071 0
-974 187 583 1911 -545 0
1415 1357 0
1464 1181 -229 128 -1045 -367 0
452 1685 846 0
62 -1486 -1739 -1442 -1782 -1204 0
11 -886 1271 0
-570 1559 -1883 1234 -736 -867 0
1776 1099 -379 0
441 -278 -897 -563 1845 467 0
854 -1627 0
1714 -598 0
454 -12 742 -1287 0
823 1801 -125 239 0
-1401 1321 -186 0
941 -1850 0
389 1053 0
-1795 1031 447 209 -1355 -1985 0
-1152 -168 0
-1192 -228 760 -1355 -10 732 0
-136 -1109 650 340 1181 0
1798 1814 -1850 1240 242 1698 -593 0
-868 -1844 -1216 1011 -765 1767 0
304 1414 1471 889 -199 0
-1245 952 -488 1139 0
-1862 1165 -1212 1102 -928 -561 -1479 0
1057 -1170 -1850 786 1882 -1547 0
1250 227 0
-619 -1501 -1976 -1720 0
1210 -1579 -27 770 0
456 319 -195 939 1760 0
146 -1465 1439 -855 -1260 1658 112 0
1474 383 0
-1232 623 1500 315 770 1128 1894 0
-1771 1757 -1826 965 -1303 0
940 1003 -1347 869 -1514 923 0
-1531 800 1893 502 1210 -1497 0
-215 -825 -1034 -1341 327 -1285 0
-1400 1565 -685 569 266 0
-60 -1364 1025 1129 1113 0
-1155 -992 1854 1335 0
684 1197 1234 561 -496 1944 0
968 510 -333 415 276 1954 0
1700 -1883 1836 0
-515 -1432 -779 1990 1283 -1740 0
-405 1868 -1076 0
-412 -1381 -1347 1376 -1209 0
717 253 1908 -1582 1531 -1501 1774 0
1572 -116 1607 -1137 -1675 1737 -27 0
90 820 -1395 0
-672 -1398 0
473 1021 0
1878 -1921 -1701 1445 -605 137 0
-1337 -921 0
717 -266 1134 1192 0
-792 -341 26 -994 710 538 0
-442 1468 1070 -1374 -601 0
1357 -213 -1709 -625 857 328 0
1672 1293 -508 -795 0
1819 985 79 565 -1935 0
-610 -1991 -1845 1172 0
1704 627 0
1029 1949 522 0
-804 1656 -1575 174 -36 -943 980 0
-1285 1496 707 -1031 -57 255 0
970 869 -1903 1344 -1059 0
419 -449 0
-1371 -653 0
1542 1901 0
1421 712 -1266 -1211 0
1397 1044 702 -1620 -1519 -154 0
-957 -1454 -1803 -1828 15 183 0
1509 -13 0
-261 -1807 0
721 -1312 1055 1796 -841 1488 1022 0
-1497 1022 561 0
540 1855 1383 -1241 554 -1592 0
1852 620 24 -281 -1035 811 0
1122 139 0
-1509 -1083 0
-1688 64 996 -885 0
-516 920 -453 0
-19 1074 1312 0
1796 1722 1427 1240 0
1436 1405 0
1479 969 180 196 0
1256 -1227 0
740 670 -716 -1856 1944 962 -1705 0
-1919 1859 -1152 0
-1497 1775 208 1931 -1166 -1494 0
1440 -169 0
35 -1963 0
333 -1523 -1008 -1143 0
1651 695 67 690 0
-1414 -1003 109 0
-177 1002 12 0
-1479 -624 -835 0
-1004 1946 -1262 1248 -1276 -377 -153 0
1430 -1535 -45 1935 -1171 -1304 245 0
-814 -230 0
-426 1812 -610 884 0
-1862 -1161 0
-117 -1946 0
-533 820 -198 -1657 837 0
-1446 1072 992 183 -1148 -1878 1448 0
-1463 916 0
388 -1419 58 1776 1306 0
529 -619 188 -1291 -1152 0
1602 527 -304 -112 0
-1394 -616 1021 -1521 -682 0
357 1632 -291 0
-1745 -502 1765 0
-1854 1355 -1951 -699 0
-1032 -1324 1921 858 1467 0
1659 1784 -1520 1022 -272 1467 0
-630 -116 1685 -565 0
360 -741 -186 1259 1392 0
1258 416 -1664 -833 -280 -1374 0
84 -1302 1564 -1932 -417 0
259 -346 -1101 -1936 -853 -296 0
1912 1573 0
-1639 -804 -1382 940 1305 1142 0
-1273 -357 -1435 -960 0
1150 -499 -1259 0
-1435 611 0
530 478 -881 0
-243 -714 -1994 745 -703 0
1268 -369 0
-1117 -850 -1317 -1967 615 0
-218 -1833 0
895 -1661 1808 831 1603 -1522 0
1541 1953 1637 -556 0
1079 -1704 -214 1068 0
1786 1744 0
634 385 340 -196 -917 780 -1358 0
-391 -1051 0
1283 273 -1937 1077 0
-1571 -1343 -1426 0
630 1567 1680 0
84 1988 327 0
-1883 1721 0
-1656 985 1548 0
38 1547 -326 337 0
-1357 1776 -916 -1567 -163 448 -1691 0
-888 1514 -1996 -1949 487 -1947 0
-1657 -90 0
-1224 1234 215 -1938 -1718 1686 497 0
622 358 -379 -320 -70 0
1848 -638 -1860 0
-1193 -842 972 1303 -1831 190 1927 0
-300 531 0
-987 620 -1205 -1341 1822 -1762 1394 0
1694 -685 -1060 -1623 291 0
-1450 -1411 -1010 -1752 697 0
-401 1900 1331 -1941 0
1034 -1786 -1040 0
1092 -954 -192 -444 0
445 -657 -530 1939 0
-1592 -1303 0
-749 755 -1621 -1435 0
1300 448 -1894 -1189 -949 0
-204 1792 0
669 -1923 1899 0
-123 357 -307 -767 -884 0
-1659 -155 479 1617 -341 -1582 -1458 0
-539 -1734 -1896 501 0
1705 1859 1900 -854 722 -116 0
-201 265 0
574 -1223 0
-1538 673 -1830 -300 -1268 0
-1178 1472 0
-571 341 0
-1997 -827 0
-1392 -405 1798 -971 0
-710 -727 -411 931 -429 -273 -1742 0
180 1365 0
1195 1049 1923 188 -725 1924 -1674 0
-137 378 0
-828 -458 -1386 -399 1770 0
-1247 1919 0
714 -1234 980 -8 0
-1247 1003 1712 897 -1890 365 1840 0
-552 -407 862 569 0
956 -1316 1107 1568 1354 1154 -1919 0
-1978 -1211 -338 -295 457 0
1614 -37 424 1165 0
-1438 1958 0
625 127 -195 -1201 0
1336 1299 1537 -418 115 0
-544 866 -1197 -597 0
758 -344 -391 -1758 0
-1080 177 1972 896 -1452 0
555 1686 735 0
-990 -1247 1733 -615 288 0
-285 243 -936 -594 420 0
-687 1004 897 1412 0
1310 -996 1075 -1236 0
845 1956 0
1472 -525 1875 -618 0
1344 1314 0
-1875 -930 -660 1218 -676 1029 411 0
-1422 -1340 -1842 -180 -1327 -204 -1830 0
-328 1452 0
-537 1832 1571 931 0
577 369 1709 -444 38 0
928 1131 673 -188 182 -924 0
-816 420 258 -1530 1505 0
619 234 -668 0
1661 155 -236 -1068 1468 262 -868 0
-686 1720 1396 1824 178 -1342 -212 0
169 1521 -1158 1950 -587 1947 -785 0
-1659 786 -154 -1598 -1524 1550 0
-348 -1864 -1759 1926 1801 0
421 -1884 934 -471 1270 0
-1877 1802 1785 -835 1844 0
1526 -1879 0
362 560 -316 -1657 -1161 1282 0
1051 -1563 -688 -1722 78 -448 20 0
-85 1587 711 -1432 -1816 -1410 963 0
325 1528 0
1594 -1408 -997 -1749 0
618 -470 -1956 133 460 1055 0
-1334 345 -937 -1787 952 0
710 1832 -1141 1433 -1277 1138 -1349 0
-32 1973 -1247 527 13 1195 -1972 0
154 259 -1023 -1867 -860 -929 307 0
1825 -811 3 1838 0
711 407 0
840 -1232 153 1026 -1332 -54 0
-178 750 396 -885 0
600 905 -196 1680 -12 303 -628 0
696 -1505 -1724 1296 503 1360 0
1286 -565 1746 -296 0
1202 1939 -873 1342 -418 1957 0
1905 1023 -1535 -250 798 19 -548 0
-1436 -1512 516 0
1626 -674 1082 1662 -865 1251 0
1436 819 -462 949 -1537 -1437 335 0
-600 1508 -1787 0
-643 802 -1398 -1317 0
-1260 1796 550 0
-37 1750 329 1374 0
1331 1246 1742 296 1457 0
1848 1896 -1309 -1941 -182 1971 605 0
678 49 -594 -1744 301 0
1938 1787 -1504 291 0
-999 313 142 0
-1107 -250 -583 -310 1719 0
-1093 978 89 414 -886 1952 1176 0
-182 1193 -1486 741 1914 0
1213 -1209 -1894 -1408 1930 0
-517 584 1109 -1617 0
1883 -1905 1525 -1100 0
184 -1158 -1918 363 -1943 -1799 -167 0
-1743 -85 -689 0
562 -360 1489 -501 1094 0
1695 -187 424 0
-503 -1576 -642 253 -872 0
-1240 921 -169 -879 -96 459 0
1564 -443 -344 -268 0
839 69 -1257 1475 0
-1940 1516 -1978 -1822 -589 0
1164 1549 1390 -1958 -1671 1736 0
-1007 86 1197 -650 1268 0
194 1116 0
-1815 1638 1079 1724 -363 1579 0
-1232 311 0
-247 1775 0
1663 736 902 1532 0
534 1481 1103 308 262 -68 0
908 -90 1954 0
-638 251 -3 0
641 804 1442 392 -1030 0
-715 1648 1961 -1029 -1534 0
-1595 -953 297 757 -802 1775 0
229 1829 1512 -1115 0
656 1519 1810 0
1495 228 1430 0
1323 978 -802 687 783 -1341 1122 0
1670 -1538 1824 -89 0
-1517 1237 0
-225 1092 1662 0
1926 144 -1978 -220 1930 -132 -143 0
1812 668 1022 1009 1485 312 -1990 0
-560 233 -943 107 612 955 -1852 0
818 1738 537 -840 146 1943 0
1453 -708 927 -1249 1346 0
-585 -1094 574 -715 0
1754 -1493 -405 0
607 30 -1780 0
1989 -1001 -778 -940 -917 0
388 649 -1180 539 1687 0
633 -502 1774 -295 1940 -1955 0
-808 -216 975 -618 504 0
-1817 -262 -1812 -1739 -1243 -1644 817 0
-1656 -532 327 709 -1653 1559 0
-90 -1428 972 1737 0
-1588 -374 -1069 -1233 0
1765 -655 300 -366 -737 595 0
-245 1437 1885 -162 -1121 1276 0
1142 370 721 -1358 -1246 -1578 -463 0
470 -399 -1909 -1757 -1861 987 0
-759 995 -1391 684 269 1675 167 0
-1383 -899 577 -715 462 0
1937 733 0
494 1137 -1962 197 0
431 953 0
375 525 -1892 -13 0
-1614 -268 -132 -1012 0
1292 -33 -519 -1023 0
784 205 0
1612 1403 -767 1196 0
-1284 1682 -627 1342 -920 0
-911 -1059 80 0
-612 161 1520 -1656 0
-585 82 967 -1674 0
155 956 -543 609 1039 -744 -1487 0
-56 821 105 -947 620 0
-1113 -614 0
838 525 0
-143 -960 508 1631 -1142 -1096 0
1636 24 1705 0
-718 1185 508 525 -874 1557 1683 0
-1842 -1143 -1035 -1744 0
-724 -1506 1766 -900 272 0
146 485 1968 0
-1977 -264 19 -141 0
286 -1973 1581 384 505 -1353 0
-125 -817 1065 489 906 0
-558 -1795 899 1633 -822 -602 0
34 -624 0
-1985 -1570 943 0
1974 -361 156 -826 1116 0
1826 -1533 445 -401 0
-706 1261 1049 0
633 -333 -1787 1054 0
-1620 -1223 -653 -91 -510 467 0
-1751 1259 0
-437 609 -1485 0
1769 904 -928 1011 -529 160 -1966 0
-691 -1325 0
449 -428 0
-115 -1595 704 747 -186 71 -395 0
1532 -1019 18 0
-46 -1623 1417 498 1816 -317 -30 0
-1337 -1024 -733 -1916 0
1989 1379 0
-1815 -168 775 1111 -1780 402 576 0
-1620 -136 -1669 791 -1119 513 -1170 0
1936 -944 -137 -737 35 -836 -1116 0
1074 1194 0
934 -1057 1307 1192 998 -1505 0
1522 569 1164 -440 -370 -463 0
-1442 145 0
1298 -121 24 -1700 105 0
-441 366 -566 0
-339 508 -1376 -204 -355 0
-162 -1062 -1430 -1223 -1935 0
202 853 0
945 225 1080 0
-1981 1957 -610 1705 635 -1684 0
1378 -1826 -800 703 0
-1656 1549 1092 -584 -1370 1178 -1581 0
223 -589 -1409 -1455 -1908 0
-1754 858 -1620 841 -893 335 0
-623 -402 -930 -628 0
1740 -1570 349 741 0
-532 377 -10 -1068 1313 1905 0
426 1707 1565 660 0
-156 712 -9 0
-913 -1602 1628 -961 1596 0
30 -922 -84 -131 0
-681 -1051 543 -1351 -711 0
-230 180 321 -1467 -1192 -863 0
-557 938 -631 1321 0
241 -1165 1443 -1485 -1643 0
1904 1288 652 1114 410 -1076 -56 0
-886 -74 1845 0
1429 -892 -17 905 1608 0
826 585 -1366 -1071 -908 1614 190 0
-1361 1200 -303 0
84 1149 -1204 1580 0
1940 -1194 -1621 -540 -1400 543 0
-1619 -1137 -224 -1791 1175 518 0
1077 -498 1623 0
-1647 -1738 940 1387 1428 831 -145 0
1615 1680 -1423 0
-1316 -1803 -438 1589 106 -614 1373 0
948 1624 -6 -22 -581 -1156 0
-1581 -786 46 -74 0
1509 -994 -1366 0
1793 858 223 1043 483 0
1825 -1298 -1122 26 1736 -1270 0
1879 1284 1131 503 -190 -1321 0
-485 890 0
1446 1343 -1534 -632 1135 0
-8 -923 1898 -150 0
1958 1203 1941 -369 -296 1353 0
-1216 -917 1146 1800 0
-12 113 1958 -928 0
686 1004 -1795 -743 683 0
1703 348 0
1466 -435 0
1047 -678 147 -674 1808 1583 0
-474 1158 -471 331 -826 289 -1779 0
-1936 -998 -1833 -1279 395 0
35 396 -585 0
1572 1842 -944 1163 513 -1670 -1517 0
209 -1464 -1981 1510 -1048 -506 0
56 -1250 1249 1299 -1673 0
219 -534 1965 -1906 893 1262 0
587 -486 1707 1469 -1399 -154 0
-185 690 702 1550 389 536 692 0
-42 -168 -287 -1490 978 1436 0
-1016 -643 1006 463 1760 -993 0
-184 -908 -418 0
-1844 -930 1698 96 965 -702 -334 0
1168 -1157 618 1820 1580 672 -450 0
-1789 290 -163 0
-1687 -422 -280 -1046 -1268 1171 297 0
964 1897 -1921 0
-1060 -1743 885 0
-322 -374 -1906 1726 -772 0
1511 -1293 1074 0
-1236 385 -1324 0
1715 -396 0
-1642 -1121 0
649 157 -1231 -1780 -916 0
-319 -544 1537 -1882 -689 1415 0
1260 315 0
1682 -805 -44 154 0
1441 1344 0
1538 -1026 348 1519 0
-1773 -727 -1095 -829 1509 1033 -966 0
-866 400 602 0
-1121 -127 1681 569 0
1915 1974 745 0
1107 -770 -946 654 1911 -1265 0
-890 -1508 -1165 0
191 -401 -1693 -477 1259 253 859 0
666 1020 82 346 -211 0
1111 -1674 -1280 0
-1817 710 637 -564 0
-1214 -744 0
-401 936 0
899 645 -903 788 0
-815 414 -1497 -404 0
-1437 -1554 -1425 0
1484 -877 -1970 359 -750 1941 0
-98 -1274 1116 0
1744 -1109 488 0
-65 817 700 -1064 0
1983 -1434 -1962 1840 1702 0
-1262 -32 0
-1310 -1710 -731 -1257 0
-1681 -276 0
874 1735 -1985 0
1962 1847 375 1114 197 0
555 -260 0
163 471 971 0
1229 -1399 972 -581 1050 1657 -1598 0
-360 -613 0
598 -1608 1831 0
-490 90 -1753 0
-572 1477 -123 -955 234 909 -1517 0
64 -940 941 0
1370 726 -599 1891 552 0
1566 -988 564 -913 -438 794 -318 0
156 -1898 1065 -251 0
1201 -1714 1182 -48 -1587 -240 0
742 -1717 140 -1399 0
1294 766 -1003 -1226 -1841 -1607 -285 0
223 12 -136 -882 0
1107 209 1887 0
-1189 -1660 1079 805 -106 0
-1183 -389 -1817 -576 -228 466 0
-307 276 -1115 -435 -299 0
-1820 -1607 867 1608 -1238 1234 -248 0
-656 -1299 1003 1657 0
-522 1903 -1791 165 0
-1192 -887 143 -866 848 -682 238 0
-1606 1449 0
-1995 -785 1855 883 -1244 0
1113 -1628 -1752 233 784 0
-1881 -567 910 0
1476 -784 -1962 52 1578 -340 -1305 0
-598 1679 1430 -592 -959 -1480 -518 0
-1481 -625 -655 -1204 0
1854 -1939 0
-583 -847 -1924 -707 824 0
284 1748 648 1562 -40 739 1499 0
-451 448 986 -992 560 -623 -1814 0
-810 1169 13 -686 0
-80 1512 1800 -542 -303 -445 -980 0
-1826 -1212 -928 -405 992 1796 -328 0
-1304 1778 0
1055 -142 0
-187 1887 0
37 587 -314 101 244 1084 1859 0
1365 -517 -364 -1181 1979 0
1354 762 932 -1263 609 0
-466 268 62 675 0
-69 -656 1880 -1976 1758 0
1735 -375 1596 -668 0
-838 461 0
1931 396 20 -1911 1892 0
-1225 971 -209 -1773 0
-589 1509 -968 0
294 -1314 0
448 -724 -1815 696 0
-528 -1826 -507 1033 1735 -624 -609 0
238 -1042 1834 -800 0
1926 1450 -445 1204 -1617 0
888 1557 -1601 0
-1559 -1134 306 0
-455 1861 -955 -159 -397 0
816 -325 642 1443 1396 -451 0
-1717 979 -1897 0
1427 -182 0
-440 -545 0
1628 986 -867 0
461 995 1686 -671 0
63 167 687 921 805 -295 0
-1102 -1656 337 0
-262 507 -1257 442 1294 -1598 0
-1370 427 1259 0
-1163 1404 1448 1343 1938 1945 0
1745 -626 -1381 1477 1514 -192 0
-1168 -157 -365 -1474 -1588 386 0
-1290 1410 -53 -624 0
1656 -1508 -482 519 232 -1020 -478 0
-1762 -604 173 -1241 1163 -1327 0
765 -1953 1889 -811 0
90 1286 -1239 -1391 519 0
132 -1171 -1775 240 1612 729 0
-324 671 -762 46 0
-1433 1146 -1385 -204 847 -412 0
610 664 707 1494 -1644 126 0
-916 -603 -1786 1240 1234 0
675 -193 -1408 819 0
841 279 1630 0
-439 459 -768 -1712 69 1956 0
-436 -848 -1158 640 0
391 -485 -1394 -528 972 -1794 563 0
1202 -1099 -1453 -1234 1681 1061 -1358 0
-567 -1533 -1469 0
-405 -369 -746 -130 532 -92 39 0
-1095 816 1316 0
312 1522 0
1166 533 0
-833 -1774 0
-1356 -952 1405 -1404 1940 0
1346 1729 -937 -1009 0
-664 1297 -160 0
819 266 -1229 -1399 177 -1243 0
-366 -1962 0
-1095 -346 -880 1412 -878 0
-2000 1123 -205 -1255 691 1052 0
-1362 -467 -745 -776 81 0
-828 -739 -327 -1772 -1639 0
607 1031 0
-62 -1930 0
-1247 -29 -281 -164 -1067 0
-1919 -863 -1472 0
-840 48 229 -1130 -64 1723 0
-211 -1144 0
505 -744 1131 0
-899 -247 -1181 0
-1685 474 0
-942 -999 0
-182 1579 1699 -1331 397 0
452 1714 557 0
-604 1512 -1972 247 1280 0
1839 -1941 -391 -802 1004 1975 0
176 1319 -1133 -655 0
206 230 0
-415 -371 1716 -552 1946 0
68 1330 -769 0
-922 -1208 1428 0
-101 -791 212 -815 0
915 -843 -370 -1099 -405 0
-740 960 -1684 1743 0
-1610 1422 1379 1651 0
-1883 -663 1366 0
266 1222 0
-1033 -1973 -992 517 -1815 0
-1708 557 1540 0
1901 1604 795 0
1013 205 1418 -285 0
891 550 -1465 0
1187 -1043 -1610 -1196 -1303 8 0
712 1274 0
838 1727 1452 1548 0
-563 -1951 487 298 784 -1938 1893 0
-1942 1323 -1868 1283 1724 1245 -707 0
-1712 -1524 -746 143 0
1869 -1448 -192 -1394 -729 0
1236 -720 240 742 -1821 -1853 1285 0
-598 -1519 1888 -1163 1875 1419 -658 0
-502 -1132 1967 1233 -1606 1058 -1684 0
1247 1861 -275 -1730 -1999 -1909 0
602 1001 953 -1829 -1903 0
-487 -724 -1495 694 0
264 -448 -551 -880 -429 575 872 0
-13 238 -531 -692 0
-1150 757 -1392 -952 -1256 0
-482 1832 1144 331 711 0
-2 -1354 876 0
-997 -515 341 -1996 0
-1003 745 153 -223 -1540 0
1678 -15 1703 89 785 -1040 0
1897 1745 82 -678 701 70 0
1049 -1532 1759 -1883 0
-519 -1924 1834 0
-675 -1717 -963 -1353 1783 -1661 0
-793 -1269 0
-362 1473 255 1168 0
-1185 -345 -418 1743 0
952 -1375 0
550 -697 -594 -1945 -1556 0
1740 1619 -1538 -895 0
398 810 -1012 1387 915 324 -49 0
-127 -1782 0
-125 -354 -1665 0
561 -1010 1879 0
-939 1738 -144 1081 1405 0
263 -1106 1364 565 0
-1386 -205 181 -1262 678 0
-656 -217 1382 1151 0
1443 -1153 283 596 -143 -781 0
-299 497 -1891 0
-425 -1385 0
1718 -897 -586 485 0
1292 426 1864 1929 -1627 1663 387 0
684 1539 0
-249 1952 1907 -498 -1812 774 457 0
1916 1562 -1016 1731 -1880 1804 -507 0
-801 -401 627 1479 -1422 0
-453 1439 1991 -1814 -1984 -1852 0
116 -606 -809 943 1272 823 0
-1429 -1345 -515 -1905 -567 -1808 -1465 0
-899 739 0
-366 960 0
1854 312 256 1238 -631 -543 1090 0
-181 -511 343 0
-408 1762 1125 1351 0
-99 342 -1179 1488 -657 -1261 -1027 0
1287 -1519 0
99 427 -1560 1564 -535 0
298 1298 746 0
517 1099 0
611 -662 0
845 508 0
1721 1871 -1132 -1720 605 1389 0
801 27 -1942 1852 -1578 0
1484 834 340 1643 -1871 1447 863 0
-948 -98 1384 -1908 1195 0
-927 -898 -1768 1546 -185 0
468 370 1587 -1014 -781 0
-557 -1299 -1630 -559 -1479 1749 0
1117 307 -1186 998 -891 0
-62 -562 1094 1941 -43 1324 808 0
-551 517 0
-1813 510 231 566 -1164 -1657 0
753 -1249 -56 391 75 0
-1514 536 0
-347 359 1648 0
639 -395 1163 0
350 -1321 -1190 1550 -1231 851 -63 0
-1575 -615 1689 -567 -1015 -304 0
-836 574 -364 -561 0
623 -41 -324 -449 0
-1366 -973 495 1974 -1913 -1623 0
450 -221 -485 1456 -912 0
207 983 467 -1895 500 0
87 1919 1155 -1092 1259 -1537 0
-1206 1556 -430 -1906 -999 0
1775 -1189 0
-965 -1370 900 529 0
-982 -1407 -1121 1594 -1842 -439 1263 0
-153 1159 -667 -1862 1770 -1262 -1755 0
1655 647 0
480 809 -1885 -1534 675 893 -592 0
-126 150 -690 -676 -1231 1036 0
-1376 268 1121 -998 0
-882 1276 260 -753 0
1755 1190 -1850 1766 -1801 0
-1215 -173 -1202 0
-841 956 -366 1525 -1307 699 48 0
-837 129 1164 663 -1203 -157 0
-370 229 1713 -392 160 -1225 0
-1990 -252 -609 0
307 324 0
-377 -1134 -406 1906 -389 -1398 0
-644 467 0
39 1437 437 -1581 0
509 471 -1343 -751 0
1451 -617 1072 0
-441 -1006 0
96 1644 1661 1465 -1308 0
-1620 1234 428 -1677 0
1433 -1383 -186 1131 517 -588 0
-1494 1905 1576 1116 705 0
1831 -665 321 -774 -758 0
1103 1503 282 1258 1914 0
1172 -1887 1590 860 -1164 363 -1797 0
563 816 1731 -1237 0
-497 735 -148 -1443 -484 -896 1784 0
1032 147 0
242 1213 1524 355 1951 804 0
1372 -803 0
-1009 1159 -1791 -304 -180 1211 1536 0
-484 755 777 -1402 185 0
-1170 -431 -1109 -73 989 172 0
-1460 611 98 436 753 1231 513 0
-906 462 1766 1091 0
-670 -1366 122 39 0
-246 -1812 0
920 -1983 1497 160 0
1018 358 -360 735 80 -1411 0
594 -1176 1486 0
1900 -598 -1547 0
1663 -1347 1326 130 -447 0
1442 -10 844 0
863 1613 -926 129 -1235 113 0
340 -1689 443 -873 0
-1724 -1190 0
-1501 -1999 -609 -1102 -188 -935 0
1481 1725 -1627 505 0
833 -1181 825 284 -1811 0
-1127 619 -932 -203 -969 -29 0
-1125 642 0
1811 834 1077 -108 0
-1926 1823 287 0
1717 -634 0
-322 -230 -112 0
-1390 -290 -1764 172 0
-1474 -971 -1395 1570 -578 -920 921 0
1624 -651 0
-16 1578 423 0
-1180 -161 174 -822 1976 1548 0
-1403 469 1692 436 556 0
936 1322 -227 1013 1833 -945 164 0
-590 -551 -46 1014 -981 1568 0
1318 -33 763 -347 665 0
1119 -525 -1790 1580 -314 -1729 607 0
-1868 765 -1779 -1720 1376 -1436 0
809 -678 -197 -1789 -1901 -1660 0
643 357 631 -874 -180 -972 -582 0
-358 -1693 -1069 1342 315 0
-293 -987 854 -876 0
-1692 -1618 -1968 584 1759 0
982 -158 0
-233 782 370 607 543 1824 -691 0
396 683 -1914 0
-253 -1860 1294 1291 1810 649 38 0
1780 -1495 504 -1366 -506 147 330 0
-1024 164 269 -1108 -670 0
1288 1186 -940 -973 834 1808 -1484 0
-1789 604 -319 0
-571 918 -1394 1250 0
1082 1152 0
-1019 303 615 1167 -1064 -456 0
-1802 -1606 0
-184 -650 -370 1269 423 0
1609 -1703 246 0
956 -681 1733 1056 -1340 1870 0
1666 -1015 0
-625 161 0
-1871 725 237 -1517 -386 1392 0
-735 -1089 1221 -1097 0
-1608 1096 -568 1239 1556 1199 1342 0
431 706 0
511 1409 335 0
1778 -542 0
1570 -793 -1348 1545 -721 0
-1356 -615 359 -1405 933 519 -1398 0
1035 -603 499 886 -766 -592 0
-1059 -487 686 1086 970 1125 0
827 573 27 454 639 739 0
-1952 1105 -1985 -801 0
48 205 -726 1138 0
-1609 -813 335 0
821 -499 0
-400 1982 -405 -953 -48 161 1950 0
1493 1954 517 -986 24 0
1045 -1714 -1851 -716 -1724 0
515 -1113 -1153 -1969 964 956 0
925 -1039 1220 618 1045 1951 0
248 -1692 386 653 -475 0
1965 966 -7 -399 0
-1277 1192 -221 1302 255 -921 -649 0
1778 253 -1415 0
1301 1981 0
1415 1343 1651 -1765 -1675 -942 0
1267 1526 -294 -533 -492 -1540 1800 0
1152 405 548 0
1417 463 0
1299 795 -443 158 0
-1595 -672 -231 0
-800 -508 -150 -92 -1821 -105 0
-1760 315 0
1529 1572 1269 -109 -1790 1872 -422 0
558 -1054 -1953 0
-1145 1004 0
-1885 -123 66 1182 380 673 -1969 0
1349 -746 -813 45 0
-807 1597 820 0
-510 -1885 -1490 -1062 -739 -1823 -1477 0
1016 -1619 1613 1337 1477 0
1558 -1436 0
-790 1999 -1080 0
910 1226 488 790 -205 -1242 0
-515 -977 605 1768 -1234 -1285 0
-1182 1924 123 0
248 -638 -932 0
-586 1952 0
1074 -782 -84 -260 926 0
1254 -1304 364 406 -1317 0
-1963 -1498 0
1009 137 -1999 -71 293 -1081 -964 0
-354 1989 975 0
139 1784 -1435 0
1750 -1245 -705 1544 311 1695 1065 0
124 1830 713 1716 0
346 617 428 -1465 -1032 1827 0
1353 -282 -1188 -1073 0
1919 83 1387 1802 -1921 1788 0
-118 1798 -719 831 -429 -897 0
-1287 -1260 0
1099 2 -1420 -154 0
137 -1624 -1541 -1811 -1824 1516 0
208 1971 -1722 -873 -492 0
1774 1365 -1262 1821 0
-396 1037 175 400 1749 652 0
-266 -1829 -788 1253 1083 0
-1711 982 -1146 -1245 480 -547 -825 0
-278 -373 1680 0
-561 -939 1833 0
-1300 -656 -190 463 0
-1543 -1919 880 -66 0
-161 -758 -678 0
-436 78 1476 0
-601 326 19 -1919 0
323 -53 -83 -1768 0
1970 -416 -1757 -756 1566 458 0
1959 979 -676 1191 0
-1075 -654 -1919 520 -1823 0
