c Random 3-SAT formula for benchmarking
c Generated with seed 100
p cnf 200 852
38 -118 -117 0
111 130 -29 0
68 -13 169 0
80 197 53 0
-89 95 -161 0
-119 143 71 0
-47 2 155 0
50 -43 -7 0
33 160 -142 0
-177 -152 -87 0
103 -195 -16 0
-65 -62 -181 0
-38 15 174 0
193 71 181 0
80 -135 -160 0
117 -4 177 0
135 31 -185 0
186 -27 103 0
180 -114 42 0
51 64 41 0
55 -165 24 0
177 -188 -103 0
-116 88 -179 0
-107 38 -54 0
103 67 182 0
13 -100 -70 0
-10 7 -143 0
3 -168 21 0
-23 -150 91 0
187 198 -48 0
142 37 -41 0
-130 -102 -45 0
-51 55 -42 0
-163 192 -35 0
33 29 -149 0
-118 111 182 0
12 114 -107 0
-28 177 23 0
36 195 -142 0
189 -145 -98 0
-30 173 -121 0
59 9 4 0
33 -121 -162 0
-131 123 -53 0
8 155 135 0
-149 182 60 0
58 -94 83 0
79 -179 113 0
41 88 -153 0
21 -23 -81 0
-40 171 29 0
133 -42 -121 0
2 -22 -128 0
40 50 -112 0
-65 -56 -76 0
-86 8 187 0
14 -170 107 0
-44 158 121 0
-104 6 -120 0
128 -153 13 0
-168 -67 -199 0
94 84 -41 0
-127 199 -103 0
191 25 136 0
-63 -21 5 0
86 -105 -177 0
89 -177 88 0
-96 -80 60 0
2 -69 -21 0
123 -137 -72 0
-47 23 24 0
87 -157 182 0
102 -85 105 0
176 -192 -155 0
1 -74 -109 0
51 -115 126 0
-53 165 74 0
103 29 198 0
-122 -45 -105 0
-99 100 148 0
9 131 -192 0
100 98 57 0
-58 -172 98 0
-158 -123 -193 0
-105 72 -19 0
1 -75 -139 0
106 -66 -113 0
-75 3 -20 0
-54 170 42 0
-181 -24 136 0
90 -152 173 0
-148 -76 -133 0
81 -68 -27 0
130 163 -60 0
-38 102 -121 0
91 169 -45 0
-73 -125 77 0
-98 -160 -99 0
133 -105 185 0
-85 -153 -71 0
31 149 47 0
120 40 -52 0
-117 182 -164 0
-26 -86 -127 0
141 187 146 0
7 -191 117 0
147 9 174 0
89 -112 186 0
-157 87 6 0
181 -195 -108 0
191 192 -128 0
-123 157 -171 0
10 142 -102 0
48 177 -100 0
42 -171 146 0
19 -37 162 0
-151 182 150 0
-178 103 -150 0
-103 10 -174 0
190 78 -143 0
97 -30 -2 0
143 -198 193 0
173 -44 25 0
77 136 -126 0
57 -184 189 0
30 -118 161 0
-110 -119 -114 0
-174 -127 -17 0
49 27 139 0
-85 -49 13 0
-67 195 91 0
10 -81 170 0
146 -125 72 0
161 -97 51 0
-153 28 190 0
144 -164 180 0
-112 48 176 0
69 100 -81 0
-90 -75 -177 0
165 94 -34 0
109 125 166 0
162 37 139 0
-61 -27 -160 0
173 -188 -128 0
135 25 -161 0
-106 -43 19 0
62 192 -85 0
-162 -78 -44 0
-32 -116 125 0
-50 122 -17 0
125 128 -166 0
133 158 184 0
-33 -3 -114 0
-82 -57 69 0
192 154 150 0
97 153 187 0
-143 119 -46 0
73 14 -46 0
135 -196 91 0
-144 101 118 0
44 2 65 0
-92 50 162 0
-191 -71 48 0
80 48 28 0
178 56 -78 0
43 9 160 0
-122 105 15 0
58 14 -123 0
122 -154 184 0
36 42 -141 0
-38 -23 -25 0
-194 189 184 0
106 -169 -99 0
58 13 90 0
-10 -12 27 0
-47 -18 189 0
14 75 -197 0
-3 -169 158 0
-134 78 -66 0
-198 -111 -35 0
-182 71 -144 0
-171 77 98 0
-113 93 -119 0
-145 -30 37 0
65 92 145 0
-154 36 -180 0
-104 51 189 0
49 66 -165 0
-149 123 197 0
-68 71 -191 0
18 62 -8 0
58 102 72 0
196 -198 -133 0
192 -151 -74 0
-180 83 65 0
-28 -126 31 0
15 -95 163 0
-148 -47 110 0
15 70 99 0
-198 195 99 0
-64 13 166 0
-60 -123 69 0
58 -188 -82 0
-64 200 -90 0
-162 -110 -115 0
174 -159 192 0
-166 -77 124 0
-175 187 -40 0
187 -11 -12 0
194 98 39 0
44 -139 -181 0
44 -116 -41 0
-73 89 -12 0
153 -68 -3 0
189 39 -69 0
57 11 -76 0
138 154 -182 0
112 46 75 0
29 57 189 0
-36 -75 -21 0
27 43 -143 0
50 95 -171 0
-177 -194 -190 0
-104 198 -157 0
100 -67 12 0
44 -142 -26 0
-192 -51 -163 0
-17 27 153 0
108 186 107 0
-95 -164 60 0
59 -86 -96 0
-184 165 163 0
-40 -186 -20 0
181 -17 28 0
122 -185 154 0
17 192 76 0
-135 -72 -130 0
-4 128 21 0
68 178 49 0
-109 -196 139 0
131 -117 -104 0
-56 -156 -95 0
-3 -145 50 0
188 101 -52 0
-50 12 52 0
-46 -132 -25 0
-52 27 143 0
-3 165 -119 0
133 86 -19 0
-173 122 162 0
-111 -171 -102 0
9 -135 101 0
-140 174 -88 0
-69 2 75 0
182 9 91 0
-59 111 -142 0
66 -115 105 0
50 -175 11 0
99 155 126 0
-103 98 189 0
1 -91 -81 0
179 173 148 0
26 32 -50 0
107 -63 -14 0
-111 -4 100 0
-92 -161 -98 0
-197 45 -192 0
-76 -150 95 0
-192 -165 125 0
-105 -196 157 0
-53 113 50 0
87 -177 -63 0
-17 78 90 0
40 -91 -75 0
82 14 25 0
-183 22 -164 0
-11 -42 52 0
181 123 175 0
160 123 31 0
-12 71 91 0
27 166 -133 0
-36 -79 -78 0
-128 158 -41 0
138 101 147 0
-1 -127 190 0
-57 23 35 0
37 -8 -30 0
-56 -27 -128 0
186 148 157 0
153 -194 38 0
-162 -95 -131 0
45 118 -140 0
-67 -196 5 0
118 189 -116 0
8 -86 164 0
-168 133 15 0
-141 99 -98 0
-9 -197 87 0
-179 35 -9 0
89 -132 154 0
-155 -107 -126 0
29 129 -167 0
-82 114 130 0
152 195 123 0
-63 19 -180 0
5 159 -118 0
156 -85 131 0
-24 -177 159 0
-64 35 -182 0
119 14 13 0
-75 178 -68 0
-83 -167 -174 0
-198 -67 200 0
13 93 70 0
-149 119 -157 0
-50 153 121 0
40 168 -55 0
-107 -129 -149 0
-54 170 159 0
-133 -64 -173 0
-66 -157 22 0
-175 150 -135 0
-181 186 -148 0
72 -1 -100 0
-113 -65 -91 0
-118 -178 128 0
141 191 -178 0
55 105 -142 0
46 -131 168 0
52 -154 -35 0
26 -122 -38 0
-144 195 -170 0
-161 -77 -162 0
-63 -198 145 0
-139 165 -146 0
200 -86 -57 0
113 91 -2 0
74 131 -60 0
121 149 68 0
187 30 66 0
40 198 -147 0
183 -67 132 0
196 -151 135 0
124 141 195 0
190 -80 45 0
86 -35 -200 0
-159 -148 130 0
174 -83 -68 0
177 31 70 0
-177 -59 4 0
-25 -65 -196 0
-87 105 142 0
199 10 -191 0
96 154 135 0
-42 4 151 0
48 -66 166 0
-119 -70 3 0
-134 -182 -28 0
-9 -161 -177 0
-175 10 -124 0
125 -63 138 0
-68 140 -159 0
112 150 53 0
-123 -116 -25 0
69 189 200 0
-64 74 30 0
76 -169 -44 0
122 -58 31 0
-179 53 8 0
111 -63 -161 0
164 87 31 0
-104 186 187 0
-54 -59 142 0
83 35 195 0
183 174 -145 0
-71 54 143 0
153 -15 -59 0
192 -133 -88 0
-167 -141 118 0
-117 11 186 0
-44 -191 30 0
40 -53 -34 0
-84 37 -93 0
-28 -163 -109 0
29 -98 -14 0
-159 145 -103 0
-61 115 81 0
187 -156 -176 0
-27 -84 30 0
-68 99 -127 0
-57 156 -139 0
-163 -47 92 0
9 153 109 0
-45 -8 -173 0
-197 73 -117 0
-32 -82 -151 0
-6 -183 -13 0
-29 -172 13 0
-72 136 22 0
-43 -171 36 0
-104 67 71 0
64 32 68 0
-162 53 -9 0
-195 -71 -149 0
-122 -95 10 0
124 -187 -197 0
191 -194 15 0
14 39 -129 0
102 -188 -155 0
-149 -162 73 0
92 -179 20 0
61 26 -102 0
-65 -151 -193 0
129 -115 -95 0
-124 -178 141 0
-59 66 187 0
-123 -92 83 0
140 -136 -154 0
129 -168 7 0
94 79 -35 0
-138 -57 -171 0
-90 -76 44 0
23 -63 109 0
-152 -11 91 0
125 -114 -166 0
-89 30 70 0
-160 38 -3 0
123 135 -181 0
35 73 12 0
-110 57 -20 0
-109 -21 181 0
76 177 -21 0
-172 -101 -112 0
56 -166 184 0
-125 -156 165 0
137 -189 170 0
-6 -154 162 0
182 80 122 0
-94 -74 -23 0
-32 -120 -43 0
-159 85 60 0
-163 31 167 0
19 -26 -140 0
91 -123 -71 0
2 122 58 0
-134 121 -176 0
-45 -101 129 0
-155 101 31 0
-32 47 141 0
117 -41 -23 0
-108 194 120 0
142 -129 64 0
-16 -7 -107 0
141 -132 -69 0
-115 124 10 0
28 -194 84 0
-21 -25 -191 0
-85 -70 179 0
-60 14 -189 0
82 188 35 0
64 24 151 0
167 -98 -189 0
127 114 -19 0
52 -113 185 0
64 80 -82 0
-156 161 -122 0
113 91 14 0
-103 49 -21 0
-197 -10 -93 0
92 -64 141 0
-40 7 67 0
87 -92 -27 0
115 -1 177 0
-118 -97 138 0
-45 105 -108 0
-192 -120 16 0
136 139 152 0
-178 45 -186 0
-61 40 92 0
109 -154 -112 0
26 155 -183 0
39 -24 56 0
-189 -78 -52 0
-74 73 72 0
45 71 -118 0
95 74 33 0
-102 -43 184 0
-38 -95 -75 0
-199 41 -147 0
174 7 154 0
45 -108 70 0
-163 -107 -89 0
-72 98 38 0
-96 50 -115 0
-123 -155 178 0
51 -12 -7 0
10 -194 139 0
197 33 -30 0
-154 49 20 0
-103 -196 -83 0
168 35 44 0
-77 -129 164 0
-47 -37 176 0
-93 51 -127 0
57 -25 -183 0
114 -103 -99 0
-99 -164 -163 0
-75 100 175 0
193 29 23 0
45 -185 124 0
86 -92 95 0
62 -27 -16 0
-71 -32 124 0
-136 -42 -101 0
150 71 -63 0
122 117 -92 0
158 -162 -121 0
-46 174 -49 0
-179 168 -191 0
-159 36 161 0
-6 174 88 0
-35 102 46 0
28 200 -184 0
196 63 -20 0
-129 -96 -146 0
87 -128 -127 0
153 -181 40 0
-41 67 63 0
-118 41 156 0
-192 197 -179 0
84 -123 196 0
166 -89 -114 0
-48 109 116 0
196 -172 -103 0
56 -66 142 0
-41 155 -39 0
-110 -185 65 0
-88 -81 185 0
-188 -88 -128 0
174 -33 79 0
-148 -57 -110 0
-166 199 157 0
22 -73 187 0
168 -175 152 0
160 33 -26 0
-116 111 -150 0
72 124 68 0
-168 -173 -167 0
-16 -118 -66 0
-155 -169 -113 0
-159 -152 -31 0
-91 175 74 0
62 -116 -189 0
35 88 182 0
28 -191 47 0
-75 -26 32 0
200 -173 10 0
45 -24 107 0
8 111 159 0
-186 -131 176 0
26 -169 -7 0
108 111 -92 0
61 104 50 0
-72 -175 157 0
-122 61 151 0
-196 25 -100 0
92 -39 77 0
-30 -113 -131 0
-27 -19 -170 0
-60 -94 15 0
8 59 -187 0
-86 19 -171 0
10 109 -180 0
-13 123 15 0
-182 -25 125 0
-40 -7 -82 0
-51 -94 -173 0
115 -61 -160 0
21 85 107 0
-171 -93 141 0
163 160 -164 0
68 52 156 0
166 15 -189 0
-67 16 123 0
77 50 -27 0
188 -11 40 0
-57 -12 131 0
120 -152 139 0
-126 -88 -81 0
65 -158 180 0
169 123 -28 0
-91 118 -37 0
58 127 -104 0
-83 -177 -144 0
26 97 65 0
-37 191 180 0
82 37 -17 0
63 23 74 0
-180 154 174 0
-157 -29 -139 0
-112 -83 -143 0
-187 -20 93 0
179 45 -33 0
-130 41 101 0
149 15 -128 0
-176 156 56 0
-156 100 -59 0
197 75 188 0
-104 -172 -175 0
-5 157 -25 0
24 -52 -5 0
-6 57 -108 0
49 141 -188 0
-166 142 -55 0
-54 184 -138 0
-14 174 93 0
144 -198 -141 0
113 55 11 0
46 -138 -93 0
77 -90 106 0
-43 189 -124 0
11 -115 -141 0
-135 -176 113 0
-107 45 -154 0
44 -146 -139 0
-180 11 1 0
-132 49 -84 0
16 44 -4 0
-16 -200 -48 0
-132 -110 -55 0
-84 -177 -45 0
157 51 -141 0
-128 142 -54 0
32 74 17 0
153 18 32 0
-173 29 -39 0
178 -115 -107 0
74 71 -112 0
-16 -172 123 0
-92 -56 106 0
-96 -68 190 0
183 76 -164 0
181 91 -188 0
-68 -144 156 0
-97 -183 109 0
-141 -18 96 0
124 71 -181 0
141 161 55 0
154 -67 -143 0
-128 25 131 0
-189 64 -121 0
142 101 87 0
-124 -3 -42 0
129 -73 -58 0
-80 -64 174 0
68 -142 144 0
105 -89 60 0
-66 -58 60 0
-173 4 171 0
40 -130 83 0
144 48 -118 0
-60 -51 -37 0
48 -123 -46 0
76 -121 75 0
4 195 -166 0
96 -197 35 0
-64 136 -174 0
-129 120 177 0
-114 159 -38 0
57 -148 -130 0
110 -79 90 0
104 172 171 0
163 87 -47 0
199 -170 -15 0
112 130 -150 0
149 166 181 0
-29 -174 -95 0
-11 -142 9 0
71 104 38 0
119 188 80 0
-144 97 -167 0
192 6 171 0
200 -101 -144 0
-39 -77 -58 0
-94 -20 7 0
-169 -178 172 0
74 -19 160 0
-63 -40 122 0
63 72 -30 0
-152 43 116 0
76 180 -3 0
-56 -107 -126 0
-140 -55 -82 0
-142 -82 -105 0
-151 159 41 0
181 -21 -84 0
68 150 133 0
170 71 136 0
-86 94 -59 0
109 -37 29 0
73 58 -40 0
-86 68 -112 0
22 80 70 0
-40 131 -189 0
-168 -65 -27 0
69 93 156 0
102 139 28 0
1 47 -79 0
-68 -198 143 0
188 -72 -178 0
-5 115 -17 0
200 120 49 0
183 77 -12 0
157 82 -168 0
126 177 -48 0
-122 -151 -28 0
-73 -142 -174 0
192 -163 -172 0
-150 -143 155 0
118 -185 -97 0
127 -144 124 0
158 165 -76 0
152 91 165 0
-116 93 107 0
120 157 200 0
48 -16 -34 0
-65 127 13 0
145 76 -140 0
-10 -98 -140 0
-143 -2 -24 0
129 -55 158 0
-13 -179 -83 0
-153 62 5 0
-47 155 17 0
-127 -73 -157 0
-104 -71 -84 0
-33 -112 90 0
124 73 -173 0
200 -137 27 0
-157 75 -45 0
23 161 -88 0
187 -190 143 0
44 -1 -88 0
-145 175 -137 0
32 -125 86 0
54 -163 32 0
63 -29 186 0
-49 -108 -136 0
-83 7 19 0
14 -64 38 0
41 -54 42 0
43 -55 -71 0
-94 166 73 0
64 131 -77 0
87 -169 85 0
144 -117 -72 0
101 -50 11 0
-50 -190 60 0
-47 -70 -193 0
-187 191 -91 0
-47 -177 -182 0
-13 136 118 0
-129 -19 -74 0
-91 -80 149 0
65 -197 149 0
82 77 -130 0
-173 53 110 0
-177 45 200 0
43 79 -146 0
93 56 24 0
43 -70 -146 0
163 57 26 0
-73 164 -42 0
19 184 -69 0
62 -116 -181 0
-135 177 -18 0
43 109 -6 0
-191 4 7 0
78 -29 -58 0
118 33 -29 0
-4 -117 -141 0
-64 -115 -31 0
155 -3 -192 0
175 -172 11 0
136 76 47 0
150 116 -31 0
71 -118 -133 0
52 -9 -90 0
-101 -77 -60 0
-22 -107 37 0
-4 159 -145 0
-101 23 57 0
29 -137 13 0
-188 -200 180 0
108 172 45 0
146 82 -118 0
-25 -178 14 0
-192 -127 -157 0
185 -200 38 0
-151 50 -175 0
-64 -157 -41 0
-133 154 157 0
-193 -200 -115 0
-87 94 -155 0
-32 -11 41 0
106 105 -172 0
101 40 151 0
4 92 161 0
-46 56 -81 0
70 -68 -72 0
170 54 -153 0
5 -119 -10 0
-152 123 157 0
-94 -73 -61 0
39 37 22 0
-37 167 -54 0
-22 183 -200 0
157 -163 -30 0
1 -145 -103 0
-195 163 -21 0
115 -199 157 0
-186 -129 149 0
17 57 -134 0
6 -170 111 0
-179 -77 193 0
26 -139 71 0
128 -40 110 0
-49 -114 -45 0
123 -73 -65 0
-63 71 -6 0
77 -138 -26 0
60 185 16 0
-81 -176 -64 0
102 -152 -10 0
-40 102 -67 0
-44 150 86 0
64 -144 198 0
-100 182 -102 0
139 -62 7 0
3 104 50 0
-70 -144 173 0
-75 -122 140 0
191 -35 139 0
-70 197 188 0
-45 -180 -50 0
123 137 -98 0
-92 -167 4 0
135 91 -22 0
-23 -182 32 0
2 188 156 0
-68 134 82 0
-75 -128 -91 0
