c Random 3-SAT formula for benchmarking
c Generated with seed 123
p cnf 1000 4260
-54 -275 90 0
859 -923 -896 0
349 873 -54 0
575 342 719 0
928 -447 793 0
-7 324 750 0
95 684 -146 0
-934 -441 -588 0
-858 -38 -788 0
-212 841 -624 0
-915 -788 -662 0
384 523 -33 0
-674 -269 -175 0
-906 -76 -741 0
17 -194 601 0
-918 361 -235 0
507 -988 783 0
-158 -550 456 0
11 138 -468 0
-819 -361 -702 0
1 -112 633 0
85 -444 920 0
-560 711 -651 0
269 -979 -484 0
357 -25 655 0
735 -891 696 0
762 -81 -845 0
-150 -936 -672 0
-130 548 999 0
-822 604 396 0
-466 -685 -22 0
312 440 -811 0
893 -530 528 0
559 -744 378 0
279 953 -519 0
271 408 45 0
777 -913 18 0
88 -615 325 0
952 -912 -829 0
749 -408 -796 0
349 406 937 0
-920 -813 810 0
-708 -54 -370 0
-324 -368 222 0
841 -186 -392 0
513 -272 -850 0
71 -944 -304 0
57 -967 -390 0
-111 477 -588 0
-273 862 -450 0
-514 -589 928 0
-187 -127 21 0
-489 548 -44 0
892 379 -913 0
-517 922 -932 0
748 -396 -234 0
-173 427 367 0
509 690 -169 0
538 -170 -783 0
887 -898 479 0
-106 454 628 0
-651 -962 402 0
-62 -584 444 0
506 138 200 0
251 -932 214 0
-12 423 672 0
-947 -965 253 0
-312 116 290 0
767 -371 805 0
-425 -228 523 0
-400 79 -926 0
143 488 749 0
-472 949 -883 0
-534 362 -296 0
960 -49 109 0
-800 685 -211 0
130 898 487 0
-808 814 89 0
-150 225 -469 0
62 -58 156 0
-138 -685 43 0
-837 -245 241 0
-92 -692 -10 0
354 806 235 0
-113 947 256 0
-571 -812 -1 0
-380 642 -134 0
359 -321 707 0
-663 302 -82 0
456 -881 108 0
-197 -211 -740 0
291 -670 912 0
267 747 -32 0
189 -104 140 0
-915 937 -76 0
-370 134 -259 0
532 812 -568 0
-294 -819 821 0
6 96 -859 0
-858 398 838 0
397 1 426 0
828 428 -133 0
-432 -173 797 0
-895 -25 125 0
654 -691 -557 0
-612 561 804 0
316 -292 902 0
510 47 433 0
683 49 -564 0
-593 -989 -195 0
77 968 -851 0
-44 962 548 0
692 37 -160 0
-817 -749 -905 0
-678 -187 659 0
90 45 -222 0
-374 -523 -431 0
865 189 547 0
533 -778 612 0
-642 818 -848 0
-304 -828 -771 0
-854 552 782 0
41 -384 -54 0
773 432 680 0
238 588 -393 0
956 -539 -775 0
-323 -961 -620 0
693 493 181 0
708 -529 729 0
144 -151 827 0
790 572 -902 0
-513 685 -6 0
-359 693 518 0
-438 -765 -870 0
-49 654 -440 0
455 475 -15 0
374 -329 -797 0
682 240 -34 0
-208 -836 694 0
357 -969 -665 0
558 -319 691 0
815 49 -121 0
-528 431 410 0
-188 -358 -235 0
-120 -406 76 0
201 -264 92 0
195 -85 -887 0
-952 748 -448 0
-53 -97 -959 0
-854 -865 -750 0
65 342 621 0
-456 402 513 0
-824 294 -324 0
620 484 -370 0
-859 160 -213 0
-572 227 870 0
-475 -494 -808 0
-475 -827 -932 0
-82 667 -404 0
392 580 578 0
-165 -713 427 0
796 -298 180 0
598 -395 -561 0
711 648 -960 0
717 -603 -132 0
-159 165 466 0
304 -196 603 0
626 459 -27 0
638 -682 821 0
-103 250 43 0
-179 935 473 0
570 537 -52 0
-913 160 -244 0
-784 -131 596 0
-631 -500 319 0
937 584 -148 0
-762 689 810 0
163 -543 173 0
97 310 -644 0
-737 785 643 0
812 -636 -443 0
576 305 273 0
195 -10 -677 0
-500 -73 190 0
447 -558 318 0
145 -272 -343 0
-872 -310 -120 0
382 -872 -128 0
274 588 540 0
-660 -731 -356 0
397 155 -183 0
212 739 -464 0
-381 -387 -165 0
548 720 -444 0
231 691 -613 0
-456 826 -731 0
345 466 685 0
-266 137 -823 0
187 686 789 0
-178 -660 284 0
-391 -577 430 0
-77 -238 759 0
-931 -376 -172 0
557 762 493 0
-152 476 787 0
-531 507 42 0
228 21 -706 0
-551 642 -509 0
820 402 826 0
36 -680 -694 0
882 -482 -294 0
130 -254 157 0
-981 374 109 0
379 -629 -777 0
672 -109 -176 0
-252 454 -603 0
-289 -945 -493 0
522 -599 -376 0
537 67 -662 0
-759 -51 -683 0
-660 217 215 0
667 -234 176 0
-446 -141 941 0
944 6 66 0
-56 -884 511 0
689 -402 -407 0
-976 710 -186 0
231 367 -549 0
-655 350 796 0
510 -19 640 0
168 733 -975 0
-663 195 902 0
770 253 453 0
-520 223 489 0
-754 977 510 0
433 -112 473 0
147 938 462 0
229 -252 -169 0
98 -248 -241 0
940 372 -994 0
-15 823 -65 0
-252 -377 872 0
570 448 498 0
-857 -111 104 0
536 860 -717 0
746 927 -157 0
-876 266 65 0
282 -872 -514 0
-682 -747 821 0
130 -476 -686 0
-906 510 648 0
-797 -230 803 0
96 -483 -897 0
-241 -717 -399 0
685 899 -564 0
-700 -131 143 0
991 -688 473 0
822 -254 -88 0
-141 -324 950 0
253 -938 -896 0
436 -791 839 0
302 -473 687 0
215 -224 894 0
322 -189 -291 0
-842 242 429 0
297 516 -633 0
-447 -176 -834 0
789 978 -800 0
232 -1 -876 0
-863 993 146 0
784 471 850 0
126 149 183 0
-249 -477 970 0
-711 432 894 0
-866 710 -620 0
615 647 352 0
205 -926 300 0
-413 -869 -143 0
737 290 858 0
-822 599 484 0
381 688 -740 0
-512 980 -987 0
-465 228 -212 0
355 107 670 0
225 538 -798 0
423 294 773 0
-320 573 267 0
-335 -683 -402 0
-980 -479 785 0
988 759 -795 0
689 90 372 0
929 417 -178 0
-679 375 -604 0
-549 173 -534 0
295 291 399 0
-367 747 88 0
-45 546 989 0
-291 -272 -906 0
640 185 -572 0
1000 421 -252 0
426 -633 -512 0
533 -734 33 0
-917 -645 -375 0
886 564 373 0
928 -335 261 0
484 -293 -725 0
-783 -629 -357 0
501 -875 58 0
-546 890 -299 0
294 -121 -128 0
-148 985 690 0
365 -80 448 0
724 451 981 0
219 536 164 0
975 561 -162 0
38 -551 -747 0
354 189 -330 0
949 -243 880 0
790 650 549 0
-360 -159 -695 0
56 54 234 0
881 399 788 0
905 -304 -616 0
-799 -553 -916 0
-95 136 431 0
-614 940 -435 0
-335 361 137 0
-772 792 -846 0
-532 -279 -551 0
836 -580 953 0
-189 -426 -417 0
-316 -784 790 0
-592 481 -345 0
323 244 -208 0
-589 954 -896 0
-776 189 459 0
464 -48 316 0
-335 189 916 0
766 -917 -156 0
-529 -953 -197 0
932 -218 -550 0
-144 -780 798 0
-99 126 229 0
132 -389 -667 0
121 297 56 0
-351 -681 -943 0
-593 -348 432 0
-19 801 434 0
-685 821 -260 0
351 387 -136 0
-317 -195 -856 0
-837 -884 -570 0
770 905 -737 0
-693 19 179 0
659 32 70 0
733 466 165 0
16 617 975 0
404 700 -607 0
190 -864 -37 0
864 814 -990 0
-849 427 376 0
-720 -19 -656 0
-36 -910 489 0
-324 -373 -247 0
-865 130 32 0
994 -889 -455 0
650 -526 -995 0
-604 -907 -674 0
-806 -343 -382 0
-535 282 890 0
609 -638 31 0
-797 -631 814 0
306 -330 793 0
-782 550 -287 0
-266 66 -565 0
754 -58 892 0
-541 639 990 0
-588 209 -260 0
800 -18 -895 0
-502 644 -114 0
947 -246 -337 0
420 -997 757 0
-104 -382 -515 0
232 -326 88 0
965 -308 148 0
502 -100 -660 0
-76 -75 -195 0
-73 -562 -208 0
-905 595 -766 0
-862 -792 -737 0
-77 -756 403 0
-129 -729 -451 0
-914 -7 470 0
-342 387 73 0
25 -692 708 0
208 546 865 0
727 -799 935 0
472 329 -892 0
452 930 178 0
-922 737 36 0
276 878 -887 0
74 301 510 0
-686 -618 -343 0
948 -204 808 0
859 -244 626 0
144 -652 -884 0
709 -797 -435 0
-381 411 -609 0
-190 -472 -779 0
-342 -60 -401 0
407 808 976 0
880 398 893 0
173 -490 -349 0
270 -509 -286 0
485 -826 599 0
679 588 881 0
594 779 -185 0
-77 746 -864 0
737 -650 336 0
736 -337 363 0
-423 -263 647 0
-509 46 592 0
-261 -121 -113 0
170 -661 252 0
593 -662 -13 0
-355 30 -158 0
-135 -575 712 0
428 823 -697 0
651 958 -811 0
544 -978 -70 0
622 15 751 0
678 -681 -408 0
-625 191 -953 0
734 552 -292 0
-850 13 -888 0
-134 -65 858 0
608 -142 818 0
-743 581 -789 0
-121 993 679 0
697 932 -400 0
456 -288 -800 0
653 -282 678 0
-782 23 887 0
486 -904 -98 0
442 197 191 0
503 740 830 0
-210 232 134 0
636 -914 832 0
-36 222 -994 0
-29 776 153 0
-910 460 432 0
-32 -494 714 0
-819 818 -46 0
772 187 909 0
-122 -516 -153 0
-80 -124 587 0
-219 917 295 0
-605 -967 124 0
441 -542 24 0
-738 -147 558 0
-972 475 22 0
-127 414 60 0
-518 175 -154 0
-215 137 -229 0
523 797 305 0
98 210 219 0
54 459 -642 0
223 -631 505 0
-50 -31 -78 0
141 -163 756 0
559 -323 -196 0
-944 -960 966 0
102 -531 -515 0
-827 -316 151 0
-982 -710 -217 0
-333 812 669 0
39 584 -790 0
537 377 86 0
342 -934 355 0
-482 -766 229 0
-690 -470 1000 0
-65 983 145 0
-776 -692 856 0
-541 -958 -865 0
-126 -622 779 0
156 485 -434 0
-981 -430 -890 0
-953 -613 -326 0
172 529 240 0
64 983 -328 0
-489 -368 -421 0
-768 537 546 0
929 153 -772 0
574 820 873 0
-850 -845 312 0
-15 -730 243 0
-813 -863 -556 0
526 642 -529 0
-732 202 -977 0
-32 286 72 0
-953 -798 901 0
-129 -796 458 0
-312 472 319 0
697 746 736 0
995 -225 -372 0
-230 221 968 0
-454 330 -114 0
658 714 207 0
621 102 392 0
792 736 266 0
648 893 -299 0
-556 307 558 0
-947 968 527 0
-288 -426 39 0
-698 -705 -22 0
717 720 -21 0
444 -732 84 0
635 29 -912 0
123 -277 275 0
-840 -486 454 0
439 676 -901 0
-290 -856 158 0
333 -343 -308 0
873 141 -46 0
747 235 -582 0
25 -421 895 0
481 117 729 0
387 -16 -238 0
-664 272 -343 0
-718 -918 -432 0
-675 615 883 0
398 -178 -687 0
-815 -104 596 0
47 698 209 0
-896 782 331 0
498 -267 855 0
425 -791 579 0
256 182 -39 0
-637 830 422 0
-614 -591 392 0
376 -545 -512 0
936 327 -153 0
-903 -302 -480 0
472 41 998 0
203 -770 -275 0
687 -303 -155 0
539 369 -919 0
-982 -424 -309 0
-954 101 183 0
-812 -66 369 0
190 -987 -978 0
324 91 -218 0
300 150 213 0
-181 393 -92 0
-90 -593 796 0
-715 611 -803 0
-199 -779 303 0
997 485 -318 0
-210 -615 675 0
-974 -956 -330 0
-177 554 -313 0
-300 -106 801 0
-185 -317 45 0
-700 594 604 0
537 232 -190 0
764 -638 665 0
119 39 -437 0
898 -908 -917 0
101 -407 -670 0
-615 -472 297 0
483 928 363 0
318 17 -828 0
-588 -636 570 0
-578 -672 -594 0
-3 519 -460 0
859 -929 -77 0
339 62 -194 0
-14 -36 -347 0
-564 821 -714 0
-787 217 390 0
-150 -521 812 0
-611 -395 770 0
-844 -182 743 0
-491 -51 -768 0
-14 996 728 0
508 440 -74 0
-119 214 823 0
-990 88 209 0
-492 688 -580 0
466 543 -388 0
871 686 696 0
449 219 -187 0
5 585 274 0
-300 -25 803 0
-215 -573 18 0
-105 846 -852 0
-835 978 547 0
-201 107 344 0
224 214 300 0
-551 -699 207 0
42 614 518 0
449 -925 744 0
971 454 -680 0
450 592 -550 0
-363 -666 -19 0
101 -628 -774 0
-128 657 726 0
-337 -286 -368 0
888 -216 915 0
-455 103 176 0
248 -640 -463 0
-118 -264 -223 0
560 -163 683 0
-314 -781 -881 0
-150 138 -475 0
655 -576 -384 0
960 -739 594 0
-302 748 192 0
136 350 -784 0
151 484 -907 0
-972 -633 -552 0
94 -45 943 0
-505 765 455 0
-707 -386 -253 0
520 -865 -597 0
-635 -312 -543 0
-66 -567 326 0
541 -146 -920 0
-364 -930 756 0
-983 935 -487 0
-182 309 -450 0
73 365 -701 0
-411 430 810 0
110 -787 -147 0
-489 -459 -728 0
554 946 -671 0
899 574 886 0
-336 -452 -650 0
670 -471 -823 0
-86 -40 -320 0
-48 239 -591 0
-940 -889 -583 0
-225 770 841 0
-567 23 133 0
-134 29 -412 0
-243 -110 159 0
84 -747 -808 0
600 658 -934 0
-603 275 908 0
158 931 -89 0
-941 738 946 0
791 262 90 0
-188 744 945 0
784 -101 834 0
546 -849 916 0
-648 -562 398 0
219 -114 610 0
434 -834 -377 0
108 897 685 0
-46 393 -895 0
390 -874 -850 0
-411 822 958 0
205 216 -370 0
-67 -785 27 0
-235 477 712 0
476 487 -275 0
-880 271 728 0
-614 -17 315 0
981 -538 -28 0
-731 -984 593 0
-776 -543 -838 0
548 687 847 0
518 585 252 0
-73 315 -389 0
-651 812 268 0
404 -965 -206 0
-570 -494 -457 0
-464 -881 -369 0
-539 -332 951 0
473 132 949 0
-493 -236 556 0
875 -924 437 0
-449 -961 -692 0
973 -771 -445 0
-213 136 -965 0
-322 -484 969 0
589 911 126 0
957 772 723 0
-674 108 299 0
719 -816 15 0
449 -655 813 0
906 48 -764 0
345 -798 -291 0
-742 340 -891 0
689 491 -749 0
-573 909 318 0
742 -695 824 0
-568 391 122 0
-935 -825 130 0
-183 956 -579 0
-558 -486 -878 0
-756 885 -951 0
139 25 -732 0
-940 -253 868 0
-61 -168 -247 0
-479 -288 808 0
-218 -532 357 0
222 736 298 0
449 780 337 0
14 -765 -129 0
-277 -985 818 0
966 726 332 0
160 -462 -181 0
-787 348 744 0
11 -59 -380 0
214 -519 -470 0
80 -440 714 0
-33 392 519 0
-231 459 -994 0
-729 -212 -635 0
805 564 -453 0
-269 850 -242 0
-32 588 886 0
-762 962 -277 0
-925 350 178 0
-241 367 -51 0
-114 -288 99 0
670 982 -989 0
836 925 -122 0
-882 526 -923 0
-275 450 690 0
961 985 -87 0
-882 499 337 0
-427 238 266 0
-605 4 952 0
692 813 -128 0
261 -366 -243 0
-567 111 -3 0
568 735 -382 0
-694 196 677 0
-52 -404 -13 0
123 507 401 0
607 462 827 0
-276 325 -337 0
96 161 -155 0
-918 -404 786 0
-675 -608 -427 0
944 873 -151 0
-554 -301 -839 0
243 857 -424 0
939 722 -652 0
511 -893 91 0
710 111 27 0
-724 293 -22 0
-234 184 127 0
-289 120 807 0
976 535 779 0
-632 -68 -863 0
-196 472 593 0
-748 924 381 0
231 -782 827 0
-366 991 -70 0
-643 -504 25 0
-223 68 -409 0
-649 896 -133 0
312 955 -795 0
-809 -678 -645 0
-292 -148 -883 0
957 -175 -33 0
572 -839 -617 0
826 795 -716 0
144 -918 -877 0
-683 -689 929 0
593 -402 740 0
368 74 674 0
-529 -56 989 0
-727 -342 -296 0
-772 -867 724 0
-388 -480 260 0
501 -722 -494 0
121 607 -46 0
-308 366 -614 0
-552 641 170 0
-170 362 -562 0
-811 -259 -198 0
444 -875 -151 0
-982 -233 796 0
-145 -980 -618 0
-696 -586 -250 0
-857 -630 535 0
979 -582 235 0
303 851 77 0
207 -893 -90 0
-35 396 -581 0
-198 -184 -948 0
-810 -233 -499 0
268 -707 751 0
477 562 -840 0
507 96 170 0
579 322 -47 0
-274 433 848 0
-955 119 654 0
68 -850 -315 0
497 782 -379 0
-866 -376 766 0
157 -185 -119 0
-257 -41 -723 0
-368 -986 -851 0
655 729 847 0
-209 176 -473 0
-771 473 706 0
-245 -962 556 0
612 -830 889 0
-553 2 940 0
135 39 -711 0
-477 -417 -797 0
-920 -718 49 0
649 -592 983 0
-742 -585 459 0
-524 114 -188 0
-958 12 478 0
-908 412 -98 0
458 -284 -694 0
-797 -25 -848 0
-831 -341 159 0
-478 222 710 0
170 -285 -416 0
765 606 922 0
-566 852 -807 0
74 -585 -358 0
-871 -386 -195 0
368 603 489 0
988 94 945 0
-25 890 -624 0
238 685 806 0
-73 -778 -382 0
-135 659 -326 0
-11 316 773 0
-982 -201 -665 0
710 115 828 0
368 841 784 0
159 -202 287 0
510 -616 659 0
306 472 -392 0
570 490 13 0
433 -167 889 0
316 501 595 0
281 -757 -612 0
491 -349 335 0
637 -633 610 0
-469 160 313 0
857 248 -423 0
876 306 491 0
-996 334 685 0
689 -486 -204 0
230 84 355 0
-358 -576 -186 0
-250 169 -967 0
-80 -1000 676 0
-418 976 180 0
-409 838 202 0
299 795 414 0
473 326 148 0
-210 -575 63 0
-371 -22 -402 0
-75 -164 586 0
-279 527 -708 0
-501 -587 -502 0
-192 -522 601 0
-868 -732 134 0
401 -772 -832 0
940 -834 492 0
213 -819 -191 0
163 416 604 0
134 -142 968 0
-672 576 462 0
366 -233 568 0
995 -616 -386 0
340 -913 -82 0
-705 -722 -827 0
707 -104 11 0
8 -351 -744 0
957 -501 862 0
-311 397 795 0
-605 -602 -522 0
-487 -692 -812 0
-446 -58 -519 0
585 -945 375 0
502 543 768 0
882 210 295 0
-785 -668 -872 0
-743 -640 721 0
496 924 646 0
236 360 347 0
-941 839 610 0
32 774 -818 0
279 -651 -226 0
-825 -39 876 0
-714 133 -156 0
36 992 -872 0
118 -416 -367 0
-140 6 -775 0
406 -494 -948 0
702 -721 906 0
-105 765 185 0
9 51 -228 0
188 265 933 0
-276 884 573 0
254 686 27 0
-504 352 572 0
776 -140 -753 0
34 543 -475 0
-363 535 -257 0
598 -733 -134 0
305 269 -456 0
950 409 -496 0
-637 -311 -22 0
-999 -476 919 0
852 924 478 0
-615 207 -712 0
955 851 -834 0
104 -158 -1000 0
191 328 952 0
-188 -819 985 0
880 -499 -743 0
91 -970 269 0
485 101 -352 0
370 -509 -805 0
577 -638 181 0
284 243 -99 0
-879 775 -979 0
-77 728 -836 0
502 348 262 0
-934 -786 851 0
-476 270 335 0
993 -58 723 0
-613 -949 455 0
-219 24 -228 0
816 -218 -393 0
660 -436 21 0
86 389 450 0
576 -284 206 0
172 -190 -151 0
-824 -624 665 0
638 602 -193 0
-921 23 -935 0
-995 965 -843 0
-700 389 355 0
332 452 134 0
28 635 249 0
792 -675 -625 0
808 -17 77 0
45 550 143 0
146 -429 -428 0
128 114 -57 0
878 -138 611 0
-736 730 -771 0
-831 -722 -717 0
-187 -952 109 0
956 -791 662 0
945 -27 21 0
-75 -834 -346 0
252 154 -315 0
402 810 -767 0
-752 -727 101 0
-344 -18 593 0
373 63 402 0
-868 -707 582 0
-68 -649 700 0
248 611 -967 0
-210 -257 -702 0
-780 -772 -883 0
172 -499 -593 0
660 -643 -242 0
-975 -348 394 0
-337 856 467 0
947 -728 14 0
625 531 -700 0
720 544 299 0
-210 -49 -273 0
-318 -566 -11 0
423 782 398 0
947 -108 373 0
-644 832 -264 0
-6 384 -983 0
681 -669 -482 0
-474 -195 -632 0
251 -460 205 0
-169 -90 870 0
863 701 -10 0
870 995 -505 0
815 367 -716 0
-898 -393 894 0
-489 -588 43 0
-713 76 246 0
-512 937 -515 0
367 -593 348 0
522 158 426 0
-693 -666 155 0
-253 157 65 0
973 464 -622 0
-264 -850 -884 0
-290 -751 -824 0
622 990 -903 0
157 632 124 0
428 855 -50 0
-411 -447 754 0
210 635 -667 0
387 -70 259 0
849 -890 884 0
-712 -636 -936 0
-642 -231 662 0
917 -320 -905 0
741 -592 605 0
43 753 -418 0
-50 160 216 0
553 -942 672 0
789 72 -817 0
-716 240 680 0
-336 390 -769 0
-264 -378 -237 0
875 -79 57 0
127 673 -46 0
959 194 -673 0
7 829 837 0
-691 599 -177 0
973 -787 -647 0
-893 669 884 0
-873 -98 66 0
353 -220 -835 0
-29 758 961 0
22 831 -719 0
-901 546 212 0
583 -804 -151 0
-127 845 80 0
816 -305 661 0
-666 -580 -2 0
-225 969 -656 0
-171 -148 117 0
463 475 -839 0
-771 578 648 0
254 166 896 0
-972 513 -674 0
-298 379 548 0
-301 388 -877 0
-984 371 -600 0
-843 723 3 0
99 957 809 0
179 -26 190 0
-240 835 -283 0
886 123 -949 0
336 -545 972 0
-169 -379 620 0
-852 655 -156 0
-834 -276 941 0
-545 -814 712 0
601 -606 69 0
-871 -97 495 0
249 -579 674 0
528 -186 -66 0
362 691 -22 0
-446 -880 -711 0
785 -576 -834 0
235 -297 427 0
758 -587 158 0
483 -371 -591 0
-408 588 313 0
-947 2 -620 0
-471 -765 -759 0
497 -540 -688 0
-288 819 -514 0
-223 306 -43 0
552 754 -790 0
813 -846 -293 0
361 -935 257 0
615 545 308 0
240 -748 262 0
-626 -89 213 0
-828 -971 915 0
-434 233 -341 0
840 -19 212 0
-720 509 140 0
-207 -286 211 0
-957 -602 -573 0
-477 48 -928 0
-973 124 -607 0
-303 427 -835 0
-55 90 266 0
-518 363 561 0
917 939 323 0
742 -12 -648 0
-104 789 -631 0
808 -705 177 0
-667 -392 212 0
707 157 921 0
-473 -738 -829 0
483 -409 28 0
262 -301 -838 0
-640 -325 -409 0
630 73 -491 0
-821 -904 365 0
-68 838 -374 0
326 -661 -187 0
553 113 89 0
-346 369 564 0
710 323 608 0
591 136 999 0
-192 1 -333 0
313 590 -607 0
-894 959 495 0
461 -695 335 0
-226 936 787 0
-382 -330 200 0
-33 990 -92 0
112 -661 454 0
797 96 -619 0
-683 514 494 0
736 554 -718 0
-289 -24 395 0
-184 824 -667 0
734 556 487 0
974 291 -909 0
475 -335 -115 0
-55 587 -860 0
672 291 973 0
-888 -255 830 0
-730 -647 -240 0
-552 994 998 0
309 678 -712 0
660 -46 -798 0
-689 -580 -612 0
-901 723 -753 0
-77 285 376 0
993 -238 -89 0
139 -951 -507 0
-446 494 -758 0
42 513 985 0
757 -80 140 0
320 -764 -114 0
629 -951 -205 0
897 -935 -752 0
936 109 -180 0
-636 -189 -365 0
476 -751 -410 0
415 990 641 0
762 -841 220 0
-191 -686 315 0
-480 -938 -628 0
261 678 102 0
916 42 971 0
-594 -695 -268 0
656 195 -795 0
-20 -475 -736 0
414 -908 -853 0
713 -408 317 0
-735 -916 -347 0
749 -583 800 0
-894 -182 151 0
831 584 887 0
439 29 -411 0
393 969 791 0
538 533 65 0
640 -816 -534 0
800 364 525 0
-399 -697 -154 0
-118 263 -103 0
567 -471 -208 0
-701 -858 -524 0
324 -864 -341 0
846 -894 241 0
-731 -708 -769 0
77 558 533 0
701 -941 467 0
245 -895 -993 0
-344 -63 576 0
46 306 982 0
-259 575 930 0
-999 -108 294 0
-674 56 -563 0
-10 621 257 0
788 -580 816 0
-309 944 306 0
-666 -421 102 0
-621 -221 585 0
371 -16 -995 0
31 566 -132 0
-312 676 -267 0
-327 119 615 0
-91 -103 -370 0
-257 327 -414 0
-5 -29 -241 0
712 752 832 0
679 -829 -315 0
-107 -955 -399 0
-286 718 -371 0
-932 471 300 0
430 515 -513 0
349 -708 602 0
-526 683 324 0
656 875 -702 0
-725 290 259 0
466 180 650 0
251 948 70 0
585 273 -212 0
-106 490 637 0
-715 -817 -556 0
-837 605 -763 0
-428 769 -767 0
641 -882 269 0
140 -128 -243 0
-722 455 -53 0
278 661 -515 0
476 -605 321 0
152 -820 -469 0
-330 -353 -955 0
-294 -898 -133 0
-584 361 91 0
55 -637 541 0
-333 -536 273 0
220 -9 334 0
-164 -982 233 0
-339 -25 965 0
873 -471 -332 0
-309 -946 -8 0
-514 -956 751 0
98 -793 692 0
260 426 693 0
887 354 624 0
-105 14 584 0
405 -593 910 0
-104 -417 -722 0
567 183 -585 0
-320 -989 -663 0
-151 -867 729 0
-353 261 104 0
983 -755 -588 0
-972 608 780 0
828 -784 -632 0
884 -208 549 0
175 -857 520 0
-906 581 671 0
-926 -906 -67 0
-811 -690 -693 0
864 700 -400 0
820 926 531 0
297 333 -625 0
680 -64 743 0
98 -790 529 0
-223 -403 497 0
845 -236 -96 0
3 118 758 0
-308 -229 24 0
-252 -849 718 0
570 -389 -350 0
-23 -850 -66 0
-448 676 264 0
38 282 641 0
15 -153 491 0
78 231 -281 0
830 -805 91 0
428 -116 -995 0
253 -358 -140 0
-677 -898 335 0
-269 41 871 0
579 329 659 0
-969 153 -339 0
-191 317 643 0
-889 198 -536 0
-408 -772 -77 0
582 -80 -615 0
703 940 176 0
168 -330 -413 0
-710 -478 -55 0
983 -711 -197 0
-814 -389 -669 0
836 -242 843 0
-295 844 -137 0
-503 -300 -35 0
406 -933 584 0
-44 -903 753 0
363 -248 287 0
-380 505 -429 0
487 948 -654 0
-784 -460 877 0
-506 351 -860 0
-240 -565 463 0
567 490 -522 0
-654 674 141 0
872 -781 787 0
890 459 -541 0
-989 472 -172 0
265 -430 -174 0
-456 523 998 0
198 -120 -113 0
-114 -798 -157 0
-759 -366 -529 0
-660 538 -298 0
793 723 838 0
-573 159 7 0
404 -71 161 0
-211 655 -540 0
972 -503 458 0
-537 319 -701 0
-591 41 517 0
582 -590 199 0
-574 -775 -126 0
-308 -65 675 0
-441 -936 719 0
632 -809 -920 0
910 -693 602 0
-12 994 194 0
174 56 -650 0
-582 97 -655 0
486 262 -113 0
-7 677 -348 0
737 357 555 0
366 -197 -273 0
995 809 109 0
-938 13 728 0
733 958 478 0
-230 46 -41 0
-270 -709 796 0
-343 -824 408 0
112 -375 -911 0
-750 688 -973 0
-396 621 389 0
865 -212 -555 0
366 -145 789 0
-40 911 50 0
-844 934 75 0
-810 124 -797 0
170 151 -396 0
-764 -1000 433 0
-341 399 -377 0
-597 -199 527 0
145 -666 870 0
697 39 -936 0
-427 480 495 0
722 810 759 0
591 -159 -494 0
-469 497 -791 0
98 83 -499 0
975 -233 -918 0
61 637 -851 0
236 637 -945 0
-612 -326 642 0
-236 689 448 0
328 715 -3 0
495 -200 -643 0
237 684 796 0
156 326 -676 0
-303 509 -338 0
3 -899 261 0
-961 -497 -158 0
538 -777 -883 0
78 -550 -101 0
638 444 -704 0
-807 320 -319 0
918 530 320 0
872 -933 -491 0
-430 -229 -519 0
-329 -882 501 0
791 976 -213 0
-242 574 522 0
-665 -967 -33 0
-511 -258 -909 0
-716 -829 718 0
671 -780 271 0
-570 989 303 0
-626 640 -227 0
-180 -733 68 0
-185 -264 -461 0
166 -575 116 0
115 525 745 0
-752 -240 549 0
-249 -799 -338 0
-257 485 -907 0
586 -949 -642 0
-802 -41 -699 0
196 393 581 0
827 -216 22 0
937 -898 -986 0
748 64 891 0
919 350 -650 0
842 289 -470 0
-748 777 -985 0
-44 959 -322 0
-771 539 619 0
-581 305 200 0
855 272 -524 0
-458 909 -822 0
-37 277 -638 0
577 -653 795 0
-420 150 419 0
-446 424 -656 0
150 -965 399 0
735 -727 -954 0
-812 -967 768 0
-467 -15 -40 0
-114 752 868 0
-92 -924 -659 0
-370 -191 247 0
824 -659 259 0
-844 -914 -101 0
-471 349 -844 0
538 -510 -7 0
-647 -746 521 0
417 79 -634 0
-97 313 -654 0
-434 -940 294 0
317 750 -459 0
-608 224 974 0
-239 754 968 0
-630 -900 510 0
-352 -39 -135 0
-978 837 -305 0
244 -635 -321 0
124 -830 -386 0
861 -888 -907 0
-360 353 267 0
197 -629 430 0
818 25 -399 0
305 -765 -725 0
-221 -76 -237 0
710 -221 562 0
-489 553 -565 0
-186 714 73 0
203 175 -531 0
-721 -373 -89 0
-168 -627 -487 0
-471 -461 283 0
681 -136 -616 0
606 59 58 0
-733 854 -23 0
704 440 605 0
-886 843 -861 0
105 150 866 0
233 -547 -697 0
930 -626 845 0
457 -32 -386 0
988 329 -822 0
-898 529 -913 0
743 300 -116 0
-215 637 535 0
-691 122 -416 0
335 -737 655 0
-185 937 825 0
-575 128 166 0
-996 -630 -758 0
636 -459 883 0
-622 836 -135 0
-414 650 -968 0
244 -533 34 0
-33 618 900 0
-595 -755 -483 0
65 -695 -675 0
-880 -790 920 0
-18 298 -722 0
-979 896 -932 0
-523 -88 -667 0
-148 60 478 0
-221 -484 360 0
-756 -662 -371 0
756 -70 -445 0
457 696 450 0
863 119 907 0
-139 457 -40 0
-467 -245 297 0
580 767 -908 0
-780 -40 -818 0
3 -844 423 0
805 442 93 0
-557 706 47 0
-189 -536 -67 0
896 -885 -889 0
161 205 936 0
25 -365 -354 0
670 371 -545 0
-636 -673 168 0
-756 -489 871 0
310 967 -371 0
-683 -956 406 0
449 -457 271 0
57 663 -541 0
-632 -591 -335 0
-945 -226 402 0
118 99 -705 0
960 -484 293 0
-17 -240 918 0
-167 -230 719 0
169 601 832 0
771 -997 612 0
738 371 -831 0
633 -502 736 0
519 126 449 0
-558 -460 -672 0
-659 557 835 0
491 519 479 0
-66 -926 187 0
556 934 285 0
731 -105 -308 0
-960 929 915 0
116 680 23 0
-811 361 -639 0
950 -815 -577 0
974 -90 -908 0
637 644 -357 0
235 -369 -969 0
901 -845 -912 0
-824 1000 592 0
691 932 976 0
-395 69 -423 0
-723 46 -899 0
755 -95 -614 0
-257 241 -279 0
-63 7 -871 0
860 -209 45 0
977 -251 -49 0
964 547 -909 0
522 -308 -103 0
63 89 -752 0
-36 805 -151 0
325 819 -388 0
-42 963 654 0
209 -716 -252 0
-136 -70 49 0
-348 -334 -366 0
-707 -784 -686 0
605 278 41 0
863 -91 702 0
422 -387 665 0
-714 -170 -833 0
74 -344 -748 0
899 719 705 0
-497 564 400 0
-792 -700 -466 0
-91 -792 -720 0
418 -752 389 0
283 -592 -240 0
18 -899 14 0
-843 -828 862 0
-515 -420 262 0
695 833 -291 0
504 -954 830 0
838 912 307 0
525 -477 -349 0
-963 -814 747 0
-117 -580 110 0
-465 632 817 0
-332 479 912 0
-189 -787 -103 0
-519 -910 225 0
954 -299 -563 0
-827 -226 126 0
836 273 -261 0
-390 -132 619 0
-687 -573 -966 0
-516 -121 -564 0
919 449 637 0
534 92 -355 0
-51 935 481 0
-176 90 -381 0
46 -502 959 0
252 848 279 0
859 -626 601 0
214 415 389 0
-798 327 -748 0
491 443 -497 0
378 -398 -731 0
-82 -18 462 0
-699 595 -478 0
-526 567 906 0
650 864 -552 0
49 -161 -612 0
939 261 -539 0
-889 22 993 0
273 -907 730 0
-382 282 999 0
-827 581 -623 0
205 188 -580 0
-286 -787 364 0
723 -288 -560 0
-548 -858 358 0
-932 929 -367 0
448 438 -966 0
-780 -434 5 0
438 -492 398 0
444 427 421 0
-22 -874 688 0
-189 -79 -289 0
-113 871 816 0
794 540 -913 0
-861 -248 -597 0
-750 131 -392 0
-529 -685 -328 0
-266 879 298 0
-926 -952 -737 0
498 287 84 0
392 -434 -741 0
-729 68 -698 0
-33 24 -989 0
-441 -989 274 0
-163 -585 43 0
-744 483 840 0
554 -8 687 0
723 813 -602 0
-219 972 -320 0
-610 544 -537 0
-241 -70 776 0
-937 983 242 0
-477 170 65 0
-396 -220 -574 0
761 -468 971 0
-840 540 -446 0
-794 192 619 0
237 933 829 0
-40 389 922 0
-302 576 -404 0
-474 -579 157 0
-744 782 -59 0
-837 -599 -970 0
894 395 8 0
128 687 310 0
954 -278 795 0
-591 261 52 0
-259 -111 140 0
-744 809 -620 0
101 -6 -746 0
-39 -153 970 0
775 -212 485 0
-516 -798 -700 0
806 348 240 0
576 330 379 0
520 228 -575 0
-818 51 423 0
681 355 -719 0
-278 830 -714 0
-509 961 -261 0
459 773 -294 0
-139 89 -594 0
-332 -212 -398 0
-884 142 -79 0
490 -15 319 0
-572 310 -519 0
-366 -739 947 0
439 441 214 0
181 -820 -958 0
-281 -112 806 0
726 -635 478 0
977 -560 981 0
696 -880 229 0
340 466 -115 0
-114 -404 3 0
-46 -965 841 0
242 623 -759 0
602 -587 512 0
270 -355 16 0
-712 487 296 0
-209 694 -189 0
-226 636 935 0
-82 -83 -378 0
-296 76 -493 0
945 323 -722 0
-122 -195 -500 0
841 -876 509 0
726 462 -846 0
-505 963 -481 0
-793 416 212 0
57 -994 360 0
992 -9 -784 0
342 -955 -201 0
88 710 -102 0
-67 464 774 0
954 -622 -986 0
-118 732 -877 0
756 260 386 0
18 470 -532 0
-139 -115 -32 0
-205 -635 -753 0
-777 487 154 0
-751 -725 966 0
429 761 -670 0
951 -902 -357 0
-813 708 314 0
-287 -401 -140 0
996 -420 602 0
-917 914 620 0
925 236 861 0
-592 433 681 0
-552 -693 420 0
479 -721 908 0
-253 -133 395 0
769 -129 -42 0
-223 -372 -387 0
-904 344 814 0
948 596 347 0
591 -692 709 0
25 -608 858 0
329 140 717 0
-951 -466 73 0
145 977 -682 0
250 -39 958 0
-343 710 995 0
-406 772 -158 0
-130 -744 73 0
803 255 -207 0
-254 -875 862 0
-921 499 518 0
-526 -133 -995 0
-884 338 -957 0
659 36 280 0
862 928 -565 0
-204 -806 48 0
-74 3 192 0
11 -273 549 0
-575 -921 -353 0
762 132 787 0
-993 -232 430 0
-595 315 819 0
230 -35 835 0
503 -241 -889 0
161 896 -294 0
-822 345 789 0
982 912 729 0
757 -347 170 0
561 -753 -868 0
-369 475 827 0
-141 -513 46 0
-958 -537 571 0
121 87 -552 0
-877 656 -605 0
-913 -26 770 0
642 245 -550 0
-762 -868 630 0
180 -744 121 0
-914 484 -616 0
494 -24 -42 0
615 -159 906 0
403 -616 -323 0
432 -158 59 0
-189 792 226 0
-468 -609 -531 0
398 -300 58 0
-66 849 572 0
-225 2 712 0
835 -809 8 0
-490 452 -576 0
808 342 443 0
180 559 -466 0
423 -718 497 0
-779 97 -814 0
513 -468 -92 0
-152 43 -503 0
85 846 864 0
-683 535 -519 0
833 299 470 0
-711 -9 138 0
-137 971 -47 0
132 544 686 0
-409 610 -306 0
-505 122 -634 0
903 -179 510 0
-385 539 -910 0
257 -848 -411 0
180 -21 -797 0
-973 -702 706 0
351 -136 -611 0
357 827 419 0
-272 367 -123 0
-166 348 -626 0
792 831 689 0
-626 -153 -128 0
-807 -434 -530 0
-637 772 386 0
366 -194 -311 0
-445 -125 -894 0
390 -186 403 0
475 -169 760 0
-727 63 500 0
-629 -553 -988 0
-274 -55 155 0
-100 144 -935 0
-471 -198 630 0
208 587 -964 0
-204 33 947 0
-459 -996 442 0
-23 236 -737 0
-977 -821 -390 0
826 651 261 0
178 834 -822 0
-475 -913 -44 0
-113 494 -625 0
988 343 966 0
-193 -291 -911 0
554 645 368 0
822 -387 -399 0
-103 -557 194 0
-670 -768 424 0
-352 -508 -756 0
6 -286 18 0
366 169 -300 0
-563 -9 -337 0
870 -129 -485 0
676 369 -460 0
-237 -210 200 0
345 915 809 0
146 -865 -401 0
-941 181 110 0
-733 -931 336 0
-890 -658 565 0
-262 -705 324 0
-99 -938 868 0
777 -240 -613 0
-520 998 -872 0
265 773 -245 0
423 859 979 0
154 -451 -512 0
825 -683 949 0
-473 972 255 0
872 929 -35 0
855 -79 274 0
-100 -112 -893 0
560 -168 131 0
-626 -680 -473 0
938 -616 811 0
-805 -631 -929 0
439 842 200 0
-146 977 508 0
-181 -81 -413 0
221 -727 -390 0
-902 326 -943 0
-653 -786 -554 0
-505 958 -851 0
129 -864 229 0
851 -130 -968 0
383 480 -57 0
-687 283 819 0
-416 450 -688 0
509 431 -188 0
304 -464 300 0
544 261 891 0
789 -31 -634 0
366 654 -86 0
-354 888 -288 0
-368 296 -573 0
527 100 259 0
-411 301 -713 0
445 -925 -600 0
-169 -318 239 0
533 133 -233 0
-851 156 -872 0
-9 -360 -566 0
-42 742 279 0
-71 -380 620 0
-225 480 499 0
-452 -208 92 0
599 239 249 0
-23 -345 -280 0
-1000 68 214 0
-927 -92 -21 0
-314 -360 556 0
-580 682 -425 0
-792 -619 449 0
382 -344 -787 0
544 443 91 0
252 907 206 0
160 -219 690 0
-219 144 -2 0
-807 660 -479 0
338 -91 -146 0
212 -872 -191 0
867 -467 -82 0
46 613 197 0
251 417 908 0
-173 -171 -349 0
161 -83 162 0
471 111 574 0
841 185 644 0
-2 148 296 0
409 -279 380 0
494 114 645 0
172 575 -843 0
-675 263 369 0
296 -942 -836 0
682 -762 238 0
-638 264 40 0
641 -746 -960 0
805 126 -544 0
537 -867 -32 0
-398 802 -789 0
-14 -173 505 0
-52 -586 959 0
734 662 831 0
-978 893 525 0
-998 390 -228 0
305 -414 173 0
540 -229 -366 0
637 -336 -198 0
-66 -407 -265 0
-990 586 182 0
481 540 -928 0
55 -815 -63 0
406 -905 -311 0
760 -476 -413 0
-18 -782 -491 0
941 -358 -9 0
-437 -41 -324 0
-955 -917 706 0
-787 464 -237 0
-461 -110 -222 0
-260 -505 -605 0
-563 -162 497 0
384 114 -191 0
904 -364 -160 0
-876 798 -575 0
-570 993 788 0
-193 694 -78 0
547 726 -817 0
-253 -209 21 0
-19 864 -451 0
-853 -47 671 0
-2 696 -484 0
714 -183 -734 0
432 -500 43 0
427 959 -573 0
431 896 436 0
-918 -591 395 0
113 -147 -927 0
191 -58 763 0
-58 558 -470 0
-366 -38 572 0
587 643 847 0
-381 385 -89 0
444 811 -807 0
335 649 -530 0
846 683 649 0
480 -419 -518 0
581 827 -129 0
657 -686 569 0
482 -974 -235 0
968 -182 -354 0
-795 152 -545 0
684 174 661 0
388 98 -643 0
-851 931 -228 0
-168 593 -746 0
267 37 -670 0
-934 93 -271 0
811 -4 -376 0
831 830 -819 0
750 25 790 0
-701 337 312 0
-837 158 796 0
-161 -640 453 0
-237 -409 -386 0
-96 335 374 0
426 -112 -123 0
-955 -866 637 0
562 225 -344 0
378 -874 615 0
-247 -55 692 0
-916 -401 -25 0
-202 -840 -469 0
-856 -34 -469 0
944 339 948 0
417 215 -404 0
641 -150 -547 0
862 703 -307 0
-501 -791 899 0
-978 936 -41 0
-549 -893 951 0
-857 24 -182 0
-501 360 -585 0
310 301 30 0
-164 3 965 0
-252 -532 301 0
-697 -298 495 0
903 563 166 0
152 -503 -705 0
-230 -795 -128 0
986 600 849 0
392 -611 -271 0
-831 189 -723 0
364 -591 -737 0
-249 127 546 0
-269 -75 633 0
-362 994 839 0
12 863 -921 0
-362 -294 -428 0
-175 -773 22 0
587 981 385 0
583 232 -568 0
-765 -651 -743 0
815 786 -631 0
750 -255 -317 0
-374 569 -754 0
-171 317 -639 0
37 -215 -856 0
495 225 937 0
-31 666 -500 0
967 344 -538 0
-133 -934 -104 0
964 185 448 0
833 527 -583 0
355 592 503 0
-804 370 -598 0
-561 844 991 0
-671 -184 143 0
-382 514 709 0
157 -671 -1000 0
-15 -469 -769 0
-130 -420 -994 0
-502 141 94 0
705 -514 -316 0
95 499 785 0
-370 245 523 0
-479 801 -907 0
586 -916 688 0
-649 624 -924 0
-719 630 -14 0
449 251 -961 0
207 -801 -946 0
-592 -301 -883 0
844 914 319 0
13 907 -320 0
258 71 418 0
-23 -536 -412 0
-713 -6 185 0
681 -612 269 0
966 897 -34 0
-328 -906 252 0
60 -648 347 0
-937 -379 583 0
-182 -143 130 0
364 -816 -742 0
876 -110 60 0
-991 368 4 0
-274 -500 102 0
619 -408 -238 0
-921 -465 -459 0
859 -104 -267 0
362 268 -23 0
762 981 -914 0
318 -117 -563 0
-800 -32 813 0
-181 -945 -35 0
-690 166 -164 0
-18 377 -244 0
46 748 -768 0
185 459 -148 0
-101 -307 604 0
-273 148 -659 0
-807 8 -872 0
-794 -940 813 0
-535 -299 -110 0
-325 -929 993 0
423 -412 738 0
93 -188 -711 0
959 404 684 0
-176 -75 272 0
26 -208 594 0
401 -601 101 0
618 -142 -98 0
-252 990 571 0
349 -472 -64 0
-16 284 -63 0
21 780 -200 0
-819 704 522 0
-160 90 773 0
708 -869 -706 0
506 -963 -765 0
353 -258 -964 0
-569 128 215 0
-76 469 -477 0
982 735 149 0
411 207 -431 0
-834 470 310 0
367 117 554 0
-363 -958 -38 0
-244 640 -353 0
-715 749 365 0
162 973 -449 0
916 -506 -324 0
168 -896 -620 0
903 382 400 0
-577 866 196 0
-632 127 543 0
-51 586 -907 0
503 322 936 0
690 -881 -449 0
746 601 -916 0
-230 -404 598 0
-219 90 459 0
587 315 -706 0
-548 831 850 0
-920 -290 -617 0
61 773 -864 0
381 -400 -949 0
922 418 -483 0
-516 -699 747 0
-937 783 447 0
-912 -92 -125 0
-465 687 631 0
966 -167 323 0
-756 582 972 0
651 559 84 0
-757 892 215 0
-474 494 -92 0
-597 355 -574 0
-441 -965 528 0
-819 -424 -875 0
885 -84 -161 0
-392 -390 -942 0
416 -879 -150 0
98 713 934 0
-948 -500 -441 0
-127 34 -508 0
-737 -595 842 0
56 699 -431 0
-405 414 588 0
711 -476 -625 0
290 -782 -556 0
-600 201 117 0
-413 135 -204 0
35 242 80 0
806 722 -156 0
964 -396 -404 0
-815 -719 898 0
135 189 891 0
235 435 124 0
815 82 -93 0
-770 918 161 0
-77 33 -358 0
-541 -859 -891 0
-439 489 -299 0
-996 -495 251 0
-71 -661 -128 0
536 296 15 0
35 -452 -949 0
-634 -377 373 0
874 490 711 0
505 -146 783 0
-604 -832 57 0
981 286 -62 0
221 -807 -782 0
225 862 -704 0
-719 -711 -471 0
-438 812 367 0
749 281 390 0
-555 875 390 0
787 485 499 0
192 60 278 0
703 -897 -102 0
-381 -787 113 0
-817 -537 -14 0
172 -306 896 0
-451 378 -700 0
25 354 -477 0
682 -354 714 0
953 -268 -284 0
728 76 -320 0
-326 906 -220 0
-724 494 941 0
-867 -79 233 0
604 55 -403 0
-333 -755 249 0
-909 -869 374 0
-572 -615 941 0
782 423 366 0
-919 -941 476 0
599 414 394 0
730 235 713 0
720 -276 -71 0
-226 -536 -216 0
-106 387 722 0
709 889 -233 0
-761 232 -253 0
762 -12 63 0
597 -843 -504 0
20 -951 -508 0
981 571 -347 0
-55 177 318 0
-567 758 -716 0
-531 -986 -683 0
364 -257 -779 0
576 573 13 0
-592 -305 -606 0
-551 498 -116 0
653 -171 360 0
823 -36 981 0
-794 -277 -143 0
889 -707 -584 0
867 -5 -164 0
-263 674 -334 0
-115 889 425 0
-764 -551 -478 0
945 -228 207 0
722 306 -509 0
991 -542 93 0
440 -153 -368 0
120 810 908 0
-804 -332 -81 0
111 -28 265 0
739 -308 -653 0
-336 163 -266 0
722 564 220 0
-580 906 218 0
-979 -664 8 0
-164 -338 148 0
169 232 686 0
-154 295 -250 0
520 -535 -708 0
515 -160 7 0
-662 316 284 0
761 -770 432 0
870 -734 842 0
-91 208 219 0
64 -356 -173 0
92 -175 599 0
-42 540 -641 0
223 876 36 0
288 -922 -74 0
-188 302 -474 0
-752 224 -826 0
471 207 -522 0
534 -166 -16 0
797 -844 -696 0
-912 -554 890 0
139 429 -473 0
764 -824 630 0
366 260 -315 0
388 147 739 0
-660 -563 -360 0
-539 402 -593 0
903 -421 -379 0
666 -284 -63 0
-716 -583 -744 0
211 537 249 0
986 -576 -575 0
178 -506 835 0
100 187 -79 0
-888 480 946 0
829 42 863 0
-275 222 522 0
347 -50 -886 0
-163 -695 219 0
-806 -964 53 0
-434 693 912 0
777 -305 904 0
333 800 268 0
417 978 -69 0
498 -939 -891 0
-868 168 959 0
-996 97 682 0
-632 320 572 0
-470 782 -953 0
579 9 -508 0
716 77 364 0
-826 -482 -417 0
391 745 -878 0
412 390 -261 0
889 165 -742 0
55 -956 686 0
-840 -124 -960 0
-290 -789 220 0
842 638 530 0
-956 419 -267 0
739 -671 864 0
787 850 918 0
667 -327 643 0
-289 -885 -582 0
-686 481 935 0
-721 -339 -563 0
724 -564 924 0
688 -633 -419 0
803 -632 739 0
505 -389 -267 0
492 145 537 0
176 206 560 0
353 476 641 0
-284 -444 -625 0
912 -309 920 0
29 100 265 0
-790 -973 -987 0
-50 47 734 0
-477 -235 932 0
-446 982 -258 0
464 161 -480 0
54 906 -360 0
430 317 384 0
-370 -679 -573 0
237 332 -545 0
-651 428 -387 0
-223 592 -251 0
55 -300 189 0
270 -483 -746 0
-560 -987 782 0
434 459 405 0
714 -342 -370 0
-804 -887 10 0
701 723 -197 0
-635 -809 -363 0
881 -1000 -375 0
-376 -292 -726 0
-668 380 -843 0
-174 202 -753 0
44 -69 -534 0
136 -427 473 0
822 -484 152 0
609 -669 -98 0
181 303 938 0
-583 468 -307 0
-697 31 608 0
-489 355 498 0
362 -445 -402 0
-768 -698 16 0
-109 136 -513 0
-662 504 -868 0
-69 -203 -741 0
-730 381 351 0
660 32 -566 0
-652 -789 -73 0
934 495 940 0
282 190 -2 0
-608 259 -75 0
100 -262 -75 0
-504 694 -574 0
-918 -503 438 0
136 899 347 0
-458 172 -265 0
473 -963 -378 0
-268 842 384 0
-561 643 195 0
-62 -126 -862 0
294 757 -644 0
-900 -806 365 0
463 196 -144 0
818 166 -794 0
-417 -398 -593 0
814 564 631 0
-666 742 -378 0
-303 323 -944 0
-790 812 413 0
26 273 -295 0
668 -376 368 0
-42 -992 410 0
919 403 940 0
929 -114 282 0
87 -485 -158 0
-540 -362 -419 0
-556 208 381 0
-86 673 -165 0
-21 533 909 0
-302 641 695 0
-128 529 -715 0
-805 -613 334 0
622 145 526 0
-156 89 930 0
-987 -11 901 0
431 986 -525 0
316 971 -50 0
78 441 -271 0
-420 306 -975 0
-998 -199 290 0
100 960 291 0
295 101 -460 0
194 -491 -649 0
650 610 -225 0
388 -966 465 0
906 570 -994 0
386 513 815 0
238 505 205 0
733 -925 -568 0
588 324 -833 0
978 328 -427 0
376 132 717 0
327 -586 -813 0
-974 -342 179 0
-940 448 726 0
-270 532 983 0
-241 116 768 0
180 -873 -133 0
7 930 -204 0
-840 589 35 0
-305 614 -935 0
870 302 994 0
156 838 794 0
-649 -913 -134 0
698 -384 -330 0
-794 -131 764 0
-760 -249 -281 0
283 351 -700 0
-508 914 -39 0
-199 745 -457 0
749 364 -567 0
-666 391 -886 0
726 383 269 0
-89 -48 927 0
556 763 -130 0
395 -562 -607 0
-423 862 29 0
736 594 622 0
735 -371 356 0
514 761 -332 0
-628 -683 538 0
-89 603 108 0
-884 -234 -678 0
-947 -443 751 0
-246 -959 -680 0
-648 -857 958 0
156 111 -129 0
-61 -361 -531 0
857 -871 324 0
713 468 520 0
-570 853 240 0
-843 -790 -23 0
-117 -288 -108 0
808 -319 716 0
-54 697 99 0
256 -210 -98 0
489 467 596 0
-466 -546 952 0
135 430 796 0
-915 -425 -419 0
-263 358 459 0
249 -26 -503 0
-890 628 170 0
418 999 -371 0
433 -994 -436 0
479 -114 -832 0
80 515 -997 0
514 -857 -664 0
474 274 -38 0
-449 709 -351 0
-270 -750 -937 0
636 717 890 0
-843 -428 -957 0
860 516 799 0
-44 928 -332 0
129 -24 -363 0
203 -789 710 0
772 -364 596 0
739 537 -469 0
246 -910 327 0
443 -737 -674 0
485 575 -583 0
-533 350 209 0
536 -172 -624 0
-805 -418 196 0
-523 -231 734 0
863 -581 125 0
-622 237 707 0
19 585 901 0
-614 780 -873 0
131 885 -869 0
555 776 -644 0
-47 145 103 0
179 -136 -494 0
-928 -228 917 0
508 -963 -37 0
-575 -566 571 0
263 656 165 0
335 701 -278 0
-910 798 -979 0
-464 -288 -83 0
-465 -417 -43 0
-628 891 -661 0
-514 12 -608 0
-949 324 936 0
390 -553 256 0
-886 609 451 0
612 -948 810 0
-40 -677 661 0
-190 14 475 0
315 -989 180 0
625 -667 17 0
-332 769 410 0
224 57 -344 0
619 -458 -52 0
685 -590 -161 0
-989 506 -66 0
-773 651 746 0
-337 225 120 0
-601 -916 753 0
666 -218 847 0
393 -464 880 0
707 636 648 0
-469 -108 -332 0
-452 -287 -198 0
821 286 -447 0
683 -451 168 0
225 40 540 0
828 -687 -745 0
-628 -12 930 0
516 230 888 0
48 140 153 0
-950 378 -273 0
897 946 306 0
330 -956 -822 0
911 525 702 0
-712 868 534 0
-991 -198 375 0
662 749 -237 0
-271 -670 -397 0
-997 -426 -588 0
-516 976 -368 0
827 280 -311 0
498 478 -188 0
-514 -193 124 0
-480 -61 -738 0
259 648 587 0
-966 -893 -928 0
-122 133 210 0
757 -829 923 0
30 980 -347 0
-647 40 167 0
278 916 924 0
-378 -609 -808 0
-378 546 805 0
-555 49 442 0
475 326 -86 0
240 -386 -561 0
-535 779 273 0
-785 438 463 0
-441 185 852 0
-383 535 -617 0
752 -908 -442 0
-375 -90 725 0
175 347 -306 0
-773 -90 545 0
-994 -532 -270 0
-876 469 -650 0
254 653 673 0
666 810 -618 0
-338 -109 -10 0
841 878 322 0
-635 -85 -630 0
-311 -26 246 0
333 -252 588 0
-265 -89 354 0
450 -302 -644 0
780 -207 275 0
-904 -274 261 0
-921 558 -566 0
-288 130 939 0
-687 -197 218 0
-506 189 125 0
658 534 -324 0
223 877 113 0
800 700 481 0
255 582 37 0
105 -224 93 0
-362 649 168 0
-184 -556 926 0
-218 499 -882 0
-293 112 520 0
326 -32 300 0
486 -24 -637 0
974 540 479 0
266 541 138 0
167 -938 339 0
-607 -673 -114 0
177 574 890 0
-355 -477 -125 0
925 545 362 0
-113 595 431 0
266 489 344 0
-533 59 -439 0
-595 297 -887 0
873 -107 -798 0
3 604 452 0
-458 860 -950 0
710 -322 17 0
380 96 543 0
-559 -942 -26 0
-119 -599 -927 0
-181 918 -87 0
-100 907 -587 0
71 -302 -881 0
-252 -402 604 0
783 -498 -65 0
-551 -271 -521 0
349 446 992 0
462 46 -240 0
669 -953 -917 0
-48 -628 -79 0
-754 861 730 0
760 -238 235 0
-825 -650 -447 0
-975 -737 657 0
-643 396 384 0
-500 -949 578 0
736 -341 -184 0
125 109 922 0
-379 -143 932 0
626 550 754 0
758 485 -369 0
-583 -767 -405 0
-495 510 39 0
14 525 -496 0
-902 -545 683 0
-626 945 394 0
586 -621 -340 0
965 224 611 0
868 454 23 0
506 -213 -555 0
-609 -917 176 0
-992 -52 -529 0
-748 56 -641 0
824 -735 -41 0
-5 -591 642 0
888 -792 -253 0
-960 965 229 0
-758 922 -778 0
304 438 -296 0
-357 -682 -161 0
7 -564 -563 0
-890 996 -582 0
23 -173 747 0
835 573 -966 0
-565 -639 -217 0
-231 99 -441 0
-116 700 309 0
-369 -80 626 0
-179 -729 631 0
-940 422 -301 0
251 300 703 0
-266 826 -668 0
796 589 470 0
621 -53 -1000 0
726 147 737 0
-948 729 -182 0
453 -509 815 0
233 161 611 0
620 -23 -544 0
628 -483 959 0
-378 778 348 0
480 -429 -506 0
-777 -823 -163 0
-996 844 -913 0
-179 -385 -168 0
727 152 853 0
-71 699 -197 0
-392 -676 -383 0
712 272 869 0
-332 399 20 0
122 -544 -461 0
-165 -93 969 0
313 139 -830 0
86 480 45 0
754 412 -49 0
-69 256 -202 0
-396 -47 327 0
744 937 -541 0
268 626 961 0
576 -731 -123 0
849 78 74 0
-136 -484 -129 0
-458 485 853 0
-95 -499 -39 0
-956 891 124 0
541 -743 -790 0
-861 339 182 0
-116 -535 952 0
-218 644 991 0
832 370 -609 0
96 -377 668 0
-746 179 830 0
142 -150 463 0
-733 920 5 0
-408 -232 -261 0
636 -75 -977 0
-5 -532 290 0
-795 -137 -497 0
577 329 274 0
515 -363 619 0
690 763 -166 0
982 -150 926 0
36 -441 782 0
-281 979 -69 0
418 -894 787 0
-924 -20 -308 0
135 -909 -36 0
917 581 -994 0
88 428 -295 0
741 -700 538 0
725 710 -628 0
5 -78 -921 0
764 -832 -15 0
265 -764 141 0
-585 733 -234 0
112 -166 -99 0
293 -501 -393 0
447 -766 571 0
348 -149 -497 0
-67 -217 417 0
51 -209 -170 0
-357 -788 -546 0
557 822 -558 0
-269 536 -857 0
513 237 -524 0
675 76 491 0
-140 -732 -602 0
-630 -354 -822 0
72 425 643 0
-991 -694 795 0
541 -700 -235 0
46 -49 735 0
327 43 846 0
200 112 -615 0
727 -988 -981 0
520 -682 -149 0
669 78 -717 0
29 -550 -72 0
481 -341 602 0
-962 -97 -589 0
419 7 247 0
-479 770 690 0
124 370 329 0
-822 182 69 0
919 -54 734 0
-879 260 -955 0
459 -273 -534 0
80 178 -783 0
226 -232 -966 0
-388 -532 -605 0
-643 -692 -664 0
-713 276 960 0
647 27 -496 0
-67 351 454 0
-858 -349 -728 0
-722 885 -133 0
879 406 -370 0
27 758 -175 0
-636 -14 -945 0
475 249 -903 0
-358 541 301 0
-147 -132 -230 0
30 -941 -343 0
400 -957 783 0
-676 847 101 0
-128 695 -463 0
622 581 46 0
-919 -64 4 0
670 826 -714 0
-669 584 414 0
27 399 -345 0
-34 -304 -227 0
-881 888 144 0
-650 219 -306 0
-131 -313 542 0
276 -234 -309 0
453 882 -238 0
844 733 -200 0
-313 -155 -582 0
389 -781 429 0
758 -653 -691 0
761 -391 187 0
-713 522 -346 0
137 346 895 0
83 -45 -195 0
193 -97 -998 0
-388 -16 -892 0
-45 -499 -317 0
-549 895 278 0
570 -40 990 0
-391 -764 392 0
216 -952 -825 0
-957 369 733 0
-492 940 179 0
87 -367 41 0
-340 889 -455 0
-822 219 365 0
-190 667 -11 0
-760 -68 -128 0
-47 -10 -406 0
-941 298 224 0
-587 235 -874 0
-433 -675 -565 0
467 433 440 0
348 -829 -470 0
-529 -378 -506 0
-223 872 795 0
-152 -324 685 0
-565 315 653 0
994 511 36 0
-370 53 -694 0
404 -410 -132 0
-215 -812 868 0
-526 -598 -307 0
130 732 -546 0
-241 917 -940 0
-125 151 212 0
-393 -502 -975 0
-426 -26 -70 0
929 -178 631 0
-184 626 -293 0
899 -408 -611 0
851 535 -90 0
362 -397 553 0
993 180 221 0
-155 -948 -860 0
816 815 -849 0
-450 598 31 0
200 -604 894 0
984 11 -268 0
418 -183 633 0
-553 -210 626 0
-698 -355 -546 0
488 -758 562 0
-279 -242 -581 0
769 -723 585 0
216 730 764 0
527 249 -155 0
850 -304 -342 0
844 -288 -160 0
-924 959 38 0
552 448 -92 0
575 99 -431 0
719 -987 -363 0
697 -412 429 0
403 -833 604 0
-150 884 -749 0
226 606 957 0
-120 428 -616 0
238 -722 -82 0
-231 388 -629 0
101 609 -323 0
-487 775 -922 0
-294 780 702 0
-133 798 761 0
-825 -491 -140 0
-50 -848 589 0
-850 -719 -539 0
-859 -966 -185 0
-612 -41 327 0
-428 21 -770 0
-531 485 -54 0
250 916 -651 0
-240 892 -369 0
-53 -786 -20 0
-976 -397 -758 0
348 -387 -74 0
952 -68 279 0
-859 -856 -232 0
938 885 -168 0
-451 56 754 0
72 -764 -370 0
-398 535 722 0
-42 -355 -245 0
962 88 -416 0
-444 -714 498 0
-617 -101 973 0
-639 -292 -336 0
835 -605 -141 0
-320 13 -657 0
-579 546 -478 0
-832 -173 55 0
201 704 -777 0
-923 62 -906 0
590 239 -712 0
-614 290 956 0
-340 -920 -242 0
-316 113 -829 0
178 -206 350 0
-976 -469 226 0
-936 816 298 0
-733 -806 -47 0
-922 -827 510 0
277 383 794 0
664 -680 -276 0
-26 -846 573 0
-922 -727 -882 0
-775 386 9 0
-595 -738 -428 0
612 289 -280 0
546 -91 -524 0
701 452 -587 0
727 -216 -299 0
-271 -819 -233 0
-150 -240 -856 0
-469 -195 798 0
-510 200 575 0
637 -587 -525 0
352 -466 601 0
108 307 56 0
311 974 954 0
398 883 -845 0
607 -367 -910 0
679 -502 583 0
-376 257 11 0
340 799 498 0
-652 98 498 0
-755 298 870 0
444 698 792 0
462 -722 -809 0
12 -985 -282 0
-207 765 340 0
402 -869 -706 0
-900 -472 -943 0
-936 -923 442 0
-398 780 400 0
-739 -754 353 0
972 -663 -328 0
-452 419 687 0
-354 421 730 0
-75 838 -543 0
-209 -651 297 0
-710 977 -144 0
895 977 229 0
-347 -700 -957 0
-847 -940 13 0
41 -731 254 0
873 -306 -789 0
-251 694 -60 0
-253 101 -34 0
978 -694 493 0
813 -717 -269 0
432 -424 233 0
-143 -227 747 0
608 732 821 0
210 -569 -668 0
250 -317 808 0
208 -194 -831 0
-415 -26 295 0
786 537 -735 0
-938 410 911 0
208 -264 101 0
-844 689 -46 0
-229 -14 -344 0
-155 144 -291 0
184 -378 -125 0
-742 -293 -714 0
-810 181 -185 0
-598 837 -996 0
-291 -219 143 0
-374 -392 -333 0
-112 -515 -644 0
741 204 658 0
481 814 -919 0
292 877 -828 0
104 -410 856 0
-520 -570 -606 0
-780 -963 -997 0
288 701 112 0
194 282 887 0
605 918 -543 0
-87 11 -501 0
-322 -319 -962 0
610 -329 557 0
41 -529 -86 0
835 -547 -638 0
-186 -30 532 0
-671 -717 -613 0
32 268 213 0
493 -508 -340 0
508 -677 -496 0
591 274 -494 0
-747 -676 872 0
551 469 -934 0
-715 77 -451 0
200 986 -215 0
789 92 997 0
-847 -285 -741 0
699 860 -223 0
-860 -688 -332 0
758 -319 -453 0
165 -235 834 0
963 -793 -214 0
-964 974 883 0
-965 751 -441 0
649 505 692 0
287 -22 -215 0
775 -668 436 0
-572 -142 894 0
-697 -287 -357 0
616 825 611 0
-242 -482 277 0
-846 -338 -721 0
-80 827 -493 0
306 -314 -857 0
-32 -469 -514 0
-198 492 842 0
460 517 -619 0
364 -634 564 0
945 810 201 0
327 565 523 0
204 732 -118 0
-174 622 641 0
-619 901 51 0
661 -81 144 0
-335 -944 -526 0
-253 761 -954 0
-131 -387 -79 0
-681 -579 -929 0
669 -497 448 0
-160 528 -333 0
-962 -668 -78 0
957 -796 418 0
55 -493 672 0
652 -925 507 0
-122 -245 -853 0
83 -466 292 0
-880 -424 -998 0
-715 972 258 0
-55 400 -186 0
-475 410 -699 0
28 -786 295 0
830 974 -653 0
762 -789 54 0
144 -669 947 0
871 187 -725 0
-203 974 -718 0
-300 -805 -198 0
145 -390 974 0
-417 -160 538 0
797 -269 -364 0
663 999 140 0
403 241 -285 0
499 582 -321 0
742 -988 727 0
-287 -203 -236 0
576 -198 621 0
702 -912 836 0
-176 -634 -400 0
-918 857 -831 0
-713 177 -922 0
-24 -641 -251 0
106 -693 790 0
-966 -298 -680 0
-246 378 -418 0
-928 -64 -995 0
-705 -561 910 0
6 -202 -717 0
490 -899 -671 0
825 430 856 0
163 625 743 0
733 -131 346 0
497 372 -207 0
269 973 160 0
337 67 400 0
818 295 630 0
-305 -125 153 0
600 -94 -405 0
718 -979 628 0
-100 -603 533 0
584 -633 -469 0
-222 -523 376 0
765 212 991 0
900 -60 832 0
-677 149 -392 0
210 -575 263 0
353 807 104 0
290 -301 730 0
634 971 27 0
-373 766 -920 0
-433 301 993 0
480 5 643 0
713 -783 -151 0
-397 -546 723 0
-868 -498 -948 0
-270 242 837 0
324 -788 984 0
-939 874 -135 0
-686 35 622 0
-715 901 -401 0
158 891 -983 0
-343 -205 737 0
590 843 1 0
360 777 -255 0
-908 -273 -768 0
394 267 302 0
-95 -5 -610 0
-188 -856 550 0
-731 562 -301 0
711 -952 115 0
-580 -386 -833 0
146 -426 33 0
131 612 681 0
562 981 -41 0
-255 342 124 0
-833 -408 -209 0
176 497 -12 0
-635 83 623 0
558 -846 -301 0
426 840 -377 0
-631 592 -912 0
-302 -720 193 0
452 -746 -962 0
500 967 -29 0
980 -58 -866 0
252 235 -797 0
-585 -186 973 0
-764 -504 -595 0
-885 -435 -150 0
-91 -987 -579 0
36 828 -159 0
816 -767 -896 0
894 994 160 0
706 352 634 0
182 -988 619 0
575 -48 -385 0
486 -265 399 0
-297 -994 -185 0
303 368 -687 0
448 -177 -296 0
484 488 -273 0
-469 -952 -118 0
830 175 -828 0
-316 -584 -681 0
962 614 353 0
-323 -343 569 0
961 768 195 0
-600 -449 -716 0
-362 197 -521 0
521 -20 -919 0
8 -872 454 0
556 848 125 0
-958 824 274 0
375 -391 -476 0
411 590 248 0
611 -640 -530 0
-380 860 -995 0
613 -773 -849 0
-925 464 -318 0
-985 -262 686 0
-545 654 95 0
413 -989 724 0
-634 -738 -707 0
-726 -106 936 0
692 493 -658 0
-910 -32 141 0
500 128 -535 0
-146 981 -79 0
234 -503 327 0
-873 -484 -279 0
507 23 -857 0
-40 617 884 0
-47 670 -644 0
-634 -960 199 0
-436 281 -173 0
148 348 423 0
96 298 -455 0
789 763 112 0
886 -176 725 0
-450 -541 128 0
906 215 -42 0
-112 13 966 0
56 715 239 0
93 -245 309 0
315 -281 475 0
309 69 -563 0
146 802 751 0
246 140 381 0
-442 -457 -516 0
29 -781 753 0
-873 -945 -701 0
-828 -856 727 0
-638 -855 23 0
230 256 -91 0
-168 -143 -75 0
707 -674 451 0
-498 615 568 0
92 740 482 0
44 227 430 0
807 962 -463 0
-819 398 180 0
301 826 370 0
687 -730 -463 0
144 -492 906 0
594 -56 -300 0
-895 -907 250 0
-642 489 585 0
184 977 364 0
448 -193 269 0
-713 -405 -273 0
587 -205 -147 0
-778 316 916 0
709 -443 -44 0
-857 -962 -96 0
-236 687 -717 0
162 -855 -826 0
541 734 837 0
-11 -661 -271 0
-499 930 -781 0
-462 780 209 0
-713 -600 568 0
351 606 -187 0
671 410 -637 0
-80 160 967 0
-292 892 408 0
-866 -675 946 0
283 366 937 0
-555 -51 790 0
207 -323 188 0
-249 643 -827 0
-351 846 166 0
733 -454 119 0
-177 -589 -34 0
-908 -135 687 0
-900 634 60 0
-750 -7 357 0
-942 -643 -424 0
490 -451 -718 0
115 -534 446 0
305 -334 285 0
-53 914 577 0
-962 -346 -528 0
206 -795 653 0
-19 -147 -375 0
902 -238 -653 0
234 61 308 0
551 -729 588 0
-341 -864 -678 0
-419 -844 442 0
-999 -756 -241 0
463 -77 135 0
-358 455 896 0
-227 -499 -668 0
-655 -218 489 0
580 178 -489 0
-899 776 -786 0
-46 687 807 0
479 781 752 0
405 675 -204 0
733 339 569 0
-568 -149 848 0
765 -285 950 0
227 -469 -916 0
17 -715 -163 0
356 -694 -238 0
179 -487 -148 0
288 277 528 0
-135 436 -806 0
783 -407 946 0
899 90 875 0
-770 68 -840 0
399 -408 867 0
-250 -741 208 0
688 -633 881 0
369 711 468 0
-151 305 887 0
508 -404 288 0
773 172 825 0
989 991 -422 0
383 -46 753 0
-614 881 -936 0
225 106 47 0
-519 587 162 0
-463 -885 -345 0
-230 272 -747 0
-342 -849 -973 0
79 -592 870 0
542 353 507 0
822 -448 240 0
-100 -746 -708 0
834 -403 -594 0
110 840 -399 0
741 88 -274 0
461 87 659 0
37 415 -571 0
463 -490 567 0
-340 -158 731 0
839 565 -684 0
-28 -531 2 0
-37 -332 127 0
-148 394 -336 0
-564 125 -295 0
-830 -640 607 0
911 677 60 0
-180 349 294 0
-316 555 886 0
813 -526 -620 0
218 -793 728 0
-941 -100 -79 0
-382 936 486 0
-174 414 -680 0
-275 -672 181 0
736 884 674 0
-771 -101 -362 0
192 938 511 0
-684 664 718 0
959 419 -78 0
-158 484 -879 0
319 370 260 0
745 818 822 0
-783 -430 -474 0
427 777 907 0
-617 -562 311 0
-132 -690 416 0
-997 -913 -174 0
316 117 674 0
227 -765 -874 0
130 -524 311 0
-855 923 242 0
964 891 543 0
-986 -10 549 0
-1000 952 233 0
-236 -407 -406 0
-517 -769 -766 0
676 -429 -554 0
-445 593 80 0
-457 137 -49 0
-272 159 329 0
-365 -589 220 0
-206 673 -507 0
-61 415 44 0
-657 533 422 0
-60 758 183 0
-241 -139 69 0
-346 688 466 0
756 -927 -226 0
942 992 689 0
-826 -181 -204 0
-171 818 -635 0
703 -146 802 0
-739 211 -381 0
816 -471 664 0
-939 -148 473 0
-688 907 293 0
948 -397 -676 0
999 549 -398 0
-339 788 625 0
-635 830 595 0
-881 545 288 0
-602 -414 -976 0
-386 629 562 0
170 467 -986 0
-586 603 -293 0
192 807 -719 0
425 -106 666 0
-644 -492 -241 0
572 671 477 0
264 -870 244 0
330 -357 -170 0
817 -556 64 0
-959 149 -856 0
85 -570 295 0
-186 714 -504 0
964 -430 625 0
-679 -136 185 0
253 -456 56 0
-163 -20 296 0
155 -567 -981 0
-769 -201 -962 0
777 904 354 0
-139 152 280 0
-699 667 975 0
602 397 873 0
-542 683 -510 0
-582 872 222 0
-651 -263 752 0
722 967 -202 0
702 725 395 0
-564 -63 -601 0
-429 444 864 0
-306 156 121 0
5 -650 222 0
-798 178 -674 0
-926 685 686 0
576 882 612 0
118 -467 973 0
-994 506 119 0
-850 -368 208 0
-918 201 -61 0
-53 -324 412 0
-929 -354 -712 0
-386 -648 825 0
101 -929 484 0
-729 655 475 0
-471 -987 -599 0
-818 875 -991 0
-28 -612 -929 0
750 548 700 0
-448 106 -584 0
141 620 -410 0
-902 -29 285 0
-673 -961 447 0
193 223 -328 0
270 225 -757 0
-368 244 71 0
-249 -756 -833 0
943 64 -975 0
-472 541 -918 0
-550 302 516 0
105 -391 -311 0
583 567 -665 0
334 -648 -583 0
634 389 -529 0
-372 822 62 0
-531 726 -501 0
-596 -426 -672 0
955 -551 81 0
-521 382 269 0
726 -173 -266 0
-792 -467 940 0
64 -221 -229 0
812 708 633 0
503 -624 986 0
742 -497 237 0
-53 -858 88 0
-103 302 -193 0
-175 770 921 0
-123 271 -608 0
-880 627 386 0
217 457 920 0
801 116 -832 0
-910 -746 435 0
-145 409 87 0
-664 -229 841 0
650 27 -603 0
-71 -624 843 0
-221 -794 -510 0
205 152 462 0
-434 665 2 0
-726 -38 -657 0
339 -20 111 0
-834 -476 -444 0
981 719 823 0
-665 334 -555 0
126 104 878 0
285 362 -862 0
417 29 -279 0
12 -128 -986 0
883 528 -493 0
-755 -33 254 0
-107 906 -792 0
-901 -506 -721 0
-270 -367 820 0
169 670 -654 0
-680 30 -454 0
679 -647 939 0
784 -664 818 0
-722 -499 -189 0
-897 282 126 0
714 438 -316 0
-54 684 -905 0
-914 -299 -39 0
-299 146 -623 0
-715 304 -82 0
208 -205 -67 0
644 -294 139 0
339 273 344 0
352 944 -1000 0
916 -308 207 0
-858 814 -215 0
807 -964 -117 0
290 -174 584 0
727 -803 689 0
560 -559 -150 0
-994 -848 265 0
-896 -550 -53 0
-875 -527 215 0
-908 947 220 0
-545 627 -557 0
745 -586 969 0
-182 -192 -864 0
-306 739 194 0
-152 706 443 0
-398 568 602 0
778 338 886 0
721 -497 68 0
-855 -820 -688 0
225 -409 -87 0
611 514 413 0
764 -725 -931 0
-397 543 -652 0
-720 552 -454 0
312 -988 -35 0
-995 -22 -816 0
614 -281 995 0
-137 -307 -209 0
787 278 523 0
-601 -891 -444 0
-585 -312 121 0
933 -926 -330 0
763 -585 -670 0
-972 -87 287 0
-42 -463 -425 0
843 -136 -846 0
359 516 -712 0
363 799 -54 0
687 683 768 0
538 810 -302 0
-695 380 435 0
-767 -771 776 0
422 -118 -857 0
329 715 327 0
-130 76 5 0
-192 -293 -88 0
258 -214 197 0
63 -431 -562 0
121 824 504 0
-350 418 -194 0
240 -552 -9 0
516 428 -779 0
46 -368 -699 0
-194 520 -339 0
512 708 -32 0
-741 -427 946 0
-447 -226 524 0
19 104 -631 0
-351 -894 -382 0
766 -836 964 0
322 385 32 0
-732 336 -256 0
762 -188 175 0
-775 -149 -547 0
277 -750 647 0
929 956 752 0
-609 643 -218 0
211 -370 -57 0
-27 -748 73 0
-481 551 680 0
-159 -962 41 0
-396 235 -423 0
-851 -620 717 0
-970 752 -939 0
360 856 -491 0
-546 -299 -725 0
-257 540 384 0
-430 -579 -760 0
123 -352 939 0
44 486 252 0
-27 -54 -584 0
818 916 652 0
-895 -783 39 0
-11 269 -609 0
526 -118 -272 0
732 -167 -785 0
666 477 832 0
-96 942 539 0
734 -134 -907 0
-428 434 606 0
792 341 -614 0
711 -564 -760 0
646 195 476 0
270 412 -89 0
-910 -250 234 0
808 849 88 0
-733 -458 -498 0
-98 -890 703 0
-981 897 942 0
836 147 -926 0
-864 50 17 0
22 -108 -408 0
-26 992 356 0
-433 -30 -436 0
986 -699 505 0
377 899 457 0
132 783 827 0
-281 -44 29 0
340 -3 661 0
-490 -210 -960 0
603 157 341 0
974 592 437 0
298 144 -350 0
33 117 -501 0
-872 308 186 0
354 597 90 0
722 -902 -792 0
-338 872 293 0
984 586 -105 0
249 768 657 0
-5 -921 64 0
995 202 -832 0
739 -285 859 0
-948 602 -966 0
454 982 -764 0
-639 -912 -754 0
220 176 87 0
-102 -684 -712 0
-369 224 223 0
-630 471 163 0
975 -214 306 0
836 795 777 0
-869 946 97 0
888 -630 -967 0
-192 407 76 0
131 -531 734 0
-165 460 -794 0
444 182 -542 0
764 313 758 0
102 -33 -90 0
49 -332 -849 0
-126 771 985 0
-448 362 239 0
-134 -873 847 0
-645 299 -638 0
-3 557 707 0
474 -565 -179 0
-373 -131 -397 0
648 857 -772 0
402 -716 -152 0
-919 603 -9 0
-514 388 655 0
756 -539 -2 0
-781 -756 -793 0
959 -677 529 0
416 306 -220 0
269 852 -490 0
599 235 -360 0
-28 418 -718 0
791 -704 451 0
708 -161 -66 0
-770 731 -388 0
-809 208 996 0
526 -383 622 0
289 -706 429 0
-531 -611 -739 0
-9 -702 -158 0
242 478 88 0
561 -172 -576 0
-770 944 -140 0
-541 970 -553 0
-355 940 -518 0
358 -794 831 0
563 995 742 0
-257 -333 -696 0
810 -286 582 0
-912 -585 235 0
-403 -698 681 0
-968 701 -228 0
956 196 -200 0
-105 168 -562 0
388 736 -61 0
250 -324 -5 0
-411 599 -409 0
977 -930 -934 0
145 -90 174 0
-719 -417 162 0
-194 -737 -363 0
-119 -81 261 0
764 -641 -26 0
-935 -643 975 0
386 624 223 0
970 -611 -711 0
483 -796 663 0
-89 -59 857 0
961 158 486 0
-151 -879 -660 0
233 -990 -753 0
-585 507 780 0
-445 269 -236 0
-230 580 451 0
-431 140 906 0
158 1 254 0
846 -599 438 0
57 500 534 0
752 -676 -390 0
789 -449 156 0
-45 -522 -745 0
181 730 47 0
1 501 -372 0
938 631 -98 0
-804 -580 734 0
382 170 839 0
-549 485 213 0
-60 -737 -272 0
236 939 -740 0
-36 493 622 0
806 -535 572 0
932 922 297 0
626 -75 593 0
-147 -642 -946 0
450 -355 511 0
-143 -571 -875 0
-145 613 -88 0
139 -371 949 0
253 -192 -186 0
-461 -727 -622 0
189 -527 -496 0
-80 825 -217 0
-207 -895 -309 0
-818 -848 -407 0
-812 -446 -228 0
-672 -240 -316 0
-292 -188 -354 0
2 73 528 0
839 551 228 0
-718 702 -204 0
-914 -599 27 0
253 483 242 0
-544 -226 -18 0
-427 27 -106 0
465 -891 -923 0
-545 -760 449 0
-850 516 -356 0
-236 -317 205 0
-946 -592 613 0
-745 -129 -968 0
-860 460 105 0
-704 -72 802 0
-13 -883 984 0
202 15 29 0
-574 342 704 0
340 -857 -940 0
-219 -574 -491 0
894 996 486 0
241 -939 195 0
-726 974 -689 0
-569 63 -374 0
466 -868 -464 0
869 -196 290 0
-837 -102 -744 0
383 549 -575 0
-504 -111 -919 0
-216 602 -601 0
-478 -912 673 0
-955 434 -281 0
-316 305 -210 0
-992 997 919 0
102 788 590 0
501 -704 -160 0
263 670 -519 0
990 -912 443 0
69 802 -152 0
234 -177 559 0
668 588 370 0
-682 711 -591 0
-68 35 50 0
166 154 810 0
-645 -25 153 0
61 -910 450 0
-964 -835 -539 0
705 840 155 0
60 -321 -726 0
-988 226 -787 0
-70 -475 374 0
-705 373 -754 0
-388 -12 -263 0
670 -61 430 0
-191 -221 -760 0
-937 84 -962 0
26 -588 998 0
866 -3 -697 0
-384 490 545 0
-293 -185 -325 0
490 -654 608 0
184 537 -772 0
-7 628 641 0
-145 588 -592 0
-740 144 381 0
-715 -562 922 0
623 -524 748 0
-977 267 180 0
-98 -725 321 0
851 536 -116 0
-132 71 -168 0
597 -612 196 0
-132 -642 -238 0
-601 355 164 0
-913 -863 310 0
-31 533 790 0
-182 -734 -363 0
-48 252 356 0
-232 -853 -116 0
939 -812 238 0
-372 630 611 0
332 -682 29 0
333 761 -373 0
289 512 499 0
-445 -151 -316 0
36 969 139 0
-535 639 -669 0
432 -991 386 0
-337 367 726 0
-15 -301 -920 0
-774 -809 -858 0
46 127 798 0
-34 -845 623 0
-654 698 -184 0
-335 914 -809 0
963 317 -46 0
-672 -985 -623 0
-86 215 -974 0
-293 -319 -10 0
854 -93 238 0
894 -929 -321 0
500 -259 -262 0
-64 803 -613 0
-322 -472 -896 0
530 278 -16 0
74 576 262 0
-494 866 -919 0
61 -181 -989 0
-56 165 -78 0
-636 -576 187 0
-486 -142 -630 0
-398 -286 731 0
797 42 491 0
655 -855 886 0
507 328 635 0
11 179 846 0
-764 -31 -696 0
-977 -275 -866 0
839 -945 774 0
-772 534 795 0
-85 651 -653 0
-927 -668 420 0
-803 219 -994 0
746 -144 402 0
535 278 807 0
-114 -500 395 0
451 -865 -108 0
-677 -182 989 0
-141 -652 313 0
338 -982 -923 0
259 -395 968 0
-489 -3 -205 0
-415 56 957 0
-266 455 -141 0
-337 921 189 0
-840 -926 -87 0
204 511 -872 0
-912 61 1 0
-722 895 497 0
-187 -982 231 0
956 8 969 0
65 -530 698 0
419 274 -755 0
346 -769 -30 0
-614 917 705 0
-461 549 639 0
10 149 801 0
-931 832 -913 0
-260 756 -84 0
-454 836 284 0
-129 657 106 0
-974 943 697 0
-517 97 575 0
50 -887 977 0
-782 -1 -617 0
237 -244 558 0
-402 -866 682 0
880 579 60 0
-408 7 -197 0
-205 595 -748 0
-297 816 -590 0
937 -949 -54 0
-41 504 -147 0
28 344 -461 0
-523 -412 -790 0
-890 519 807 0
225 -161 -832 0
591 -322 703 0
-71 -695 -933 0
-151 506 33 0
-852 -265 251 0
540 -401 167 0
66 823 372 0
-200 -370 800 0
773 -723 -585 0
17 109 -692 0
782 505 -503 0
151 273 -92 0
-418 -544 873 0
883 677 -778 0
236 811 -934 0
216 -153 -91 0
935 -168 713 0
-564 -3 350 0
386 -971 179 0
-559 -819 -730 0
790 -871 -468 0
-855 520 -892 0
-849 938 -9 0
-308 109 -853 0
-847 -729 599 0
368 -484 584 0
239 -38 108 0
584 -478 -857 0
-927 307 948 0
851 -278 -128 0
29 -671 -555 0
615 566 -932 0
-230 -830 432 0
478 194 285 0
918 950 491 0
519 111 158 0
-94 -332 532 0
-394 -132 -819 0
-108 -200 389 0
257 -818 -237 0
75 -821 609 0
-456 -609 997 0
-597 590 -363 0
953 273 522 0
-1000 51 -944 0
511 856 660 0
951 564 -827 0
-808 998 -938 0
-500 944 930 0
-721 639 -566 0
801 -937 398 0
-160 -205 -362 0
923 668 950 0
628 -425 753 0
-977 441 583 0
175 -578 911 0
-936 -298 562 0
-619 -440 -331 0
89 39 375 0
-508 718 72 0
506 275 -813 0
-581 -683 481 0
99 -638 682 0
-851 106 -362 0
-503 930 -860 0
-501 421 -433 0
-952 -659 -191 0
-275 24 -618 0
895 -807 982 0
-17 27 593 0
-614 545 251 0
150 -895 -643 0
864 441 413 0
439 -298 766 0
228 -839 540 0
-624 524 567 0
538 14 -455 0
791 510 -894 0
339 616 351 0
-49 -695 -78 0
338 902 102 0
-156 -504 63 0
643 411 -824 0
-512 301 361 0
-369 292 -105 0
141 -724 375 0
-976 -763 195 0
-403 350 -684 0
-86 -903 724 0
859 770 -750 0
153 -875 -308 0
131 241 290 0
930 206 -428 0
-101 128 887 0
-123 -961 315 0
-809 159 -534 0
335 -975 -589 0
173 744 631 0
992 -985 -988 0
-821 929 -775 0
348 -522 -167 0
-938 523 193 0
236 845 944 0
-976 -42 -262 0
-409 -630 -50 0
-933 -5 312 0
235 398 422 0
-40 482 -113 0
670 612 -242 0
-796 197 321 0
-530 13 -199 0
326 908 -974 0
-930 -235 790 0
-180 386 -283 0
502 -42 -469 0
-845 -81 -723 0
-496 194 393 0
-501 737 -644 0
351 -786 -269 0
-955 884 -492 0
-933 -877 108 0
-808 937 548 0
-402 -270 755 0
-140 -380 246 0
113 126 -552 0
-474 206 301 0
-374 97 515 0
-842 358 -343 0
-881 -579 -567 0
-815 242 -90 0
-642 891 220 0
798 -718 811 0
-812 -532 315 0
343 247 -695 0
-210 -810 634 0
-290 920 595 0
176 645 915 0
726 -212 -481 0
-20 425 896 0
-424 -946 698 0
-874 576 529 0
401 619 409 0
166 331 -768 0
-914 642 -573 0
98 505 472 0
986 156 -260 0
-922 950 -947 0
-309 -462 -278 0
491 702 -414 0
447 911 448 0
-684 -765 -379 0
-290 -528 -363 0
-276 794 -19 0
592 908 227 0
861 -65 -705 0
908 991 -387 0
157 806 324 0
289 585 -177 0
593 -574 -251 0
683 -372 101 0
377 748 618 0
525 634 -291 0
-455 -530 -76 0
-207 463 494 0
-742 909 50 0
79 905 -603 0
139 -750 703 0
975 396 -924 0
-636 968 -733 0
426 122 -949 0
621 -741 -794 0
-122 854 441 0
-934 971 663 0
-744 -991 104 0
623 -575 83 0
-389 39 -832 0
848 276 409 0
-758 562 3 0
207 948 187 0
463 -163 240 0
-613 -4 -841 0
-109 697 -91 0
-436 699 -394 0
542 -463 -99 0
611 -201 540 0
750 529 -834 0
-687 39 -948 0
-313 -635 -775 0
-163 349 -765 0
-694 690 -520 0
698 668 -433 0
619 -631 -131 0
823 473 465 0
-154 -328 677 0
-561 -971 -123 0
-900 -472 47 0
-461 -943 648 0
-55 -712 629 0
-261 -913 166 0
-111 -477 -422 0
-865 803 -990 0
-826 595 816 0
-766 -965 517 0
-631 405 532 0
-577 906 -669 0
273 -558 -999 0
556 414 886 0
-415 377 545 0
-997 -245 983 0
-409 -811 -877 0
-874 966 -737 0
880 -881 163 0
373 733 -905 0
668 -25 -692 0
39 133 -175 0
25 585 174 0
-404 -247 98 0
897 -21 -717 0
-940 -454 -18 0
597 -820 681 0
-817 120 -947 0
-912 639 930 0
200 40 391 0
591 -429 861 0
-189 -142 -379 0
760 -917 -763 0
-911 -988 -862 0
-678 407 163 0
457 -509 372 0
-607 918 590 0
-863 -352 852 0
284 512 -525 0
268 173 -580 0
966 -659 -194 0
-567 19 -89 0
984 -635 255 0
360 -349 980 0
-744 389 231 0
-900 462 -294 0
-432 867 -331 0
-610 237 -785 0
345 221 197 0
-40 326 922 0
-825 694 -173 0
86 -593 185 0
-976 -667 -704 0
-517 -463 -358 0
-646 95 -668 0
-788 111 -232 0
-747 99 33 0
-35 330 567 0
780 868 -122 0
-326 -596 813 0
-827 -7 224 0
812 -747 19 0
-695 570 -991 0
929 -882 13 0
-696 817 979 0
539 848 -651 0
-925 823 747 0
-627 -431 756 0
-956 -27 294 0
-233 345 -431 0
-471 -895 360 0
-8 848 484 0
374 161 385 0
-843 437 367 0
-966 908 -438 0
986 959 647 0
-218 -516 782 0
229 858 -610 0
326 872 89 0
185 311 178 0
-717 -544 -361 0
-53 587 -906 0
-442 376 738 0
369 180 -772 0
54 -494 110 0
-902 136 61 0
-3 -363 -357 0
-647 746 -527 0
922 -784 297 0
69 -945 -674 0
979 -329 -514 0
469 -967 339 0
-572 -757 729 0
37 828 129 0
541 125 951 0
-901 -32 -210 0
-664 60 -962 0
538 -914 141 0
994 980 403 0
-430 320 -717 0
-710 850 998 0
795 24 179 0
-828 -5 904 0
921 91 386 0
-347 -430 45 0
140 -985 340 0
976 219 -409 0
526 -414 -12 0
-943 -798 609 0
-841 838 -539 0
-843 -212 690 0
94 -338 178 0
442 377 628 0
-357 845 -208 0
441 823 633 0
552 586 969 0
335 891 -267 0
40 -498 837 0
-339 93 11 0
-934 -532 75 0
-481 88 708 0
-353 -292 -117 0
743 -791 556 0
636 411 135 0
621 -535 545 0
-851 -290 -526 0
421 -337 594 0
953 -498 158 0
-335 543 310 0
-230 -659 455 0
-362 -940 -918 0
776 455 -539 0
-441 -874 902 0
406 -890 -426 0
-463 409 223 0
-795 -185 -226 0
458 -484 717 0
133 -991 438 0
-374 962 597 0
615 -749 -401 0
-652 596 722 0
-471 -494 -80 0
-514 495 624 0
-832 625 -582 0
-702 659 -9 0
-371 -771 -890 0
-216 -769 -421 0
-605 -101 980 0
-476 269 421 0
-490 -391 245 0
822 992 21 0
514 852 -571 0
2 198 101 0
-970 700 451 0
-215 700 -746 0
-292 -836 82 0
351 -232 469 0
363 -204 -790 0
511 -825 11 0
872 -574 187 0
-262 -55 158 0
87 -194 107 0
111 -906 -644 0
726 -259 -762 0
-667 798 931 0
-795 256 762 0
-310 74 -817 0
935 -724 -209 0
-474 -969 544 0
-750 -989 589 0
-18 544 -101 0
-573 -686 -231 0
759 -6 502 0
268 516 610 0
-928 812 717 0
914 -751 -332 0
-191 258 -14 0
612 -416 10 0
56 -351 800 0
741 491 -391 0
208 750 -232 0
935 -584 562 0
521 974 -708 0
-870 -224 623 0
-923 447 -103 0
250 -50 -898 0
-680 -617 634 0
-756 848 -509 0
-738 907 946 0
77 619 -236 0
-941 258 137 0
747 -628 -925 0
410 -3 858 0
109 480 181 0
-100 9 431 0
-717 853 -985 0
947 395 -912 0
349 -402 -773 0
135 -991 -353 0
-888 -860 -91 0
589 -452 693 0
-569 872 14 0
-160 843 276 0
-40 182 293 0
-565 184 -620 0
-824 -426 -100 0
-185 -390 -384 0
525 707 5 0
-183 -958 -505 0
-138 -275 225 0
473 131 852 0
640 208 330 0
381 131 505 0
-8 100 602 0
389 195 -595 0
402 688 -79 0
-80 946 -485 0
-747 -921 -728 0
-824 -978 -325 0
854 878 275 0
8 881 -730 0
-250 -599 -376 0
643 693 95 0
