c Random 3-SAT formula for benchmarking
c Generated with seed 51
p cnf 200 852
63 129 142 0
-142 -66 -102 0
100 72 104 0
-138 67 -9 0
-158 77 95 0
113 44 121 0
189 -152 28 0
175 -112 107 0
125 -141 -200 0
-127 31 -133 0
139 -11 -122 0
-176 8 -84 0
-144 -72 58 0
-139 -14 -83 0
-52 -142 -91 0
-200 38 141 0
77 119 -189 0
-186 -20 -143 0
-123 98 -5 0
-104 -164 -99 0
-147 -168 -176 0
-131 -191 152 0
2 -34 -101 0
-14 101 -196 0
9 -83 -194 0
19 -154 -124 0
21 189 -125 0
48 187 -28 0
-163 -35 40 0
-126 -14 118 0
-142 12 31 0
38 -168 -17 0
58 125 -60 0
-140 54 44 0
29 -42 -144 0
135 5 -3 0
-77 22 42 0
-3 -48 16 0
-25 -195 175 0
-163 130 -106 0
-43 -12 -5 0
16 -182 -137 0
-49 164 -83 0
125 12 75 0
117 103 -164 0
124 -172 -193 0
157 129 195 0
-103 184 -79 0
-197 79 199 0
-59 26 196 0
90 -189 -56 0
-174 51 -55 0
-161 -171 200 0
73 -57 14 0
84 -192 -27 0
3 119 64 0
71 -107 105 0
-2 197 183 0
-69 -65 186 0
-142 -49 -74 0
-100 184 -168 0
142 -122 45 0
165 96 -57 0
-144 -33 -173 0
11 -4 -17 0
-173 -188 -92 0
-35 -57 -20 0
192 87 -88 0
161 139 32 0
-191 -195 -26 0
-106 161 32 0
134 96 -136 0
-113 -74 51 0
81 59 -82 0
70 -134 23 0
105 -130 114 0
-137 -26 146 0
98 120 -49 0
2 -155 -118 0
-162 -4 86 0
5 -130 -143 0
-50 15 153 0
-156 -13 198 0
-65 -7 -139 0
183 151 7 0
-191 147 -126 0
104 198 186 0
-61 94 -139 0
-78 31 167 0
-32 15 -190 0
5 -21 -157 0
-17 105 72 0
-108 -103 42 0
-92 24 -188 0
129 159 157 0
-53 -14 -21 0
-87 -83 -41 0
121 -169 -58 0
-107 -75 5 0
-154 29 -76 0
197 106 -19 0
-106 179 -50 0
148 163 107 0
-15 -82 71 0
93 66 -114 0
-93 -34 129 0
159 -43 4 0
-180 182 189 0
53 92 39 0
-145 -72 171 0
-57 76 -161 0
66 -26 -140 0
-14 -200 -2 0
-54 -52 8 0
26 128 88 0
-176 51 65 0
-31 59 -41 0
140 1 -16 0
143 132 -118 0
-27 -168 -143 0
-4 20 -66 0
-126 144 180 0
148 -160 -145 0
184 -9 -105 0
-85 121 -157 0
129 139 -170 0
-183 77 111 0
167 71 20 0
-60 175 113 0
143 61 -75 0
-65 98 95 0
116 89 -198 0
-50 -177 -151 0
56 9 -33 0
147 71 34 0
115 -180 28 0
-83 -16 174 0
-185 -126 -171 0
149 -72 -161 0
-97 111 -92 0
94 -170 45 0
-106 -130 -52 0
-56 14 -142 0
-191 154 -45 0
-182 84 -60 0
190 -103 -121 0
181 -123 79 0
35 -22 -48 0
153 145 107 0
-62 -91 -9 0
27 -182 -122 0
-75 -17 192 0
-3 12 116 0
-9 -154 28 0
-112 2 -137 0
-111 191 199 0
-11 100 69 0
-12 146 -33 0
175 -83 69 0
25 -193 -123 0
-108 -141 -179 0
150 168 -183 0
-94 -39 68 0
-112 113 -21 0
7 -103 -111 0
186 86 59 0
-58 -113 -97 0
168 -150 178 0
-143 166 -22 0
-146 31 39 0
143 -198 110 0
133 106 42 0
-121 -46 -2 0
191 -114 -190 0
66 168 -171 0
115 -49 62 0
-72 132 -168 0
153 135 -194 0
-44 -24 15 0
-25 -54 -198 0
-31 -97 -137 0
2 -80 -40 0
-175 -194 -191 0
-130 -182 79 0
-102 -45 92 0
135 20 -52 0
-64 -137 -149 0
86 -106 -48 0
84 159 -101 0
-73 124 53 0
84 177 103 0
23 62 185 0
35 -190 -2 0
-138 -58 187 0
-186 -85 136 0
-159 -24 113 0
-104 -200 50 0
-18 -27 177 0
-18 169 -186 0
68 -36 15 0
-99 -177 134 0
-79 -73 -76 0
173 -107 66 0
-19 111 172 0
123 -41 -136 0
163 46 5 0
118 -91 168 0
-5 -7 -157 0
161 -33 4 0
10 75 84 0
131 184 -25 0
46 102 67 0
-185 188 -183 0
81 -116 126 0
148 144 188 0
199 -43 166 0
145 -63 33 0
-44 71 119 0
-129 -63 -17 0
-195 100 -8 0
-45 -150 155 0
-96 120 -105 0
184 -106 91 0
163 -13 -55 0
-45 -135 -171 0
135 152 -115 0
116 -60 -75 0
-171 -41 121 0
-96 -92 -42 0
116 -143 86 0
-28 148 -163 0
65 149 43 0
199 -108 -94 0
54 49 -160 0
42 -58 87 0
-92 40 157 0
155 32 17 0
86 90 68 0
4 -62 -54 0
-89 -169 -51 0
35 -41 88 0
44 8 -94 0
183 184 -114 0
-37 191 189 0
-96 -92 -49 0
-85 130 54 0
-106 149 -75 0
3 194 -9 0
183 31 -66 0
-66 12 177 0
181 1 -81 0
185 -110 32 0
-200 45 104 0
-165 -158 -23 0
-109 141 4 0
189 -199 -170 0
71 -26 54 0
-9 -79 169 0
21 67 43 0
-191 -44 -163 0
137 92 -40 0
-106 177 165 0
166 199 -162 0
-74 -160 16 0
-197 149 34 0
179 -58 -189 0
133 167 122 0
-28 74 20 0
10 136 39 0
63 -47 65 0
-63 -185 160 0
-72 -45 -195 0
172 -171 183 0
78 32 111 0
-189 49 52 0
-17 127 134 0
19 -80 -13 0
-19 -85 74 0
160 -120 -79 0
166 -139 -68 0
-141 95 175 0
-198 -13 114 0
13 -39 -44 0
-96 -106 -12 0
142 127 -191 0
54 -123 170 0
-110 -76 -39 0
167 179 -86 0
188 -166 -19 0
-167 8 -174 0
54 -6 113 0
-103 -146 197 0
99 47 33 0
95 8 79 0
39 -174 -106 0
-89 115 -183 0
35 -184 -160 0
-47 155 50 0
157 136 -8 0
186 188 131 0
-161 -122 100 0
-84 -50 -179 0
144 -170 78 0
-138 165 -180 0
-32 135 137 0
-19 78 67 0
-191 -74 19 0
2 -40 -167 0
180 12 134 0
74 -119 19 0
-189 -38 -95 0
-51 -68 -33 0
46 80 -106 0
-176 -53 -26 0
-75 126 -190 0
80 -116 199 0
-57 -106 169 0
171 -168 27 0
-144 164 126 0
79 150 141 0
144 -57 97 0
-29 -121 -149 0
53 -36 11 0
-56 16 114 0
-135 110 67 0
24 169 198 0
-156 -193 -53 0
-78 -89 33 0
-60 136 -138 0
69 77 -157 0
-12 -28 -82 0
-186 -99 -85 0
24 40 145 0
75 -101 -161 0
8 -74 129 0
-185 -38 184 0
-96 7 10 0
122 174 -176 0
-3 68 26 0
81 -191 -92 0
23 -28 -40 0
94 95 104 0
-75 -70 111 0
4 -188 39 0
-108 55 66 0
111 -81 27 0
-154 -194 31 0
-82 -22 106 0
34 -193 69 0
86 165 163 0
135 -13 -199 0
81 161 71 0
-54 144 13 0
190 -32 163 0
6 -84 98 0
184 -38 -139 0
-156 -122 89 0
-76 72 -57 0
92 -113 -82 0
121 151 -165 0
58 -69 -12 0
-124 -9 181 0
43 56 108 0
11 168 -62 0
-40 -195 -104 0
46 155 -159 0
-75 -130 154 0
87 -141 3 0
49 -72 131 0
6 -172 -154 0
199 -71 147 0
161 -148 26 0
134 163 61 0
38 44 -102 0
-100 -194 -102 0
-24 -181 4 0
104 -127 -96 0
-157 -87 -154 0
-148 179 -199 0
-129 149 101 0
104 119 -125 0
66 137 156 0
47 26 4 0
146 155 102 0
196 -162 197 0
-50 -96 -60 0
-187 65 -45 0
-126 -37 162 0
-167 144 157 0
134 61 -82 0
-92 -50 -46 0
-83 -77 -46 0
153 -33 -107 0
-144 106 101 0
153 -38 -80 0
118 -142 -87 0
182 195 132 0
-12 99 -74 0
-107 193 70 0
179 -131 -34 0
-103 127 70 0
73 -25 -92 0
138 -24 -157 0
-46 -197 25 0
-24 -27 -65 0
-166 131 -31 0
-189 -196 45 0
-56 -63 26 0
-28 -139 -149 0
-130 57 12 0
52 37 132 0
-134 -149 189 0
16 -110 -139 0
-95 29 141 0
90 -87 108 0
-130 49 182 0
200 99 56 0
133 75 -64 0
26 191 136 0
17 -136 94 0
-138 -114 50 0
-10 -180 -143 0
20 131 -33 0
113 139 18 0
-91 -27 183 0
-62 -120 -31 0
17 -179 -172 0
-45 -194 -22 0
51 -79 -57 0
24 191 -130 0
108 117 147 0
-159 23 79 0
-71 -85 73 0
36 132 138 0
45 196 -187 0
-159 7 -71 0
-168 12 194 0
35 -60 49 0
96 126 143 0
123 113 200 0
-160 -37 -60 0
-60 119 -74 0
26 106 48 0
-77 -194 97 0
151 181 -28 0
58 93 -143 0
154 33 -127 0
-54 2 189 0
122 101 -65 0
-15 172 -12 0
-74 -191 -171 0
-172 55 180 0
161 -1 -172 0
181 180 130 0
173 -48 84 0
151 -60 119 0
198 -157 -131 0
45 168 -194 0
77 -71 -186 0
-200 -97 -154 0
-192 -124 -115 0
-176 114 124 0
-117 192 -107 0
-120 -46 -131 0
-116 138 -150 0
-177 -69 -32 0
-180 -42 126 0
-28 -166 23 0
-85 199 189 0
-124 105 -130 0
-11 127 -44 0
-70 154 -28 0
118 5 -142 0
86 -41 -72 0
118 19 51 0
-157 -12 18 0
-192 -77 143 0
-180 43 149 0
159 88 -154 0
-138 106 -152 0
46 -37 -112 0
165 90 53 0
143 193 99 0
145 -137 -157 0
114 -117 168 0
24 66 -145 0
-196 -96 33 0
-180 116 115 0
46 -186 -123 0
168 -160 42 0
-102 -162 106 0
-92 -44 52 0
111 179 186 0
142 -54 -32 0
-168 174 157 0
183 134 -176 0
121 -5 -97 0
129 141 -167 0
52 -200 167 0
44 114 -122 0
-110 66 127 0
163 -116 190 0
32 136 91 0
42 21 159 0
42 173 13 0
105 60 181 0
112 -131 3 0
-171 -79 -111 0
169 98 196 0
-18 -20 166 0
97 -78 21 0
-92 63 183 0
29 134 -129 0
120 -26 -118 0
-96 20 43 0
188 -32 -169 0
68 -97 -87 0
-85 149 55 0
128 -62 30 0
154 170 -3 0
170 -105 62 0
-145 -5 -107 0
-104 123 -11 0
-87 -160 -70 0
100 -89 -113 0
102 -13 -98 0
14 -25 20 0
-64 -91 83 0
-122 -65 153 0
142 187 41 0
-6 138 30 0
-9 -91 -16 0
116 -36 -118 0
22 179 54 0
118 191 81 0
67 188 142 0
101 50 -117 0
-137 7 -53 0
121 36 -172 0
-43 82 135 0
-131 -159 37 0
-81 -102 189 0
155 -185 106 0
121 -133 -55 0
91 -45 -154 0
193 99 149 0
142 -171 -138 0
25 -97 94 0
50 16 154 0
116 88 -41 0
136 68 -63 0
177 -183 43 0
-96 -190 -45 0
-125 -139 -191 0
-115 128 -179 0
-199 -186 -159 0
-93 -179 38 0
161 -76 84 0
-15 -137 -66 0
-189 150 148 0
-172 -60 -44 0
86 67 160 0
136 75 128 0
-144 153 66 0
169 67 -168 0
149 128 -182 0
-98 -146 -77 0
137 145 -91 0
-131 -39 -194 0
185 199 122 0
-28 77 -21 0
101 -137 27 0
-104 -159 108 0
63 54 -68 0
163 181 13 0
-148 10 49 0
-47 -39 -48 0
179 -173 73 0
-146 -168 79 0
43 130 56 0
76 -134 -108 0
32 40 -76 0
-58 -188 -64 0
-134 -79 -141 0
84 -163 22 0
-65 -101 -44 0
-144 26 -21 0
96 141 109 0
-31 7 -28 0
37 31 188 0
-61 120 -58 0
-30 -165 -135 0
-132 164 -66 0
-83 -109 45 0
170 70 -59 0
-22 174 -130 0
38 -123 -140 0
-52 -128 66 0
61 -178 -80 0
154 111 198 0
-190 67 59 0
-162 -189 129 0
-191 -167 141 0
19 102 67 0
84 15 -66 0
69 -63 -167 0
-7 -77 94 0
-139 -30 -60 0
-137 177 -112 0
54 -140 104 0
-15 151 -197 0
30 76 -43 0
47 -142 -41 0
-157 188 -114 0
174 -20 -40 0
42 -23 -74 0
-154 -159 61 0
19 86 -94 0
-3 -91 142 0
152 54 -171 0
-199 95 -118 0
-130 -143 -37 0
184 -94 14 0
126 42 150 0
95 -175 -104 0
-61 181 -32 0
-7 -128 -117 0
-173 -128 181 0
182 131 -50 0
150 -42 -61 0
-177 178 -162 0
-144 -43 51 0
-31 106 78 0
-93 135 -25 0
5 140 -114 0
12 142 -54 0
89 28 -121 0
45 -199 2 0
-14 117 57 0
-34 -133 149 0
152 109 -11 0
122 -89 -53 0
-182 29 -156 0
200 174 20 0
96 56 -185 0
-2 -147 116 0
125 102 -137 0
2 -164 58 0
200 62 133 0
124 -134 189 0
124 -14 -132 0
87 -143 -83 0
-143 -39 -78 0
177 98 83 0
179 -31 190 0
-82 59 35 0
-181 92 121 0
-70 138 72 0
77 54 69 0
-105 149 -187 0
-76 -55 195 0
180 -193 -98 0
40 31 -146 0
112 -82 164 0
-9 -131 -68 0
-113 199 -128 0
131 -108 -98 0
74 57 -181 0
68 72 144 0
191 4 178 0
162 -78 45 0
4 21 152 0
-143 121 -131 0
82 146 -160 0
44 -133 165 0
-134 51 -5 0
144 175 -33 0
167 -68 -38 0
99 12 41 0
-56 119 -112 0
181 -69 -34 0
149 132 -174 0
-91 105 -54 0
118 -197 69 0
-194 155 -59 0
-21 -59 -191 0
158 63 -70 0
-183 200 157 0
-80 189 -82 0
89 31 101 0
73 -197 -5 0
102 82 189 0
-89 -99 133 0
120 -199 157 0
111 31 58 0
-148 -37 125 0
-186 -66 -7 0
-14 108 12 0
167 -80 95 0
-127 186 13 0
-71 -15 115 0
122 127 131 0
81 -101 -20 0
116 95 -200 0
51 -111 12 0
29 184 173 0
126 85 128 0
197 132 -7 0
-135 -184 -53 0
150 117 7 0
-185 -113 81 0
-187 72 84 0
20 92 160 0
170 86 173 0
-75 125 90 0
-138 149 -167 0
86 -169 18 0
156 -72 -173 0
-137 -126 83 0
-2 138 -70 0
-107 191 66 0
65 -33 188 0
-175 -143 104 0
65 -186 -152 0
-177 -107 -156 0
-72 -119 152 0
104 -195 43 0
-157 -125 111 0
-144 180 110 0
-78 -117 -191 0
-58 -45 23 0
-180 -24 146 0
-47 80 163 0
-16 13 7 0
71 17 -171 0
-50 129 80 0
-66 35 -124 0
180 147 108 0
32 82 -57 0
56 87 117 0
-12 -71 131 0
96 -41 72 0
84 58 -197 0
180 100 -196 0
-84 116 -85 0
177 -196 -175 0
55 188 -73 0
197 -65 -5 0
93 157 58 0
-20 -140 -35 0
-196 -46 -163 0
-79 144 -1 0
68 -156 111 0
161 -169 -153 0
28 161 150 0
140 -154 -31 0
-162 -84 -197 0
-112 -5 -189 0
185 173 146 0
-39 -22 -59 0
-76 194 -126 0
-122 -181 -106 0
28 166 196 0
-127 -17 -122 0
107 -104 -77 0
-103 112 85 0
60 1 158 0
-28 87 -96 0
-102 185 -71 0
-192 196 -59 0
75 -54 -175 0
76 -22 -18 0
82 145 77 0
-24 -105 62 0
113 -143 89 0
-118 -188 -106 0
-35 -120 -166 0
-192 8 84 0
-66 -89 62 0
-77 199 88 0
-69 124 -44 0
-154 -167 48 0
169 149 87 0
91 -126 106 0
83 -172 -95 0
-103 -131 -155 0
166 32 -179 0
-36 50 30 0
-10 27 148 0
-47 73 -190 0
160 38 -64 0
189 -103 -4 0
109 115 -176 0
143 -32 -31 0
-22 18 -120 0
146 86 -67 0
-31 186 68 0
85 -182 -149 0
35 102 22 0
-4 -182 -26 0
-93 130 48 0
-195 2 58 0
-88 -123 91 0
-128 -28 38 0
140 119 -56 0
155 -174 68 0
10 81 154 0
83 -49 -5 0
90 32 -135 0
-164 -106 87 0
177 -129 182 0
-106 99 172 0
95 173 194 0
-26 134 61 0
-101 178 88 0
20 86 -40 0
50 106 91 0
-35 -73 193 0
-54 -144 -95 0
-36 -10 53 0
-189 18 -162 0
2 -170 -167 0
162 108 -95 0
-108 187 105 0
183 -159 197 0
-95 -181 -82 0
177 -66 -109 0
115 198 -105 0
-198 78 -187 0
105 -12 48 0
180 60 5 0
33 144 -124 0
-30 176 57 0
156 100 103 0
-61 -73 -52 0
118 -150 -15 0
-76 -61 -23 0
32 15 -175 0
27 187 119 0
-135 -52 172 0
173 162 -77 0
50 -144 -188 0
164 -157 -119 0
128 -24 -121 0
33 21 -175 0
133 3 106 0
168 41 92 0
93 160 -15 0
-75 99 57 0
179 -24 -107 0
-78 -198 -101 0
41 -163 -50 0
