c Random 3-SAT formula for benchmarking
c Generated with seed 109
p cnf 1000 4260
-287 235 471 0
-234 515 510 0
-462 519 -282 0
-905 746 562 0
-644 791 9 0
-613 -742 185 0
434 372 158 0
-407 904 -399 0
-707 222 803 0
-274 477 361 0
-429 78 -491 0
-835 -407 233 0
-685 -506 876 0
555 -833 593 0
92 -593 -256 0
-591 147 -875 0
-625 -158 -271 0
511 -234 -869 0
898 695 70 0
-206 -762 134 0
100 -863 181 0
783 123 156 0
125 -482 400 0
690 259 235 0
326 -687 59 0
697 664 -797 0
-230 -275 984 0
714 321 -734 0
643 73 -901 0
-666 251 843 0
-141 104 522 0
-346 873 475 0
329 513 -657 0
-762 528 -555 0
624 4 693 0
-207 352 841 0
-860 721 718 0
430 -61 -886 0
-39 355 867 0
-353 -393 758 0
68 972 -188 0
-577 -442 -26 0
-769 -627 -442 0
430 398 -930 0
-767 -82 841 0
856 599 73 0
-724 -983 -691 0
-498 -733 835 0
-766 956 -290 0
706 360 -804 0
-622 85 285 0
647 -122 -13 0
39 669 803 0
221 -992 998 0
-899 -414 205 0
-114 932 -409 0
365 829 592 0
782 664 -525 0
-637 442 -870 0
-158 -698 799 0
-388 225 -572 0
-152 -448 943 0
132 609 429 0
291 -140 951 0
33 -364 413 0
-53 -349 -973 0
250 -927 -78 0
480 515 884 0
-177 -337 962 0
-213 -404 385 0
-947 985 -70 0
-169 -943 -305 0
-543 -249 833 0
616 -447 663 0
-393 -43 -567 0
-237 154 -436 0
372 -666 -661 0
105 337 -459 0
-606 -585 862 0
-753 728 46 0
835 741 -650 0
-561 -207 853 0
-228 -454 569 0
-225 209 589 0
-649 734 566 0
567 -578 -419 0
-957 -273 -596 0
138 10 444 0
848 167 503 0
-155 -672 -740 0
139 978 -679 0
258 160 -382 0
962 508 259 0
661 812 -144 0
879 98 272 0
-284 424 -783 0
-802 -142 580 0
899 -979 -780 0
-729 595 641 0
-801 -574 -2 0
981 -621 128 0
-521 208 770 0
251 283 403 0
881 725 -563 0
303 -619 345 0
-700 44 324 0
-205 -679 274 0
-45 47 -382 0
-45 -856 -262 0
629 -748 354 0
857 -253 854 0
-769 -926 180 0
321 765 553 0
-451 -554 -942 0
959 -613 913 0
261 -307 990 0
506 625 455 0
-701 553 198 0
309 -42 805 0
-149 -40 -920 0
-73 828 219 0
831 227 -507 0
-416 316 -295 0
28 667 -74 0
-75 -508 -34 0
-661 509 -20 0
440 477 391 0
150 653 -470 0
957 135 314 0
495 -640 792 0
-169 883 737 0
-561 462 -343 0
143 -615 392 0
169 -797 -306 0
201 540 773 0
827 -84 429 0
795 -791 -698 0
-321 -618 -905 0
221 856 -950 0
-392 962 -336 0
316 264 868 0
-126 775 347 0
991 814 -49 0
772 500 482 0
-957 435 223 0
-202 472 99 0
-579 -454 6 0
963 817 126 0
155 -582 981 0
615 760 257 0
820 -335 636 0
-30 561 764 0
-300 461 -825 0
-421 -624 -525 0
-72 616 -835 0
-955 -672 -440 0
-687 518 868 0
766 241 589 0
-827 -728 697 0
239 918 751 0
-479 -319 -605 0
198 552 -387 0
-363 -857 -564 0
347 134 405 0
-651 151 -951 0
-452 595 682 0
-499 451 -129 0
989 729 151 0
-429 978 -546 0
-564 834 602 0
-923 -231 121 0
745 -78 -650 0
793 90 463 0
-5 599 312 0
181 695 309 0
-951 -586 -725 0
342 531 575 0
-304 -111 -612 0
491 401 -898 0
381 957 -440 0
883 -493 -254 0
216 413 -425 0
-499 678 494 0
-164 -290 963 0
-229 -692 -862 0
852 236 -302 0
-215 186 771 0
301 866 512 0
259 -843 -191 0
-734 51 917 0
800 609 447 0
1 -162 -585 0
-67 -57 238 0
-243 673 486 0
455 -774 595 0
216 -754 -15 0
-52 -927 365 0
724 -28 -987 0
705 -448 -583 0
655 821 -415 0
-1 -222 -317 0
-240 -14 -371 0
-303 319 -61 0
89 -789 -915 0
754 -371 667 0
-779 -564 1 0
931 585 -222 0
-177 -650 778 0
254 -293 -817 0
-637 376 -476 0
668 577 789 0
-67 28 338 0
-902 -914 -345 0
-421 868 878 0
-94 -418 255 0
472 -134 -400 0
676 246 -879 0
553 259 558 0
254 599 855 0
-845 283 555 0
-337 -2 -352 0
-600 930 -318 0
-311 973 -60 0
-205 -791 -230 0
-80 36 92 0
882 -74 93 0
549 -18 -276 0
185 104 -419 0
-67 -334 673 0
-465 -876 49 0
320 -937 592 0
950 -737 260 0
-229 -185 -518 0
383 828 93 0
-903 -793 859 0
-727 467 -646 0
-701 -889 482 0
-568 678 -119 0
937 -590 311 0
-384 871 -862 0
719 951 -626 0
-787 -417 310 0
158 704 234 0
518 11 -581 0
590 -272 553 0
780 -153 613 0
562 -991 -856 0
-519 679 883 0
-474 -472 -381 0
372 559 751 0
749 920 824 0
940 844 -256 0
-270 181 815 0
-428 461 803 0
482 -109 -221 0
747 451 -533 0
-66 -135 -263 0
-710 -229 -277 0
825 715 -138 0
-350 577 -515 0
274 453 -168 0
764 817 335 0
294 -904 -334 0
-715 -642 28 0
-624 -808 -673 0
-606 404 254 0
206 -302 492 0
219 48 -415 0
-239 664 -683 0
-982 527 529 0
166 339 -693 0
507 111 491 0
-923 751 764 0
537 819 418 0
-401 461 986 0
984 642 446 0
903 -607 295 0
-574 -917 -564 0
628 517 770 0
327 -752 865 0
-812 -600 -745 0
855 64 679 0
-379 -569 -539 0
583 -310 542 0
264 971 -259 0
-21 -386 -533 0
114 536 294 0
740 379 684 0
-172 -763 711 0
-309 -311 201 0
928 158 178 0
-49 -825 -236 0
-564 -829 -443 0
34 -302 490 0
-944 66 150 0
-329 89 744 0
319 -973 -353 0
202 -180 833 0
437 -63 677 0
771 418 -975 0
473 923 -15 0
-935 556 184 0
722 -457 -982 0
898 787 -67 0
-344 36 -579 0
-322 -381 -323 0
-701 -520 377 0
694 -360 -789 0
764 672 -574 0
188 619 -714 0
982 -709 321 0
514 -905 416 0
-310 157 602 0
398 163 -555 0
-981 -427 -467 0
574 -487 -667 0
501 774 -312 0
990 240 8 0
109 -211 460 0
165 -824 -679 0
-939 -869 -609 0
587 441 -846 0
940 -32 172 0
-286 978 649 0
115 -193 -292 0
-246 317 -403 0
176 376 387 0
-646 -98 989 0
783 -638 -416 0
964 -213 -848 0
-107 -638 -578 0
85 208 466 0
-439 981 -158 0
719 -813 -150 0
-75 521 -852 0
-707 -114 -175 0
-150 205 -59 0
-139 -268 600 0
764 473 -299 0
147 358 -454 0
-736 407 -386 0
-122 -293 525 0
-967 803 -11 0
180 -424 70 0
-943 -439 490 0
-449 -893 703 0
-395 -424 -674 0
-766 -876 620 0
-545 29 859 0
108 -214 -919 0
-106 729 -824 0
349 -735 -789 0
-486 18 -237 0
865 545 -490 0
107 -339 136 0
540 -205 -898 0
818 -88 133 0
-297 -664 -802 0
597 396 120 0
-738 320 -412 0
134 -606 -703 0
822 781 28 0
-859 517 414 0
411 -132 973 0
69 25 570 0
534 448 -361 0
-527 334 916 0
-935 -386 -516 0
-239 61 -752 0
-890 806 -304 0
657 818 378 0
916 -304 964 0
-788 379 976 0
521 321 -666 0
333 156 339 0
-958 34 246 0
-673 568 353 0
557 322 664 0
-369 613 926 0
-783 833 -433 0
14 -79 869 0
520 341 -257 0
-277 -127 -512 0
-482 668 705 0
-443 -68 287 0
-741 -822 -835 0
827 -577 -756 0
-850 -582 -730 0
-852 -976 739 0
-51 447 -439 0
-975 285 -540 0
-838 234 923 0
-385 1 925 0
914 -538 -244 0
-51 -744 667 0
304 -549 610 0
430 -650 981 0
-191 279 917 0
-278 956 562 0
-330 59 -580 0
552 716 366 0
225 652 985 0
-529 172 826 0
341 55 185 0
441 -895 395 0
-827 -61 638 0
933 627 -907 0
883 730 -437 0
975 -810 71 0
550 737 -242 0
-47 -568 -713 0
-6 -170 -146 0
-667 198 -76 0
-246 -717 -585 0
-649 -950 615 0
-775 -642 -830 0
609 387 -9 0
832 -742 41 0
-969 750 608 0
804 994 486 0
-939 268 -63 0
-153 653 -852 0
-240 607 859 0
-973 -563 -505 0
131 515 -593 0
-345 893 546 0
-289 -871 364 0
-793 617 -890 0
409 113 821 0
567 597 120 0
-196 86 -376 0
-580 -517 -901 0
577 -616 -890 0
24 173 600 0
-687 446 -777 0
8 -826 953 0
-501 38 -852 0
627 433 -34 0
-304 954 -803 0
-57 257 -727 0
158 361 834 0
-22 235 418 0
672 -512 -584 0
442 270 -577 0
268 190 293 0
-63 -733 -900 0
183 -524 552 0
-860 -756 -812 0
339 641 436 0
-414 -940 942 0
-678 -662 220 0
-444 108 993 0
225 -2 491 0
991 525 -794 0
-207 414 -685 0
-941 202 829 0
-266 171 786 0
738 24 445 0
-529 176 765 0
383 -209 801 0
125 -998 -33 0
493 -432 303 0
146 -115 522 0
26 -826 870 0
-849 473 905 0
135 917 883 0
286 -748 111 0
315 185 -835 0
-520 495 -418 0
-943 948 96 0
596 -570 959 0
-17 91 736 0
319 983 -128 0
-553 412 -31 0
-288 -989 736 0
233 9 209 0
88 -647 -324 0
655 689 569 0
-283 517 -127 0
712 -821 -863 0
648 443 -90 0
-465 -985 500 0
764 148 823 0
-379 -124 -897 0
88 775 -417 0
-28 187 108 0
-241 -934 -202 0
391 839 28 0
-421 -477 692 0
-377 -711 -613 0
998 488 781 0
-502 814 468 0
304 135 -808 0
180 277 -460 0
523 160 73 0
234 597 259 0
152 62 -996 0
-893 -131 533 0
216 333 -28 0
360 621 -162 0
-807 126 791 0
332 -466 -252 0
650 -51 -454 0
-104 -317 989 0
824 450 -215 0
-769 -699 955 0
-865 232 441 0
-38 997 996 0
-9 -607 -268 0
-870 911 782 0
-105 966 -281 0
-467 741 -486 0
-375 392 -801 0
-244 -518 849 0
-180 780 -936 0
-965 -852 149 0
-685 -283 -115 0
754 -421 356 0
918 -25 -376 0
-483 351 -234 0
-955 -660 39 0
850 -101 998 0
454 -90 913 0
-274 104 -689 0
698 -870 828 0
531 -702 -861 0
297 -824 337 0
980 523 375 0
913 -867 915 0
-906 -716 629 0
507 -282 -351 0
620 -155 952 0
425 -697 729 0
109 -986 163 0
-43 801 -212 0
370 753 360 0
-271 863 546 0
727 61 -797 0
625 -278 -4 0
-758 164 -562 0
-297 166 -545 0
486 689 -646 0
-173 445 922 0
-745 -865 -675 0
726 -464 -898 0
671 -382 49 0
-866 364 -694 0
-570 406 -880 0
939 -132 -217 0
-266 -954 -252 0
-427 -180 -567 0
223 400 -376 0
-582 -157 -517 0
-425 -737 78 0
481 -398 942 0
981 -160 -104 0
-636 585 93 0
-308 -414 889 0
116 -255 -756 0
-702 -539 -986 0
849 252 -951 0
290 -688 647 0
-693 181 -538 0
273 -892 944 0
-167 537 129 0
-102 -702 250 0
116 206 26 0
629 -507 243 0
154 794 -672 0
174 -886 391 0
-65 475 -572 0
-938 779 -996 0
-765 989 353 0
-90 -71 476 0
331 913 151 0
840 56 -355 0
-922 704 847 0
762 933 -735 0
-232 516 173 0
-390 -636 -979 0
-254 -581 312 0
-122 -240 606 0
289 -193 20 0
-636 -308 -917 0
-95 -974 -208 0
-658 358 479 0
-863 -992 -707 0
437 611 -302 0
291 226 201 0
652 -650 426 0
3 -940 -231 0
-841 99 811 0
156 549 522 0
-327 739 483 0
889 52 593 0
-187 -319 -708 0
-468 -675 -215 0
704 75 -987 0
958 412 773 0
-371 -256 -497 0
-489 444 -594 0
-326 227 -743 0
-824 -443 -329 0
-204 -88 -293 0
676 669 -903 0
348 497 194 0
402 -743 -441 0
-148 -493 -977 0
-324 -740 849 0
369 732 335 0
28 938 -196 0
81 -982 817 0
676 -529 -521 0
890 -208 -194 0
79 882 -366 0
-535 -495 466 0
766 446 730 0
820 835 -701 0
-520 64 -925 0
203 -133 629 0
464 491 -672 0
263 -474 461 0
-249 -872 -660 0
310 349 -458 0
385 284 366 0
581 344 -777 0
177 -173 -964 0
547 482 -985 0
-159 -675 566 0
-391 313 773 0
397 -653 -39 0
-196 -727 722 0
270 -960 -659 0
-481 868 -189 0
-34 -403 360 0
569 -700 -971 0
-160 -753 -846 0
590 -863 -375 0
-303 -965 26 0
-618 174 969 0
179 333 23 0
-684 -546 312 0
-221 186 865 0
384 -376 305 0
-653 -454 -322 0
24 -355 -52 0
-978 696 529 0
-338 260 -517 0
884 -499 153 0
-726 147 807 0
369 -201 781 0
977 -842 282 0
-507 -499 343 0
9 214 251 0
-612 894 867 0
498 -220 888 0
-292 36 447 0
-840 218 -407 0
262 652 546 0
598 838 -47 0
688 -517 536 0
-576 -211 -898 0
-985 81 168 0
-545 -634 -965 0
206 267 -737 0
-457 293 206 0
915 735 600 0
-234 -931 -222 0
813 85 -925 0
-979 -775 -408 0
649 -42 21 0
-47 526 -204 0
933 -927 -787 0
782 942 26 0
137 -313 -45 0
-898 -631 873 0
-677 -811 -280 0
-332 386 -921 0
-116 -450 431 0
229 -344 262 0
548 -726 -795 0
57 -588 837 0
-402 474 360 0
-338 -237 799 0
-1000 -12 919 0
872 -750 -520 0
-676 644 -670 0
-752 -45 -160 0
-561 -326 -649 0
803 635 -276 0
645 -576 -979 0
237 450 322 0
-409 224 -447 0
-365 -797 -686 0
340 -133 -179 0
-567 588 -508 0
-472 -421 -332 0
-920 -773 828 0
-470 147 886 0
-803 -918 -24 0
-61 906 648 0
-665 45 -76 0
-153 572 -375 0
486 -865 705 0
-441 -641 347 0
368 -231 50 0
587 824 846 0
16 283 776 0
-902 616 435 0
-377 -806 674 0
870 390 467 0
-627 944 735 0
681 -596 -275 0
757 686 -113 0
513 -958 175 0
-277 111 878 0
-549 424 214 0
648 -624 371 0
750 -397 -225 0
804 -162 467 0
-503 -804 -328 0
-776 352 31 0
394 372 -699 0
454 994 469 0
-774 278 258 0
-939 -406 -628 0
-590 -932 979 0
51 -864 722 0
323 -97 457 0
-259 49 -11 0
894 813 -370 0
-404 -893 -206 0
-950 -139 240 0
-285 -989 -353 0
-159 486 95 0
-130 -516 -29 0
-450 217 971 0
359 479 375 0
-601 -677 391 0
88 158 377 0
362 41 -67 0
734 -481 -301 0
364 737 -240 0
836 585 -48 0
-496 73 953 0
963 885 563 0
-847 -432 -440 0
402 -137 -391 0
384 687 96 0
-660 61 -130 0
862 -625 671 0
535 -976 494 0
904 368 -799 0
-182 188 185 0
-253 82 -605 0
842 483 103 0
173 557 -751 0
819 -286 -811 0
168 931 -389 0
-574 -883 -18 0
-761 448 -657 0
52 489 -356 0
649 -955 -607 0
134 674 689 0
-799 715 516 0
336 649 -91 0
786 -166 784 0
447 388 698 0
-68 595 832 0
-22 -131 -377 0
-951 -832 -324 0
-456 -541 22 0
-468 252 11 0
-430 -52 610 0
-465 238 478 0
-103 -381 -310 0
-88 114 432 0
830 -76 -562 0
816 -246 -767 0
409 -967 172 0
736 -506 129 0
-425 -753 423 0
480 827 90 0
-234 653 200 0
775 -944 339 0
268 91 -859 0
-997 -46 -446 0
477 467 907 0
850 332 303 0
-788 109 652 0
-868 -642 -817 0
529 -253 -986 0
-656 441 -365 0
430 479 620 0
115 -238 -660 0
229 511 -146 0
-598 764 374 0
223 791 -378 0
723 625 571 0
419 300 905 0
98 -199 575 0
387 141 -566 0
-366 -977 398 0
514 -221 757 0
216 87 808 0
4 -69 -84 0
-608 -483 -513 0
864 281 648 0
706 -497 393 0
133 702 -172 0
449 612 563 0
478 815 349 0
-855 790 -131 0
479 -553 760 0
-425 -386 583 0
495 -187 -617 0
-571 942 -628 0
823 -461 -75 0
-758 694 -986 0
959 -413 -796 0
-339 -38 -701 0
-827 217 324 0
365 262 -154 0
868 -703 954 0
-282 862 -147 0
-531 234 -446 0
958 -34 707 0
-177 850 312 0
-531 624 188 0
-640 695 -234 0
-613 -105 -432 0
871 649 -828 0
-23 819 -324 0
933 -920 -527 0
-908 -592 784 0
-69 964 333 0
-900 357 449 0
863 -916 196 0
-384 -593 -27 0
261 -431 195 0
232 -40 580 0
924 459 -548 0
187 857 238 0
24 850 528 0
472 227 287 0
-241 -357 74 0
119 610 940 0
-863 147 974 0
-338 -627 -996 0
-691 655 246 0
-489 -824 718 0
738 719 -429 0
393 824 -893 0
-66 -670 -978 0
513 -840 274 0
-556 -413 76 0
-236 81 -99 0
-933 805 956 0
2 711 473 0
562 -509 188 0
771 -636 -956 0
878 316 667 0
-17 50 -427 0
-447 218 -811 0
-278 -238 -347 0
937 -3 -144 0
934 249 -808 0
980 -435 398 0
-602 -787 -743 0
-751 729 -920 0
145 636 -273 0
945 418 -675 0
-753 916 -907 0
-202 -122 -935 0
596 538 -49 0
812 275 -883 0
-380 550 -184 0
839 512 718 0
689 -592 -661 0
-236 743 34 0
-88 -76 736 0
461 -941 538 0
-113 -980 -772 0
-973 -880 160 0
-184 -999 87 0
35 483 -339 0
564 -478 959 0
242 666 283 0
-530 -80 -990 0
145 330 746 0
266 -916 478 0
-649 78 34 0
595 164 777 0
601 -34 -726 0
986 779 649 0
873 20 603 0
-292 -844 129 0
-28 22 877 0
53 322 59 0
973 -503 556 0
-216 454 -558 0
515 -127 -545 0
-175 -834 103 0
-110 -101 -670 0
766 502 632 0
-317 683 -774 0
-613 515 -368 0
-507 315 710 0
78 -697 -377 0
450 231 -335 0
-270 -938 -951 0
203 -319 -37 0
469 856 -46 0
-118 173 -204 0
357 -671 792 0
971 -104 -256 0
999 -919 324 0
-5 853 -22 0
-945 242 -389 0
-805 -73 -348 0
-602 -802 -90 0
263 -333 -696 0
-727 14 350 0
-392 -625 -117 0
837 -360 462 0
532 -135 954 0
875 650 -437 0
-43 7 -96 0
656 -302 822 0
-940 -112 159 0
143 -574 -756 0
301 325 430 0
494 810 566 0
782 -293 -877 0
-80 677 731 0
-492 -948 -313 0
56 263 334 0
-511 -434 -313 0
-376 -96 972 0
165 -495 827 0
-200 312 994 0
-766 445 -64 0
362 -408 647 0
-698 863 64 0
472 -415 -482 0
494 403 -775 0
365 -285 760 0
-10 -765 853 0
-440 929 269 0
-412 -666 -232 0
940 75 919 0
-456 738 -356 0
813 -133 -351 0
-752 31 92 0
-638 702 -304 0
-858 527 388 0
-106 -547 366 0
685 -464 287 0
-47 854 472 0
-346 -233 -594 0
189 -591 731 0
-402 -627 758 0
-304 -238 755 0
764 656 -917 0
-562 -336 938 0
-324 -890 132 0
-890 -213 914 0
390 224 487 0
-524 913 519 0
-332 264 318 0
906 76 415 0
-743 -30 515 0
-465 347 -346 0
616 -475 -363 0
-411 -745 716 0
-286 335 283 0
-905 484 624 0
-655 -98 251 0
-628 266 882 0
-315 -581 344 0
670 -194 247 0
635 -884 626 0
-204 -393 -81 0
-292 157 -852 0
-758 -150 776 0
-7 501 923 0
512 -524 332 0
-505 -365 846 0
-279 -430 480 0
126 119 -711 0
-801 -408 122 0
439 549 -606 0
178 437 53 0
522 863 -116 0
-230 327 441 0
-651 813 -485 0
-123 -121 -721 0
636 -382 443 0
-116 -63 740 0
-394 319 920 0
-366 -198 166 0
817 635 -336 0
-365 -306 -887 0
806 67 -584 0
-343 -497 153 0
-152 -588 567 0
-676 -303 584 0
-489 -762 128 0
25 330 -757 0
315 -323 -609 0
591 9 -727 0
327 -360 -453 0
-958 342 -67 0
894 980 783 0
66 -560 -445 0
-757 -886 -885 0
-435 599 -437 0
-947 91 -55 0
609 724 603 0
751 -743 -168 0
798 -856 -366 0
981 642 445 0
702 883 -947 0
-911 910 -526 0
-336 664 -328 0
-379 596 -805 0
-11 183 -898 0
783 -350 -325 0
-823 -210 -738 0
484 910 -589 0
-77 -10 -152 0
-217 188 -172 0
-345 891 192 0
407 552 949 0
285 -208 396 0
665 824 -510 0
-280 -630 -260 0
493 -434 -677 0
-242 41 660 0
120 -951 342 0
150 -332 -362 0
-393 959 45 0
-906 834 -706 0
375 -674 615 0
-677 -318 -920 0
-724 276 -27 0
-169 8 639 0
350 -848 91 0
42 -28 -586 0
-727 -794 -739 0
456 -415 -666 0
-320 -419 -842 0
-496 594 -394 0
554 -421 175 0
-265 230 -166 0
-668 76 -370 0
895 616 -620 0
-206 573 -638 0
558 -317 -294 0
709 -431 -156 0
-945 541 -424 0
-504 -130 774 0
-920 -169 752 0
-646 722 173 0
423 -13 -512 0
118 992 647 0
330 254 546 0
687 139 680 0
-892 349 -407 0
226 -26 -533 0
-118 943 -682 0
540 386 503 0
625 669 -23 0
540 -81 -808 0
920 -713 -904 0
354 222 -516 0
793 606 -661 0
-866 -207 -79 0
-400 782 -130 0
-986 360 223 0
881 533 -382 0
825 -331 -903 0
915 -381 -359 0
366 436 -787 0
-273 -22 -215 0
-49 -3 665 0
-500 -239 -446 0
20 -346 -873 0
-93 -792 -937 0
323 990 231 0
-621 -886 -109 0
-612 739 162 0
-890 -582 -395 0
-542 -513 357 0
943 584 719 0
508 149 -983 0
-624 -542 267 0
184 31 -949 0
-916 910 401 0
-984 -875 726 0
-80 -479 721 0
-426 222 674 0
-193 -525 96 0
-908 654 -899 0
-124 868 -876 0
-273 443 -539 0
-158 -949 24 0
-795 -748 -944 0
207 -976 -299 0
280 564 -773 0
602 881 641 0
458 -972 543 0
-505 531 496 0
-387 -269 205 0
509 768 -620 0
-246 36 -146 0
-983 931 -205 0
-175 -95 647 0
913 352 -126 0
647 -168 -338 0
-238 907 226 0
696 112 488 0
811 679 434 0
-566 -418 -120 0
683 -718 -425 0
-292 775 674 0
-421 -439 -923 0
-718 213 -594 0
-712 -957 -704 0
-183 87 56 0
725 377 29 0
-386 -687 -17 0
-619 -787 -616 0
646 -490 870 0
-885 586 865 0
-106 167 470 0
213 -594 -995 0
-832 -839 -966 0
573 -778 299 0
429 319 497 0
450 462 -569 0
-497 -416 802 0
484 723 -987 0
951 -356 112 0
835 59 470 0
-186 762 -633 0
624 863 745 0
-754 -573 721 0
226 -576 -237 0
659 -808 76 0
-304 29 197 0
27 -501 -487 0
-641 -314 960 0
572 61 811 0
-523 536 -355 0
-662 -738 -43 0
211 760 155 0
973 -842 -600 0
-271 862 -272 0
550 60 670 0
-548 -509 973 0
-958 -303 612 0
-899 -842 821 0
-195 66 -911 0
-722 -563 -671 0
196 463 -681 0
398 212 -415 0
-697 -359 287 0
935 427 -468 0
104 653 -94 0
62 -942 689 0
801 109 -29 0
493 -690 75 0
25 -489 914 0
698 -718 278 0
365 -882 -844 0
-206 -79 -18 0
131 77 -783 0
-837 -475 106 0
590 395 419 0
-238 -318 969 0
-594 251 -305 0
-677 -364 811 0
931 -394 -244 0
248 -867 -585 0
-282 467 123 0
734 -697 276 0
230 -575 -61 0
426 -884 -671 0
-139 918 -450 0
-917 766 -901 0
999 656 126 0
504 232 735 0
596 858 436 0
-57 439 229 0
-763 376 719 0
-850 -485 847 0
-715 420 -293 0
103 939 -210 0
553 111 -238 0
882 -110 -813 0
-50 483 -405 0
15 65 -508 0
-827 -814 -570 0
-217 -298 -697 0
-603 -198 11 0
991 523 -83 0
855 -930 -503 0
16 -657 461 0
-486 374 594 0
578 276 243 0
-163 71 567 0
462 186 970 0
93 -132 520 0
-575 854 -73 0
145 -289 544 0
-861 -619 -995 0
111 580 725 0
-268 -87 886 0
-302 -313 -340 0
-395 986 365 0
28 -136 -603 0
-157 -239 -113 0
-349 616 622 0
-813 -290 -945 0
637 443 481 0
-134 -80 347 0
153 -907 192 0
752 -919 42 0
-385 -326 -990 0
-247 -98 665 0
-172 -955 -476 0
-518 39 -41 0
-112 169 -888 0
283 -739 113 0
-489 275 -96 0
51 -898 -948 0
-88 -686 376 0
-955 -914 631 0
947 145 200 0
-978 837 399 0
145 970 319 0
-623 317 818 0
-239 640 -345 0
473 325 -287 0
-221 -177 -469 0
988 784 -237 0
171 390 354 0
-478 684 640 0
-450 75 506 0
-548 648 100 0
106 -255 -937 0
881 -696 -118 0
-281 -359 -99 0
885 -871 887 0
234 -56 942 0
984 -4 -433 0
582 -832 689 0
169 -810 -546 0
-847 -434 -685 0
-40 -191 442 0
458 624 766 0
406 847 795 0
-627 -801 -317 0
451 -173 260 0
483 -736 659 0
-984 -454 -870 0
-180 833 297 0
152 289 -124 0
-170 -697 -827 0
970 464 7 0
-523 -837 -160 0
565 311 -636 0
404 -855 -20 0
226 -340 -149 0
598 964 80 0
282 -551 -967 0
-212 -949 729 0
94 -663 -176 0
729 -791 634 0
936 -610 -691 0
-637 -970 791 0
557 -201 -296 0
-420 -285 -843 0
-477 614 -776 0
-49 347 862 0
495 933 -660 0
498 928 -909 0
-879 -775 -356 0
-53 -820 -120 0
-417 17 -15 0
948 -73 -297 0
-480 -640 -633 0
372 -440 406 0
-886 278 705 0
-171 396 891 0
-332 53 -152 0
-151 -744 -189 0
355 921 -894 0
251 -664 727 0
-192 -505 -65 0
-951 945 -348 0
6 -354 -512 0
-950 -581 580 0
-488 70 311 0
6 -379 704 0
-704 136 424 0
-644 -647 -491 0
-739 289 421 0
879 -449 -95 0
-426 429 261 0
-599 759 -712 0
992 -578 -809 0
504 426 412 0
717 -748 -855 0
-471 -298 980 0
425 -490 -73 0
-281 -991 -187 0
-452 -80 -227 0
591 498 768 0
631 -319 -642 0
-384 832 -20 0
261 -728 440 0
722 133 -46 0
685 627 -167 0
731 393 426 0
600 660 -282 0
819 -385 -978 0
904 -360 934 0
-877 809 971 0
415 55 -741 0
-317 397 -61 0
476 -631 261 0
-316 1 464 0
770 827 265 0
244 -364 -101 0
985 -460 -505 0
-593 -929 410 0
-444 570 275 0
435 462 -263 0
933 -119 -344 0
-560 -395 665 0
-222 -539 177 0
637 -249 -77 0
-210 -975 -803 0
-188 567 -466 0
568 -393 157 0
-65 690 280 0
-232 191 -453 0
-99 912 836 0
689 -48 -755 0
982 270 435 0
-718 851 351 0
519 -773 598 0
394 357 -310 0
-162 566 -448 0
678 642 -173 0
849 44 -796 0
368 233 389 0
702 -886 -869 0
205 -970 521 0
310 -579 -935 0
11 -957 962 0
-690 651 -744 0
-452 -663 -389 0
-773 -612 -282 0
-319 -499 -3 0
-637 -443 -759 0
-818 -513 -579 0
187 -948 -55 0
-858 857 -655 0
-346 -177 -491 0
-793 129 -101 0
326 -588 -692 0
-835 259 883 0
-228 -347 623 0
782 408 785 0
944 -1000 -759 0
532 -876 828 0
442 -500 600 0
-110 -818 537 0
140 -54 566 0
-773 -415 -707 0
-229 -383 991 0
-479 -240 23 0
672 -120 -537 0
8 448 118 0
659 934 -780 0
-627 406 65 0
36 -118 -211 0
369 692 73 0
207 681 406 0
860 -699 -999 0
-254 190 -200 0
-548 -78 953 0
628 -83 30 0
998 449 -809 0
191 -531 747 0
-856 619 732 0
798 819 -675 0
-274 -116 -240 0
62 -125 810 0
167 -504 318 0
462 71 -180 0
-136 -618 -178 0
-901 725 632 0
-211 740 -232 0
-638 846 90 0
176 -240 -546 0
-653 -227 -891 0
849 -274 632 0
-724 -676 -665 0
419 411 -787 0
779 361 286 0
-301 -498 -281 0
113 888 22 0
410 729 -998 0
332 34 -401 0
476 342 -14 0
-628 502 -420 0
-358 -304 -639 0
452 729 9 0
730 -228 622 0
-583 -147 -30 0
197 -722 -653 0
-886 -351 555 0
-632 709 199 0
-818 -348 -732 0
12 -48 356 0
-410 -901 625 0
-392 340 -730 0
-27 -853 -187 0
951 -869 -180 0
503 -203 -217 0
-50 681 374 0
-338 156 -637 0
865 111 388 0
865 87 -841 0
-992 940 615 0
138 463 738 0
123 -64 -38 0
-415 818 -809 0
-122 318 689 0
-85 663 467 0
992 661 244 0
-955 992 728 0
-771 315 459 0
426 801 -241 0
-698 999 -213 0
-702 912 -474 0
784 363 995 0
-980 -421 -967 0
-393 662 -471 0
800 553 285 0
-592 -66 978 0
746 344 -115 0
770 -569 859 0
-920 449 -629 0
730 -428 -854 0
-456 655 287 0
-846 130 -226 0
238 758 367 0
-182 -858 97 0
-290 -357 -574 0
-641 942 682 0
-896 715 993 0
913 694 -285 0
786 -461 510 0
-415 692 569 0
146 -681 524 0
-821 17 506 0
775 -467 -585 0
-2 -149 -796 0
349 -823 137 0
-815 -48 445 0
-976 812 -266 0
-319 -372 951 0
517 -710 -272 0
607 1000 -422 0
-75 218 915 0
-707 -810 -538 0
-694 430 -786 0
-45 -601 805 0
101 980 404 0
-365 -965 -581 0
660 113 -923 0
-848 -657 380 0
-282 -412 -727 0
822 204 311 0
946 -117 -856 0
-569 203 405 0
-422 557 -634 0
290 -956 919 0
-516 -355 -572 0
190 490 -259 0
-569 -390 798 0
-443 199 93 0
-674 -841 -931 0
923 -272 -190 0
-762 52 -880 0
-188 -290 838 0
-199 -969 -989 0
-316 140 544 0
-617 -29 -397 0
481 275 -655 0
483 -89 -174 0
754 256 595 0
194 195 573 0
-681 -313 -974 0
-204 -304 98 0
867 959 175 0
899 210 -718 0
595 360 614 0
200 802 -177 0
88 -191 -959 0
849 876 -685 0
-585 592 315 0
-363 550 -911 0
703 187 -197 0
-529 -870 -203 0
-686 163 810 0
680 173 223 0
-978 112 192 0
-268 -770 935 0
260 776 -56 0
532 -676 -617 0
-7 330 -373 0
126 941 -454 0
243 382 198 0
91 -411 245 0
-888 -518 115 0
135 -843 -797 0
-355 62 930 0
204 -943 -881 0
-695 -694 221 0
-608 637 99 0
-452 645 755 0
-772 356 347 0
-503 547 -639 0
-670 -663 623 0
11 -567 -172 0
378 -955 312 0
512 -563 577 0
-941 -492 486 0
-341 -617 339 0
-68 696 281 0
-958 153 -278 0
188 567 329 0
459 80 -380 0
573 -518 920 0
-571 -643 617 0
393 452 -707 0
-375 -746 757 0
-683 690 35 0
-872 -352 -674 0
182 928 -47 0
248 -130 -315 0
135 -670 -35 0
-974 561 -717 0
-729 -253 -755 0
-741 -621 -743 0
318 142 225 0
-102 -561 -446 0
-106 684 -583 0
580 -555 117 0
784 349 -363 0
811 821 -336 0
-592 -653 447 0
723 -897 -952 0
748 939 -14 0
-102 129 -170 0
414 437 -4 0
-90 438 -657 0
-598 -185 515 0
197 852 -850 0
134 543 155 0
-739 -297 -115 0
-104 198 -37 0
367 -209 872 0
-379 -508 272 0
-104 -626 -191 0
-832 347 -396 0
-67 -660 -251 0
572 36 483 0
-11 -306 -956 0
600 967 -392 0
602 -919 418 0
-677 -806 -648 0
268 -770 -490 0
515 212 332 0
764 -849 -358 0
-265 307 759 0
-987 -48 -805 0
-519 -644 -466 0
808 -422 -521 0
623 -369 235 0
-691 64 -20 0
-242 641 721 0
424 -872 78 0
-663 -892 -715 0
-753 424 195 0
-328 -260 -458 0
-584 -329 716 0
-81 -191 -921 0
-269 595 340 0
-777 955 672 0
885 512 175 0
287 3 -909 0
-571 32 -398 0
712 -145 518 0
453 -336 932 0
-834 960 -773 0
423 725 636 0
-997 283 -908 0
-670 342 960 0
-167 496 654 0
690 897 -59 0
-20 288 -170 0
159 -110 -516 0
-481 516 -943 0
326 -948 -516 0
948 585 464 0
422 -206 -602 0
436 -624 40 0
957 205 -924 0
-390 470 -484 0
105 -993 -475 0
231 -321 -363 0
-88 -499 -585 0
744 754 -800 0
-754 -168 -98 0
-736 532 413 0
-44 88 -89 0
328 576 36 0
-60 4 -653 0
-603 -995 -348 0
-491 -405 -402 0
124 824 -526 0
-412 -9 329 0
-262 976 -113 0
643 291 -385 0
667 994 -396 0
666 851 -589 0
193 -965 -990 0
543 -956 897 0
-392 -810 955 0
-221 300 -153 0
-437 955 -911 0
-402 649 557 0
-296 -697 -269 0
-626 -35 -954 0
54 159 -684 0
-415 291 947 0
-477 -659 275 0
-716 758 271 0
705 -118 -830 0
673 717 -678 0
-610 -64 -480 0
728 838 -599 0
-473 -415 -203 0
-286 906 -733 0
742 -842 -84 0
-822 -939 95 0
931 297 -968 0
496 882 593 0
-650 707 584 0
301 -48 -340 0
-486 620 386 0
-39 -847 88 0
375 520 -310 0
-571 431 757 0
-238 -162 -384 0
-35 257 398 0
16 -739 24 0
746 304 -501 0
396 -355 -517 0
126 361 -514 0
-550 853 32 0
-664 931 -268 0
-733 241 309 0
-247 404 -155 0
846 14 -769 0
224 -963 999 0
629 -10 -960 0
-819 -377 86 0
-537 -878 -789 0
264 -603 -614 0
376 952 -409 0
-106 -772 -582 0
197 -373 -303 0
355 940 262 0
-297 -845 -336 0
993 929 872 0
324 393 -543 0
-609 -840 -724 0
-676 696 155 0
294 475 784 0
165 935 -578 0
180 -568 822 0
166 -346 210 0
854 -938 989 0
767 -598 -924 0
442 891 337 0
-405 613 638 0
-16 837 696 0
-695 -95 431 0
-807 225 -932 0
-889 -290 -306 0
-153 126 -280 0
9 -125 -524 0
785 484 710 0
259 -448 -513 0
-64 -192 763 0
477 662 -467 0
762 429 -282 0
973 -482 -267 0
274 -826 -181 0
650 -32 -845 0
-586 -285 -687 0
-823 -292 -105 0
-891 187 -575 0
678 -983 -168 0
-94 -960 405 0
-514 -791 95 0
72 -328 -647 0
571 813 231 0
805 789 755 0
-535 -869 -520 0
21 -384 221 0
-668 -17 628 0
215 -739 -526 0
-616 -336 143 0
431 645 380 0
654 -331 -527 0
-456 603 471 0
-865 500 -820 0
-967 307 -784 0
-942 759 820 0
-934 684 13 0
-671 -462 -867 0
-481 -917 -828 0
985 -418 -386 0
451 263 -42 0
-971 738 903 0
498 389 -733 0
935 -560 577 0
123 297 -671 0
-898 -787 883 0
17 -596 -495 0
797 -628 -740 0
312 995 753 0
-391 -942 -815 0
395 74 40 0
-318 89 831 0
686 -284 968 0
-355 -878 539 0
923 116 207 0
116 359 108 0
618 -167 -554 0
-545 44 129 0
145 -761 -576 0
386 888 60 0
585 992 -735 0
-346 401 247 0
-386 -654 -826 0
-828 521 320 0
-614 460 814 0
373 408 -339 0
316 892 669 0
-25 381 804 0
816 -333 996 0
-163 -476 -927 0
-326 -348 426 0
543 -833 -59 0
89 8 -175 0
994 -557 -324 0
529 765 -553 0
232 865 639 0
-351 990 944 0
516 706 496 0
-71 -111 -857 0
100 6 80 0
-397 497 -452 0
-370 -217 -836 0
784 -728 846 0
495 884 740 0
-907 126 858 0
-107 429 -311 0
550 541 -602 0
-53 -437 981 0
-965 983 -646 0
-825 -26 634 0
360 248 -748 0
488 -317 -984 0
821 699 -27 0
-693 773 292 0
697 819 128 0
-288 189 787 0
-390 45 -915 0
-364 -967 -436 0
-169 319 -939 0
-868 689 -249 0
873 -784 -966 0
712 -486 35 0
407 -618 227 0
727 -111 -463 0
-50 929 -509 0
19 815 -477 0
156 -716 769 0
884 -202 423 0
-21 90 556 0
61 459 -576 0
387 -18 -388 0
-975 -973 881 0
-133 -432 789 0
820 -569 -834 0
-979 423 -907 0
734 119 -49 0
590 -52 -58 0
666 -739 48 0
-883 -569 -360 0
875 -672 -753 0
545 516 -635 0
-314 741 -814 0
-408 422 -198 0
-53 361 -375 0
607 107 -254 0
64 -476 608 0
888 -846 -623 0
246 -651 -706 0
536 -398 926 0
359 685 -636 0
486 -564 -794 0
260 -798 -832 0
978 871 424 0
-791 731 782 0
416 -990 -415 0
547 -423 -133 0
-275 -50 -942 0
-965 367 -759 0
276 -739 -977 0
340 675 -221 0
-478 49 -281 0
402 601 -136 0
102 732 317 0
17 -741 59 0
689 -509 -771 0
330 4 923 0
-682 261 -108 0
-818 -240 79 0
-624 -937 874 0
-660 -689 -530 0
571 -105 168 0
959 -93 396 0
-343 -656 -671 0
759 437 124 0
-88 -648 15 0
760 581 -412 0
129 -659 -451 0
-620 247 -198 0
473 -876 -546 0
-539 100 -53 0
896 888 -63 0
810 650 623 0
717 -768 -928 0
-826 -454 -458 0
-273 891 -611 0
-154 -396 376 0
-557 979 -729 0
395 -907 -749 0
781 713 979 0
-273 -367 -769 0
541 633 36 0
-899 924 279 0
-504 266 200 0
-183 129 -145 0
-371 -528 574 0
184 993 -308 0
163 -1 932 0
325 -710 -784 0
989 -34 122 0
313 14 641 0
844 910 -922 0
22 -40 916 0
-544 -862 144 0
-140 931 899 0
-489 691 258 0
285 690 -351 0
65 883 337 0
185 1 605 0
100 -967 -972 0
-192 -606 -722 0
548 577 -51 0
-483 -68 -194 0
-439 -399 -621 0
-121 913 -988 0
588 984 37 0
-633 -589 455 0
330 -621 218 0
831 -579 344 0
-481 989 -456 0
388 -102 -431 0
-623 611 -586 0
189 -648 -566 0
-23 -436 -9 0
350 -681 451 0
-517 -687 -975 0
-432 -825 -674 0
153 -553 -947 0
390 -275 861 0
894 -941 796 0
56 -822 -769 0
-294 971 717 0
-75 -62 701 0
-208 -129 -619 0
-959 -944 -364 0
23 -762 -829 0
-330 687 -213 0
-510 537 -917 0
305 932 -1000 0
-841 -985 -380 0
-909 981 -93 0
828 -371 -747 0
-981 -976 -180 0
-848 -946 -923 0
-530 697 -554 0
583 989 -995 0
-104 -971 -823 0
347 603 963 0
66 555 -909 0
-388 922 99 0
-167 -38 -262 0
-579 860 905 0
328 15 -803 0
-494 -644 382 0
474 798 -204 0
-459 -840 647 0
150 340 -312 0
-399 -781 -338 0
60 178 469 0
-869 -506 -33 0
303 206 -780 0
-658 235 -322 0
821 -262 -572 0
-949 -312 -676 0
539 374 52 0
-27 847 175 0
-416 249 -224 0
416 224 832 0
597 389 -420 0
-566 -165 -969 0
892 -595 -127 0
233 182 -58 0
-828 453 -489 0
-243 517 -315 0
-569 -724 -743 0
-346 599 146 0
-94 -684 513 0
675 785 -700 0
-385 -778 -676 0
-556 72 208 0
520 -973 810 0
384 -144 552 0
778 -387 612 0
826 549 -188 0
59 285 -25 0
472 -688 877 0
-668 -380 651 0
516 -547 586 0
892 649 582 0
419 807 -469 0
-580 329 653 0
761 -242 -152 0
910 -969 523 0
426 728 -817 0
506 -623 804 0
922 -623 772 0
194 958 -48 0
-16 -357 -315 0
-377 609 265 0
243 -631 921 0
870 -230 225 0
-504 -650 -635 0
464 560 -644 0
-438 774 606 0
853 -590 -614 0
402 749 62 0
-803 -26 765 0
940 769 337 0
-311 329 418 0
-540 -431 -881 0
890 -337 -640 0
54 653 921 0
-137 -788 471 0
708 -397 728 0
772 -120 -859 0
-819 465 701 0
286 -386 79 0
629 -378 37 0
3 -427 -930 0
485 -860 -324 0
-91 -656 334 0
503 770 -34 0
-91 304 -234 0
795 776 453 0
51 -519 -819 0
881 -359 -974 0
232 -535 -601 0
-436 -435 58 0
807 423 600 0
-928 435 -193 0
-213 862 -26 0
754 -113 -807 0
-565 770 946 0
404 913 -904 0
655 -430 -906 0
440 688 74 0
-303 -625 564 0
915 853 -533 0
-713 -798 -70 0
-973 879 977 0
843 88 -396 0
191 -406 -173 0
-398 -134 38 0
669 -983 78 0
972 24 -732 0
-513 104 569 0
-262 800 -113 0
-589 318 604 0
301 745 -127 0
-522 284 -681 0
351 -708 -383 0
46 -371 831 0
855 196 296 0
-344 -535 872 0
671 -108 -139 0
-194 383 -642 0
556 565 -312 0
-956 -154 -618 0
790 -412 -419 0
640 -412 373 0
546 637 958 0
-514 -341 27 0
866 -130 -280 0
147 -488 153 0
-191 669 -975 0
790 383 -748 0
-539 770 79 0
-391 -5 -797 0
810 967 455 0
-711 405 -551 0
511 872 -552 0
-574 -416 -829 0
-366 89 829 0
-895 935 -314 0
-166 -92 -174 0
-804 278 529 0
911 -531 615 0
884 973 811 0
-527 306 -663 0
-210 283 -801 0
440 -596 166 0
-566 -93 512 0
42 581 704 0
967 363 -993 0
297 743 822 0
89 285 -475 0
78 -523 228 0
686 -439 -29 0
-849 -204 -590 0
162 -173 871 0
489 411 -651 0
727 -271 -344 0
-475 473 966 0
-840 -727 -593 0
-500 -454 549 0
776 -913 777 0
984 739 -405 0
-677 -260 -362 0
632 939 15 0
-888 30 261 0
-594 -604 -421 0
-462 -285 -70 0
-609 -525 -353 0
986 510 -857 0
135 511 46 0
424 -530 -786 0
725 -686 186 0
-888 976 252 0
-490 13 117 0
-979 -412 147 0
-976 -725 -215 0
-808 -601 331 0
-143 956 -239 0
-91 967 552 0
-141 -989 -481 0
702 211 114 0
664 299 -580 0
907 483 -377 0
806 127 -133 0
40 780 782 0
740 -300 522 0
283 629 402 0
868 -924 -961 0
928 -149 -464 0
-129 110 471 0
408 -488 409 0
119 346 71 0
843 -235 -834 0
545 -376 787 0
90 356 -585 0
-293 -114 566 0
728 -940 -193 0
-881 909 444 0
288 686 250 0
-492 633 293 0
-575 -791 587 0
-720 -2 519 0
-581 -212 732 0
958 583 231 0
-450 -906 -479 0
72 -395 -563 0
851 867 448 0
815 -421 558 0
-366 407 894 0
-222 -692 -133 0
-930 199 -146 0
-748 -875 562 0
-253 350 -729 0
213 821 -293 0
-461 -228 349 0
809 -281 446 0
902 -705 953 0
950 -175 -481 0
310 -716 -400 0
-718 774 -586 0
133 -534 269 0
-276 -61 -461 0
817 -17 -515 0
83 -809 747 0
-914 967 260 0
-476 -988 938 0
-402 -393 -499 0
-625 895 -608 0
903 -561 677 0
943 -30 -545 0
-400 -274 -258 0
-999 302 898 0
-396 -428 -907 0
738 -336 -658 0
45 767 480 0
-649 484 272 0
957 -134 173 0
-464 -549 -763 0
873 306 319 0
-404 900 590 0
599 -275 -735 0
-810 279 -767 0
-192 -524 -501 0
-47 68 -902 0
-942 843 688 0
-61 871 -346 0
173 -534 -949 0
499 -59 813 0
144 178 -661 0
-487 714 488 0
940 372 280 0
139 -556 61 0
201 -638 14 0
-840 74 590 0
-794 612 814 0
993 -830 186 0
423 -600 835 0
976 -119 225 0
703 -629 -57 0
671 633 -259 0
177 497 -635 0
-450 -236 712 0
-406 455 913 0
196 -269 696 0
-103 755 -854 0
-255 -880 -855 0
-631 -424 29 0
294 883 566 0
528 243 -504 0
-930 -532 -149 0
404 -993 -59 0
-443 -542 622 0
-912 -775 -179 0
-775 -860 987 0
-119 385 -902 0
-648 -834 249 0
571 263 509 0
361 923 275 0
408 -370 -83 0
-731 -535 672 0
-502 -799 304 0
-36 -365 654 0
815 -755 224 0
-333 -641 156 0
365 -443 978 0
635 -689 -166 0
410 -145 -179 0
377 -841 -737 0
543 -253 524 0
912 -188 -564 0
33 115 -350 0
579 -716 -162 0
463 -563 872 0
815 48 -493 0
-524 129 667 0
-406 834 -900 0
404 425 833 0
-316 -251 307 0
499 -379 -805 0
387 407 199 0
810 -351 800 0
236 -715 175 0
773 -907 -562 0
335 811 -606 0
-103 -491 -992 0
-522 309 -458 0
980 807 52 0
-834 -171 814 0
37 -715 387 0
-22 205 -325 0
-166 -756 -372 0
-46 392 -914 0
-372 -77 -606 0
-601 -139 -392 0
907 -725 708 0
703 -680 442 0
456 687 311 0
-204 -863 -496 0
96 -400 300 0
409 311 -682 0
-319 -136 -59 0
751 -76 -43 0
-535 -593 345 0
250 544 979 0
-694 -246 598 0
655 -493 120 0
835 855 250 0
629 84 -212 0
-765 -774 -463 0
327 -51 -300 0
-950 692 -719 0
-286 228 999 0
533 -510 -595 0
458 -280 781 0
51 -353 -849 0
663 -622 817 0
181 -866 -131 0
210 36 -132 0
-549 -583 64 0
964 307 -187 0
645 939 -180 0
405 -768 -535 0
-940 -650 885 0
541 940 823 0
-579 -588 136 0
131 -44 661 0
549 -465 -854 0
977 -962 -973 0
-232 -792 -456 0
-5 248 988 0
673 577 -237 0
921 -504 -320 0
-250 -551 -2 0
952 211 91 0
368 971 -85 0
-61 -982 -411 0
262 86 -363 0
241 -848 270 0
815 -288 345 0
443 874 -699 0
-211 -81 -285 0
-563 744 -552 0
171 509 197 0
-652 -152 667 0
930 -747 924 0
976 358 258 0
-777 105 -810 0
247 -364 555 0
836 631 -87 0
572 -428 -787 0
-419 186 251 0
284 -442 -827 0
-937 342 -906 0
356 775 398 0
-505 174 -832 0
-820 768 862 0
-33 50 -939 0
-29 701 -191 0
-330 -494 -331 0
-917 592 -340 0
-476 299 380 0
443 214 -620 0
-323 653 622 0
826 782 -182 0
-993 208 511 0
-572 -695 -951 0
-271 302 -177 0
-717 -179 -999 0
-567 911 -47 0
-828 -120 -713 0
934 168 -441 0
-311 779 -41 0
-36 393 204 0
830 -804 30 0
-466 276 -335 0
974 127 989 0
147 224 -260 0
588 -583 -650 0
-428 657 -306 0
-47 -972 -580 0
675 904 646 0
-319 492 -100 0
-589 102 -913 0
317 944 744 0
929 -188 -424 0
533 833 -581 0
306 -656 -65 0
-400 632 183 0
-414 176 879 0
86 -90 -765 0
-406 -963 762 0
10 999 111 0
523 -100 -234 0
215 350 975 0
567 206 -310 0
-112 -668 -723 0
882 844 -440 0
-652 -742 191 0
-180 78 -95 0
-426 -523 -875 0
219 -67 -474 0
-766 -685 -836 0
-532 79 -916 0
-596 73 -644 0
10 -433 -68 0
284 -735 731 0
470 -995 766 0
-874 14 -360 0
315 938 -334 0
-926 798 -173 0
953 790 -115 0
-275 147 129 0
-103 774 -928 0
-969 900 -166 0
33 219 -434 0
14 -548 -400 0
845 -878 35 0
764 -314 -267 0
168 -688 -45 0
122 542 193 0
-854 -356 55 0
-778 -214 -287 0
123 858 -161 0
768 627 -628 0
-513 -306 -989 0
692 739 443 0
542 -801 -363 0
-136 846 -545 0
825 -956 -775 0
444 -675 -415 0
-639 10 -886 0
280 976 327 0
768 -57 898 0
40 -932 315 0
624 -459 -412 0
603 271 -382 0
566 66 148 0
-882 -439 198 0
871 -402 -36 0
361 -561 649 0
-191 -19 59 0
617 964 791 0
755 948 -88 0
-257 415 944 0
-394 -801 14 0
-927 -142 -972 0
787 326 221 0
-987 172 -708 0
14 6 678 0
-838 -43 -786 0
730 -329 -187 0
-389 -392 -679 0
696 44 64 0
-928 -994 -345 0
873 -565 290 0
519 558 -507 0
97 -534 205 0
-896 -644 26 0
429 979 -241 0
504 -395 85 0
456 952 710 0
347 -524 951 0
-664 337 -841 0
20 880 -386 0
428 -417 268 0
-619 -955 1000 0
-257 140 741 0
392 284 905 0
-69 -993 -101 0
-243 197 -210 0
-858 -284 124 0
631 302 344 0
-297 900 -797 0
-232 -970 127 0
-891 -179 405 0
494 -938 105 0
477 591 877 0
-589 -316 -390 0
-71 -145 227 0
387 141 -930 0
-624 50 -499 0
-516 930 -232 0
433 705 878 0
-482 82 -915 0
77 -5 -92 0
-510 -491 -156 0
-576 511 -386 0
98 770 507 0
-774 -908 629 0
-11 763 -944 0
-640 -423 -809 0
-846 -213 682 0
330 -974 -386 0
764 816 940 0
642 -982 627 0
-879 557 -287 0
-79 -257 -594 0
590 -697 925 0
165 -378 -218 0
-683 -255 -147 0
452 392 773 0
391 -517 -546 0
-406 -672 -724 0
-714 634 358 0
-717 122 75 0
-653 160 -143 0
489 -307 -440 0
-148 -945 988 0
-461 -610 375 0
747 -809 102 0
-999 609 792 0
-698 340 -886 0
495 168 541 0
363 -388 -96 0
715 -847 -127 0
887 -29 -148 0
167 257 -4 0
-12 531 259 0
972 -370 28 0
547 415 581 0
48 952 -885 0
177 -459 511 0
-986 -196 384 0
588 703 -471 0
-734 -826 -986 0
219 -92 351 0
852 660 197 0
-827 -491 -978 0
-116 94 -45 0
-949 224 -529 0
457 -460 449 0
456 61 494 0
245 251 618 0
512 775 351 0
32 -609 317 0
-432 986 245 0
-858 -348 501 0
265 418 853 0
948 -172 839 0
-77 898 947 0
921 916 394 0
566 -380 -83 0
225 830 -631 0
893 205 217 0
-416 677 -956 0
234 868 -872 0
-530 -712 706 0
-790 879 -869 0
19 36 -3 0
-819 321 379 0
264 192 -28 0
-240 -814 769 0
244 -182 -662 0
-464 -694 347 0
520 220 352 0
-633 301 265 0
88 -667 32 0
-313 -266 -51 0
878 -446 866 0
-588 -921 972 0
19 525 153 0
852 -458 -33 0
746 227 -243 0
931 747 177 0
7 797 -19 0
967 -18 -956 0
-879 -307 776 0
-246 713 -556 0
471 222 -650 0
-362 104 441 0
-893 -51 529 0
-792 -406 -953 0
375 104 17 0
-567 -984 -51 0
-16 -323 484 0
471 56 645 0
472 -970 817 0
387 945 954 0
666 267 -395 0
-135 -938 -657 0
658 818 522 0
-643 227 -893 0
930 641 -281 0
2 405 890 0
99 -705 -10 0
-385 -402 -787 0
866 -966 855 0
30 499 671 0
511 -682 -89 0
394 502 -156 0
-309 -423 -969 0
-160 101 252 0
710 -2 160 0
-407 384 -661 0
388 -612 408 0
-53 -672 969 0
424 268 573 0
-48 377 724 0
-709 -873 383 0
-331 922 -769 0
799 585 928 0
-566 -848 -282 0
829 111 -941 0
109 -73 -692 0
-874 719 -541 0
-952 395 -824 0
415 978 -688 0
806 5 276 0
-536 15 692 0
309 -330 -485 0
297 55 -644 0
310 -901 118 0
630 -868 251 0
-181 860 629 0
-37 -12 404 0
458 -493 957 0
527 699 521 0
655 792 841 0
-921 -221 -537 0
932 -97 -387 0
-93 813 -133 0
-648 387 664 0
853 -544 688 0
-212 692 -729 0
-11 51 952 0
-78 899 -460 0
834 112 -28 0
-558 744 759 0
-150 -443 233 0
-118 -835 -54 0
234 523 -106 0
-354 -932 182 0
124 746 -532 0
-59 -188 -972 0
-405 -797 652 0
46 951 -766 0
-207 198 -243 0
-248 -63 -378 0
685 -893 992 0
646 429 264 0
-698 -791 765 0
-85 313 -786 0
-456 -742 554 0
390 -456 490 0
-232 -754 287 0
-704 -977 398 0
905 442 861 0
-865 898 -127 0
-825 -647 844 0
186 -779 534 0
-640 -70 733 0
756 -722 -145 0
-104 255 970 0
824 -738 -81 0
877 -427 -196 0
-471 -675 753 0
-352 495 -401 0
-498 951 257 0
-652 314 -614 0
360 548 780 0
393 28 -92 0
869 303 489 0
-689 -478 765 0
-674 740 749 0
-658 137 -21 0
-791 581 -612 0
717 -961 944 0
983 186 998 0
-93 356 -929 0
895 276 -655 0
-806 599 876 0
-923 295 -830 0
431 390 -412 0
325 119 -118 0
-673 770 -471 0
431 565 65 0
744 -635 447 0
-1 -809 -68 0
473 -891 -859 0
-996 299 -948 0
-803 -712 113 0
-775 -71 659 0
733 322 -678 0
-134 319 -66 0
-191 -302 -913 0
-168 -607 157 0
75 -181 431 0
939 -232 -812 0
64 986 256 0
369 -796 -487 0
-541 -612 515 0
645 637 -548 0
342 655 947 0
784 -610 -20 0
-695 -454 456 0
-619 995 397 0
-819 77 -98 0
622 857 -259 0
592 -65 829 0
-24 -959 667 0
865 927 -42 0
-468 -506 677 0
452 -217 -900 0
-974 167 635 0
793 846 165 0
-285 -112 -979 0
-609 -552 456 0
44 -557 -45 0
244 -717 -369 0
-700 816 938 0
471 -800 943 0
895 562 -96 0
-178 -616 -413 0
175 -676 342 0
868 -913 640 0
-438 -807 375 0
-290 933 60 0
352 814 805 0
-319 127 -795 0
-806 -696 381 0
894 -793 37 0
771 -91 887 0
352 299 158 0
-55 618 -602 0
771 967 -599 0
-334 -35 987 0
-924 -72 189 0
-924 900 745 0
848 -222 243 0
355 888 -412 0
991 410 477 0
337 -97 -186 0
191 -785 -240 0
-345 -904 -112 0
147 551 -296 0
-458 328 -69 0
-606 912 9 0
867 148 226 0
-767 -615 -25 0
-815 -606 -255 0
-407 -293 173 0
955 -740 303 0
11 139 -203 0
-812 773 -554 0
-344 -848 691 0
435 -215 47 0
70 222 -207 0
-484 -72 -234 0
-934 -248 -362 0
459 815 881 0
644 -823 93 0
-74 -379 -177 0
-656 121 -712 0
-721 57 688 0
368 261 -990 0
90 -18 -358 0
-22 -806 -553 0
-572 595 153 0
16 908 -992 0
508 27 -824 0
-975 750 -352 0
-742 635 -892 0
524 228 925 0
907 -785 -755 0
-616 -394 -964 0
-946 137 -175 0
-761 -503 562 0
-966 596 -772 0
993 134 -20 0
-159 -107 -280 0
-11 -339 38 0
-940 -268 277 0
670 -926 -415 0
917 -434 -669 0
-64 -957 -779 0
-214 637 972 0
-441 323 -565 0
680 428 630 0
-394 -523 -613 0
-189 -947 156 0
207 -878 -720 0
690 -255 540 0
-10 -393 -244 0
-241 728 125 0
701 245 940 0
129 -434 -537 0
340 -142 -978 0
570 -912 584 0
543 138 34 0
-255 -970 -383 0
-599 -159 -911 0
837 399 -965 0
-209 527 41 0
-506 -240 580 0
-370 -411 146 0
-98 521 -401 0
-244 -330 -62 0
-124 930 934 0
568 337 -452 0
-343 857 618 0
956 -393 439 0
292 -923 888 0
-721 680 352 0
348 -146 509 0
-21 80 -879 0
112 719 704 0
-770 -539 466 0
-359 679 303 0
-862 385 617 0
994 -947 -505 0
-310 279 28 0
397 62 427 0
-514 -992 533 0
251 -705 43 0
282 -749 -436 0
-227 816 -250 0
827 -61 850 0
-366 -453 -176 0
384 622 -488 0
487 -890 908 0
587 -264 -696 0
-137 667 -786 0
-752 -207 392 0
624 696 -582 0
-175 -615 148 0
84 -63 692 0
-418 -992 259 0
655 743 552 0
31 736 4 0
-55 -698 -338 0
-239 606 531 0
708 945 884 0
629 -560 150 0
-497 -532 602 0
-702 564 -187 0
-272 688 -983 0
-623 -167 -501 0
590 324 -379 0
-236 -186 -495 0
926 837 132 0
-149 -558 -499 0
-494 210 -77 0
511 919 514 0
-337 -137 371 0
572 838 -375 0
-633 -63 645 0
-816 390 -176 0
-667 717 578 0
183 459 -532 0
-886 461 489 0
-681 -244 811 0
616 -645 620 0
-739 -521 421 0
815 -401 318 0
583 -686 77 0
-745 -184 850 0
775 154 471 0
-766 21 940 0
-443 -266 -315 0
968 -729 -755 0
735 911 -86 0
-648 631 -536 0
-329 510 -635 0
-139 59 -356 0
293 -692 277 0
-522 -141 -902 0
538 853 85 0
975 -839 563 0
-625 883 -885 0
330 -210 236 0
788 138 562 0
202 -445 -570 0
151 553 554 0
175 170 691 0
-589 -347 -907 0
-138 -84 -615 0
597 -14 -359 0
-216 -948 -552 0
333 -852 -809 0
486 -117 -690 0
-699 131 -77 0
-122 -978 755 0
-511 -452 -523 0
-92 721 555 0
-273 333 503 0
-573 -711 -988 0
938 -75 975 0
354 -84 -75 0
-262 301 168 0
-177 -604 369 0
431 -552 -34 0
-87 -961 -406 0
788 793 -857 0
147 -892 899 0
-75 -470 949 0
-663 -488 905 0
712 -488 -635 0
994 262 517 0
520 -643 -448 0
-43 483 604 0
697 507 -203 0
-377 -612 298 0
410 3 -824 0
548 940 -695 0
-323 199 -248 0
-188 -369 -30 0
-155 780 390 0
823 -65 596 0
700 217 -965 0
-967 493 758 0
-245 -437 -854 0
-582 -245 -400 0
-214 866 143 0
958 766 57 0
-553 -49 -364 0
239 630 417 0
603 -857 -865 0
139 434 985 0
348 846 -878 0
240 -464 252 0
-895 -597 -459 0
552 -65 737 0
376 -753 -436 0
772 -167 877 0
657 149 -415 0
516 936 -961 0
9 394 467 0
-610 -687 -887 0
558 -888 784 0
60 -275 116 0
239 752 861 0
-770 -272 -3 0
-325 -439 898 0
-817 477 407 0
522 -536 776 0
883 -857 906 0
-612 -828 -59 0
-152 345 -986 0
-935 972 777 0
557 366 -546 0
911 -430 -841 0
378 61 -766 0
-210 -112 418 0
91 15 -166 0
-251 -544 220 0
564 389 680 0
-35 -339 -835 0
-783 681 332 0
541 -622 66 0
-100 155 -69 0
-282 -171 896 0
-781 465 816 0
-680 -667 -461 0
-364 550 972 0
-173 423 257 0
785 397 102 0
598 -155 374 0
641 -61 -216 0
652 130 -355 0
194 -541 450 0
-427 -589 -725 0
315 384 311 0
-481 661 250 0
828 -736 -118 0
-925 937 -304 0
449 -350 250 0
-82 -421 -597 0
-576 -693 504 0
279 -391 -399 0
274 968 228 0
181 -347 117 0
-354 -589 -875 0
480 -216 573 0
185 -535 -474 0
-747 -995 394 0
220 304 115 0
499 -825 -156 0
-988 492 415 0
-466 -629 580 0
533 68 181 0
-676 72 -717 0
-303 -589 757 0
-361 328 -965 0
881 466 -684 0
394 -518 267 0
-117 835 -248 0
296 894 -195 0
636 57 -703 0
226 752 -494 0
-884 318 97 0
988 -184 848 0
938 817 392 0
410 -307 -611 0
-75 804 515 0
895 706 -493 0
291 582 -122 0
-746 -241 383 0
-508 -433 298 0
237 -181 -539 0
-719 -883 -591 0
435 94 736 0
-252 673 -268 0
-308 -250 536 0
-930 -421 -278 0
-454 881 973 0
350 -628 456 0
773 -779 813 0
515 97 -641 0
96 366 -334 0
450 831 872 0
241 -659 785 0
-552 -759 -590 0
-543 905 -497 0
-845 658 543 0
900 -120 -471 0
-576 613 -389 0
-674 -83 -910 0
867 297 -905 0
-427 -711 325 0
-634 -48 780 0
578 -358 -616 0
582 591 283 0
66 -483 -685 0
-11 -145 86 0
-922 -822 767 0
904 -439 847 0
882 -775 -389 0
925 -960 -653 0
-860 287 -794 0
-742 -153 971 0
-592 977 -391 0
-588 878 -264 0
-25 339 -306 0
205 -723 -298 0
467 701 -157 0
775 -659 -446 0
-88 792 489 0
447 769 252 0
-461 949 -522 0
945 -225 -964 0
130 335 -258 0
973 -842 321 0
867 679 106 0
-916 -888 -431 0
-602 55 941 0
-123 -669 -960 0
213 434 -688 0
-189 -624 -86 0
-14 -769 634 0
868 -96 -720 0
-123 -620 -806 0
910 749 926 0
-572 583 -252 0
-962 -686 312 0
230 -601 -488 0
567 -665 -720 0
443 363 277 0
-451 321 377 0
-222 -291 -779 0
209 -82 -70 0
-999 -240 -33 0
5 -816 -515 0
-947 -790 -694 0
-234 -568 914 0
-543 834 5 0
-114 49 -537 0
-377 500 259 0
-754 677 -382 0
255 956 179 0
164 930 -639 0
976 888 55 0
48 -993 -948 0
428 530 991 0
-462 -576 985 0
285 337 931 0
-198 757 233 0
-193 -874 36 0
-866 -700 887 0
300 89 489 0
-159 -273 878 0
15 412 389 0
690 -294 751 0
458 -269 68 0
604 -221 527 0
379 -407 -22 0
-874 476 -4 0
-401 -419 -598 0
-648 -943 363 0
-399 969 -134 0
982 433 -739 0
-421 130 -340 0
396 493 568 0
610 84 -172 0
-359 853 362 0
-544 377 -650 0
888 -135 71 0
832 319 216 0
-721 969 -913 0
-270 351 -210 0
84 -57 -902 0
784 465 -554 0
460 312 890 0
85 -31 -455 0
-459 610 -616 0
-582 -279 457 0
35 464 242 0
-738 189 704 0
-428 142 715 0
349 -88 -41 0
-370 -830 -697 0
175 443 -274 0
-251 561 -866 0
-338 121 951 0
-617 -772 -569 0
-813 -444 -326 0
752 172 -169 0
-541 351 904 0
-142 269 -695 0
-186 229 480 0
-624 698 -192 0
-767 -672 -347 0
131 -106 -393 0
-127 -343 932 0
-565 -632 801 0
101 263 -126 0
-86 -513 487 0
-863 -911 -222 0
-575 -776 -372 0
610 845 560 0
661 477 -228 0
346 382 532 0
-981 -550 654 0
310 124 -530 0
-683 -48 325 0
-932 -51 155 0
-674 -664 -601 0
-679 -761 -516 0
379 590 116 0
-409 837 -625 0
475 -643 607 0
549 745 -138 0
286 -28 578 0
935 -375 -900 0
-873 -298 -397 0
76 145 990 0
-679 630 -272 0
633 784 -98 0
335 -988 394 0
-547 -30 -336 0
-291 999 -144 0
-145 450 377 0
670 -556 9 0
-648 -906 926 0
263 702 -297 0
976 94 220 0
-724 941 915 0
-564 199 397 0
-722 -242 638 0
-811 -812 279 0
-674 777 35 0
156 231 -211 0
831 -342 519 0
849 -624 39 0
-418 -438 637 0
66 770 429 0
250 -823 530 0
146 -740 -821 0
-793 564 -903 0
458 706 -962 0
757 944 -796 0
131 993 -798 0
15 -778 627 0
-394 -739 553 0
-760 -377 544 0
475 435 -465 0
816 348 451 0
-6 -693 -3 0
-857 -445 345 0
561 313 -261 0
526 -165 384 0
169 731 -500 0
-131 -395 -747 0
401 -24 940 0
-654 -651 -405 0
367 -809 633 0
327 -879 -536 0
667 568 -190 0
892 -378 -646 0
-604 269 -967 0
-915 -869 -193 0
-785 -172 -487 0
-208 179 -928 0
-575 -21 -675 0
428 568 -533 0
656 -485 -699 0
-158 685 -922 0
34 -463 -182 0
-214 499 -13 0
-716 -148 -542 0
-682 -246 -98 0
509 130 605 0
-138 -778 147 0
-796 367 -682 0
829 -667 989 0
385 -964 674 0
279 388 644 0
166 -798 -102 0
153 -649 235 0
-847 742 -123 0
776 -809 575 0
222 -163 457 0
-664 -271 -700 0
-490 936 876 0
-120 -267 127 0
861 -380 -820 0
744 987 962 0
-355 -777 -257 0
442 -981 446 0
-562 -207 205 0
683 -647 298 0
709 -927 -96 0
441 -760 -447 0
-711 -2 -265 0
409 -370 617 0
699 -579 876 0
-948 432 -793 0
75 -605 -767 0
645 549 217 0
741 186 677 0
-617 64 -606 0
-206 -807 340 0
-644 569 -271 0
-542 -243 -241 0
385 734 93 0
844 -438 -33 0
522 -473 503 0
-717 -704 950 0
-439 586 529 0
-845 -522 208 0
-354 -590 -518 0
-278 724 -2 0
377 -74 98 0
307 773 -352 0
949 771 -82 0
-523 127 -22 0
312 -462 -829 0
-948 -379 -272 0
-731 -615 550 0
354 -884 610 0
38 -848 -236 0
261 632 696 0
-195 -263 -714 0
256 -689 -590 0
784 -586 -186 0
-951 838 -818 0
205 603 1000 0
-209 -957 232 0
962 -483 -156 0
-587 583 -215 0
-734 410 -582 0
678 564 -162 0
-513 -566 147 0
49 232 -10 0
-616 -558 840 0
-730 -222 -418 0
-68 -736 -175 0
802 580 493 0
957 480 -376 0
58 846 931 0
373 -716 897 0
-699 -113 721 0
173 297 126 0
785 -801 517 0
174 -548 135 0
-779 167 270 0
-65 595 -201 0
-790 251 2 0
433 -522 -886 0
720 -324 55 0
690 -630 284 0
457 -158 -497 0
556 -837 -386 0
-178 791 -651 0
-909 943 -550 0
-461 -866 268 0
864 -706 -787 0
-543 -74 -774 0
713 -815 776 0
38 429 -331 0
122 -690 306 0
942 949 668 0
-307 -803 -897 0
-173 452 692 0
-197 -233 745 0
433 -604 -760 0
975 -834 -76 0
267 184 -242 0
674 -456 -866 0
305 -238 -902 0
-409 -812 507 0
88 954 898 0
-482 -357 808 0
744 -802 294 0
104 68 96 0
-466 -685 -273 0
-700 -628 -334 0
-159 379 182 0
-128 556 907 0
-596 -463 -734 0
93 -314 282 0
626 -153 228 0
-549 901 -312 0
742 878 -299 0
-758 174 454 0
-480 658 -875 0
-540 -647 970 0
23 -273 106 0
920 -437 -166 0
423 -517 876 0
510 799 765 0
109 -90 -692 0
-432 -608 -773 0
-220 -393 -319 0
-948 571 -350 0
-410 608 -145 0
736 -982 832 0
-128 92 -351 0
-204 935 -713 0
-48 347 -841 0
347 -358 -159 0
-878 -44 175 0
-860 -666 887 0
-361 703 -614 0
-180 -368 96 0
528 824 181 0
169 -850 -261 0
413 -90 -25 0
-85 -745 -835 0
574 433 645 0
-841 296 -325 0
983 161 -558 0
677 -102 -678 0
172 -828 -926 0
942 342 371 0
829 -206 524 0
963 491 -483 0
-466 276 299 0
61 -426 -697 0
-225 -129 117 0
924 828 -988 0
-586 -874 -410 0
648 -777 856 0
603 265 278 0
945 -123 384 0
-514 -883 559 0
60 705 -457 0
547 450 -716 0
-429 232 -874 0
635 -836 -917 0
788 520 -159 0
943 233 -876 0
871 399 833 0
-137 978 -84 0
906 -457 99 0
104 773 937 0
-760 -182 -435 0
689 -778 90 0
313 225 831 0
-510 694 -845 0
166 -479 959 0
-618 -984 659 0
-189 248 -827 0
-649 776 -74 0
676 -379 -857 0
-573 -338 -853 0
986 -246 736 0
270 -177 -468 0
407 -832 -390 0
-784 255 235 0
-989 912 197 0
565 -172 190 0
-551 -330 84 0
847 716 530 0
-136 -259 -785 0
-575 -571 -199 0
683 -928 917 0
257 -479 435 0
-607 969 372 0
449 -197 -686 0
-780 -142 152 0
686 -650 669 0
349 -190 330 0
802 -284 -972 0
551 -393 943 0
-511 216 -107 0
-138 178 935 0
-502 -517 -80 0
-822 -210 189 0
-777 421 612 0
-929 -330 15 0
-837 -527 130 0
685 404 793 0
208 940 241 0
709 -634 323 0
-472 -8 577 0
-749 -460 730 0
-80 846 -17 0
33 100 -986 0
-358 294 350 0
504 -164 -190 0
-861 -765 148 0
-367 -407 -211 0
859 -774 804 0
-884 672 208 0
289 94 -412 0
-630 -694 682 0
-340 519 -589 0
-188 -964 929 0
-289 241 -267 0
-54 -559 -380 0
641 440 798 0
924 322 30 0
-404 -699 469 0
-593 919 585 0
420 -987 588 0
95 -460 -56 0
-464 545 488 0
-306 -651 -605 0
483 -16 844 0
241 -841 306 0
215 398 -729 0
-35 408 990 0
733 -758 591 0
4 -956 252 0
435 -558 399 0
-471 505 287 0
302 -901 817 0
874 -966 -607 0
836 140 931 0
20 73 892 0
633 311 -891 0
496 237 231 0
22 -577 -365 0
-198 -972 -513 0
999 871 476 0
539 -725 -578 0
706 -409 -917 0
154 -620 875 0
548 491 -779 0
-379 -284 -585 0
-373 570 629 0
424 305 -681 0
137 -130 -236 0
-908 -582 715 0
570 466 700 0
815 664 -83 0
-321 984 -202 0
-983 -450 -780 0
734 869 -986 0
-375 -861 327 0
-271 339 -786 0
-644 -549 302 0
-3 -412 -931 0
715 -125 -801 0
639 741 -223 0
262 711 -482 0
-59 710 574 0
-190 -638 -689 0
448 -633 766 0
59 -551 833 0
560 814 597 0
402 935 957 0
174 869 -884 0
213 -99 489 0
-291 -709 254 0
-379 -97 398 0
104 -446 -40 0
-297 918 -953 0
930 -225 847 0
-239 333 932 0
634 910 725 0
843 863 911 0
-530 -850 560 0
93 -143 291 0
824 581 285 0
-527 447 -215 0
10 -928 -752 0
-547 790 49 0
488 743 637 0
-393 -600 -231 0
-277 -286 -327 0
416 939 606 0
-909 465 779 0
20 321 -585 0
-824 -21 -637 0
-536 -973 325 0
-410 -259 272 0
876 -906 530 0
-67 910 -16 0
-716 635 893 0
-340 413 -356 0
900 -447 954 0
327 869 699 0
562 259 457 0
-320 -419 -146 0
272 758 -39 0
-118 -911 937 0
-782 40 -358 0
462 -13 -368 0
512 -719 -274 0
154 -188 5 0
739 -495 -678 0
-327 -448 775 0
593 434 -891 0
2 -445 -591 0
-889 -653 210 0
-211 -81 -445 0
262 -285 33 0
-321 -615 740 0
745 -678 -730 0
882 800 -21 0
415 -849 364 0
-681 116 -255 0
-646 -224 190 0
-922 411 491 0
-418 199 784 0
662 387 -629 0
960 -407 -916 0
-443 483 -699 0
37 -171 -699 0
790 -617 -91 0
819 779 -418 0
-816 -312 584 0
-759 255 83 0
-353 -933 552 0
965 668 -993 0
931 -833 355 0
266 848 415 0
235 898 -386 0
944 -173 663 0
-642 761 -76 0
-638 -986 615 0
-570 -729 -738 0
981 868 -87 0
556 -429 546 0
634 931 499 0
-410 228 -933 0
-655 -373 -951 0
-903 313 943 0
677 863 -829 0
328 -25 616 0
-911 605 -385 0
-32 135 259 0
-172 -537 -992 0
501 77 374 0
-484 502 505 0
-36 -883 437 0
958 794 -297 0
652 -135 130 0
644 685 761 0
557 -773 -886 0
610 -545 -411 0
-186 -564 -660 0
206 667 -879 0
251 -525 447 0
648 -514 -546 0
-533 -773 11 0
-837 357 -619 0
63 -107 56 0
-160 -940 43 0
-216 -118 -797 0
-696 443 997 0
188 207 -505 0
-340 -701 -14 0
-68 658 -726 0
173 619 -159 0
-357 162 -331 0
-623 743 58 0
-35 -529 -575 0
310 786 533 0
404 732 -329 0
-889 -883 212 0
-609 -439 173 0
-746 991 -928 0
400 -297 -138 0
208 -330 789 0
501 -821 -103 0
411 825 324 0
419 512 695 0
-36 -257 -344 0
511 -252 -137 0
-319 -417 -872 0
121 -974 -764 0
-420 904 758 0
585 -6 509 0
-14 -50 131 0
477 999 503 0
-719 145 773 0
581 70 300 0
36 289 350 0
-429 209 -328 0
-167 435 318 0
-93 642 293 0
128 551 -549 0
61 463 -147 0
952 -5 215 0
438 957 27 0
-465 461 322 0
405 -622 351 0
464 237 163 0
-486 992 -806 0
-617 688 423 0
-998 198 847 0
-240 -59 270 0
361 455 -431 0
-703 -69 -864 0
358 209 569 0
-562 -990 -915 0
-405 124 546 0
75 -274 639 0
-126 -852 756 0
507 350 657 0
924 641 329 0
-143 -333 673 0
-813 -4 -978 0
-168 -739 -521 0
-889 -662 565 0
832 49 -854 0
761 -786 391 0
262 719 610 0
201 -53 -775 0
676 461 -615 0
140 -877 -302 0
-435 -947 -312 0
-545 777 -215 0
-447 -415 461 0
-642 602 -716 0
-746 831 171 0
446 -661 -125 0
-297 -31 676 0
80 873 -720 0
-737 351 390 0
-740 -305 409 0
988 -613 -110 0
-269 224 673 0
-201 -263 -731 0
-121 670 177 0
456 -60 -284 0
-363 348 834 0
-824 695 452 0
-859 213 583 0
513 -422 866 0
833 354 575 0
-467 995 -509 0
-291 340 294 0
995 462 264 0
-499 -601 444 0
-116 904 452 0
825 214 347 0
-321 409 594 0
-311 -55 -952 0
-176 -732 -785 0
790 698 568 0
-336 -373 459 0
-504 -638 -320 0
-49 -364 95 0
435 295 647 0
586 51 855 0
108 -34 147 0
858 65 68 0
193 891 -874 0
127 734 137 0
405 919 872 0
828 986 -919 0
-688 -92 206 0
630 866 -814 0
-132 -351 402 0
-846 -555 180 0
1000 -550 626 0
128 -119 21 0
269 450 -163 0
108 -91 -347 0
431 -731 30 0
490 826 -120 0
-845 -554 -196 0
-360 836 727 0
-787 635 -580 0
-722 517 -34 0
367 -537 897 0
336 -226 -580 0
997 -193 -970 0
931 60 -464 0
-647 -254 -158 0
-646 -226 517 0
-947 -659 -229 0
540 291 -315 0
708 -97 -424 0
621 656 -515 0
-929 651 -329 0
-111 571 -96 0
-456 420 990 0
7 405 996 0
-45 -784 -436 0
295 -602 191 0
849 671 320 0
-335 270 -209 0
505 677 721 0
458 242 -285 0
777 231 -587 0
-822 -689 -469 0
-742 193 170 0
811 863 407 0
558 132 210 0
-811 -671 737 0
-826 -432 -967 0
565 834 377 0
290 -998 -219 0
630 -432 46 0
790 424 -430 0
367 147 -443 0
-857 -218 -89 0
940 130 -599 0
745 -367 680 0
483 -574 25 0
-584 -976 -338 0
-31 839 608 0
916 -682 343 0
145 372 277 0
982 143 728 0
76 -179 200 0
359 188 -598 0
-188 -629 820 0
679 -876 526 0
677 -75 -431 0
124 -978 -551 0
-102 -266 841 0
963 -81 -303 0
367 815 931 0
398 -432 -965 0
-765 -113 782 0
-863 767 906 0
298 995 452 0
-381 664 -577 0
993 146 56 0
552 311 -494 0
14 292 443 0
57 -39 873 0
134 979 -518 0
-36 -980 918 0
-665 -533 843 0
429 193 669 0
-92 104 -273 0
-305 -363 -790 0
-646 -396 664 0
-438 -763 160 0
-36 55 -37 0
-858 -237 966 0
323 364 -743 0
736 464 657 0
-901 -164 -321 0
-197 900 669 0
835 -942 -591 0
866 476 -371 0
666 127 -293 0
574 -243 -16 0
-988 -47 -505 0
740 111 -681 0
-624 -904 -219 0
167 132 -536 0
267 -105 -681 0
72 -32 -619 0
59 -556 -392 0
81 260 -750 0
-874 498 637 0
-95 453 -432 0
750 -574 -576 0
-326 85 -364 0
96 -833 333 0
355 -561 30 0
-322 665 -529 0
698 945 783 0
679 -763 -926 0
370 495 768 0
-830 72 700 0
121 849 -42 0
305 -808 945 0
-953 171 -213 0
972 -473 -451 0
-173 -383 626 0
-305 -44 244 0
230 752 -807 0
222 52 105 0
-227 -297 -840 0
624 -819 -2 0
-275 954 -286 0
-638 738 -451 0
955 512 384 0
-895 884 -942 0
-612 -267 16 0
468 832 455 0
163 -84 -65 0
460 -7 -50 0
33 579 -448 0
-469 -170 -818 0
352 -592 -853 0
-442 -997 412 0
785 -779 98 0
424 -286 658 0
340 127 -978 0
937 875 -525 0
-417 -820 -321 0
-169 -368 -261 0
-154 866 479 0
693 -931 -535 0
697 -249 759 0
-953 -499 968 0
-153 -618 -86 0
-191 -546 858 0
-833 957 -514 0
493 613 -95 0
-727 -973 -807 0
-869 795 -836 0
-726 -201 -196 0
102 -730 671 0
-785 -801 723 0
973 800 -906 0
-577 827 -424 0
436 610 985 0
-711 -364 -546 0
-672 -525 -128 0
-640 -98 -570 0
480 -895 987 0
16 345 607 0
-258 494 943 0
887 -447 313 0
-635 997 962 0
-666 -673 52 0
472 -90 278 0
-815 -70 -53 0
-322 9 -170 0
-318 -883 -806 0
18 426 -640 0
-727 -743 899 0
749 175 -815 0
-311 -799 -900 0
907 809 -766 0
-651 -720 764 0
-115 510 -727 0
515 -529 878 0
-272 -152 649 0
288 -748 363 0
187 -864 863 0
-447 532 -358 0
560 867 302 0
369 -144 940 0
361 638 930 0
-745 -182 -90 0
964 -479 -136 0
-299 -717 -540 0
928 653 -175 0
-820 -807 -608 0
-378 -66 104 0
-745 952 426 0
-969 831 732 0
850 151 -191 0
638 865 -629 0
-923 -703 -247 0
705 561 384 0
-457 -158 -331 0
-586 4 -354 0
597 -702 -872 0
661 918 -356 0
918 527 521 0
552 335 -180 0
972 -695 -583 0
283 784 -780 0
-741 609 14 0
979 15 -347 0
-464 -120 -520 0
727 59 187 0
-717 -382 771 0
493 -710 -920 0
768 -654 669 0
430 897 -821 0
208 395 52 0
-750 663 667 0
215 832 -462 0
-949 -446 960 0
668 829 455 0
-130 -727 -336 0
-362 327 636 0
660 -186 -500 0
186 -963 384 0
680 596 -705 0
-484 681 563 0
796 -188 -565 0
-287 -345 -867 0
-374 -29 -721 0
-975 -102 -556 0
839 746 606 0
-493 -503 631 0
938 7 259 0
328 13 608 0
347 -196 -459 0
387 -543 328 0
736 70 -735 0
671 -661 605 0
614 -644 235 0
304 526 99 0
972 846 -925 0
-65 534 -802 0
-573 763 -440 0
-360 -688 -700 0
493 290 -754 0
-849 -687 30 0
-845 -842 969 0
-11 -110 -193 0
-548 170 -637 0
-649 597 -362 0
-563 -103 -667 0
-990 14 -573 0
-281 -958 -140 0
-281 -698 664 0
861 -406 451 0
-730 -616 805 0
-38 57 -103 0
611 -61 -91 0
-628 -121 234 0
549 976 67 0
-985 786 -351 0
-970 953 -18 0
428 -1000 -227 0
388 549 -859 0
-251 -71 237 0
857 184 582 0
439 -136 409 0
327 -42 -40 0
-708 8 441 0
-169 835 -971 0
-70 -854 825 0
637 231 237 0
-226 980 -820 0
844 77 -35 0
870 834 949 0
599 751 -197 0
-872 -287 -65 0
-396 342 -438 0
682 -520 -958 0
-431 -563 639 0
807 -808 -508 0
-377 460 391 0
-96 -27 -694 0
44 290 -87 0
15 624 503 0
-130 503 870 0
446 706 927 0
693 833 350 0
584 -49 -600 0
-111 929 143 0
400 -837 589 0
338 669 661 0
-584 914 -728 0
-779 521 880 0
-82 -352 -372 0
-93 933 657 0
-719 652 178 0
-413 419 844 0
841 651 -678 0
597 -526 -595 0
-318 -967 -150 0
-567 -986 -706 0
-267 -284 572 0
311 -790 442 0
525 -105 535 0
-244 756 354 0
-632 726 -478 0
245 330 -525 0
361 -348 -407 0
-150 -553 838 0
-610 275 -924 0
863 -312 266 0
657 114 -668 0
-911 -47 27 0
271 297 -771 0
830 554 -266 0
996 909 -380 0
117 -244 917 0
654 408 544 0
-810 465 532 0
-325 673 -533 0
-398 19 -894 0
-598 778 709 0
-532 141 240 0
-364 213 9 0
593 -776 -456 0
-426 713 -407 0
562 -229 919 0
-292 -817 -420 0
-900 248 309 0
-529 -201 -359 0
-294 940 -741 0
-864 736 758 0
-573 -600 -236 0
-269 266 412 0
458 566 -387 0
-419 965 -868 0
534 644 229 0
-756 40 -787 0
89 372 886 0
-91 -823 -571 0
924 -276 -234 0
902 317 -335 0
789 863 319 0
808 -991 597 0
34 -109 914 0
-545 430 -298 0
-294 -824 -368 0
407 -921 -499 0
-245 517 71 0
630 35 -794 0
907 83 -184 0
-377 -916 96 0
580 -337 86 0
456 449 -908 0
577 -895 719 0
795 -418 -468 0
-596 -410 720 0
779 988 -542 0
652 353 -222 0
462 563 458 0
669 -482 438 0
-341 -916 395 0
816 487 263 0
143 -321 -338 0
901 -19 -229 0
153 718 -168 0
-816 -872 913 0
-221 -180 457 0
-8 -995 957 0
-6 105 633 0
-133 607 361 0
570 746 -903 0
346 -665 265 0
-430 -268 -24 0
-230 452 72 0
674 -986 -756 0
-840 -464 889 0
-364 -299 -769 0
78 -29 -866 0
-534 -868 524 0
-343 -935 -895 0
361 -85 -754 0
-619 -733 644 0
338 -975 -686 0
-409 803 -845 0
498 -224 -406 0
-948 679 867 0
159 -181 649 0
453 -261 413 0
-774 -569 203 0
598 -32 304 0
46 848 513 0
929 215 -962 0
-84 -307 -756 0
-688 940 -791 0
-576 843 -808 0
583 -142 -446 0
-104 458 -667 0
553 -820 -588 0
432 -304 -847 0
671 290 659 0
266 839 630 0
-980 -823 151 0
-140 241 -771 0
-133 140 203 0
-503 -341 -804 0
-579 224 -722 0
635 783 -691 0
394 -530 -782 0
649 199 160 0
710 -333 -728 0
750 -744 -666 0
-558 303 -748 0
-12 128 762 0
976 539 782 0
-442 342 -292 0
-16 935 -582 0
806 289 -287 0
486 -474 -154 0
-125 -895 -359 0
-70 872 -489 0
600 181 -851 0
-705 -793 -786 0
-733 470 -765 0
48 -695 511 0
-268 -391 945 0
671 88 870 0
932 742 -527 0
-713 -76 274 0
-600 768 -445 0
-682 36 610 0
400 688 3 0
288 -168 -503 0
-623 -443 -465 0
129 -254 -710 0
-720 -685 577 0
941 -183 -501 0
-760 -282 -566 0
990 164 -382 0
-443 35 -634 0
946 -775 890 0
405 91 -384 0
902 483 -790 0
-595 -456 -836 0
261 -679 133 0
4 -193 160 0
25 386 -912 0
348 -107 -136 0
-770 -349 -851 0
442 730 -654 0
263 589 41 0
820 -957 565 0
-94 567 944 0
258 432 384 0
201 952 -769 0
950 -349 -569 0
-725 270 -175 0
-255 856 110 0
-602 -531 181 0
-961 -681 69 0
-756 -567 461 0
-641 583 856 0
938 103 896 0
459 568 996 0
-280 753 593 0
328 -928 992 0
469 -934 -34 0
227 -447 -543 0
117 126 158 0
400 276 983 0
764 940 507 0
-764 516 -409 0
979 -575 -4 0
-94 319 954 0
-959 505 913 0
-252 693 -236 0
-269 855 -860 0
299 590 133 0
-177 195 -712 0
-533 -622 657 0
-559 -441 24 0
423 847 -9 0
158 -73 -684 0
184 463 608 0
-167 132 -498 0
104 432 698 0
764 -828 -163 0
97 -404 357 0
72 -549 -894 0
963 480 -930 0
-93 711 894 0
-824 540 981 0
912 340 356 0
-544 -963 589 0
-496 -615 -813 0
-436 389 -449 0
-294 -765 -839 0
966 -776 992 0
116 660 217 0
441 -55 288 0
-14 -827 -35 0
-550 -727 220 0
-602 209 -4 0
683 -746 -659 0
-495 50 -104 0
42 -164 292 0
449 -234 -689 0
-19 186 -501 0
919 198 -852 0
951 -5 255 0
641 -636 -15 0
-389 -668 -971 0
-318 85 993 0
-466 -760 312 0
547 846 553 0
-784 932 -320 0
98 275 -542 0
-76 -297 568 0
-601 870 -616 0
290 -439 -635 0
845 907 -998 0
67 828 -163 0
-855 644 697 0
845 -993 -119 0
408 -386 805 0
186 571 -223 0
-232 373 -360 0
-511 169 273 0
504 640 33 0
-306 461 350 0
863 545 79 0
-980 -230 -234 0
-566 924 -427 0
526 440 -156 0
-900 -4 -999 0
-484 886 -637 0
966 -617 844 0
-775 366 -883 0
-248 198 -15 0
764 -77 -425 0
11 -71 -208 0
-574 533 -286 0
68 -535 -610 0
-796 -397 377 0
568 911 172 0
228 -437 -674 0
-113 357 920 0
351 990 -565 0
-766 -650 -58 0
-457 -659 269 0
-782 -751 -670 0
-236 878 21 0
-471 949 -954 0
753 481 -351 0
917 -160 32 0
-341 932 -376 0
180 597 977 0
329 822 123 0
-463 -415 57 0
847 -22 11 0
414 661 -303 0
874 481 443 0
-314 -682 565 0
550 153 -715 0
-70 -466 -548 0
-41 -174 701 0
-421 -729 -943 0
-636 224 920 0
935 904 889 0
-931 460 171 0
-809 -853 -485 0
-352 650 -656 0
-217 936 -659 0
-793 -983 514 0
808 440 -805 0
-379 -735 -105 0
209 318 -589 0
981 -299 -755 0
-458 480 -884 0
16 475 474 0
319 738 -114 0
-817 -636 10 0
-545 -382 -221 0
-845 -742 -597 0
-257 -778 -924 0
-767 930 835 0
382 -301 -524 0
193 -785 898 0
-183 -400 -181 0
-970 -521 41 0
854 944 434 0
-683 -369 -25 0
966 -336 803 0
-55 474 -753 0
936 -617 660 0
328 -265 -303 0
-823 -418 -193 0
-880 902 777 0
-381 -879 233 0
625 -432 230 0
91 66 753 0
774 -886 678 0
72 -477 -555 0
347 691 926 0
-860 35 -1000 0
-140 670 -668 0
-777 -999 21 0
627 718 739 0
-241 334 829 0
-311 -234 -963 0
-448 823 28 0
-868 -442 428 0
-608 -257 -173 0
-440 518 -9 0
621 -236 -23 0
-883 664 -665 0
697 -117 865 0
-117 923 -233 0
622 -74 588 0
-352 -374 -423 0
-257 -899 -74 0
229 780 -679 0
-379 996 -449 0
151 -5 606 0
439 276 -831 0
-52 423 164 0
-184 963 841 0
742 79 -138 0
73 -975 726 0
535 -201 -425 0
735 -427 -968 0
-778 -650 -248 0
-951 -836 -369 0
867 255 635 0
114 184 -645 0
-221 -693 91 0
400 582 316 0
-471 348 -890 0
-31 -589 -892 0
100 -361 434 0
883 -202 865 0
773 -975 665 0
-470 -163 88 0
-565 229 133 0
90 -826 -187 0
-833 703 -783 0
826 816 717 0
680 -11 780 0
266 -166 -628 0
267 221 -214 0
-232 91 -61 0
-384 -62 -909 0
271 201 476 0
-53 428 -21 0
