c Random 3-SAT formula for benchmarking
c Generated with seed 64
p cnf 100 426
-61 16 81 0
35 91 81 0
54 57 -26 0
87 1 9 0
76 34 29 0
99 -59 51 0
-71 -55 -46 0
67 23 -7 0
21 -28 29 0
-87 32 4 0
39 29 83 0
-79 -34 -55 0
22 -36 20 0
17 7 15 0
-43 -72 33 0
87 64 -41 0
87 -19 -98 0
-80 -65 -17 0
18 42 -54 0
85 -82 79 0
99 -68 -89 0
-73 -58 -11 0
4 55 -47 0
-83 47 95 0
69 85 66 0
-53 49 15 0
38 45 73 0
-43 29 20 0
68 -54 -18 0
-53 97 -18 0
-66 -36 55 0
-27 69 -44 0
-5 -24 2 0
-27 -84 -97 0
-40 -2 -81 0
67 -46 -4 0
33 -49 3 0
59 -54 -5 0
-60 98 -58 0
50 95 36 0
87 -27 56 0
57 -9 95 0
71 -84 -100 0
-32 86 -85 0
8 -40 -9 0
-61 -36 -24 0
-68 -94 42 0
-47 -98 80 0
-47 95 78 0
84 1 -12 0
67 63 91 0
-48 99 95 0
21 -83 13 0
6 -18 58 0
88 55 78 0
49 -57 4 0
62 -26 -42 0
53 52 30 0
60 -8 -85 0
-17 18 28 0
8 -83 -46 0
-86 -16 39 0
-87 -60 22 0
-15 76 -19 0
-28 -90 -19 0
48 -67 -78 0
11 -47 7 0
96 98 68 0
-99 68 -62 0
69 -80 -38 0
58 -57 98 0
21 -95 59 0
57 42 8 0
99 56 -23 0
7 -36 31 0
-95 -99 -82 0
43 -89 -22 0
-84 42 -24 0
-96 83 -58 0
79 100 -19 0
-89 58 -60 0
-43 90 74 0
-71 31 96 0
36 12 -2 0
97 -19 -43 0
-11 94 -64 0
-10 11 96 0
21 -80 38 0
-51 -11 57 0
64 15 40 0
-85 -52 70 0
-91 -65 55 0
-26 -22 -66 0
29 -99 4 0
6 -99 36 0
-6 85 -26 0
-51 82 -100 0
-54 20 13 0
-58 39 -27 0
-4 87 -66 0
-50 64 -43 0
-99 -95 78 0
21 -74 -31 0
-91 68 -5 0
79 50 -66 0
-14 16 28 0
-92 -15 76 0
-16 -55 1 0
69 -91 -68 0
-41 -4 -20 0
-11 47 -12 0
-96 87 86 0
-96 -100 80 0
-23 -83 -100 0
-85 -80 -23 0
-96 85 51 0
80 44 50 0
67 -33 89 0
-13 -28 23 0
25 52 31 0
-27 -65 61 0
-97 -22 -39 0
39 58 -59 0
90 -60 -53 0
79 -6 46 0
-95 22 83 0
61 81 67 0
84 -37 -58 0
28 -80 74 0
-15 -37 100 0
-68 -99 40 0
-31 -69 88 0
-72 71 23 0
55 -59 37 0
-59 55 -52 0
14 -34 3 0
19 -86 88 0
-30 59 39 0
36 -39 11 0
-27 -55 -71 0
23 10 61 0
-37 13 30 0
-20 -96 90 0
-72 -83 -35 0
-11 -83 -77 0
-2 74 99 0
-91 -27 -86 0
23 78 -86 0
-36 -87 -86 0
-100 97 51 0
66 -42 62 0
-26 -40 87 0
68 62 22 0
36 -79 47 0
-18 17 -68 0
68 -33 -81 0
48 54 60 0
30 -88 24 0
-69 -13 36 0
-76 -52 -89 0
-49 -70 -4 0
51 -99 -28 0
89 90 11 0
-50 -40 87 0
64 -93 -60 0
-44 4 -13 0
-59 65 -43 0
30 67 -10 0
6 82 22 0
94 -92 64 0
-20 -55 -68 0
-14 38 -17 0
98 84 29 0
-51 37 -60 0
57 69 -5 0
47 -94 -61 0
-24 28 42 0
-6 -79 1 0
-9 -68 -63 0
11 -83 5 0
17 -70 68 0
-88 -10 6 0
-37 -78 50 0
-17 -43 -42 0
-46 92 93 0
19 -88 -49 0
-41 -4 17 0
-62 30 50 0
-20 2 46 0
-70 -80 39 0
-100 -31 -68 0
-100 -62 -81 0
46 -92 -45 0
87 57 -85 0
82 -3 -39 0
-60 -90 -63 0
-60 -36 27 0
59 13 -5 0
31 -97 72 0
17 46 -66 0
66 -7 8 0
94 -22 47 0
-59 -31 94 0
-48 -60 -64 0
-97 36 -37 0
-84 37 54 0
44 -9 -12 0
61 9 39 0
90 -6 47 0
-26 -75 -93 0
-33 -15 52 0
92 19 83 0
76 -22 -17 0
77 -34 -38 0
-55 -7 85 0
4 -62 16 0
-77 -76 -79 0
20 41 19 0
-80 68 -21 0
76 -52 69 0
14 -68 36 0
16 -84 -96 0
67 -18 -15 0
95 29 -74 0
47 86 58 0
59 -37 89 0
88 -27 -38 0
99 23 57 0
44 -66 58 0
82 -30 58 0
-70 80 20 0
-18 67 -89 0
-48 -86 22 0
13 82 -64 0
-51 54 100 0
-35 40 -5 0
-33 -57 43 0
92 70 91 0
86 -73 -48 0
5 -70 -84 0
-58 76 -60 0
-65 95 38 0
-72 29 -90 0
-58 63 29 0
65 -56 -10 0
-20 -47 -87 0
-64 59 -20 0
-39 -53 -82 0
-28 -70 -9 0
59 -65 -47 0
54 -1 68 0
-40 75 93 0
-30 -28 -52 0
-24 -91 99 0
-28 -48 69 0
6 -81 -58 0
73 -81 -71 0
80 2 45 0
-46 97 29 0
-22 -68 41 0
40 -68 -29 0
-29 84 -21 0
32 8 61 0
-63 48 15 0
-35 25 54 0
-98 71 86 0
74 72 9 0
-28 87 -48 0
25 -32 7 0
-63 34 91 0
-38 -68 -26 0
61 -77 20 0
50 12 47 0
-52 -78 13 0
-23 -95 21 0
-1 57 -33 0
-97 7 11 0
27 -42 58 0
-82 -14 12 0
-70 34 -48 0
-40 -55 -31 0
18 84 76 0
-81 -42 62 0
-26 -91 -36 0
5 52 -12 0
88 -13 37 0
43 80 -54 0
30 -52 -5 0
32 91 82 0
46 -52 -70 0
39 -31 70 0
98 -12 61 0
-37 36 -53 0
52 -15 -48 0
72 -9 -77 0
35 -98 79 0
-84 -2 -88 0
50 20 65 0
98 12 -46 0
95 74 -80 0
-95 75 -35 0
-16 69 21 0
32 -13 -1 0
66 -42 -22 0
87 -60 -15 0
-41 -36 2 0
-35 70 -30 0
82 -14 93 0
21 55 -40 0
48 26 -6 0
-33 -76 3 0
-67 47 -69 0
19 5 99 0
20 -50 72 0
12 -47 -43 0
-91 89 10 0
-98 42 -22 0
11 -3 2 0
33 10 -57 0
-30 -62 -79 0
69 56 -70 0
-62 -17 99 0
67 -24 -35 0
50 -90 60 0
73 -36 -54 0
70 7 -72 0
-2 -82 -89 0
-95 43 42 0
-42 19 -43 0
-95 20 -22 0
-89 -69 -73 0
26 -44 -23 0
-34 58 -30 0
-99 58 44 0
-3 -43 -88 0
-99 -18 -63 0
21 -86 -80 0
87 21 -95 0
56 65 88 0
23 46 -53 0
-99 -48 -24 0
95 43 -58 0
61 -84 -25 0
19 62 -86 0
-94 55 -42 0
-23 38 -36 0
-55 -78 -1 0
-24 33 -100 0
92 58 54 0
-73 -44 -71 0
-52 93 90 0
9 6 -92 0
25 -46 -35 0
75 -49 58 0
-92 33 41 0
-29 86 -60 0
-3 8 -85 0
81 92 41 0
-7 -2 38 0
57 4 -68 0
83 -18 -42 0
-64 -95 100 0
-41 93 -24 0
-14 78 -9 0
51 -40 -89 0
99 29 82 0
47 20 -68 0
-16 69 -48 0
-10 -5 -74 0
80 69 64 0
35 -3 74 0
91 30 -3 0
-16 96 1 0
-6 37 70 0
33 -24 -47 0
7 -52 -73 0
-46 -33 -68 0
-67 -55 59 0
-4 -57 -28 0
-67 -69 26 0
90 -57 -27 0
25 4 84 0
82 87 -23 0
-74 47 58 0
81 -38 42 0
11 19 -40 0
39 -86 10 0
44 -41 -95 0
81 89 22 0
67 -95 -68 0
-66 -70 -49 0
-55 1 -8 0
35 -52 14 0
-42 36 -86 0
55 -11 43 0
48 -60 -76 0
21 -55 -89 0
-79 -85 -40 0
58 -48 10 0
-28 -80 -60 0
-62 23 -25 0
-54 12 -65 0
-96 75 -94 0
14 -15 17 0
-26 5 77 0
53 95 31 0
-79 -18 76 0
96 -54 -70 0
-15 19 92 0
19 -3 -98 0
87 -89 71 0
68 -27 65 0
-84 36 -3 0
-85 55 73 0
-33 49 5 0
-2 82 47 0
-60 -38 -85 0
-23 -7 92 0
97 73 -57 0
3 30 -37 0
73 -29 34 0
63 66 5 0
-61 -18 -27 0
-46 68 -47 0
-22 -2 24 0
47 79 98 0
