c Random 3-SAT formula for benchmarking
c Generated with seed 68
p cnf 2000 8520
1519 956 -1927 0
-961 -544 -1475 0
342 1134 -1329 0
218 1777 702 0
400 -1596 -394 0
1098 769 1073 0
1213 1161 709 0
-1924 -1939 978 0
-410 -867 873 0
-1831 1518 522 0
-67 1921 842 0
-187 -1767 -1536 0
1796 -1210 -1790 0
-957 -939 -1677 0
1736 -9 57 0
1173 -1699 -513 0
1792 616 1381 0
1179 -571 1191 0
-595 -269 -1200 0
-1784 -720 -216 0
150 1976 -1525 0
681 -1888 -1398 0
-1450 -1715 1158 0
-1968 917 529 0
-243 -525 1253 0
-468 69 1154 0
-1823 -1645 543 0
-204 -130 1275 0
707 684 1735 0
-633 1546 1877 0
-762 -940 -72 0
1903 1022 -307 0
-1478 -1371 -1211 0
-323 -1967 843 0
-1691 54 1965 0
1699 -1084 1309 0
1660 1036 1594 0
1297 1578 22 0
1315 -412 -1082 0
244 -727 1455 0
1061 -642 911 0
-984 -419 1170 0
1745 -170 975 0
716 -1437 1845 0
789 1602 467 0
1413 -1919 1259 0
1705 1797 1515 0
1054 -569 -536 0
161 -826 -1343 0
1876 1669 330 0
-1884 1841 597 0
1018 437 23 0
-1635 -1269 132 0
-594 580 -229 0
-930 1122 -1344 0
46 1451 1547 0
-1082 338 1275 0
171 -1959 1511 0
-900 -1040 1857 0
-1975 1908 1065 0
154 -1765 961 0
786 1255 664 0
556 -1121 995 0
155 513 -45 0
111 760 -297 0
-1052 451 729 0
-463 717 259 0
1034 -77 -699 0
-1641 -1691 -123 0
957 1861 -1699 0
-516 -1231 1243 0
1989 -451 -1741 0
-787 -170 -110 0
1164 546 542 0
-922 -1885 1038 0
284 63 250 0
-534 764 1340 0
-867 -1000 479 0
-179 -1344 342 0
-755 910 1380 0
-1488 -12 1210 0
-34 1299 653 0
-420 901 296 0
200 1751 942 0
-189 685 1913 0
-906 -1118 769 0
1015 -1242 640 0
-1289 255 1134 0
1728 852 1900 0
371 -1862 1183 0
-1423 -813 510 0
15 847 -1976 0
249 1815 -1354 0
-1200 -447 -1419 0
367 1605 -265 0
668 -220 453 0
-1050 -831 -1483 0
364 -174 -1867 0
1717 366 -1414 0
-606 1858 -468 0
-1121 -591 -1938 0
1702 -285 929 0
1519 950 1291 0
1435 -1331 -1234 0
-1387 1 -716 0
-1550 1589 1323 0
1015 -869 -544 0
-678 -1376 -514 0
-811 -1908 -1357 0
-1326 -1659 1637 0
-1523 1867 459 0
-320 -1247 1947 0
1841 -1493 842 0
1049 878 377 0
695 411 1877 0
256 -1343 1147 0
-1914 -478 -650 0
-335 433 -393 0
-1698 -1736 283 0
-144 1265 -826 0
24 1800 -1551 0
399 1774 -384 0
-1882 -1207 -1574 0
327 -58 -1518 0
-1059 657 1528 0
-1471 700 571 0
45 -400 192 0
846 1673 1746 0
442 -1175 934 0
-1221 344 1647 0
-855 -766 -1350 0
-1996 -1092 1849 0
1096 -1861 -135 0
-781 1158 -562 0
1033 30 -777 0
21 1807 -340 0
552 559 -1822 0
1664 -968 -149 0
1951 143 -879 0
-944 877 591 0
-1183 1636 208 0
-139 -1028 999 0
1383 -109 202 0
1179 -1711 -119 0
1936 -1474 1041 0
-1968 -36 -1768 0
290 880 1439 0
1235 -1747 1692 0
1174 -516 -1551 0
1 -784 537 0
879 -667 1038 0
257 -1854 1620 0
-1465 -1171 1036 0
-460 -1040 561 0
-1355 260 532 0
-1522 588 368 0
-940 803 -326 0
-1338 1923 -1587 0
-377 1314 -822 0
-1876 -811 -1336 0
76 134 -1858 0
-1720 1090 1588 0
-166 293 629 0
503 1043 -1331 0
-1814 -1631 107 0
-77 -1244 1162 0
-1513 -527 1587 0
-155 -1451 -116 0
1703 -553 -1131 0
1241 1154 1692 0
1709 132 216 0
-1607 -132 986 0
-995 -320 -1745 0
-1517 1252 -1953 0
-1409 -451 -435 0
469 -1015 1513 0
-1905 1776 -1974 0
1370 1116 -1931 0
-880 635 -1820 0
1188 -1325 183 0
205 -1367 563 0
321 399 400 0
1842 -1593 1043 0
-1018 -640 -527 0
1153 -1482 1972 0
-1135 -1705 -1032 0
-1518 -1986 -1525 0
-846 -1077 1712 0
-626 635 1307 0
318 1659 -1702 0
297 934 -899 0
38 -203 -662 0
1857 -826 -1257 0
1381 -3 -474 0
1375 -783 1796 0
-1266 1258 1649 0
-1710 677 -487 0
-451 654 -1502 0
-1202 930 -279 0
1435 -941 551 0
1144 1127 -914 0
1968 -568 -1766 0
-1055 286 -591 0
449 -1538 299 0
-8 -641 672 0
1691 145 144 0
533 -492 832 0
1113 -904 501 0
282 1917 -142 0
-36 1182 -947 0
422 1793 -1449 0
1424 -1537 677 0
-1143 -1785 -1594 0
355 1627 1464 0
842 -1190 -1387 0
-1631 -1679 1953 0
-682 -322 -1365 0
898 -192 -1779 0
1192 -613 233 0
886 -1016 -1058 0
-586 -1853 995 0
1896 -455 -1036 0
-1321 1630 1370 0
159 604 444 0
772 -905 -1356 0
175 1600 -1765 0
-1192 1466 1477 0
1151 -1868 -693 0
1373 -1054 -1925 0
-727 -422 1496 0
-1024 1565 1820 0
-217 69 -75 0
-69 888 -1999 0
1523 -823 -41 0
1535 1877 152 0
292 672 -727 0
-1855 -1583 -1724 0
-207 421 -759 0
-851 -922 -181 0
-1834 470 -1818 0
1934 -1908 156 0
1335 845 -1911 0
-1785 -1252 252 0
-1837 -414 -1962 0
-1366 -483 830 0
-445 1924 422 0
-1675 618 921 0
1027 1796 -1634 0
-1228 -99 -1121 0
344 -1171 -1433 0
842 -1968 -877 0
848 -908 482 0
1497 -123 -490 0
-751 563 655 0
223 -262 -236 0
1066 -1416 320 0
-12 1657 -210 0
627 168 1704 0
-75 275 -707 0
-887 1221 1123 0
564 -1185 1767 0
1276 814 -1137 0
476 -1588 -1109 0
602 115 -105 0
1833 -1667 294 0
-1926 232 169 0
-363 -1144 1929 0
-197 -1552 770 0
-1054 -486 56 0
1634 -1241 194 0
-1286 -189 -1033 0
1665 1854 1563 0
1495 1074 1547 0
-290 -1296 624 0
924 -545 -182 0
1485 776 550 0
1671 1156 1619 0
-1854 39 -1748 0
1767 -1534 -525 0
-1206 -28 808 0
-509 1938 1505 0
-658 1984 -542 0
-524 878 1317 0
-464 -1774 -1436 0
1401 -141 -1842 0
1307 -491 -846 0
951 -93 -1265 0
101 1869 -73 0
-695 -823 711 0
-1485 -378 421 0
603 -1654 -990 0
-1955 972 -1543 0
506 1258 701 0
-225 -1571 -1795 0
237 -1292 -702 0
-1391 -892 -295 0
697 1650 -1520 0
1394 -1315 -1231 0
-1854 -399 1402 0
-729 -1134 -901 0
1802 -79 1440 0
1470 1332 -1087 0
-66 -793 1787 0
-844 1270 182 0
-1374 1751 242 0
106 237 -1304 0
-357 1468 964 0
-1314 -1734 944 0
1216 1313 -363 0
-561 1695 -1346 0
1162 -1195 -648 0
2000 -1868 -173 0
1219 839 615 0
686 1394 1406 0
-260 -727 195 0
1166 494 894 0
614 -795 406 0
1505 -1722 -1166 0
1398 -364 1804 0
1475 -1385 -199 0
-25 248 -675 0
999 641 -112 0
1226 854 785 0
474 130 750 0
-825 1086 722 0
713 396 1715 0
69 -986 -749 0
1296 -1084 -670 0
-1109 912 988 0
315 1245 1031 0
1709 1486 -959 0
-1040 261 -479 0
-484 -652 -1007 0
539 -843 800 0
301 -779 -789 0
-13 -820 733 0
-820 207 -238 0
-804 1276 1367 0
-622 -1888 405 0
-1166 -172 -417 0
-1917 -23 1525 0
-1828 430 426 0
-1390 -171 -303 0
-794 1943 160 0
-1835 1381 1445 0
-1445 -1356 -1162 0
69 -1840 -383 0
189 337 1769 0
-422 -577 1915 0
1190 969 101 0
1111 298 -142 0
136 359 1901 0
855 807 -158 0
-1917 1326 1670 0
-1537 1336 39 0
777 -1639 574 0
1947 1911 1616 0
877 -1778 -1023 0
-75 1828 240 0
577 -864 -1780 0
-1257 954 1578 0
486 319 1919 0
974 -1790 -1577 0
-1350 297 1433 0
-814 1942 -978 0
597 -1250 -149 0
583 -214 323 0
-71 818 -194 0
-1540 786 1964 0
1600 1915 -269 0
1406 471 -1336 0
-1630 -18 187 0
-1979 1870 1778 0
-1400 1386 -1171 0
-49 -1207 -1600 0
-1479 -385 -1782 0
-1216 1351 1008 0
1320 -1946 -1965 0
1778 566 270 0
1345 -364 -1761 0
1342 714 -1012 0
-67 180 -1182 0
-913 -1606 1275 0
899 1881 -699 0
737 -511 114 0
50 1417 161 0
1531 -1080 -1708 0
-104 1422 1887 0
-156 -654 -469 0
175 34 -1830 0
692 -1137 1666 0
1381 -1879 -1493 0
-472 -1847 1502 0
-2 939 -1465 0
1047 1161 -960 0
1521 858 -233 0
-433 -867 1451 0
378 -1355 593 0
233 487 -849 0
1361 -873 128 0
38 161 1365 0
-1221 -1314 1823 0
1723 -1408 -1622 0
-1716 1424 917 0
720 -586 -797 0
736 -622 -1535 0
1105 -1473 -25 0
-1559 -1023 -1622 0
1918 861 -1980 0
-139 -415 952 0
-1059 447 -1832 0
1349 -1118 -191 0
-900 -303 -1691 0
-888 1749 -262 0
853 51 1775 0
1746 -1835 -226 0
-1347 38 833 0
953 1222 1578 0
-730 618 316 0
814 992 -832 0
1322 -1067 -1764 0
1531 1704 529 0
1180 -130 -610 0
-1977 -720 -805 0
1466 1221 95 0
446 466 306 0
476 -1615 1187 0
1312 485 -94 0
-96 -683 -1201 0
-1026 -1305 1408 0
1490 -1319 1918 0
-680 -1456 1985 0
-1185 992 968 0
1201 -745 -1042 0
-876 148 848 0
-519 622 -904 0
-200 -1984 -115 0
-1868 -896 840 0
-509 1684 -970 0
-465 177 -359 0
1065 -185 -4 0
-1104 64 1968 0
1520 -1464 1494 0
-1304 -789 -726 0
-1763 1901 -495 0
864 935 1927 0
-1622 632 -1993 0
-1216 424 -580 0
-804 -607 1464 0
1440 -565 -241 0
531 1793 -955 0
1598 -1215 -823 0
1664 400 -1983 0
593 -1793 -1541 0
1931 1254 -572 0
-1408 1716 145 0
-1562 -1357 -1833 0
1666 1847 1968 0
-325 -1019 269 0
-91 -1661 749 0
-200 -1123 -163 0
-767 578 -684 0
-472 1989 -79 0
-135 1993 -1418 0
-1006 949 -1775 0
1538 362 -175 0
1421 -728 -822 0
-442 -1734 1414 0
-1282 -1057 -1468 0
1260 511 -1881 0
-571 1404 502 0
1624 1171 -1421 0
1323 833 -1218 0
1060 1871 1473 0
-1073 1149 -319 0
1354 -354 1927 0
-1357 -1234 -1841 0
-658 228 739 0
-1596 -643 -557 0
-138 372 -929 0
1102 1297 -303 0
407 -1827 1393 0
-1683 -1545 -1451 0
-1590 83 -709 0
121 -960 944 0
-656 -1396 -1767 0
1178 -1432 -40 0
264 -1686 992 0
-1611 -714 -1070 0
1381 -1006 798 0
735 96 7 0
-914 1008 1054 0
-1922 -1139 -1427 0
972 -1170 -170 0
-790 294 -1302 0
471 -350 27 0
786 -253 -470 0
-1484 -179 1156 0
1476 -387 -243 0
-278 586 -489 0
22 1149 -1545 0
-171 1407 -1595 0
-6 1847 674 0
84 334 -1420 0
-619 1512 43 0
-1402 1661 1156 0
847 -1709 1501 0
1267 1892 -1470 0
96 395 -581 0
-1413 -348 84 0
442 679 528 0
1476 1266 -1679 0
-1560 -1377 -103 0
1655 -1254 1833 0
517 -105 57 0
1973 -1784 -1890 0
603 946 1292 0
892 1204 -154 0
200 -1245 1624 0
-1229 1643 -1349 0
1745 186 261 0
-474 -809 -126 0
937 -150 933 0
-681 1004 1042 0
1756 1287 317 0
661 -114 -214 0
492 -1656 -1845 0
1688 -1220 -101 0
-466 606 426 0
-642 152 618 0
997 -963 -130 0
1997 1739 -115 0
120 548 -1261 0
1083 -923 744 0
-20 -643 119 0
1990 214 1691 0
1432 -60 1027 0
256 -852 -525 0
-115 1694 -1335 0
1897 -1097 -287 0
-581 860 -568 0
-1127 -1791 -968 0
249 -1726 -1950 0
-1683 670 -61 0
-1596 -1086 1339 0
-1603 -741 1089 0
-669 1698 -555 0
-451 -1 1208 0
370 988 -1598 0
1812 -897 42 0
121 161 -348 0
-1495 -1812 -1130 0
1335 -958 334 0
124 767 -1572 0
-1633 -797 -521 0
-1655 1765 1804 0
-1528 1955 1497 0
-1678 -23 1822 0
-1167 1783 -1632 0
-1353 1526 -1506 0
1826 -604 -1153 0
1790 1325 -326 0
659 -76 -1173 0
196 -6 1600 0
1103 -1201 1344 0
1135 1853 -842 0
-1192 -769 314 0
1860 -1101 -579 0
-1143 -891 -1271 0
1222 -338 254 0
1636 1631 -1687 0
-877 -228 1942 0
430 505 1315 0
-1446 -1386 -1391 0
-660 -394 305 0
-936 473 -1904 0
962 891 -449 0
-1029 -1495 -562 0
-306 -1814 -1690 0
252 -197 -1901 0
-1169 1654 -1320 0
1892 -288 1364 0
760 -976 -1876 0
1812 1634 -1028 0
1803 -1988 433 0
-1517 798 -1646 0
1308 1913 -1100 0
-109 -1787 -321 0
-1088 -180 -252 0
169 -1100 570 0
1400 -1418 1017 0
-1423 -1147 -1952 0
-1535 865 -1870 0
1452 -766 -1732 0
1265 -185 1712 0
-991 1642 -1996 0
1500 1440 -913 0
674 891 735 0
-1645 -1345 -518 0
426 -1690 -1397 0
1860 -267 -1431 0
-1073 -1497 1574 0
799 -455 -1465 0
-978 -1727 -848 0
-679 -1604 1868 0
-271 -1635 -1380 0
1723 362 480 0
-1329 -1751 149 0
-461 -75 1424 0
-1650 170 730 0
1329 -702 277 0
-332 -1545 -33 0
-689 1227 87 0
-1277 -1973 -24 0
-832 -1272 -736 0
-510 889 -1433 0
-1255 -322 1851 0
74 -355 -367 0
40 -1822 1023 0
-745 -520 -1844 0
-155 -1059 -1289 0
495 -1961 -1320 0
-674 -1623 1712 0
-627 278 -1022 0
-644 -662 -1360 0
-1964 -1734 1766 0
913 -643 -191 0
275 -1982 -299 0
-1585 81 355 0
1810 1797 -641 0
-347 1099 -1640 0
-1104 1293 -776 0
1802 -649 1813 0
1866 -1034 -1794 0
1375 -771 -834 0
261 -675 -1713 0
-1498 553 1320 0
610 -1827 1779 0
-122 -132 -1026 0
-1398 -770 -998 0
-1491 1256 -675 0
-98 -589 1557 0
-1530 -1803 -121 0
-1058 -611 -1122 0
-1397 -56 -95 0
794 -958 -75 0
1535 1136 1518 0
-272 -1445 -1708 0
-996 620 -1425 0
-1010 -1659 730 0
-990 -1273 1792 0
-67 594 754 0
-1240 -469 540 0
265 235 1097 0
1411 -1825 -723 0
-1468 453 -1180 0
-655 1904 -1949 0
1894 -1732 -1345 0
1854 -137 -218 0
-1594 1531 -703 0
-669 -1600 1238 0
-527 -1129 1797 0
1083 -461 291 0
-1257 1104 -250 0
1150 191 -562 0
983 -1403 -1285 0
232 1903 -1172 0
-1113 -894 -1215 0
-979 379 -1139 0
-1950 111 275 0
200 994 1979 0
1296 119 -495 0
25 -1278 -405 0
-238 1103 45 0
-144 -1024 1727 0
142 -918 1473 0
133 -1890 350 0
-360 -1970 -972 0
-1752 1803 557 0
62 2000 -111 0
-396 -1246 -803 0
-523 -1055 193 0
-1797 -1238 -25 0
159 -1733 -804 0
-277 854 -1667 0
12 -798 945 0
1706 -548 -757 0
-1897 1178 620 0
-736 -667 1525 0
-655 -991 -1959 0
1285 1959 -1444 0
-1219 -559 207 0
-857 1514 1165 0
-1650 441 497 0
-1301 -515 326 0
-805 -191 1317 0
47 522 -133 0
1041 1 -1966 0
-427 1324 1676 0
728 265 772 0
-651 1960 206 0
1685 1364 1790 0
1349 -754 1164 0
-1682 138 -307 0
-1531 -1191 -1561 0
381 1128 -185 0
-1527 1477 -1089 0
-1894 1029 1459 0
1935 -1276 -489 0
1773 -602 -1191 0
-677 924 -942 0
-886 -1151 -1914 0
-721 468 -302 0
-1159 -736 771 0
1818 -129 -266 0
-545 1969 -1369 0
-1909 881 1039 0
117 1024 1436 0
-1969 -60 1754 0
-913 1747 361 0
1765 610 87 0
-301 -89 1695 0
612 877 -625 0
1049 1949 353 0
440 -1899 -612 0
-347 -29 1023 0
890 1300 1082 0
-1999 1583 485 0
-1753 -470 -1261 0
188 -881 -1574 0
-514 -630 -910 0
1887 1031 865 0
-1340 1707 -1230 0
1979 1304 741 0
-1767 -1561 1502 0
561 227 -552 0
-424 1533 1325 0
-586 -1621 1933 0
917 -271 855 0
1763 227 -1179 0
-1294 -1911 -1378 0
-1023 -487 208 0
449 -1426 1354 0
-1325 1406 1809 0
897 1219 200 0
-1142 110 1498 0
726 1577 -1357 0
-1124 -139 -1084 0
-1991 -383 106 0
-317 -194 1269 0
-1610 -1726 -943 0
-440 1695 -976 0
-594 -677 -1051 0
1037 1446 -1591 0
-353 77 1961 0
1121 341 1575 0
-772 -348 -521 0
-1398 216 1576 0
-918 -1061 43 0
1067 1111 1751 0
-571 -1517 -681 0
-88 1849 -1658 0
-1708 90 230 0
-1706 1833 -1078 0
-820 1950 -906 0
-1455 374 624 0
900 -72 -1484 0
-1815 128 832 0
-522 -375 -871 0
1129 488 776 0
1764 -1542 858 0
643 -1106 1671 0
594 1159 111 0
1538 -850 863 0
-1659 -1922 -1431 0
614 -1868 171 0
-1925 -726 158 0
948 1459 -467 0
950 743 1406 0
-1805 159 1244 0
1177 1842 1913 0
1665 1031 -1643 0
-642 -1878 396 0
109 528 -1675 0
91 1349 -957 0
676 -843 1757 0
-1782 -139 1455 0
-1111 1433 53 0
387 -1266 1990 0
-261 -1000 -1753 0
1706 415 1056 0
-919 647 1948 0
-378 1400 -1973 0
1533 1531 1352 0
-1789 -1178 1023 0
-1990 -1475 1928 0
1298 765 -1087 0
-594 -826 1960 0
-1713 -1036 -425 0
1467 1159 1458 0
-1922 1543 1124 0
-502 1381 1718 0
-222 -1305 1720 0
-1575 -74 1023 0
-1215 -1302 970 0
1899 1653 411 0
-935 -727 -1834 0
1279 412 1859 0
114 1685 -292 0
659 -566 1275 0
1759 1464 1556 0
1677 1671 -3 0
439 1247 -1171 0
1024 1882 1505 0
-178 1526 519 0
-622 -1664 -863 0
1495 -1186 1506 0
-487 1549 1969 0
442 -383 1606 0
-619 -426 430 0
488 -1809 -974 0
-539 673 1098 0
544 1860 -1071 0
-243 -1601 -669 0
1635 236 1460 0
1260 -1387 -1880 0
1540 -899 -1152 0
-786 -54 -814 0
1592 -475 589 0
1388 -168 442 0
-1026 923 -1457 0
-1850 -1093 900 0
853 1922 -1639 0
1216 -1455 982 0
1917 -1616 -1111 0
430 -1696 1635 0
1316 -104 858 0
-400 678 1861 0
535 252 -1519 0
1025 -1640 -1781 0
511 -993 1918 0
-941 -1274 263 0
-831 1392 1602 0
-1961 -1862 -1072 0
1156 -668 230 0
-86 -1289 485 0
-43 1114 1368 0
1176 413 716 0
-632 1910 329 0
-57 473 792 0
-1775 38 -1505 0
683 160 746 0
-372 -786 1077 0
-1504 -229 -64 0
80 -876 -1554 0
-328 -1309 -201 0
871 1591 -744 0
-1820 515 -1542 0
-797 -1837 -667 0
-584 -1507 -619 0
1940 870 1594 0
-716 1417 1690 0
-1267 -1969 1929 0
-1055 -357 1718 0
-713 876 -1128 0
-1914 -381 -1708 0
1566 317 1974 0
451 1693 -1501 0
-1105 1207 209 0
178 917 -1572 0
-1110 1496 1728 0
-1385 163 -1699 0
-1768 1304 -729 0
587 -655 -16 0
935 -1476 643 0
-812 861 1291 0
974 -415 -594 0
-407 -1229 -1504 0
-663 704 714 0
782 1561 1203 0
-1432 -1860 -1358 0
1914 246 -818 0
-346 -660 1998 0
1228 -1484 1060 0
80 -387 1772 0
-798 -480 -687 0
1099 1608 1330 0
-1245 -1340 -1910 0
-1900 40 -388 0
1006 -1776 1058 0
-937 -943 475 0
1689 720 1613 0
1676 -1001 1568 0
-1749 -1324 1042 0
1788 784 -1661 0
1027 -156 -566 0
-1688 1761 885 0
807 -342 -1360 0
-1937 223 -417 0
-788 840 -1702 0
-1937 -1694 -776 0
-331 362 -1014 0
-1813 1039 1960 0
-345 -449 224 0
497 -932 -541 0
-63 361 1883 0
-760 -1533 -1743 0
410 1545 -1745 0
-1979 453 -1104 0
550 903 -1160 0
605 482 1154 0
413 1195 -315 0
-1802 -1788 1682 0
1677 -1891 -1023 0
597 -1054 1950 0
-1553 120 1653 0
-808 -1465 228 0
1451 1303 841 0
20 -908 1561 0
1489 881 -1394 0
1811 -587 357 0
-558 -1729 1114 0
91 -1180 -1818 0
563 -1585 1380 0
-1888 1224 1784 0
-121 -1939 -93 0
6 1060 1812 0
316 1918 1072 0
-982 -1917 1796 0
-696 1173 -1740 0
818 1227 573 0
323 548 455 0
-1830 82 -850 0
1484 1006 -1423 0
61 1248 -628 0
-992 816 -500 0
442 1398 219 0
-710 1236 1249 0
-1767 -895 -1009 0
-1872 -1591 -891 0
99 1290 954 0
591 1175 -1020 0
528 -1762 -1109 0
-1696 -1147 -1805 0
386 -930 155 0
1791 -1337 -1861 0
-867 -891 -795 0
1563 627 97 0
-515 1320 1709 0
412 1393 1872 0
112 571 -630 0
353 1866 1621 0
300 143 -581 0
-1482 1728 -1847 0
344 104 1917 0
-819 1135 27 0
290 -1264 1425 0
-24 1731 1939 0
585 -817 -1357 0
-586 -830 16 0
-1588 -962 1605 0
-1355 -1046 -1841 0
843 1005 -204 0
1200 -244 557 0
1503 -1225 -1506 0
329 1292 1617 0
-238 -971 -1395 0
-1348 1942 -1369 0
-494 1728 -901 0
-1535 790 476 0
-1215 942 -833 0
-175 1493 976 0
649 747 -92 0
1791 -978 1167 0
-1004 -1312 -1008 0
-1678 -417 768 0
-1309 1680 1464 0
-1404 583 1505 0
-3 1377 -1125 0
375 568 -1075 0
-1656 -1691 -664 0
1105 1434 -251 0
804 -1357 -1331 0
637 -399 1551 0
-1507 649 998 0
-1840 1030 -1270 0
1305 -1951 -828 0
260 717 682 0
-1178 -343 870 0
48 1718 -442 0
414 293 -853 0
310 680 1158 0
-228 -185 648 0
-1186 566 -1791 0
-547 -1487 -479 0
388 903 -170 0
-1425 972 -1323 0
1917 -216 838 0
-936 1643 -1303 0
387 1366 297 0
-121 1412 1912 0
-696 360 -362 0
1926 1205 835 0
-808 296 -1174 0
830 -203 -47 0
-1211 641 -347 0
306 -239 618 0
1373 -1144 1598 0
-1789 1637 -203 0
1842 1515 958 0
-1289 377 819 0
-599 50 -246 0
-1507 842 717 0
154 428 -600 0
-34 -909 334 0
-1790 -17 -578 0
498 114 414 0
679 -1230 1743 0
1726 676 965 0
-1290 1093 -135 0
-1058 -1374 -267 0
899 -688 76 0
1247 488 880 0
1776 1315 -686 0
1468 -623 621 0
1785 -453 142 0
416 -25 -1823 0
1201 -1436 1212 0
1324 847 154 0
737 1000 -1468 0
1918 431 1699 0
-238 1029 871 0
1385 834 911 0
-650 695 61 0
1628 -1576 -117 0
293 -1675 -1693 0
-1491 -1908 -1417 0
-17 -1089 1525 0
123 -144 -533 0
1544 1217 1699 0
-1715 1151 1090 0
422 1560 -1435 0
163 1558 481 0
401 -1075 -781 0
960 1692 540 0
785 1135 -1804 0
-1485 435 1549 0
1257 -1683 297 0
1748 -810 -1077 0
738 -1614 -1191 0
-406 1529 1287 0
-1326 962 483 0
-1239 -1859 -97 0
-1712 1680 -1149 0
-415 307 1430 0
454 80 -716 0
-1926 449 480 0
-116 -1484 1702 0
-425 -1695 -1550 0
-171 219 -593 0
-1372 -763 -1633 0
1595 -1184 1634 0
-976 -1666 99 0
1007 1058 1685 0
1543 -1964 -1006 0
-171 1426 408 0
-1102 -371 1983 0
-1770 1454 1572 0
-1484 -1101 -582 0
-1891 -1921 -881 0
-581 -1750 1644 0
-424 -269 1576 0
1938 984 -1824 0
-1793 -1715 -1180 0
251 1439 193 0
-296 1214 -1670 0
355 -1213 -1922 0
1199 -249 -1606 0
1919 -1256 1890 0
170 1688 1065 0
638 -349 -181 0
1982 1717 33 0
1240 -1683 1318 0
-351 1486 1918 0
1879 717 -284 0
1937 1461 -1530 0
-1017 1367 -766 0
-1863 -548 -1441 0
1146 201 -817 0
-1971 -986 -1020 0
873 -1773 775 0
-1559 -1773 5 0
-1322 -420 702 0
-344 1156 1599 0
1981 -1214 1376 0
-1237 -371 -1413 0
649 856 -374 0
-1535 -268 1373 0
-1190 376 -853 0
-651 275 758 0
-1229 -1115 1529 0
564 117 1223 0
115 -1426 266 0
652 981 169 0
-444 1512 565 0
222 -1248 127 0
1898 -1314 -359 0
-1015 -398 742 0
690 -1632 823 0
377 1471 -1867 0
986 1869 -938 0
1755 -1418 404 0
-1359 71 375 0
-261 1228 -1589 0
-570 1924 1686 0
1277 -1125 684 0
-1423 -1567 -1669 0
-1545 223 -1527 0
-380 305 -254 0
-1896 916 381 0
-1812 -1807 -1343 0
-1392 -171 -1587 0
1961 1915 -1945 0
21 -1646 1157 0
-1925 -1134 1593 0
874 176 223 0
241 83 1536 0
-1391 -444 347 0
-1307 -587 -404 0
-332 526 -1395 0
1326 -262 -1619 0
-1964 1241 1553 0
1002 -825 436 0
385 1728 -1119 0
-392 -1035 1401 0
1643 -1440 -408 0
-1237 1460 -325 0
-1299 -1638 -1983 0
915 839 -1450 0
1585 -1330 1972 0
-1060 1498 -1145 0
-1175 808 754 0
-947 1513 -1846 0
1487 -654 -935 0
-1664 -394 391 0
-1508 -1934 1745 0
1021 410 1333 0
1450 1313 730 0
-90 -387 1201 0
1504 -695 16 0
1624 580 -1921 0
752 720 845 0
1518 1779 -600 0
-668 321 1999 0
-401 -1042 -1315 0
-435 -788 687 0
924 -1822 947 0
-1330 628 -1067 0
-365 -1179 -1058 0
-256 -1377 331 0
872 -710 -1773 0
607 -1693 -886 0
-1442 -1653 1056 0
1787 -424 -1532 0
548 1336 -1671 0
972 1932 322 0
-337 1070 -1610 0
-1797 1145 598 0
250 1649 -702 0
-88 -136 1581 0
-1377 -1515 -1200 0
298 -561 1459 0
-620 -1642 775 0
1533 -739 -494 0
-1533 112 -766 0
-1133 861 -1978 0
758 -702 1758 0
-1851 1523 306 0
-1184 -153 -1771 0
-801 -452 -307 0
1351 1135 -408 0
560 -556 775 0
1638 -641 1672 0
-161 -103 204 0
-1783 -809 1328 0
-412 -1749 -439 0
1783 -1128 1548 0
940 636 1639 0
453 -1611 -994 0
-116 -610 -1971 0
1349 1610 1523 0
-217 239 1097 0
1800 351 -117 0
612 -432 -1522 0
-728 1562 -509 0
-1831 -818 -1107 0
-1484 1664 1579 0
1284 -1411 -1309 0
1005 -1386 -1922 0
-45 -383 1649 0
1434 -638 1676 0
703 623 1602 0
-346 22 -1490 0
1089 -1242 -1825 0
-751 -715 -1059 0
-73 -382 1149 0
1018 1390 -136 0
1460 -1713 -825 0
742 -1435 -1720 0
-865 -1284 1612 0
-772 -1658 1733 0
-1088 -1339 84 0
1040 638 1590 0
-1438 -727 2000 0
-1020 -933 105 0
-1350 -453 592 0
-1526 1417 -1678 0
-1158 -1751 -431 0
-1311 -1733 -1409 0
468 -1250 989 0
-448 1461 1010 0
756 703 359 0
648 992 60 0
1031 -48 432 0
-810 908 1391 0
1882 1060 898 0
1831 1497 -1733 0
1772 -1898 -175 0
1537 -697 429 0
-536 -273 -191 0
324 762 1066 0
-494 1622 -103 0
425 1782 -528 0
-245 -198 -119 0
-24 127 1126 0
458 889 39 0
294 -702 1785 0
-169 1735 -1532 0
689 254 1232 0
1605 418 1243 0
-375 796 -1113 0
1332 -624 1452 0
-550 -1199 -518 0
857 -910 1701 0
-1276 -179 -218 0
115 1686 -820 0
-1567 -852 -1188 0
983 1735 -1182 0
-1951 1129 -1198 0
1095 -1077 1475 0
-1565 -1311 -792 0
-1080 28 1986 0
-1485 128 -80 0
-934 1595 505 0
1419 219 -1165 0
1997 -1310 -391 0
-1311 -751 207 0
487 1807 -1466 0
901 1928 1040 0
668 -80 1373 0
63 -990 1940 0
1810 -1612 -843 0
585 -505 -1440 0
-1190 1121 1010 0
-1077 -1223 695 0
206 1983 1990 0
-47 -422 -258 0
1651 -573 -255 0
1716 2 158 0
-75 1906 -1517 0
-685 883 -1470 0
-555 -1289 -768 0
132 1381 122 0
523 -731 -1523 0
1035 1302 536 0
300 1690 -1907 0
1170 -1319 -1793 0
470 -1139 -1206 0
1885 408 1381 0
577 -785 1356 0
-1498 477 1265 0
1912 1786 -801 0
-1859 1641 1110 0
1407 -1552 -140 0
1739 1421 -635 0
-1988 -1465 -574 0
885 -1979 -1871 0
1000 -1730 315 0
634 1937 1957 0
1879 -696 1665 0
1554 1944 -996 0
671 1380 -264 0
-814 -1550 -842 0
-832 -1506 862 0
-1167 1648 -1376 0
-1898 1950 1940 0
215 733 -1284 0
-633 866 -170 0
-1653 489 -643 0
1571 646 -699 0
1584 288 1724 0
-1029 -164 1643 0
-1590 1378 -348 0
650 -1738 696 0
1838 -1756 -603 0
-1702 867 -278 0
-1104 -1857 925 0
1833 -858 -1796 0
559 75 926 0
1535 1317 308 0
475 1842 -215 0
-1850 1116 -852 0
-1716 -662 1664 0
-1789 1712 1945 0
1863 -294 -1243 0
694 919 1056 0
-1316 1674 -1567 0
1983 642 -99 0
-1818 706 -1940 0
-1901 -638 -1637 0
-1008 413 1032 0
-1353 -980 270 0
-1274 -692 -1645 0
526 1759 -980 0
939 214 300 0
146 871 1148 0
244 672 1747 0
1736 -157 -1645 0
-145 -1607 -1311 0
-1473 -683 -1411 0
-1259 1882 -1573 0
971 -1776 -416 0
1725 -922 1508 0
-1791 1428 1962 0
594 920 -1776 0
220 1198 -1899 0
-74 -930 -478 0
1284 -759 -1290 0
-1114 1033 497 0
-788 -1013 1181 0
1752 -338 1766 0
1523 -1148 -1532 0
244 -1083 -1731 0
-510 -203 -1429 0
1725 1575 130 0
938 -1693 497 0
1760 -233 -1842 0
1506 328 25 0
-1499 1256 -1297 0
-1547 -70 -1205 0
610 235 1649 0
772 -1221 1386 0
166 -110 1200 0
-1802 302 -1020 0
-954 -268 -1658 0
-836 796 -299 0
-952 682 414 0
1749 -1350 -1110 0
918 -1957 -853 0
-1740 -1872 -272 0
-1465 -1482 958 0
974 -923 341 0
-1750 -1289 -47 0
-1366 -44 1149 0
1652 -1193 -1950 0
1191 -1631 -1321 0
207 -1975 922 0
672 881 -1083 0
1395 362 -614 0
1918 1885 -716 0
-437 -447 -917 0
1283 -542 -1473 0
76 1005 -1879 0
383 1843 -1443 0
1538 179 -380 0
1010 1621 177 0
1522 -902 -1759 0
269 969 -708 0
1837 8 440 0
434 830 -872 0
-1781 -907 202 0
471 1676 1815 0
656 -1664 -165 0
-635 1102 -628 0
-46 626 -345 0
-1385 1581 -1413 0
295 373 1051 0
291 1252 -1035 0
623 -1087 -264 0
1099 1993 -51 0
233 663 -944 0
855 -711 -1185 0
-263 -1576 -1607 0
840 521 -901 0
707 1902 -960 0
922 -461 -1577 0
430 -971 -776 0
635 10 -734 0
-123 -1090 -1234 0
282 -1532 -1623 0
-573 -1765 648 0
1822 -1298 1209 0
1138 1735 -704 0
-1979 509 1340 0
329 571 -830 0
-1496 -1760 1152 0
-1180 380 -297 0
-636 -1432 -2000 0
743 651 1102 0
-1627 632 1470 0
1972 28 -524 0
-733 -754 436 0
1771 1811 -1841 0
-413 227 1194 0
1309 -591 -1874 0
1089 -564 1442 0
-1029 1517 1599 0
-527 1439 -520 0
765 1528 1140 0
354 -627 -1787 0
-6 -193 -1136 0
-432 -444 -1904 0
-1100 -1880 -988 0
808 -1675 -1993 0
-340 41 -793 0
174 -653 -1907 0
91 1375 -1073 0
-1754 673 -1879 0
142 -971 1020 0
-318 -707 1946 0
-646 1808 -1911 0
-973 -763 21 0
-1900 386 -1487 0
395 -1416 -1544 0
-235 651 -958 0
1686 899 -869 0
-1219 1716 1641 0
-104 488 -619 0
-1341 1411 386 0
919 1284 -1156 0
-1665 1051 -1001 0
1972 1709 1713 0
1185 -1897 1444 0
-1069 848 -1959 0
-1613 -292 1536 0
1527 976 -1811 0
1925 -970 -1966 0
-330 -1744 1354 0
-61 1967 1756 0
435 -1447 -1897 0
-703 -89 1006 0
316 -822 1864 0
-1952 309 1737 0
929 -300 888 0
461 1174 654 0
723 -1561 -1605 0
1448 -1079 -740 0
61 437 -1629 0
-1011 -1117 574 0
441 -714 -1067 0
-752 -1476 -498 0
-1110 795 9 0
-1401 207 1563 0
-1462 -973 99 0
-1474 51 -154 0
-1853 1286 827 0
247 1339 1368 0
1445 1736 408 0
549 1585 1716 0
-1023 88 -971 0
-821 1664 -1265 0
-950 106 -1593 0
82 1561 754 0
-1786 -1355 1619 0
1740 1616 -1889 0
537 798 795 0
-263 -1791 -1079 0
-126 1652 -179 0
250 992 1412 0
920 1121 1941 0
-254 562 -1326 0
1870 -770 741 0
-1132 734 1948 0
1731 742 -1591 0
1869 296 -1567 0
-136 -1218 1914 0
201 1116 370 0
-798 877 -1742 0
708 -395 -1513 0
-221 1342 252 0
224 -141 1417 0
504 -1237 -1173 0
-352 8 1101 0
-1616 1864 900 0
-1371 506 -132 0
1766 -374 1914 0
984 694 -286 0
227 -875 1102 0
-1345 -98 369 0
1003 980 1642 0
-339 552 1763 0
-721 1156 649 0
-1752 1262 -1149 0
1275 940 -1627 0
-1548 -1674 -48 0
-1732 -983 -677 0
-837 -1238 323 0
569 1426 1622 0
-115 -693 -397 0
429 -139 1619 0
51 1183 -773 0
-481 -375 -811 0
-312 1722 252 0
-970 -608 1008 0
-542 1942 -102 0
-581 -1144 -888 0
1729 -1388 651 0
44 -1189 -630 0
444 1891 -256 0
-801 1837 -509 0
1478 -1007 990 0
-482 -1534 -1803 0
-576 1508 -301 0
-1528 -1181 -944 0
-1598 132 -694 0
-1207 1378 1354 0
1777 260 -1027 0
-1178 -400 -1446 0
-961 -762 -635 0
-1980 -1437 -1166 0
1525 1415 1003 0
-1543 -1179 1209 0
-201 -989 308 0
240 176 1459 0
-1487 36 -1230 0
-675 1789 1263 0
1363 -221 -1753 0
-1553 -857 -1520 0
1342 1361 -298 0
1569 468 -694 0
1335 191 535 0
14 1068 -1120 0
65 -1534 -610 0
576 1479 -369 0
1916 21 -1503 0
-778 -1072 -1001 0
76 1931 906 0
22 -478 -288 0
1241 -456 -133 0
-391 976 -643 0
1242 1690 1587 0
-1197 -570 1404 0
-1183 -253 -1671 0
-913 1519 -604 0
-344 -1107 -863 0
-1120 252 -1778 0
356 -278 1359 0
-1696 -989 -1272 0
-158 -14 -607 0
1064 35 834 0
-1909 327 -1621 0
-701 1012 1276 0
-929 -571 -1459 0
1853 417 -1049 0
-1072 -1614 1142 0
-1041 763 1487 0
469 656 -1181 0
1937 -894 1844 0
-1261 -130 1883 0
820 1998 -808 0
1098 -1077 -1873 0
1774 460 1170 0
145 -1300 -592 0
-1148 -286 -295 0
-928 1437 -194 0
339 -1468 -860 0
914 -1798 1237 0
1209 -70 -504 0
-1498 314 -1047 0
-1714 -1425 -1742 0
705 -478 -1926 0
-1009 1715 1502 0
-1060 -1141 -1330 0
-685 250 -1432 0
439 1475 -260 0
1135 1370 1088 0
1809 -245 -1594 0
234 1740 1194 0
1879 1624 -463 0
822 -1106 -1108 0
1954 730 -812 0
1877 -1951 -1993 0
-1773 1750 -1012 0
-758 -1168 -950 0
1169 1896 1154 0
-426 -148 -1583 0
1092 25 993 0
-175 -1688 -245 0
-1064 -1137 156 0
-199 1557 1596 0
-931 1224 1445 0
-1800 -649 -1818 0
577 -372 641 0
1142 -1298 364 0
-993 1426 354 0
-475 378 1037 0
474 -1685 -2 0
1628 548 675 0
1658 1235 325 0
-226 104 1764 0
1932 1211 -86 0
1797 -657 390 0
1640 1942 -1224 0
994 1735 -649 0
1989 -825 -1765 0
-1258 -349 426 0
-593 1872 -110 0
-1509 -405 -985 0
-1207 -144 -1025 0
1330 -354 -195 0
-114 1978 1655 0
899 -700 -1076 0
35 1134 1645 0
506 1540 697 0
-950 -113 -1719 0
-1792 -1904 250 0
1563 -1608 1338 0
1420 -1868 -1631 0
-983 -753 1725 0
-1451 -1099 -1879 0
987 747 1451 0
631 419 1090 0
-968 -1980 1672 0
1065 -480 1420 0
-1755 1122 440 0
-908 873 -1823 0
-628 -1374 -677 0
-1791 721 -627 0
1037 978 -778 0
-819 1526 -477 0
936 -540 1388 0
-224 -860 -1837 0
366 479 -994 0
-738 496 -1482 0
-1605 511 -1993 0
1245 1317 -837 0
-1653 -767 1942 0
923 1144 -1493 0
-148 711 -863 0
292 -1317 -412 0
1798 1347 526 0
1511 656 592 0
-1360 -1564 317 0
579 -1257 -429 0
1634 575 -1270 0
177 -1960 -469 0
-598 806 -977 0
290 107 -323 0
347 114 1165 0
1436 -963 224 0
195 -679 1982 0
-182 99 -1633 0
-382 -286 -1025 0
885 1124 -1748 0
1744 -353 -390 0
-87 -948 214 0
-342 -7 -1660 0
-1666 1839 871 0
457 -1390 -13 0
-1231 -412 -532 0
1094 -1702 -1625 0
1664 -486 -1770 0
1192 724 -1185 0
-400 1824 1282 0
-1116 -530 -765 0
-237 1862 1691 0
-1477 -1187 -967 0
-787 -158 -421 0
-1803 -237 1049 0
513 1362 -1609 0
1322 919 -1563 0
1556 -1150 -75 0
84 401 -648 0
-712 1914 -945 0
1975 -308 -1053 0
-454 -1522 1399 0
-774 -1302 -1776 0
277 -979 -353 0
1668 285 683 0
-1134 -1387 -1670 0
-1691 -1568 221 0
-28 319 -912 0
-613 1901 -1494 0
-1129 50 96 0
-240 -353 -1582 0
228 1694 -1587 0
1398 -1208 1247 0
250 1369 -1078 0
571 13 -1003 0
267 1349 -1872 0
276 -963 1662 0
-692 1193 -938 0
-1954 -780 -1192 0
650 -496 604 0
-1440 1686 1763 0
794 363 -146 0
-67 -954 -1056 0
-1755 530 -1858 0
-1459 273 -208 0
380 -1565 -1881 0
1960 -1950 1643 0
963 -1302 -1113 0
-1975 -1354 1605 0
-795 -422 -46 0
-622 778 36 0
744 186 -1933 0
581 1939 1202 0
-613 -18 -1366 0
-486 663 673 0
1532 1407 -1725 0
244 -731 1448 0
1424 -631 450 0
1224 1056 460 0
-1088 498 -1765 0
-1136 1270 1759 0
533 -1875 -474 0
-112 -367 747 0
-238 -1063 1909 0
1956 -432 3 0
1022 -1841 1166 0
590 -990 97 0
-443 1038 -1557 0
-923 933 -431 0
-1524 1774 210 0
1755 1805 473 0
-535 -747 -14 0
-579 894 -1202 0
-1700 603 -168 0
-1096 1007 -1936 0
1209 1085 -1864 0
-1808 -1365 -1944 0
-264 -1673 -1218 0
687 1447 -1432 0
-264 107 674 0
-1189 -1680 -1503 0
204 -539 1218 0
196 -1996 1152 0
-1610 -1945 749 0
782 -227 843 0
-1418 1051 318 0
1508 675 370 0
1420 -403 1751 0
-314 415 889 0
1339 1805 1312 0
-624 776 -821 0
877 1808 426 0
1072 -605 -1713 0
-1420 -1999 -308 0
167 -170 -1656 0
-1815 375 -631 0
1734 -140 249 0
2000 1682 -1776 0
361 -1965 -1869 0
449 -761 1473 0
-1586 741 480 0
-1090 -49 379 0
1474 211 -1114 0
-1169 -1637 1829 0
-857 -389 -1767 0
-1402 841 -821 0
731 -1389 -1373 0
-1618 -245 294 0
1222 -1793 -890 0
-104 550 -1250 0
-269 427 1256 0
505 -1271 59 0
-1242 -1916 -71 0
996 1095 -283 0
-1140 -1477 -1144 0
-468 -665 920 0
1423 1832 -1912 0
-935 62 256 0
-1529 -1115 -1023 0
1748 1589 1510 0
-1390 -980 -1997 0
76 1934 -1260 0
-1208 -741 2000 0
969 -1246 -1197 0
238 -1575 -221 0
1190 -920 -1801 0
-181 -337 -1325 0
-132 1795 842 0
-575 1978 1408 0
170 417 -735 0
-1074 1880 -1135 0
-298 1505 -709 0
-325 -352 -1240 0
143 1870 1372 0
-441 1150 -1901 0
216 544 610 0
641 486 1578 0
844 616 -1407 0
1887 1537 901 0
-1142 -656 -1676 0
-335 -1299 337 0
588 996 1118 0
1655 -58 1297 0
-590 -165 -1470 0
1175 -1337 -1352 0
408 -659 310 0
-1086 -1984 1484 0
1336 878 -505 0
751 -1381 -1928 0
310 -1250 -406 0
-1397 -1548 759 0
293 1806 -1881 0
1796 1241 -1938 0
515 910 1038 0
567 1754 -423 0
492 -1278 1039 0
-93 1335 -293 0
178 -1852 1942 0
-884 -199 -1996 0
-240 1416 903 0
-163 84 1206 0
1081 1409 -754 0
1307 1221 1185 0
1625 923 1637 0
1490 -101 -933 0
649 -155 -1758 0
1776 -1963 -1890 0
22 -1528 -45 0
-1653 1005 -739 0
474 1740 1437 0
323 -1897 -820 0
-1233 1781 1571 0
1663 -776 1812 0
706 -1208 -1475 0
1329 -663 495 0
1042 -1408 -1281 0
743 1023 -473 0
-1777 280 -1775 0
618 -1367 133 0
-131 -918 -264 0
-1834 -958 -530 0
397 -298 -1364 0
1532 -714 708 0
504 1155 1837 0
-546 658 447 0
-467 692 -656 0
-1140 1031 -401 0
1755 1098 -49 0
-1289 1193 -1096 0
-1586 1388 516 0
1934 490 -852 0
1528 -863 1509 0
1343 459 344 0
-910 -1461 1023 0
1154 1809 -1044 0
1158 -1703 -1059 0
-282 -752 -1328 0
-325 -1413 -1527 0
912 -279 -1940 0
-978 -1347 959 0
246 154 1297 0
-604 867 -442 0
1363 986 -1062 0
776 -443 179 0
1055 954 -1802 0
-1693 -1481 -331 0
783 1478 625 0
1165 -251 1155 0
675 15 -536 0
1256 1690 1267 0
-636 1585 745 0
-1514 -747 -1344 0
-1470 -216 -1108 0
-953 -650 -139 0
-1271 -1713 1096 0
166 1615 -600 0
585 1402 1647 0
1698 867 -766 0
-43 -1877 1161 0
702 -581 1109 0
906 -1991 -1088 0
1994 1063 -1167 0
-1782 47 -1761 0
-1967 -38 -1284 0
1422 -1448 1269 0
4 1633 532 0
1309 1224 207 0
-1763 458 667 0
-1826 -1758 1688 0
-150 -1859 607 0
1687 -104 824 0
850 1965 -925 0
-1242 -409 -761 0
266 114 -377 0
1912 396 -787 0
702 1913 1698 0
-1653 167 915 0
1421 -1126 142 0
-43 1073 1712 0
1865 1477 -538 0
763 1121 1129 0
-57 1409 297 0
-1937 -143 -1878 0
-614 151 220 0
1569 1650 -1582 0
-475 -807 1046 0
-372 718 595 0
673 1228 1738 0
1155 1766 1007 0
532 -621 -1645 0
1108 -455 483 0
426 -1326 -600 0
165 -1218 1795 0
1306 -1223 -1963 0
-534 -1514 -1484 0
1911 727 311 0
-1739 272 1424 0
-900 -1991 1740 0
-1860 708 192 0
-303 1586 524 0
-1894 -1273 -1492 0
-1641 -1014 -626 0
1176 -1437 1156 0
1167 1607 -474 0
445 948 -1165 0
-729 776 12 0
-250 -1357 1494 0
-563 111 -1261 0
-1528 -1709 -908 0
-444 -189 -54 0
1645 -444 80 0
-1090 -1297 1241 0
-998 -948 524 0
1272 -932 -1048 0
1464 161 -304 0
-1056 -8 1311 0
593 -209 -140 0
1175 640 -1980 0
336 -112 1507 0
-846 -1266 -1658 0
1432 36 -1288 0
1250 939 1027 0
1768 -1984 1649 0
1870 -472 -1231 0
1656 -276 -1671 0
1362 -809 986 0
-1927 -562 -441 0
563 -1189 -791 0
-1589 -1341 1396 0
1826 -804 1320 0
1434 -605 -234 0
1317 -1339 841 0
-158 -191 1694 0
-405 -950 1973 0
1089 -127 744 0
-1418 -1475 -1174 0
-578 1778 -948 0
-1790 11 1387 0
1747 261 -1540 0
-1309 -1037 9 0
724 -1828 -1337 0
-1701 195 436 0
-1945 -923 927 0
373 -421 -1168 0
-1280 1602 552 0
-718 1220 1843 0
469 1676 172 0
819 1797 -1991 0
872 1600 -897 0
949 -1450 1137 0
-1999 1801 -147 0
-1548 1601 -1921 0
152 137 478 0
-884 -714 1659 0
-338 -352 1041 0
1977 -1349 1611 0
-446 -1140 939 0
1862 -1039 1533 0
1515 628 1531 0
1257 -894 -1266 0
-775 -1125 1103 0
1823 1028 -1064 0
1636 -578 -1593 0
1439 1718 696 0
-551 1199 963 0
-1900 674 -49 0
-20 966 -1052 0
-990 -288 -590 0
1617 -872 -633 0
-919 1306 -544 0
1687 -688 33 0
1537 -954 -157 0
-1137 1469 -1107 0
-1483 -723 594 0
-995 -214 -1646 0
1295 -775 1916 0
1234 -1702 -1294 0
-468 -1178 824 0
-1410 1464 -1966 0
824 1455 1824 0
-1528 -1317 1743 0
968 276 -1867 0
-939 648 -835 0
226 1144 24 0
355 -1763 -1346 0
-112 1595 1199 0
-665 1672 -269 0
1764 -1003 1697 0
1165 99 738 0
-118 -1004 1299 0
-1103 1950 1654 0
-686 -329 -927 0
561 1952 1400 0
724 -253 -194 0
168 1409 1925 0
-990 -1363 1462 0
-1347 186 -12 0
-1342 1969 1406 0
-1733 673 161 0
-253 -1655 -1462 0
-1856 1628 -1307 0
1202 -1483 135 0
-1493 -1941 522 0
-1268 -661 1773 0
-1145 1723 797 0
339 591 1066 0
-1650 1028 1042 0
835 237 -483 0
-483 728 280 0
1648 -327 -1846 0
552 1749 -1128 0
859 918 1439 0
747 -999 300 0
-436 -637 -1108 0
-554 749 563 0
846 -766 1034 0
519 -1965 -662 0
1223 1807 653 0
-146 1855 -673 0
-669 1366 -156 0
1506 1175 -198 0
-911 1731 -433 0
-1119 315 -1377 0
-662 -1657 -1088 0
850 -439 778 0
-1067 1641 737 0
1511 -357 -1235 0
965 1801 -112 0
1720 677 868 0
-529 368 1599 0
1384 375 -1486 0
385 60 1143 0
1861 -1223 -1066 0
1071 237 131 0
-1038 -1374 385 0
-12 391 -127 0
1344 1390 -781 0
238 772 93 0
-1100 278 432 0
-794 -1916 1421 0
-924 -792 -1411 0
1640 -1424 -1971 0
-1151 516 -1007 0
689 1292 880 0
1386 -1087 108 0
-405 711 -1074 0
-1176 -521 490 0
-766 1894 -877 0
1003 212 -36 0
-53 -1931 514 0
802 542 -733 0
-238 609 61 0
56 1778 438 0
-189 -316 -328 0
-820 1397 -1799 0
1726 1666 627 0
-1333 -844 311 0
-1202 1343 1026 0
-304 81 259 0
1607 1577 580 0
-117 -1282 -322 0
1862 504 -1926 0
-1639 -1748 71 0
-79 -1579 -1608 0
637 -1222 -1776 0
1678 -306 -1296 0
1997 -1593 1431 0
-1256 1861 125 0
1470 -1560 -889 0
-693 -1339 -772 0
25 -1553 -899 0
1365 -847 -1395 0
-874 -659 -1430 0
1651 -474 -1429 0
378 1534 1493 0
-62 1289 1191 0
-1683 -1105 1858 0
-1494 1219 -613 0
866 -1609 -666 0
-1565 1964 -330 0
1450 -237 1491 0
489 -237 144 0
498 -1778 -1010 0
447 -1008 -1458 0
-1350 -1393 1328 0
-1729 920 -1583 0
-822 484 686 0
1632 -884 1841 0
134 166 483 0
-1160 1802 -839 0
1703 1859 -1251 0
1321 -679 1219 0
-694 -1058 986 0
1510 -1852 997 0
-1983 314 473 0
-1610 -1022 788 0
-774 137 -362 0
-451 -956 -631 0
-99 -309 1332 0
-128 -965 778 0
-908 -304 1304 0
40 628 -1566 0
1097 1713 -541 0
-287 -1201 891 0
1914 -152 -1208 0
-366 1153 1954 0
-701 1845 -897 0
-1540 1369 -1956 0
1223 -594 317 0
768 -1973 207 0
677 -897 1820 0
-353 -1226 1992 0
343 -1189 1698 0
1709 744 -584 0
390 -92 -302 0
1086 -644 1536 0
1673 1429 -1586 0
-1910 697 1752 0
625 -1330 -196 0
-434 39 -937 0
1254 -1349 -1117 0
563 -1807 1752 0
375 -889 -287 0
-1865 -1822 -801 0
1133 641 543 0
146 -1412 -1563 0
-80 -1509 -347 0
-1080 976 -1527 0
1313 633 826 0
650 1665 -1293 0
-1010 1168 -211 0
-1613 911 -1255 0
-1559 -1137 -1754 0
1689 1845 609 0
80 1030 304 0
432 -1184 13 0
1545 -1019 84 0
400 1844 -150 0
-1506 -71 -542 0
256 41 975 0
-1329 859 -1464 0
-182 362 1541 0
109 1364 -478 0
546 -178 -398 0
-769 -810 -845 0
-811 853 1016 0
787 1101 -295 0
1677 -1482 1242 0
-466 764 -923 0
-827 230 -424 0
-1394 553 -848 0
1170 -653 -548 0
-673 1010 -1681 0
409 -1571 1766 0
1918 266 923 0
1772 -617 -572 0
286 -974 -1913 0
955 497 -1899 0
-749 -141 -457 0
-1103 916 708 0
-595 689 800 0
-1984 1466 470 0
-1106 634 -685 0
-379 -1968 -1510 0
-1012 1379 -1966 0
-789 -1536 421 0
1359 -41 346 0
1652 1251 -480 0
584 -263 -506 0
464 359 -1715 0
-467 197 -1667 0
303 -1965 1902 0
-761 -1337 -229 0
-230 420 -734 0
947 -1855 21 0
1598 279 150 0
-1793 -1753 -417 0
-404 -1293 804 0
-316 1741 -360 0
787 377 -996 0
-1429 437 -47 0
1894 -336 439 0
1895 -1175 -1962 0
524 -1273 -3 0
1525 -729 591 0
832 207 1400 0
690 885 -1480 0
-1826 -737 -1458 0
157 -451 -1094 0
-323 -1669 -1080 0
-967 -1266 -281 0
574 333 -1273 0
1130 -557 1317 0
-1587 604 -724 0
-317 158 1637 0
511 -1541 -1354 0
372 -819 935 0
-1772 -1295 -654 0
23 57 -1350 0
-27 1581 -1557 0
-78 1679 -1121 0
-1034 -1283 53 0
707 -1279 544 0
1173 -115 1982 0
1734 950 -1022 0
1170 1505 2000 0
1049 -1695 1192 0
293 -1398 -758 0
462 378 550 0
-671 -976 1771 0
-187 -1488 1248 0
-1434 1828 1536 0
-1699 999 1137 0
-514 1443 -1536 0
385 -99 1243 0
-1573 217 -1545 0
803 542 621 0
1814 785 1153 0
1391 -156 983 0
-1770 1229 912 0
-450 -1381 -1106 0
1356 977 -440 0
1987 -631 -121 0
-1842 832 1217 0
586 -382 1211 0
-1471 -336 461 0
1836 1178 -558 0
-1724 -1821 -543 0
-788 -943 541 0
1652 1856 -1419 0
1580 1848 -494 0
-1094 729 890 0
149 -362 1743 0
29 1610 1234 0
1428 -1717 1496 0
1236 -1140 -337 0
248 648 300 0
454 1399 -692 0
617 -758 863 0
1584 -254 -122 0
410 1881 552 0
-617 -673 909 0
137 510 -1888 0
1436 393 -1647 0
-910 -875 264 0
1198 -276 1795 0
1623 -1379 130 0
342 282 822 0
1751 -865 -1978 0
536 -510 -950 0
199 90 1141 0
-356 -1603 1580 0
1530 -428 458 0
-480 384 918 0
861 -1576 1788 0
-1493 1711 603 0
-1681 866 786 0
-1993 377 -1061 0
1109 1979 -953 0
-1727 -1125 25 0
1718 -760 53 0
-1451 1769 -1274 0
-841 -667 304 0
1106 -1369 1413 0
-1190 1288 539 0
1977 180 316 0
-610 -964 1177 0
1663 1105 291 0
-1604 657 53 0
484 -201 1527 0
551 -354 1612 0
-1237 968 -1683 0
-300 -732 -390 0
-1264 -692 -27 0
1137 -1310 82 0
1377 1281 -381 0
-1903 -825 -1950 0
-1363 1133 -816 0
1204 1157 -1756 0
-1679 -675 999 0
952 -1619 -365 0
1209 -551 -1115 0
-1634 1429 -178 0
846 998 1224 0
1075 700 1843 0
493 795 -1476 0
-394 -757 -552 0
-539 1464 -119 0
-1789 1126 646 0
421 -1318 -996 0
958 -1062 -694 0
345 556 -692 0
213 -597 -615 0
-439 -1805 1921 0
-1565 -1252 1342 0
1112 1283 1248 0
-879 1360 1706 0
-1443 192 -368 0
-1528 -820 -1338 0
745 -1958 -1558 0
668 1922 1806 0
446 1145 602 0
808 -810 743 0
-168 -391 -1198 0
1322 883 -1619 0
1914 -771 357 0
1850 32 470 0
507 -213 -1561 0
-1971 -545 710 0
1020 687 -1004 0
833 -1524 -1956 0
-90 804 -267 0
-1522 1670 1501 0
-752 -382 -337 0
1225 395 1763 0
1069 -1733 -1358 0
-191 412 97 0
-1154 -1130 1068 0
1022 -480 1794 0
1702 -147 -1148 0
-981 -1265 1069 0
-583 1908 1360 0
1739 -424 72 0
-1026 -1661 1953 0
-834 -1688 -955 0
130 1359 -1700 0
1563 1118 -782 0
-1469 -369 1500 0
1711 -326 158 0
1084 -465 981 0
-1940 -1650 107 0
381 1298 -1677 0
-1036 -562 83 0
-431 -1913 313 0
-822 844 1275 0
1921 20 62 0
-420 446 -451 0
1619 132 -304 0
-1016 1525 1745 0
1825 1404 -894 0
-1563 -396 -790 0
353 1083 -1771 0
255 -1106 992 0
115 -284 1741 0
-1563 993 -44 0
314 -796 1831 0
1500 -281 1483 0
482 -1693 -1788 0
-1545 750 811 0
-441 -11 -1654 0
519 -1772 222 0
1436 1074 1390 0
-841 685 -1501 0
-935 -515 495 0
1497 -1358 -1854 0
1645 1097 -1794 0
-1304 -1120 1349 0
1214 -1834 194 0
-408 1023 1745 0
-736 -1276 -382 0
1495 -676 -1611 0
-969 1773 -1829 0
104 283 -953 0
118 -1494 1038 0
-186 -1548 -294 0
-1333 -1300 -386 0
1593 -1731 -1489 0
996 388 1872 0
-1353 466 -691 0
821 934 906 0
-384 765 -1310 0
1112 -777 -831 0
1707 -427 316 0
-1851 -310 1522 0
-1990 -39 -1053 0
1967 -1390 1144 0
-116 -1781 1787 0
1269 506 863 0
-1261 -451 -1333 0
-781 -1558 -1432 0
-1960 -911 -1290 0
-1886 534 124 0
12 -592 339 0
1663 -1569 -1051 0
1042 122 -561 0
706 -590 638 0
-1490 247 -1471 0
-1797 1913 -587 0
1806 -1131 -1770 0
768 -24 -1235 0
1165 1451 -177 0
1698 -1578 499 0
1593 89 -66 0
-1509 -890 -1028 0
-525 -31 1018 0
-847 -740 1581 0
209 879 964 0
47 1773 508 0
-742 -904 -1118 0
-1639 1665 1075 0
-1333 -1683 1266 0
-420 -737 -752 0
-1133 -1941 -973 0
-1988 -354 -1690 0
-1789 -1805 1517 0
-1214 131 -1672 0
-1883 -1563 -284 0
1985 -968 319 0
-238 60 1053 0
-1386 -1537 -1888 0
-202 -1625 -1210 0
462 347 -276 0
-805 -1833 -979 0
1921 -1053 -1499 0
-1098 -65 774 0
-1984 -726 595 0
-735 1959 -487 0
1493 604 1589 0
-1837 1211 1683 0
-1095 -1333 464 0
-1532 -555 -1252 0
320 -89 312 0
-1784 -1886 -1888 0
341 864 -1443 0
-473 -162 1785 0
-616 -1474 -1115 0
250 -914 -8 0
-769 -521 878 0
1831 -1077 1671 0
1142 -1915 145 0
-1902 -1021 -1433 0
-224 -400 1187 0
590 968 817 0
290 1445 1080 0
-1777 918 615 0
-1386 727 -1613 0
-1362 -108 1390 0
-1776 -197 1958 0
-5 16 216 0
1349 612 -315 0
514 -1631 120 0
-1422 -454 -1529 0
-400 1736 -1139 0
-1478 645 390 0
867 1781 -1695 0
1019 -674 -1570 0
1565 -1726 -1650 0
-360 1259 -1657 0
904 -288 -1034 0
579 1425 -446 0
-1385 1069 1211 0
1219 -87 1053 0
-544 86 -722 0
-1943 161 -1757 0
-1670 793 1301 0
-718 97 -1205 0
333 -1267 -1466 0
-921 1868 -1041 0
1053 1276 248 0
-1721 -352 809 0
-300 -1723 1177 0
-1083 -1446 -1185 0
-679 351 -1370 0
-853 946 135 0
-230 1468 -624 0
-1634 1871 1465 0
-693 -1385 1089 0
975 -1152 765 0
357 1939 -1136 0
135 1302 -205 0
-939 -1179 -1733 0
1654 592 -1712 0
1968 696 -729 0
-1332 1392 -1402 0
-1251 -373 1836 0
1284 -1174 -25 0
1187 -696 -225 0
-1136 58 1903 0
-1431 -1244 -103 0
-287 -1273 1914 0
547 1982 1038 0
-736 1376 -750 0
-704 1914 -280 0
760 1025 -792 0
1429 -1134 -506 0
1208 -720 -312 0
637 -148 -749 0
-1986 1679 -1735 0
-822 -1320 -928 0
-1598 1500 52 0
-822 -946 -183 0
69 935 -1104 0
1262 1963 -511 0
873 -350 1470 0
-302 -961 -1141 0
-1645 -854 -1457 0
1561 -1559 622 0
-251 -1360 1566 0
528 -1439 -616 0
1940 1558 -1102 0
-1641 -1788 -1673 0
-31 -1479 -1456 0
590 793 -649 0
1692 -1948 -197 0
-309 402 1279 0
-1426 -1695 -884 0
-628 -536 -211 0
1058 -489 998 0
-1456 -1341 1767 0
-1794 1688 276 0
863 631 -1160 0
-1461 -1646 1499 0
-1432 1594 1819 0
373 1252 1643 0
172 1453 -1955 0
993 1200 -1449 0
-572 -1828 -838 0
1575 773 424 0
-1643 1641 793 0
1486 -1397 640 0
702 -1671 886 0
1649 -1236 1136 0
-210 -761 -954 0
1729 1791 38 0
793 -562 513 0
-189 -1295 1578 0
-920 -830 -1999 0
1499 -314 44 0
1973 -434 1874 0
1695 -10 -79 0
-1768 423 1762 0
-1754 -330 -1012 0
-1031 325 -1685 0
-1975 1240 -1097 0
617 1620 1134 0
-1933 387 237 0
-1753 788 1151 0
1342 1122 -1173 0
-1591 -398 -898 0
-1874 -67 -181 0
1651 -1890 -175 0
-983 -1855 54 0
-320 -890 1618 0
473 -314 -613 0
1761 -30 779 0
-1071 -1054 -1197 0
1066 1059 -1608 0
398 650 -1145 0
-365 -895 -602 0
-1985 -846 449 0
1839 1911 845 0
1760 1317 -1609 0
982 -407 458 0
-741 1341 548 0
1689 1686 93 0
-1352 -245 939 0
1632 -1138 82 0
-942 1593 910 0
1407 -1821 -1505 0
1714 -403 -285 0
-1936 -1029 1597 0
1061 -1006 655 0
224 1156 1716 0
-986 711 38 0
-1424 -107 -1565 0
-1245 -1670 -913 0
-203 -428 1003 0
860 -1646 -1322 0
408 1159 -484 0
542 1420 -192 0
-506 964 -1461 0
975 -1727 1602 0
-1731 1719 1996 0
1667 1959 -183 0
-1093 -1101 1470 0
-1293 -244 254 0
1184 1394 -1353 0
-1275 761 1285 0
-1590 1255 -1633 0
1140 500 163 0
1719 -1981 -1305 0
279 -51 553 0
1282 -1250 -510 0
1115 -1062 1925 0
1709 873 81 0
-882 -821 1371 0
296 1800 1781 0
-879 -685 -1319 0
-942 -638 1676 0
-969 387 482 0
279 -158 -24 0
-166 1009 697 0
1899 -276 -338 0
75 1476 1931 0
-417 516 190 0
1177 258 -1471 0
1135 254 -1291 0
-1806 -1152 -1216 0
549 91 -382 0
278 -1078 -1686 0
-446 -37 -1054 0
-1984 -273 1752 0
-1134 2000 -992 0
1729 -717 1604 0
1977 -1380 -1174 0
1751 -43 791 0
-1800 -20 619 0
-744 -363 -1371 0
1720 1229 -1554 0
1802 1589 -61 0
-1443 -252 -232 0
-949 1001 -472 0
1566 -194 532 0
1045 -1012 -843 0
1441 -967 317 0
-1030 -905 -120 0
-904 1216 -650 0
81 1288 -1505 0
-814 -1447 -1445 0
795 -1711 1675 0
254 -1113 1315 0
-462 665 721 0
-1148 -104 -1845 0
-573 -641 162 0
18 -1713 -1924 0
1632 -1403 644 0
1744 -12 620 0
-902 -231 -1333 0
722 -142 191 0
416 -1137 659 0
-68 -1013 -947 0
-368 -593 1230 0
-806 595 1728 0
214 533 -315 0
-1079 -126 661 0
39 730 1324 0
-260 1255 156 0
1951 351 -902 0
1676 -121 1238 0
-1707 843 -1628 0
855 80 803 0
332 196 237 0
336 1673 1201 0
-1133 263 307 0
-139 105 -1340 0
1311 -1959 -1608 0
176 -673 -1930 0
979 1706 1245 0
147 1096 -1417 0
1029 -1957 1506 0
-946 -1694 -255 0
1658 -843 695 0
-998 -1009 1452 0
-238 1496 1099 0
836 6 651 0
-390 1608 1133 0
1534 -1503 -1870 0
-630 686 -1858 0
1434 -1934 8 0
-619 194 1055 0
1903 -1966 -1469 0
363 -1494 -998 0
-996 1753 -1621 0
-864 -1173 1590 0
642 1796 -1920 0
1569 184 -166 0
1306 150 -1039 0
1112 997 817 0
-1356 -1744 -1025 0
-1109 1729 -1995 0
554 -389 421 0
453 186 1332 0
1559 1572 -1368 0
-167 48 -321 0
480 1361 1464 0
-1354 571 416 0
139 1355 -1030 0
1508 1000 359 0
583 227 -923 0
-1150 -1095 1344 0
1295 856 -426 0
943 -1046 -1801 0
517 565 -1760 0
386 -1079 1593 0
456 1971 767 0
586 -1731 -1598 0
-312 1304 1105 0
-1907 -53 -837 0
-330 -1312 -1974 0
-1175 1464 1881 0
-940 925 1930 0
998 1046 -985 0
-424 -104 -1722 0
1253 -1055 -192 0
279 -314 373 0
-1398 -418 -1178 0
1601 -1421 181 0
-415 -279 527 0
-1721 -47 -1901 0
-1419 -1202 -565 0
-1611 211 -1726 0
544 -1050 -190 0
148 -1856 -1018 0
1474 -928 135 0
-862 -44 1618 0
-1344 1785 403 0
-1486 -141 1338 0
-334 -1110 1792 0
824 -1833 -311 0
1472 -1252 867 0
1395 -1460 1717 0
1700 -789 459 0
87 1348 -1682 0
-1771 1696 -470 0
381 283 1796 0
1744 1275 -238 0
1108 -1450 1923 0
-1178 -1155 -1923 0
151 -1522 1393 0
-752 1419 -367 0
-1681 -887 -1736 0
1749 -219 -26 0
-1796 -272 -955 0
-878 -1549 -486 0
-633 1359 1866 0
294 495 687 0
-313 1616 1878 0
1983 -1121 -880 0
-1977 -1900 434 0
439 281 -1280 0
1970 -672 -1691 0
-486 -472 -417 0
-1502 1257 266 0
1867 -252 -1693 0
-996 1323 -676 0
-1825 -488 -757 0
1798 -1844 -1962 0
-1707 -1069 578 0
-1857 -1339 1074 0
1126 819 -1749 0
1549 -1434 303 0
894 -1684 -1943 0
-1941 -353 -848 0
-1066 -886 1868 0
-190 -1441 1051 0
-632 -1063 -248 0
-1453 1529 -994 0
1607 1892 -696 0
1750 1083 190 0
-1958 -1343 1000 0
-314 923 1431 0
1751 -371 -1333 0
1293 -1510 -1077 0
-1632 613 -1657 0
1429 1735 1972 0
-1409 -1501 -458 0
-1097 609 1914 0
-637 1087 160 0
-451 -304 -1352 0
-93 -549 -1208 0
-1094 -835 -1230 0
-1896 516 1985 0
-894 1758 990 0
783 -533 19 0
623 -1709 -980 0
1663 -1190 1970 0
1665 298 -1059 0
3 44 887 0
-720 -1437 230 0
1790 942 785 0
1124 -1583 1985 0
-101 12 -871 0
-1019 -1583 192 0
1583 380 -119 0
1553 -1504 236 0
965 -884 1886 0
-1365 -1087 643 0
1088 -481 856 0
1098 196 632 0
1470 -1276 -1864 0
-597 1666 -669 0
-1437 1841 -240 0
-358 820 1859 0
-426 -625 -533 0
1478 999 56 0
582 1887 -1543 0
1530 -1060 1430 0
-928 444 1929 0
-149 -1942 -514 0
1647 1832 -9 0
271 896 -821 0
-1630 -230 -20 0
-1472 1669 -9 0
-766 -1505 598 0
-1596 729 -524 0
1856 243 -318 0
802 -1641 372 0
832 1408 1837 0
-609 -101 -890 0
-244 1693 -1592 0
1759 1878 -1910 0
-271 1238 -1316 0
943 78 546 0
-1631 -1835 596 0
1930 1215 1649 0
-999 -140 1017 0
1226 747 -1580 0
1252 1394 752 0
-462 802 -695 0
228 -1613 -585 0
458 1136 -1065 0
-1323 740 252 0
-1751 401 1926 0
-550 -811 188 0
-1532 1979 570 0
1987 -803 -358 0
1494 -778 -686 0
443 895 -260 0
1631 1604 -650 0
966 1088 887 0
-252 -187 95 0
-826 -1364 -1549 0
-1369 352 74 0
299 -1541 216 0
144 225 1003 0
-479 -277 -1399 0
-1392 -557 -1341 0
422 181 730 0
-638 -430 -1669 0
-1981 -1780 453 0
-1680 1371 -1010 0
981 421 -124 0
-322 1999 -16 0
-1177 -173 -541 0
-48 1912 281 0
-377 -141 464 0
1383 -1694 1584 0
-1360 -331 -854 0
-1923 -1771 -423 0
571 -1141 -1585 0
-1247 1041 -1085 0
1363 980 -56 0
148 1468 -1396 0
-499 155 -632 0
-49 -139 200 0
1228 295 359 0
-1293 1793 804 0
890 -1972 -1594 0
-707 -1582 1278 0
-345 1635 -1829 0
-220 -570 371 0
609 -1121 -1169 0
-973 1543 -780 0
1165 -1226 1973 0
-1181 616 470 0
1788 649 -559 0
-1556 1617 332 0
-1117 -1626 419 0
-210 -1837 1502 0
894 -1027 478 0
-129 -1284 1163 0
1954 -1859 -1352 0
-1315 -1698 1749 0
1664 1436 563 0
535 -944 1346 0
463 1335 -843 0
-1531 774 -1202 0
373 -1780 789 0
1942 -501 995 0
-865 -1370 1703 0
97 1530 1139 0
-331 1301 -53 0
-1523 1289 529 0
-519 -130 -1402 0
-336 -472 526 0
-1654 173 1180 0
1695 -1950 609 0
1880 569 -1268 0
195 1320 -1063 0
-1919 801 828 0
-288 1873 1285 0
76 -1555 -496 0
-1356 1663 -456 0
1760 207 -80 0
1658 327 -1623 0
-537 -1242 -1126 0
1099 712 -1540 0
1028 -1732 110 0
1873 -1076 1958 0
1514 -1521 1088 0
-134 1453 871 0
1102 -1394 -1314 0
-827 879 -1906 0
1780 207 -1695 0
700 -207 1341 0
719 -1698 944 0
-600 1642 640 0
716 -1987 -1355 0
-222 -1676 -1479 0
1617 -949 195 0
1708 -1010 1518 0
459 1889 1012 0
197 -1781 623 0
-805 -1353 -55 0
1711 1543 -1223 0
1024 -606 774 0
1120 -334 -556 0
432 -755 406 0
977 -312 766 0
1636 -1323 -1540 0
-62 -628 316 0
1107 1385 1188 0
391 1505 -1063 0
-1898 -1044 1854 0
-1359 261 239 0
-622 -1157 -1784 0
-1750 -1791 -238 0
861 874 -100 0
-1067 129 -269 0
-663 481 -1717 0
-1095 969 1140 0
-665 -1530 677 0
796 -1453 -49 0
-770 -1023 -1715 0
-725 295 1400 0
1155 -1274 986 0
-1523 1196 -698 0
931 675 940 0
-1314 261 -819 0
-1605 1742 606 0
-1110 -65 -968 0
260 1270 -21 0
830 573 1419 0
1488 -619 -995 0
-674 -1145 907 0
869 -130 709 0
1332 580 -673 0
1899 1183 971 0
-1629 -371 1806 0
-1184 -577 480 0
-1846 764 -1577 0
-1584 -1263 -236 0
1290 -528 -300 0
1353 1664 -675 0
-559 1358 1365 0
-1228 289 1673 0
1152 409 -148 0
-97 1807 1076 0
1416 838 -633 0
608 908 645 0
-1106 1999 1425 0
928 375 -100 0
1234 -1844 -589 0
1272 -1056 -1034 0
-311 -584 1641 0
-152 -1289 872 0
1808 787 1105 0
1179 601 -1365 0
1125 728 -1571 0
-693 -1983 -755 0
1639 -1045 612 0
1304 525 1681 0
1387 -250 -872 0
-308 867 -1677 0
-1081 -691 -1782 0
-1587 -236 1312 0
587 68 -1148 0
-996 1659 1577 0
1078 36 1120 0
-810 1830 -619 0
-1676 -61 1891 0
1713 567 -371 0
-446 494 417 0
-764 -787 950 0
-288 842 -1725 0
584 -673 105 0
-786 1955 -995 0
1786 920 1437 0
1543 -851 -247 0
-885 -1083 1964 0
-705 -777 -770 0
927 1290 1516 0
-823 -289 -900 0
-1343 506 -1818 0
1053 1364 -245 0
1316 -820 525 0
-578 465 -365 0
288 1209 1649 0
-1625 -630 -1821 0
742 226 -307 0
-320 -1612 845 0
-383 1129 40 0
46 -789 1319 0
1774 -70 1461 0
-572 -918 -630 0
298 -1036 1211 0
1675 -1316 1008 0
-871 1002 -1047 0
834 545 306 0
1971 -35 -1114 0
-842 587 -1475 0
-1189 466 1802 0
1078 502 -1118 0
995 528 514 0
-338 1912 -1526 0
-1049 758 -309 0
-1749 994 -1789 0
-1739 -556 -197 0
1094 -389 -695 0
550 -856 2000 0
-755 -648 1749 0
-1706 -650 1366 0
-549 -1182 665 0
1923 -421 85 0
-452 1928 1255 0
-656 1537 -1529 0
-778 -1567 -1606 0
-742 -365 1903 0
1589 1139 -1600 0
1574 633 -1312 0
-1162 -856 1514 0
1110 361 1398 0
-1091 737 860 0
-1351 1716 1069 0
-520 -300 698 0
-642 651 -1294 0
943 1491 1655 0
1969 1491 1201 0
-757 418 1817 0
-1135 233 105 0
865 43 305 0
1639 -867 -1152 0
-1563 552 1653 0
-1220 691 -590 0
67 -1290 606 0
-1786 -1461 -1588 0
1266 1438 1779 0
-749 -382 27 0
1890 1932 -628 0
-216 211 -948 0
1569 438 1391 0
1124 1858 1101 0
-788 1346 -1081 0
-427 -1542 1868 0
-1259 -529 -287 0
1405 -1794 -416 0
-380 120 569 0
22 -898 1650 0
815 -1298 -1214 0
1462 -465 183 0
-63 -1509 1058 0
1708 1496 -1806 0
1113 -1408 497 0
1993 760 -822 0
-211 1133 1741 0
662 -1350 -801 0
-1662 -1152 1630 0
1092 143 -1045 0
-1529 140 411 0
1180 -912 594 0
-1405 -98 1871 0
800 1709 697 0
-1438 -1005 -540 0
-1660 -1768 226 0
-1167 -1246 1045 0
618 1564 -418 0
1338 -1889 378 0
-61 395 -1292 0
-1412 1288 -726 0
-1675 1441 -1455 0
-1297 -179 -882 0
-437 -359 -1221 0
615 -792 -1533 0
-1312 1780 962 0
-530 1862 586 0
282 11 309 0
1694 1928 -1497 0
1917 -290 1674 0
72 -621 -88 0
-302 -1627 -992 0
-1365 1113 -1490 0
-1531 1056 -616 0
12 1548 1991 0
-330 -1043 1886 0
-571 -682 74 0
-642 -114 -631 0
-538 -896 -525 0
1320 -105 -1445 0
1507 701 203 0
296 -1022 1441 0
1196 729 -825 0
-704 -1688 69 0
-220 -632 176 0
165 1713 -1477 0
761 -216 147 0
348 -526 -1836 0
1802 -1796 747 0
-445 -222 1307 0
-36 330 -1373 0
-237 1944 -527 0
860 -629 483 0
1709 635 762 0
-1827 965 -670 0
-1114 -1304 -158 0
-366 -1092 -85 0
61 -151 -1095 0
1463 361 49 0
282 1600 -590 0
846 995 1397 0
910 -490 -691 0
1058 1527 -1903 0
-1026 990 228 0
-632 -112 1280 0
-1199 1855 1378 0
302 -676 -982 0
-168 -1806 -1872 0
405 -1020 1492 0
-575 -1335 1182 0
1756 -390 121 0
-1293 -291 1370 0
1392 1230 -1344 0
-1991 193 -1550 0
1488 -286 -943 0
-881 915 -755 0
-1843 -979 53 0
96 -148 989 0
1122 -320 -118 0
-481 -1747 -624 0
1483 22 1784 0
-311 1420 -412 0
-1048 1656 -1527 0
1185 567 1941 0
-68 1653 -1629 0
-1304 1733 -923 0
-1851 1489 -597 0
-1651 -186 -1306 0
-1690 389 1741 0
1287 -1059 10 0
-85 -1708 -1332 0
639 -1017 -993 0
-807 -1614 1368 0
1498 601 1468 0
1346 -1141 -711 0
768 1253 1888 0
435 1336 -1157 0
1284 302 -1473 0
-101 -1620 910 0
1470 -746 925 0
-831 -1118 -84 0
1998 -1156 -439 0
1675 1785 621 0
728 -235 -316 0
-1531 1841 1498 0
-941 -1615 1047 0
69 -141 1872 0
503 -477 -1278 0
1424 1760 -1397 0
1371 971 -1456 0
1161 1494 -952 0
486 -699 1876 0
-929 1923 30 0
1776 65 1665 0
-6 -1835 814 0
1824 -1851 855 0
-1757 -543 -1144 0
-1654 -1309 -715 0
1575 -1027 -705 0
-184 -715 104 0
1650 1997 -1300 0
228 -1126 -753 0
1744 -674 1015 0
1331 -1244 -1714 0
-1307 1971 47 0
-913 -1852 778 0
103 -763 683 0
926 45 1258 0
-785 981 -1975 0
344 -183 -1329 0
1300 1585 463 0
74 901 -582 0
1007 -1089 -948 0
719 1786 -996 0
-91 235 1911 0
947 1323 -1573 0
1517 994 -968 0
1790 -1421 -710 0
964 606 574 0
-1792 -589 -248 0
-1845 1524 766 0
-1722 -517 -223 0
-910 -721 -1417 0
734 -337 -481 0
-907 -1848 936 0
1509 437 -1695 0
-1985 965 -714 0
-1663 -850 1035 0
-475 -1087 1548 0
-954 -877 -293 0
-1536 -1454 341 0
-1946 1188 -1410 0
-635 -496 -819 0
1348 -1335 1564 0
10 -713 -1257 0
-1207 1172 207 0
-1103 13 -1340 0
-1861 740 -1919 0
793 -564 -488 0
768 1818 -1258 0
666 468 -815 0
902 -436 -370 0
-1023 -141 -1300 0
-604 -591 1709 0
-137 -1591 -1084 0
-469 656 1516 0
1120 1739 724 0
1288 -142 790 0
1297 1873 -165 0
1343 -354 -682 0
691 -1466 -1207 0
-756 1524 1784 0
1777 -440 665 0
-1273 1704 -868 0
273 772 -6 0
1474 -1124 -1338 0
-10 -379 -67 0
112 110 -238 0
1278 63 700 0
604 1511 741 0
-1893 -1210 -649 0
-1211 -362 -688 0
1363 -1657 -1873 0
-283 -992 -23 0
-1558 1269 -182 0
1879 -1444 -740 0
-302 383 1251 0
117 1799 1124 0
1115 -901 1307 0
129 210 1390 0
-854 1987 -305 0
1378 -678 565 0
-117 1987 853 0
979 454 1730 0
1402 -180 -109 0
-1819 -1645 1816 0
1018 -468 389 0
1680 228 967 0
-1998 -1753 -274 0
-859 -1602 -19 0
-846 145 -1170 0
-1666 570 -417 0
-176 174 -212 0
-1981 222 1533 0
-187 1514 1417 0
726 1470 1757 0
1717 1531 -127 0
-1329 -1495 -754 0
565 818 -1080 0
-1656 825 -676 0
-1803 678 -367 0
-428 -1357 114 0
222 1844 -505 0
-1518 1708 126 0
88 -1888 537 0
-1679 708 933 0
1548 1961 -1215 0
-1914 968 1635 0
1819 777 -280 0
1180 1677 -1822 0
-1430 -420 1808 0
972 -1059 -721 0
1600 616 1410 0
-1182 958 -782 0
-1324 -950 -1484 0
1598 -990 -369 0
913 284 -1658 0
638 -1282 717 0
-1920 513 -5 0
-830 1725 442 0
1254 -272 1443 0
-933 1308 -865 0
-1914 -1431 1932 0
-1846 1829 -1973 0
834 1775 -931 0
891 289 -998 0
726 -185 1053 0
-1527 763 -1359 0
-1484 -1641 -710 0
1493 1454 -731 0
542 -626 1523 0
-1311 824 -1300 0
1208 1917 1766 0
-1446 -201 -1289 0
1792 -1498 968 0
834 840 -1407 0
-754 -263 -1449 0
-1201 -753 -1700 0
145 349 -149 0
-782 -665 1513 0
1733 157 821 0
649 1117 -211 0
1172 1615 1720 0
-303 1300 -1803 0
432 -1377 1535 0
-1150 -442 1412 0
410 -1364 223 0
-674 -701 519 0
1388 -1507 1527 0
1160 -999 1885 0
798 1575 1753 0
1852 1769 -548 0
-562 620 -1701 0
404 267 1027 0
405 -139 971 0
619 1804 912 0
1680 -1527 811 0
1454 -146 -1022 0
-1956 -1914 1927 0
389 1271 -1535 0
-319 1614 727 0
-908 -495 110 0
-82 1279 -546 0
-1163 -1490 638 0
409 -1931 640 0
-524 551 -1370 0
312 -616 1450 0
-643 1199 689 0
-225 -1978 -251 0
-1027 1250 -1193 0
-597 1772 1126 0
426 -1222 -1770 0
-1009 50 1546 0
-702 -272 -1992 0
1583 111 750 0
140 -1461 1185 0
794 912 669 0
788 -1416 -1626 0
-1612 516 -1797 0
-1361 -264 -752 0
-278 -99 308 0
487 -1553 900 0
1560 1463 -1739 0
-425 280 1156 0
-1318 -1406 870 0
337 -29 -1548 0
-1425 -1032 -894 0
1555 -1533 353 0
1876 -274 1306 0
-794 -243 1884 0
-1574 -477 1929 0
1053 -1589 679 0
770 262 1178 0
-706 -408 -329 0
1054 1763 999 0
74 1230 976 0
1821 -1125 730 0
716 1695 929 0
-54 -89 818 0
-258 -250 -1342 0
-1911 1719 -1562 0
183 -125 377 0
-1573 -1395 -1379 0
1612 -819 -1135 0
694 803 656 0
133 1795 -1437 0
1260 894 1007 0
-488 662 -1209 0
-1435 247 1996 0
691 -567 -472 0
1226 395 1084 0
-1000 663 245 0
-1086 -1331 1245 0
17 -236 1445 0
56 -350 -251 0
122 38 -1852 0
1827 -468 1258 0
-1445 -1602 150 0
-1019 1446 -963 0
846 791 -1000 0
290 1942 176 0
-1580 -829 1565 0
552 240 -300 0
-1927 31 -1110 0
-1970 177 -1420 0
-497 -1012 516 0
-242 -287 -264 0
-1664 1839 196 0
457 306 -1685 0
1038 113 1578 0
-510 -1152 -697 0
14 -1521 -443 0
-746 1362 -1594 0
-1249 -8 273 0
-1328 -1234 -555 0
-1042 -1323 -142 0
1510 -648 1591 0
348 1830 231 0
227 -471 -1854 0
-1862 -44 -431 0
587 1341 534 0
1480 -269 -1097 0
1081 1355 -1227 0
1910 789 530 0
1515 1967 803 0
-1705 557 726 0
280 -107 31 0
578 602 1107 0
-1873 1908 -505 0
486 937 -50 0
406 -834 1005 0
1956 35 -171 0
-1682 -1924 620 0
-1250 -81 -717 0
1127 -1705 1616 0
-685 -849 1303 0
-1186 -1155 -1693 0
-140 195 -36 0
-1986 -188 -1115 0
1414 1802 1839 0
1041 643 -1806 0
-1272 -168 -1746 0
-1443 -1531 -528 0
1209 1491 731 0
1017 -1036 -1146 0
1354 955 1988 0
-1205 368 -1537 0
1279 -1705 1762 0
79 1789 1007 0
-1029 -1823 -997 0
-1378 -778 -1401 0
-682 -1868 -309 0
58 1174 1010 0
-185 1003 1960 0
-262 -634 -168 0
1888 -322 524 0
366 -788 -1383 0
1851 618 -808 0
-1156 -1509 -610 0
1778 -503 1384 0
-1730 -1092 1764 0
678 518 -1050 0
-1278 -1343 -1073 0
-921 1681 249 0
-379 -351 -1455 0
-1424 -108 432 0
1592 -1924 -378 0
-1833 1369 315 0
-486 1615 -409 0
-719 149 1869 0
1084 -1995 -1515 0
4 935 1158 0
1531 -1217 309 0
574 559 395 0
658 253 696 0
-1849 834 -1674 0
-249 1008 -173 0
-1518 -1614 -193 0
-1577 7 -1655 0
1269 -1936 246 0
900 471 -1154 0
164 -43 -208 0
1766 -1335 -9 0
1306 1508 1261 0
1828 -1761 355 0
-870 1066 385 0
1042 -387 -315 0
1984 1019 -531 0
-617 1562 558 0
1752 1301 -1531 0
1481 -1242 -1397 0
-430 -1930 205 0
1455 -1442 -1305 0
-623 -1859 -1985 0
-162 -919 423 0
-1453 419 1808 0
-1439 -1 69 0
1243 982 -302 0
-1531 660 -1253 0
-879 1836 -1173 0
1129 1576 251 0
833 756 -224 0
1237 575 1574 0
625 -474 -309 0
1654 1543 1806 0
1222 -1441 -596 0
-1241 -884 -753 0
-246 1423 1037 0
1760 -1839 1970 0
1399 -1191 -932 0
555 1258 1631 0
1302 1986 111 0
-1051 -146 1117 0
1556 -130 -1947 0
-1160 -1356 -1840 0
1263 -871 1933 0
549 1924 1784 0
-1961 1596 555 0
-1552 -352 -664 0
-1754 -1816 544 0
1120 1462 90 0
490 604 -864 0
-227 1471 274 0
-1028 -831 232 0
234 -1352 -1612 0
-268 -178 1900 0
323 767 -1851 0
-900 446 -1154 0
860 -1620 1948 0
518 1547 384 0
-1070 1947 1372 0
1635 -910 -1102 0
201 1814 -269 0
1734 -561 -1317 0
-12 -1373 128 0
-1491 602 290 0
1633 -1392 918 0
99 -822 1504 0
1453 -219 1073 0
1557 944 -1404 0
-641 -968 1471 0
-1367 -1650 -1542 0
905 1841 -264 0
-136 1939 -921 0
-632 321 930 0
-837 -1259 955 0
1504 891 555 0
1876 -1757 1248 0
-1241 595 -436 0
249 -498 -632 0
741 1979 649 0
672 1265 -735 0
1315 353 -1822 0
-67 -620 900 0
68 -1210 -782 0
-1713 -948 -1914 0
-53 448 509 0
-1661 -704 1222 0
1503 -1400 -1133 0
1304 855 -628 0
-1094 1870 1929 0
-1988 1562 -1841 0
461 1578 -290 0
-453 1628 1607 0
726 1013 -1224 0
1867 1511 628 0
-584 -496 415 0
269 -187 -824 0
-1962 1127 322 0
1593 110 -985 0
-1642 1585 -367 0
262 -1172 1113 0
1415 -48 -686 0
1006 -714 -1926 0
216 -468 94 0
470 756 1773 0
210 1019 1188 0
-1519 -306 -127 0
-1088 1317 1238 0
646 -1823 609 0
-1742 -58 104 0
-103 -950 -1986 0
-179 1284 225 0
-219 1946 1175 0
78 743 1696 0
-1253 -426 -1955 0
-1841 1889 -1266 0
1570 1867 -1110 0
377 1358 1115 0
961 -226 -506 0
-875 978 -1318 0
1404 -1135 -238 0
-182 -1322 -122 0
1684 571 -392 0
-1392 -1683 1603 0
-371 -1988 -178 0
782 -851 1430 0
-637 713 -1989 0
-1076 -1363 796 0
-710 1898 1789 0
468 -1545 1977 0
-1305 -1102 998 0
-342 -1911 -1782 0
-467 -1255 -847 0
1760 426 -601 0
-1481 1984 1760 0
-1325 -552 227 0
403 736 -691 0
766 1409 -526 0
175 -466 1324 0
600 -1228 45 0
-1522 1003 1793 0
-288 1823 231 0
-1556 919 1031 0
1521 -327 -1527 0
227 -1948 -378 0
55 833 178 0
696 1324 1472 0
1541 5 1023 0
565 -65 1293 0
-1357 209 -1969 0
-432 -1170 -1048 0
1479 -289 -1276 0
1059 -1229 -1472 0
235 -55 -1204 0
1070 -439 855 0
1516 -744 1862 0
-1858 1596 -1690 0
-1674 145 -1779 0
-1057 -1010 -1476 0
1859 -238 401 0
10 -1504 234 0
687 -1867 -1540 0
875 1394 -1083 0
-158 745 -1357 0
1075 -857 1697 0
1026 136 196 0
331 -819 766 0
1510 -47 -1829 0
1995 -87 -1220 0
1507 366 -1007 0
913 1563 892 0
221 -1444 -1136 0
1693 968 1943 0
97 -1580 -383 0
-1806 -299 527 0
1293 -1167 611 0
1551 997 1145 0
620 1977 1100 0
-1849 196 -124 0
-1068 712 1016 0
117 1008 -438 0
-724 1812 -61 0
283 -391 -1217 0
-266 1153 1262 0
1760 1860 1836 0
-1368 334 -1828 0
-683 -933 307 0
1805 -1776 1158 0
368 969 1433 0
1160 319 -241 0
566 1676 1736 0
350 217 882 0
603 -1766 580 0
-1491 -296 618 0
732 320 -1976 0
-1911 1340 -1653 0
-1579 301 -1292 0
-1004 -1148 1646 0
-76 -608 -277 0
1288 672 1776 0
1094 682 -1171 0
1547 -177 -883 0
-1250 -71 -1435 0
-9 1134 1724 0
-1742 -1011 757 0
-18 1272 -1396 0
1281 493 1870 0
1899 1918 1613 0
-459 1674 233 0
-696 -994 -501 0
1999 371 -1157 0
1492 -352 1678 0
419 735 -513 0
-1153 1379 -897 0
-1781 -1469 1390 0
471 -1988 -178 0
-1869 -1854 437 0
156 -455 -1442 0
-1061 -1947 -177 0
573 -1272 -1332 0
-1069 112 1469 0
-413 -1565 -181 0
-269 -619 1686 0
-1560 -811 48 0
1980 -1059 -540 0
-433 -993 -772 0
-933 -186 461 0
1211 684 -1444 0
602 -1016 -145 0
-1018 -331 -216 0
-1676 -1735 -1429 0
1480 1809 179 0
194 -65 -496 0
1605 1689 74 0
772 1267 -858 0
1276 -1177 212 0
321 -1857 -1894 0
483 109 68 0
62 -1128 -210 0
1676 1052 1716 0
-1388 -484 -410 0
-1889 745 -240 0
1482 74 289 0
1963 314 -451 0
1847 -1759 1096 0
-1414 -1885 -592 0
-1916 1461 -1027 0
-1561 -1932 -1061 0
-1822 1913 -236 0
1473 1463 546 0
1548 1882 -1629 0
967 316 -561 0
-917 160 202 0
-538 227 -1050 0
-1329 1955 667 0
1625 373 -24 0
1869 1296 -256 0
662 1928 -1045 0
-307 1327 -518 0
-1926 350 203 0
-1874 -1667 -817 0
1214 -251 835 0
587 -1661 -255 0
-510 1613 -320 0
1416 -1337 -600 0
-1159 946 -679 0
-394 1395 1894 0
118 -319 -349 0
1533 639 -417 0
-1777 -1929 -1992 0
654 1993 -860 0
-1002 1319 571 0
1014 -1432 1336 0
-1757 709 1635 0
-1096 67 616 0
1284 576 -1987 0
-1459 1539 -507 0
-123 1288 995 0
930 -150 -1893 0
111 1400 126 0
1804 1107 1128 0
550 459 -316 0
698 -646 1009 0
1485 -1083 1123 0
-331 1035 -899 0
-1011 -745 -1281 0
-663 -621 516 0
-516 1778 1004 0
1331 -1469 868 0
-1183 -258 -456 0
214 1585 1976 0
1963 164 -316 0
-880 767 1348 0
369 -745 -1227 0
-77 1666 -320 0
1269 1600 -274 0
1487 904 -1059 0
-1242 1887 889 0
-1639 751 -330 0
1828 -454 -1268 0
-1412 517 767 0
-1910 164 -622 0
-1313 168 1696 0
-1417 1474 1930 0
702 -1491 -888 0
363 259 -1326 0
-1780 696 -1573 0
117 -1052 -169 0
1814 781 -121 0
-240 67 -1869 0
-326 -1242 -727 0
-571 657 1271 0
-1116 513 862 0
-279 860 -1980 0
1231 -1543 -1152 0
1926 -573 -1353 0
1532 1197 1814 0
1204 -1601 466 0
1689 -1754 1911 0
1376 -184 -240 0
1873 -1254 -88 0
-890 1587 536 0
1674 1443 -72 0
732 176 1747 0
-1297 1320 -950 0
-147 -1208 1076 0
523 -374 -597 0
-482 -526 819 0
-1785 1234 -927 0
-1777 -958 1632 0
1995 -342 98 0
1520 -910 -572 0
-1006 -849 -1871 0
-773 -1557 -654 0
-1026 -137 -542 0
1182 -1304 1007 0
46 -1256 698 0
389 297 -1434 0
-451 -979 -1379 0
615 75 143 0
989 -1032 63 0
-830 855 -899 0
561 970 759 0
-1168 606 -72 0
1034 1297 -592 0
-1656 -1006 1106 0
1661 -1060 -804 0
-268 -1719 -794 0
1640 -758 -250 0
554 1366 1460 0
872 1034 -1603 0
197 -1781 1167 0
-1731 -475 1104 0
1119 -165 -464 0
621 -988 -267 0
1342 -1011 1134 0
1107 -700 -1700 0
1067 -963 1556 0
210 1879 -1874 0
-572 -635 -1874 0
29 -1434 461 0
-661 -1406 -1723 0
965 -687 307 0
1464 1560 1791 0
907 501 -1928 0
1642 -1274 411 0
-1364 -608 -935 0
-1592 -1541 1213 0
1053 -1973 -325 0
1840 -1249 1564 0
1148 1390 -1081 0
1388 201 -62 0
1935 1503 1035 0
1867 -219 -1208 0
-11 -358 -87 0
524 1682 -1939 0
-390 -1472 -1746 0
1063 -1503 1640 0
-1167 -1838 1374 0
-548 -1934 -1872 0
-1820 740 1880 0
924 1237 1466 0
436 647 -431 0
98 -64 -969 0
1656 -1122 743 0
-1378 528 1487 0
-307 -623 424 0
198 -1177 1078 0
1915 -1080 -370 0
668 1877 1701 0
1827 -1523 578 0
196 -594 461 0
756 -282 992 0
836 -1159 -276 0
-433 -1607 304 0
840 -561 1021 0
-1155 266 1999 0
1859 686 1488 0
1895 1910 -869 0
-1746 -673 -1348 0
-1377 -1634 1945 0
256 -417 -1961 0
-1387 1146 -1410 0
1972 1901 1304 0
-1597 -785 -1554 0
-539 -1892 1905 0
-1431 1393 1638 0
213 552 -192 0
-410 -803 -1079 0
153 -847 -1717 0
-474 -693 -977 0
-1580 1936 831 0
-1281 -1922 -121 0
1822 -469 -1291 0
900 -1634 -1995 0
-1764 -1738 8 0
1451 249 1924 0
-304 -1935 -397 0
-1239 752 1349 0
-1958 -86 1199 0
-83 -1388 237 0
882 -478 1729 0
-290 -584 641 0
-768 1468 -1148 0
566 1176 -1835 0
-1265 -1338 122 0
-280 832 268 0
947 614 1892 0
424 -1151 -138 0
1359 279 376 0
-309 -1436 979 0
302 -116 345 0
-1517 -1364 -1238 0
231 -1319 938 0
-1369 -212 1198 0
-378 -1888 72 0
1663 452 1707 0
1051 137 654 0
-108 -503 -827 0
-981 1692 -1820 0
717 516 34 0
202 -990 1719 0
-1961 1606 -989 0
1730 98 -1472 0
-1521 994 1645 0
962 61 1644 0
770 826 1204 0
114 -1137 36 0
-627 -588 -913 0
507 186 1314 0
93 -156 -896 0
-754 832 1404 0
-388 -1900 -817 0
-1588 -994 1891 0
1687 -920 48 0
-618 1590 -507 0
-1887 621 1688 0
-1622 -1548 -1798 0
573 -1809 -955 0
1739 -989 -1420 0
-1219 100 -1819 0
1704 -1965 -167 0
1665 -778 612 0
-53 645 1278 0
92 759 -861 0
-173 505 848 0
129 1780 -1837 0
344 -682 897 0
1533 1634 1237 0
-1956 -1176 1672 0
-1571 693 -1722 0
-1038 242 -1779 0
-693 -672 579 0
217 -629 475 0
1238 444 327 0
1051 1097 -1347 0
-389 -55 -398 0
1645 -1440 -602 0
726 -146 1712 0
1729 1471 1630 0
90 813 1002 0
439 24 -875 0
509 -1064 1924 0
1950 1522 389 0
793 -557 901 0
-799 -1078 -158 0
335 1939 1972 0
1593 -1738 776 0
1230 -137 -766 0
-1615 -984 -182 0
236 950 -1918 0
1819 -635 -1522 0
1839 -1688 690 0
-534 -1100 761 0
-1196 1507 461 0
284 -1994 -779 0
9 -1177 946 0
-1118 -404 -1205 0
-822 -420 1832 0
1554 -40 1168 0
1827 106 -1745 0
1558 1069 -1125 0
-1337 1190 -300 0
-387 1097 1675 0
-626 -717 47 0
1354 1619 789 0
183 -1530 956 0
-1185 -1509 1002 0
1309 -1362 -840 0
1142 -1768 -1472 0
265 -1012 122 0
1394 -1240 1207 0
1184 -1968 -451 0
1087 1219 772 0
-1285 -1273 1476 0
1727 924 1248 0
-1971 727 318 0
618 30 -411 0
1116 83 -188 0
306 1117 1297 0
-228 71 128 0
-909 1019 581 0
-1383 -1215 -1564 0
-1714 428 -1065 0
-1276 -870 1090 0
1812 -708 -1987 0
849 -1529 1789 0
1939 545 -1426 0
1732 -482 -968 0
-787 536 -1959 0
6 1502 -1655 0
1264 1150 -199 0
-722 1382 714 0
-1768 68 -881 0
-1925 -203 1236 0
611 -699 -693 0
-349 -177 805 0
1192 -417 -331 0
1782 1241 931 0
-320 -1308 466 0
-1822 -111 -754 0
-1235 827 -43 0
1160 831 -1136 0
190 -142 -55 0
712 -1646 1608 0
-1660 1200 1707 0
-143 1606 -1113 0
1126 -1048 619 0
623 -330 -1798 0
1274 74 909 0
391 -1101 614 0
-126 1514 334 0
-1010 -304 44 0
184 1589 552 0
1436 -200 390 0
-1342 1368 -1873 0
-435 1602 -1399 0
474 133 -493 0
540 1642 -461 0
1750 -1830 1553 0
362 -508 -1534 0
1829 1440 165 0
-1895 -135 300 0
-1041 -1703 227 0
-427 372 -1757 0
843 1616 1912 0
522 296 1479 0
-1613 -525 -1880 0
-1355 709 -583 0
-122 83 937 0
-92 425 1244 0
-1857 1327 -499 0
1194 531 -714 0
995 -1848 -144 0
843 -935 1120 0
1965 -1743 1556 0
-687 -1520 1461 0
-1590 -1265 -23 0
743 -231 414 0
-235 1803 1179 0
-1245 1464 -1400 0
-1586 -299 1448 0
-1255 -1899 287 0
-819 936 -1340 0
-1452 -888 -694 0
783 963 -1568 0
-1600 800 437 0
1772 1798 -167 0
1045 1281 1904 0
1164 1790 -99 0
1372 -1482 451 0
-176 -39 502 0
-1666 -1648 194 0
1928 -917 1085 0
-201 -266 832 0
1391 -284 -876 0
-361 -1760 1603 0
-1775 1563 -727 0
-1279 1694 1968 0
138 -1985 876 0
-1779 1784 1767 0
-1831 -438 643 0
-591 288 -386 0
-1227 -1766 -945 0
1433 616 -715 0
339 -709 279 0
241 -1950 -1065 0
1795 1950 1669 0
-496 -182 -1168 0
487 -1075 -544 0
-1533 1296 52 0
-1395 -1056 -1100 0
596 -1668 -854 0
-1000 -1539 1210 0
-1743 309 237 0
403 -246 -1182 0
1387 -131 945 0
786 -1494 844 0
123 1132 -1182 0
-835 565 244 0
-59 809 1459 0
-1946 -77 -1596 0
-41 -1163 625 0
-1562 -1477 637 0
-1303 724 -395 0
-1876 250 518 0
-1685 1031 -811 0
287 -1231 356 0
1058 -690 1865 0
-1469 -1366 389 0
886 416 458 0
-1241 -304 -1014 0
767 816 762 0
371 -712 567 0
-739 -1498 -545 0
844 1495 -404 0
-994 -232 680 0
-1630 1807 1679 0
-1940 -1953 966 0
-409 -476 1114 0
-1025 1807 -1485 0
483 -1737 -1234 0
-1850 -338 729 0
-84 1885 663 0
-501 707 726 0
-1012 897 -1496 0
-1416 1832 1967 0
1489 -872 -955 0
1006 -915 -1444 0
-1638 -92 1048 0
-1131 941 1719 0
-1466 1442 -4 0
49 1483 1418 0
-880 1568 568 0
-1606 1858 241 0
334 232 -20 0
248 -1651 -427 0
783 -1951 55 0
-1145 1908 625 0
-1553 -156 -1604 0
1546 1340 215 0
-868 -250 1204 0
191 -1276 646 0
1755 -1024 -1909 0
-670 -1042 -1986 0
-965 -156 -1684 0
265 766 1513 0
230 -1224 294 0
-1120 1048 1405 0
-910 1336 1930 0
1678 684 1784 0
125 1288 -708 0
-1903 478 1332 0
637 -583 591 0
-1006 -502 -1164 0
1471 576 -1734 0
-113 -467 -693 0
-1387 331 -46 0
-96 -1530 1270 0
-557 1068 422 0
967 -353 -570 0
57 332 -963 0
-946 -1029 -1778 0
544 -482 -1863 0
1335 -1427 -414 0
-547 -1049 630 0
-757 -1549 209 0
1223 -160 -1113 0
769 -1532 607 0
1215 -1931 -1047 0
-618 -615 63 0
1577 1786 861 0
-817 814 1032 0
-863 -8 -1631 0
1158 1692 1176 0
-574 -283 -506 0
1387 -1949 425 0
907 -1480 -1431 0
-1298 -399 997 0
-653 -1224 1506 0
1640 -1105 462 0
-528 -1956 -1165 0
773 1968 -1620 0
-660 1766 1768 0
-1470 -105 -316 0
-1022 988 -734 0
501 113 -621 0
925 -1292 826 0
74 -644 705 0
-577 -331 -1284 0
-1661 -325 -1963 0
1951 -908 -1224 0
-737 434 1207 0
816 -245 -864 0
-94 -1405 -459 0
635 -156 308 0
-1969 1911 -961 0
-1463 1428 -987 0
896 1503 1757 0
277 650 -1817 0
-1473 797 888 0
367 1763 -1840 0
995 -968 -649 0
795 -240 1386 0
-1153 1749 1350 0
1263 926 -315 0
1499 778 1724 0
1483 308 1456 0
686 1930 -718 0
1941 887 -21 0
963 150 1233 0
-1130 584 1617 0
-428 -21 10 0
-1484 -598 -316 0
-284 -1778 -428 0
1110 1141 1657 0
898 1002 -1404 0
1230 199 -515 0
-1844 -47 -169 0
504 702 570 0
-1989 733 713 0
671 869 -1084 0
276 -1088 -551 0
-1905 1032 -676 0
-1284 -482 977 0
51 -1231 460 0
-1830 -1080 1361 0
1809 -1915 -1770 0
970 -675 324 0
935 1397 586 0
-321 -69 -1889 0
105 -1395 1933 0
-1327 57 1098 0
-241 -764 943 0
-340 -1936 428 0
-927 1278 952 0
284 1008 -1821 0
-1562 1834 912 0
1451 893 -142 0
1631 1088 243 0
967 -64 1589 0
-674 -472 583 0
695 -131 -826 0
-1792 -193 1587 0
-1999 -1495 -412 0
634 -513 -485 0
1730 -230 -389 0
-1944 1059 -419 0
-907 423 724 0
-149 53 -645 0
134 -1129 554 0
1435 1364 111 0
-1851 1122 762 0
796 -523 1847 0
75 1787 1074 0
605 -388 -1795 0
1187 1730 -525 0
1771 -1391 -1569 0
-499 1507 -1552 0
1890 882 806 0
-165 1955 1793 0
1561 333 -1254 0
-1437 1138 -452 0
-240 1653 1930 0
1551 -481 618 0
1775 175 -1773 0
1966 379 1026 0
415 98 -1787 0
1932 -1953 -675 0
310 1101 596 0
499 -1577 679 0
-212 1949 -903 0
1653 -1457 704 0
-768 1615 -422 0
1321 -1642 1409 0
1124 -1060 -1461 0
1906 -1848 1290 0
-1506 1658 -1720 0
899 606 -1876 0
1219 -1318 1132 0
794 1939 1855 0
1539 -1529 -1888 0
1739 435 -1818 0
665 782 1300 0
-1857 -472 1577 0
-1436 -586 -662 0
-1895 -1618 266 0
748 -1845 1635 0
1133 1443 -1496 0
1018 -1946 116 0
288 -874 -84 0
-1756 1423 1960 0
820 -158 1336 0
889 1752 -736 0
-477 -99 180 0
312 -360 -392 0
1549 -81 54 0
-1844 1823 925 0
-1656 1769 -1448 0
413 -383 1859 0
-1429 -1457 210 0
-837 1507 -232 0
1111 -43 -143 0
-1694 1902 463 0
1793 570 -296 0
1614 -775 -1 0
1585 -113 1970 0
1624 -181 -992 0
-1006 296 -1716 0
681 -692 -195 0
1555 990 1179 0
664 -950 -520 0
-1349 67 1962 0
-1323 -1149 1194 0
-304 -305 27 0
636 472 -866 0
-161 -1409 -468 0
1741 -800 532 0
1163 -1715 -1440 0
1821 550 -1371 0
1586 -1082 1875 0
211 -883 1403 0
-1809 94 1605 0
1661 582 -1930 0
-1787 50 -538 0
1842 1655 -622 0
1982 -1945 1355 0
1079 198 -1099 0
1775 1683 -923 0
1052 1244 -1049 0
-373 707 413 0
1829 -884 1471 0
-1150 1882 -1428 0
1382 -44 279 0
-1401 -394 1230 0
-822 1291 1167 0
-1413 11 -776 0
-953 -1964 -1475 0
478 1024 516 0
1918 882 -820 0
220 774 1258 0
-1349 -1409 -91 0
-525 645 1103 0
681 -386 -393 0
-1074 1626 -1667 0
504 1066 -583 0
1894 203 964 0
1559 1235 -1065 0
237 -1870 32 0
83 631 -1453 0
-17 -529 -93 0
-877 -755 248 0
-427 418 38 0
-441 1732 -287 0
-1240 186 -674 0
482 584 -781 0
1893 -801 1358 0
-238 -698 1051 0
-1608 -1992 -1954 0
-1072 775 -1409 0
-1296 -1511 777 0
86 114 -891 0
-553 -783 1360 0
-632 323 18 0
-654 -1385 715 0
-1810 -1230 -650 0
923 -1303 726 0
-668 1691 -1565 0
1567 1370 1075 0
-63 -1925 856 0
-1307 1027 -987 0
-1231 -207 505 0
592 -1353 -948 0
1648 1214 1775 0
-1671 -1252 566 0
696 1570 559 0
891 1358 -129 0
833 701 -1741 0
-1569 183 446 0
976 -222 -144 0
1401 1516 -1178 0
1448 1195 -1553 0
884 -1208 -1367 0
1023 -1590 1415 0
-1280 -896 1929 0
1829 -566 -1154 0
412 1614 -197 0
54 -792 -807 0
-344 -530 -407 0
1241 -140 -998 0
1392 -123 1616 0
1509 766 -1659 0
1527 -1242 -126 0
808 193 79 0
-221 -1804 -1459 0
-1158 518 873 0
1270 1801 461 0
-996 1271 -1976 0
1788 -862 -1861 0
-1616 -130 1392 0
-1773 -1155 1650 0
1114 1155 1596 0
1530 -1610 -586 0
331 1698 -913 0
236 -762 1382 0
-1267 -1613 -3 0
-969 1729 1389 0
344 -1567 1947 0
-514 -209 792 0
126 -1461 -627 0
1576 -1269 -494 0
1953 -952 1266 0
-537 678 321 0
1716 294 1656 0
882 1053 -1140 0
-62 1685 -1770 0
1280 -1640 878 0
1189 1252 1283 0
1737 -1200 -18 0
-1674 -1460 -905 0
968 1762 -191 0
-250 -1510 -1878 0
-91 -1977 -1248 0
1724 -422 802 0
408 356 -561 0
-1007 -460 583 0
-1275 898 -1564 0
159 -235 266 0
1627 -351 -931 0
1989 1110 -225 0
-1514 -213 722 0
-993 1741 -1234 0
454 -1739 699 0
1746 -1721 1653 0
-1584 -342 -376 0
866 -1853 1147 0
-626 -346 -475 0
1785 -125 1495 0
609 -1348 1808 0
-1670 1038 317 0
1744 -972 -1918 0
744 -1779 824 0
1471 -1241 -1692 0
1740 564 -80 0
616 -127 -1193 0
1611 -1668 -1240 0
-1129 395 -1559 0
178 -1597 -1607 0
589 -1401 1456 0
1545 -341 -374 0
299 -1439 -854 0
-336 268 -466 0
89 1434 -1825 0
783 1846 773 0
745 -168 -822 0
1381 1093 -257 0
376 -1388 597 0
-265 -968 -1431 0
846 1854 727 0
-1840 -1411 131 0
753 1622 275 0
306 196 -1824 0
1316 -1910 1796 0
715 -936 -1849 0
174 933 -1388 0
-1278 1379 1734 0
-1977 1216 462 0
-108 447 1075 0
577 1932 -340 0
-1004 142 -1107 0
-774 -283 -731 0
-1494 -1337 1007 0
-609 986 -172 0
1136 -1212 -1262 0
298 84 -1224 0
1431 519 877 0
914 908 905 0
1309 -1169 -827 0
173 -1758 1806 0
82 -782 1727 0
1134 -195 863 0
1787 -1403 -780 0
974 -268 -342 0
1065 -1109 280 0
-1039 828 -254 0
488 -85 1220 0
-1279 315 -671 0
1526 1876 -1812 0
-706 1995 -998 0
264 -1339 835 0
1040 -1832 -55 0
1237 -70 1849 0
-859 -867 -1263 0
-1888 -1230 1712 0
1630 -912 -1298 0
-1060 -230 1165 0
-865 95 -274 0
-1600 648 -1475 0
-114 -593 -789 0
-595 -1963 -135 0
458 -640 103 0
1933 71 53 0
-533 1016 1449 0
714 -421 1516 0
1275 1547 -1408 0
-615 1921 -1318 0
-1841 717 1739 0
-153 48 -189 0
145 1627 466 0
-1649 1321 -1186 0
-1641 -595 331 0
-1268 -1113 1798 0
-877 -1281 -1197 0
728 -1295 -240 0
-792 -45 -67 0
-1980 1912 311 0
221 -561 1825 0
-865 -722 1870 0
1186 1083 -950 0
1452 -1388 -605 0
1549 -899 -26 0
-353 321 1543 0
-311 -298 -325 0
-1801 -1721 -1909 0
-799 777 -1438 0
-357 -363 -1250 0
303 1414 -1957 0
-396 -1956 61 0
-923 241 -1675 0
57 -1078 525 0
-151 273 -1858 0
1290 -1917 -1958 0
1593 179 1439 0
-1778 1595 1673 0
917 -222 1815 0
709 -1344 -1685 0
1578 984 598 0
-1264 -1504 -1357 0
-996 -404 819 0
-68 247 1328 0
-1147 -1776 -1983 0
190 433 1271 0
1910 1636 -1358 0
-1604 716 1239 0
-1098 227 1744 0
-578 -1183 1374 0
926 1829 -240 0
1546 316 -342 0
-1346 610 906 0
-1143 -456 -1496 0
1541 357 1361 0
1623 -1941 -1695 0
707 1811 -1531 0
-534 1475 -1537 0
-1133 559 370 0
1525 -851 546 0
852 919 -569 0
1938 407 -1107 0
1334 1279 -1256 0
1414 -170 -1958 0
-1589 143 -1719 0
-92 658 31 0
-885 -1510 239 0
-268 1419 1041 0
-816 -83 240 0
816 923 -91 0
639 1985 -1485 0
-1508 1835 -101 0
364 144 578 0
-1429 -1941 776 0
732 -1340 722 0
-1753 -420 528 0
678 1650 -1306 0
-103 811 -888 0
-44 6 -1078 0
1049 1312 756 0
-687 -23 -1170 0
840 1391 1522 0
1183 -870 386 0
374 -454 939 0
-383 6 566 0
-675 -350 1370 0
-269 -1261 527 0
1495 1500 418 0
-139 -871 -217 0
-682 -1759 459 0
688 923 -874 0
854 -1046 -550 0
-605 495 710 0
-780 748 -1291 0
176 1973 -1497 0
1181 816 718 0
-1250 -725 -1509 0
-145 1 -333 0
-1104 -1249 854 0
-616 -1584 -56 0
-1909 661 -537 0
581 464 -252 0
387 341 376 0
562 427 1307 0
-1159 314 940 0
1819 7 1701 0
-1346 -770 1412 0
1371 -1749 -1192 0
-481 894 1545 0
577 1045 -184 0
525 -1790 -1711 0
234 1363 -319 0
1941 317 263 0
250 1881 -1550 0
1584 -1572 1180 0
1369 -224 -744 0
-1147 1740 1695 0
1454 1985 -1599 0
274 371 1271 0
-1534 -808 -1638 0
-812 -758 159 0
-1624 -334 -1521 0
-1766 1186 1316 0
-885 716 -431 0
1795 244 566 0
1706 1962 -186 0
700 -1031 -1882 0
234 -1683 664 0
-792 1566 -1750 0
-513 1578 -1641 0
1772 1047 -602 0
-1979 -575 -1679 0
514 -832 1728 0
1811 947 -1074 0
-437 121 -371 0
1935 -531 -363 0
-485 1244 -339 0
334 1549 -416 0
576 -241 1729 0
-1103 -1073 -1245 0
-366 -226 -398 0
688 -299 740 0
255 1605 1019 0
937 -924 -322 0
-891 1281 457 0
1685 -1822 1478 0
800 -1329 -1434 0
-703 -93 1315 0
-1097 -1808 155 0
-654 1593 638 0
-1231 -1254 903 0
-611 -1018 1750 0
1350 -1584 134 0
954 1302 -479 0
-341 -918 -438 0
-517 -420 -478 0
454 1032 1235 0
373 -1545 -1398 0
-807 -530 -121 0
-1240 786 1578 0
-1212 178 184 0
396 -1490 -1211 0
1225 -1356 -1922 0
-1229 766 943 0
-1879 -926 -647 0
1296 -210 -1118 0
827 291 -1390 0
-1091 -489 771 0
-1050 -698 -1611 0
599 -1608 -1346 0
1197 223 1726 0
161 1916 -1655 0
1593 -125 1468 0
1129 -1876 759 0
-1901 1583 -174 0
-1989 -315 -1992 0
-419 -1530 -217 0
1267 1369 -498 0
1015 1741 -1429 0
999 -1383 -1392 0
1201 -847 -1953 0
1761 1763 1600 0
-1119 1641 1428 0
-351 -937 1169 0
593 -1690 854 0
-41 -1938 1607 0
266 -1531 570 0
1498 -625 737 0
760 766 1626 0
165 1422 1438 0
-206 1887 -1144 0
703 -305 1940 0
776 1395 1866 0
1208 -675 -1481 0
-1395 827 636 0
-189 1789 1628 0
-343 1842 -894 0
-247 107 212 0
146 -1109 1174 0
-428 -1904 989 0
1986 1758 -1407 0
1777 564 -427 0
-507 156 -373 0
-606 -1556 1874 0
625 -1786 145 0
1574 -158 1743 0
962 -170 151 0
-593 1327 -1334 0
-487 -1213 -466 0
-516 -1792 -739 0
280 1637 -697 0
364 1124 -524 0
204 -490 -25 0
-1360 -185 -961 0
225 1962 -1684 0
-1613 1640 690 0
-1056 -1242 1262 0
1012 -935 448 0
-1699 1806 -947 0
1600 402 1973 0
1224 -1070 215 0
1291 -46 162 0
-1293 599 1466 0
-1039 -508 1720 0
-898 -708 -1542 0
242 135 -1914 0
408 -498 1791 0
827 -524 757 0
980 1881 -1710 0
954 -1896 1108 0
-619 1345 1096 0
649 1319 -1564 0
-838 -745 -986 0
-1306 -676 348 0
570 1865 -376 0
354 958 1381 0
-146 -596 -1251 0
486 1261 1583 0
1623 -1523 -1803 0
1665 -54 -1999 0
-1715 -1194 -1831 0
-1752 -367 252 0
-1445 -1090 -1247 0
15 1334 1993 0
877 561 -919 0
607 247 -1975 0
-1950 -1567 459 0
-1424 12 181 0
780 589 183 0
1578 1225 -69 0
-113 -74 -1112 0
596 -664 -598 0
1109 646 345 0
153 1513 1778 0
-834 264 -1755 0
-986 941 173 0
-429 1528 -781 0
197 100 425 0
-1850 1284 1967 0
1245 1044 -1694 0
1612 -1829 -565 0
-893 448 565 0
-1155 463 -135 0
-180 1554 -874 0
-1756 552 -1420 0
-1216 1107 1752 0
660 -1154 1041 0
130 1621 1243 0
1544 984 1420 0
-1496 185 -466 0
312 -110 -530 0
1603 1481 367 0
557 -1593 -1614 0
748 -1501 -1962 0
322 878 -1739 0
1048 -1577 134 0
-1217 784 1592 0
310 834 -503 0
1260 542 -1391 0
32 -87 -313 0
1701 123 771 0
-981 -1390 1896 0
94 1356 1367 0
-1118 893 -467 0
-9 1278 1799 0
-1107 -426 397 0
-200 -85 990 0
675 -811 1492 0
-943 -790 583 0
-478 -871 -1148 0
1873 1583 -757 0
1601 -929 277 0
1709 1937 -939 0
-1519 -1054 1107 0
-213 -1818 -1118 0
569 119 1843 0
-679 -1188 283 0
-166 -1226 1869 0
-585 1972 1886 0
-1210 109 1055 0
1085 980 1166 0
43 690 234 0
1946 -1606 -160 0
-844 629 1760 0
972 -723 1497 0
870 1820 -1035 0
-370 -805 1094 0
-988 -1742 -1831 0
-1205 -495 -641 0
1011 -706 -949 0
709 264 1693 0
-954 1906 -190 0
-1969 -1559 1547 0
-1688 1732 564 0
-67 493 -922 0
-491 891 -1567 0
-558 -1773 1882 0
-1368 554 -558 0
220 937 -73 0
-358 -1999 -108 0
-731 -519 70 0
1601 1720 -1092 0
1033 -1597 -1347 0
-1671 -1867 -1597 0
1647 1409 1883 0
1344 270 -564 0
1878 -37 -1460 0
1215 -1765 1714 0
-944 88 -411 0
-1941 -1732 -357 0
487 -52 -1855 0
1536 391 -1301 0
-416 -883 1649 0
914 401 1915 0
-1663 -557 -406 0
-1352 341 -1298 0
473 1536 107 0
884 761 -742 0
1674 -1457 -546 0
-43 -524 1851 0
-1864 -1491 1191 0
-1180 -1075 580 0
5 1829 -1823 0
1977 -693 -1181 0
-207 553 808 0
1390 -1309 442 0
-699 -1281 843 0
1846 534 -1168 0
-930 762 -549 0
-921 -1383 988 0
-1593 -1895 1336 0
155 952 -1783 0
1646 -990 -1194 0
83 451 1659 0
-1441 -1389 -440 0
1697 149 -1978 0
-1433 474 1027 0
1569 1359 -821 0
-355 -728 192 0
-1434 920 1334 0
1718 148 -442 0
-1478 728 1161 0
-1878 -1926 1593 0
-723 -1830 -25 0
-50 -1581 257 0
-196 1087 1437 0
-499 -901 -1439 0
1651 676 1744 0
1864 152 -1980 0
-1899 193 -746 0
-1765 488 255 0
-1745 967 1277 0
-1989 1517 732 0
1615 -1810 1475 0
-1508 610 -1234 0
-957 203 323 0
-783 -1888 1890 0
82 -1077 1168 0
545 -1235 -1640 0
-1297 385 -1915 0
1254 160 -1086 0
-1811 1129 -399 0
1803 594 477 0
-411 -212 -1559 0
1277 -900 -52 0
1213 -913 -478 0
-248 -1876 691 0
-1166 93 -1625 0
-1869 -1938 1948 0
1388 -1645 1402 0
-435 1698 -1596 0
-1512 -1728 -878 0
191 984 1705 0
-1568 199 274 0
-1059 975 -612 0
317 -55 -282 0
1494 -1329 727 0
-72 1621 -1926 0
1697 1416 601 0
-1453 1492 -819 0
-1902 207 -102 0
433 1056 -908 0
353 -99 1713 0
259 -1325 -298 0
500 -476 -1027 0
-801 -1759 -121 0
-672 -755 -994 0
1390 -538 1653 0
378 -1588 -817 0
-1303 845 592 0
32 1032 -1161 0
380 1381 1196 0
-676 -750 -1800 0
226 1134 -1677 0
-666 -628 -418 0
-327 -667 454 0
-904 1344 1004 0
-1377 1660 -1934 0
-614 1147 -121 0
185 932 733 0
-367 1426 436 0
1395 1707 1028 0
-13 -968 1813 0
-267 1654 1607 0
-976 899 -617 0
1501 538 -128 0
951 -1357 -1223 0
885 348 -1005 0
-1538 828 1497 0
202 -1576 458 0
1716 1895 -373 0
-1792 -596 -1689 0
764 458 -191 0
1571 -1119 -1041 0
-275 -1666 1043 0
-296 524 -376 0
1521 -1415 -1962 0
-921 -1959 56 0
976 -910 -1429 0
-663 1318 816 0
990 1507 1434 0
1912 -1452 -359 0
-89 999 -447 0
-933 -1836 73 0
246 431 1928 0
417 -1945 -51 0
-1608 1941 898 0
-1810 1523 -1856 0
-202 -860 -1915 0
-424 -1507 -249 0
-155 628 1823 0
819 -1964 -686 0
1234 78 -1871 0
843 -685 983 0
-1848 843 1354 0
-1166 1749 -897 0
-1098 1437 521 0
366 757 -126 0
-112 534 -1518 0
60 -1792 619 0
1790 -825 1722 0
1867 -795 1803 0
-1305 -1680 -774 0
772 1055 870 0
1313 -337 567 0
539 427 1342 0
1034 1835 -678 0
1819 1364 688 0
855 -632 -447 0
612 1557 1504 0
1313 1794 395 0
-399 1369 1083 0
981 -573 1192 0
36 1752 39 0
-22 1739 -1661 0
1019 -60 441 0
-1229 1105 1443 0
-468 807 -338 0
-1215 386 805 0
1927 -1087 -960 0
1876 1405 208 0
1244 1490 -1734 0
776 704 842 0
-365 -831 1390 0
-497 -272 1276 0
-1738 -1257 -1018 0
50 1383 1794 0
-1776 1012 -1773 0
-1484 445 403 0
-186 1084 -270 0
1708 687 -719 0
678 1616 -67 0
-325 16 1323 0
11 449 494 0
1392 -1374 842 0
849 948 219 0
1160 -1850 2 0
-854 575 606 0
-1741 1566 1865 0
1227 1201 -528 0
793 -1979 891 0
313 960 -1945 0
-1141 434 1001 0
-1649 1091 681 0
1593 -1296 739 0
-180 -1414 580 0
-1037 -1048 1654 0
888 941 465 0
-1007 -752 1030 0
-926 113 1605 0
-1747 321 -847 0
328 -997 1509 0
-1867 -1147 -785 0
745 -1122 -1857 0
-1426 -1702 -1393 0
-397 -1314 -1417 0
-674 589 -1897 0
-1673 256 358 0
-1391 -1411 102 0
607 1592 -1087 0
1882 731 -287 0
1715 -401 -788 0
1884 1842 905 0
-1555 -1081 -605 0
-1762 1975 -181 0
-513 -1693 -409 0
507 1101 -366 0
-501 928 -1294 0
-249 235 1523 0
-1717 311 -1977 0
232 -391 423 0
-276 -1456 1150 0
78 -1501 53 0
313 -1112 880 0
-637 265 -1864 0
1303 -1729 -861 0
-660 -1253 -1589 0
-1643 -1501 -1237 0
-123 88 64 0
710 -268 -610 0
95 -1759 -920 0
1446 -671 1792 0
618 1402 -985 0
-717 -1379 333 0
651 952 -1820 0
-1633 1988 1001 0
-280 1048 -1365 0
-1804 996 263 0
-1419 -1471 615 0
394 369 -1511 0
1047 1678 623 0
-563 -1442 -1286 0
1571 989 -1729 0
1224 -1437 -331 0
-1617 110 -1855 0
1155 331 552 0
21 -1534 -1362 0
1322 -103 -856 0
1672 1269 1287 0
-480 856 954 0
-1428 -1803 1794 0
111 1948 -909 0
1334 -238 1816 0
-745 -1755 1042 0
-1390 1703 1318 0
-492 177 678 0
1983 97 -978 0
1476 -339 447 0
-248 1104 -299 0
1743 922 652 0
1016 758 1786 0
-1631 -522 1742 0
1644 858 -1446 0
-592 300 -532 0
-918 681 -1602 0
518 1507 -652 0
-1744 -349 1219 0
-1283 1298 1328 0
-159 -1552 1408 0
1144 148 -868 0
1724 -1629 1958 0
-1711 564 707 0
1786 -1825 -1386 0
-1545 271 -718 0
-1038 1429 -762 0
1502 652 263 0
-1199 -826 305 0
-1925 1873 -537 0
-990 1984 1488 0
-1082 440 1264 0
1593 853 -1533 0
1384 -663 -882 0
1519 419 1786 0
-1378 -209 -475 0
1422 946 -1940 0
-1183 -648 1670 0
1676 -1408 1481 0
-245 -1204 193 0
-224 -30 -1181 0
1773 187 375 0
679 389 1736 0
564 -800 406 0
282 -1519 34 0
550 1325 -1764 0
-1222 -390 739 0
1539 600 521 0
-1088 -1195 -588 0
-371 1144 848 0
876 976 1260 0
-964 1217 -1496 0
-507 1396 662 0
-413 382 -196 0
-368 731 579 0
-1363 38 1277 0
1713 -1032 -408 0
-117 207 -892 0
1436 1286 1742 0
-598 1352 -399 0
-976 -1119 -1683 0
820 1968 62 0
-1319 -448 -1170 0
-1784 -932 -1890 0
1083 1434 367 0
-1232 -1477 -1634 0
1994 -1917 1476 0
-446 -1344 283 0
-933 531 732 0
190 -1660 -219 0
-24 -609 -1884 0
1741 -300 706 0
-1406 1570 -446 0
-581 1487 1729 0
538 1578 -1911 0
1707 -1903 995 0
985 -951 191 0
633 62 -1343 0
1673 -1498 -512 0
863 -405 -193 0
1379 1970 536 0
-53 1613 341 0
-1600 1375 -1589 0
-1244 -1860 1351 0
479 -1518 1724 0
-1359 439 -1970 0
-1383 -1327 867 0
358 -122 -1705 0
1600 -230 790 0
600 969 -324 0
369 1246 924 0
295 1472 877 0
1020 -1158 1436 0
545 743 -1278 0
183 -762 566 0
-97 -1219 -1524 0
-614 401 -1689 0
-1883 -849 -996 0
1580 179 -941 0
1243 1378 1230 0
1272 220 -189 0
-1365 1561 -674 0
-1585 -712 -1160 0
-1430 -1547 1856 0
-614 -1642 1242 0
-1743 -1122 973 0
298 1320 1047 0
-1748 1568 -386 0
-1960 -1764 -1288 0
-527 1384 -1425 0
444 957 982 0
239 -125 -1154 0
210 551 -187 0
-1930 -1341 -1315 0
-311 -999 -709 0
-1156 749 993 0
1509 1379 1326 0
1257 1260 1148 0
-1431 388 -653 0
-1044 -621 -1636 0
988 289 1748 0
-548 1824 -1020 0
1945 691 -1353 0
207 -1113 1426 0
1559 1476 624 0
1514 -739 -1581 0
-1669 1796 339 0
1195 -1287 -369 0
249 1358 -432 0
-1497 -201 812 0
-1416 -1216 -644 0
823 1886 -770 0
900 -1612 -1783 0
-794 -176 1871 0
613 -243 -230 0
1816 869 1492 0
1210 -344 32 0
-1056 596 -688 0
-1789 -511 387 0
580 -305 3 0
-1158 838 -1945 0
-853 -890 -554 0
662 -1909 395 0
944 -1704 -371 0
-1558 -830 223 0
-850 229 385 0
-1770 -574 -621 0
851 473 626 0
-487 60 1453 0
-1718 664 -75 0
-73 -1333 464 0
1674 -448 765 0
-1033 1308 -1907 0
1985 1141 -481 0
415 1904 1706 0
-1910 1467 -1794 0
-1903 -186 1938 0
887 1428 1350 0
341 -1388 1514 0
1068 -84 -187 0
402 367 -371 0
1580 1004 -1443 0
954 1541 156 0
1317 317 1490 0
-352 -123 -831 0
-1465 -1139 1891 0
158 870 1577 0
-392 1415 -1417 0
325 -1398 1326 0
1959 -1022 -1467 0
-1368 -1148 1476 0
-1316 -34 -566 0
1772 125 1941 0
1343 314 313 0
-1641 -1004 -266 0
-13 43 -522 0
-341 1077 1691 0
681 -1587 -940 0
-1319 1930 -1613 0
-43 239 -1599 0
714 292 -1274 0
-1240 -282 -1738 0
-238 1164 582 0
1697 1887 1812 0
-875 -1304 -1292 0
439 -921 -398 0
-1745 1765 1323 0
-126 648 -388 0
1469 -928 1462 0
-1033 -672 -1303 0
1326 -380 1357 0
1112 -1677 -1368 0
1730 1168 -1351 0
-514 1265 700 0
-386 106 269 0
1836 -581 19 0
-1887 1256 -301 0
426 344 750 0
-892 748 553 0
-140 -1587 -827 0
-685 -1634 -1845 0
997 -1999 782 0
-395 1604 -1639 0
-1465 716 289 0
47 -685 -692 0
723 739 149 0
-1678 600 1601 0
1197 251 -1619 0
-1254 -1087 1153 0
-1433 971 601 0
-978 -1401 -184 0
-1108 1574 -220 0
-1628 -574 954 0
92 -1785 -41 0
1913 -1028 1680 0
-1380 1506 1377 0
262 -89 -899 0
1266 -734 1727 0
1530 22 -1337 0
-507 -1023 498 0
1265 -1345 1806 0
1968 554 -916 0
206 -1615 736 0
-1421 -103 -239 0
462 -1136 -674 0
1542 -111 145 0
-1184 951 1148 0
-1222 319 -1345 0
-1562 -100 -805 0
-1544 1702 -702 0
-303 -1934 -1196 0
1774 1643 -124 0
1660 -1216 -1580 0
-480 147 -1050 0
1153 -867 -894 0
-1155 806 318 0
802 101 -317 0
1632 -341 1223 0
-1410 17 1629 0
-1568 997 663 0
-426 589 418 0
1393 659 878 0
1473 -405 957 0
1541 115 369 0
-1110 -669 788 0
-1353 1270 55 0
64 1257 -1097 0
-351 -1264 -760 0
589 1270 -1600 0
552 -1537 818 0
-219 823 606 0
-1487 1730 -218 0
-554 1808 -1634 0
-623 -1950 -1118 0
-1381 1214 1555 0
-1180 85 1097 0
-1761 520 1721 0
146 -735 1784 0
-1856 848 643 0
764 -1455 950 0
1676 -1661 1009 0
-1503 -1340 -147 0
-1972 -80 -1079 0
-1569 -1425 -179 0
986 -1020 -777 0
1489 -1009 -845 0
-753 -1199 711 0
-460 1077 -322 0
382 -1847 1397 0
1221 -778 -1631 0
-414 -1731 -356 0
785 -817 1084 0
282 641 -656 0
-1572 -1799 514 0
922 -627 -1828 0
1577 1567 -1025 0
285 909 -370 0
1646 -1691 -735 0
1194 -525 933 0
1692 -1713 1262 0
-1187 275 -1480 0
-832 -1056 1532 0
-1983 -318 -777 0
478 -280 -1176 0
840 1732 1682 0
-1191 -405 -78 0
-1005 724 1508 0
-1164 760 -772 0
673 -551 -946 0
1319 -163 1741 0
722 -248 1091 0
1309 1832 169 0
-1003 -440 457 0
224 1429 -1473 0
-562 1712 -1700 0
-388 -30 1088 0
-495 -591 245 0
1972 -1063 -1968 0
969 -299 -1796 0
-1084 -1250 -201 0
-1735 423 -525 0
525 -665 1935 0
720 -280 -1617 0
1904 -673 -932 0
-209 1413 -278 0
-921 -1809 -1796 0
-686 466 994 0
684 1165 204 0
-1560 -1391 113 0
-1720 1743 624 0
-111 1389 569 0
1333 514 1138 0
1391 -1774 689 0
324 -1632 -657 0
728 1438 -470 0
-893 -552 491 0
-673 -1194 439 0
-1847 292 1414 0
-1570 -616 1783 0
327 1776 -1829 0
-241 -628 -601 0
353 1304 303 0
-245 -466 282 0
-1624 -590 -565 0
-1797 1114 693 0
780 -1726 1674 0
1670 -1147 -1587 0
-833 -1526 1161 0
1696 559 -1735 0
1797 -30 350 0
535 1804 138 0
-1481 90 1281 0
516 -1146 1666 0
40 -430 -1207 0
880 -1928 -674 0
-68 933 1127 0
-1742 -128 1788 0
-1751 -734 -1892 0
929 -1295 458 0
1181 408 384 0
-544 198 -1001 0
806 -1467 -1434 0
-347 1273 284 0
1550 778 1889 0
965 -1752 1445 0
-1855 -1826 99 0
-50 1882 28 0
1985 1951 165 0
746 -1700 -1276 0
1935 1383 1769 0
1004 358 421 0
120 -1345 -1337 0
237 1206 904 0
391 -1991 -1516 0
-791 1695 208 0
-1344 -1232 -95 0
-615 1087 777 0
-901 -766 -776 0
614 -56 -1029 0
1130 -791 397 0
-1411 -1750 237 0
-1903 1390 1100 0
1655 514 903 0
131 -1619 -787 0
529 -384 -1838 0
-741 1964 368 0
-1511 450 -57 0
189 875 1391 0
-705 -1933 1610 0
-553 138 -1150 0
254 422 -36 0
-854 666 313 0
164 180 -1136 0
-483 -485 1219 0
517 -642 -1830 0
199 688 -1259 0
1350 -1852 1348 0
-619 -1834 -901 0
245 -319 -1651 0
-1908 1146 1990 0
754 557 136 0
-1326 1299 -1823 0
788 -157 1421 0
-440 1914 813 0
-273 -537 -63 0
-1428 -1726 -57 0
-1303 1836 -1764 0
-223 54 1472 0
-1017 -1018 1721 0
-1708 1927 129 0
-954 -538 -571 0
-1013 1297 941 0
-1026 -876 -1131 0
42 1946 -248 0
-1763 1790 -914 0
1195 427 -1942 0
1896 253 841 0
-1962 -250 -144 0
1631 -1396 -67 0
-824 -858 -174 0
-486 1753 1916 0
1434 1831 -1059 0
1896 649 1965 0
-1936 -1755 -1734 0
-379 1726 297 0
-640 1187 987 0
580 408 -1082 0
1530 1794 -1409 0
766 687 801 0
-1158 -1101 -1810 0
350 -1154 -1596 0
-379 774 977 0
-355 514 79 0
-1120 107 -1076 0
3 -1547 -1931 0
198 -776 -69 0
509 986 -1485 0
1844 208 674 0
1581 -484 -884 0
808 -1860 -1243 0
-779 -782 1863 0
1935 -907 -659 0
-1021 198 -5 0
-400 1025 -1283 0
275 1358 -23 0
1144 -1363 -797 0
1509 -952 1295 0
1870 -1094 367 0
-1057 -1196 90 0
-315 1378 82 0
-356 -1786 -1524 0
-204 857 -91 0
776 -1147 464 0
-823 -1605 -1964 0
1720 -212 1375 0
-1319 -233 1456 0
1337 1191 -127 0
-1306 -280 -1537 0
1595 -432 1080 0
-1600 -1201 -1731 0
-1728 -217 1246 0
-1989 -1827 -1743 0
692 -1539 -1326 0
85 -124 39 0
589 608 -174 0
-576 875 -1135 0
1962 1132 -1135 0
1407 710 -692 0
-102 1156 -129 0
719 -414 -844 0
-1314 -1648 1472 0
-1462 -1193 -839 0
-177 1846 -1342 0
1393 -1745 924 0
-436 -1798 1919 0
-909 1522 -602 0
-341 1774 1081 0
1319 -1762 -523 0
1350 -1479 20 0
-20 -1984 1132 0
-1819 -1723 -274 0
-943 606 -1252 0
-1424 581 962 0
559 423 -199 0
1428 15 635 0
23 -961 215 0
-671 -1769 -1063 0
-522 -481 1123 0
-1423 -1963 -1552 0
-733 1301 1712 0
1047 1791 -760 0
-102 266 1492 0
-1391 1684 1917 0
272 1039 1240 0
-822 1894 1755 0
1014 248 1262 0
-427 91 -383 0
-1763 -1340 -1310 0
-1384 -489 1151 0
-1805 -1967 1370 0
-1210 -658 1799 0
-1883 1141 -1586 0
-1180 -1275 1227 0
1756 1365 1815 0
897 1994 1649 0
-1418 11 123 0
-1805 -1148 1724 0
1210 -1656 1244 0
-407 1158 1482 0
-1759 -633 1883 0
-4 1232 1671 0
224 -759 1255 0
296 -1916 1312 0
956 1005 -733 0
1787 -1517 -771 0
-1416 -887 -723 0
251 -1835 903 0
-271 1684 946 0
-876 1542 806 0
1196 1488 480 0
1771 647 772 0
-411 573 1595 0
1675 556 -1022 0
147 -444 -554 0
-1745 16 1048 0
-407 -119 373 0
-132 -1305 -344 0
-890 1328 -1841 0
645 -771 1001 0
-1301 373 -1106 0
1534 1694 1317 0
1333 -1995 -793 0
-612 1439 -373 0
-1827 -1582 -520 0
1323 -1857 396 0
1698 -804 -875 0
529 -54 -1855 0
1298 1335 -1692 0
-1025 -1692 -955 0
-1295 1832 -957 0
-1007 -868 -251 0
348 1024 1686 0
782 306 -1485 0
766 -506 -1214 0
627 -237 -503 0
-1345 1724 1657 0
-1274 -1777 -1723 0
701 721 867 0
-1577 1735 1924 0
1305 455 1354 0
1221 983 1710 0
-1402 822 773 0
516 -593 1510 0
-1900 628 -1243 0
-1532 -1900 -275 0
-1267 346 -837 0
-1324 -1477 -716 0
692 1194 1707 0
-1158 91 -747 0
-872 -1370 248 0
-1580 257 657 0
1660 -241 808 0
1024 -539 -102 0
-1443 1636 273 0
-968 -70 669 0
-1674 -1408 403 0
-1718 151 707 0
-1475 484 1122 0
-1441 -333 476 0
1885 -735 -1150 0
663 21 -1424 0
1468 -1850 -28 0
-640 1684 -712 0
1999 -114 -1984 0
-1640 1613 -1443 0
-688 735 1149 0
1292 -858 1965 0
697 1039 1607 0
416 1803 -1240 0
-1607 -136 -1380 0
-274 1210 592 0
447 1666 -1739 0
1204 -1612 609 0
-617 -1560 290 0
-776 1441 269 0
-540 1334 -1652 0
-1562 944 -6 0
802 662 874 0
1961 -1161 -1676 0
1763 -666 -222 0
-847 -70 -635 0
-37 182 1963 0
-530 -1087 -1092 0
515 -94 -1767 0
1096 1610 1469 0
-602 1249 -1975 0
182 949 -479 0
-1808 -1897 -1419 0
1508 477 533 0
1551 1157 1917 0
913 1085 1790 0
943 -1661 1359 0
1547 -916 -1096 0
124 603 894 0
1366 1351 -193 0
1110 419 1426 0
-42 1724 87 0
412 -379 1203 0
-41 585 -974 0
-398 -176 -1453 0
-1180 801 1026 0
-570 515 128 0
-795 -717 -1071 0
-1920 1556 1617 0
803 -773 -260 0
-732 1281 -877 0
465 -1211 754 0
521 -1547 -1864 0
-688 -590 273 0
-1799 1646 1123 0
1259 780 295 0
995 371 461 0
636 -470 170 0
-772 -580 756 0
395 185 302 0
313 -1916 -1006 0
-1222 1858 -766 0
-223 303 -360 0
-1848 -1922 1256 0
494 1834 1983 0
-1752 -737 168 0
-597 1882 1742 0
1485 419 102 0
-1454 1108 -1749 0
800 -764 1549 0
-1944 784 344 0
-1576 -818 1430 0
-1621 -817 630 0
1238 915 1535 0
-1032 -1263 1936 0
-218 -173 624 0
596 1777 1575 0
1365 -1502 1269 0
-163 -1890 -1092 0
-1042 906 859 0
-1718 -477 -1761 0
1981 1028 1337 0
-635 -707 1895 0
-1507 -1069 -410 0
995 -1546 -1353 0
-716 1546 -528 0
-1588 -1784 1817 0
-651 1735 -107 0
250 1760 -1549 0
1945 -1274 -1378 0
1942 866 -493 0
860 773 1578 0
-250 -229 -670 0
-1812 1679 174 0
756 -1852 1697 0
1178 1552 -1165 0
1633 -1509 -1374 0
1924 -1485 -1166 0
1802 1664 625 0
-1714 1650 -195 0
1197 -690 -239 0
-1531 459 1992 0
1584 806 -1984 0
101 653 610 0
452 -1216 -1817 0
-1484 -1390 63 0
1537 1455 -912 0
1690 -1930 1636 0
897 1330 -547 0
905 -1386 -420 0
1518 272 -1442 0
-1134 -1084 -1639 0
189 -1694 -268 0
584 -1835 533 0
-277 -1021 -1342 0
25 -51 91 0
-473 -1239 -381 0
719 -1441 1251 0
-309 -330 -1910 0
-309 -1754 1397 0
993 1750 -1828 0
-519 -793 -1481 0
670 74 -386 0
-715 1538 253 0
1008 977 -371 0
-54 1351 -1007 0
-1087 -965 -1740 0
-556 -1144 81 0
783 1019 397 0
-1054 -822 261 0
-87 -530 1437 0
-1383 -357 1202 0
1123 548 -1877 0
336 -1785 -1425 0
-573 1463 -364 0
1368 792 -513 0
-570 -1328 -312 0
-404 19 -151 0
-1870 -111 -549 0
-43 -387 -338 0
-730 455 -362 0
-1337 -720 1286 0
798 112 -1092 0
-1233 437 271 0
-814 -1264 589 0
-406 -77 -394 0
324 -128 -87 0
-314 1484 1108 0
873 -828 680 0
-639 1159 -779 0
-1310 -689 659 0
-1217 -1293 1718 0
-275 -1367 -1881 0
-373 58 1191 0
1795 1203 214 0
751 -913 1371 0
-790 720 1491 0
260 538 590 0
450 -1842 -349 0
-416 -249 -16 0
1729 37 -967 0
1680 1056 337 0
-1826 1094 242 0
681 -838 1433 0
-499 -573 476 0
-975 -1479 -1927 0
1212 1370 1186 0
84 -938 -93 0
-602 520 1738 0
-569 -1960 -759 0
-285 530 -1911 0
-1538 -895 -185 0
-373 -1318 -1882 0
-1714 1808 -316 0
-1731 1247 -706 0
-1368 679 1482 0
-1191 -250 -48 0
10 -227 -1931 0
1992 -735 -1601 0
-264 -847 1698 0
-1141 1321 1634 0
571 -164 -949 0
937 -441 -1806 0
-405 -541 -716 0
-260 -1653 50 0
-490 -1991 -540 0
-1283 1362 710 0
905 -940 -1261 0
-1275 -1788 -1391 0
-67 401 420 0
-94 -1990 1449 0
504 -1788 650 0
550 -1451 1214 0
234 577 1064 0
-1789 414 -971 0
1191 177 -1320 0
-666 550 819 0
-1458 402 662 0
292 -1311 -1813 0
-1127 -306 -1653 0
1658 -728 875 0
971 -1292 451 0
-29 -1115 201 0
-1908 148 881 0
1192 -1527 -1711 0
-831 -532 466 0
1905 579 477 0
349 255 -199 0
-1490 -80 1088 0
-1793 -1938 1037 0
-1470 -1104 27 0
264 -1121 1363 0
469 1409 1649 0
251 336 957 0
1114 -131 423 0
316 -1028 769 0
1072 -780 771 0
1131 -1294 -586 0
1875 1736 -119 0
-1660 -1261 36 0
287 -661 701 0
-1884 1504 789 0
500 1296 -1376 0
1666 1410 1187 0
-1243 -463 -904 0
-650 1159 -1109 0
-1702 -1855 300 0
-1919 -1211 -922 0
880 -1614 -1267 0
-1662 794 -828 0
-395 -1476 -1761 0
715 540 1850 0
1571 1986 765 0
227 1641 -924 0
80 -1495 424 0
-469 146 194 0
163 -1782 -21 0
-1444 -1281 -1204 0
-105 -1063 869 0
-314 395 1435 0
343 -1234 177 0
-479 1206 1824 0
239 52 530 0
105 1817 61 0
1335 -1916 -1928 0
-1554 -1964 -1608 0
723 1246 -1944 0
-584 -449 1390 0
-1 1169 389 0
1403 -197 -741 0
-1930 8 -1941 0
-1916 -1608 -850 0
-214 -1195 980 0
326 -771 -470 0
-1871 -885 1851 0
1397 1660 -400 0
1489 1091 -360 0
-890 -758 276 0
21 948 -1226 0
-304 -573 1254 0
1877 -219 241 0
-45 -1489 1568 0
1155 1316 -29 0
1068 38 1407 0
-1263 670 -684 0
-757 -719 1467 0
-679 -730 699 0
-1680 -1238 -1693 0
-724 969 -1238 0
1306 -1250 -1384 0
1247 -321 -168 0
-163 -1739 -1496 0
326 -1153 -1558 0
-1142 -1596 -646 0
-487 -604 -1418 0
17 1479 1961 0
1443 -1859 103 0
-980 466 80 0
629 -1184 1762 0
1585 -1507 1852 0
-1330 -1618 730 0
1035 1049 587 0
1312 1281 1194 0
1507 -806 1882 0
1486 476 -85 0
-1816 1909 358 0
1986 973 733 0
-495 1910 -1796 0
1767 -302 1959 0
-1268 249 -99 0
770 -1054 -1765 0
-1108 1074 416 0
600 -932 1169 0
1327 91 1545 0
-1100 -1246 1427 0
1416 -881 -322 0
776 -978 650 0
1673 -1555 -179 0
-910 501 -19 0
987 403 813 0
-347 -1018 -96 0
1093 629 -4 0
517 1962 -251 0
-852 -723 24 0
1919 -1687 484 0
1579 884 -1280 0
689 1942 163 0
953 -336 540 0
617 -976 -163 0
-230 1042 237 0
-1994 -1477 1358 0
-585 -1451 -1731 0
222 -582 -1764 0
1892 456 -699 0
-843 1068 780 0
1579 -1704 26 0
-1378 -796 -1726 0
-617 -1465 1723 0
-793 1158 -1052 0
-644 -1793 1096 0
586 -319 -1330 0
-1730 1433 1069 0
-5 1170 -599 0
1401 1675 -822 0
1265 528 847 0
-535 1851 -1729 0
-590 298 943 0
-740 -659 777 0
1235 533 573 0
-573 519 977 0
1310 1427 -733 0
1413 -1979 1871 0
1531 1518 1892 0
712 1200 -102 0
1052 -1828 1493 0
677 1713 -61 0
104 868 -1943 0
-1098 733 -518 0
-1474 1491 319 0
932 1917 -254 0
-1951 1156 -821 0
416 -1343 -1266 0
56 862 838 0
1209 688 957 0
1427 312 -504 0
5 227 -1985 0
-1015 1819 -1529 0
-934 10 -257 0
1431 69 1847 0
469 1451 602 0
474 346 -608 0
1124 543 441 0
1792 831 -158 0
1407 1042 -1099 0
-184 1683 1313 0
-136 -1151 1728 0
1720 1297 548 0
-428 1125 61 0
1899 -898 1464 0
-1377 -801 -776 0
-1618 1268 731 0
1979 -234 -1288 0
-1376 262 774 0
717 -798 1562 0
-588 -1836 419 0
226 798 1287 0
1761 -1690 592 0
1633 602 1321 0
-1781 1257 754 0
-727 391 324 0
428 289 906 0
-512 27 -670 0
761 -1614 -1136 0
598 1941 212 0
1848 745 449 0
1212 -45 1185 0
1687 -359 1513 0
-435 451 -1420 0
1233 -1495 1358 0
1695 1978 1103 0
-102 1502 -948 0
1538 -1339 -433 0
-147 837 -1997 0
745 -503 -438 0
905 -1774 864 0
-1128 1869 82 0
972 -1914 -779 0
-640 1120 -859 0
147 -741 -343 0
630 1817 1317 0
617 -269 -1366 0
-1563 -1570 -1852 0
-249 169 1892 0
133 -523 1404 0
-1019 200 -778 0
-5 -588 177 0
968 1589 1107 0
1140 -459 557 0
-1751 148 1796 0
-1344 -308 -968 0
1080 1624 1999 0
-817 1180 -1134 0
-987 1889 1083 0
-40 27 698 0
-694 1888 -1943 0
1051 -922 -849 0
845 1359 -504 0
-1778 -149 -1159 0
-721 1154 -635 0
855 -1934 -1509 0
-1177 664 1341 0
-1688 568 -232 0
1619 -1455 -605 0
-5 817 -138 0
667 -884 -1977 0
1147 -1191 681 0
1207 1823 -1623 0
-73 -1004 -445 0
1863 -1409 -1514 0
-3 138 921 0
1511 -1480 997 0
1801 -116 930 0
-1154 1803 25 0
-805 1244 1346 0
-1439 1836 -1100 0
253 -1690 661 0
375 1306 -1073 0
114 -530 -1344 0
-368 -1933 1780 0
1549 50 527 0
-1491 -1074 1151 0
978 1865 1511 0
1973 -1410 37 0
983 1453 -1342 0
921 888 -1816 0
-266 -508 472 0
1777 -68 421 0
1257 1900 -1344 0
-371 -968 234 0
-470 426 -1211 0
-1982 1462 1417 0
-1745 3 64 0
762 524 17 0
318 1781 837 0
-213 1287 1530 0
-1990 910 -504 0
-1448 1051 -1852 0
1553 -916 -702 0
-1986 557 1154 0
415 442 -131 0
-867 -1286 566 0
157 802 476 0
1978 -136 -186 0
-986 528 -851 0
1660 1813 1667 0
22 1140 -760 0
-1008 1340 -1752 0
598 1197 690 0
-1040 -185 1946 0
1544 -1935 1151 0
-224 -4 -1717 0
383 630 -970 0
162 1635 -1592 0
-383 467 -1322 0
-800 574 -1420 0
408 -984 1159 0
-812 461 552 0
1902 -1586 758 0
1916 117 -490 0
-1410 1414 1357 0
-370 -474 -192 0
-43 1237 1538 0
270 -556 952 0
-307 -1800 266 0
717 -106 1515 0
-1662 -1394 -1672 0
223 -1740 -1132 0
1391 861 -1048 0
72 -259 1970 0
1885 -1621 1344 0
962 1894 -1047 0
-1675 -214 -161 0
994 1939 -974 0
-742 -1260 1468 0
-656 530 -248 0
904 -10 1760 0
894 -597 -1209 0
-1238 -1765 -495 0
184 326 1005 0
-1746 -1938 -1633 0
-1509 44 295 0
102 531 1811 0
1858 -228 822 0
-1400 -90 1515 0
-915 1555 19 0
1766 990 -699 0
1136 -1936 -531 0
-1352 1520 911 0
-1449 -1936 -429 0
1456 -1681 1424 0
-1580 -534 -755 0
-1352 -412 -986 0
1249 -1238 -1190 0
971 162 269 0
1734 1066 -1190 0
-1983 -1407 1956 0
-297 -1196 -736 0
-1881 134 -305 0
-332 645 -182 0
-1701 72 -1903 0
645 -568 -328 0
1348 -875 43 0
1206 -753 -615 0
1793 -831 -1180 0
-1929 -26 1613 0
1506 1218 -996 0
807 -1714 -788 0
-208 -1096 219 0
-759 -483 784 0
423 -1892 -402 0
-879 722 1655 0
-1592 -290 1175 0
-763 1392 1256 0
-1922 -665 1356 0
1362 -54 -1034 0
805 1903 646 0
1834 89 -584 0
583 663 759 0
485 310 951 0
105 321 -1805 0
-1096 -1551 -1318 0
-1480 933 -622 0
490 -1476 924 0
1882 1613 -52 0
1414 249 504 0
-706 -1060 -1591 0
-480 -1512 -1916 0
503 717 -1981 0
302 -451 -1537 0
1269 -1869 967 0
-1459 -949 -1127 0
-1836 -1054 867 0
-235 -1179 1573 0
-1464 -163 -999 0
-175 1468 422 0
924 854 537 0
-716 1907 876 0
-322 -518 422 0
-1746 -1089 1196 0
1323 448 1031 0
457 -1242 449 0
148 1266 -1639 0
-1893 1157 331 0
1368 411 -946 0
141 -1604 1953 0
333 498 -1315 0
1696 -724 -1225 0
667 1568 -839 0
1583 -615 -401 0
123 -1333 -1083 0
-634 -260 940 0
-922 947 -16 0
-252 588 582 0
1640 -105 6 0
-243 -343 -99 0
-263 -70 -9 0
1660 -567 1995 0
1069 -1414 -1630 0
-1310 -1190 -1560 0
937 -1647 -859 0
-479 1398 1071 0
1884 1978 -17 0
1984 1698 748 0
-18 -811 336 0
933 -1860 -1933 0
495 132 -1053 0
1989 -1893 -459 0
-1955 217 1631 0
-1928 -1910 -1042 0
-899 282 -183 0
1226 1980 1218 0
1657 896 -1652 0
817 -1047 1072 0
1636 653 251 0
1120 -1125 597 0
1241 -1228 1632 0
1592 -1639 252 0
-141 -158 -1686 0
-215 1717 278 0
-514 -14 -1412 0
520 -1245 -1973 0
-276 388 -518 0
-1293 -312 377 0
-880 -306 -1988 0
-1105 558 1771 0
-845 1145 -996 0
1816 -441 -817 0
156 -28 728 0
-1350 -1758 -1576 0
-11 -101 -1305 0
398 946 1887 0
-1340 1383 -1426 0
465 -1626 -853 0
-597 1167 687 0
-902 -791 -227 0
-649 -37 -1477 0
293 -1872 655 0
1982 -181 1927 0
-231 1464 1437 0
1928 277 -489 0
-1840 -416 -1533 0
-1834 772 676 0
588 -473 885 0
-1438 -1029 -889 0
-1581 1952 -1703 0
1604 1502 1653 0
-775 -1435 -257 0
-1819 -120 -477 0
1981 1749 -131 0
958 1624 1199 0
1311 -852 1018 0
110 -225 922 0
-75 138 -1853 0
669 -1194 388 0
1380 1256 2 0
1414 1813 -609 0
-1432 1265 1014 0
1977 1552 1334 0
-1484 520 762 0
1360 1264 1312 0
935 745 -511 0
133 589 -412 0
-652 79 1668 0
-1732 -343 -156 0
-670 -1834 1203 0
-695 -342 1177 0
-914 -1879 1887 0
1089 -1196 -930 0
317 -41 67 0
-787 555 -23 0
-1431 954 -486 0
409 -360 402 0
-1640 949 1418 0
-1989 -1370 1470 0
566 -1935 -1267 0
-522 -1255 -765 0
-1431 -831 -718 0
726 -184 1014 0
-1652 1791 -359 0
-438 -612 -1308 0
340 1151 1611 0
-1587 1993 1484 0
-284 1418 1990 0
-268 539 1642 0
1604 1223 -481 0
1996 -689 -995 0
484 -771 739 0
-1932 -1489 -1828 0
1748 706 -1182 0
370 87 1430 0
1955 -354 -1369 0
320 1927 -1860 0
806 31 -660 0
-1424 1567 693 0
749 -1279 -1035 0
911 1162 1561 0
826 -355 708 0
1803 -1307 169 0
133 282 -354 0
-910 -932 614 0
740 -267 -934 0
-271 1788 -1124 0
1995 -550 -909 0
-1428 1541 -662 0
-363 -919 -1532 0
554 85 1675 0
1972 1160 105 0
-120 -958 582 0
993 282 -1942 0
-1186 120 207 0
522 1734 376 0
-1291 1591 -1960 0
356 -1665 471 0
-387 -1560 -1861 0
1019 718 905 0
1694 1555 1038 0
563 989 44 0
-3 -1623 -1136 0
346 490 -788 0
83 -1963 1414 0
-1819 -1411 -914 0
-1268 531 1506 0
-335 -253 1401 0
-962 1235 -818 0
1704 154 -1600 0
1240 -340 184 0
-561 -1917 -338 0
-436 167 133 0
684 1311 411 0
1161 -981 1821 0
1295 966 875 0
-1594 1154 266 0
-1568 1637 186 0
1870 -375 -1177 0
1185 1279 -1074 0
-1939 -37 -759 0
418 1607 1274 0
-1692 1468 175 0
1529 -1197 -625 0
-521 690 1007 0
-1293 -234 -669 0
-870 -476 -1912 0
1837 1342 857 0
-822 705 -155 0
301 -91 1300 0
-265 -983 -1442 0
928 1680 -1304 0
-1410 -935 -1680 0
1646 1787 1925 0
1738 -1451 725 0
-1469 1067 793 0
-1354 -1863 760 0
560 1987 1110 0
-1202 730 -1198 0
887 -1798 -1540 0
-1834 -1822 726 0
408 -1564 324 0
668 930 629 0
-1165 -1318 46 0
-129 30 770 0
273 -1679 -532 0
-27 1216 -285 0
-1624 501 -505 0
1753 238 -382 0
-1103 1442 -1552 0
-354 -1894 418 0
-1634 932 1453 0
664 830 1506 0
-299 -262 -1466 0
657 -197 1029 0
-948 1828 -1870 0
702 -479 127 0
1975 1826 980 0
-1864 530 319 0
1402 1612 1773 0
-1858 -417 1875 0
86 1376 -1257 0
-105 -701 -104 0
-66 -498 1864 0
-940 1041 -1472 0
906 -485 -1723 0
583 1882 -245 0
1434 504 -692 0
1320 -1464 -597 0
870 1011 495 0
-1042 446 1677 0
1840 -447 -1754 0
-66 -382 -496 0
972 1333 361 0
-249 -1613 1036 0
1557 -1815 -1326 0
1664 -886 -1758 0
522 1619 52 0
1202 63 1646 0
-1375 -750 -232 0
-1098 -893 -1424 0
1991 -804 1413 0
-399 -323 -197 0
-1145 -175 989 0
-90 -1058 -1949 0
293 -1272 127 0
-1853 -913 63 0
789 431 -1203 0
1161 -1234 -989 0
-161 -10 39 0
1469 1173 -852 0
-12 1839 1642 0
1872 442 1111 0
-1126 337 1906 0
-706 -1396 -1600 0
60 -50 -817 0
-1341 558 -1683 0
1956 -1179 -1239 0
-1869 988 851 0
715 -546 1344 0
-1162 997 1684 0
-520 881 -1336 0
-305 -1353 1074 0
758 1062 -6 0
950 322 1473 0
1459 -578 -1354 0
-1148 -1338 -1272 0
-336 1218 -399 0
-1345 -693 -1694 0
-393 -402 620 0
1592 1757 -1569 0
-934 1584 -714 0
1218 -47 -831 0
-990 -1522 1773 0
827 -1518 1800 0
1774 350 -47 0
30 928 1704 0
770 -909 1286 0
1337 -960 -1101 0
-1472 87 1240 0
555 -317 -541 0
-1388 600 -1526 0
519 -1128 1545 0
-451 -496 1926 0
1410 369 -1359 0
1145 1302 44 0
312 -693 -18 0
-1523 -576 -95 0
-90 -1607 1512 0
1063 -295 1531 0
260 1605 15 0
1051 1803 1196 0
457 1156 -111 0
522 -1566 -1456 0
1452 1734 1184 0
1330 -178 1124 0
-457 890 426 0
1618 -1336 94 0
-1312 -1023 -844 0
-1694 -4 1867 0
-3 1047 644 0
1383 1200 390 0
742 -1073 906 0
679 -1147 593 0
-1105 1279 868 0
-1015 708 -1544 0
755 982 -153 0
743 1120 248 0
-1166 -451 582 0
-21 139 1928 0
329 -1217 1480 0
-1960 -848 -1786 0
1645 -1355 160 0
655 1051 533 0
-1433 1099 -820 0
-521 -53 565 0
-106 -1723 -813 0
-1375 1103 697 0
-289 1233 417 0
1366 -1993 1539 0
-508 102 -644 0
1833 -629 -1848 0
1627 -158 1982 0
-1170 394 -1005 0
1313 -1130 -1587 0
-628 -600 738 0
-1416 -493 481 0
1043 -1853 -884 0
1553 -53 315 0
1769 -1762 -645 0
654 -985 35 0
216 -1964 1027 0
971 -1230 1048 0
-1984 -949 -622 0
-1879 839 1511 0
-1859 566 672 0
-202 1873 -1276 0
1910 -242 1984 0
-1582 -1863 -1126 0
-343 1454 -1175 0
-1934 -1235 807 0
-169 -575 -473 0
-563 1846 -1938 0
1114 -1170 1162 0
-1879 -307 622 0
-1231 568 -1540 0
101 466 873 0
-891 -782 -957 0
530 -906 -174 0
-599 1144 389 0
1921 1979 -578 0
1735 845 1297 0
677 1081 -756 0
1951 -1618 893 0
1931 -1757 49 0
179 -415 -1465 0
-1402 1767 -1047 0
401 1160 -1849 0
-1892 1679 -1387 0
1992 584 1437 0
-1688 584 -1944 0
962 -1588 425 0
-1757 -104 92 0
-1827 453 1091 0
-1195 1362 537 0
1157 -547 -460 0
-646 -1218 1098 0
-5 1174 3 0
10 1959 1183 0
245 -59 -1976 0
1786 -314 -1991 0
1820 1875 216 0
1996 -840 462 0
-317 -1202 1276 0
-1009 1532 1427 0
801 -1288 -30 0
-1959 -1757 -877 0
1545 -1477 1736 0
1804 -1856 -1647 0
-630 590 439 0
113 -62 -1017 0
1111 331 -576 0
-702 -1841 877 0
1079 -1356 588 0
1192 -726 -341 0
1824 1165 -78 0
1822 961 -459 0
-598 1269 -991 0
-1691 1518 1209 0
-126 -1973 847 0
1778 -696 -1073 0
-898 375 -483 0
231 -1084 694 0
570 1489 -1606 0
265 1705 -1128 0
1120 287 -926 0
-1719 -40 1303 0
1826 552 -843 0
-1278 264 -1981 0
-1940 917 -1123 0
-562 335 -1930 0
531 -1205 -386 0
-421 -543 938 0
-400 -1501 -1508 0
-674 -1162 1267 0
-1670 770 515 0
-1529 1370 217 0
-216 -1219 -1437 0
681 -542 701 0
-499 -1000 -295 0
-48 533 1684 0
-888 655 388 0
173 -304 936 0
261 -466 -1923 0
1437 -1498 881 0
-1342 517 -1669 0
1057 -1986 -80 0
-859 1144 1680 0
1291 182 330 0
-707 454 -718 0
700 614 -429 0
1137 1719 846 0
-950 483 -1307 0
1450 914 1607 0
-1883 -588 1806 0
743 -122 -1861 0
859 -1540 -429 0
-547 346 753 0
-1672 -1755 909 0
1264 -595 1312 0
215 1580 1019 0
348 -1273 1261 0
-265 -819 305 0
-712 -1501 -699 0
-1178 -1657 502 0
1177 -1076 -1337 0
-678 -1749 520 0
391 -97 1572 0
-208 -429 1379 0
1591 -852 1831 0
-1578 1199 553 0
1082 381 235 0
-1355 -1072 674 0
326 -677 1646 0
891 452 94 0
-1676 -1951 -536 0
-292 -927 -1663 0
1304 -1425 339 0
1492 1277 356 0
478 -1157 -380 0
-263 1369 -967 0
-1806 472 -1593 0
1351 -1454 1098 0
-120 689 1884 0
-1624 1680 28 0
29 1539 1644 0
362 -504 -1227 0
357 -1626 -1431 0
409 1973 -305 0
13 1771 -1312 0
448 811 -1309 0
-1736 -574 -1508 0
-1427 530 -1499 0
-1951 1845 -1573 0
1912 -1442 1520 0
1926 71 1749 0
698 -1394 208 0
-1301 -1752 -1685 0
1043 -1234 670 0
-850 -1081 1447 0
1527 1060 -670 0
1001 1312 875 0
1309 -1282 1687 0
166 1829 -171 0
-1030 1681 -1004 0
-788 -60 511 0
1121 -845 -876 0
1920 849 244 0
-1502 -32 279 0
-1878 -1965 1102 0
926 544 1855 0
-1665 -1198 -933 0
822 -771 -421 0
1946 1669 597 0
757 -1393 216 0
-499 -115 -794 0
-1432 -1636 1346 0
676 745 -217 0
1238 7 839 0
1478 -1680 506 0
-82 1960 1340 0
1241 1495 1391 0
640 869 -29 0
-1064 -205 776 0
-1568 1529 -417 0
1767 -712 -1844 0
598 727 -1512 0
-805 -749 1701 0
-1311 -55 -2 0
100 1607 360 0
1208 1888 1324 0
-842 340 -1466 0
-348 207 414 0
-686 115 -947 0
306 1781 1705 0
460 -1407 565 0
1883 -1880 1034 0
-908 -684 813 0
837 189 478 0
1955 449 -1881 0
61 -1312 -847 0
1963 -1622 1580 0
1053 -144 -1714 0
-1236 497 1911 0
-1632 -1230 1448 0
1119 1243 -1134 0
1950 1545 -578 0
110 -921 -1263 0
-1630 1182 -1207 0
1514 1991 780 0
-829 -964 208 0
1606 1688 529 0
-516 926 260 0
-823 -1355 -1841 0
-1777 1951 -683 0
-1414 1261 -1106 0
1402 986 -347 0
1296 1058 1520 0
-1408 1243 1294 0
-974 992 137 0
585 -1418 -979 0
-651 -1075 1505 0
-1431 435 1862 0
-561 -439 -175 0
1220 1572 1137 0
1809 -50 80 0
436 -506 368 0
-934 -252 22 0
-543 -1393 431 0
-169 946 -885 0
822 -36 1916 0
-185 704 1735 0
-187 1481 1719 0
286 -1565 911 0
159 -1463 1661 0
-378 -1930 1157 0
1592 7 1855 0
-999 618 1561 0
287 -232 977 0
524 717 -427 0
169 -1434 762 0
-271 1351 -1380 0
236 1818 -756 0
1537 533 1377 0
-909 -118 190 0
617 -1983 973 0
-707 -700 -1934 0
1459 -374 541 0
365 -882 -1733 0
1168 -1638 1514 0
1215 1217 262 0
-1316 1734 -435 0
-317 -941 1463 0
255 -1879 1226 0
1495 -1459 595 0
-1869 452 1099 0
642 168 656 0
-1553 -1981 69 0
-1836 703 1611 0
-58 770 83 0
141 592 -1827 0
-881 205 -93 0
-382 326 607 0
250 -582 1233 0
228 -113 978 0
-502 1024 -1841 0
1228 702 1315 0
-1017 968 1763 0
1700 -295 -1207 0
1678 -307 1209 0
1605 1641 -1411 0
-260 1931 -657 0
-865 608 -382 0
492 -1617 418 0
-1212 1622 -592 0
-492 -127 -1235 0
237 1198 811 0
75 -1275 -954 0
1780 1970 250 0
658 -59 -44 0
-1163 -912 837 0
-756 -926 349 0
773 -959 -922 0
-528 -114 1418 0
-168 147 644 0
-330 1515 36 0
-983 -535 212 0
-1312 1765 -1579 0
113 867 876 0
-1418 392 -1466 0
-993 -1222 326 0
381 -734 1857 0
-1812 -55 141 0
1370 3 -299 0
1272 -360 -1741 0
-1880 -280 1176 0
-1423 1653 494 0
-1053 1082 1 0
807 -553 -1572 0
1587 1817 1780 0
-771 618 1213 0
963 -853 -339 0
427 -511 1337 0
1366 -92 -364 0
718 1713 -447 0
-1570 -21 907 0
-451 1132 252 0
1217 251 1918 0
1751 398 836 0
1555 1113 683 0
519 219 -322 0
1364 638 1970 0
1557 -644 -1835 0
-659 -74 828 0
1129 722 1592 0
1147 -1682 1880 0
1474 -187 875 0
-906 -1039 1351 0
-1563 713 1871 0
-1082 1310 -395 0
904 567 -1932 0
124 597 -1030 0
-1567 862 731 0
1820 -334 1181 0
-161 1976 -415 0
1849 -445 1287 0
620 -73 -326 0
-193 -1865 -1911 0
-1162 -193 -1974 0
-901 -153 -1739 0
-537 -1817 1618 0
-601 863 1016 0
1753 1856 -171 0
1541 1986 1749 0
-1552 822 -1185 0
-1345 192 -1875 0
615 -573 -702 0
1027 -1935 -955 0
502 -741 -1159 0
-1422 -1384 -1745 0
-359 -1119 -1609 0
232 1843 -920 0
-48 -1380 -1732 0
-1610 1674 -300 0
200 -588 -80 0
1184 507 -1190 0
-1636 860 -901 0
1123 -1614 -1476 0
273 1722 -1714 0
1597 1837 1074 0
628 -1209 -798 0
1342 -1146 -737 0
677 1546 -806 0
114 -1772 1895 0
1346 1445 -744 0
-866 -1961 1675 0
-1002 764 803 0
1579 -1103 -1009 0
-942 971 -1304 0
788 2 573 0
337 1934 -928 0
-1794 -276 -657 0
1205 520 41 0
-1745 1458 -181 0
-1276 1721 388 0
258 -433 -737 0
-1663 1796 595 0
671 1213 -1057 0
1593 33 -257 0
-327 -1554 296 0
-1331 -227 1436 0
-1291 872 -1149 0
1039 -543 -501 0
779 -732 1108 0
-847 253 1114 0
1390 -537 -439 0
-507 288 -1956 0
-1831 -447 268 0
912 -962 10 0
-695 -879 -748 0
780 -1257 388 0
-1570 1008 -1511 0
989 1241 1917 0
-1827 -824 -1126 0
671 1061 93 0
-660 -229 720 0
720 -1973 -1559 0
1180 -133 119 0
847 -532 -1510 0
1970 -608 -395 0
1668 433 -1803 0
1902 -952 1271 0
-528 415 1693 0
1312 -1816 1022 0
-679 1327 -315 0
665 780 424 0
988 97 768 0
-839 1119 203 0
-1612 533 -1602 0
-1084 590 1051 0
-138 -429 1863 0
-1577 969 -1429 0
148 -1388 884 0
-324 -1109 1087 0
1253 873 847 0
-812 -841 960 0
-652 187 856 0
-271 1003 1634 0
1445 -1685 -704 0
162 22 -1684 0
1798 -16 -696 0
-877 -874 928 0
1086 -1655 1953 0
-1710 -1671 1377 0
1618 -629 1015 0
1904 -1484 -1800 0
1829 111 -194 0
-1827 -1043 907 0
-653 1795 -780 0
-311 149 -1767 0
-1548 208 870 0
513 1664 16 0
-827 -1522 167 0
-1272 -1861 -1193 0
-432 -1527 -681 0
710 1414 759 0
-641 1280 -1931 0
877 374 1729 0
-28 587 -451 0
439 -641 1532 0
-1388 -1064 1534 0
1627 1227 -1656 0
-1437 1756 -1051 0
-989 -19 -1761 0
-394 1475 1596 0
-327 -545 494 0
-1496 -1563 954 0
301 -403 1915 0
-1152 -1642 -1568 0
-13 -531 1531 0
-403 -109 1625 0
59 -1455 1428 0
1967 -730 -1931 0
-1528 743 -443 0
-199 1307 1155 0
574 1349 -1755 0
-1113 1619 -138 0
542 186 972 0
-1039 402 1849 0
-1101 -1000 164 0
1004 390 -651 0
-1722 1662 -456 0
178 -28 1932 0
1349 -637 -1450 0
686 -1153 -1229 0
-1361 987 -1702 0
196 992 1151 0
469 -1124 1176 0
-649 -167 113 0
-898 17 -736 0
-581 477 767 0
-449 1681 995 0
902 -1370 -1872 0
-588 1156 1927 0
-1851 -271 -1233 0
-95 -1263 138 0
-1953 932 -790 0
131 -1066 -534 0
1409 1573 -1057 0
-276 955 888 0
-1640 -1405 -1163 0
-881 -910 -270 0
-1470 1754 72 0
-1282 -1252 -1746 0
-1487 1322 -1806 0
1227 -1687 1559 0
697 -440 783 0
-1741 -1097 -836 0
952 1965 -511 0
-1056 -434 -1495 0
917 -1229 1570 0
135 -242 1850 0
1568 1664 -928 0
-1131 1999 -387 0
-212 -985 -165 0
23 1591 -1072 0
-1363 -1670 1671 0
-1598 1760 -1351 0
1991 -974 1986 0
-1643 26 -1200 0
-667 -1622 349 0
510 -128 -552 0
-1814 -420 237 0
717 -1458 -1629 0
21 1189 169 0
-1401 -1164 -227 0
1164 -1284 1989 0
-981 -1073 -1553 0
-1314 -1204 -966 0
-1730 -1589 -1399 0
1981 -74 1581 0
387 -514 463 0
-1598 -823 -208 0
713 -787 1362 0
193 1436 -1873 0
-947 353 1891 0
589 1853 41 0
666 274 1630 0
-415 -1439 -1927 0
1479 865 1148 0
1164 827 1299 0
-884 449 -430 0
-1989 -713 419 0
-1311 1676 -338 0
-986 432 -1505 0
1398 351 -588 0
951 -1501 -1138 0
1045 -429 1512 0
1161 -458 -53 0
1952 1702 985 0
-380 1607 -1358 0
1813 -1170 1412 0
419 831 1735 0
-2000 43 345 0
1246 572 117 0
1883 -1018 -1290 0
903 465 -1280 0
-891 -1113 1177 0
-487 -1109 1316 0
831 1453 652 0
97 1390 80 0
1928 1301 1598 0
-1740 532 1816 0
437 770 -1583 0
442 68 454 0
625 -796 1845 0
-326 -859 -491 0
783 -1095 1997 0
768 -1931 135 0
695 -802 -1509 0
-3 -2 1610 0
581 720 -929 0
-1436 -737 412 0
-452 -302 -1601 0
-711 -1460 -1515 0
1691 1634 -1182 0
-481 1548 267 0
-531 246 1433 0
53 -1774 944 0
1130 -135 -35 0
1772 283 -1292 0
1966 -1658 -548 0
-1492 1396 410 0
1757 -70 -1387 0
1246 1185 1793 0
278 1178 -245 0
1632 1878 850 0
-1966 684 1556 0
-1860 -1374 -955 0
1852 1325 -673 0
-1412 913 -1122 0
-1878 -770 -1813 0
-818 -1203 941 0
901 1171 456 0
1932 -415 -842 0
944 -1465 1000 0
1087 586 -1807 0
-1256 415 -1050 0
-229 404 753 0
1494 123 972 0
-553 445 -890 0
-495 476 -381 0
-1161 1829 1868 0
1455 -93 -1272 0
-801 -376 -1209 0
-1446 -1365 723 0
278 -390 -1283 0
-1858 1363 1215 0
1494 -971 -1069 0
1595 -15 -1217 0
-1055 -991 1498 0
1713 -1663 180 0
496 -953 1147 0
629 1826 1800 0
1956 -1711 -1589 0
994 1515 1710 0
-1841 -441 524 0
-1998 -1851 1479 0
-235 -477 475 0
1972 1933 -1624 0
692 1777 -1689 0
346 36 -1459 0
-1763 -122 -191 0
-1235 1518 -155 0
-1408 -1264 -978 0
-678 1424 54 0
1245 1088 1657 0
1672 946 -578 0
-961 -1058 -1947 0
249 1999 1586 0
-1907 -1967 1471 0
1308 -1682 18 0
769 -1832 1360 0
-735 1585 639 0
414 298 -619 0
-668 1114 -1503 0
598 -1026 -1627 0
-326 -297 327 0
-115 1711 -1978 0
-454 1610 1264 0
1863 -1038 -1176 0
-1538 -1753 -572 0
-156 1015 1493 0
-845 -723 -1016 0
-1044 -717 1935 0
-1380 -353 -961 0
-1349 139 107 0
-196 1596 1929 0
1253 1920 1166 0
1493 -1256 -1239 0
1468 -646 1553 0
-1973 820 -1634 0
-445 -1943 -330 0
-1339 -1903 -1513 0
764 -858 -32 0
1708 83 1326 0
731 -1280 1351 0
-1580 991 219 0
1631 -882 902 0
695 818 -1329 0
-743 -502 -1186 0
-708 -231 -1540 0
-626 -890 -1209 0
350 1645 -1641 0
1891 -152 -965 0
780 1486 1389 0
-888 -1599 102 0
881 -1545 1305 0
-303 -1834 -898 0
-703 -1553 376 0
1795 -1018 1958 0
-902 1914 -888 0
244 1649 -219 0
-1843 1355 25 0
-139 -1809 1525 0
1401 1785 1074 0
446 1981 1692 0
320 -382 -1160 0
-1317 -452 -135 0
-329 -263 826 0
-1118 221 253 0
1993 577 -1962 0
1066 -1117 -469 0
-1804 1970 -1409 0
-572 1668 737 0
187 582 -50 0
-1552 1333 -1646 0
988 1034 1848 0
-1198 -1320 -219 0
659 1500 362 0
1589 1266 -593 0
-1199 327 -6 0
456 1655 -244 0
-700 1018 -611 0
-1967 -680 -623 0
1742 1524 1407 0
-348 1241 -790 0
-1008 1194 -1011 0
1421 -85 -853 0
-702 206 -221 0
-1226 852 -665 0
-1466 -1461 -1610 0
-137 -1639 -398 0
-1334 828 -266 0
374 -1007 613 0
-637 752 -270 0
1625 -185 -216 0
674 180 1118 0
1637 423 160 0
1510 1452 454 0
-1772 1977 1891 0
-1512 -1712 -1820 0
-94 -1633 -1208 0
-664 1585 879 0
-1263 45 1095 0
-850 69 -1586 0
340 -250 1437 0
-77 -1098 1756 0
-1156 -151 -1992 0
-300 1764 -745 0
469 557 24 0
-627 741 471 0
-433 -430 546 0
1853 1884 -32 0
175 -1367 519 0
-679 936 -925 0
-36 696 -1543 0
1949 -1987 -1750 0
1426 -585 -1040 0
748 1251 219 0
786 1909 -247 0
-876 1739 -1300 0
-1244 -719 1407 0
-1939 1447 34 0
-1485 1033 888 0
1465 862 -136 0
-502 1447 774 0
238 1237 -254 0
436 1492 -126 0
-563 -1554 780 0
710 -538 1702 0
-1210 424 1977 0
-634 -311 1552 0
-1923 -183 676 0
-860 1174 1886 0
-1850 -1513 -8 0
-1775 -695 -784 0
-1213 242 1424 0
-333 -1260 872 0
-357 882 1381 0
-1011 1177 1213 0
1777 -66 -1570 0
-1559 536 266 0
1688 1273 362 0
-595 -1874 995 0
-142 621 274 0
-1076 963 733 0
-140 1569 1823 0
352 -1236 1362 0
1639 -582 -1285 0
-1456 1702 -417 0
-949 17 336 0
-735 1960 912 0
411 700 -408 0
1420 228 -1370 0
-337 -1648 1074 0
480 413 -1130 0
-1839 616 -141 0
-950 225 -857 0
-1997 1334 705 0
-1859 -1143 1425 0
-1478 -1375 -1358 0
707 -1886 -1251 0
-838 1411 1433 0
122 626 1227 0
1051 535 231 0
1694 1734 -492 0
-1186 -241 -721 0
-1970 -1908 908 0
1089 859 394 0
-599 581 -242 0
-1499 1753 43 0
390 1874 1736 0
-929 259 565 0
-1723 -692 -1363 0
270 1146 776 0
1662 -1163 467 0
-416 72 771 0
-31 195 1818 0
1598 -1355 942 0
-99 -932 -1598 0
121 -1659 1585 0
-1364 -298 417 0
1466 1972 951 0
298 -1462 -1458 0
-752 -1897 -1721 0
-205 -1026 -1453 0
130 1174 1252 0
-1599 607 371 0
-1712 -1058 -1052 0
1359 -1009 533 0
501 119 1936 0
-917 954 863 0
625 -1037 -1717 0
1969 1105 1787 0
1240 -364 -904 0
-1455 1460 945 0
1072 -978 -971 0
259 927 500 0
-907 -1557 -1140 0
-913 -1146 -848 0
1906 275 1551 0
-1675 1494 827 0
665 1639 -960 0
-1428 75 -893 0
-1110 -231 1100 0
-1661 424 1376 0
-423 -583 -1023 0
-1717 -393 180 0
857 197 -1035 0
-176 1341 -248 0
1006 -272 669 0
1623 -25 -30 0
-461 -662 -740 0
587 -689 -1770 0
-1737 944 -1535 0
-901 1639 -66 0
-508 -824 -155 0
1810 59 -97 0
1251 -165 -808 0
1252 1780 -1303 0
1606 994 476 0
1840 1650 178 0
1677 -1938 1667 0
-775 1096 -1815 0
-1442 1187 52 0
203 294 753 0
617 930 672 0
145 327 -476 0
1408 1552 -1508 0
1156 1209 254 0
-1772 -1099 1634 0
970 1143 -1608 0
111 399 950 0
509 1920 -1901 0
1767 1924 -512 0
-767 -227 905 0
1895 1992 1143 0
-1161 779 481 0
964 -902 1995 0
1273 -1112 430 0
-298 355 -1650 0
-1829 1773 -627 0
-69 888 1945 0
1061 -667 1938 0
1282 884 -512 0
-1131 -1724 -1614 0
733 -1658 1624 0
-482 -219 -211 0
911 627 -196 0
665 -1736 -1312 0
-810 1079 10 0
1119 -56 395 0
-83 403 1007 0
-1692 -169 -1771 0
-1012 317 1987 0
-1735 -649 1227 0
176 1915 301 0
-778 -408 -569 0
-995 744 -1922 0
-957 345 843 0
-163 698 -442 0
-1152 -1585 -682 0
1007 -799 -1587 0
1234 -937 -1823 0
541 1555 -1871 0
-30 367 833 0
-122 925 -1561 0
-1350 -1856 667 0
-56 -638 -1407 0
-1344 -1974 122 0
879 596 437 0
1043 -1408 1423 0
348 -223 1662 0
363 -1532 1168 0
374 -1584 -1689 0
-1461 1497 1015 0
-711 1975 -1915 0
1101 629 591 0
-1802 -1977 615 0
-893 1507 -751 0
-278 -122 871 0
1370 82 -1442 0
18 1453 227 0
-1689 -1315 -1938 0
-13 -1804 688 0
415 -13 92 0
-298 -638 887 0
-1928 782 657 0
-1071 706 -1693 0
-1081 1376 -1618 0
-1131 -589 1578 0
894 -1889 -200 0
704 -1174 -1243 0
-1101 762 -1256 0
709 1177 -79 0
-1393 410 -1432 0
-1411 -201 -297 0
209 316 -819 0
-1317 -908 1954 0
221 -1751 1009 0
1625 -738 -635 0
-1410 -1444 454 0
-1697 165 716 0
-206 -1902 1789 0
891 1647 -1824 0
1896 -699 549 0
1490 498 -1689 0
-1154 1230 -1034 0
168 1419 396 0
-294 -626 -509 0
-708 1056 437 0
302 -1899 1798 0
1793 -224 1207 0
-1477 -1146 1009 0
118 -667 -1144 0
-305 747 -848 0
389 393 -1338 0
-752 481 -1033 0
1 987 -618 0
918 -170 -174 0
-1508 1158 -462 0
-1105 323 1716 0
1289 646 -857 0
1924 -1342 -854 0
-74 1833 801 0
-823 1631 -1608 0
-1372 -859 -415 0
-1112 -1757 1351 0
-52 62 405 0
829 425 -1107 0
-1302 516 -1765 0
-1508 1369 392 0
1153 394 -28 0
941 -1793 1530 0
1465 1927 175 0
-554 -1774 -1323 0
1859 156 1353 0
-422 -1118 1877 0
355 1704 1975 0
-238 287 352 0
-1351 -1503 -1872 0
978 -1603 -1326 0
215 1742 1984 0
-12 -1881 -308 0
-616 1306 -1686 0
1266 1687 802 0
522 -1743 1706 0
-1029 1718 -1735 0
-54 1864 829 0
-740 -1061 -731 0
1935 -111 -1856 0
1113 -335 265 0
1768 -1049 -1732 0
-1576 -1433 -723 0
-1539 1211 -18 0
-1490 405 1974 0
-726 1911 -1027 0
1319 -1139 -1975 0
-1129 -1468 1305 0
1054 -21 -1179 0
1896 252 869 0
624 -66 -1564 0
-1455 349 -970 0
-996 -1866 -1927 0
-1297 -1790 -1890 0
-1938 1556 1118 0
-930 1445 379 0
-403 152 1138 0
-1862 1380 -284 0
1767 1653 1014 0
1884 1058 -608 0
361 1500 -1847 0
-1779 -755 -212 0
-91 347 1166 0
-782 198 1735 0
527 -1339 -473 0
1975 15 -1570 0
1563 88 1224 0
-744 234 1203 0
-113 -670 -597 0
912 -1668 69 0
484 -1747 -302 0
121 -81 1382 0
23 98 -897 0
-813 417 1533 0
791 -1233 151 0
-1249 -779 1679 0
181 -1047 222 0
857 323 -772 0
-835 575 953 0
-1183 1903 1793 0
-1927 -948 1476 0
-428 702 -1249 0
1324 -93 -682 0
-1892 1783 -526 0
1183 -632 -1192 0
1677 1000 -1336 0
-776 842 746 0
522 -233 1823 0
-1144 -1432 1839 0
-1927 1805 1259 0
-1398 -346 1424 0
-1158 1148 -294 0
-1320 -225 -564 0
-770 -1544 -1918 0
-592 1893 -920 0
-1570 1647 1106 0
1972 -738 1311 0
-1204 -1289 1875 0
971 1204 -166 0
1588 1752 412 0
-1880 441 -1694 0
355 26 -605 0
1475 -1846 311 0
214 -806 -1059 0
1973 -1540 1607 0
-115 172 -394 0
1848 -622 -885 0
1435 286 1065 0
984 1643 187 0
1117 905 1495 0
1597 -370 -784 0
182 1154 1796 0
178 733 1098 0
392 382 1856 0
-829 138 -1783 0
-948 77 106 0
-1997 -1711 972 0
1910 -796 413 0
-1559 946 285 0
-1916 -226 920 0
-524 1759 625 0
230 -1235 -440 0
1696 942 1230 0
1564 1520 821 0
1099 -608 -536 0
492 -1945 -57 0
-1449 1074 -380 0
-1847 1461 137 0
457 -1731 160 0
-1728 -41 -1658 0
1211 1008 -1504 0
-1261 -1428 462 0
935 -125 -1791 0
1148 434 1953 0
1157 -245 -1075 0
-1168 402 1510 0
-977 1092 1994 0
-165 976 1591 0
1810 -375 -406 0
994 -1018 860 0
-130 1518 1566 0
1568 -496 -1375 0
-1343 -230 -639 0
-258 -299 744 0
621 672 -1225 0
-1686 642 1623 0
298 1347 363 0
1180 1814 -1405 0
805 1710 -891 0
357 332 446 0
-1092 1862 -361 0
-1333 1780 -1457 0
1705 240 -1811 0
-1107 221 1347 0
-1395 -1492 -1650 0
1821 659 627 0
-1708 -512 119 0
-1892 -1192 1260 0
-139 -1708 1319 0
1486 -1583 983 0
-1835 -27 -321 0
263 -367 583 0
1741 237 -1191 0
-823 -32 1094 0
1082 783 636 0
-967 -232 -326 0
-1504 266 -1203 0
-591 663 -1528 0
-385 504 -1236 0
1862 668 -1750 0
-312 809 632 0
-1980 21 -285 0
1682 -933 1284 0
-1037 -1540 1228 0
1199 1948 93 0
-1624 224 -1232 0
-476 -1423 539 0
-376 1040 -279 0
1772 -1964 682 0
1942 -1250 -917 0
-1722 1293 -1844 0
-700 1803 1103 0
482 -676 1444 0
-1550 534 365 0
-301 1574 1957 0
-1766 1429 -4 0
-943 839 -1433 0
-781 580 -1219 0
1326 667 -304 0
-1032 -879 -1184 0
-861 -1077 14 0
-1277 454 -1109 0
-1245 -1606 -360 0
-632 -1326 478 0
-1842 -1858 -1145 0
-1848 1903 401 0
216 -1101 -1989 0
-1829 -1573 -1497 0
-643 -599 -1150 0
484 -1125 -1816 0
870 -28 1470 0
736 -1250 683 0
1470 339 1261 0
349 -646 -1249 0
994 1405 612 0
435 -509 -1666 0
-1324 -351 1093 0
-529 1574 1675 0
-1018 -1703 848 0
1398 1359 862 0
157 -249 1142 0
324 -1198 -1441 0
-816 -137 -669 0
-1052 1149 699 0
1963 1863 1331 0
1255 -610 9 0
1721 528 -132 0
1241 980 -1502 0
-1500 3 -709 0
1651 -1477 -27 0
1453 959 -1481 0
1998 -646 1757 0
1475 413 -98 0
1547 -1786 -1116 0
1644 -589 -1931 0
178 -815 1664 0
-686 1673 1311 0
-1334 -685 539 0
-1639 1246 -207 0
1499 127 1046 0
923 -1384 1090 0
1394 437 -558 0
-1534 -246 -101 0
1386 -482 -926 0
-1212 641 -1302 0
-1360 -962 1836 0
429 374 -400 0
214 -624 -1238 0
1269 -1682 -1307 0
-494 -798 -54 0
-129 -724 1533 0
-1282 -1065 -1840 0
-337 753 1358 0
-310 9 563 0
291 964 1258 0
-828 -1181 823 0
-29 -107 -621 0
1136 -1662 -41 0
-445 -1117 9 0
-857 -1417 -1117 0
1990 -1496 -1623 0
-406 1473 178 0
-76 -530 1205 0
-670 -1378 1892 0
-972 1064 -256 0
1508 -886 749 0
-489 1984 822 0
-1527 -1716 950 0
856 -641 760 0
1797 1235 -1379 0
1873 -555 839 0
494 1337 -410 0
77 -259 1248 0
-1426 -1914 1092 0
-1466 1960 253 0
1158 27 706 0
-1595 1617 1556 0
624 -817 -1486 0
-1136 -1768 -651 0
-1628 17 1680 0
-1203 965 -218 0
978 790 -1114 0
687 -90 -777 0
147 -1933 858 0
1771 1050 -1844 0
459 1709 -710 0
-1545 -1780 693 0
1758 824 653 0
110 -581 119 0
95 1586 -572 0
1344 1431 -236 0
-188 654 643 0
1966 586 1298 0
-599 -1280 -126 0
73 834 -351 0
1542 -287 -247 0
388 -1707 -1452 0
-1302 -1147 663 0
522 583 216 0
-420 581 1387 0
455 1558 -1784 0
1231 -1121 1681 0
-691 598 1364 0
-1781 368 780 0
740 -1097 1480 0
737 -500 1643 0
-390 -25 886 0
996 -727 1794 0
1769 733 -848 0
1243 -1648 -477 0
-1815 1310 -200 0
991 1435 -1787 0
1454 -1378 1624 0
361 1401 1251 0
-823 1246 -767 0
1920 1874 -1634 0
-1163 -1723 -1068 0
-1890 1928 386 0
359 1559 503 0
1839 -1182 -587 0
-1590 -1125 -151 0
-32 -53 -1999 0
-1762 681 -1743 0
-1535 83 1741 0
-1861 -1284 -602 0
-1224 -190 -1255 0
195 1856 -1373 0
-786 -871 -44 0
453 748 738 0
264 1215 -1954 0
858 -751 243 0
-543 -1885 -911 0
-1362 -1276 -1582 0
-1895 -85 1239 0
707 -1332 -859 0
-1735 -891 -545 0
-1070 -771 1465 0
491 366 -7 0
-482 985 -1719 0
-1207 -1816 1333 0
1307 -1614 233 0
509 608 1013 0
-1007 515 619 0
837 710 -832 0
976 631 -556 0
244 1623 -586 0
-1286 529 -824 0
-1785 -924 -811 0
909 -1552 -983 0
-1403 -1229 656 0
-1061 -1785 799 0
592 258 1271 0
-331 -1456 -1283 0
1959 -1163 -699 0
-1017 -691 -1802 0
976 1758 -1130 0
-1263 681 1514 0
1722 886 233 0
769 1662 399 0
1850 -387 -1935 0
-382 -372 -1674 0
-1163 883 -285 0
-937 -1650 1783 0
1291 1217 553 0
-1837 -574 761 0
1899 -591 -47 0
1355 527 64 0
391 -552 1717 0
-509 1930 -1216 0
54 1378 -1073 0
-212 -1693 -1532 0
-1017 1209 -286 0
1772 -1942 1715 0
1600 1381 -531 0
991 68 -872 0
907 120 -393 0
-1388 1891 -638 0
894 1616 -1253 0
-921 -530 1844 0
-1995 842 1187 0
1465 -1533 -860 0
-1582 -2 -1182 0
-291 -1852 1589 0
1001 -1328 -162 0
-1722 -11 -1157 0
-1434 -584 -383 0
1333 -67 -594 0
-285 580 543 0
-426 465 1289 0
-253 -901 996 0
-128 -1971 1943 0
-1952 -712 -1459 0
1692 74 1259 0
788 -347 6 0
-337 -759 1843 0
1159 1782 73 0
-1929 1732 41 0
1451 1367 265 0
-1222 -972 1495 0
-886 -883 1929 0
679 -1928 1209 0
1213 1683 1311 0
868 -1494 1337 0
-1162 -940 318 0
-1102 822 145 0
-537 984 -1666 0
1720 -72 -1059 0
758 -913 -307 0
474 -1715 -1490 0
-1278 -54 1750 0
-1134 1876 814 0
1731 -1699 -472 0
57 1986 589 0
193 678 1997 0
-1355 1207 650 0
1126 1261 -350 0
-349 -1696 -1060 0
1421 114 1890 0
358 1906 -1096 0
24 1745 1565 0
-1094 -762 -1183 0
185 73 1063 0
917 375 1178 0
539 1266 -1551 0
1892 952 776 0
-946 1310 -219 0
1956 -664 1332 0
393 1574 1866 0
132 1303 1454 0
-1959 1901 -1505 0
510 436 1139 0
-1432 -242 330 0
834 -1569 -824 0
904 -1182 -25 0
718 -1374 -1391 0
-920 -86 -284 0
104 171 -703 0
1140 1244 1550 0
812 -1221 527 0
-1117 844 -346 0
1348 -1170 -793 0
-559 1172 -596 0
-1799 -949 1011 0
1357 447 1274 0
-1982 1720 -804 0
1626 -360 404 0
-1150 29 -209 0
1117 -1493 -657 0
-1862 -1531 28 0
-1125 -221 -1012 0
-17 1211 -1267 0
1807 502 1887 0
-1322 1556 1179 0
1571 -1598 -1108 0
-1010 -181 847 0
-146 1642 -453 0
450 998 -1211 0
962 -1348 -579 0
1691 -1999 939 0
-1689 1675 846 0
-22 1724 1260 0
1943 -1192 564 0
1202 -1821 550 0
136 -669 -1600 0
-663 1329 -410 0
595 -1983 1982 0
-514 55 -1376 0
-145 -1555 -620 0
336 1078 -1152 0
-163 511 573 0
1507 864 506 0
-181 1251 -252 0
192 -937 -222 0
-971 164 -1000 0
405 572 433 0
-357 1086 -1019 0
236 -430 -1426 0
-557 645 949 0
-1828 442 1683 0
1628 -1367 277 0
747 975 -1117 0
-104 715 -1050 0
1372 -1225 -995 0
140 1101 730 0
-1961 -525 1085 0
1412 346 809 0
1293 40 -1163 0
-1148 -1228 1854 0
794 1111 1487 0
561 1804 1099 0
131 1797 -655 0
625 1320 1048 0
1647 -382 -307 0
1483 923 -1899 0
-20 -691 -296 0
522 1061 -673 0
1837 1161 721 0
-1310 -257 -1181 0
615 -1059 -494 0
1710 5 1142 0
986 674 -1060 0
1735 1831 -79 0
526 779 -1582 0
-1044 -1399 1812 0
-1679 -1488 507 0
878 -1033 -216 0
-1361 -604 -1500 0
-1048 298 -1934 0
1749 -1730 -838 0
831 254 -1860 0
-1849 -1466 -625 0
-437 956 -1015 0
-906 1569 -956 0
-602 -74 1554 0
1754 -1227 -596 0
-215 668 -959 0
531 431 -1768 0
-969 947 -1388 0
1186 -1385 -737 0
-497 1867 1050 0
-283 541 -1892 0
1241 -145 1588 0
-1451 906 -100 0
1464 580 1791 0
436 1566 -283 0
-448 -955 -1222 0
-1523 1562 -906 0
763 512 572 0
-34 -12 23 0
815 -358 920 0
768 -1200 1552 0
-706 331 254 0
-633 -952 103 0
439 133 518 0
419 1396 -1510 0
-1221 1595 -1870 0
1144 -795 -1176 0
-435 -260 -182 0
-1858 -481 -1418 0
1730 74 393 0
-709 -1742 593 0
-928 -1815 1057 0
661 101 1344 0
1958 1669 -1877 0
656 -1542 1843 0
1241 -1725 -553 0
1481 -1728 365 0
-1992 1381 -1442 0
1845 1908 -173 0
-1213 -429 1598 0
421 188 1090 0
868 -1273 -1594 0
-975 317 -1937 0
-685 1019 -1720 0
1828 -163 1014 0
-1244 -1506 1114 0
-386 1661 -1428 0
-1239 1746 -809 0
-1275 960 1954 0
-667 -1342 1354 0
-204 1963 1756 0
1777 -833 -1462 0
-887 -546 -1292 0
-1188 -1910 1802 0
-1666 -1319 1232 0
550 794 -631 0
-1974 -1737 991 0
589 333 249 0
175 -1324 -749 0
-160 -706 1268 0
-791 -537 -1065 0
695 -1269 1124 0
-1276 745 -1812 0
169 -291 -1763 0
-723 1507 -1921 0
-1337 645 956 0
-845 -429 -998 0
-1263 503 982 0
-189 95 636 0
-910 562 -266 0
-1740 -211 21 0
1774 308 -381 0
-170 -346 1508 0
-998 707 -122 0
847 -1877 -1430 0
-1237 1847 -756 0
1694 -1458 -614 0
1694 76 505 0
-565 119 1676 0
-967 -1333 1830 0
1484 -1056 -157 0
1235 -589 -1369 0
-118 1151 1073 0
-661 -342 90 0
-1765 344 1625 0
-1074 714 -769 0
735 -786 -1395 0
-361 1931 -1656 0
1625 -120 -1461 0
1687 -268 1794 0
452 61 593 0
659 -960 -1987 0
1772 -118 1006 0
856 1552 1459 0
-1329 1254 -220 0
669 -1352 1401 0
-1589 1091 49 0
352 -1011 -751 0
-1686 443 -916 0
1606 866 1998 0
-1730 1162 -1864 0
1981 939 1250 0
-588 784 834 0
-381 -964 1718 0
1852 613 -1615 0
-1231 1920 -1544 0
1959 -855 -765 0
1355 1333 697 0
1670 699 328 0
-872 -85 175 0
-68 412 -1451 0
1271 -61 637 0
-1966 1547 780 0
-1396 -579 1373 0
-1412 1442 798 0
-933 712 -1189 0
-650 1981 1979 0
1518 1157 831 0
1449 1356 -1179 0
-1545 305 -304 0
521 1205 1529 0
-373 -89 1819 0
-455 1087 -673 0
646 1749 1976 0
-1952 922 -985 0
-773 1542 -243 0
-25 -1097 -41 0
-238 -1657 -1363 0
809 -539 -1523 0
288 -1500 743 0
217 1131 -1961 0
1941 -471 -1549 0
1323 1761 1313 0
-215 641 -619 0
-1122 -576 43 0
1696 703 1112 0
-1020 1985 631 0
-685 1570 1960 0
-1986 1219 1391 0
-1119 -1872 -305 0
553 472 280 0
1963 -494 1198 0
-1326 1594 -1178 0
362 -1929 589 0
1683 12 -1750 0
1992 -1776 -1059 0
-1709 -115 1562 0
286 -452 785 0
-1049 1723 319 0
562 -60 -1612 0
1697 -124 1253 0
-201 -1048 644 0
1870 -1835 -1726 0
-316 491 125 0
1194 -1515 -1966 0
-1176 -148 -642 0
-508 1414 -684 0
1670 -1862 215 0
899 1285 1322 0
458 -1749 -1518 0
-663 -25 1585 0
-1929 518 1711 0
-17 261 1036 0
-1053 -1110 1789 0
-633 223 -1024 0
-427 -1529 -1611 0
1516 -1920 1474 0
1714 264 -11 0
1703 -1472 1291 0
-1562 -324 -1967 0
1727 -1011 -1829 0
-791 -1908 763 0
-816 -229 -1755 0
-1921 -280 1228 0
572 247 -1376 0
-1321 946 804 0
-1101 456 -1000 0
-1578 -1610 1185 0
-1285 1580 -19 0
-1231 -1358 -642 0
1823 -190 -607 0
-1147 140 -1888 0
-1467 848 -447 0
304 -1750 -554 0
-1535 -1331 1211 0
129 -51 -982 0
-54 -229 360 0
1447 1312 1192 0
-190 -283 622 0
-793 641 1439 0
-1750 937 1504 0
1078 1257 -25 0
-1835 -1446 1803 0
57 1348 -299 0
1892 -1894 -395 0
121 597 331 0
236 1525 -937 0
-235 -6 382 0
521 1343 -823 0
1220 -815 -559 0
-848 1993 392 0
1589 -1156 1502 0
1753 1093 -818 0
-1083 680 1558 0
-1687 228 -1611 0
1343 172 1173 0
161 651 -1201 0
355 -118 1444 0
-651 -81 37 0
1859 1193 -510 0
-506 787 -1986 0
-1999 1486 700 0
-1019 -4 486 0
-1305 1432 674 0
1136 -1972 -361 0
-1789 -1492 -1400 0
416 -780 -1943 0
1951 -233 -355 0
-1991 1880 55 0
-1420 -238 -1084 0
1442 420 1224 0
430 733 -1923 0
126 1572 88 0
768 122 -290 0
1468 -1535 -939 0
1493 -1274 -1890 0
-1008 1947 -76 0
-1610 -1991 1814 0
-915 928 -229 0
1384 1851 -629 0
1664 582 -333 0
1622 726 -1549 0
574 571 -1855 0
1357 -397 -777 0
-1139 -975 1181 0
95 1695 627 0
1069 1700 -102 0
-1074 720 -1153 0
-136 -582 -1178 0
-1449 248 -407 0
-236 -1300 14 0
-770 -1987 1048 0
-1493 662 1662 0
450 348 201 0
131 -227 -1935 0
-1167 1845 936 0
426 1994 1214 0
144 424 1382 0
1552 -383 212 0
117 -690 1339 0
-1493 1857 1060 0
-795 1453 -138 0
-676 378 -1362 0
-1452 -1392 939 0
-106 -355 -145 0
-1431 656 -386 0
1751 725 -860 0
1432 -1563 -1893 0
-691 -1057 1176 0
683 1959 -1723 0
1746 -1421 -81 0
-1886 -1792 1007 0
1748 1004 -64 0
-1366 -1883 32 0
504 584 -237 0
418 835 1567 0
764 872 1533 0
1024 -620 -1100 0
-1763 -1420 -1408 0
-1931 876 808 0
68 32 1099 0
-1371 -239 1079 0
159 -1762 -1827 0
274 -1749 1412 0
455 -1939 124 0
-699 1787 845 0
423 -1495 -905 0
-381 1656 -1536 0
-1679 1819 962 0
1477 352 -1320 0
-1181 979 -638 0
1551 1891 1619 0
-213 1007 -1015 0
1213 -1034 1951 0
278 144 -603 0
-160 -368 -1220 0
-1464 594 -1251 0
370 873 -1980 0
-1475 8 445 0
1303 1990 -1333 0
212 1952 1851 0
-1453 -454 1107 0
-1142 -214 -1054 0
1543 -574 -1641 0
941 -788 1275 0
-218 -563 -1342 0
-1137 278 -1476 0
-1541 -642 -1498 0
-33 209 552 0
-1151 -1327 -570 0
-1518 779 963 0
377 -1020 -1466 0
-1657 -1925 1456 0
653 -1943 -1406 0
-1594 915 -1967 0
1388 -1951 -92 0
-146 123 1006 0
1864 -468 1151 0
1529 1964 1754 0
1413 750 -354 0
885 1137 1253 0
-73 1638 316 0
-1660 -682 -164 0
-1279 1073 -350 0
9 490 984 0
-299 -703 -1223 0
-1599 1902 1838 0
-1902 -718 -883 0
-1615 586 1840 0
-597 1249 -409 0
1062 -988 848 0
211 -1083 -697 0
-505 1158 -1162 0
-1658 -729 -675 0
873 -1506 -474 0
1258 -317 1923 0
1254 737 570 0
-1882 1571 -704 0
-745 829 -83 0
-1599 1060 1477 0
966 -1289 -1041 0
37 -1440 946 0
1678 1533 -528 0
-672 -796 1822 0
655 -780 1689 0
570 1144 -1983 0
358 -486 238 0
635 -724 -1585 0
-1774 882 1107 0
-71 -811 -443 0
-107 -1331 1669 0
804 556 1234 0
-1599 501 -441 0
-1084 -127 -66 0
1587 -1082 -1427 0
-1122 -334 -484 0
1101 645 1694 0
1318 781 -474 0
-1836 409 1766 0
1034 -1270 583 0
-453 1024 637 0
475 -775 321 0
343 -488 1251 0
629 -700 1775 0
-1558 489 -1912 0
1318 168 708 0
25 1574 976 0
1648 1879 937 0
1961 -133 1580 0
1800 1666 -1422 0
1229 1859 82 0
-1576 -1109 1752 0
-1249 -1716 1699 0
-1243 1908 -143 0
-1488 391 -1489 0
594 -1474 -1439 0
-712 -1336 716 0
-1849 1498 -951 0
-33 -140 -481 0
643 -1073 -654 0
-1077 -1813 -1902 0
-1299 1949 -786 0
-1242 -1596 1397 0
1141 -1806 745 0
957 415 702 0
556 1071 648 0
1528 67 1104 0
-1049 978 965 0
-891 -1998 1731 0
-476 1763 -1501 0
-113 373 1440 0
-1259 1313 -250 0
-26 -502 1144 0
692 366 -618 0
1490 -976 783 0
1544 -1821 -712 0
1282 -307 -1393 0
710 1187 -1330 0
1174 721 541 0
-627 -875 -459 0
-103 -798 -1200 0
-1003 273 -783 0
-435 1023 -220 0
-1126 236 235 0
-1842 102 -939 0
1072 -464 -1534 0
-714 1106 -1674 0
-1159 1142 -517 0
-744 1520 -67 0
931 -494 -813 0
1039 -1971 -638 0
643 240 204 0
-1854 1052 -477 0
-111 1932 -1498 0
1406 -1870 -643 0
-1448 -1938 -590 0
-1252 -623 -31 0
-1176 -244 -1619 0
455 289 907 0
-1169 832 602 0
1414 -58 1669 0
-674 -144 -1967 0
-159 -1255 -1562 0
-1984 906 -1358 0
-1382 1246 110 0
-70 -460 1201 0
-724 -177 1455 0
801 -1785 -1887 0
-415 1263 189 0
1580 -311 325 0
-375 532 1927 0
1796 1315 1930 0
-709 131 -942 0
781 -91 -1670 0
1202 -1227 -1112 0
-1210 1232 558 0
-836 399 1876 0
1106 39 1049 0
1441 -1788 -1948 0
-1747 -311 1524 0
204 498 -452 0
294 -3 741 0
-1145 -1420 -1030 0
1902 25 -302 0
-9 -1834 1948 0
1905 1757 -500 0
360 -613 -282 0
-1408 -47 -964 0
-917 -425 -1105 0
-1537 1711 1238 0
-448 1945 540 0
86 -583 364 0
934 1806 -308 0
-356 1136 279 0
-760 1660 -691 0
-1000 -286 1334 0
-83 130 -722 0
-1859 143 1313 0
-433 -1408 1402 0
-345 -1564 -1286 0
-390 -535 -1335 0
1619 741 -391 0
48 159 1705 0
-98 -329 1424 0
-870 363 -1932 0
-754 -1371 660 0
-1502 -1179 -1970 0
1315 1534 967 0
-150 1241 -625 0
202 -195 690 0
-822 -1775 1225 0
388 195 956 0
-1116 -1303 -8 0
804 -273 493 0
1794 1243 1936 0
625 -1060 1 0
-344 -550 180 0
595 -785 -1311 0
-1804 -463 1075 0
-1537 -1182 -527 0
-1027 -1337 -1855 0
-825 -1902 -1824 0
1073 -236 -1280 0
-123 1119 -1513 0
876 529 886 0
-1702 -1813 -1486 0
-193 -442 1768 0
627 -25 1282 0
-432 -1790 1377 0
-1444 1359 -1172 0
625 -565 -711 0
-484 -1370 1920 0
1918 -596 623 0
691 -689 96 0
-1737 1996 -118 0
1328 -1120 -462 0
602 -274 -7 0
-1802 -290 -422 0
-339 -1520 -784 0
1514 1852 660 0
-538 20 950 0
998 1171 -1914 0
1682 -1655 1073 0
1741 1566 223 0
1642 582 1544 0
1686 608 -849 0
660 1951 179 0
731 -1776 -52 0
1086 -1644 591 0
-1868 -1072 1389 0
-790 1280 1928 0
1909 337 11 0
-15 1457 -395 0
189 -205 -1965 0
1897 1194 -269 0
1518 -1750 639 0
-389 -1195 1367 0
1884 -835 846 0
-854 1040 711 0
-422 -838 -1567 0
452 927 1389 0
-1395 306 607 0
1669 1602 1818 0
-1333 -1839 139 0
-307 301 984 0
-475 1123 -1598 0
1976 -1529 1931 0
1039 -1532 -775 0
81 -1496 1305 0
907 710 -693 0
1883 1121 698 0
-226 472 1979 0
658 -1862 1471 0
1832 1774 659 0
-585 93 290 0
1682 -579 254 0
-108 1997 762 0
-668 1770 -1532 0
64 1816 -1833 0
1179 -522 -1336 0
946 -1311 1185 0
995 -859 -1945 0
640 -58 1817 0
501 1635 146 0
-707 1724 973 0
-12 1413 -1626 0
-1415 1971 324 0
271 242 1802 0
-962 -271 1124 0
1439 -303 -252 0
522 1504 1519 0
-693 1501 -1106 0
-1630 -1953 -150 0
1190 1089 -643 0
-330 -926 1880 0
445 293 1314 0
-1990 -1880 -308 0
-723 1568 479 0
1025 1704 1585 0
-1658 -779 -337 0
-959 -41 579 0
235 -18 818 0
1343 -1836 1115 0
1919 -958 -661 0
1142 1986 1301 0
-1227 -420 1106 0
951 -1970 1972 0
1185 445 1352 0
-1135 77 908 0
1019 -1724 -981 0
-1728 -1879 655 0
-1985 1272 586 0
1366 892 -477 0
-1548 605 704 0
-1051 -431 -1774 0
-690 769 537 0
-756 -461 981 0
-1435 -1275 1993 0
1050 -95 1600 0
-850 79 1658 0
-1783 -172 -329 0
-705 232 -1584 0
-572 -1943 15 0
-1854 -1183 -1741 0
88 1132 -885 0
1184 1460 231 0
-1179 432 -1176 0
-202 122 1012 0
245 -289 457 0
1611 79 -1098 0
1202 -367 1044 0
-614 135 125 0
-34 -940 1564 0
-1861 573 -426 0
570 1473 -370 0
-555 734 -629 0
232 -1808 1214 0
1674 -932 -1209 0
61 896 -1239 0
1944 -169 1750 0
473 412 -549 0
-465 796 407 0
-1677 1057 -451 0
-1206 -1860 292 0
-1664 965 -724 0
501 -480 1394 0
-1839 -1277 -72 0
-1026 1654 951 0
-1669 380 1803 0
751 26 434 0
-593 1189 -1566 0
1936 -1586 1145 0
-428 1648 -1891 0
231 1699 -6 0
-1960 -1525 1448 0
-978 331 -833 0
1080 -1566 -1057 0
1183 1233 741 0
-768 -451 612 0
798 75 801 0
1456 91 903 0
-1199 -7 1368 0
-991 972 -1410 0
1085 -1315 1980 0
-460 363 -394 0
45 370 1545 0
-225 -44 1392 0
1762 1351 -138 0
1704 -869 -553 0
1917 -1276 1423 0
181 1561 8 0
-806 823 -310 0
1238 356 1072 0
-378 -160 -1740 0
-1217 -927 -1390 0
1037 -120 3 0
-250 70 158 0
1884 661 1640 0
1318 -1209 -676 0
-413 835 -1377 0
-167 -217 546 0
-1168 363 -1466 0
-1867 1255 1433 0
-358 1766 1082 0
119 -1051 121 0
-1326 -100 -686 0
1430 68 671 0
356 1195 -1975 0
-924 -440 -703 0
-836 -205 -614 0
-162 -1333 633 0
981 1393 -1930 0
-452 -136 1233 0
-417 -682 -1380 0
1021 145 -1180 0
807 57 -1501 0
-1900 106 332 0
-665 396 -633 0
750 708 -447 0
1243 -1764 -119 0
1285 -1912 -1228 0
-1631 1917 -1298 0
231 1845 -683 0
1985 517 1505 0
1689 -383 -869 0
-1590 -159 -906 0
-1673 1668 -850 0
-1357 642 1251 0
1760 832 -1771 0
-1176 418 711 0
-1693 -515 61 0
208 -552 1461 0
-69 -122 157 0
1424 -1089 1718 0
-1149 -101 1390 0
-377 -1271 738 0
-1361 -1787 -1754 0
1691 1333 -1766 0
-1395 -1136 1511 0
-1062 -25 -1067 0
-46 1906 -109 0
-1482 -577 1603 0
-98 1077 -493 0
1516 -1133 -1517 0
-1017 1308 -548 0
-1702 1965 -1519 0
1204 191 197 0
741 -933 94 0
1065 -555 1008 0
-1034 -212 -1707 0
-416 300 557 0
-1469 -1423 1222 0
1378 -186 847 0
-809 -497 1374 0
1339 1763 -1906 0
691 -363 711 0
1337 -659 1033 0
1094 1354 -95 0
-572 -1800 -1802 0
-947 250 -1358 0
1332 944 1081 0
-1103 -1136 227 0
-869 82 -1871 0
1212 887 1935 0
-15 -1090 60 0
1059 45 1621 0
736 1509 -851 0
1033 -16 947 0
239 689 1807 0
-908 525 412 0
-1702 1104 643 0
