c Random 3-SAT formula for benchmarking
c Generated with seed 71
p cnf 100 426
42 -66 80 0
97 26 34 0
77 -25 -65 0
98 17 -45 0
78 4 -50 0
56 58 13 0
-20 -32 95 0
-33 45 27 0
13 -32 -38 0
-64 -99 73 0
27 39 -80 0
-61 70 -42 0
90 96 4 0
-61 42 -90 0
-19 7 64 0
-77 -12 -28 0
-55 -34 -40 0
-71 64 -1 0
-39 83 73 0
55 -9 42 0
-58 -87 74 0
-37 -49 -14 0
-93 -83 -3 0
-53 87 -33 0
-78 -61 10 0
-62 -96 88 0
-58 85 64 0
-8 73 10 0
-84 22 -25 0
19 2 62 0
83 -97 87 0
-4 8 -48 0
-84 -95 97 0
-91 33 -47 0
-38 -9 -8 0
-99 77 -7 0
-37 56 -42 0
94 -77 63 0
-67 -59 28 0
-71 -38 -57 0
92 33 -36 0
51 78 12 0
31 15 54 0
68 100 25 0
26 -63 45 0
73 -24 -50 0
-30 72 77 0
-59 -95 77 0
26 43 84 0
-87 22 -83 0
-57 55 47 0
-23 -22 -35 0
69 -39 -83 0
5 -95 -33 0
-75 11 55 0
-82 71 3 0
-61 73 58 0
58 54 -89 0
-48 95 5 0
14 12 2 0
39 85 -49 0
15 62 17 0
24 35 55 0
-99 39 27 0
-22 11 -94 0
38 -47 65 0
-41 99 88 0
66 -9 7 0
79 66 20 0
86 -29 -47 0
51 -18 -37 0
-24 -94 20 0
39 -83 -42 0
59 -53 -9 0
97 -33 -91 0
10 53 30 0
81 31 29 0
53 77 76 0
-94 78 96 0
100 -59 -20 0
-93 -82 -52 0
93 -36 58 0
-69 59 -21 0
-5 32 47 0
-69 73 -52 0
-46 67 -29 0
-37 -38 77 0
-10 15 50 0
-32 -51 83 0
12 67 11 0
17 -30 34 0
16 2 -84 0
-95 -78 51 0
-96 20 -57 0
21 -40 48 0
21 56 49 0
-1 70 100 0
-69 4 -68 0
20 50 -11 0
55 26 -35 0
20 29 -12 0
28 -83 100 0
-62 -23 -93 0
-29 -24 -9 0
-64 -99 29 0
-37 83 -88 0
17 -72 -95 0
21 -86 -4 0
-58 54 35 0
69 29 1 0
2 18 -41 0
-22 1 38 0
-29 -5 -88 0
51 -35 60 0
70 -73 -65 0
-30 -34 11 0
29 -30 17 0
24 -20 -5 0
47 26 36 0
-24 34 40 0
47 95 60 0
30 71 -36 0
82 78 -71 0
44 -92 5 0
-78 66 23 0
-93 21 -6 0
-53 -30 -39 0
100 99 61 0
-11 98 97 0
-22 -5 53 0
-73 62 -31 0
-3 -50 -72 0
-10 49 100 0
44 -15 -66 0
-94 -42 -85 0
46 85 -74 0
-99 -75 36 0
60 -85 -10 0
-49 -86 -44 0
87 49 100 0
-96 10 56 0
-19 -74 95 0
-69 93 24 0
-53 62 50 0
-74 100 84 0
64 18 54 0
63 83 -85 0
30 45 -86 0
67 44 57 0
-74 -13 -20 0
-94 89 65 0
100 -19 -37 0
97 -73 31 0
-77 7 41 0
-35 25 -44 0
-42 25 12 0
87 -97 89 0
29 7 -42 0
-59 -74 82 0
-83 -64 -56 0
-3 18 -25 0
61 -10 56 0
-89 24 29 0
-87 56 -71 0
-17 -9 25 0
-21 -85 83 0
90 56 12 0
-49 -32 -31 0
6 41 -51 0
3 94 58 0
66 23 -74 0
40 92 -41 0
-62 72 40 0
57 99 45 0
56 81 44 0
-8 62 71 0
34 -17 92 0
9 -64 -44 0
-56 83 32 0
1 -23 88 0
55 -17 -65 0
92 -86 -90 0
4 86 -34 0
-49 -32 -16 0
97 -62 -17 0
-92 -67 11 0
-63 -67 -70 0
-13 -83 97 0
-10 -56 59 0
40 -1 63 0
-92 -48 -36 0
-60 74 1 0
-28 73 -23 0
-87 -4 18 0
61 36 -50 0
47 68 60 0
10 -50 72 0
87 -72 -41 0
-23 -7 -1 0
60 76 -14 0
93 -32 15 0
-92 -52 -84 0
-20 97 -9 0
-14 -43 -87 0
26 -13 7 0
-27 -15 89 0
12 59 -81 0
86 64 -56 0
-53 97 16 0
45 22 63 0
-54 -16 -84 0
-7 -2 45 0
-37 40 -10 0
-88 -13 5 0
72 23 61 0
-62 -31 -61 0
-29 -24 11 0
-35 -45 -79 0
-100 73 -75 0
-59 35 -70 0
65 -1 -34 0
82 -75 -3 0
-42 44 -14 0
23 82 -51 0
46 80 -45 0
30 -94 89 0
-36 86 100 0
43 -100 31 0
92 -15 48 0
-72 -10 -1 0
-89 65 1 0
14 50 3 0
-24 -62 34 0
71 -84 61 0
55 17 80 0
74 -17 -29 0
64 15 -57 0
-29 18 97 0
-60 -83 -19 0
-59 49 65 0
-47 -89 60 0
-59 99 -21 0
-63 -15 76 0
55 -5 -30 0
9 86 -34 0
-13 -90 82 0
-18 74 -93 0
52 80 72 0
83 62 23 0
100 43 -5 0
-14 81 89 0
-33 100 -73 0
-99 -58 -27 0
-56 71 62 0
46 79 -91 0
3 -44 -42 0
43 57 -34 0
-82 -75 -31 0
-95 51 -91 0
-65 10 -100 0
83 -14 -29 0
-55 83 74 0
-49 86 -30 0
97 -11 -51 0
-100 -99 -61 0
-97 21 -94 0
44 76 16 0
8 58 44 0
83 51 72 0
25 -38 -93 0
-18 -28 64 0
-63 -71 -94 0
-2 -15 34 0
50 -22 93 0
-68 -47 -99 0
55 18 83 0
-59 -11 -86 0
-95 -70 40 0
53 85 18 0
96 83 5 0
-73 34 -7 0
25 -75 -38 0
-2 5 35 0
28 41 -10 0
-12 -50 -54 0
-31 -74 15 0
-49 -13 -59 0
69 -33 -1 0
9 -11 -4 0
-51 -10 44 0
85 50 96 0
85 -40 16 0
-31 3 -24 0
-28 -29 -36 0
71 31 -54 0
-93 -43 82 0
-5 -89 74 0
-24 29 54 0
-97 19 -38 0
-23 -17 -51 0
14 -75 -89 0
21 94 -98 0
-25 -26 -31 0
38 39 -37 0
-8 28 61 0
12 -22 23 0
-1 14 51 0
30 87 6 0
33 -55 77 0
88 13 66 0
-13 18 -62 0
-11 56 -3 0
19 54 -76 0
-96 -87 60 0
45 -69 24 0
-86 17 -100 0
21 53 86 0
-5 -75 -89 0
-90 -9 55 0
98 -31 42 0
50 84 25 0
14 -33 -60 0
-18 -82 16 0
92 -45 5 0
-89 -70 -58 0
-7 15 69 0
-86 -35 39 0
-22 -78 -68 0
-100 12 -34 0
-8 -19 72 0
-59 -33 -74 0
-13 -18 93 0
-28 85 -49 0
60 36 5 0
-12 75 59 0
-33 -2 50 0
-69 -19 90 0
-30 -20 -75 0
-76 26 72 0
29 -84 -20 0
3 -53 1 0
85 53 74 0
38 -57 -4 0
-26 -32 -61 0
28 7 -14 0
26 -97 -85 0
-96 -45 62 0
-51 -14 39 0
50 82 -5 0
92 -71 -45 0
-3 -2 -96 0
32 25 73 0
19 -48 51 0
-39 24 -56 0
-28 1 -63 0
57 -76 1 0
-85 -32 18 0
38 -96 -6 0
57 -3 -75 0
20 -30 -65 0
57 32 -26 0
-8 -57 -78 0
95 84 -3 0
-93 -79 -61 0
64 65 72 0
-12 -22 71 0
-16 94 -92 0
56 57 -46 0
53 -8 -32 0
80 -40 78 0
76 -15 -21 0
-35 56 37 0
31 73 50 0
38 -73 -92 0
60 -42 7 0
-15 -63 -40 0
62 90 -79 0
44 -43 -75 0
30 -61 10 0
75 40 -35 0
-94 41 -2 0
12 94 -49 0
58 8 -85 0
-88 -33 87 0
-80 -12 67 0
-47 8 -82 0
-93 89 43 0
-40 -66 80 0
-77 -16 -86 0
59 -57 -61 0
-29 64 -25 0
37 -72 -52 0
-93 98 -83 0
-86 71 62 0
-85 60 -24 0
4 13 -94 0
-7 -83 -87 0
-3 35 56 0
-71 18 14 0
-89 86 -53 0
-34 8 61 0
-66 -95 25 0
-90 -67 -68 0
-53 -64 93 0
38 -37 -16 0
-95 -86 -15 0
13 32 95 0
-8 -41 -21 0
95 38 -16 0
-94 -46 17 0
-2 74 -26 0
-56 53 62 0
-23 -70 40 0
-17 -6 39 0
-4 41 -80 0
7 -53 -8 0
18 -24 39 0
39 -93 -23 0
41 -49 91 0
33 80 -25 0
71 -92 -43 0
-82 -70 -33 0
34 -28 37 0
17 43 1 0
-92 78 -64 0
-45 86 -30 0
