c Random 3-SAT formula for benchmarking
c Generated with seed 73
p cnf 500 2130
-144 63 -258 0
-153 -301 38 0
-231 -57 12 0
-213 -181 -286 0
-93 438 29 0
-238 -367 409 0
-118 -13 112 0
476 391 -438 0
44 43 402 0
-285 -73 225 0
180 440 -156 0
-56 412 220 0
-186 -211 86 0
70 -124 -474 0
-212 133 -365 0
18 384 -394 0
274 240 -281 0
24 -117 57 0
447 -356 478 0
-349 365 303 0
453 106 -388 0
69 413 -197 0
-131 290 -194 0
393 -244 -178 0
-242 -199 -88 0
269 -326 -366 0
-345 -36 46 0
-321 -499 -164 0
212 396 1 0
-26 -190 -110 0
-52 -1 -258 0
324 -185 1 0
-97 -360 327 0
382 78 -307 0
-310 60 273 0
-348 -251 -46 0
433 -441 112 0
302 440 -131 0
-399 358 -17 0
368 438 -442 0
224 481 139 0
126 -90 111 0
-372 -90 36 0
-111 362 -313 0
-281 -79 -360 0
211 474 -378 0
-297 -7 -102 0
237 86 17 0
-432 49 -28 0
-158 -11 -390 0
-189 -34 -237 0
306 -164 359 0
60 437 148 0
198 -495 -212 0
350 131 -410 0
-274 321 -492 0
215 398 392 0
-168 -137 -312 0
-313 -200 120 0
-50 274 -54 0
492 474 -326 0
-345 123 113 0
-191 -265 384 0
-252 -270 340 0
-200 460 -413 0
-305 -347 -177 0
-107 -366 -248 0
499 -131 12 0
95 -265 96 0
-494 -308 237 0
-119 71 75 0
-406 188 -202 0
266 388 -137 0
258 -376 -494 0
-274 -305 404 0
-397 -281 -64 0
361 -87 327 0
208 -322 412 0
444 -366 -203 0
342 -240 -164 0
-405 453 46 0
-20 -437 -452 0
346 373 287 0
-402 360 -287 0
-173 -207 73 0
-321 -352 -254 0
23 -151 489 0
-492 207 300 0
354 -499 24 0
-81 -10 -157 0
234 -346 456 0
46 401 -386 0
368 -441 -398 0
-402 -123 62 0
454 -78 411 0
-55 14 -447 0
-93 -302 -224 0
5 430 -394 0
349 -410 351 0
-92 -103 -252 0
-212 117 -172 0
-27 -286 136 0
432 411 390 0
-63 199 -425 0
-15 -210 148 0
-439 265 331 0
-7 415 175 0
-433 -112 377 0
-90 121 312 0
118 -402 -149 0
54 209 -346 0
-16 278 -357 0
32 -368 188 0
498 59 76 0
382 462 -401 0
-225 -249 331 0
-449 -447 -303 0
-455 302 -19 0
-177 -191 207 0
64 -421 -23 0
-195 497 -280 0
369 327 105 0
-128 -306 -285 0
-256 -403 234 0
-465 -75 -204 0
-457 -321 306 0
-24 -329 186 0
-374 -234 -339 0
-347 3 65 0
-383 -13 168 0
8 480 -380 0
96 168 -36 0
418 106 -273 0
260 -73 410 0
-110 -424 -76 0
-222 443 254 0
324 -446 -82 0
-27 -136 -418 0
301 -421 481 0
65 -126 -203 0
184 254 -3 0
-369 -156 269 0
132 -125 500 0
-498 -182 265 0
-77 168 429 0
309 -220 -110 0
427 -168 135 0
-166 -351 -134 0
70 -248 -18 0
-201 -340 158 0
375 -131 273 0
410 -452 319 0
-106 -303 420 0
291 156 166 0
-351 -467 142 0
452 386 -429 0
405 223 396 0
198 -190 290 0
382 -406 -12 0
263 -206 -188 0
-33 -325 330 0
-488 207 234 0
380 -287 -223 0
-259 -445 146 0
497 -55 446 0
429 -321 -80 0
-369 423 67 0
219 -106 93 0
-431 336 371 0
207 304 499 0
-84 302 404 0
376 -58 10 0
220 -29 431 0
193 265 69 0
-96 188 -262 0
5 -240 434 0
-214 -99 208 0
104 33 -28 0
-211 317 48 0
26 -100 181 0
95 388 43 0
-369 -107 352 0
-81 399 -319 0
429 208 -274 0
373 66 393 0
-438 -269 43 0
313 327 -477 0
255 298 -304 0
114 394 102 0
-455 -177 294 0
-201 -150 -81 0
-46 -152 -299 0
-377 -77 -298 0
233 -464 266 0
-169 463 484 0
239 6 -79 0
-30 -346 -256 0
-104 79 234 0
320 -108 -192 0
-86 45 465 0
-306 336 23 0
-422 359 -283 0
-464 -81 -428 0
-441 -412 373 0
-140 205 -447 0
-259 308 496 0
294 -74 -36 0
-251 114 460 0
-5 -385 -419 0
-291 -300 -447 0
492 -468 178 0
212 392 -321 0
-115 -304 -87 0
201 364 277 0
306 -199 -393 0
51 73 214 0
-365 194 -352 0
303 125 -279 0
189 -346 -177 0
-375 -85 -94 0
463 284 -15 0
-237 226 497 0
-238 -288 -278 0
45 464 187 0
-186 -218 126 0
2 -393 386 0
482 -235 389 0
368 -324 -281 0
18 208 361 0
-134 -285 343 0
149 -283 -264 0
406 -38 163 0
-371 332 -162 0
-384 221 140 0
-95 299 -138 0
-263 479 143 0
358 133 -213 0
47 -93 452 0
-499 -226 -488 0
143 -184 -481 0
366 274 -210 0
-235 -469 123 0
-91 -288 273 0
132 -37 247 0
-269 371 -178 0
126 -135 -426 0
-47 -421 -97 0
-196 115 -189 0
-265 126 95 0
3 -125 335 0
387 454 -113 0
287 -447 404 0
262 -371 223 0
-186 135 -79 0
403 24 473 0
13 186 327 0
-45 391 104 0
188 219 16 0
326 -114 -287 0
-426 -126 -500 0
62 -432 -342 0
-288 -228 -351 0
-291 207 -66 0
269 -495 -187 0
-334 -25 -431 0
-292 -254 133 0
-262 139 -475 0
-346 -434 -477 0
70 141 146 0
264 -139 423 0
-51 247 -470 0
-207 -18 48 0
498 261 34 0
-72 449 -165 0
-186 -424 -440 0
329 -436 491 0
75 26 325 0
103 -77 55 0
-205 351 80 0
219 -29 -395 0
475 -471 -179 0
465 -88 381 0
-46 327 161 0
331 209 -12 0
-186 205 393 0
-466 113 -307 0
-210 -85 -308 0
52 297 246 0
-416 -191 366 0
194 -184 -209 0
-259 -159 -197 0
92 346 -89 0
239 460 288 0
-98 499 -94 0
45 137 194 0
58 205 20 0
-84 336 -418 0
20 277 443 0
-154 321 119 0
464 -128 292 0
411 234 -149 0
470 198 335 0
-261 -459 -284 0
-313 463 -391 0
-372 -303 64 0
286 366 310 0
-188 -273 -116 0
-21 160 436 0
-162 383 6 0
439 -440 -218 0
261 347 -186 0
-104 120 -261 0
313 251 114 0
200 499 49 0
-408 -459 -88 0
218 44 -60 0
-271 -73 468 0
491 -383 295 0
500 -458 183 0
-152 419 -272 0
-91 113 131 0
-499 -259 171 0
325 84 -287 0
109 -326 441 0
-337 -249 -433 0
-156 -21 56 0
-448 423 366 0
9 -121 -57 0
446 -483 95 0
476 -64 16 0
298 -344 116 0
-307 -249 473 0
-283 499 -299 0
-486 274 -342 0
299 -433 -35 0
27 -426 -481 0
437 209 180 0
95 196 217 0
411 102 94 0
204 244 125 0
-10 56 70 0
10 -7 -323 0
276 -334 -177 0
146 -408 -351 0
-176 195 16 0
-319 -249 134 0
-126 -204 -471 0
319 -84 96 0
-192 250 -168 0
147 226 -275 0
370 71 312 0
-107 240 -46 0
182 307 251 0
-233 3 246 0
342 -75 -427 0
149 109 -363 0
-21 -74 -339 0
381 -497 440 0
88 222 395 0
65 408 -288 0
70 298 274 0
-284 384 260 0
241 -326 279 0
-173 -335 -87 0
470 308 -176 0
-144 -17 109 0
-230 -228 -182 0
-227 -154 -337 0
-327 252 -293 0
-341 -434 -129 0
21 320 430 0
-298 152 -174 0
-139 -212 210 0
193 -355 -330 0
-207 487 -149 0
-69 -310 -24 0
-351 15 11 0
-83 208 20 0
-373 -308 171 0
-280 -194 -62 0
-380 -416 -265 0
-47 -271 -421 0
-448 -197 453 0
479 148 -253 0
12 448 310 0
485 -279 -349 0
-231 310 -387 0
132 -385 -223 0
64 -321 494 0
-77 471 370 0
-92 -396 -250 0
496 405 63 0
-195 -179 274 0
302 -349 469 0
367 -283 136 0
-208 203 -20 0
252 374 -31 0
264 -378 -294 0
276 73 81 0
366 17 3 0
241 -49 -420 0
-208 105 184 0
-462 414 -417 0
201 -44 226 0
-22 -455 -302 0
-411 450 -449 0
-261 54 324 0
-363 96 -493 0
-261 403 278 0
-166 -126 125 0
-315 -302 -395 0
-249 421 -136 0
452 216 306 0
-22 166 92 0
7 -109 293 0
471 -475 -378 0
-191 486 386 0
434 -349 -202 0
-293 264 146 0
312 149 -259 0
-303 -155 351 0
284 -442 241 0
259 -302 340 0
-275 445 315 0
-76 301 66 0
-244 -258 -81 0
-201 28 86 0
213 62 -39 0
-238 -60 -403 0
-418 54 120 0
-185 183 82 0
266 338 -61 0
454 -42 -32 0
65 -92 -286 0
-229 348 -135 0
-366 63 -85 0
302 457 169 0
-418 -385 -294 0
377 -217 -432 0
-462 -23 448 0
56 138 269 0
-303 35 463 0
-270 204 -451 0
-60 -442 97 0
431 -451 450 0
-163 273 -402 0
50 378 -141 0
71 411 3 0
-484 -398 490 0
132 113 466 0
165 62 94 0
-395 -26 331 0
477 494 -340 0
230 294 -3 0
-424 -185 107 0
247 -389 -131 0
-304 163 -126 0
-462 -198 -283 0
-349 292 -83 0
-210 212 282 0
-180 -462 323 0
-233 -122 -394 0
111 -48 -229 0
131 269 291 0
-212 -39 450 0
-105 -83 -378 0
343 -447 493 0
149 378 374 0
-457 179 53 0
381 -336 -91 0
478 -149 -27 0
-162 -264 17 0
423 160 -472 0
-229 53 312 0
408 -420 -288 0
-87 237 270 0
-135 35 301 0
363 425 189 0
297 282 288 0
-393 279 -42 0
395 31 -104 0
-337 -366 -2 0
329 386 152 0
358 -9 336 0
-329 -255 209 0
-73 448 434 0
292 337 -253 0
276 168 -401 0
-257 12 -326 0
245 -108 -131 0
4 264 360 0
476 -47 244 0
-112 -123 -289 0
-309 -141 370 0
311 -284 -87 0
-345 196 -332 0
428 -225 241 0
-464 201 -479 0
-361 -367 -251 0
473 146 -47 0
-98 468 -192 0
160 -67 247 0
-133 171 -300 0
-75 -188 -43 0
-441 321 278 0
376 30 222 0
-394 421 85 0
-91 -432 453 0
418 102 233 0
-259 -52 485 0
-220 487 429 0
-444 447 -360 0
-458 -216 406 0
-462 -446 -203 0
162 -114 -27 0
-185 500 -224 0
-164 -15 -483 0
285 275 375 0
390 -5 3 0
483 -428 380 0
117 75 -499 0
-394 323 -317 0
363 -261 -147 0
257 229 159 0
192 415 -400 0
498 39 -479 0
-348 -252 287 0
-124 -456 -53 0
219 -130 104 0
34 -146 437 0
-301 379 361 0
-53 117 -174 0
-232 -234 -347 0
40 -312 311 0
449 -35 75 0
-473 -341 273 0
237 -426 -406 0
-366 -436 78 0
309 87 -245 0
465 -174 -266 0
-241 -147 -55 0
419 -177 -445 0
426 -38 -42 0
-240 -85 391 0
-82 89 289 0
-169 -444 -431 0
310 283 491 0
-164 -39 -166 0
-143 -17 111 0
190 29 196 0
98 -88 276 0
-369 -476 -391 0
288 204 112 0
112 471 67 0
214 394 -203 0
-264 212 371 0
-341 -387 -245 0
-185 184 -249 0
223 420 311 0
493 35 332 0
-414 308 400 0
-196 -417 -105 0
-362 -442 405 0
193 177 -423 0
-339 -124 -15 0
-330 -149 -222 0
-189 474 34 0
10 428 -310 0
-357 353 272 0
32 39 35 0
265 -15 335 0
-471 30 391 0
76 307 55 0
-402 429 -269 0
-41 -140 293 0
-1 25 241 0
59 28 -260 0
187 458 -68 0
-19 331 -81 0
334 -271 -420 0
335 -76 309 0
17 -174 291 0
468 -325 474 0
-46 36 -19 0
-90 -277 -14 0
-209 -95 -45 0
160 -316 353 0
-85 415 -299 0
135 137 193 0
266 200 81 0
462 -489 -371 0
33 79 -94 0
270 59 -496 0
-352 95 119 0
-256 26 15 0
-324 120 442 0
208 252 -162 0
-429 -232 361 0
-193 138 -141 0
350 -280 -321 0
-320 156 394 0
-468 -142 -137 0
342 -361 -33 0
-175 180 -288 0
264 -326 -154 0
493 -41 -433 0
-166 -216 -31 0
-267 225 -319 0
-395 493 265 0
-167 -48 -389 0
-410 393 465 0
-392 -183 137 0
284 174 -18 0
-307 -433 -373 0
330 -159 -10 0
-492 344 96 0
-467 -315 393 0
-433 -417 -500 0
13 -461 214 0
-477 166 327 0
216 303 -33 0
331 -184 -100 0
423 -136 -128 0
-488 17 -346 0
110 -255 -191 0
-454 411 44 0
1 -439 -122 0
372 288 203 0
-99 -476 422 0
-382 -395 -49 0
-225 -268 187 0
-152 -462 -216 0
148 -392 -478 0
73 -94 -359 0
-33 -459 398 0
-238 95 -404 0
-227 423 68 0
351 444 110 0
-443 -112 232 0
-363 464 -142 0
470 269 137 0
389 -387 170 0
-283 -227 -490 0
470 133 -388 0
425 -467 243 0
139 -80 273 0
184 309 -59 0
-180 -402 261 0
-375 -367 262 0
-351 -413 -390 0
-146 -401 259 0
423 -234 268 0
-386 75 122 0
42 316 -314 0
-119 -411 -51 0
386 -357 -245 0
-242 368 -251 0
-258 145 408 0
444 -499 403 0
214 240 296 0
442 -324 410 0
-455 -52 402 0
-39 249 313 0
-128 -360 81 0
210 84 -47 0
-88 199 -387 0
262 -258 46 0
30 243 -211 0
-465 -458 200 0
-150 235 60 0
-198 -355 436 0
222 -344 375 0
396 38 453 0
28 480 -144 0
-429 215 349 0
-288 -233 -431 0
253 -470 208 0
427 -236 124 0
85 -232 272 0
371 255 409 0
111 -464 146 0
291 213 -154 0
-282 -318 273 0
24 101 296 0
-114 -307 268 0
-184 -340 105 0
-194 -86 -378 0
-274 109 -364 0
-167 259 8 0
-61 -109 -5 0
358 -332 374 0
173 -480 -377 0
338 -153 440 0
-160 122 221 0
381 -334 -429 0
9 458 -421 0
-198 496 414 0
409 365 103 0
227 -214 -377 0
-242 237 -255 0
-221 -180 10 0
-416 -11 3 0
344 322 -435 0
30 325 356 0
-245 -157 465 0
120 -216 143 0
325 132 32 0
322 450 -23 0
-118 -418 182 0
2 390 -417 0
408 308 64 0
-31 -172 -179 0
-230 168 307 0
9 -162 470 0
-344 389 280 0
-379 294 224 0
-129 -134 -420 0
-243 415 -190 0
-158 -60 -281 0
436 175 -262 0
-13 -162 278 0
69 24 -451 0
-371 407 -146 0
-212 219 -170 0
31 -296 499 0
118 -6 -396 0
-443 169 91 0
-289 -303 286 0
-49 260 -465 0
-464 96 189 0
-62 128 -41 0
2 85 -148 0
408 -342 -245 0
-255 -266 -286 0
362 319 -444 0
107 277 -332 0
-445 337 184 0
135 355 125 0
-169 90 -210 0
-317 216 431 0
454 428 55 0
-68 183 388 0
-20 -364 265 0
-268 469 -465 0
-154 -398 1 0
427 -125 -488 0
75 -19 166 0
207 -110 432 0
-325 120 452 0
-52 -285 3 0
-170 481 -12 0
159 492 -424 0
233 -114 289 0
144 -339 -467 0
-20 359 -308 0
-172 -342 400 0
-405 49 167 0
-209 369 -296 0
316 462 223 0
-20 270 495 0
276 133 -111 0
-293 -422 93 0
276 265 104 0
112 84 -327 0
-21 -303 -252 0
71 406 442 0
80 323 491 0
382 -427 -259 0
175 141 456 0
331 -309 -238 0
-247 -162 249 0
-126 -24 -182 0
87 -327 -55 0
287 78 -352 0
280 43 -123 0
289 -335 44 0
482 -15 45 0
278 -84 138 0
121 262 466 0
-349 433 38 0
-152 -182 284 0
-161 128 -426 0
-64 491 -275 0
-376 -496 359 0
478 -329 -13 0
-61 -416 2 0
316 343 47 0
-290 -283 -388 0
327 -114 276 0
-365 -130 -251 0
-262 -112 -423 0
54 -14 -296 0
493 1 265 0
-57 250 409 0
-485 302 461 0
159 427 -352 0
36 122 193 0
441 -139 162 0
385 26 -149 0
-190 451 311 0
-239 -264 -39 0
-446 -37 390 0
-147 -27 -406 0
132 -425 -434 0
340 -431 174 0
176 -437 147 0
-385 413 428 0
-436 -383 492 0
491 -214 203 0
-140 332 483 0
-93 213 -28 0
295 -254 -50 0
397 9 213 0
233 311 -446 0
-471 187 238 0
35 -418 343 0
215 425 -217 0
39 118 -367 0
144 406 -155 0
-295 -432 178 0
-371 -83 -472 0
-196 -69 15 0
312 -393 -201 0
-388 -4 274 0
-225 15 216 0
-99 184 -9 0
209 -116 -285 0
-106 385 -351 0
188 -141 36 0
411 -479 -53 0
-180 -370 342 0
372 -455 -398 0
-314 -102 -94 0
17 -292 -281 0
371 476 459 0
337 -217 176 0
-100 -271 -99 0
-260 139 395 0
86 -301 -263 0
212 393 -281 0
225 -235 -458 0
-419 206 10 0
-389 -188 -182 0
95 -48 424 0
-264 -470 307 0
-456 247 177 0
-227 -418 -388 0
-362 -248 -399 0
-273 -132 -461 0
323 -318 -387 0
-433 144 -195 0
-178 -82 8 0
-76 -492 312 0
-133 76 406 0
-495 44 111 0
-23 130 -432 0
39 60 243 0
-23 363 447 0
-3 180 115 0
130 -103 299 0
243 -324 -488 0
-495 226 158 0
-6 -420 32 0
-444 465 174 0
7 147 -204 0
-75 464 200 0
176 -56 -273 0
-327 479 -422 0
187 -459 -177 0
279 445 -300 0
159 293 -480 0
472 175 -381 0
348 -9 336 0
315 -95 457 0
-459 -1 -144 0
-108 -64 255 0
273 222 -202 0
339 -73 -410 0
-334 486 401 0
73 -303 410 0
-442 60 -323 0
10 -383 -151 0
394 170 -333 0
-161 -198 35 0
463 -95 122 0
99 -260 334 0
-183 150 40 0
169 -182 474 0
-372 276 -337 0
-311 188 -28 0
-257 316 -474 0
381 189 -70 0
466 -15 335 0
-29 352 -242 0
258 52 151 0
176 336 436 0
-165 123 -254 0
-35 485 13 0
-460 330 -410 0
431 448 191 0
-453 -463 -237 0
-214 429 280 0
498 -373 445 0
272 169 -449 0
-424 -483 115 0
-217 221 379 0
-472 101 148 0
267 35 190 0
312 425 319 0
281 488 105 0
112 491 -460 0
-141 -398 -162 0
117 -183 129 0
42 -185 461 0
326 397 458 0
-373 -167 51 0
-403 341 -376 0
-238 -388 -153 0
110 -329 -172 0
261 51 210 0
-448 -228 -141 0
99 286 54 0
354 26 -358 0
192 29 430 0
-196 224 108 0
-484 -413 349 0
274 -111 437 0
153 28 113 0
-284 -159 -110 0
-41 -108 250 0
59 -405 293 0
-292 -41 226 0
-157 188 53 0
391 166 432 0
16 263 -4 0
362 -115 28 0
-240 370 45 0
-282 297 214 0
481 -162 -192 0
-97 253 -82 0
15 -261 -371 0
-2 237 -289 0
461 -300 -388 0
38 256 274 0
-112 -1 335 0
477 -20 -470 0
-302 326 -234 0
-478 -175 -310 0
-435 111 -5 0
-85 479 167 0
-158 -328 446 0
16 357 -450 0
-96 53 -30 0
-46 -165 -223 0
183 372 -153 0
-180 211 47 0
-269 437 -19 0
-387 -477 -4 0
43 204 -105 0
211 406 356 0
333 432 -441 0
83 489 -479 0
4 -410 119 0
134 -6 -166 0
156 -154 -164 0
-491 143 20 0
-58 290 54 0
295 -246 -223 0
-370 -107 -308 0
-121 109 419 0
-148 350 -222 0
175 -299 31 0
-449 -16 229 0
162 -148 -247 0
18 212 157 0
218 -119 423 0
-93 -228 -373 0
125 41 33 0
-496 -186 -148 0
143 -68 -187 0
-229 -349 259 0
73 78 -192 0
299 -236 -7 0
-111 166 368 0
78 21 -378 0
-77 -144 -321 0
-214 141 -444 0
274 260 198 0
60 115 -370 0
440 464 218 0
59 61 279 0
63 44 247 0
-483 -278 -373 0
474 -77 61 0
401 190 -453 0
-181 -45 132 0
-287 -243 -90 0
96 -211 287 0
-263 -156 -486 0
-447 -465 -391 0
-226 193 69 0
-430 435 -344 0
-396 146 457 0
301 325 374 0
224 -411 370 0
257 452 -292 0
449 493 -114 0
-49 -415 -284 0
-23 210 171 0
449 254 365 0
23 378 267 0
449 404 -35 0
-308 -53 56 0
23 -339 427 0
202 -108 -53 0
-337 -375 428 0
-281 -314 -473 0
-306 -90 369 0
372 -226 320 0
411 -297 -314 0
192 395 -443 0
424 -328 -125 0
-428 221 118 0
477 406 499 0
-50 101 -224 0
150 376 174 0
-236 416 423 0
-74 5 340 0
60 117 -419 0
103 446 -494 0
-124 14 65 0
88 256 376 0
-408 331 -279 0
-393 225 462 0
-194 -108 452 0
140 171 57 0
94 335 -130 0
439 -497 340 0
356 487 411 0
-313 -135 -379 0
20 460 162 0
-454 382 325 0
500 218 -177 0
-442 -245 220 0
306 116 82 0
251 -316 -219 0
85 20 -434 0
365 90 124 0
179 97 -229 0
435 9 -386 0
-142 -128 -265 0
-471 -310 444 0
261 164 9 0
474 -172 394 0
-409 -149 304 0
-78 436 -301 0
-308 115 468 0
-297 -425 53 0
417 -438 -499 0
-111 155 -428 0
-267 43 222 0
-368 61 274 0
130 -292 -450 0
497 208 297 0
-354 112 -147 0
-117 -235 -484 0
453 21 187 0
168 92 74 0
-31 -290 27 0
151 165 -469 0
73 -95 324 0
345 119 372 0
-386 -83 -328 0
212 -417 10 0
-258 215 439 0
467 370 191 0
-244 -338 145 0
291 65 496 0
413 -379 -146 0
-269 -108 247 0
197 160 162 0
-324 -149 -109 0
302 -153 -203 0
317 181 -413 0
-408 294 -267 0
417 354 -262 0
160 455 458 0
202 327 385 0
-103 -440 -81 0
368 367 -54 0
157 330 -360 0
337 238 -455 0
45 -267 -65 0
18 269 -222 0
279 375 410 0
-126 -486 -421 0
-407 239 232 0
-150 -205 -138 0
154 -416 366 0
345 61 51 0
-168 -373 34 0
337 253 -34 0
450 313 324 0
-209 315 -242 0
-395 179 -117 0
409 363 139 0
396 368 -458 0
-143 284 -347 0
-287 391 49 0
339 -458 149 0
-20 -81 441 0
-131 402 80 0
-185 267 -34 0
-64 251 92 0
-24 454 361 0
-450 388 -94 0
399 54 -200 0
419 -353 -364 0
20 -386 347 0
-420 -288 -460 0
134 -214 382 0
135 111 142 0
188 255 326 0
-104 -375 258 0
-317 -116 447 0
-204 -198 -356 0
-352 268 -388 0
452 476 293 0
-242 -224 492 0
-314 -27 446 0
387 -423 -37 0
13 192 -425 0
384 -87 260 0
-241 303 105 0
66 417 457 0
443 -256 125 0
-33 449 -391 0
-488 -272 343 0
-413 -366 140 0
-159 76 -222 0
-443 -496 366 0
-249 175 353 0
126 393 203 0
142 -55 28 0
-67 -439 69 0
385 -245 408 0
-273 -475 263 0
114 274 177 0
-196 404 473 0
255 -202 -124 0
-193 238 -182 0
-484 -127 425 0
441 492 467 0
190 415 239 0
9 125 -182 0
95 198 -22 0
-60 54 366 0
196 -475 497 0
-33 -215 336 0
-250 -409 125 0
339 -326 235 0
-170 357 195 0
263 157 51 0
458 144 -342 0
-252 -322 -276 0
457 -12 -59 0
-221 476 135 0
-172 -161 -342 0
68 -268 -29 0
-174 -76 34 0
450 -255 324 0
238 -86 -363 0
428 -144 -327 0
-27 464 498 0
-344 210 -44 0
437 -114 454 0
482 114 -164 0
-219 348 -105 0
-243 6 -301 0
315 -399 436 0
197 87 491 0
-480 20 325 0
-287 99 118 0
-240 -155 3 0
478 -136 -58 0
109 7 -376 0
-385 203 -230 0
-134 10 -310 0
445 259 -177 0
-58 -47 -42 0
78 -155 -151 0
-35 1 326 0
-493 407 208 0
184 132 -303 0
31 -264 -383 0
-85 -272 -364 0
-143 223 227 0
335 -194 177 0
64 92 203 0
-490 -237 152 0
89 444 91 0
-139 222 -137 0
285 391 -362 0
155 415 -47 0
-286 -393 -21 0
422 -476 94 0
247 185 225 0
-385 -280 -100 0
416 430 426 0
-131 410 231 0
-203 -70 199 0
75 -487 277 0
-240 -280 -3 0
411 -203 491 0
160 -51 172 0
14 -246 -464 0
-485 -159 -222 0
467 469 -184 0
-114 -403 146 0
248 -470 384 0
-222 -495 481 0
48 15 393 0
31 -473 217 0
-199 -256 -316 0
-285 129 39 0
411 47 -342 0
-447 -127 121 0
488 447 496 0
55 487 -26 0
-195 -17 284 0
16 496 -51 0
445 -359 -356 0
325 -7 80 0
-465 -230 348 0
-56 -148 192 0
88 159 -137 0
-395 -80 -141 0
-431 397 263 0
-165 21 -212 0
-73 270 -141 0
-317 -106 329 0
-34 -18 173 0
-298 -410 -161 0
-226 142 313 0
379 142 311 0
-260 -284 -103 0
203 -19 485 0
-380 -198 -279 0
173 164 -102 0
-184 -343 376 0
-195 -303 251 0
-412 75 348 0
396 137 -398 0
434 42 4 0
-270 411 457 0
129 -210 283 0
-401 476 -243 0
431 -414 321 0
89 -362 -286 0
366 -106 -238 0
-206 474 213 0
322 421 -347 0
-459 -471 -485 0
385 112 216 0
-85 -149 -235 0
489 280 146 0
47 164 -497 0
345 -471 -453 0
-297 -334 443 0
-11 -8 -163 0
329 -268 17 0
331 -423 -364 0
383 -32 240 0
102 96 479 0
-375 36 347 0
191 399 46 0
-132 163 -88 0
139 271 248 0
344 -430 436 0
-138 451 -351 0
-201 -351 -132 0
-213 -51 222 0
-72 415 4 0
428 -341 -466 0
303 471 -201 0
40 375 -234 0
377 152 436 0
-143 284 -26 0
-291 -155 232 0
-401 -174 280 0
52 -338 116 0
-405 277 -266 0
-57 -491 -478 0
-406 -33 -12 0
-62 -130 -52 0
262 -208 354 0
-241 32 248 0
5 117 -416 0
-234 -62 -111 0
-445 197 481 0
-458 413 255 0
-105 326 -79 0
227 -304 -216 0
427 -199 -295 0
-149 491 203 0
-272 -474 -191 0
210 164 233 0
344 192 309 0
-292 -352 133 0
27 -369 -353 0
375 -221 316 0
221 200 108 0
288 -120 -477 0
335 150 444 0
261 -169 477 0
85 -44 108 0
212 309 318 0
-439 131 403 0
-391 496 481 0
-192 449 399 0
117 271 -58 0
-268 478 146 0
290 84 82 0
474 212 -298 0
-418 382 -435 0
-329 128 117 0
-490 -163 432 0
388 335 2 0
145 -189 -175 0
484 83 186 0
-363 -217 -147 0
36 -459 37 0
-388 -380 191 0
-236 -479 -378 0
-219 -249 -302 0
-35 -318 374 0
288 81 438 0
362 -92 94 0
481 -308 474 0
-452 -128 251 0
-290 208 256 0
-272 -482 237 0
-148 15 -171 0
496 421 -61 0
-485 196 -391 0
-54 385 -356 0
-389 -405 35 0
385 -6 -379 0
-247 -351 260 0
387 -279 -196 0
272 419 44 0
261 248 414 0
-61 191 469 0
-223 -281 225 0
126 103 -437 0
-474 408 -135 0
-127 278 413 0
-55 280 331 0
65 -146 -56 0
157 -500 416 0
-5 418 453 0
370 322 -210 0
158 -393 352 0
-355 -103 468 0
60 -244 -325 0
222 399 -66 0
373 220 128 0
142 -300 -85 0
271 272 -227 0
19 -144 468 0
-252 15 44 0
123 -6 -231 0
-149 489 482 0
362 -421 41 0
72 181 -206 0
-401 -309 -344 0
298 -223 -462 0
355 243 439 0
63 -393 483 0
-39 -160 -347 0
313 -373 336 0
-400 -325 307 0
-489 29 -498 0
486 -266 -406 0
102 125 88 0
161 -420 164 0
406 407 -19 0
330 395 423 0
138 246 352 0
-393 483 -410 0
-254 414 -306 0
-76 -327 -133 0
381 279 -76 0
-345 66 404 0
-346 43 -82 0
-415 -481 51 0
-208 -268 -387 0
-245 105 -136 0
-256 -79 -166 0
313 -86 -315 0
104 -15 227 0
-99 -219 -398 0
6 -330 74 0
-38 2 -380 0
264 -397 -294 0
141 -468 439 0
496 2 -440 0
-290 -350 261 0
-96 173 -413 0
420 476 -15 0
-70 -8 -71 0
-473 36 -80 0
-131 -244 156 0
257 17 -355 0
-380 -251 124 0
-350 -179 470 0
240 213 -310 0
420 -109 427 0
-387 477 108 0
360 -361 43 0
-190 61 32 0
-22 -462 -37 0
-70 -360 -348 0
-31 11 -416 0
474 202 -292 0
413 186 472 0
-472 74 -38 0
389 433 63 0
-173 -418 320 0
-407 -410 128 0
487 -360 -467 0
23 -6 -487 0
-437 240 -160 0
35 388 -302 0
-158 371 41 0
-353 -117 -343 0
127 -468 254 0
368 204 465 0
364 10 103 0
202 -120 282 0
-317 316 -294 0
-113 246 457 0
170 -83 -79 0
-310 -378 -210 0
157 272 -473 0
-234 -193 75 0
-409 202 4 0
74 459 241 0
251 -424 27 0
479 52 320 0
42 183 27 0
-102 120 -465 0
24 201 -220 0
462 220 -310 0
392 -276 243 0
441 367 -376 0
269 165 44 0
431 83 -359 0
-309 -113 192 0
-443 289 122 0
104 -54 -83 0
143 -320 -481 0
-351 52 -221 0
2 -60 189 0
355 -134 299 0
148 21 500 0
-177 468 -37 0
453 -489 444 0
435 111 -445 0
335 -154 492 0
-177 -318 94 0
-272 176 197 0
-189 211 -463 0
232 114 22 0
-180 -337 127 0
198 42 493 0
-306 -273 -303 0
-398 56 383 0
365 -483 -383 0
-185 304 -312 0
-186 94 -270 0
392 411 -135 0
36 -420 -388 0
-31 400 466 0
-263 -128 -341 0
60 -236 -110 0
-26 -65 -199 0
-180 -331 151 0
-87 -187 418 0
-282 -239 454 0
-320 172 185 0
-338 -323 -86 0
-161 -119 -142 0
-325 -428 -124 0
446 256 305 0
-481 237 430 0
37 146 312 0
146 67 218 0
241 258 -29 0
-98 -313 -184 0
307 -93 -343 0
-346 87 229 0
-460 -240 -361 0
454 229 -101 0
-399 -30 253 0
-301 -383 -29 0
489 -209 92 0
449 390 -444 0
-200 -182 110 0
58 -75 -187 0
139 192 -48 0
-43 435 449 0
499 112 -362 0
-184 294 446 0
-61 219 296 0
-114 -368 384 0
288 314 341 0
-219 400 93 0
-293 -414 160 0
393 -271 437 0
204 79 -276 0
-482 54 -296 0
-79 492 -209 0
185 -284 442 0
-44 83 -456 0
-220 68 -451 0
-142 187 -471 0
-168 35 -483 0
-168 122 159 0
-440 97 357 0
-396 -219 -489 0
380 -487 395 0
-78 -368 344 0
-46 268 266 0
277 210 -496 0
-88 447 -473 0
326 204 -162 0
-301 -104 -143 0
-310 -470 -249 0
-428 430 -82 0
212 -476 -425 0
360 226 -67 0
-397 -131 197 0
-364 -349 290 0
-332 -63 -53 0
347 -109 219 0
-351 488 -163 0
83 479 -186 0
105 -362 480 0
214 -368 254 0
70 -151 -424 0
144 -156 339 0
-360 483 -458 0
-257 -61 -159 0
204 273 -289 0
-43 -355 363 0
-315 65 -107 0
61 202 -349 0
116 346 30 0
-104 -365 -496 0
-220 388 -324 0
-374 436 10 0
107 -460 -432 0
193 -191 256 0
-387 -471 311 0
236 66 73 0
-448 207 -375 0
-146 101 490 0
427 151 -37 0
91 -335 -100 0
172 -127 319 0
479 -116 -375 0
-91 -209 273 0
-250 66 -65 0
116 -398 82 0
-206 218 -490 0
78 -442 464 0
-89 -215 -288 0
314 53 -156 0
248 160 -333 0
372 97 -25 0
-84 106 420 0
204 277 -402 0
-383 -96 166 0
387 -258 -454 0
-320 -13 -370 0
-107 -500 203 0
205 203 37 0
456 -63 -416 0
-432 -3 -317 0
164 403 248 0
-49 114 -480 0
98 289 -264 0
-331 234 -375 0
-33 -443 386 0
-402 33 410 0
497 490 405 0
153 250 487 0
5 -371 240 0
-26 339 -276 0
124 -54 -217 0
89 -253 -240 0
417 94 -69 0
101 160 487 0
-398 283 411 0
-87 492 439 0
214 465 200 0
252 380 -96 0
-359 374 488 0
102 270 443 0
-76 -324 -28 0
263 99 163 0
372 422 144 0
-103 469 417 0
79 285 343 0
148 36 436 0
486 20 -279 0
-169 62 -147 0
461 -492 -69 0
-326 172 54 0
-68 -219 -390 0
-16 303 171 0
-259 -430 -36 0
82 448 99 0
371 -382 -281 0
-266 253 291 0
-387 -191 -435 0
301 -229 -436 0
236 119 388 0
-65 430 -371 0
-62 382 245 0
392 -166 -182 0
-487 33 -164 0
279 -361 310 0
-213 -228 127 0
422 -87 391 0
-62 479 319 0
-51 -245 485 0
21 274 194 0
220 362 -402 0
318 309 -178 0
246 -178 481 0
-432 -126 138 0
-408 -375 449 0
419 -300 306 0
-496 -12 99 0
369 -277 -449 0
-225 -36 -273 0
-415 -497 -48 0
186 -251 205 0
213 256 -253 0
151 -15 182 0
404 372 -418 0
-61 106 444 0
-44 -270 485 0
-500 -155 171 0
-243 8 27 0
343 372 -386 0
-119 20 238 0
372 388 -286 0
-414 84 -130 0
-417 252 -353 0
384 131 339 0
17 67 -185 0
-415 408 106 0
65 -467 -202 0
-217 -445 268 0
-300 331 -292 0
-402 317 -185 0
174 166 -437 0
-30 -351 -496 0
-103 -11 457 0
-36 188 264 0
39 -171 394 0
-232 -483 -142 0
-272 12 -234 0
308 199 -125 0
-419 -493 186 0
-136 -11 25 0
-239 208 140 0
175 367 -331 0
440 474 274 0
-228 166 406 0
25 -62 -357 0
-415 66 155 0
-68 -119 -500 0
-361 -24 -92 0
-227 128 228 0
-91 92 -139 0
126 -188 -177 0
107 -233 351 0
-71 123 18 0
222 404 494 0
316 -415 -300 0
-40 414 200 0
149 -44 259 0
483 -26 -12 0
105 384 359 0
169 60 356 0
165 355 -359 0
-101 92 -87 0
399 292 309 0
-326 -203 -341 0
274 150 153 0
-246 389 402 0
-461 -191 -67 0
-349 -242 60 0
-422 171 402 0
-469 61 -451 0
-205 -389 10 0
-400 -414 -336 0
-198 2 -373 0
-271 -422 43 0
223 220 -265 0
274 -243 -425 0
147 -421 -458 0
394 -164 56 0
-320 417 -121 0
59 58 461 0
168 -385 -312 0
410 122 481 0
299 -86 406 0
409 330 -234 0
-84 -368 -430 0
-355 215 39 0
-418 -244 426 0
313 -379 -149 0
-201 375 228 0
-378 -256 -452 0
-483 312 -283 0
184 104 -67 0
-259 167 -311 0
220 355 56 0
363 452 150 0
201 -113 -22 0
-239 -207 47 0
-190 -323 474 0
183 -336 -416 0
-227 -32 -102 0
195 -312 409 0
108 -106 140 0
-225 203 -187 0
-421 457 -363 0
-142 -50 210 0
431 -454 185 0
100 -348 85 0
304 -500 297 0
-251 347 419 0
464 -233 210 0
450 402 -79 0
-221 244 298 0
214 -67 421 0
84 -77 -427 0
25 101 -314 0
146 -147 10 0
229 -261 347 0
-226 -408 -275 0
-337 465 476 0
459 170 -304 0
-195 13 -166 0
-79 298 340 0
-25 -467 -129 0
-496 337 -211 0
69 433 414 0
235 232 -474 0
-17 -6 -338 0
-390 -132 275 0
-279 428 190 0
316 494 289 0
204 -94 399 0
-389 -423 -431 0
-343 165 -129 0
81 385 -290 0
-40 -487 99 0
-210 159 451 0
390 -264 329 0
376 -213 364 0
253 397 487 0
457 -265 -283 0
-327 -284 190 0
-199 -45 -110 0
318 -212 117 0
186 -340 -450 0
147 -272 -59 0
-78 381 104 0
115 455 -251 0
168 284 230 0
-354 140 -455 0
-431 406 -466 0
-44 -417 -298 0
-380 345 9 0
-132 152 255 0
482 -364 393 0
57 -125 -56 0
225 -165 234 0
-284 -70 -200 0
69 406 -373 0
412 281 217 0
449 -404 63 0
98 124 -341 0
-56 -412 427 0
495 220 482 0
385 -458 -7 0
410 -476 -192 0
407 215 -158 0
173 -378 335 0
304 -101 -121 0
408 436 -338 0
191 447 -309 0
277 -188 155 0
131 259 396 0
-335 306 -213 0
364 -200 342 0
-27 249 111 0
117 257 356 0
255 133 -28 0
-410 94 -266 0
-419 122 -275 0
307 43 240 0
-64 99 345 0
99 315 -86 0
28 -262 -118 0
-261 202 321 0
-16 -438 -210 0
115 -134 -487 0
-78 201 129 0
435 29 221 0
-178 262 409 0
-416 -447 278 0
201 395 33 0
-51 452 401 0
423 354 -45 0
408 429 -165 0
-166 -15 -54 0
-404 253 -384 0
236 -47 -31 0
175 -268 284 0
-78 93 -4 0
-373 -196 -470 0
455 -415 -23 0
-2 -71 28 0
48 247 365 0
267 153 -431 0
-110 -386 449 0
-205 167 345 0
-469 -449 405 0
-116 447 -399 0
-441 153 265 0
-344 -95 -79 0
81 -156 292 0
451 -444 52 0
-177 -350 179 0
-489 -362 410 0
-235 286 74 0
303 165 329 0
410 -386 193 0
-234 -76 -92 0
-279 322 -262 0
-171 192 -341 0
-398 209 190 0
-9 -253 -214 0
-9 367 66 0
487 442 -293 0
373 442 -264 0
-281 216 299 0
-206 328 -81 0
196 433 -52 0
-85 295 398 0
396 188 92 0
44 327 -331 0
-367 476 56 0
355 -246 -61 0
-421 129 -154 0
-437 97 -500 0
412 -66 256 0
-76 147 196 0
10 -218 246 0
294 -248 -25 0
-84 252 79 0
25 115 368 0
-203 344 2 0
103 -384 187 0
-421 105 -88 0
108 -381 455 0
186 -457 34 0
-482 -467 -77 0
300 -89 -178 0
297 -76 -195 0
-450 297 -132 0
413 137 303 0
-90 93 -108 0
91 402 422 0
-188 -124 -328 0
373 149 -145 0
234 -206 476 0
156 144 72 0
-415 24 -273 0
1 259 438 0
470 173 86 0
-446 -39 -172 0
214 -487 -243 0
-143 215 354 0
-341 422 485 0
-28 -227 -161 0
-43 199 383 0
448 342 -339 0
-296 -135 -105 0
156 168 -349 0
-43 443 428 0
123 -274 151 0
-492 199 -495 0
283 -65 444 0
84 289 -184 0
-222 -440 489 0
-478 -485 71 0
-464 9 350 0
177 -158 371 0
257 -114 126 0
180 -411 1 0
-304 -35 -384 0
-272 -38 464 0
10 271 -495 0
-385 -61 -469 0
-154 405 -4 0
-446 59 -311 0
-36 -256 -225 0
-401 25 -281 0
-289 -133 443 0
279 -476 144 0
190 301 -287 0
-446 -234 150 0
-78 166 -50 0
365 195 -287 0
85 222 232 0
356 -308 443 0
140 -156 -114 0
385 -333 -373 0
310 -101 241 0
358 414 298 0
97 -480 35 0
217 -76 -457 0
149 402 500 0
-406 -348 -451 0
-89 -118 -418 0
-344 -270 177 0
-161 372 -296 0
-434 151 -460 0
295 -2 -39 0
-48 -243 -390 0
-190 -359 329 0
-184 -286 366 0
-399 -391 -492 0
280 -362 -12 0
366 -419 -477 0
483 289 21 0
194 -253 397 0
242 -392 9 0
-126 -392 -77 0
-59 -106 -37 0
261 312 -189 0
477 -167 230 0
-239 376 245 0
-100 -220 113 0
301 -278 366 0
131 -348 498 0
-257 -459 -247 0
477 134 -80 0
222 -358 208 0
-411 -398 180 0
408 424 -350 0
-179 -284 -16 0
200 -252 482 0
280 -396 291 0
-10 -440 -163 0
-3 -455 265 0
-465 284 202 0
-107 305 85 0
54 445 -476 0
301 -286 149 0
-465 23 -67 0
-218 303 476 0
-402 424 24 0
418 -297 -258 0
-283 -39 -157 0
-202 11 -41 0
-110 -158 84 0
-202 481 14 0
320 106 -478 0
289 185 148 0
229 -390 -331 0
-202 287 195 0
-257 -142 -345 0
-414 -338 282 0
-404 -56 482 0
102 485 -480 0
281 242 400 0
278 326 -473 0
77 -379 79 0
451 -283 -428 0
260 95 -208 0
-173 -344 -31 0
489 -229 65 0
430 56 -158 0
-13 437 -64 0
436 -472 -127 0
337 -266 105 0
-226 -152 236 0
105 452 -78 0
328 -241 385 0
-402 -376 -282 0
-315 -128 -248 0
-31 267 30 0
-48 274 -146 0
69 -161 -482 0
46 405 -95 0
165 354 -204 0
35 209 334 0
-490 -32 225 0
-345 -69 -190 0
-326 339 -395 0
436 -326 431 0
204 140 471 0
165 353 439 0
470 182 93 0
-271 7 54 0
227 76 -13 0
352 -132 67 0
-252 462 422 0
-427 -73 -51 0
-197 -294 437 0
378 -286 118 0
320 496 -28 0
437 -293 -419 0
376 -157 488 0
417 406 266 0
-181 268 -433 0
30 -9 -422 0
178 427 139 0
240 -19 -365 0
420 339 -232 0
112 45 75 0
31 -57 23 0
317 -288 162 0
-353 -263 301 0
427 42 404 0
-37 -357 15 0
436 333 380 0
237 462 15 0
-36 -266 -203 0
-11 194 161 0
313 434 450 0
370 -115 79 0
291 -3 73 0
175 404 -313 0
83 -406 -444 0
135 -53 313 0
-370 444 -398 0
-263 332 -107 0
309 -237 330 0
-446 -472 471 0
157 -340 -368 0
-215 379 153 0
18 242 405 0
-400 231 21 0
280 230 -67 0
110 -443 -263 0
-24 -223 89 0
33 -273 -67 0
287 -438 196 0
314 -140 -82 0
204 -348 438 0
178 350 386 0
-377 69 46 0
209 299 -430 0
-449 404 -300 0
-86 -334 27 0
90 -323 -377 0
414 460 339 0
-294 -169 -384 0
378 -478 396 0
125 -148 -239 0
55 -17 233 0
-34 -18 246 0
-197 138 85 0
-246 -70 -90 0
380 54 -317 0
-54 -251 -379 0
337 -252 59 0
-413 425 -128 0
446 322 327 0
488 189 153 0
-348 3 312 0
28 -399 281 0
245 -157 -347 0
287 -116 60 0
171 -261 -93 0
348 -287 251 0
-442 -10 -101 0
-478 -177 -297 0
-274 -230 287 0
333 272 62 0
184 274 216 0
46 73 425 0
149 457 -252 0
-68 -410 -73 0
117 108 -71 0
-9 352 -464 0
232 -102 276 0
359 -219 20 0
65 -69 -109 0
189 437 349 0
394 328 100 0
-114 -457 227 0
108 -453 -206 0
485 -432 44 0
-91 291 -443 0
-169 -276 -319 0
-408 128 -371 0
-406 219 75 0
-470 -107 109 0
-160 15 316 0
-213 -201 65 0
-71 137 -422 0
-255 497 -488 0
-407 275 -130 0
-352 -202 -492 0
-412 250 -397 0
21 -483 30 0
-90 -293 66 0
-81 -254 197 0
