c Random 3-SAT formula for benchmarking
c Generated with seed 66
p cnf 500 2130
37 -160 -223 0
132 -442 402 0
240 -268 66 0
-209 373 361 0
-432 197 70 0
-364 106 -357 0
-310 248 -487 0
-36 -103 -388 0
-40 -159 45 0
-313 -61 180 0
335 -204 -288 0
-245 422 191 0
-3 470 -161 0
-243 -460 165 0
312 -265 -324 0
444 -54 176 0
9 204 13 0
-393 374 52 0
155 360 198 0
253 400 -344 0
192 -111 -310 0
-361 109 -138 0
-386 471 87 0
369 75 292 0
-432 62 301 0
-303 -477 -437 0
385 -117 -355 0
-159 354 153 0
-206 372 249 0
-104 -106 -343 0
394 -482 465 0
-351 388 -39 0
364 149 369 0
-447 419 -275 0
74 -182 -156 0
-164 -279 -460 0
381 45 -276 0
295 415 420 0
-206 163 -139 0
-201 42 -406 0
245 139 149 0
-274 -20 490 0
389 -464 368 0
-293 -286 318 0
-174 422 327 0
-158 -452 422 0
493 334 307 0
191 374 494 0
-15 342 131 0
481 -185 251 0
-41 327 -448 0
-276 -118 -159 0
313 103 4 0
-355 389 -401 0
274 -249 125 0
-347 -27 9 0
-448 -50 278 0
-443 162 7 0
-2 93 -206 0
389 385 -157 0
-48 -345 -489 0
-161 416 406 0
-31 249 -73 0
-469 193 -362 0
-292 299 -110 0
303 236 284 0
-352 -133 -89 0
-447 289 316 0
-163 -203 -368 0
81 -132 234 0
-91 422 389 0
-164 -48 86 0
-200 340 -41 0
157 169 197 0
-216 306 -279 0
-311 194 -171 0
324 127 -306 0
-491 -472 -369 0
-477 -122 404 0
59 -47 447 0
452 -377 448 0
-458 199 -271 0
322 446 139 0
-254 189 -270 0
256 -41 -17 0
337 84 252 0
69 -367 199 0
168 -338 -325 0
-114 -314 -370 0
-389 212 -403 0
272 -310 -129 0
342 -282 32 0
59 -209 -210 0
194 -424 445 0
-455 397 1 0
-182 -410 -240 0
426 -146 -155 0
-295 454 283 0
426 -346 -341 0
326 -36 -349 0
-449 -191 -240 0
266 148 -94 0
-417 -217 27 0
19 -395 55 0
-115 302 265 0
-171 -425 -174 0
-53 142 112 0
421 -418 -113 0
457 77 363 0
240 -192 88 0
-206 -329 74 0
368 -398 381 0
-224 467 -272 0
-383 -62 -331 0
-46 -20 -277 0
-320 -87 -400 0
-455 -290 203 0
383 485 -114 0
-332 -359 -364 0
-494 -391 438 0
-377 -40 -103 0
-121 -151 409 0
-308 132 179 0
-170 220 -449 0
409 -406 -288 0
-146 -462 -352 0
-353 152 -339 0
167 -254 50 0
157 -254 72 0
-288 79 146 0
-74 247 -425 0
186 137 323 0
199 -441 -33 0
-281 417 223 0
-62 124 353 0
278 36 250 0
-417 354 -77 0
-92 314 137 0
160 105 -487 0
409 214 -144 0
301 -117 175 0
-104 216 -374 0
-443 -356 -26 0
98 -172 -267 0
398 35 -122 0
-354 -392 294 0
-198 483 10 0
321 106 -260 0
206 -336 31 0
415 267 -23 0
281 -457 -289 0
-448 -306 -485 0
97 475 -183 0
-262 308 -154 0
27 276 77 0
499 396 330 0
-451 -272 7 0
-389 398 -161 0
238 26 -427 0
-481 -410 -436 0
295 128 144 0
197 253 304 0
-409 -451 42 0
-438 84 258 0
418 477 -463 0
104 -272 -95 0
-42 61 369 0
18 -129 493 0
-435 -473 208 0
449 -94 452 0
-423 -444 271 0
318 -466 -145 0
239 -39 140 0
-315 320 389 0
25 186 -311 0
-177 83 463 0
-21 431 312 0
-331 -156 -396 0
283 -98 50 0
-356 -382 291 0
87 -130 76 0
416 29 22 0
-255 -116 -297 0
-271 -9 355 0
-481 -66 159 0
98 -290 182 0
366 -161 291 0
251 -361 181 0
-270 -406 -483 0
-75 428 -277 0
-282 229 -232 0
-211 -472 -295 0
282 -393 -264 0
464 104 -152 0
207 -232 265 0
122 68 153 0
158 -458 261 0
153 376 -433 0
-288 -102 160 0
151 307 28 0
-384 278 411 0
424 428 -63 0
-318 -467 -441 0
461 -81 -393 0
-214 200 -75 0
-464 73 481 0
-88 -254 -286 0
317 453 -311 0
-265 -286 375 0
-81 -65 -482 0
93 -493 82 0
-344 258 -329 0
-348 432 319 0
-446 286 -314 0
-239 -152 316 0
-69 -4 143 0
175 -270 292 0
-153 -84 -96 0
86 180 -93 0
-229 246 178 0
192 33 -37 0
48 -475 239 0
-489 477 124 0
209 -456 8 0
113 -230 438 0
284 377 280 0
260 -214 -100 0
-487 120 357 0
-88 -265 143 0
311 384 -136 0
439 -326 -233 0
186 357 -77 0
46 411 253 0
-485 -408 -109 0
133 265 -303 0
-404 -174 362 0
134 -292 -271 0
-106 -485 -367 0
131 -438 -365 0
-400 -195 409 0
280 -71 -244 0
288 216 -2 0
35 -410 147 0
-121 480 51 0
-121 -44 11 0
-399 -357 -4 0
122 489 -27 0
379 -13 -415 0
158 -159 181 0
431 198 -462 0
-389 -15 356 0
269 -29 333 0
69 -154 -125 0
341 196 492 0
469 -456 -318 0
236 239 -394 0
417 -160 10 0
149 -82 -363 0
-297 410 -10 0
68 22 -183 0
394 -23 -1 0
-428 486 -275 0
-371 -268 289 0
448 -186 -240 0
132 -147 -111 0
-364 -211 127 0
433 -443 295 0
-329 -277 356 0
301 140 -388 0
-250 486 151 0
-405 -428 -171 0
-420 264 492 0
-115 -486 -247 0
-265 218 -297 0
457 -345 -209 0
-331 276 -60 0
253 -91 -402 0
-324 -304 427 0
-87 279 465 0
7 195 -334 0
-292 100 209 0
-44 -357 19 0
-490 -428 -98 0
377 267 165 0
-110 -464 -397 0
34 35 431 0
-366 -211 353 0
-470 414 369 0
-390 434 -488 0
474 94 378 0
137 318 -190 0
-65 -182 -228 0
-376 -440 423 0
-267 367 -162 0
403 27 51 0
-181 113 25 0
397 -141 307 0
130 303 -124 0
-257 -314 59 0
-114 132 67 0
-28 324 -390 0
107 -273 -233 0
-254 477 -46 0
-335 -183 176 0
388 -205 62 0
75 -322 225 0
-332 -242 -13 0
158 -264 -273 0
-321 491 -73 0
-94 55 310 0
-174 -405 -40 0
255 230 308 0
53 -224 -57 0
-300 -422 84 0
479 225 -267 0
-424 195 180 0
459 -39 292 0
394 -281 38 0
485 359 386 0
-137 -81 -327 0
40 -272 13 0
-50 -258 463 0
212 457 26 0
237 198 -226 0
-337 -491 -298 0
-135 210 10 0
-68 21 352 0
181 -60 9 0
21 34 -84 0
-463 -138 -29 0
-346 -137 -145 0
246 -157 345 0
248 -338 -252 0
363 -132 -149 0
368 312 -493 0
-224 487 -344 0
-71 -336 411 0
-114 257 -38 0
-250 -105 409 0
-26 474 -338 0
-360 -286 146 0
-276 -164 -476 0
-124 113 103 0
381 169 438 0
309 15 207 0
321 -246 -221 0
382 479 -29 0
-216 -128 428 0
267 -168 -30 0
206 434 375 0
-422 331 -383 0
-397 347 207 0
370 341 82 0
-379 306 225 0
-93 -78 -390 0
307 -217 -149 0
158 -449 -153 0
443 -368 -17 0
-173 472 -346 0
237 358 477 0
87 168 39 0
176 209 128 0
-485 -42 153 0
200 -73 140 0
-412 -282 43 0
474 -109 362 0
196 -136 -185 0
-184 -76 276 0
-442 -9 -284 0
151 69 -286 0
-12 -419 402 0
-63 415 233 0
237 -240 161 0
405 65 320 0
-392 -454 22 0
164 -382 473 0
372 -312 342 0
432 250 375 0
151 262 -219 0
279 488 307 0
206 -280 -488 0
-172 -375 215 0
458 169 380 0
406 479 395 0
-358 93 -105 0
282 128 417 0
-69 196 -242 0
86 388 -27 0
400 358 -95 0
-324 -185 201 0
-484 231 14 0
-212 208 -145 0
-497 -390 -211 0
-47 86 95 0
-485 -187 -233 0
261 155 -338 0
-488 -500 185 0
141 304 -294 0
32 -228 11 0
-139 -419 -427 0
-441 -347 -326 0
-183 -287 -126 0
352 398 -401 0
51 297 -321 0
220 275 294 0
8 150 -260 0
-479 60 -197 0
-287 -68 182 0
-363 -391 271 0
-280 -173 322 0
-99 274 -492 0
190 9 270 0
-369 59 -191 0
-33 94 385 0
318 455 427 0
442 424 -265 0
375 188 48 0
-324 327 -200 0
46 -182 -329 0
232 433 -496 0
293 -9 -318 0
-396 129 470 0
4 -463 168 0
360 -432 411 0
332 -391 -484 0
316 312 50 0
-49 56 -96 0
-11 -27 -61 0
375 257 -288 0
-169 77 109 0
208 245 147 0
41 154 -198 0
-98 307 -161 0
83 -229 262 0
142 -11 375 0
494 295 189 0
-344 266 -346 0
-107 347 -229 0
457 -168 -65 0
26 -57 -184 0
-252 -41 -138 0
50 -106 421 0
392 98 354 0
-308 344 -436 0
-221 158 24 0
-1 -221 126 0
62 -69 -114 0
434 -8 205 0
430 -298 315 0
412 498 -209 0
-62 -48 -97 0
-84 180 -103 0
-134 -277 -481 0
389 319 -335 0
235 487 -400 0
400 -263 -305 0
423 -262 318 0
368 -21 81 0
345 -86 435 0
475 363 -171 0
-432 -116 -187 0
-329 -261 -332 0
298 -444 -15 0
-25 -294 -471 0
-335 -149 -203 0
-428 485 -58 0
-30 -136 -1 0
98 155 204 0
-180 400 -359 0
394 -464 -166 0
309 -45 -483 0
460 -456 271 0
-321 153 -15 0
79 -324 -446 0
-483 -319 480 0
-220 211 379 0
-107 -158 361 0
304 26 -116 0
35 159 -493 0
-269 188 -25 0
91 74 254 0
-17 -27 271 0
-123 -479 -210 0
-391 366 315 0
-118 463 194 0
-253 16 180 0
-38 -434 -458 0
-324 -108 -234 0
-144 117 -297 0
386 176 -316 0
-174 248 46 0
67 226 -311 0
275 313 -48 0
176 216 364 0
-304 279 245 0
-299 151 -164 0
-257 -422 -450 0
456 366 -370 0
-8 232 -203 0
51 -410 -376 0
480 -318 459 0
-259 393 63 0
151 -336 255 0
480 352 -183 0
-328 -203 116 0
460 319 158 0
153 436 419 0
-56 -287 -248 0
-464 -330 -164 0
-173 -412 107 0
-74 334 -78 0
-45 299 28 0
473 314 -486 0
-21 -417 249 0
53 -421 407 0
164 -112 109 0
-302 -64 -28 0
-143 -182 465 0
-192 96 179 0
489 487 378 0
-42 -391 356 0
62 275 -350 0
-411 -374 -23 0
-482 131 -456 0
-435 -30 8 0
412 -397 -100 0
-282 -344 336 0
-416 474 -271 0
-330 340 98 0
382 421 333 0
-435 250 -131 0
341 -473 -80 0
-13 455 -195 0
105 247 408 0
305 -271 66 0
226 -86 146 0
161 -444 141 0
-124 -147 -460 0
-471 150 -379 0
369 85 -259 0
-381 -152 257 0
59 361 -382 0
-90 -106 25 0
400 -70 -379 0
-436 -149 -137 0
-26 -133 -2 0
-418 282 -240 0
411 -165 378 0
-264 438 213 0
176 -334 -333 0
-427 57 55 0
233 436 490 0
464 -420 71 0
24 -315 -452 0
170 -367 -433 0
41 374 30 0
-449 397 463 0
-422 475 -345 0
422 414 99 0
-216 -264 348 0
386 -429 -277 0
30 288 -193 0
-144 3 -414 0
469 365 -421 0
441 244 455 0
-499 231 476 0
152 -33 -272 0
-481 114 -4 0
98 348 373 0
-125 158 167 0
-165 432 -373 0
460 185 464 0
402 -317 66 0
340 116 24 0
-276 64 -162 0
-139 -367 479 0
486 -276 497 0
475 -310 -212 0
-74 -95 -22 0
415 -372 -201 0
-37 279 -24 0
180 -23 -147 0
235 391 -188 0
-99 178 366 0
193 308 -177 0
-269 -89 -115 0
233 -130 -381 0
79 442 470 0
-17 -23 329 0
-212 -29 37 0
139 400 -414 0
-169 -352 -410 0
166 111 392 0
78 496 -95 0
393 141 -443 0
428 67 -100 0
-119 438 21 0
-165 -147 330 0
158 -361 439 0
-192 96 -148 0
379 -83 483 0
-487 -251 -227 0
394 115 395 0
-233 -331 342 0
-329 259 288 0
231 146 310 0
378 -74 309 0
244 -420 4 0
189 -390 270 0
-130 382 498 0
109 -463 -94 0
-173 -111 -239 0
-226 99 -293 0
336 -293 226 0
-419 -236 192 0
444 62 456 0
356 364 -407 0
-31 473 4 0
31 442 274 0
433 -328 288 0
349 104 -454 0
85 -173 11 0
216 -102 -215 0
-94 -148 -294 0
-278 462 402 0
-355 1 -74 0
226 -136 432 0
34 -204 270 0
450 -56 175 0
-282 -458 -256 0
-252 -74 -336 0
88 467 -118 0
350 102 57 0
204 -24 -38 0
286 240 -195 0
165 -60 224 0
118 97 -496 0
256 -175 6 0
-154 -176 417 0
-387 381 415 0
-265 22 313 0
136 -231 455 0
220 3 499 0
-18 439 448 0
210 154 242 0
-339 463 -40 0
108 203 30 0
-164 21 158 0
-94 -379 402 0
-347 276 -55 0
94 -429 333 0
-282 198 319 0
-58 -261 -373 0
-324 -208 446 0
106 -448 294 0
401 355 217 0
167 257 -296 0
141 -132 -377 0
391 -58 -47 0
-421 317 47 0
241 500 -363 0
-252 59 321 0
399 397 182 0
479 499 -137 0
-490 -314 324 0
131 174 -13 0
409 -422 339 0
488 395 -186 0
5 149 77 0
-302 -99 321 0
420 478 -444 0
-147 335 -427 0
-76 500 -241 0
-20 48 -15 0
379 -213 434 0
-445 395 -266 0
-280 -315 301 0
118 -108 431 0
95 277 -177 0
-188 -272 -67 0
-325 -449 -103 0
-309 -437 -405 0
56 286 -392 0
-55 -140 -418 0
450 -16 -56 0
-446 -280 -274 0
473 -144 -213 0
368 -56 119 0
-437 -237 -195 0
-434 -1 208 0
351 -427 496 0
-94 -284 375 0
-42 -469 -378 0
26 -104 -259 0
287 -262 -466 0
343 245 -219 0
176 -280 355 0
-27 -218 -321 0
-177 -130 -152 0
-192 -246 -276 0
107 192 -16 0
371 -138 -311 0
-6 146 -429 0
-64 -397 213 0
324 -6 -90 0
-375 234 271 0
51 443 -218 0
-290 64 106 0
366 273 62 0
-242 194 31 0
-64 -268 -282 0
-26 82 -70 0
-427 292 -178 0
-248 -235 40 0
-395 425 -68 0
316 452 -468 0
-310 -77 -281 0
122 190 -401 0
21 -234 -412 0
494 361 -109 0
-299 196 485 0
-93 338 -468 0
204 -300 382 0
183 -200 5 0
330 6 -136 0
-494 -6 -185 0
237 477 127 0
64 -380 136 0
352 78 455 0
482 -336 478 0
267 241 217 0
-266 -46 220 0
-41 402 -227 0
111 -205 -145 0
302 133 144 0
-87 305 -442 0
274 81 -159 0
253 468 -174 0
-474 -387 67 0
34 302 448 0
-269 480 -492 0
-132 -128 497 0
-398 -85 284 0
125 33 -304 0
490 454 118 0
-188 404 476 0
76 401 357 0
114 235 -26 0
-294 322 -421 0
285 372 11 0
135 -378 391 0
-93 355 27 0
-340 -126 -207 0
342 -369 408 0
442 -73 265 0
-24 174 421 0
-180 -466 -292 0
-307 -367 -180 0
-450 77 -327 0
-346 272 211 0
-191 166 -65 0
-405 -115 -239 0
400 -4 441 0
-147 4 -200 0
48 -36 327 0
36 392 191 0
-345 115 378 0
-418 -321 230 0
102 484 -115 0
-316 -140 -90 0
398 455 -233 0
-17 -472 -251 0
394 283 -100 0
-476 -275 -495 0
-367 447 -275 0
-267 2 -348 0
-350 -391 93 0
351 266 471 0
118 376 304 0
-223 -327 -368 0
205 8 95 0
266 -360 -440 0
358 -267 144 0
13 -204 -404 0
-81 84 398 0
-218 95 -132 0
-127 -286 150 0
-114 275 -182 0
105 -8 450 0
-37 279 85 0
-310 -187 -260 0
384 167 -437 0
191 -240 -62 0
-99 -378 187 0
-497 335 237 0
329 -460 -132 0
464 -339 189 0
-228 -204 -454 0
-79 169 -265 0
451 481 -395 0
-72 442 284 0
471 186 130 0
-59 353 47 0
470 200 69 0
51 171 -56 0
-418 56 392 0
395 -126 341 0
460 -427 -159 0
238 -104 490 0
-16 386 -468 0
-64 -283 381 0
-324 -439 186 0
77 224 441 0
-159 376 -494 0
282 -364 348 0
233 152 -213 0
-429 -9 -71 0
383 -266 137 0
3 -343 338 0
-166 231 -357 0
-407 -202 -352 0
-43 -217 184 0
-165 -205 168 0
384 295 -285 0
-178 298 214 0
-419 20 202 0
48 6 -437 0
-205 228 58 0
-221 -55 493 0
236 -367 19 0
473 422 167 0
272 -147 -370 0
-454 -218 469 0
-421 -348 -325 0
490 -16 254 0
209 -406 377 0
-372 -157 -319 0
61 -133 -448 0
-75 -162 -401 0
291 -141 -220 0
450 -151 -191 0
-477 35 -158 0
349 125 90 0
408 -138 130 0
-391 -355 142 0
-457 200 -453 0
-498 482 -91 0
-430 148 -338 0
-73 -361 -225 0
-371 484 463 0
-162 -127 266 0
15 352 17 0
119 -356 -448 0
-339 85 -194 0
174 -486 -10 0
219 321 147 0
131 -352 279 0
167 -34 152 0
451 292 244 0
-472 409 72 0
-127 -234 -137 0
412 -219 -333 0
-12 -100 -227 0
123 -336 413 0
-289 -346 173 0
414 -183 -224 0
-5 -141 390 0
384 -59 -130 0
-159 -450 -459 0
-106 -474 224 0
-214 -305 -64 0
-362 -90 -311 0
-270 -471 223 0
449 357 249 0
-61 -232 -306 0
-111 188 -21 0
-491 -10 -288 0
-75 31 433 0
-383 90 222 0
-249 15 -221 0
244 -460 309 0
-72 -319 -97 0
139 -47 -280 0
414 148 65 0
374 452 -197 0
322 186 -366 0
337 264 -237 0
-357 156 -267 0
-131 48 496 0
321 129 -280 0
-285 123 -183 0
135 -12 -154 0
-14 -120 -345 0
91 -286 -452 0
40 213 11 0
305 -153 -322 0
141 40 313 0
268 -204 481 0
-258 -353 34 0
-270 197 422 0
-418 -374 167 0
99 -130 -79 0
-494 -173 -202 0
-181 353 85 0
-408 -389 313 0
278 -456 82 0
251 -202 -46 0
-264 -27 283 0
-446 425 -117 0
417 467 99 0
-25 -492 477 0
-47 -33 288 0
-71 107 408 0
326 -275 -111 0
-141 157 5 0
-43 33 -479 0
86 -75 205 0
262 205 -61 0
-110 -191 15 0
-415 455 -234 0
13 330 -14 0
-135 309 -417 0
-9 448 -413 0
246 171 -281 0
46 -269 457 0
-247 -94 500 0
-183 -327 -70 0
-369 -407 -217 0
61 269 290 0
367 -271 249 0
-454 -290 -41 0
401 200 -15 0
205 241 59 0
-196 -35 -175 0
372 -48 -33 0
-31 -127 129 0
-45 -384 -239 0
252 45 -300 0
-450 -353 220 0
331 171 319 0
-462 211 404 0
275 -229 78 0
368 -17 306 0
-182 343 -209 0
83 -159 47 0
-192 255 262 0
-358 -113 248 0
291 -60 -393 0
-37 21 -73 0
234 421 227 0
-359 244 38 0
-201 4 336 0
-79 -225 -20 0
345 106 216 0
438 287 -124 0
334 325 475 0
-153 252 -454 0
472 -158 -101 0
-354 6 -493 0
-288 92 -78 0
-96 406 -103 0
-268 251 -124 0
-120 223 -491 0
-434 -302 -82 0
-462 219 205 0
-60 -184 370 0
-262 419 441 0
308 -199 -486 0
497 118 440 0
133 135 -476 0
458 488 -271 0
-364 -197 323 0
122 -73 -31 0
232 -84 -373 0
381 236 -76 0
-451 -115 196 0
-28 21 -194 0
25 -158 -453 0
-481 466 -42 0
-188 6 254 0
152 490 325 0
4 -10 170 0
115 179 -448 0
-173 -464 354 0
-279 294 -59 0
433 -424 262 0
186 -486 102 0
84 -333 142 0
-375 370 425 0
-183 364 -478 0
-293 170 41 0
405 24 -226 0
177 -393 -236 0
30 361 -26 0
-122 -30 448 0
-336 287 232 0
384 -458 345 0
196 -279 205 0
-425 -135 -447 0
-81 162 -394 0
-294 256 202 0
-489 -173 -202 0
-374 -221 -493 0
-287 7 408 0
321 -163 180 0
-500 305 -79 0
75 141 -454 0
-190 58 -300 0
-306 -330 479 0
45 444 222 0
-474 -254 255 0
34 194 -451 0
381 -489 -453 0
-67 -50 -283 0
394 449 15 0
417 411 269 0
-248 267 -293 0
-395 -358 134 0
283 -201 -476 0
75 458 -131 0
-294 238 -246 0
290 -7 -32 0
478 210 -106 0
142 -11 237 0
476 321 -44 0
-88 45 65 0
349 279 486 0
23 124 88 0
57 140 -14 0
-402 -117 468 0
-416 -474 -142 0
-361 -270 -124 0
297 -83 -306 0
394 192 55 0
-370 460 -358 0
380 -229 433 0
6 -381 -253 0
-393 -89 468 0
-305 401 -38 0
299 28 -94 0
350 -295 -332 0
-123 -34 -361 0
234 -187 177 0
-44 433 -467 0
162 -7 273 0
422 297 246 0
217 374 303 0
223 279 -353 0
-482 -407 270 0
-84 -114 -257 0
33 -133 331 0
281 25 -188 0
319 -4 115 0
286 -132 -94 0
-302 -175 -99 0
323 170 369 0
160 415 -14 0
-184 485 -155 0
342 -278 -382 0
-393 -28 330 0
248 -449 -128 0
-80 -456 -121 0
-210 376 -69 0
81 -169 -434 0
16 -408 132 0
-255 -217 101 0
79 131 -258 0
-292 452 411 0
-462 379 309 0
266 -162 411 0
395 377 59 0
405 -465 -446 0
326 -88 457 0
-92 -203 63 0
138 351 -467 0
-137 -401 -242 0
-36 130 484 0
55 422 435 0
232 -170 -111 0
473 -462 446 0
122 143 242 0
34 -19 -393 0
388 -252 142 0
-7 339 160 0
6 256 -90 0
-148 395 -486 0
250 -150 303 0
387 229 472 0
368 388 60 0
69 240 337 0
253 -98 -491 0
-187 452 456 0
218 -330 -411 0
-146 -222 44 0
277 382 142 0
-494 -118 290 0
-31 102 -79 0
-23 134 -231 0
253 -38 348 0
-169 -25 94 0
-354 317 455 0
-151 103 -266 0
24 -102 -50 0
-185 -198 162 0
-14 -43 217 0
498 -489 188 0
374 -17 -186 0
-67 -101 -166 0
-124 -60 -363 0
-280 -351 -433 0
-259 237 55 0
-24 -125 405 0
-163 -461 249 0
122 -109 133 0
-449 -494 -347 0
-284 305 382 0
-472 -135 -495 0
-76 208 -51 0
384 334 353 0
-372 431 -275 0
493 -183 131 0
-75 -72 26 0
58 -423 206 0
-47 -206 392 0
122 -10 -154 0
36 497 -451 0
-247 -383 -143 0
-48 -120 324 0
-458 -396 470 0
275 -166 -451 0
239 87 244 0
-194 -264 -219 0
-294 465 -192 0
322 -469 286 0
251 -377 -105 0
-307 -249 -203 0
-386 392 -143 0
-364 -448 -82 0
-13 -206 -356 0
-264 54 -305 0
-115 -129 28 0
-500 410 -146 0
-487 -416 -182 0
-260 -111 -429 0
-45 289 -468 0
421 88 -85 0
-215 252 417 0
416 244 -224 0
137 -371 -346 0
463 86 -232 0
-467 11 25 0
-92 341 353 0
-244 -21 -149 0
-419 213 68 0
-385 -193 -433 0
-482 -102 -65 0
-481 359 -104 0
88 108 -119 0
197 22 286 0
198 141 -175 0
-389 498 -258 0
345 119 488 0
-339 -397 -351 0
29 -223 -318 0
148 192 218 0
-17 -26 -459 0
-399 467 -354 0
-90 -290 312 0
-369 -443 126 0
281 299 -324 0
-250 212 253 0
162 469 147 0
-483 -79 -446 0
422 -277 405 0
86 145 117 0
236 141 -109 0
158 -184 -55 0
148 20 -150 0
371 438 -340 0
268 1 -90 0
250 -259 414 0
353 381 -496 0
102 -122 133 0
-195 -101 112 0
234 -105 255 0
393 434 -470 0
-480 -131 -122 0
-160 242 260 0
-253 -408 204 0
-411 -484 66 0
-46 119 126 0
410 320 -159 0
-410 -228 -59 0
-217 238 -70 0
380 97 -465 0
166 -367 63 0
180 443 -45 0
427 89 396 0
184 205 79 0
-314 383 -202 0
305 -40 -206 0
-381 500 427 0
-64 218 -176 0
-61 -167 -419 0
-423 325 -456 0
-334 -116 65 0
471 391 295 0
-68 136 -449 0
330 -123 406 0
-456 114 490 0
-430 -127 209 0
-175 -354 328 0
479 431 -394 0
-100 478 415 0
326 141 -248 0
433 -192 91 0
43 125 450 0
224 -36 374 0
-453 -12 -284 0
408 491 248 0
-12 -202 333 0
-53 -305 -165 0
431 -141 25 0
-2 -223 235 0
-25 -162 -418 0
102 -404 331 0
-308 -204 -394 0
-321 -470 -348 0
-9 220 -492 0
-399 423 -124 0
-312 -497 89 0
-460 474 78 0
-166 -496 49 0
-499 -345 -201 0
310 -87 342 0
202 393 17 0
149 425 45 0
-241 -243 377 0
-276 120 330 0
-256 355 216 0
-352 379 -3 0
-136 -149 60 0
-201 21 -159 0
317 -485 -120 0
-139 -463 -23 0
244 -100 -40 0
200 401 -367 0
15 -476 -462 0
-365 -370 40 0
307 -293 -344 0
271 67 -382 0
-447 -198 494 0
-264 446 -61 0
317 497 103 0
119 -73 117 0
395 -88 -165 0
437 225 -364 0
430 136 -75 0
368 415 40 0
-198 -334 -392 0
-349 -254 -34 0
495 -456 -98 0
409 -128 -380 0
-311 169 93 0
-405 440 491 0
305 498 456 0
-467 -392 485 0
-453 209 -448 0
-320 220 -397 0
-236 464 -188 0
-48 -274 -229 0
-499 208 174 0
-63 201 -148 0
166 -122 -488 0
424 284 -169 0
187 -395 -56 0
181 118 280 0
-451 25 -460 0
414 -270 384 0
-401 236 -420 0
-59 -236 -151 0
409 -129 368 0
223 -158 67 0
149 -346 416 0
-233 -257 388 0
140 23 -338 0
-184 120 -128 0
-226 -181 -92 0
425 -269 -295 0
403 51 83 0
67 375 -361 0
416 302 40 0
87 -291 -453 0
-78 -76 -46 0
-413 -66 -214 0
22 -169 35 0
-164 230 -384 0
133 -348 -280 0
-413 144 -77 0
-219 -229 224 0
47 383 289 0
-255 115 -119 0
-112 442 437 0
171 -229 -306 0
202 -107 447 0
-83 314 -108 0
264 -402 -457 0
-46 -278 -362 0
-26 386 465 0
390 -133 470 0
-447 136 -51 0
-198 -82 17 0
203 440 -422 0
280 187 -58 0
286 432 -179 0
98 155 -60 0
50 -127 477 0
-465 204 -79 0
-132 -483 -21 0
49 346 473 0
-13 -395 487 0
-26 -285 136 0
-352 475 32 0
-182 81 383 0
394 54 -69 0
128 -418 14 0
62 373 -455 0
-11 50 -138 0
-214 205 -32 0
10 492 -415 0
463 318 -286 0
488 -396 449 0
-273 41 -35 0
-196 36 453 0
-245 -222 117 0
362 -468 -277 0
-152 163 238 0
485 -269 114 0
339 203 -9 0
116 181 341 0
267 122 -363 0
-348 -298 -27 0
153 45 77 0
-324 -343 373 0
125 337 323 0
-15 31 -378 0
-314 -74 -169 0
-268 -175 434 0
100 159 -371 0
-270 -126 260 0
280 -160 -474 0
148 203 298 0
-38 -268 -271 0
-495 -437 99 0
-454 -10 -357 0
-220 -230 215 0
-342 269 148 0
193 -478 -467 0
-207 452 385 0
297 214 294 0
22 391 434 0
-155 195 236 0
485 -343 -449 0
-148 328 -75 0
-210 -275 189 0
-344 -59 252 0
283 -166 -29 0
-38 434 14 0
-2 116 349 0
-59 379 233 0
329 409 -59 0
413 266 33 0
228 -356 409 0
282 -234 -165 0
22 -375 439 0
-442 400 159 0
169 39 -294 0
-422 -202 20 0
-154 269 362 0
164 -186 -8 0
281 115 -387 0
95 -70 -215 0
-300 464 -23 0
-412 -240 -92 0
268 -315 45 0
321 486 -446 0
221 324 435 0
379 374 445 0
-308 -281 -1 0
-129 -427 -328 0
440 -491 54 0
-47 49 -423 0
164 496 379 0
283 227 -193 0
-206 -33 -250 0
322 385 -308 0
377 -2 -428 0
-411 -288 -269 0
197 202 165 0
65 -355 -475 0
63 -56 -302 0
-452 208 -169 0
164 194 -29 0
305 -427 285 0
464 188 41 0
294 -163 -487 0
-257 375 -441 0
279 255 -129 0
-378 -296 168 0
76 210 -207 0
-187 273 -408 0
128 479 -448 0
-433 -268 443 0
-228 442 -87 0
257 465 32 0
423 467 -31 0
339 -427 35 0
-454 -17 282 0
-292 174 140 0
258 -143 271 0
65 481 15 0
-114 243 12 0
363 425 273 0
-438 -416 -159 0
76 -406 276 0
-427 375 -483 0
24 31 -33 0
79 492 25 0
-16 124 -471 0
-481 -226 337 0
159 -125 240 0
-346 -186 -231 0
-496 36 -381 0
-377 407 -126 0
-420 237 362 0
-222 382 -156 0
-162 -194 -287 0
218 333 330 0
304 459 277 0
336 -185 298 0
32 -449 92 0
421 442 -186 0
-170 -414 490 0
-195 383 -150 0
-335 14 24 0
429 -434 -255 0
139 -196 369 0
494 -56 -41 0
88 -372 -470 0
38 -16 -375 0
427 290 -87 0
345 103 -136 0
-265 473 283 0
-35 -225 -46 0
397 -491 138 0
423 170 431 0
259 -439 -204 0
361 -47 -102 0
374 425 -286 0
97 -31 -116 0
-392 316 -319 0
260 -72 49 0
-204 8 408 0
388 389 -405 0
436 -286 -61 0
-421 -480 347 0
200 391 20 0
498 236 491 0
-436 397 -88 0
390 -242 -193 0
53 -404 -379 0
-132 404 141 0
-86 -490 -170 0
431 145 429 0
336 -217 -153 0
-118 -55 -430 0
272 202 376 0
-354 306 288 0
254 34 123 0
-48 -468 -259 0
-476 322 -253 0
-292 -158 -329 0
-44 162 -347 0
-158 305 -110 0
500 262 -68 0
100 -321 -377 0
-414 -390 13 0
303 -485 325 0
-305 309 241 0
-177 -454 113 0
440 110 -389 0
160 68 -316 0
-175 -51 -91 0
170 -401 132 0
78 -234 -107 0
-85 500 -411 0
-368 -5 -117 0
-123 -397 190 0
238 -461 426 0
260 380 130 0
-262 471 -297 0
-141 368 -450 0
-101 -72 -461 0
72 24 241 0
-156 -306 111 0
-102 -220 -189 0
-124 88 157 0
-289 -218 401 0
-330 -103 314 0
-47 -218 137 0
176 -281 -76 0
295 -390 342 0
-70 -414 129 0
-41 -39 -89 0
380 -481 37 0
-168 472 456 0
-309 330 476 0
69 259 -283 0
450 324 8 0
-80 -435 234 0
-318 380 -358 0
293 306 -340 0
134 -195 -26 0
-404 300 -19 0
80 101 476 0
-157 -226 -79 0
-40 -437 -289 0
243 -386 -242 0
57 -327 -252 0
31 385 -7 0
-403 358 -457 0
413 -447 365 0
-364 242 486 0
477 -129 162 0
305 -293 -70 0
282 236 332 0
-223 -84 250 0
474 -289 -13 0
-491 -21 -148 0
-66 249 -54 0
250 -267 1 0
293 240 -491 0
-459 440 -172 0
-360 -170 -45 0
-478 -337 325 0
-330 76 -247 0
137 -322 -270 0
-115 -299 242 0
-66 344 50 0
-336 -439 475 0
388 179 264 0
-493 178 216 0
-86 183 -368 0
-213 -215 334 0
-180 -1 -429 0
221 340 314 0
50 259 316 0
-277 331 353 0
-144 340 -58 0
-268 214 160 0
-182 348 224 0
-257 162 213 0
-64 135 -313 0
-5 -11 -160 0
380 -288 -166 0
335 265 -486 0
-140 229 -291 0
304 -331 338 0
491 -205 419 0
294 351 65 0
58 -7 -416 0
114 -276 360 0
-485 322 188 0
-353 394 -24 0
232 -252 -89 0
159 138 219 0
127 -117 44 0
-174 -5 53 0
267 499 -416 0
495 101 246 0
322 -5 -42 0
328 283 -77 0
310 349 44 0
-208 404 -140 0
-43 34 195 0
115 132 -479 0
-325 -61 -47 0
204 -416 17 0
-150 149 -422 0
142 -441 129 0
465 -63 455 0
261 -17 -404 0
-31 306 117 0
-73 -399 -253 0
-432 -135 -113 0
-108 -345 395 0
-248 210 -127 0
-313 -293 246 0
-319 -236 162 0
326 54 6 0
-464 -377 414 0
226 395 472 0
338 179 -83 0
-49 -292 -28 0
438 318 224 0
57 350 422 0
500 -379 190 0
-271 -285 -490 0
30 -415 -206 0
484 396 311 0
67 482 167 0
-130 -331 224 0
449 354 485 0
90 -464 38 0
-331 -379 -403 0
137 -175 229 0
322 86 170 0
317 -365 480 0
295 351 -265 0
-85 312 -429 0
-425 -185 416 0
287 -49 346 0
-292 -228 353 0
82 -492 144 0
-87 -163 200 0
-273 7 -351 0
-85 487 -112 0
-296 258 -378 0
-53 45 121 0
121 -54 467 0
-146 99 163 0
-196 -304 -219 0
103 339 -112 0
-441 -126 -63 0
-287 305 358 0
96 415 -315 0
331 397 257 0
410 117 281 0
451 373 -120 0
-424 -481 -456 0
-10 49 351 0
351 -262 223 0
88 472 167 0
-163 -474 -248 0
240 120 -325 0
218 -427 -321 0
-365 -443 73 0
75 142 -125 0
-404 240 -393 0
230 146 -258 0
-80 -398 -347 0
-288 -13 194 0
363 -413 258 0
261 120 303 0
93 -400 -251 0
-334 -30 -249 0
-395 -45 -479 0
435 18 329 0
95 395 -231 0
-462 72 122 0
-223 -129 201 0
270 335 -326 0
374 76 216 0
-170 23 -145 0
-487 -99 -121 0
201 -258 -221 0
-163 241 133 0
229 21 400 0
374 420 -228 0
235 -285 -67 0
-186 -242 167 0
-151 217 360 0
485 47 -396 0
-157 87 -98 0
134 -179 -232 0
166 -90 -227 0
402 497 107 0
-225 -425 -413 0
-309 -179 289 0
-344 67 330 0
193 -266 259 0
-9 -478 111 0
-415 -116 25 0
172 -497 -369 0
93 420 -454 0
37 -443 -312 0
394 -4 384 0
-462 -432 129 0
82 146 333 0
24 -324 -13 0
127 -69 -38 0
-487 174 212 0
86 -91 -338 0
298 -344 -254 0
-57 295 -394 0
-256 12 -249 0
25 249 -324 0
25 -119 315 0
162 -480 288 0
-423 -327 -400 0
216 -350 -451 0
350 203 -296 0
94 -151 197 0
-445 -432 102 0
319 137 43 0
-429 -305 96 0
-33 142 -108 0
474 -338 82 0
253 417 115 0
-246 90 -396 0
393 -268 -201 0
106 -431 -376 0
202 230 -294 0
-119 -173 204 0
255 348 432 0
37 397 220 0
-117 -354 -63 0
-158 -318 265 0
-102 15 -351 0
-432 -152 -364 0
31 26 -451 0
39 -346 -255 0
-450 -416 -114 0
150 47 -49 0
-427 101 -98 0
212 314 -102 0
-206 54 -156 0
-237 127 336 0
294 -345 205 0
145 -396 424 0
-120 -299 -325 0
454 -99 -470 0
-483 -115 154 0
-58 -389 -127 0
-470 -73 493 0
202 444 -11 0
-243 314 -72 0
164 330 317 0
233 393 -223 0
482 -7 283 0
-403 5 189 0
343 -414 -162 0
379 -499 -192 0
-429 178 -381 0
126 -430 -44 0
427 -239 -414 0
133 -456 -357 0
21 -287 280 0
405 424 -22 0
-267 -233 -207 0
450 -445 -183 0
-400 -144 -181 0
-215 -269 137 0
196 86 -264 0
-425 -483 -320 0
102 130 335 0
482 -49 -272 0
-256 -27 -91 0
-366 138 454 0
289 91 83 0
-138 -231 -72 0
-333 54 380 0
262 188 312 0
-457 -155 -459 0
-172 -347 148 0
169 -469 379 0
84 -311 -327 0
215 228 396 0
180 -492 -273 0
-330 -88 142 0
-472 116 -91 0
-430 182 32 0
430 474 37 0
94 235 485 0
-229 -214 -318 0
125 -107 250 0
22 -250 353 0
440 -291 149 0
-241 -497 -175 0
296 329 -97 0
255 -323 211 0
-190 215 352 0
-396 443 -370 0
-363 -18 126 0
-458 219 -184 0
-227 -3 -362 0
-116 328 389 0
168 135 -8 0
166 -164 185 0
224 -209 330 0
-7 -321 -394 0
-469 -454 -306 0
356 -232 -30 0
-139 184 22 0
6 -227 486 0
-388 408 -409 0
301 -187 136 0
111 -212 310 0
-31 -201 61 0
-8 9 -341 0
-343 -325 286 0
-278 75 224 0
260 147 -216 0
306 -6 232 0
-492 11 -321 0
67 -337 -31 0
107 -46 400 0
-315 255 466 0
461 129 -126 0
-199 393 423 0
-488 -312 187 0
483 -398 277 0
-258 -326 276 0
-100 -349 442 0
243 1 31 0
175 -335 403 0
-61 -387 47 0
-453 420 239 0
14 255 -411 0
331 198 409 0
-245 241 -80 0
-485 118 432 0
-257 409 6 0
-204 89 295 0
-282 135 225 0
393 423 -474 0
287 -327 289 0
-220 -341 225 0
-348 -269 5 0
-128 -265 392 0
-499 -21 -323 0
-301 -238 -380 0
189 -313 -336 0
-328 282 -149 0
56 -17 -264 0
232 -333 80 0
332 -79 41 0
184 39 78 0
81 369 27 0
-42 135 -481 0
269 197 83 0
42 -270 -281 0
-239 -216 -451 0
396 -415 -336 0
309 -397 -483 0
306 193 367 0
-375 70 -33 0
218 176 -351 0
404 243 363 0
-196 -240 315 0
385 -172 -175 0
-474 -484 -325 0
-493 32 20 0
-108 -183 -435 0
-437 19 -97 0
-50 -348 104 0
139 1 224 0
-169 -489 -358 0
-169 -184 -479 0
-440 -68 -172 0
-6 264 -134 0
455 248 -310 0
-4 -423 -113 0
210 -313 -327 0
-230 377 -430 0
240 301 -242 0
-109 -442 -445 0
-30 11 294 0
142 277 475 0
346 118 225 0
34 354 -421 0
346 61 250 0
157 104 128 0
485 -437 -32 0
297 -128 -445 0
-26 -16 188 0
-472 -473 328 0
469 268 147 0
-317 -274 424 0
428 39 -341 0
182 496 82 0
298 -109 442 0
-84 -270 337 0
20 -86 322 0
360 -344 308 0
-34 256 29 0
-318 213 -469 0
349 11 168 0
-446 38 -255 0
23 -280 237 0
-444 -189 339 0
393 -228 -312 0
-414 -202 -463 0
101 -39 -90 0
-323 -136 155 0
-273 -95 239 0
54 426 59 0
-347 -242 -407 0
269 259 155 0
102 174 -334 0
-292 442 264 0
402 8 -108 0
93 -338 -33 0
469 -75 205 0
-362 -332 432 0
109 437 -211 0
-180 -256 -19 0
203 -149 458 0
2 169 26 0
401 -494 87 0
-239 -55 193 0
-420 138 -229 0
468 -338 -405 0
104 -393 -433 0
-360 -352 446 0
487 -377 -83 0
-113 287 -203 0
95 363 -327 0
192 316 422 0
-295 289 -313 0
268 -130 -358 0
473 -193 -243 0
-378 148 336 0
364 197 -89 0
-137 -441 -280 0
-147 -293 294 0
-193 216 27 0
412 -240 265 0
317 229 -452 0
-35 54 481 0
-465 -165 -318 0
-76 271 401 0
-3 -446 253 0
61 -32 79 0
497 74 -305 0
364 -443 409 0
18 -273 225 0
-6 237 460 0
-436 93 221 0
-128 168 -134 0
446 -3 125 0
381 331 166 0
-151 -232 -467 0
159 356 106 0
-22 -493 427 0
63 367 -67 0
-241 411 -242 0
63 -93 -162 0
-37 -408 -128 0
-434 -96 -321 0
461 353 414 0
411 132 -398 0
-155 -265 488 0
249 -267 487 0
-49 -172 376 0
368 147 431 0
12 -333 -25 0
-158 196 177 0
127 -449 -31 0
141 166 219 0
-362 -330 -444 0
-53 -100 -106 0
233 376 137 0
273 -331 266 0
186 -341 396 0
-458 408 150 0
224 15 -367 0
-316 257 355 0
-221 -10 -332 0
-82 -15 216 0
-54 48 -404 0
343 -453 -175 0
-86 141 10 0
-228 150 185 0
178 -319 470 0
113 -328 271 0
-136 134 318 0
-353 322 474 0
427 -52 20 0
309 433 -171 0
-313 -337 477 0
-24 -451 -116 0
-448 -173 -61 0
-336 204 404 0
11 -420 430 0
351 451 228 0
448 -148 -146 0
374 -382 -34 0
418 -112 175 0
-471 235 465 0
-130 251 -225 0
-258 125 -175 0
-116 483 -349 0
219 -160 -173 0
309 14 -308 0
241 -132 157 0
-459 -7 272 0
-257 -19 -33 0
-462 -275 67 0
298 388 -125 0
92 247 -498 0
132 393 246 0
256 -177 -93 0
318 461 431 0
176 -59 417 0
-22 -227 -176 0
-332 -294 -250 0
-293 -225 199 0
459 148 457 0
-313 72 -145 0
348 -59 -455 0
-392 -283 -177 0
99 -271 -472 0
492 -171 -333 0
132 13 164 0
-174 480 319 0
269 -398 128 0
-266 -326 45 0
-491 -14 -156 0
-6 424 299 0
184 -93 369 0
498 254 64 0
229 -130 -190 0
66 159 -24 0
-166 162 30 0
-160 -310 -285 0
-489 307 -158 0
-472 -172 245 0
302 469 -146 0
-152 223 204 0
386 310 68 0
421 -116 -418 0
-353 218 38 0
-46 80 168 0
-483 55 376 0
-287 -164 1 0
499 320 365 0
-60 216 -131 0
476 -46 -168 0
58 484 -365 0
473 -149 -331 0
397 368 -490 0
469 435 -106 0
-367 259 -154 0
432 -229 442 0
420 274 477 0
-230 -169 440 0
-360 390 414 0
-23 -378 -362 0
480 -348 339 0
172 87 -156 0
260 -371 236 0
427 161 -419 0
167 -186 98 0
126 482 -58 0
-431 -12 319 0
139 384 -172 0
28 470 -311 0
-85 290 -468 0
53 335 179 0
145 367 70 0
58 118 -334 0
294 313 173 0
-215 -106 430 0
-16 -218 262 0
-83 -116 497 0
133 76 39 0
291 389 -239 0
-117 7 398 0
-114 -235 -457 0
-279 430 207 0
431 -6 -272 0
-175 -143 -161 0
-36 -438 -414 0
227 -179 -106 0
170 -249 -414 0
220 67 261 0
1 -222 -217 0
405 106 278 0
124 64 446 0
31 278 185 0
-35 393 500 0
-287 -400 103 0
206 251 84 0
3 -311 293 0
460 -301 38 0
142 67 -278 0
-273 -374 40 0
297 -442 237 0
307 -387 -18 0
245 -110 -443 0
231 100 17 0
-246 -25 87 0
352 470 -168 0
215 479 -225 0
-123 -22 32 0
142 377 -36 0
5 36 -101 0
-472 -435 50 0
372 76 441 0
257 280 44 0
-182 444 -373 0
-204 441 -190 0
-106 103 270 0
300 481 -18 0
-169 259 -247 0
276 -36 -389 0
-23 432 204 0
147 -31 -422 0
-110 -276 -373 0
-417 418 346 0
-65 262 -162 0
159 -327 -242 0
226 456 94 0
-212 439 465 0
373 301 -451 0
5 94 332 0
-105 228 -394 0
53 482 476 0
-194 351 -492 0
-273 -411 -331 0
-346 252 238 0
-330 354 499 0
-286 282 -493 0
171 80 -308 0
-494 -278 -324 0
369 491 -470 0
-360 -288 434 0
406 -212 -197 0
-352 441 -197 0
