c Random 3-SAT formula for benchmarking
c Generated with seed 65
p cnf 200 852
107 -74 -132 0
-136 -114 142 0
-19 144 -120 0
-160 178 12 0
136 189 -35 0
-95 148 168 0
102 116 122 0
-200 -86 65 0
45 -189 111 0
-47 -42 147 0
-133 196 108 0
77 -143 91 0
-78 -172 -17 0
-42 -34 -24 0
166 -96 140 0
-42 -126 -125 0
130 -165 80 0
-24 47 133 0
68 185 -170 0
-175 -76 62 0
-107 36 -159 0
-70 -57 -59 0
-42 57 -185 0
-92 -72 42 0
-176 69 -20 0
-3 151 70 0
70 -67 11 0
-110 -197 -123 0
182 148 56 0
128 -167 -94 0
-169 47 -14 0
158 64 191 0
-14 -192 52 0
180 196 42 0
186 -9 -11 0
76 37 -148 0
55 136 -42 0
-191 -110 156 0
27 29 -69 0
112 -74 -181 0
131 144 -75 0
-144 149 -31 0
55 -143 -167 0
-126 76 -188 0
7 136 15 0
54 51 101 0
71 -151 -67 0
116 -69 -170 0
45 114 -74 0
-104 116 -108 0
137 -88 5 0
96 1 74 0
195 125 -154 0
150 35 -76 0
26 166 154 0
8 28 -199 0
89 -192 -148 0
10 171 123 0
-115 -121 52 0
-87 -126 40 0
17 -129 -117 0
183 -157 176 0
-80 -107 -26 0
161 -50 -65 0
-138 -38 -36 0
-127 -73 112 0
-96 1 115 0
-104 159 12 0
-44 -73 31 0
-79 -14 -172 0
19 -22 94 0
156 -182 130 0
-183 -44 -6 0
-130 69 132 0
-102 46 -180 0
8 62 131 0
-75 -104 147 0
-87 118 -170 0
29 156 14 0
-25 -171 35 0
96 60 -101 0
-55 -164 146 0
174 37 26 0
-144 -55 123 0
50 -62 -44 0
200 189 21 0
-192 -77 -51 0
124 5 128 0
33 37 143 0
173 -101 -32 0
-157 -60 -180 0
192 -200 59 0
37 26 68 0
113 -55 187 0
12 -65 52 0
64 73 176 0
59 26 39 0
95 -109 9 0
182 181 -108 0
14 -164 84 0
189 165 25 0
173 136 21 0
-137 -166 -38 0
-150 -198 -91 0
-197 -15 17 0
-21 -86 69 0
192 39 -135 0
-115 -128 15 0
89 -145 -7 0
148 -75 -22 0
69 120 130 0
180 -164 -154 0
89 -54 -12 0
-98 31 197 0
29 -182 107 0
-128 -129 91 0
-167 84 -58 0
113 22 168 0
-71 -64 47 0
139 -112 36 0
-172 93 145 0
120 188 46 0
-36 -112 -65 0
71 180 -126 0
117 26 138 0
-148 -193 56 0
199 142 60 0
-198 -174 -132 0
-184 186 62 0
70 23 139 0
-97 -14 65 0
16 133 -75 0
197 26 162 0
188 164 112 0
183 12 -180 0
25 -172 183 0
149 -182 164 0
181 -192 74 0
-163 139 165 0
-18 -58 -71 0
-83 -25 -95 0
-78 -8 63 0
151 -19 -18 0
74 187 170 0
70 -177 -146 0
13 -24 140 0
170 93 -82 0
-13 -189 -97 0
121 125 156 0
66 169 -5 0
197 -142 187 0
191 -125 189 0
32 -179 -163 0
173 -132 -87 0
-46 -19 160 0
-81 -51 -2 0
38 -193 -116 0
193 20 -103 0
69 -93 117 0
-196 -103 21 0
196 -120 -138 0
-200 12 163 0
-145 -100 -13 0
40 88 128 0
84 -172 185 0
-1 6 -36 0
-48 -189 -119 0
72 -12 -127 0
-27 -162 3 0
-122 136 171 0
152 -126 128 0
166 -19 -98 0
-152 113 172 0
38 -161 149 0
69 172 -194 0
147 144 199 0
-126 -183 34 0
188 94 2 0
-21 -87 -5 0
-109 72 117 0
55 86 103 0
7 18 157 0
-70 87 -187 0
2 -135 -43 0
41 -118 127 0
-26 149 14 0
68 135 -150 0
19 -156 -64 0
-4 -142 24 0
-40 -45 -151 0
40 -39 118 0
134 -7 -99 0
-156 91 -95 0
-2 -58 -197 0
119 -86 -80 0
19 -3 -159 0
-129 152 181 0
57 73 62 0
-120 183 -42 0
-166 3 -120 0
-31 -152 50 0
-157 23 -144 0
-55 99 -123 0
120 23 86 0
169 -183 119 0
119 -73 121 0
160 -99 135 0
-54 130 -36 0
73 -165 -160 0
102 -186 -52 0
-112 119 -96 0
160 37 28 0
-186 -11 -140 0
-48 -71 80 0
-150 -53 -86 0
-156 -48 191 0
80 58 -166 0
-179 69 49 0
163 189 -126 0
-184 -83 -43 0
-110 -71 41 0
27 -26 -175 0
43 -67 -27 0
-131 88 180 0
-68 186 17 0
-126 25 91 0
82 -127 -37 0
-106 -60 -47 0
112 -66 -155 0
3 55 -30 0
-9 192 -17 0
55 176 185 0
100 146 96 0
183 32 187 0
-143 -148 -167 0
49 173 -28 0
-191 165 130 0
-27 169 158 0
188 -22 -173 0
141 66 82 0
136 -125 134 0
-107 111 200 0
8 68 -169 0
51 -131 67 0
-18 -150 -133 0
-176 117 160 0
-151 115 136 0
-192 -24 -196 0
155 -58 190 0
-27 -69 -82 0
59 -191 172 0
164 38 -75 0
-124 43 86 0
-173 132 78 0
98 16 118 0
-4 -75 126 0
-133 -95 -77 0
141 146 54 0
23 -190 161 0
135 23 -59 0
-100 5 81 0
-20 -61 -146 0
-51 136 146 0
-177 -96 130 0
-24 -92 161 0
110 94 18 0
148 21 176 0
-10 81 109 0
165 -82 -19 0
118 55 -74 0
163 -120 182 0
64 173 110 0
-120 -22 -103 0
-181 -135 -124 0
49 93 198 0
163 -128 162 0
174 168 26 0
44 26 25 0
-187 186 104 0
-124 -156 86 0
-30 -199 -41 0
-54 -27 -119 0
-44 -123 66 0
-133 -41 67 0
-95 49 39 0
-118 33 62 0
-177 20 -73 0
-22 112 -51 0
155 128 93 0
28 -85 -94 0
116 115 -16 0
-158 126 -61 0
17 -11 114 0
24 -11 -143 0
-145 -197 -57 0
34 -152 -171 0
34 45 -18 0
-146 83 116 0
86 61 55 0
15 -111 117 0
-68 54 -115 0
-114 -128 190 0
-29 60 -112 0
167 -129 91 0
-63 -122 136 0
83 -178 22 0
-194 126 -42 0
-124 105 47 0
67 78 103 0
-91 111 -157 0
83 140 167 0
-128 -188 144 0
-30 -174 -199 0
-21 -6 150 0
98 -9 -153 0
-76 -182 -174 0
-96 5 -150 0
-177 -125 -29 0
-108 -137 -126 0
-129 105 131 0
-19 90 156 0
-76 165 -16 0
-20 -79 103 0
132 -129 6 0
168 -1 -200 0
-27 178 106 0
81 180 -152 0
89 185 -144 0
30 73 -143 0
-5 -4 142 0
193 117 -98 0
108 161 -6 0
-84 58 -51 0
-86 -156 44 0
137 -80 -86 0
-40 -1 -59 0
-162 90 -148 0
-130 67 5 0
-141 41 38 0
165 -54 96 0
26 42 -131 0
97 -128 -184 0
45 62 -166 0
-114 98 -186 0
60 144 -129 0
-161 28 74 0
-110 -122 148 0
-95 184 -76 0
190 104 61 0
124 -85 191 0
27 -197 -191 0
-66 -117 -47 0
54 -143 102 0
186 30 20 0
-37 9 -78 0
54 159 -6 0
-81 -158 -50 0
-61 186 29 0
169 123 160 0
164 -74 -42 0
154 99 -196 0
-33 -127 -52 0
-36 93 33 0
-72 -135 190 0
-148 -3 -187 0
-14 -11 66 0
53 75 -114 0
63 -132 -49 0
-57 -198 149 0
172 -22 140 0
67 103 -4 0
168 45 -8 0
-6 161 148 0
-18 126 -45 0
-113 144 114 0
44 139 -168 0
12 174 25 0
22 133 70 0
28 142 -88 0
9 -102 -127 0
125 51 -181 0
-11 -40 120 0
135 178 194 0
113 -82 37 0
-186 -200 -94 0
133 -34 112 0
182 -99 70 0
-187 -154 -188 0
22 -33 -1 0
-15 94 -100 0
-128 -133 -107 0
-183 60 108 0
132 -109 -155 0
-179 27 -24 0
82 185 42 0
-166 191 -182 0
161 -2 185 0
174 122 -73 0
-60 179 9 0
30 -118 -14 0
170 26 102 0
167 -89 113 0
190 -21 -14 0
125 91 171 0
196 -144 75 0
147 43 -73 0
2 -102 43 0
165 -86 89 0
71 107 153 0
119 63 99 0
56 -55 161 0
170 31 -86 0
19 -72 75 0
29 166 -177 0
129 67 71 0
188 -182 150 0
24 117 151 0
50 145 151 0
-37 31 -90 0
-200 133 28 0
142 -134 163 0
49 186 -151 0
-116 -108 16 0
-78 11 -28 0
60 -133 184 0
105 94 82 0
186 181 -180 0
15 188 -37 0
-149 143 106 0
143 -188 28 0
-33 -159 108 0
-57 -75 -50 0
1 140 87 0
29 -35 188 0
-17 114 67 0
-164 -78 -83 0
-159 -24 187 0
-79 -144 -71 0
-197 -164 194 0
30 -13 -185 0
111 -172 -200 0
196 -165 133 0
123 129 30 0
64 -51 81 0
-98 -25 -164 0
-45 -85 -136 0
-12 -28 -19 0
-156 -6 162 0
-7 34 -105 0
165 5 132 0
112 195 -73 0
-100 148 -82 0
46 132 -87 0
-161 32 -176 0
162 -112 1 0
186 76 59 0
-42 114 -86 0
88 143 183 0
-92 -157 180 0
-197 182 159 0
171 50 82 0
-117 -118 -28 0
198 2 -181 0
-41 182 -23 0
50 -27 -90 0
52 111 -135 0
-63 -165 -5 0
-47 -103 -167 0
-140 -185 79 0
-113 -125 -6 0
-166 145 142 0
-86 -172 19 0
73 20 -84 0
-114 -91 139 0
41 -82 155 0
-6 -83 141 0
-149 92 -105 0
-80 76 -114 0
-184 113 -51 0
163 -149 158 0
-48 -20 -18 0
-33 -151 8 0
-30 79 194 0
-70 -177 -143 0
52 109 -18 0
-146 91 -138 0
87 26 -108 0
171 32 71 0
-13 -199 136 0
-43 179 -80 0
186 35 -90 0
86 -61 147 0
13 17 126 0
-45 -57 119 0
81 -18 -124 0
-35 186 -98 0
-88 44 50 0
136 4 -131 0
-51 -14 -96 0
-126 -110 -1 0
-30 -155 -4 0
64 -29 198 0
20 -155 186 0
-158 111 -72 0
19 -152 -115 0
176 148 9 0
-189 -13 -183 0
148 13 -41 0
-160 -153 -75 0
-2 -115 16 0
85 -139 53 0
155 -161 -29 0
54 4 -136 0
169 23 -27 0
-47 99 -68 0
-9 180 174 0
171 187 129 0
-184 -23 -85 0
74 187 71 0
-93 -91 -18 0
-79 170 157 0
147 89 -9 0
80 199 93 0
86 12 -18 0
-106 -74 -46 0
123 -179 137 0
65 -177 135 0
-130 -119 -73 0
135 -181 -54 0
-76 -32 -70 0
-163 -19 132 0
50 77 195 0
185 -6 -37 0
162 87 105 0
-157 173 -61 0
-13 130 -152 0
147 -184 -77 0
-61 -184 14 0
49 145 -150 0
-196 96 -2 0
96 -110 131 0
-140 65 -2 0
-81 -101 -197 0
-186 -80 73 0
158 -179 3 0
83 -191 -137 0
47 67 -106 0
77 60 24 0
-75 7 179 0
83 -69 42 0
48 172 -152 0
70 138 18 0
21 -156 -101 0
-187 49 -91 0
21 179 -14 0
84 -180 -147 0
92 -175 198 0
-36 -182 173 0
152 -92 -136 0
167 -18 171 0
-149 -137 174 0
-126 98 51 0
105 13 50 0
85 -61 -88 0
-118 -157 -127 0
-35 139 -134 0
117 162 194 0
-148 50 -171 0
99 -57 -142 0
-149 158 196 0
-119 173 -164 0
53 -18 116 0
-192 8 -163 0
58 -163 -113 0
-199 -146 -5 0
32 30 51 0
-50 -1 -32 0
142 -126 85 0
68 -116 -18 0
-40 -156 -103 0
-108 161 -191 0
-60 -190 -23 0
-74 175 -188 0
43 -3 -183 0
151 94 -88 0
42 173 -156 0
72 -126 -164 0
45 -71 172 0
100 -54 -66 0
49 -171 -150 0
-70 23 61 0
-43 -13 92 0
-169 157 -162 0
-120 34 184 0
-143 -194 78 0
146 -174 -152 0
-39 -175 76 0
-111 -43 118 0
130 -107 -26 0
-149 -24 14 0
133 -19 110 0
13 82 -126 0
-47 -167 -41 0
112 -73 113 0
-187 -112 79 0
-136 35 -73 0
157 156 79 0
-127 42 149 0
-113 112 -42 0
-153 129 -13 0
45 87 78 0
-51 50 99 0
87 195 -155 0
-75 -68 -166 0
137 28 -197 0
40 9 157 0
-50 186 -27 0
-108 68 -131 0
-30 -159 -48 0
-122 6 -102 0
-11 -97 -56 0
-85 -143 -78 0
192 -54 -181 0
-182 -60 199 0
-55 -162 -136 0
-119 -13 190 0
-101 97 -63 0
166 29 -105 0
22 113 36 0
-78 -114 -33 0
195 -171 180 0
-19 -187 146 0
57 24 156 0
164 -56 129 0
-133 25 152 0
-148 76 -85 0
150 52 157 0
-200 -186 -124 0
-125 -119 -20 0
-22 187 -94 0
-74 -35 -195 0
-75 -128 -177 0
-20 -182 191 0
98 60 41 0
31 123 32 0
-54 99 -170 0
-75 9 118 0
29 158 54 0
-71 -5 102 0
-112 61 -38 0
68 3 -185 0
-36 -46 -173 0
198 -54 15 0
-167 185 83 0
185 -124 -13 0
-75 144 -163 0
134 -126 186 0
-103 193 -124 0
88 -186 11 0
-118 -95 142 0
-124 128 -173 0
-51 200 17 0
-195 92 123 0
157 -25 176 0
191 82 136 0
99 47 -30 0
-146 -80 -14 0
119 -13 136 0
137 -142 -7 0
-184 -19 -45 0
74 37 -68 0
-79 36 -119 0
9 200 -115 0
24 -137 126 0
136 -101 -141 0
128 166 -198 0
-195 119 1 0
-82 -97 79 0
-100 -2 -106 0
-83 -138 -120 0
7 -70 -199 0
-31 80 -165 0
48 -68 34 0
-18 161 115 0
-98 189 53 0
-35 166 -58 0
-133 -144 -171 0
-117 -200 -156 0
-70 -92 80 0
-125 -15 155 0
-124 110 -85 0
-123 195 127 0
-198 -48 167 0
-167 190 153 0
124 12 -30 0
-167 154 64 0
-40 -91 34 0
-142 -1 86 0
-151 -117 148 0
101 9 140 0
-94 85 197 0
-94 -182 -23 0
130 -192 -97 0
-126 105 136 0
-154 148 97 0
-109 185 -133 0
-86 -166 -23 0
92 194 13 0
58 -143 53 0
77 -35 -105 0
-7 -199 131 0
165 -136 -156 0
19 12 -16 0
-178 -72 -63 0
66 -69 -143 0
-166 -53 -67 0
29 -40 133 0
-92 -197 152 0
193 196 46 0
103 88 82 0
-180 -9 14 0
-46 -92 -79 0
111 107 -44 0
-164 -93 -20 0
-78 48 182 0
-35 -159 134 0
74 -78 185 0
85 154 168 0
165 139 -34 0
-73 -165 31 0
-169 -127 6 0
143 42 -32 0
-2 32 180 0
91 199 -31 0
102 58 -38 0
199 -193 174 0
-101 61 95 0
-190 -166 -4 0
-187 -164 129 0
-190 56 67 0
3 100 -53 0
8 -9 -69 0
-106 -149 7 0
-102 138 -160 0
-91 8 14 0
6 -190 114 0
193 -82 112 0
40 -184 158 0
199 74 -148 0
62 7 -5 0
-189 -92 108 0
-52 -149 -74 0
-121 -144 -38 0
195 29 -50 0
-84 -46 142 0
30 27 178 0
-10 5 92 0
88 -43 67 0
200 49 135 0
-170 14 -43 0
75 -180 86 0
-80 108 24 0
-88 30 -143 0
-85 141 -108 0
173 -79 136 0
153 22 185 0
62 99 49 0
98 -138 -148 0
-62 -50 59 0
-165 -129 81 0
2 152 176 0
11 -64 44 0
36 58 180 0
153 -143 -52 0
198 -161 147 0
150 114 -18 0
125 -74 178 0
50 162 1 0
-117 100 58 0
63 -100 87 0
-35 114 24 0
22 161 -85 0
-131 -145 -1 0
3 -95 20 0
25 -2 -144 0
-118 103 30 0
167 -50 -166 0
-35 -130 64 0
46 -140 158 0
-124 -16 149 0
-133 59 -158 0
-110 87 174 0
-109 -184 -150 0
115 81 -161 0
-61 -180 -150 0
-126 134 108 0
-89 -112 -158 0
41 197 10 0
200 -126 110 0
-118 158 171 0
-68 108 135 0
-155 42 44 0
69 85 -7 0
-159 -64 98 0
-170 -200 -85 0
186 -181 158 0
-70 -128 -90 0
-65 -21 -98 0
114 176 -62 0
163 -153 162 0
79 119 -157 0
-42 95 -53 0
-183 140 99 0
-158 176 50 0
175 48 -55 0
-138 -188 93 0
-82 -179 183 0
85 40 -4 0
-57 -85 -167 0
-76 -163 92 0
-197 128 -5 0
-128 -163 -135 0
125 -65 8 0
7 -120 147 0
121 -43 -59 0
-169 -130 -39 0
42 97 -178 0
-93 -44 70 0
-142 -198 169 0
32 -113 33 0
113 -143 47 0
110 197 192 0
-102 -196 84 0
190 120 36 0
60 142 4 0
101 -180 112 0
-11 -188 142 0
-112 -163 -130 0
-33 120 134 0
151 -55 10 0
-157 -12 -150 0
12 163 -169 0
-197 -186 95 0
-177 -76 52 0
-199 50 88 0
146 -98 199 0
-81 -131 45 0
34 -76 -54 0
5 -192 59 0
166 -195 188 0
-143 -112 107 0
-177 65 -17 0
