c Random 3-SAT formula for benchmarking
c Generated with seed 53
p cnf 1000 4260
632 -874 -912 0
-960 -736 534 0
879 -952 38 0
268 903 761 0
369 235 452 0
-142 -360 520 0
341 -286 -157 0
450 254 -673 0
662 -845 492 0
915 148 82 0
-792 -490 -940 0
-241 58 394 0
-204 549 -338 0
-228 536 -492 0
206 -618 310 0
-400 387 -80 0
235 -837 472 0
-196 -787 -930 0
235 -184 857 0
-779 -185 -287 0
914 99 973 0
-741 -647 -551 0
-195 -711 -812 0
611 -994 162 0
-64 -659 546 0
-772 -682 442 0
-678 698 -656 0
-55 254 -269 0
23 -345 270 0
665 -857 37 0
682 -994 487 0
414 797 -421 0
560 941 -425 0
260 -298 -200 0
-214 488 -124 0
-830 -43 519 0
-215 -415 -651 0
837 -707 -768 0
-134 595 249 0
-380 525 709 0
-178 648 -287 0
-167 -599 -87 0
72 655 -97 0
-22 -374 436 0
777 207 -673 0
-881 -847 772 0
-366 822 627 0
977 134 -666 0
307 283 525 0
262 -261 -600 0
-455 -966 -957 0
678 122 382 0
-198 493 724 0
362 -368 722 0
-465 340 -914 0
-498 444 211 0
-40 89 -868 0
921 187 -933 0
110 -135 -341 0
-125 227 -334 0
935 -117 -1 0
656 -377 -263 0
280 601 -323 0
996 -463 32 0
930 103 -957 0
576 -151 -906 0
869 858 -904 0
919 109 -860 0
459 451 -559 0
-515 395 109 0
-594 -824 -185 0
-956 -510 -675 0
352 -406 -589 0
-209 636 -986 0
-837 392 -432 0
754 963 -603 0
-238 481 -91 0
763 -479 529 0
929 -190 -536 0
710 780 -837 0
803 -109 683 0
644 718 651 0
764 536 267 0
-411 -579 240 0
194 -929 204 0
108 -770 -368 0
414 -121 -167 0
-545 -844 -638 0
-179 901 71 0
-159 72 -964 0
582 -69 868 0
573 -623 320 0
-364 961 -535 0
32 -402 -272 0
558 -393 607 0
-256 -849 618 0
276 633 -716 0
289 -525 -13 0
703 215 -510 0
193 256 33 0
387 -342 -55 0
773 214 -541 0
176 745 -163 0
287 970 453 0
-474 -11 -941 0
198 339 -373 0
-493 405 -18 0
638 -134 -36 0
-749 533 -772 0
969 808 750 0
651 -97 -767 0
-1000 222 62 0
-83 -646 -266 0
-982 239 828 0
739 -978 70 0
79 -153 81 0
898 498 586 0
18 -932 575 0
491 381 300 0
-928 203 100 0
-119 875 521 0
738 -275 -32 0
652 -975 275 0
-823 23 -143 0
-340 363 505 0
-933 -35 355 0
762 -845 781 0
970 16 304 0
-147 -803 122 0
-180 -518 507 0
-91 153 -976 0
474 998 812 0
453 511 2 0
990 -947 477 0
-895 -831 -518 0
82 -628 36 0
-640 -411 -224 0
112 -207 -107 0
-123 -557 -991 0
-992 -237 980 0
689 119 -725 0
863 312 -601 0
-531 -157 694 0
-459 919 610 0
388 -52 350 0
756 -749 818 0
-369 -869 -934 0
-220 600 887 0
-193 539 -24 0
-322 -437 -565 0
889 766 -95 0
706 263 -158 0
503 -610 158 0
510 978 -382 0
-85 617 775 0
826 -524 -92 0
-102 -638 44 0
470 25 -696 0
819 637 966 0
-384 -710 602 0
408 589 322 0
903 569 779 0
-34 -197 -619 0
406 -898 310 0
-931 -88 306 0
-901 -579 491 0
68 -97 644 0
-944 -472 -107 0
-907 -100 973 0
61 963 734 0
-714 498 488 0
407 -401 764 0
807 -293 310 0
-366 -923 -434 0
909 646 -854 0
-199 791 -997 0
-367 -971 803 0
954 78 938 0
-850 569 798 0
-901 192 240 0
-899 -493 463 0
-907 -911 -86 0
953 -852 75 0
-508 662 433 0
-99 984 -102 0
423 1 62 0
-674 -882 287 0
-538 -378 -234 0
380 -400 -792 0
105 180 109 0
570 -315 -798 0
630 656 888 0
260 -25 -699 0
290 108 618 0
-760 200 -727 0
-957 -746 380 0
-321 683 -752 0
54 -579 -677 0
98 332 810 0
766 -243 -107 0
-747 -976 304 0
-424 671 34 0
241 -440 -113 0
-564 883 45 0
-458 -928 874 0
-375 -937 501 0
-484 -838 -830 0
-410 -403 934 0
434 41 -655 0
617 -794 -446 0
-79 819 62 0
-730 -606 582 0
-330 -328 357 0
117 61 312 0
-294 -447 -631 0
338 446 -874 0
360 730 -310 0
596 -137 364 0
-326 338 -440 0
-436 -66 391 0
583 -793 -968 0
-787 448 783 0
-75 -969 -78 0
-827 -819 -602 0
567 417 -640 0
-704 634 412 0
-18 862 -850 0
811 -377 272 0
-669 650 534 0
-334 894 -218 0
-239 -42 837 0
703 -144 -680 0
-856 984 -15 0
-638 12 -767 0
672 -534 -480 0
-650 768 -504 0
-46 -341 198 0
-47 -520 189 0
776 584 357 0
-910 569 -268 0
305 -355 -583 0
-674 -729 -419 0
-402 88 -383 0
820 454 -690 0
-735 -711 673 0
-950 -720 731 0
605 -738 -296 0
584 221 727 0
379 -921 172 0
-471 -962 -892 0
-868 673 490 0
690 401 -111 0
-281 -777 186 0
-289 594 54 0
-172 212 449 0
91 -632 326 0
-221 -272 -958 0
241 -280 661 0
504 -244 -894 0
397 -64 520 0
230 -717 375 0
-42 411 -588 0
39 -783 -372 0
-598 44 -772 0
596 -352 -132 0
-202 600 -575 0
572 39 -4 0
483 -163 -183 0
161 -202 -100 0
-465 -973 -737 0
678 453 803 0
222 -601 950 0
143 237 -916 0
823 -262 -866 0
843 33 -841 0
-905 349 -224 0
160 -392 -504 0
859 -213 277 0
-386 660 -705 0
613 -258 -996 0
543 -750 -554 0
757 -716 733 0
-37 249 -367 0
-914 -452 -941 0
413 -787 -372 0
-436 537 799 0
-726 986 -176 0
51 -751 602 0
226 -979 517 0
670 -968 -477 0
-785 -318 -86 0
486 -250 569 0
758 -675 -170 0
-612 -765 -769 0
383 -863 -869 0
-137 -491 952 0
-161 345 -103 0
245 551 919 0
897 -223 -652 0
519 694 -597 0
-365 -347 613 0
-512 -180 199 0
-765 833 977 0
-21 -945 884 0
-908 -563 646 0
786 -310 -584 0
-674 748 -970 0
-924 809 72 0
566 794 -678 0
994 188 -868 0
-250 -285 550 0
-897 -508 27 0
537 497 -63 0
-980 -757 968 0
-863 -279 502 0
614 138 717 0
-134 -672 -490 0
-703 -765 719 0
-25 563 -480 0
-945 447 805 0
-426 -528 -872 0
-699 -921 708 0
-187 -849 46 0
156 888 634 0
-247 -944 -543 0
-728 -470 -366 0
107 -323 -512 0
39 103 297 0
696 -518 -515 0
-116 -38 -80 0
-406 539 -926 0
-493 320 -55 0
-94 -135 445 0
1 -623 -958 0
-336 111 -781 0
-189 538 -177 0
-882 -379 955 0
-81 -377 -716 0
-856 168 -487 0
-179 -653 818 0
599 -408 -720 0
245 -353 -772 0
-332 600 -138 0
123 -756 -694 0
-601 949 -234 0
375 -380 -417 0
-362 -115 -47 0
-708 581 -562 0
-131 84 315 0
33 262 -623 0
-620 700 291 0
-490 -248 889 0
-980 -677 758 0
-992 -17 -950 0
-869 799 740 0
-600 -464 -365 0
-686 -481 46 0
494 -444 704 0
240 -15 -164 0
931 -977 660 0
-158 213 171 0
-662 -801 -913 0
-950 251 739 0
469 -413 378 0
942 67 973 0
-638 481 -429 0
637 672 -64 0
-538 260 930 0
-16 -339 -337 0
754 -239 765 0
-581 768 -900 0
-512 304 513 0
941 -974 -500 0
143 -977 984 0
177 -660 408 0
290 -921 13 0
-494 86 23 0
608 741 -889 0
462 237 981 0
-394 -128 -260 0
695 579 308 0
428 -339 966 0
965 953 -884 0
-844 -412 771 0
119 712 -594 0
125 -369 -727 0
-394 -200 -166 0
-142 840 -976 0
-373 -748 548 0
630 -555 72 0
-422 -679 197 0
-330 908 99 0
-137 -623 -519 0
-105 224 -304 0
-176 -897 185 0
-616 240 762 0
-693 433 197 0
539 -447 155 0
615 608 243 0
346 619 812 0
58 688 -819 0
-898 436 -986 0
7 71 -959 0
264 -964 -806 0
450 -9 843 0
-400 900 971 0
273 -260 454 0
-535 608 997 0
452 -134 -579 0
629 874 -139 0
-524 -231 742 0
2 -337 571 0
659 3 851 0
-756 679 -637 0
-258 -333 -943 0
904 -248 765 0
659 -602 -415 0
378 -538 -167 0
599 -302 -557 0
-966 52 -457 0
297 -253 -76 0
465 680 794 0
366 803 641 0
-223 962 664 0
-348 -239 445 0
-501 361 -114 0
-72 -526 -322 0
-385 378 -147 0
541 375 -891 0
300 -967 -487 0
487 417 -701 0
461 311 -383 0
905 -207 863 0
429 859 285 0
-561 141 471 0
-583 891 866 0
-832 -30 -206 0
-448 180 -532 0
54 624 -687 0
-9 -649 370 0
-112 -760 -36 0
-898 -389 -386 0
-907 -617 -201 0
363 74 -410 0
-305 280 -711 0
-908 608 -845 0
492 -517 905 0
-952 85 -717 0
-227 -296 743 0
337 -597 -282 0
896 -295 472 0
-770 -517 690 0
860 771 -219 0
-746 -505 -770 0
-47 -12 329 0
158 250 611 0
717 -208 221 0
-679 -406 -684 0
-867 727 933 0
-917 161 -967 0
786 424 265 0
203 -836 -657 0
246 -584 722 0
-761 -732 -206 0
-277 -520 -767 0
982 828 -955 0
224 493 -854 0
-543 -714 465 0
90 789 433 0
-247 487 -19 0
-190 293 -828 0
64 -769 -392 0
486 195 992 0
868 -66 703 0
-16 437 887 0
127 -333 789 0
700 -466 344 0
-978 -849 920 0
992 983 -545 0
-384 486 -987 0
802 -150 -68 0
916 -388 -413 0
-913 220 -598 0
447 439 590 0
-348 -534 -41 0
430 -654 -597 0
-271 332 -13 0
-363 -185 900 0
-263 -443 -888 0
915 -528 -853 0
-245 401 374 0
84 -567 -833 0
-337 -574 791 0
-854 -238 921 0
-4 941 756 0
-993 -381 226 0
651 388 -97 0
48 574 965 0
732 -555 773 0
615 87 -843 0
498 655 430 0
81 594 -648 0
-831 397 78 0
-459 743 749 0
-461 -297 -572 0
75 762 417 0
-391 790 338 0
-228 -360 631 0
677 -9 -515 0
133 -498 855 0
-64 -969 267 0
643 -847 -16 0
-382 103 -562 0
-375 859 311 0
289 -131 892 0
-199 -432 -903 0
513 -755 -274 0
-804 846 695 0
912 -204 -135 0
-501 476 -462 0
773 -499 350 0
-660 980 342 0
-836 -485 597 0
863 254 -40 0
928 424 -764 0
547 -462 88 0
-446 -69 -261 0
625 305 632 0
-642 -733 -192 0
717 -576 414 0
497 306 -631 0
-699 759 -770 0
-60 408 930 0
-446 632 -383 0
104 909 273 0
915 -717 -45 0
-564 382 736 0
806 -809 -639 0
544 -468 124 0
638 550 -594 0
465 -525 219 0
689 360 982 0
970 540 -765 0
17 277 -249 0
-282 889 196 0
-230 818 214 0
125 -23 425 0
-756 -779 317 0
307 881 225 0
-201 -386 122 0
77 -526 -753 0
-861 284 918 0
-118 73 321 0
361 -486 -386 0
118 -54 -909 0
-616 -320 187 0
-118 -629 390 0
-605 -179 908 0
911 -259 881 0
-551 917 900 0
-345 -521 -349 0
636 -719 418 0
-18 -896 906 0
-522 97 323 0
551 -363 591 0
384 -320 671 0
858 754 -3 0
590 864 -797 0
451 991 655 0
-295 -699 -574 0
-448 412 -945 0
45 -265 -561 0
-523 919 -448 0
-592 -448 -317 0
604 -791 492 0
845 493 -621 0
-741 -649 -654 0
646 603 804 0
387 -81 -645 0
652 -131 -236 0
-920 844 -732 0
-706 -535 -545 0
-97 913 -588 0
-458 140 -209 0
964 -301 -389 0
40 -508 31 0
-924 -233 -246 0
938 638 -451 0
31 -28 -622 0
224 -487 175 0
-306 503 -429 0
518 -622 674 0
489 819 -999 0
14 -654 -820 0
361 285 462 0
281 345 155 0
-713 -437 759 0
756 -813 550 0
-75 -397 473 0
468 827 -214 0
805 -867 -134 0
639 672 -900 0
-901 -231 497 0
183 714 469 0
-414 348 -686 0
-254 17 399 0
297 355 -65 0
541 708 -404 0
165 -498 56 0
-967 -777 60 0
-989 846 -624 0
-410 -70 282 0
480 166 -612 0
131 -620 -207 0
-792 954 288 0
-824 -745 -638 0
-342 681 -154 0
544 446 291 0
885 -992 450 0
556 -697 -484 0
332 389 -830 0
51 426 279 0
613 465 -299 0
-414 -633 -849 0
-276 928 -97 0
214 -85 43 0
832 -298 -783 0
240 894 -997 0
844 274 -928 0
-645 868 488 0
466 590 460 0
-66 -114 -156 0
-14 250 -156 0
576 672 203 0
628 358 806 0
167 -214 -911 0
-82 805 -310 0
731 714 -26 0
936 483 263 0
583 365 -577 0
645 609 -626 0
487 694 -771 0
389 697 656 0
947 797 -584 0
-435 -194 685 0
806 350 541 0
964 -688 -509 0
-942 64 530 0
-371 -402 540 0
-542 -149 -56 0
683 -22 102 0
582 -288 109 0
-912 436 4 0
648 940 806 0
-719 550 -620 0
-334 -813 294 0
-140 -516 676 0
-611 763 436 0
-801 148 187 0
-697 513 -708 0
-870 -930 -296 0
745 491 -882 0
-453 -150 255 0
-869 -524 86 0
339 -748 -611 0
-333 1 769 0
145 263 -36 0
114 -232 -104 0
197 -572 -394 0
-21 -855 -184 0
-330 -481 811 0
508 -545 -452 0
-582 -710 550 0
846 320 203 0
458 -534 404 0
159 -955 -433 0
501 723 442 0
695 -847 -753 0
937 -608 -561 0
737 -709 -793 0
-197 -748 323 0
-70 715 446 0
636 160 -4 0
-856 -754 -969 0
272 -543 368 0
-1000 86 784 0
-48 -811 -926 0
819 439 107 0
75 -959 684 0
-237 -197 -896 0
362 -459 987 0
-849 -443 941 0
-320 -96 758 0
-859 -766 837 0
-520 -275 -896 0
-785 513 -515 0
744 427 -711 0
-967 990 -14 0
755 -874 -14 0
-660 -135 -525 0
-160 -235 682 0
-713 344 625 0
177 -465 -949 0
272 791 -187 0
562 -106 -959 0
-217 -442 -241 0
672 361 428 0
563 16 -580 0
395 -532 773 0
334 -782 330 0
-830 726 -753 0
834 598 892 0
524 -424 235 0
246 952 728 0
488 102 150 0
-249 -501 -328 0
-209 -824 89 0
90 665 -479 0
-303 752 -240 0
-819 -453 748 0
-205 -654 569 0
292 -919 806 0
645 -54 816 0
994 491 567 0
28 288 592 0
369 751 411 0
201 -782 -983 0
-331 501 -846 0
-494 -799 701 0
-363 525 -157 0
434 -617 -732 0
527 -92 548 0
-544 821 -740 0
855 -52 522 0
-684 173 76 0
946 696 869 0
398 790 -267 0
-81 802 421 0
896 745 655 0
441 -24 432 0
-342 -900 -630 0
588 828 -464 0
-76 798 -975 0
-427 -682 483 0
-326 928 -718 0
-640 -197 88 0
-958 984 -196 0
367 823 102 0
-710 -558 858 0
234 -254 596 0
489 475 -426 0
43 -269 119 0
-647 678 794 0
-490 -452 272 0
845 547 237 0
-571 22 -836 0
594 278 -127 0
-1000 555 357 0
277 -922 -446 0
-803 -243 -935 0
890 243 120 0
101 -97 -800 0
-284 828 230 0
-731 -133 -245 0
320 454 942 0
716 -961 800 0
-913 -202 457 0
-642 823 -594 0
465 -31 775 0
927 557 -753 0
769 78 -381 0
142 -795 -718 0
-157 202 -211 0
-235 799 -306 0
543 84 251 0
-278 983 205 0
-419 -869 -89 0
291 232 -273 0
785 -809 958 0
645 -17 -691 0
-580 700 -860 0
-545 -210 -38 0
-821 -245 889 0
405 992 -558 0
118 -112 -658 0
13 -564 197 0
651 821 -186 0
-65 -713 594 0
-446 680 -184 0
-64 -675 -973 0
-986 -513 -86 0
756 599 -493 0
-801 226 309 0
308 -692 545 0
315 932 946 0
228 180 18 0
-377 640 -331 0
-661 278 10 0
309 614 -958 0
543 -143 19 0
282 690 -871 0
185 484 8 0
-22 583 -370 0
26 -124 222 0
203 776 929 0
893 541 -214 0
858 -414 586 0
-420 -87 -404 0
836 -659 165 0
-101 302 592 0
908 -802 -826 0
781 509 -934 0
-229 928 -553 0
353 -869 -100 0
759 93 559 0
-493 -737 178 0
466 -139 -870 0
597 650 83 0
-271 840 -215 0
239 -749 2 0
463 -93 432 0
-407 2 -505 0
-207 -686 -634 0
699 825 643 0
370 -112 952 0
-657 378 -111 0
-896 -12 776 0
-557 111 171 0
621 606 63 0
835 -569 413 0
-894 312 -906 0
90 853 733 0
994 92 -903 0
-968 933 55 0
-659 798 -947 0
956 -855 -218 0
660 664 869 0
768 -661 323 0
825 -290 -671 0
991 -491 -449 0
166 -629 -75 0
204 -809 556 0
578 -773 795 0
378 606 -878 0
908 -333 645 0
-530 337 407 0
41 755 857 0
-128 -736 -109 0
-744 -69 861 0
100 677 -359 0
-561 570 -528 0
230 62 -105 0
-533 -890 180 0
854 253 650 0
925 871 341 0
236 -997 439 0
911 597 642 0
-187 764 -397 0
-168 -445 -771 0
467 852 -833 0
-379 -796 156 0
115 170 797 0
-2 -453 464 0
-808 -773 -972 0
169 -109 -75 0
901 -164 -435 0
-907 -263 43 0
368 551 396 0
563 -604 875 0
-255 -411 -461 0
545 -660 -615 0
-589 327 -220 0
-810 -351 -543 0
653 -710 -587 0
46 337 746 0
-8 -919 401 0
359 371 77 0
-628 55 -500 0
250 380 -81 0
795 -814 385 0
424 -495 -539 0
152 510 -195 0
709 632 216 0
-390 -865 -924 0
-198 -3 -959 0
659 -874 774 0
-97 -181 584 0
180 -750 -222 0
845 -381 487 0
263 613 797 0
-512 -801 467 0
556 58 213 0
841 132 -73 0
984 845 -23 0
-609 768 55 0
-751 -12 411 0
-173 -615 -56 0
368 525 -758 0
283 -728 -488 0
19 -226 -37 0
671 514 141 0
766 -208 -803 0
-57 -850 885 0
683 -169 -201 0
-341 647 -984 0
-33 -107 501 0
-434 932 513 0
646 -662 -434 0
900 935 180 0
-661 -326 -903 0
-641 -874 -146 0
-624 -797 -683 0
-610 318 801 0
190 -225 406 0
-547 -554 -460 0
208 686 -808 0
-840 -200 636 0
-552 424 -198 0
723 430 -972 0
-452 668 382 0
129 535 575 0
849 -750 475 0
-368 -181 -977 0
-356 760 -768 0
644 -188 -727 0
726 -405 142 0
-576 68 459 0
-567 -392 137 0
337 -290 -856 0
903 -162 -109 0
403 787 851 0
-580 -417 269 0
-107 26 690 0
-327 -152 881 0
-38 -40 -993 0
71 -883 22 0
394 44 785 0
-854 -693 764 0
218 190 54 0
-116 624 339 0
-207 -745 -127 0
-603 205 247 0
-975 -655 -901 0
601 -4 140 0
-730 -285 498 0
776 -719 -252 0
358 261 -62 0
997 -649 -622 0
-616 863 -795 0
197 614 -517 0
-136 939 492 0
-842 -602 -845 0
-56 -578 452 0
-525 434 60 0
-169 513 -145 0
141 515 -57 0
79 -106 420 0
966 750 228 0
-178 681 -426 0
790 526 557 0
212 -331 682 0
463 -521 -798 0
-20 -57 140 0
-595 -390 -78 0
-876 -48 -720 0
809 630 757 0
663 951 99 0
-606 -76 99 0
11 361 565 0
-114 25 922 0
-793 -839 -898 0
164 857 -960 0
-402 519 6 0
566 -169 825 0
-902 564 -42 0
-110 383 104 0
-242 545 -933 0
558 354 258 0
541 79 -761 0
197 -40 905 0
813 -574 -335 0
-429 385 281 0
682 597 -950 0
-95 -858 851 0
173 32 -892 0
739 -175 -898 0
-517 -122 -315 0
41 407 846 0
-49 -666 -680 0
-860 -762 -446 0
614 -344 473 0
-860 -11 -311 0
-591 677 -627 0
-132 159 24 0
-401 181 -858 0
-435 -843 -797 0
-34 723 675 0
-803 -317 -338 0
703 443 624 0
-997 -611 970 0
-116 -733 810 0
-984 436 764 0
340 121 -27 0
505 473 -719 0
-24 -149 -374 0
-378 -33 829 0
-400 -945 535 0
624 -527 -17 0
51 -469 -828 0
-301 -139 -176 0
473 221 -948 0
235 -845 700 0
-33 906 276 0
-592 494 -144 0
214 -815 472 0
-523 137 -638 0
976 2 649 0
-785 726 29 0
421 524 31 0
621 -963 -14 0
35 -446 -529 0
449 -470 -65 0
-200 -293 -747 0
126 221 -616 0
-529 610 -216 0
205 -86 -62 0
-210 575 -126 0
-765 792 74 0
653 124 -528 0
73 -82 761 0
-409 -268 -929 0
-117 -512 -108 0
618 601 318 0
561 445 -428 0
684 -280 48 0
403 -236 -58 0
-508 127 -995 0
-624 -29 -957 0
-732 99 -356 0
-908 -191 906 0
-550 -987 354 0
390 840 832 0
-51 662 814 0
986 -384 -821 0
-833 27 91 0
86 -930 756 0
-593 -578 303 0
15 -414 937 0
889 674 256 0
-381 -586 573 0
-212 965 -377 0
-137 272 -994 0
-800 -554 -91 0
230 959 76 0
341 -776 217 0
-474 -864 -783 0
-304 -370 -863 0
886 919 173 0
90 354 322 0
806 -931 -774 0
-650 409 468 0
-172 -117 -18 0
-274 -160 98 0
-489 -302 -510 0
-587 986 -298 0
624 29 -527 0
208 688 160 0
-476 235 122 0
844 -4 690 0
-171 500 -33 0
965 68 -206 0
-641 999 -95 0
-557 -340 -973 0
-58 -256 -93 0
-285 409 -292 0
-302 -863 -137 0
275 246 882 0
-201 346 -737 0
-974 -20 321 0
-317 -844 135 0
618 70 642 0
185 603 -882 0
-590 500 287 0
449 598 290 0
374 258 -895 0
-198 -590 -884 0
-563 567 -523 0
329 497 -939 0
739 137 -443 0
314 73 591 0
-859 685 -836 0
367 751 108 0
161 -925 721 0
-419 982 645 0
940 -204 616 0
758 -706 126 0
533 163 -554 0
953 174 232 0
922 -112 982 0
632 -588 -87 0
822 30 -94 0
120 663 -990 0
895 -934 -2 0
-535 954 952 0
579 -518 653 0
813 528 17 0
-199 687 94 0
822 -718 -751 0
360 -67 427 0
-699 -75 949 0
136 -739 827 0
803 30 -172 0
-888 -364 -825 0
-312 426 -869 0
-898 420 -54 0
61 737 -655 0
48 -368 622 0
448 -222 225 0
993 230 752 0
-39 854 -824 0
210 907 -133 0
328 67 -66 0
665 -162 282 0
756 -402 -461 0
-14 -28 546 0
-381 590 -270 0
-370 219 175 0
-237 364 239 0
-352 755 -77 0
-436 -54 -771 0
-107 -139 -457 0
-323 370 447 0
158 422 -689 0
413 360 279 0
-193 382 -190 0
399 897 956 0
635 -859 -384 0
756 -82 -827 0
-123 968 -55 0
-926 -769 826 0
-317 515 440 0
45 -309 -174 0
-101 833 -545 0
186 -728 19 0
130 329 112 0
365 -401 -729 0
59 -506 913 0
772 -419 317 0
-261 -192 872 0
-820 -687 -155 0
-577 573 -114 0
-477 675 85 0
377 -187 -1000 0
869 357 -908 0
-588 618 109 0
-412 637 -795 0
274 904 740 0
1 245 714 0
27 770 124 0
835 -519 905 0
-62 951 142 0
-537 -723 -215 0
716 183 372 0
-797 -737 458 0
-879 -833 957 0
224 851 871 0
-749 597 -457 0
131 -736 494 0
-139 869 422 0
-920 44 249 0
39 319 -106 0
313 -249 -599 0
-240 -29 -43 0
331 590 -372 0
-53 -37 -420 0
124 -767 654 0
592 950 341 0
534 810 307 0
584 301 -857 0
-476 -897 274 0
-20 -648 -458 0
490 -242 266 0
-16 526 966 0
-428 -384 874 0
352 -522 312 0
-684 888 -634 0
-680 128 286 0
-960 360 352 0
-703 -812 -153 0
509 -86 659 0
-426 -703 -237 0
-144 678 -728 0
633 -947 -807 0
-636 -14 -706 0
-858 630 994 0
300 -737 679 0
356 981 164 0
-731 -941 82 0
-205 -984 459 0
-130 410 318 0
-5 463 -23 0
581 725 47 0
-521 -556 -906 0
291 674 -605 0
489 -28 -369 0
346 331 -582 0
-375 -10 -348 0
-751 -171 -1 0
-763 -796 -886 0
-12 573 218 0
87 -251 47 0
367 -796 -745 0
337 891 -375 0
592 -399 905 0
-353 396 638 0
-537 430 355 0
-874 209 826 0
609 263 719 0
-477 -179 -816 0
-555 497 575 0
-321 -615 -522 0
-401 -39 744 0
79 -825 -43 0
443 -684 65 0
-731 -313 938 0
564 -583 -983 0
-777 501 784 0
106 254 -304 0
-905 -595 -903 0
-531 670 -859 0
212 351 766 0
-686 376 187 0
-976 -995 -630 0
102 627 808 0
-309 585 -14 0
209 -537 -252 0
814 -956 617 0
-881 642 -343 0
104 382 -60 0
-441 -91 -225 0
737 -555 -911 0
224 -644 842 0
-605 295 -17 0
-397 -51 -882 0
-212 -442 660 0
835 -754 -342 0
-753 107 292 0
-409 -877 -600 0
-28 439 939 0
-789 -928 -916 0
206 285 603 0
-343 -785 150 0
-364 344 -982 0
-219 -237 649 0
-265 -715 -472 0
61 -668 373 0
388 -656 -674 0
-298 -844 -557 0
-571 -818 -301 0
-349 -654 843 0
-663 668 103 0
888 507 828 0
-394 -763 301 0
-331 342 -759 0
322 152 -371 0
254 -547 -907 0
395 -753 857 0
6 14 -217 0
446 69 -858 0
-753 -485 779 0
942 -664 379 0
-550 521 719 0
419 -901 497 0
9 -314 -749 0
-847 249 -863 0
-776 -784 -258 0
-110 509 835 0
-130 -212 -716 0
773 194 535 0
-587 464 278 0
-483 771 -971 0
-232 -320 -821 0
-457 197 476 0
875 -339 929 0
582 400 -355 0
-169 -418 868 0
816 -936 82 0
-225 914 -640 0
571 870 -796 0
674 116 -961 0
-293 460 194 0
-718 -850 320 0
541 -342 -64 0
432 487 559 0
952 -57 706 0
-564 343 398 0
-26 -948 585 0
-839 500 -590 0
987 415 720 0
-587 707 -417 0
647 705 -31 0
73 392 968 0
659 187 627 0
-99 -229 348 0
-741 -45 516 0
-327 -966 814 0
-310 908 373 0
-844 -161 149 0
-398 750 955 0
15 -157 549 0
519 -484 -980 0
291 652 -405 0
-644 938 509 0
151 -96 734 0
-63 577 -456 0
-793 136 623 0
-215 111 726 0
286 941 -785 0
811 418 234 0
516 -829 -520 0
641 -348 235 0
-694 163 774 0
313 -271 -733 0
72 -801 -306 0
8 265 -671 0
-128 -748 -390 0
687 -268 -234 0
385 -532 726 0
-139 494 500 0
-329 -140 600 0
-486 -757 -396 0
926 29 -430 0
-617 724 10 0
-144 -389 51 0
-324 -886 -984 0
-625 962 832 0
116 -262 -900 0
885 956 94 0
210 -431 813 0
535 -934 781 0
-821 -228 384 0
-705 -115 629 0
733 -832 470 0
-477 -586 -914 0
-424 -734 -770 0
946 696 685 0
-300 -590 708 0
385 792 331 0
422 570 -252 0
-771 733 433 0
30 -689 -932 0
-429 -329 -29 0
787 733 424 0
-985 -372 193 0
458 886 810 0
876 -880 651 0
-293 -376 -107 0
-28 420 518 0
-41 464 -868 0
-884 -874 -375 0
923 780 -188 0
-56 331 472 0
687 752 795 0
941 366 951 0
931 -682 -768 0
233 752 693 0
-312 -1000 -860 0
204 54 -199 0
898 -932 781 0
-613 485 27 0
308 -852 287 0
-633 -873 -449 0
-63 -990 -260 0
791 -659 -947 0
901 -609 -704 0
202 -348 -696 0
667 -551 -46 0
685 340 403 0
-261 -610 -907 0
-508 -494 200 0
504 418 -601 0
372 579 933 0
390 991 -568 0
-351 174 976 0
-775 809 360 0
705 901 396 0
543 663 -782 0
910 830 578 0
618 312 451 0
1 -21 926 0
708 -617 -151 0
-83 492 -849 0
-684 247 -403 0
-786 901 869 0
502 146 897 0
530 432 -551 0
418 -73 763 0
-885 105 -290 0
870 104 -105 0
208 -516 -261 0
300 -420 -881 0
-138 -216 -348 0
451 682 -457 0
645 -283 -670 0
887 -866 291 0
-594 38 -915 0
-635 642 751 0
-393 631 440 0
493 -738 585 0
600 712 842 0
672 560 -429 0
-740 -394 239 0
-888 616 -243 0
-556 -460 636 0
262 428 524 0
-765 -972 -837 0
-611 -538 684 0
-930 902 204 0
629 570 451 0
-82 388 -331 0
844 23 -911 0
909 -6 3 0
756 412 -492 0
200 -702 -890 0
-373 -831 713 0
-496 618 456 0
-423 472 567 0
-899 467 -776 0
-515 -839 -434 0
-969 -141 850 0
156 -26 -825 0
219 -584 983 0
-543 -710 -732 0
-74 -909 -139 0
664 164 -965 0
-378 160 146 0
841 -185 -522 0
711 -759 125 0
52 -853 -798 0
146 -508 904 0
-167 -460 227 0
203 -728 -773 0
470 89 602 0
435 -171 530 0
479 -380 264 0
652 165 -170 0
-316 -698 708 0
-788 -224 383 0
708 9 -875 0
-987 -139 692 0
278 -783 -959 0
-533 577 611 0
365 124 967 0
-942 275 -480 0
459 819 722 0
153 -692 807 0
-725 -269 599 0
225 -289 502 0
610 -353 -991 0
280 -370 -11 0
490 732 561 0
-685 -768 579 0
708 999 -502 0
-117 558 -308 0
-116 -213 -784 0
-134 753 675 0
506 192 670 0
729 -834 550 0
-470 594 770 0
101 -319 -791 0
-850 -964 -634 0
793 878 360 0
339 930 -507 0
793 833 634 0
997 721 63 0
836 349 777 0
-904 -666 493 0
108 -507 458 0
570 -510 393 0
86 -369 913 0
478 561 -148 0
197 -901 -584 0
775 577 207 0
88 -907 165 0
119 -776 -867 0
-62 615 -945 0
433 611 882 0
752 712 -311 0
550 -93 95 0
896 277 -157 0
-189 350 -528 0
381 -274 271 0
-885 -119 196 0
63 -90 848 0
936 -56 72 0
-375 -288 -53 0
749 -369 -226 0
-706 -74 356 0
-796 -15 23 0
-643 940 975 0
392 85 -992 0
-850 137 280 0
-662 -181 -154 0
-699 -678 532 0
-105 353 -917 0
-103 979 -583 0
-381 290 888 0
212 -173 -362 0
760 -636 -216 0
918 185 -711 0
-998 228 181 0
-14 -825 -396 0
346 744 -322 0
-911 850 -868 0
831 -742 387 0
312 48 260 0
761 -138 -207 0
964 -533 -1000 0
829 -756 -422 0
-375 15 635 0
735 684 -889 0
286 498 -341 0
248 639 834 0
834 767 -647 0
-400 900 951 0
-310 -403 1000 0
-699 933 -154 0
-756 -22 -193 0
-935 501 59 0
629 389 330 0
-62 225 481 0
-315 751 -1 0
-622 774 834 0
75 222 -132 0
-874 260 -692 0
-327 927 954 0
-441 -200 -393 0
740 -760 -564 0
-467 -613 -91 0
791 256 -416 0
-13 827 -157 0
-232 -165 174 0
-43 -382 -97 0
-231 261 -460 0
651 -432 -23 0
998 -717 -391 0
264 685 700 0
8 513 698 0
-698 149 755 0
-181 220 -338 0
-196 -187 -558 0
511 376 -560 0
-160 619 361 0
886 -135 460 0
-895 181 -959 0
566 -982 -169 0
848 -135 -965 0
523 623 -303 0
-186 -446 843 0
-84 -354 -388 0
-351 185 539 0
865 53 -278 0
-821 612 281 0
557 85 524 0
416 -727 -408 0
-654 -720 15 0
-769 -391 -577 0
-979 884 -782 0
-468 514 334 0
-766 -979 2 0
802 -398 -538 0
730 -969 578 0
-619 855 -292 0
-220 625 21 0
628 861 742 0
684 792 610 0
-88 901 -283 0
-254 688 455 0
-875 643 -564 0
-747 -794 16 0
829 462 341 0
-220 573 461 0
636 -989 -75 0
771 998 38 0
-282 -340 806 0
-923 43 590 0
-266 548 766 0
-969 -929 14 0
-233 949 418 0
-464 -175 -91 0
-11 859 -796 0
-577 622 -936 0
-199 -703 -243 0
-142 -23 -975 0
-939 -489 -212 0
746 -84 566 0
91 246 2 0
535 -6 -315 0
563 -596 -160 0
-989 -228 868 0
84 -122 -649 0
441 -860 804 0
519 919 70 0
505 25 110 0
410 179 -380 0
62 -52 -379 0
711 -671 -439 0
-560 253 696 0
287 66 -378 0
-832 158 872 0
548 552 291 0
-31 -399 -953 0
-107 -231 314 0
-10 231 -492 0
-70 -171 -204 0
-511 -137 -458 0
-655 976 -868 0
652 19 330 0
650 340 -304 0
374 405 -869 0
153 -242 -797 0
291 -899 777 0
963 553 600 0
-697 566 477 0
396 523 809 0
194 346 383 0
87 -793 -21 0
736 379 -986 0
-809 267 -912 0
-147 376 223 0
349 -163 51 0
119 376 418 0
-259 155 157 0
-891 -112 239 0
-938 -597 -961 0
-711 430 -372 0
831 -475 995 0
551 -644 15 0
144 747 -876 0
-575 697 154 0
-369 -439 9 0
729 769 624 0
101 -44 238 0
-498 -334 674 0
-679 645 164 0
-479 -10 214 0
-429 -42 341 0
-581 -144 614 0
-263 -145 527 0
313 -492 134 0
-107 -881 -320 0
107 156 -139 0
-47 676 -33 0
-824 -985 -681 0
380 331 435 0
-968 -96 -314 0
-338 -197 149 0
-575 -194 -791 0
643 -703 -536 0
235 -996 -292 0
412 537 -61 0
-806 455 784 0
-315 -93 -239 0
668 912 965 0
951 -894 -269 0
300 461 -171 0
676 -971 859 0
212 -953 602 0
260 70 -64 0
268 -730 -81 0
760 959 -206 0
-281 969 992 0
-377 769 -341 0
-916 -858 -532 0
-471 -719 451 0
-926 828 997 0
-567 989 772 0
563 460 770 0
-432 -457 727 0
-481 -390 -671 0
-218 -47 309 0
-546 -218 337 0
421 -233 199 0
40 -153 738 0
-680 275 -160 0
934 283 -101 0
-51 -299 -634 0
-219 985 -821 0
-832 -418 512 0
90 948 -295 0
-641 -144 -282 0
-925 934 721 0
694 632 -594 0
312 425 537 0
-629 -833 -986 0
620 869 512 0
-198 254 -574 0
347 121 289 0
-307 250 984 0
-397 -576 -790 0
967 -322 -877 0
-298 -971 -390 0
-925 467 640 0
252 -782 -798 0
563 -862 -327 0
388 -738 441 0
-893 977 161 0
340 -11 997 0
874 -592 -577 0
409 -341 656 0
389 888 -457 0
-76 -806 -212 0
-854 -90 -466 0
-188 857 -122 0
-632 -950 -105 0
196 -456 262 0
-75 45 480 0
953 938 -372 0
338 -134 154 0
-4 788 440 0
-412 670 245 0
573 718 -286 0
732 50 235 0
111 -495 864 0
59 753 293 0
-298 503 -572 0
972 -338 815 0
-760 838 28 0
-738 863 41 0
-476 233 260 0
691 485 -56 0
-589 682 477 0
804 -86 493 0
-995 785 947 0
226 -604 106 0
-433 -303 -229 0
-650 640 -390 0
-759 864 -560 0
727 296 -954 0
-545 328 139 0
745 -12 -686 0
554 -701 456 0
19 348 -915 0
749 425 526 0
-482 -30 839 0
-396 -649 -741 0
281 -943 190 0
8 899 -644 0
-540 -156 780 0
193 738 -787 0
-56 -392 164 0
610 -516 876 0
-14 105 514 0
211 -467 134 0
-649 309 -86 0
-874 633 -740 0
-912 -812 -198 0
-68 -719 -829 0
-163 -185 400 0
-826 -675 388 0
473 -224 -446 0
49 -62 -333 0
-363 -84 -826 0
-268 -921 826 0
-57 142 806 0
423 -243 -132 0
734 917 -796 0
-103 -465 97 0
-899 695 -696 0
85 -792 215 0
924 -369 752 0
964 -571 -42 0
897 -983 -902 0
-869 -691 817 0
-788 -242 668 0
573 225 808 0
-262 -340 297 0
-459 629 -193 0
457 -736 4 0
132 -506 354 0
250 267 791 0
-7 -629 10 0
-7 -29 -747 0
492 -314 46 0
30 217 347 0
618 -700 -759 0
622 -195 568 0
390 653 388 0
-4 790 -667 0
248 -521 160 0
-676 278 -229 0
-379 451 -161 0
316 343 -407 0
-39 -576 1 0
-909 825 978 0
-551 -971 531 0
107 -312 378 0
-314 454 647 0
234 -193 -122 0
702 -609 -282 0
766 -116 -808 0
-528 -637 -165 0
-794 -557 801 0
150 -618 -191 0
718 -359 -762 0
463 -792 -789 0
860 -873 -322 0
851 -919 -627 0
-639 -682 155 0
878 -773 -45 0
-214 -269 402 0
209 277 227 0
-33 -226 279 0
515 747 276 0
-567 161 -103 0
-604 271 862 0
-353 -39 -317 0
676 -259 435 0
-764 724 632 0
-898 -937 -136 0
356 -448 942 0
223 -25 572 0
769 106 964 0
-334 -441 -823 0
-126 274 -282 0
351 22 844 0
332 448 -848 0
978 -471 -340 0
398 -594 -986 0
-230 453 -744 0
109 -452 -645 0
-109 -547 520 0
-145 -588 -345 0
978 -142 540 0
-380 -689 940 0
-602 -307 22 0
794 -660 877 0
-547 -395 -359 0
719 -416 -911 0
-388 887 -494 0
-94 -725 -602 0
-210 494 -905 0
964 -232 -530 0
-927 -947 -200 0
-361 745 923 0
734 481 5 0
-68 -851 -103 0
-293 -33 239 0
176 -842 360 0
-779 -1 749 0
-633 -955 943 0
63 -315 143 0
-305 306 -296 0
261 -865 -930 0
28 -534 -100 0
98 205 311 0
184 -259 -407 0
155 255 -205 0
-763 798 615 0
-609 467 883 0
605 -219 -706 0
584 34 -140 0
339 343 419 0
412 801 820 0
-53 427 470 0
520 -836 -131 0
-245 418 -550 0
-528 -251 -702 0
511 -993 -75 0
-672 720 -875 0
-71 503 -858 0
869 42 -981 0
-731 849 578 0
241 427 -142 0
-338 892 -848 0
229 924 -301 0
265 -727 577 0
-431 -97 500 0
-160 997 -796 0
-359 -365 65 0
-199 514 -951 0
-542 42 -999 0
-546 -280 762 0
811 -33 -363 0
-971 -353 200 0
566 -269 750 0
-70 113 -312 0
968 673 823 0
38 -2 -694 0
-795 218 -2 0
-501 979 -433 0
186 600 91 0
308 735 494 0
-486 -5 678 0
-601 946 59 0
307 145 -948 0
-712 -598 563 0
19 27 854 0
838 21 143 0
-323 514 453 0
935 427 762 0
-144 859 452 0
500 -273 947 0
159 -678 -648 0
-822 936 -739 0
994 152 -400 0
-617 643 -736 0
592 -438 959 0
214 946 -628 0
-677 224 9 0
614 281 484 0
843 27 732 0
884 167 -296 0
247 299 -477 0
-865 -790 939 0
-826 939 -56 0
-751 -595 -791 0
-403 -737 411 0
225 816 248 0
432 -981 -575 0
-280 -147 -960 0
-445 549 -155 0
-635 -696 581 0
414 568 955 0
335 -149 -967 0
717 935 -711 0
193 -228 100 0
-270 784 76 0
-437 313 929 0
371 503 -687 0
149 74 -884 0
17 580 227 0
-63 -549 -589 0
-783 -413 -388 0
827 -183 -744 0
994 -2 -915 0
-109 105 724 0
-462 688 -905 0
-601 452 528 0
223 582 612 0
242 -431 644 0
687 877 241 0
840 785 -590 0
595 654 -171 0
275 782 938 0
-985 611 812 0
-412 -17 75 0
436 196 -511 0
-804 260 -192 0
433 -839 934 0
-623 -963 256 0
609 788 423 0
851 531 -701 0
600 458 -573 0
123 769 -679 0
785 585 247 0
422 -660 -747 0
592 639 863 0
754 117 -598 0
814 -688 -195 0
-873 -751 323 0
919 25 -779 0
-968 839 -779 0
-609 792 -406 0
305 -291 -491 0
20 473 -790 0
922 269 -783 0
-289 555 636 0
391 440 -40 0
-838 -760 66 0
992 615 893 0
575 -511 -945 0
476 -581 957 0
-858 -638 231 0
-871 30 -34 0
447 238 212 0
-755 -156 305 0
-969 893 -935 0
-393 -285 595 0
-218 -468 -452 0
702 548 -314 0
-579 41 -65 0
8 396 -286 0
-510 -204 127 0
-69 -360 370 0
-394 73 206 0
-138 329 -615 0
608 -294 702 0
229 758 940 0
-879 -295 -690 0
918 -769 -418 0
-100 -917 95 0
-360 -499 489 0
622 -254 839 0
-697 22 -394 0
625 -434 -111 0
-298 -488 -423 0
249 -17 267 0
-489 -220 102 0
792 -119 -524 0
-27 -214 279 0
593 -496 -250 0
-977 -135 221 0
-307 -129 916 0
-246 921 266 0
-869 94 -72 0
500 632 192 0
-100 235 693 0
-780 -217 650 0
427 191 -422 0
823 -574 959 0
696 428 287 0
43 -441 258 0
-593 408 -556 0
143 538 -2 0
951 -100 -360 0
350 713 -149 0
-727 114 -137 0
575 303 285 0
888 316 -253 0
828 -567 -910 0
1 -460 363 0
523 649 -302 0
445 -475 -895 0
-273 -779 -865 0
-310 810 -113 0
502 -238 -271 0
-568 39 -22 0
148 -102 49 0
700 -703 -977 0
-128 165 2 0
946 -716 83 0
159 535 44 0
441 467 119 0
-583 -443 543 0
122 260 -132 0
-588 -993 -103 0
-996 659 -882 0
-664 663 -888 0
-641 -441 -152 0
-102 579 -496 0
900 -310 426 0
-592 34 -76 0
164 14 -36 0
501 -142 125 0
-908 -744 703 0
-933 -983 -709 0
741 670 757 0
-421 404 596 0
-70 -853 -534 0
-621 816 474 0
-184 804 543 0
-343 -329 -814 0
489 -446 405 0
-403 -407 -572 0
-263 -755 702 0
198 385 401 0
714 410 -821 0
212 797 985 0
-890 -164 554 0
-114 -434 376 0
874 96 582 0
603 -451 -951 0
234 659 937 0
950 -132 412 0
483 -499 419 0
954 917 547 0
789 -818 -385 0
429 -282 -357 0
97 -277 556 0
-491 750 -940 0
-844 404 -300 0
525 -331 -329 0
977 681 920 0
392 133 -798 0
379 -787 762 0
-858 432 -641 0
-479 -620 -956 0
-377 801 812 0
-913 527 121 0
-587 -380 599 0
594 842 -779 0
402 -839 -953 0
-151 135 -83 0
-102 127 -142 0
865 367 720 0
-450 335 -116 0
540 362 -804 0
721 -265 -567 0
870 947 -689 0
549 746 823 0
374 493 -908 0
-913 848 952 0
615 399 695 0
528 -363 115 0
832 -322 -187 0
-941 -631 -168 0
349 813 646 0
-681 -867 94 0
348 -818 281 0
593 268 -267 0
780 -876 -332 0
-400 -123 717 0
-283 -323 215 0
700 -17 -782 0
-804 -555 -638 0
290 -234 791 0
-897 -930 206 0
-326 -446 271 0
-415 -808 -702 0
858 -115 -220 0
-778 924 556 0
-653 99 885 0
232 -593 -844 0
-670 911 535 0
243 758 338 0
823 936 622 0
600 495 -759 0
669 161 -334 0
170 -942 -56 0
-515 883 -878 0
498 -284 626 0
-96 636 200 0
47 825 866 0
424 466 -277 0
370 -592 -479 0
869 539 -276 0
688 -11 -213 0
-286 662 888 0
21 280 904 0
-904 -130 -473 0
-194 769 69 0
165 511 3 0
181 -989 -849 0
562 373 -139 0
-442 -185 -931 0
-93 769 -222 0
990 -640 636 0
-887 -585 -732 0
-2 -45 475 0
-187 503 -700 0
-641 921 285 0
6 -772 -52 0
76 -403 -397 0
379 190 233 0
752 673 961 0
719 -478 574 0
45 394 -134 0
-734 -539 326 0
766 -933 -586 0
-517 812 883 0
-246 300 620 0
659 137 843 0
-164 -997 796 0
-734 -883 -494 0
-267 -897 -716 0
564 913 765 0
-247 29 -505 0
861 -276 357 0
869 -831 699 0
-885 505 349 0
-441 565 428 0
912 -559 -131 0
-122 960 -635 0
-402 -451 20 0
-144 -884 -582 0
-435 208 -855 0
-576 -318 -367 0
-660 -946 272 0
670 207 -249 0
-726 225 -688 0
582 807 -623 0
-834 775 593 0
216 -376 -777 0
-850 -557 960 0
-196 -404 -996 0
-516 527 999 0
-479 651 -188 0
-168 407 -559 0
897 -918 -418 0
942 -694 72 0
-505 596 802 0
-109 986 -979 0
908 -946 610 0
-232 459 -8 0
122 660 861 0
987 -509 -526 0
-204 252 -452 0
-314 565 436 0
-254 131 721 0
-173 750 -714 0
-895 500 564 0
-446 940 722 0
-386 -106 555 0
821 -94 -491 0
-480 36 -906 0
-355 -610 924 0
185 876 489 0
348 -469 436 0
-291 330 21 0
758 -900 230 0
-502 431 803 0
-907 335 -208 0
-640 412 -919 0
882 -106 -372 0
346 -572 -48 0
-865 626 -736 0
802 -163 -33 0
377 -427 -580 0
752 -888 -434 0
-914 -694 -859 0
858 240 80 0
265 -930 552 0
-61 737 305 0
-378 -534 864 0
172 897 386 0
-866 -936 138 0
365 -238 -833 0
-524 -206 510 0
-515 3 646 0
-863 -624 -943 0
-510 -693 125 0
-229 -301 630 0
391 323 -909 0
106 -747 107 0
938 982 -923 0
-586 812 31 0
-736 614 -375 0
-308 -228 584 0
-350 -945 -843 0
-685 259 659 0
-356 -893 -635 0
-554 -214 -275 0
583 -721 -5 0
-246 71 -775 0
-241 -273 423 0
-154 -572 -283 0
896 -771 -346 0
-983 -958 527 0
-887 -871 -105 0
378 91 641 0
-244 338 -213 0
407 -896 632 0
-77 -41 -382 0
-861 -802 830 0
335 -388 -810 0
-793 512 -595 0
387 869 -612 0
-831 -561 574 0
606 386 -776 0
126 517 389 0
-529 196 -415 0
181 -963 345 0
-300 954 172 0
-211 -556 178 0
604 465 -182 0
-443 881 617 0
-630 -655 -710 0
429 167 -189 0
-177 -875 -435 0
768 999 -876 0
-130 -161 -390 0
928 85 887 0
986 -338 -256 0
-928 -396 -993 0
-339 -425 -592 0
604 584 -904 0
-302 -723 -553 0
333 -485 -440 0
132 114 -87 0
-377 758 115 0
-466 14 -785 0
724 341 -120 0
12 81 825 0
237 -652 644 0
864 149 927 0
-514 51 191 0
-842 -772 -342 0
-427 646 -278 0
7 756 97 0
510 -572 -526 0
-849 729 -229 0
-394 959 188 0
788 -45 87 0
-801 -439 674 0
801 637 441 0
318 52 818 0
-538 837 -41 0
-313 -798 -906 0
326 -692 360 0
-776 -412 -177 0
273 -250 792 0
56 781 -163 0
-627 -649 -854 0
273 188 888 0
-503 -367 961 0
-803 -224 442 0
-176 -191 794 0
629 -626 379 0
-410 228 -887 0
483 -780 768 0
-499 -618 -866 0
522 -695 638 0
-787 488 936 0
-242 -993 339 0
-251 54 -189 0
947 688 828 0
305 -443 -470 0
-838 87 55 0
-194 119 14 0
565 -645 758 0
986 214 -868 0
-108 -76 -433 0
801 524 450 0
586 738 -197 0
-225 780 -905 0
-117 -368 -72 0
-913 104 -357 0
-421 -494 87 0
-807 863 518 0
-841 950 -438 0
-898 -70 446 0
969 -227 752 0
-148 832 -396 0
-456 527 307 0
-306 -545 -245 0
-501 106 323 0
-619 -86 -439 0
-425 378 407 0
-615 -310 -28 0
-529 906 -787 0
487 350 -147 0
842 182 -61 0
-2 -129 -698 0
-870 -154 666 0
237 -216 -496 0
515 9 -572 0
-376 632 585 0
-110 -849 -147 0
41 -807 305 0
833 -500 -532 0
-683 -676 -976 0
388 -971 362 0
720 570 431 0
520 -531 188 0
-140 359 -540 0
-672 990 951 0
-975 -423 -199 0
857 5 -622 0
-850 -93 -56 0
305 260 -341 0
-189 115 496 0
633 -839 -961 0
235 -976 -756 0
785 -707 -927 0
-957 708 246 0
701 -34 -715 0
-825 -603 -838 0
316 -148 957 0
-43 -593 844 0
-557 888 -650 0
-220 326 -32 0
-887 -350 466 0
993 23 -415 0
-120 793 360 0
515 227 -261 0
-892 488 -58 0
416 -490 79 0
410 264 835 0
-695 718 792 0
557 -651 10 0
-887 992 799 0
-919 776 -108 0
63 435 794 0
-612 909 -12 0
-293 677 -155 0
484 -341 913 0
509 142 -277 0
-630 -55 -382 0
259 -359 358 0
715 66 -997 0
-300 -698 827 0
375 290 -711 0
489 867 -325 0
899 -81 -101 0
-859 243 558 0
-450 185 -916 0
-471 668 -235 0
-14 -348 333 0
-679 -721 -867 0
746 -279 -462 0
333 575 675 0
787 292 -789 0
-526 507 -338 0
84 600 -524 0
89 217 -780 0
-909 907 431 0
836 -517 -364 0
201 969 96 0
70 999 -347 0
-481 769 554 0
-746 -375 -313 0
-135 63 522 0
658 633 -41 0
155 -200 -354 0
-587 -602 -364 0
-524 747 505 0
-372 -412 -477 0
932 832 179 0
976 -977 -182 0
153 -522 -904 0
-846 997 55 0
612 -652 809 0
-841 -238 -752 0
-552 -158 -47 0
532 -536 -363 0
-698 52 -481 0
215 -426 -191 0
414 -199 -505 0
-295 -283 23 0
-852 405 -164 0
-584 270 -379 0
-967 -317 -182 0
-944 -30 -671 0
55 851 3 0
664 -533 7 0
872 -990 -535 0
653 26 570 0
941 -207 909 0
110 332 -53 0
-707 -650 532 0
892 -642 131 0
-160 874 817 0
987 614 -865 0
280 -768 -624 0
196 -380 -698 0
851 -255 649 0
528 263 -678 0
640 426 -263 0
740 999 -141 0
134 667 586 0
388 221 274 0
658 507 705 0
810 -723 230 0
-583 -943 18 0
400 -710 788 0
-808 -640 551 0
108 -381 -160 0
94 623 509 0
644 199 177 0
-903 912 892 0
-628 908 679 0
841 -369 -51 0
-203 948 -181 0
-976 -161 645 0
-488 751 -352 0
606 -129 -367 0
-127 571 -685 0
-35 -702 -126 0
-379 -162 -973 0
634 -622 -375 0
-295 271 755 0
-59 -293 -528 0
-352 69 449 0
-633 -261 -635 0
-622 776 -88 0
-989 -193 727 0
-938 -287 514 0
-418 -507 -128 0
-753 -927 733 0
-354 365 -51 0
-101 -286 870 0
338 -95 832 0
-722 -660 573 0
184 -928 -65 0
-393 -368 -470 0
365 -971 392 0
892 536 738 0
895 188 5 0
868 -837 -393 0
-155 -306 -942 0
-194 -478 849 0
10 -619 -536 0
-186 -354 -260 0
-10 -965 -22 0
-798 210 -666 0
-835 230 -600 0
730 -855 280 0
-586 -671 848 0
441 -641 -32 0
-324 -305 -512 0
616 997 -941 0
797 -557 291 0
889 345 -489 0
276 -646 -175 0
-304 -399 -554 0
-306 -429 -290 0
816 412 -465 0
-79 -45 241 0
420 -807 -695 0
887 -827 725 0
239 -997 -951 0
-128 486 412 0
65 -303 -373 0
-905 344 791 0
-764 -570 908 0
-840 -151 836 0
-862 26 -601 0
-449 631 400 0
-136 708 -686 0
-574 -536 -50 0
930 443 -943 0
197 -317 -922 0
-893 -284 -186 0
-817 888 4 0
845 852 697 0
-608 929 350 0
113 -137 669 0
-22 370 -356 0
783 -360 357 0
-582 31 331 0
590 -780 -338 0
308 253 -413 0
-989 109 216 0
-454 -850 496 0
-37 -416 -992 0
583 -861 500 0
392 -278 450 0
3 -388 285 0
-34 462 -438 0
307 -439 -495 0
-948 -775 274 0
-511 559 -68 0
574 -317 568 0
-982 526 635 0
-719 496 871 0
-375 442 -803 0
-202 681 -2 0
-908 -270 -306 0
323 -828 724 0
178 -161 243 0
-298 -478 -396 0
-918 -277 -187 0
-381 458 -629 0
-996 -421 -314 0
-203 309 -62 0
-643 -666 629 0
286 864 -3 0
942 -873 -214 0
605 929 -660 0
145 819 -67 0
995 224 -988 0
53 303 -378 0
-411 909 291 0
-906 -854 -61 0
-897 474 -468 0
802 -536 -784 0
294 46 758 0
975 -637 683 0
255 -872 -978 0
-790 -53 304 0
-499 -826 459 0
733 577 455 0
265 -99 775 0
-910 -480 17 0
640 -477 -451 0
-289 465 -191 0
-979 -611 381 0
-528 663 934 0
166 344 674 0
-192 -631 -12 0
484 -763 -923 0
417 -86 -901 0
-782 -964 -515 0
-584 -627 -350 0
6 -424 910 0
421 -823 798 0
617 -116 771 0
411 -775 -643 0
564 571 -816 0
-770 -175 -817 0
355 825 -111 0
218 186 -416 0
488 -900 836 0
-456 505 842 0
-166 -545 -771 0
-221 437 -131 0
-586 990 -755 0
-266 275 985 0
-924 -289 -433 0
572 873 -930 0
345 929 442 0
-52 241 792 0
472 -344 -256 0
555 -545 -270 0
15 927 -422 0
-880 132 -731 0
-437 -86 -756 0
-780 61 977 0
700 -437 548 0
-880 555 -752 0
-186 -857 -232 0
677 -805 459 0
195 -436 33 0
429 -243 -820 0
-354 20 646 0
687 -603 -786 0
719 313 985 0
-582 -185 -697 0
812 -285 442 0
384 -880 142 0
651 -234 -624 0
-922 379 345 0
-34 -79 2 0
108 -964 598 0
378 150 -395 0
-649 -279 -776 0
814 359 890 0
-77 -739 -980 0
814 -36 398 0
-887 629 -371 0
77 -31 -968 0
-860 -275 -492 0
-908 -992 557 0
144 215 -618 0
667 -461 -558 0
597 -530 -796 0
588 212 81 0
-840 -545 -281 0
-270 -340 351 0
74 -116 852 0
-608 532 89 0
975 196 642 0
735 -274 -327 0
-98 -681 546 0
-259 -573 -709 0
-291 848 -87 0
-238 225 -664 0
166 217 -696 0
-595 770 -541 0
546 777 154 0
942 -918 -487 0
908 934 -811 0
-369 767 789 0
500 842 94 0
423 477 460 0
-553 -940 -194 0
28 -858 -231 0
440 -567 820 0
567 -460 15 0
-729 -462 790 0
-333 -775 -147 0
209 -978 -552 0
-223 -320 -469 0
-957 600 -749 0
-605 -41 -916 0
-394 595 -558 0
235 -47 -20 0
501 554 220 0
-631 672 341 0
478 971 -256 0
669 -186 363 0
307 532 -288 0
-462 -903 -847 0
-987 165 384 0
332 -781 52 0
772 -67 625 0
-315 955 741 0
-878 -136 23 0
-42 -540 242 0
411 90 -901 0
63 731 961 0
258 938 102 0
-265 -414 -952 0
567 -965 300 0
-26 -287 298 0
248 42 -254 0
-509 -928 -535 0
801 -641 -104 0
28 966 801 0
-868 -423 169 0
900 341 642 0
769 412 -663 0
159 -474 -20 0
-91 845 -865 0
-267 588 58 0
894 -606 -887 0
479 657 -130 0
-212 -914 -314 0
-535 191 -212 0
462 -880 170 0
554 731 613 0
-108 -119 648 0
762 -964 -832 0
-225 -433 128 0
122 214 -658 0
-407 528 190 0
859 990 402 0
-273 645 -63 0
-878 70 420 0
79 -235 700 0
68 -954 46 0
-754 -209 131 0
60 -563 -910 0
-802 -140 -916 0
366 -922 -517 0
-761 106 920 0
871 119 736 0
875 -173 -868 0
-951 510 -941 0
-673 308 691 0
-187 -807 -307 0
-37 722 152 0
331 -458 -490 0
411 996 -435 0
184 396 -370 0
-219 302 655 0
968 146 -777 0
625 -756 -638 0
-609 907 411 0
-116 361 -665 0
-699 692 280 0
-340 84 -600 0
-938 426 -559 0
671 203 -668 0
732 567 -765 0
877 819 -652 0
-936 100 561 0
587 749 -440 0
70 -696 156 0
611 247 -133 0
-916 -8 795 0
-730 279 397 0
-300 764 -17 0
-9 -268 54 0
404 -315 174 0
-316 -735 -220 0
-369 154 -839 0
-210 254 850 0
-696 -980 702 0
49 -468 -763 0
843 -290 578 0
-255 69 326 0
-474 -927 490 0
474 69 72 0
984 28 178 0
355 174 771 0
622 741 595 0
-832 -612 668 0
910 -484 513 0
-14 -706 -312 0
-670 -221 -168 0
977 -650 -778 0
-552 -651 -837 0
-223 -509 362 0
-417 -560 475 0
-461 704 -759 0
378 498 -374 0
35 988 -445 0
562 -538 -498 0
379 -309 725 0
-12 -548 888 0
-528 463 629 0
-758 117 -432 0
-208 -466 -145 0
25 -564 -357 0
637 -27 89 0
-815 -294 514 0
-257 -20 -910 0
-132 874 536 0
384 -147 605 0
-286 -737 -159 0
-30 291 732 0
463 523 627 0
571 346 -397 0
744 -365 512 0
263 -968 -566 0
638 -527 286 0
90 950 -216 0
-88 677 582 0
-263 787 227 0
-665 332 935 0
302 111 99 0
-225 -403 207 0
210 -723 471 0
-188 -260 968 0
-926 976 394 0
657 -297 15 0
-28 498 -680 0
300 601 -304 0
-124 -621 -115 0
471 784 883 0
-2 -754 50 0
-654 -365 866 0
510 -846 -993 0
997 -523 -277 0
44 839 -979 0
-484 428 93 0
-928 -900 -93 0
-565 -465 -825 0
-672 561 -833 0
462 916 146 0
-863 553 -76 0
806 772 -407 0
-929 362 796 0
298 -951 656 0
440 7 -699 0
400 573 -852 0
558 -264 356 0
215 -7 -352 0
967 -742 720 0
-657 -384 -340 0
-70 708 859 0
111 718 -13 0
818 296 689 0
-137 652 -711 0
126 -394 181 0
244 439 27 0
628 839 881 0
-310 -1000 -565 0
545 -567 -604 0
972 835 135 0
-890 -109 226 0
-262 793 234 0
-588 -253 -646 0
-834 13 986 0
-350 550 732 0
694 -488 -641 0
-762 549 333 0
732 154 885 0
-555 17 85 0
-440 -591 303 0
97 57 -46 0
318 -680 590 0
-345 261 -696 0
113 -880 -800 0
-126 -497 59 0
-837 -843 647 0
535 -995 902 0
118 587 476 0
-515 -473 -621 0
-29 -571 162 0
266 449 -396 0
793 -801 -878 0
-47 228 -346 0
882 -927 906 0
910 260 97 0
-983 -127 -182 0
52 117 -306 0
-742 -439 -590 0
-316 811 -343 0
328 562 683 0
-530 369 711 0
834 -62 -785 0
-285 226 -552 0
659 -598 88 0
95 669 -777 0
767 908 156 0
376 78 -755 0
-687 216 -864 0
-930 -598 -854 0
-327 153 -783 0
460 -6 -494 0
794 779 547 0
795 58 -735 0
-432 -497 576 0
-381 748 926 0
783 348 741 0
-339 -58 574 0
248 581 -992 0
-608 -175 -533 0
429 581 -977 0
-547 -455 885 0
-582 -875 -377 0
-923 385 -171 0
-294 881 844 0
-95 181 976 0
-640 -162 -595 0
652 728 -501 0
-913 797 597 0
-871 149 28 0
-179 -597 612 0
714 -340 -736 0
168 -925 582 0
-266 -134 255 0
203 158 -275 0
424 148 456 0
611 -331 726 0
-572 704 -921 0
-492 -500 -575 0
582 -314 -15 0
-772 -472 115 0
981 755 -812 0
-128 362 -183 0
404 -17 -488 0
276 -594 -405 0
-734 -384 763 0
-838 -243 -64 0
430 -20 839 0
-318 -687 -255 0
729 -174 847 0
174 838 886 0
610 -528 384 0
771 850 -778 0
476 148 -5 0
253 -869 449 0
155 -866 888 0
-175 -939 -345 0
186 -651 -919 0
571 -163 200 0
842 -960 -572 0
511 688 415 0
900 709 -373 0
-13 178 438 0
-983 -260 -445 0
614 -657 892 0
31 532 -811 0
374 -695 -268 0
-360 -494 -238 0
-210 -798 821 0
927 -334 396 0
856 -624 -517 0
737 -748 -578 0
626 -453 -513 0
903 821 -187 0
482 231 -3 0
-695 709 -907 0
-72 902 403 0
618 -912 -651 0
-63 22 823 0
836 -341 -635 0
399 -181 29 0
-842 90 965 0
672 -254 -828 0
-218 -99 -803 0
-180 -633 562 0
-767 309 188 0
-92 -150 -145 0
-811 479 425 0
-978 -2 1 0
6 -180 -79 0
691 -357 376 0
-135 811 62 0
-648 841 -237 0
-464 -311 761 0
215 970 -226 0
-878 944 771 0
-695 -33 -933 0
883 -915 -15 0
252 231 400 0
-818 192 449 0
-621 583 662 0
-642 27 -853 0
104 -49 -335 0
56 968 -445 0
930 33 342 0
-127 855 -411 0
-986 265 538 0
-506 -757 -441 0
65 336 715 0
119 74 647 0
137 922 780 0
845 785 328 0
952 -111 456 0
887 208 -854 0
993 -475 941 0
288 179 -900 0
10 -349 841 0
221 889 -169 0
325 -200 196 0
430 492 330 0
957 695 427 0
454 -294 359 0
242 -108 699 0
776 793 153 0
-381 385 -122 0
430 30 -902 0
-451 191 -591 0
-641 -651 204 0
663 105 -246 0
607 353 -595 0
-344 -959 -82 0
-853 819 996 0
403 -235 -748 0
543 -126 929 0
-263 -333 -354 0
-726 -397 639 0
741 -590 18 0
918 903 213 0
-540 318 -332 0
-78 -607 -500 0
-976 710 -101 0
-175 -275 629 0
-376 726 799 0
341 527 -910 0
-475 -670 -128 0
-217 627 489 0
-231 -383 807 0
179 -794 457 0
353 -355 901 0
774 -115 359 0
326 304 -356 0
-517 222 -29 0
-896 284 895 0
-27 158 -422 0
827 -388 -943 0
-387 -573 881 0
-980 -785 -423 0
-224 389 15 0
979 824 582 0
766 -420 266 0
993 672 103 0
109 -421 715 0
459 -721 -867 0
-318 -556 176 0
231 677 -416 0
-906 878 -264 0
-349 -539 -205 0
-312 -386 -304 0
-372 -119 890 0
-337 226 -424 0
671 789 -34 0
-771 -585 152 0
809 -261 276 0
989 -829 -291 0
809 231 -177 0
765 909 -838 0
382 787 -310 0
549 -816 -880 0
-188 310 -22 0
797 459 -188 0
-449 -149 -625 0
-375 -830 -194 0
841 518 35 0
-871 862 -380 0
-738 -995 579 0
-638 728 294 0
-587 -964 -921 0
858 590 -750 0
-331 -669 -740 0
-112 909 443 0
756 665 -362 0
251 401 -772 0
565 553 -698 0
523 368 -613 0
188 -933 339 0
120 -159 -937 0
639 423 -778 0
457 923 -109 0
-430 773 -501 0
943 -395 -154 0
-540 -938 502 0
911 969 606 0
960 -498 809 0
759 -632 227 0
172 949 -784 0
-475 -576 -404 0
82 -755 87 0
285 -244 270 0
132 739 127 0
724 -734 27 0
937 632 640 0
346 96 197 0
742 -41 -502 0
-458 -4 581 0
-9 -713 162 0
106 -477 -437 0
-719 835 -836 0
397 506 -470 0
884 -823 -385 0
863 807 797 0
-426 -594 -666 0
981 -95 -406 0
-63 -644 -261 0
-784 420 422 0
361 -611 -252 0
-597 -661 21 0
-59 33 976 0
211 -336 929 0
627 -855 850 0
-342 -347 769 0
-433 91 19 0
-870 411 393 0
675 -193 -369 0
-236 907 -607 0
416 588 -445 0
-177 -218 -216 0
-695 -728 281 0
-119 136 -386 0
468 -63 6 0
-595 -812 -840 0
970 -80 -168 0
690 -555 812 0
727 494 -45 0
141 -555 -707 0
575 101 328 0
-409 -836 160 0
-794 -686 -479 0
308 -456 162 0
956 -592 -566 0
475 -946 799 0
-93 754 -607 0
-380 2 -729 0
140 -728 785 0
282 715 -682 0
-443 90 -35 0
-113 -328 47 0
956 -37 -49 0
-353 264 713 0
-973 935 32 0
526 -835 476 0
235 -866 -316 0
953 -578 -394 0
210 -573 495 0
-978 642 -718 0
823 546 -66 0
133 956 177 0
955 -592 780 0
-457 406 484 0
-592 83 274 0
683 -893 492 0
-971 -529 -377 0
807 113 -298 0
883 -961 544 0
48 757 -283 0
-309 31 543 0
208 8 -463 0
-46 744 891 0
-97 926 -967 0
-69 781 112 0
365 674 -417 0
-455 -962 -211 0
383 -181 703 0
-325 373 698 0
534 431 -176 0
-443 429 -417 0
536 443 -706 0
384 -159 924 0
-587 -245 -457 0
124 43 -764 0
-777 303 168 0
-535 790 902 0
-269 -244 -421 0
-859 573 -663 0
391 -282 585 0
872 -439 982 0
876 -702 959 0
58 738 -938 0
102 -560 513 0
-406 195 741 0
300 -529 -892 0
-432 1000 418 0
-661 287 141 0
-726 358 921 0
248 -293 521 0
-379 912 -450 0
478 599 -295 0
777 -822 -525 0
-966 242 -383 0
-402 -444 -960 0
918 427 -431 0
-775 75 812 0
-908 -929 890 0
-866 328 -494 0
-565 -366 549 0
-736 480 302 0
-674 -300 319 0
677 -320 -33 0
-167 -591 494 0
148 784 215 0
345 -773 -488 0
-59 246 -364 0
-287 184 488 0
-459 242 799 0
624 259 549 0
422 -299 -564 0
-718 -161 800 0
-240 -799 -810 0
696 847 -162 0
-151 -612 610 0
-829 838 145 0
-349 -662 744 0
571 119 896 0
254 628 922 0
37 -595 809 0
129 -35 -827 0
-223 -974 -337 0
209 59 -150 0
174 552 815 0
-910 -578 909 0
-641 616 349 0
16 580 -384 0
-142 517 447 0
356 363 682 0
-551 20 934 0
-117 -315 611 0
308 -519 -787 0
998 743 -97 0
15 176 337 0
198 -951 226 0
-566 -512 685 0
70 307 913 0
314 877 -628 0
-747 -916 78 0
-681 543 -734 0
718 -473 -900 0
-513 -571 307 0
-85 426 -551 0
-556 946 -1000 0
-776 -641 -245 0
986 -851 923 0
692 -457 105 0
179 931 604 0
-958 875 -112 0
-354 14 911 0
845 -92 345 0
-990 -647 -653 0
-720 -148 -635 0
821 -114 335 0
-812 -745 719 0
-666 971 -40 0
698 844 350 0
-185 738 436 0
336 -527 777 0
-96 -463 920 0
-465 262 -532 0
-354 726 -939 0
-550 -134 203 0
-643 -505 470 0
-795 -432 -440 0
-772 -555 -441 0
-539 -871 530 0
723 337 616 0
-310 781 -247 0
-819 318 -136 0
-284 -2 -138 0
-614 550 546 0
729 247 -738 0
826 16 688 0
512 432 -352 0
487 -630 637 0
106 -513 193 0
502 902 -477 0
183 551 559 0
950 151 -887 0
-290 -165 -748 0
-214 -54 -825 0
37 583 363 0
899 75 -68 0
-82 513 970 0
600 -547 -403 0
496 798 768 0
-515 -424 -388 0
890 -687 -161 0
872 -603 -290 0
487 97 247 0
-993 -581 314 0
55 -470 262 0
127 -491 924 0
640 779 766 0
-974 561 -438 0
-141 42 -895 0
-888 585 121 0
-922 947 476 0
-179 -39 435 0
657 -517 634 0
79 -426 254 0
439 778 943 0
-994 696 -199 0
905 -27 474 0
-893 -390 -744 0
880 649 760 0
651 306 972 0
-46 -720 -170 0
-23 728 320 0
19 -530 752 0
-290 521 311 0
970 -379 -208 0
-210 816 -165 0
301 888 -878 0
-224 616 -865 0
840 607 -473 0
-245 444 -884 0
41 298 -545 0
504 -43 -380 0
-61 552 870 0
-792 -263 -103 0
-620 -658 -261 0
-930 192 159 0
-70 -737 -251 0
-856 271 -51 0
-296 -697 364 0
60 -421 -161 0
998 -460 -336 0
381 214 518 0
-84 -991 -690 0
760 729 -664 0
879 -902 429 0
-131 -725 664 0
702 -683 376 0
-784 823 -844 0
-944 821 -44 0
944 368 -692 0
-446 -170 660 0
827 -967 -233 0
-963 586 930 0
326 308 950 0
418 201 -895 0
859 -274 -311 0
691 229 448 0
-510 -717 -753 0
707 700 -959 0
-100 -409 350 0
-912 655 -782 0
-183 -415 -448 0
-935 357 -736 0
-607 -125 823 0
186 -210 -723 0
572 201 -811 0
-718 -54 838 0
512 679 -338 0
134 286 932 0
606 -34 843 0
106 -437 -949 0
843 92 -270 0
-104 363 216 0
-459 -341 781 0
476 -291 -179 0
-888 -260 528 0
-766 -826 852 0
421 145 297 0
-469 437 35 0
566 693 -242 0
599 885 -604 0
-603 -555 944 0
128 447 246 0
-935 727 584 0
-56 402 346 0
671 822 774 0
356 -812 -847 0
-130 207 -980 0
371 781 982 0
-543 -129 324 0
-766 17 712 0
-642 263 465 0
-154 -685 -318 0
220 370 234 0
-426 354 823 0
-433 -684 382 0
-763 -40 8 0
967 635 -210 0
966 -234 -582 0
-922 860 628 0
913 -770 497 0
-872 414 512 0
569 -86 -148 0
334 359 839 0
-870 595 901 0
56 -419 583 0
-226 40 659 0
-503 -779 644 0
-393 -961 -258 0
-443 -965 -653 0
-410 568 520 0
-929 -395 -314 0
742 582 -913 0
-578 -694 846 0
616 -118 371 0
999 -433 -779 0
-867 857 904 0
462 -683 -50 0
979 -909 695 0
258 -529 666 0
325 253 -431 0
767 531 -27 0
640 -478 448 0
1000 -493 312 0
157 -884 -611 0
-32 59 928 0
771 143 -606 0
-544 -167 -11 0
210 207 456 0
912 538 638 0
-998 -440 -314 0
-606 -967 448 0
814 -112 -56 0
6 -276 -359 0
1 -429 378 0
359 253 826 0
793 627 -310 0
-830 -170 -241 0
443 250 -177 0
908 -719 -725 0
-48 -506 262 0
-495 874 -869 0
374 936 -390 0
626 190 -481 0
-694 439 -826 0
80 -889 50 0
601 191 -77 0
-435 404 -784 0
313 105 632 0
120 309 396 0
435 -378 838 0
-126 328 -878 0
750 477 -126 0
608 949 -560 0
-664 340 703 0
-86 -697 931 0
541 -922 -186 0
276 -424 -5 0
263 -418 -339 0
-68 95 836 0
-562 239 -4 0
647 -571 -751 0
-856 -5 476 0
-515 -813 636 0
420 60 362 0
81 -790 41 0
791 90 669 0
722 668 359 0
-389 876 810 0
-780 397 -489 0
-85 -233 -593 0
-895 -515 -387 0
-935 -92 -510 0
504 760 844 0
-943 895 936 0
-597 886 884 0
-940 254 -945 0
401 635 106 0
-905 -829 811 0
572 -436 311 0
882 969 -194 0
457 -503 735 0
-548 159 114 0
1000 -298 102 0
999 255 -768 0
989 -400 642 0
477 803 -487 0
780 -465 -30 0
-288 719 786 0
-980 932 -666 0
-870 -742 -937 0
-434 73 -988 0
-644 692 114 0
533 116 984 0
-896 -888 361 0
-636 175 -720 0
979 -190 -822 0
142 -893 -378 0
612 -399 695 0
895 859 -667 0
-69 976 267 0
-342 315 236 0
3 -780 20 0
920 -665 -526 0
-437 158 -111 0
-857 -676 100 0
467 -61 -507 0
-786 622 761 0
-436 -512 238 0
845 996 756 0
-137 691 -823 0
686 -855 658 0
-399 258 -393 0
570 135 -707 0
146 51 -935 0
-55 342 -908 0
413 214 519 0
63 991 -486 0
-950 -185 423 0
-195 633 -575 0
-726 613 -272 0
704 -762 748 0
-518 -834 -954 0
-964 558 399 0
81 638 190 0
-374 -506 741 0
434 -161 -696 0
957 965 -968 0
134 815 -125 0
-633 265 901 0
-921 824 432 0
979 927 -820 0
804 -364 -55 0
673 348 902 0
-127 -273 -409 0
-110 805 449 0
1000 278 -857 0
468 -22 836 0
-381 -483 -626 0
563 167 104 0
825 -1 -267 0
624 167 980 0
418 885 -483 0
200 -935 -747 0
938 409 582 0
857 -136 -527 0
-278 -187 -799 0
-589 -352 659 0
919 548 -277 0
-758 -155 515 0
594 824 -103 0
-525 -645 -153 0
112 -303 932 0
-767 -530 -403 0
40 652 -897 0
855 925 -621 0
-580 -403 -839 0
22 -10 583 0
944 -616 540 0
541 -553 732 0
-507 -815 -964 0
-129 86 196 0
-941 19 34 0
-210 377 -858 0
-134 925 157 0
382 376 277 0
743 -662 329 0
452 103 777 0
-560 898 -908 0
751 -607 -108 0
533 -299 -265 0
246 108 -754 0
-512 948 856 0
41 -770 -447 0
-917 535 628 0
891 58 -795 0
492 333 -89 0
-987 450 -46 0
606 -920 436 0
537 -36 -973 0
-854 -836 -779 0
-959 294 -576 0
731 826 244 0
-263 183 928 0
980 -278 -342 0
-684 -969 549 0
-827 868 853 0
112 82 367 0
-780 910 434 0
399 289 -67 0
-597 983 90 0
78 -227 -246 0
502 461 -714 0
-439 -184 821 0
549 124 -169 0
-736 700 -140 0
46 175 -987 0
-778 -470 -309 0
-234 -226 248 0
864 412 478 0
245 10 -886 0
157 -341 -582 0
-807 379 782 0
48 601 -934 0
284 871 -569 0
508 784 422 0
-606 331 154 0
-853 -813 871 0
587 618 45 0
-46 802 704 0
341 654 -63 0
992 977 341 0
-109 131 896 0
291 670 -862 0
371 -220 -680 0
943 -51 -36 0
115 342 403 0
-608 4 -332 0
-23 168 -76 0
-958 807 45 0
142 475 462 0
-735 282 364 0
104 -86 -766 0
778 21 844 0
842 52 22 0
-301 674 342 0
237 452 484 0
-739 -44 -628 0
-302 -398 -813 0
-241 579 130 0
526 -354 -428 0
-249 -840 -26 0
133 39 161 0
-371 -830 195 0
-778 137 -150 0
-38 -460 608 0
-630 858 -959 0
-463 -583 347 0
-214 130 -30 0
540 765 571 0
-332 -697 -312 0
62 -543 -268 0
208 517 -701 0
-831 -682 359 0
-844 -184 421 0
-988 285 -800 0
-136 518 -744 0
-781 -616 718 0
254 605 -375 0
720 -569 863 0
-640 -75 -86 0
66 -997 -669 0
408 -637 -973 0
-312 447 -840 0
621 -251 -462 0
-579 -583 857 0
-935 161 -57 0
865 513 73 0
-682 -719 494 0
660 876 99 0
130 199 -672 0
-85 -623 62 0
97 926 -391 0
984 -46 442 0
-457 -905 -368 0
-339 -206 562 0
-435 -413 -526 0
475 954 -999 0
850 320 -770 0
-694 -118 465 0
-351 654 -627 0
996 870 -43 0
-277 -788 -563 0
-937 -404 625 0
-325 984 -38 0
-684 62 -162 0
697 553 761 0
-675 -12 -832 0
-895 313 -643 0
876 -743 -498 0
-152 -676 708 0
466 498 368 0
-975 836 -980 0
42 667 895 0
-646 -571 835 0
-341 -873 -871 0
-711 -964 -364 0
-327 968 -283 0
210 671 229 0
-505 -69 753 0
-289 -696 -628 0
-689 494 -273 0
-845 298 683 0
677 -30 -138 0
828 -223 -784 0
333 -602 -999 0
490 153 -535 0
-377 -630 490 0
916 -880 861 0
995 -136 979 0
-67 579 434 0
350 144 -475 0
203 387 247 0
412 812 -978 0
722 -589 404 0
642 -1000 15 0
-171 -312 -288 0
540 -687 -964 0
-528 -876 139 0
-222 -931 38 0
240 -976 -303 0
513 864 469 0
979 -865 123 0
-412 -875 -540 0
419 488 821 0
632 -842 761 0
797 244 -414 0
-971 211 246 0
355 -694 691 0
-854 -806 -286 0
333 907 -50 0
-797 -756 11 0
-924 893 876 0
-656 238 -243 0
-577 -636 -582 0
-533 -221 707 0
340 -290 -922 0
-891 -335 -609 0
-107 137 -838 0
-325 -954 626 0
-935 680 476 0
-453 857 264 0
549 133 149 0
838 834 -812 0
782 838 -915 0
-969 121 -942 0
424 526 143 0
231 792 -925 0
-967 -603 711 0
-541 201 -896 0
-548 -517 22 0
-102 -962 -986 0
-317 -965 505 0
-365 -426 139 0
-938 359 -82 0
-889 35 -454 0
-517 678 -933 0
-211 236 -303 0
-48 936 846 0
-140 661 704 0
439 944 935 0
-338 -953 966 0
596 274 799 0
-685 -164 912 0
784 979 882 0
-244 86 -632 0
-16 490 -163 0
-515 591 -88 0
298 -36 -160 0
770 593 -430 0
704 -783 806 0
-922 746 -712 0
-428 -838 928 0
-497 636 -512 0
117 940 567 0
168 -1 -993 0
403 10 -631 0
236 -393 599 0
-450 -915 -495 0
235 242 -228 0
-211 488 -700 0
811 -613 69 0
-808 -613 741 0
-402 348 202 0
822 -155 -814 0
-110 -383 -686 0
-265 -107 558 0
-280 385 -735 0
991 -199 462 0
879 408 623 0
-740 -350 439 0
506 -840 63 0
-116 -44 -973 0
515 -647 -721 0
453 180 -133 0
-385 -366 -617 0
190 -583 -754 0
-591 -111 682 0
-566 -69 -792 0
-904 183 -711 0
-676 -338 763 0
-466 807 -102 0
413 542 866 0
-320 -827 -779 0
-308 -982 -327 0
-11 463 215 0
-211 466 972 0
-526 -326 -602 0
299 325 304 0
-921 -46 -688 0
-179 855 794 0
-750 -594 -16 0
977 -862 373 0
-229 537 -141 0
-102 -59 835 0
-476 -830 534 0
-308 -132 -992 0
417 -426 451 0
690 603 -491 0
-24 -558 -483 0
-723 -251 671 0
631 212 -972 0
-397 -335 432 0
438 -707 -510 0
-699 -417 -299 0
719 748 258 0
-549 666 -821 0
464 -227 -269 0
676 375 268 0
816 652 -945 0
-715 -226 396 0
550 255 845 0
-482 -620 366 0
-92 -520 185 0
390 -315 573 0
369 -73 940 0
522 -675 529 0
-445 94 -258 0
-999 995 500 0
18 531 -244 0
968 -573 834 0
-485 -697 33 0
25 -629 284 0
805 -226 -985 0
16 -256 837 0
-251 588 214 0
271 179 270 0
476 408 -718 0
-218 145 -948 0
869 934 -324 0
457 -554 540 0
636 104 -154 0
-322 218 -553 0
-981 926 244 0
221 -229 -406 0
-104 -191 -161 0
-825 -832 -556 0
-6 646 -596 0
-566 -935 406 0
469 224 -28 0
-276 433 404 0
-627 -579 266 0
-270 -928 -70 0
-162 -471 -119 0
148 -754 97 0
-823 757 -31 0
-345 14 -103 0
869 59 -130 0
-808 -478 232 0
905 -805 -53 0
-904 696 -56 0
907 -854 -786 0
727 89 -678 0
885 -280 -29 0
-619 643 -342 0
834 -731 -173 0
-562 278 -625 0
-394 -893 577 0
-536 -213 -44 0
-994 -556 51 0
-363 -878 803 0
548 -904 -559 0
-868 356 -286 0
421 4 740 0
368 -425 885 0
-718 -726 83 0
327 -955 727 0
-103 -28 -772 0
-72 909 -126 0
-60 -809 158 0
-574 -830 440 0
572 -185 -79 0
638 -207 -622 0
402 -780 -871 0
805 887 -539 0
230 446 470 0
-857 -947 312 0
-333 326 926 0
-362 368 -209 0
-781 117 -672 0
162 269 -814 0
-527 -998 970 0
-234 -497 -16 0
360 395 -740 0
285 429 209 0
582 65 398 0
-603 -857 -767 0
876 -84 -328 0
366 347 336 0
-16 445 -355 0
-88 313 -326 0
-398 206 542 0
-239 904 -411 0
-951 -26 780 0
857 351 816 0
370 529 -28 0
582 -261 215 0
-782 554 -384 0
502 -84 952 0
98 -893 654 0
-613 504 -776 0
-186 -269 965 0
-39 -584 693 0
671 -942 163 0
290 784 428 0
77 -665 -595 0
-637 736 -293 0
-74 -616 -954 0
-362 410 535 0
407 -210 -172 0
-945 -335 992 0
-711 -658 81 0
867 842 374 0
-852 474 -808 0
48 912 -758 0
313 -830 -188 0
361 -938 86 0
245 -774 979 0
816 -744 -360 0
-143 -670 955 0
-725 -732 467 0
-922 -753 620 0
78 847 -214 0
-262 144 592 0
854 -316 359 0
-418 123 640 0
42 -191 837 0
114 -225 -255 0
-981 259 -673 0
574 -509 851 0
-952 501 549 0
189 -34 -927 0
326 -75 517 0
-614 112 847 0
-90 534 -936 0
129 81 956 0
-681 -147 -347 0
23 62 566 0
-97 -908 -907 0
-531 -631 -635 0
181 -834 641 0
-12 -190 899 0
-981 227 355 0
548 -140 91 0
-263 -619 -779 0
251 -166 333 0
-227 382 -428 0
720 -679 2 0
736 237 941 0
-329 -599 -215 0
-402 -696 -942 0
-988 942 -786 0
74 -125 736 0
193 -427 352 0
273 663 46 0
-335 499 -477 0
-942 359 -476 0
117 804 -688 0
-471 904 -319 0
-378 -159 -899 0
-537 -41 -246 0
-474 -966 -407 0
887 -335 680 0
-595 -639 -176 0
-423 511 -637 0
211 645 695 0
532 151 888 0
440 -942 661 0
-156 839 -657 0
-673 862 -825 0
-402 66 643 0
662 864 -774 0
535 725 -29 0
22 595 1 0
900 -378 -559 0
-177 563 -505 0
142 -784 -694 0
318 116 346 0
-237 364 11 0
-515 240 587 0
-382 -547 -842 0
34 747 1 0
-654 -226 -896 0
-277 -554 -721 0
-478 -434 -598 0
-29 52 813 0
295 -394 -903 0
686 352 697 0
-777 262 880 0
-982 74 -412 0
622 -131 -931 0
-681 -7 -72 0
166 323 -96 0
-796 156 -847 0
-401 789 -405 0
963 255 265 0
53 171 336 0
134 -540 294 0
-743 -982 460 0
-774 -381 -222 0
-13 430 -461 0
690 596 551 0
163 -55 63 0
-850 351 364 0
12 -480 251 0
206 -500 -575 0
675 -189 934 0
371 47 237 0
597 145 99 0
-682 139 828 0
-466 -256 -386 0
-389 353 295 0
-934 -118 331 0
875 350 82 0
-901 438 -848 0
-191 -28 -828 0
303 636 588 0
919 84 168 0
94 708 -257 0
-962 -360 940 0
-694 948 606 0
968 833 649 0
135 -437 -506 0
-288 972 -611 0
-788 -497 47 0
-22 -583 980 0
71 811 410 0
-324 502 -842 0
874 403 485 0
-436 668 815 0
173 692 -980 0
182 64 718 0
-576 -696 492 0
47 -232 332 0
481 -272 -191 0
-578 996 27 0
-826 -613 364 0
741 -692 -830 0
-390 -198 88 0
-869 -234 -666 0
-504 -449 -271 0
-361 278 79 0
-955 -43 -551 0
-40 133 -761 0
129 981 395 0
975 -173 552 0
-881 371 -609 0
917 498 -449 0
-918 -228 -203 0
973 -344 -593 0
-803 -346 2 0
29 -372 656 0
51 541 884 0
7 865 -274 0
439 -217 -366 0
349 591 561 0
-435 407 -88 0
4 -568 -809 0
298 275 879 0
-428 -926 564 0
693 -688 -23 0
175 372 -933 0
661 -819 474 0
-876 722 -103 0
-206 416 629 0
-244 -485 929 0
307 694 -764 0
-152 902 -386 0
612 -399 -832 0
288 600 -738 0
-310 -975 158 0
348 -853 -405 0
503 382 -432 0
464 333 106 0
-870 -798 444 0
855 753 339 0
426 836 -425 0
-436 716 140 0
-536 122 420 0
312 681 -180 0
-258 706 -669 0
927 83 -901 0
-911 -605 668 0
905 290 630 0
72 -197 -310 0
-60 -245 -824 0
111 -605 -992 0
705 -527 -398 0
601 -416 62 0
213 521 -698 0
216 399 635 0
-745 632 -466 0
-964 880 578 0
-979 457 -983 0
-345 25 292 0
-23 676 -878 0
415 -894 -553 0
262 -348 -727 0
406 727 491 0
-264 640 174 0
-357 807 836 0
376 569 787 0
529 782 -541 0
445 86 653 0
647 -988 -495 0
23 461 50 0
616 -721 -437 0
-382 -354 268 0
-46 74 -215 0
601 -592 367 0
-998 120 250 0
716 442 384 0
210 -218 845 0
164 -451 -359 0
746 252 490 0
-310 986 312 0
-377 582 800 0
-851 109 -689 0
-14 -285 -614 0
70 -985 944 0
-917 508 -586 0
561 543 287 0
580 -438 -836 0
281 -507 -424 0
679 -667 143 0
-971 -333 -617 0
-767 -181 -358 0
420 -758 -969 0
520 -178 838 0
301 774 318 0
526 262 419 0
402 964 136 0
-520 898 760 0
-552 -646 549 0
-784 431 -300 0
128 204 -913 0
-905 -73 857 0
-419 174 -661 0
-485 -467 450 0
407 -436 -907 0
69 922 841 0
511 181 -622 0
-114 748 220 0
-913 871 519 0
-852 -484 196 0
320 294 -174 0
-9 676 -419 0
-172 -374 824 0
330 209 139 0
272 490 -644 0
319 908 -916 0
445 579 -878 0
-307 569 -780 0
-719 -829 -971 0
-892 -335 -531 0
650 -611 507 0
725 -554 757 0
-989 907 -778 0
962 -37 831 0
785 413 489 0
728 -694 232 0
158 -969 34 0
-115 913 -303 0
-988 -678 -329 0
-184 -533 -840 0
768 933 446 0
256 6 -209 0
64 50 277 0
881 434 777 0
241 958 -265 0
748 768 -327 0
-225 -297 -63 0
-803 -52 -72 0
61 84 851 0
-892 491 -443 0
-741 814 5 0
454 99 290 0
-508 156 965 0
670 502 -270 0
837 437 921 0
580 291 -47 0
666 909 136 0
630 -157 -150 0
-582 -945 1000 0
441 909 -973 0
-714 248 308 0
903 -427 279 0
542 -732 -429 0
-105 283 -768 0
-363 754 -649 0
724 -326 -1000 0
-177 236 -706 0
-29 -475 279 0
-968 -225 546 0
-414 -424 160 0
-227 943 57 0
555 -126 -362 0
490 -211 -826 0
487 -503 471 0
-144 -883 -730 0
854 -534 12 0
795 -488 559 0
-133 995 -371 0
103 100 -769 0
116 430 198 0
-168 595 536 0
-407 149 553 0
637 839 -504 0
3 312 828 0
93 -752 952 0
548 -464 -348 0
-396 602 77 0
-126 808 -86 0
224 136 -913 0
166 -252 -384 0
559 432 519 0
-20 -481 -549 0
565 -521 -553 0
-950 174 710 0
646 -137 -683 0
840 38 -702 0
713 964 429 0
-17 212 -545 0
568 39 711 0
-861 697 -75 0
903 -350 47 0
-914 -791 721 0
962 -587 -9 0
-268 726 -419 0
10 -162 -282 0
996 -839 262 0
-748 -583 986 0
-506 -39 800 0
-963 809 545 0
-73 -375 358 0
-851 -184 -347 0
-91 -569 945 0
973 -348 196 0
-644 673 382 0
-924 580 169 0
-812 996 842 0
-221 947 698 0
358 40 -809 0
810 -269 -590 0
378 -720 620 0
722 853 -840 0
7 37 955 0
946 120 497 0
268 282 -470 0
-47 -499 234 0
-882 378 -751 0
-321 -503 -820 0
-656 -982 781 0
-267 -792 503 0
256 980 80 0
71 715 29 0
928 -308 -588 0
77 -422 -81 0
839 130 710 0
-700 -532 530 0
881 -458 78 0
-468 21 -173 0
-28 205 196 0
916 710 150 0
76 350 347 0
-752 -849 -912 0
914 231 -495 0
-62 867 851 0
257 -263 -138 0
861 -774 -383 0
993 -171 -611 0
595 872 -952 0
984 624 -955 0
950 -537 147 0
695 976 -283 0
-698 -103 -293 0
765 995 345 0
619 645 -316 0
673 426 90 0
355 976 -197 0
640 -264 734 0
432 477 -864 0
563 235 -901 0
64 -936 -755 0
-709 -257 120 0
644 -673 -261 0
844 -180 -96 0
190 313 217 0
-78 -210 -911 0
979 423 -67 0
-569 -48 -590 0
-430 -695 78 0
-992 546 863 0
-800 -875 119 0
701 -691 -962 0
-781 334 -172 0
-763 -884 -668 0
