c Random 3-SAT formula for benchmarking
c Generated with seed 88
p cnf 1000 4260
-408 998 195 0
540 -787 -714 0
139 230 975 0
-453 421 -332 0
-168 123 476 0
-925 971 254 0
181 -942 16 0
-835 -510 -723 0
514 -70 503 0
-142 130 439 0
107 -568 -529 0
-346 -725 222 0
-878 -476 -723 0
-163 -356 -320 0
-488 -46 645 0
-949 422 842 0
-330 -247 527 0
-569 55 761 0
362 573 914 0
447 -484 931 0
995 -985 -969 0
-695 630 -634 0
-542 902 -577 0
-762 3 44 0
707 -400 -931 0
-591 707 844 0
-308 -942 -375 0
-379 -454 -402 0
-163 319 -199 0
-508 333 417 0
847 342 131 0
-851 -755 -704 0
-212 938 -330 0
658 -248 210 0
749 343 -696 0
175 -77 -938 0
259 -965 -309 0
812 -429 957 0
-793 139 74 0
847 -787 803 0
-212 -513 -809 0
-764 -813 750 0
-228 123 -425 0
-388 -829 -762 0
-840 -107 183 0
616 -324 317 0
544 -727 636 0
-393 247 -808 0
-25 -456 -796 0
-380 24 -717 0
-13 -376 -349 0
-806 -300 -16 0
380 596 -524 0
-35 86 -308 0
575 -137 -132 0
-784 929 -916 0
-234 697 -258 0
862 651 -665 0
-260 -858 270 0
599 -218 -87 0
-614 -360 -959 0
112 521 79 0
-458 498 -913 0
59 -910 -119 0
-891 940 138 0
86 277 -207 0
-376 761 482 0
-438 -491 -508 0
750 -235 7 0
-269 777 -415 0
-714 -221 -856 0
-503 318 -48 0
-167 -452 -714 0
-936 165 991 0
-532 246 -843 0
391 187 672 0
-919 -834 -967 0
-821 29 231 0
654 -724 646 0
192 246 -115 0
350 130 -897 0
146 64 -406 0
578 -810 -596 0
-976 548 -181 0
552 -533 170 0
-499 -25 -994 0
105 825 940 0
292 -941 -572 0
-924 -689 903 0
-421 -990 -83 0
748 -154 -713 0
716 431 -731 0
-371 855 758 0
547 -65 -465 0
508 133 2 0
793 528 374 0
-228 595 -853 0
-320 466 -464 0
994 -447 484 0
-469 -581 -105 0
-614 -769 861 0
869 -744 935 0
-914 -476 -474 0
-524 -166 -569 0
908 -298 988 0
-657 -70 -224 0
-602 -568 -688 0
-418 -337 465 0
-919 570 -435 0
449 -667 -462 0
628 833 -730 0
662 821 -356 0
847 -50 826 0
8 -183 -521 0
-970 12 262 0
885 24 252 0
-633 -285 -824 0
686 -405 -277 0
-40 441 408 0
712 289 515 0
1 -618 -941 0
882 -862 -878 0
181 -157 -498 0
-483 -651 -569 0
359 9 -819 0
720 64 621 0
-83 -256 -450 0
-535 660 -972 0
-774 -980 255 0
-949 -682 423 0
-820 -65 337 0
745 637 151 0
305 905 -512 0
443 -439 -836 0
577 -873 621 0
-266 178 949 0
-727 68 -154 0
-222 -524 -771 0
-419 22 391 0
-222 -663 -706 0
709 456 -753 0
-91 793 -895 0
-6 392 -358 0
-661 -35 -794 0
563 -874 -207 0
-597 921 -372 0
-108 -591 557 0
-465 858 -300 0
-569 -84 -24 0
890 102 26 0
-232 187 -702 0
612 -635 -254 0
404 783 457 0
599 169 -98 0
-221 -938 335 0
634 -430 149 0
-295 -337 312 0
167 842 -175 0
141 281 525 0
838 803 -551 0
-249 475 613 0
-425 -2 983 0
-905 566 -742 0
955 59 -343 0
227 283 -1000 0
448 526 -976 0
-575 -180 -742 0
941 -703 -585 0
-827 602 689 0
653 -333 67 0
-148 329 -737 0
331 136 943 0
-499 191 -400 0
-645 188 389 0
-669 579 69 0
-453 -856 -655 0
-994 1 880 0
330 334 91 0
-185 -715 736 0
-373 656 -49 0
449 -740 703 0
-485 -708 -393 0
-465 358 65 0
999 442 -349 0
-891 79 -24 0
-337 -964 -646 0
-942 108 -42 0
440 -843 -710 0
295 -283 -834 0
-594 -144 -855 0
801 95 -92 0
-616 494 -318 0
108 716 390 0
55 20 -742 0
659 706 192 0
-498 -40 430 0
-686 187 -385 0
-169 537 93 0
-499 -505 -330 0
-346 216 427 0
-257 176 -189 0
-127 -716 306 0
-382 856 930 0
-566 -846 -342 0
-336 -226 810 0
-415 469 -620 0
-906 352 -666 0
-148 -931 167 0
845 500 610 0
-171 127 465 0
-305 890 405 0
-192 691 200 0
-483 -471 297 0
919 -83 -757 0
-176 949 -377 0
671 26 -263 0
-35 -844 -994 0
269 -427 -801 0
210 -701 692 0
-970 -271 454 0
766 -902 705 0
-711 -470 -965 0
-556 175 -651 0
-498 901 -679 0
224 756 672 0
-481 282 659 0
757 -544 -322 0
785 348 -127 0
-477 188 -386 0
795 -597 -533 0
598 -10 -981 0
-150 -723 119 0
-755 -247 -301 0
-729 -400 659 0
-287 741 407 0
-570 -853 -236 0
-750 76 -302 0
-157 -187 -331 0
645 190 943 0
-383 827 775 0
-251 697 11 0
467 -477 608 0
903 -575 686 0
-269 242 -874 0
680 438 -51 0
-108 552 -755 0
-316 -928 -8 0
-91 -505 -685 0
-178 -233 -423 0
241 418 -580 0
-27 962 -359 0
822 -657 525 0
478 317 -738 0
-549 -398 912 0
-119 763 460 0
943 887 -325 0
320 -704 734 0
-508 876 -262 0
-3 820 -70 0
-36 -37 354 0
56 -192 -507 0
469 -417 -686 0
-554 910 -27 0
49 344 -304 0
777 740 84 0
67 -979 -229 0
697 891 -576 0
699 -945 246 0
-374 -434 -840 0
-226 -222 523 0
-514 -790 767 0
-900 -848 -734 0
-821 -259 125 0
3 -919 -94 0
798 -616 -337 0
173 748 374 0
994 459 -226 0
665 -245 553 0
-320 -511 555 0
-555 187 -538 0
-907 12 -303 0
919 981 -983 0
734 130 637 0
-779 -991 -309 0
-383 623 -750 0
730 -985 -355 0
492 749 214 0
979 703 285 0
456 643 -218 0
344 -150 -624 0
987 830 166 0
-955 932 -907 0
-272 924 152 0
-843 764 832 0
55 -490 619 0
-708 -650 -580 0
-286 63 339 0
477 -958 138 0
654 -696 335 0
166 -743 -974 0
27 379 773 0
-577 230 -902 0
379 -305 830 0
-845 260 -434 0
790 559 -196 0
-283 647 -266 0
770 -411 311 0
241 992 -553 0
-408 951 29 0
-687 -434 -237 0
68 -539 957 0
-419 -355 -238 0
539 -934 281 0
828 -663 -222 0
-934 -315 534 0
-152 259 804 0
-441 -839 943 0
949 142 -257 0
7 -394 118 0
965 -526 -52 0
750 -176 -476 0
-141 -478 -461 0
886 366 -863 0
757 -61 -945 0
-702 829 -129 0
-636 692 -619 0
-168 -820 -220 0
-311 631 208 0
-42 728 -660 0
-899 761 -524 0
-32 352 -466 0
-392 -843 -179 0
618 741 808 0
-288 -375 -8 0
-235 -749 -624 0
139 523 -301 0
-625 758 -141 0
879 -664 51 0
-594 537 430 0
629 736 -25 0
-437 -424 390 0
-26 802 848 0
886 -760 -425 0
-671 697 -623 0
428 427 100 0
-728 -49 699 0
336 -85 408 0
-920 290 -407 0
145 322 184 0
-85 577 -769 0
-346 -997 -663 0
471 -688 -274 0
976 964 149 0
733 115 867 0
-374 28 -559 0
761 -567 274 0
393 293 139 0
-96 634 -915 0
-860 222 162 0
-665 749 -56 0
-68 752 -699 0
133 -263 843 0
417 626 481 0
-168 911 699 0
-300 895 -787 0
922 776 370 0
-351 -500 -446 0
-437 -222 -906 0
740 429 648 0
694 863 342 0
773 184 546 0
341 -36 -687 0
3 870 -42 0
182 -176 136 0
-705 -64 -401 0
-415 -972 980 0
-320 665 472 0
764 -30 919 0
901 340 877 0
-301 991 592 0
-564 -27 -602 0
631 195 380 0
720 611 658 0
-598 864 48 0
986 -631 632 0
688 603 648 0
-681 -720 974 0
-455 122 517 0
-445 334 -7 0
147 525 -928 0
927 -519 600 0
-426 -326 -896 0
-571 -921 -702 0
-172 -308 675 0
-944 -40 727 0
-351 -86 20 0
-828 822 761 0
273 -649 -983 0
693 675 260 0
626 525 123 0
-339 33 306 0
-396 -191 612 0
18 -962 674 0
248 299 -245 0
61 928 -194 0
126 -519 -160 0
-118 65 -186 0
703 377 -672 0
920 659 -930 0
98 -240 213 0
-381 340 807 0
-482 -826 375 0
766 -211 128 0
76 96 -354 0
-320 -749 284 0
-959 -978 -356 0
-94 869 -97 0
-426 361 -846 0
-455 137 -309 0
-948 -450 512 0
-79 -130 275 0
384 -954 -727 0
244 406 81 0
-481 -788 187 0
335 -309 -595 0
658 375 -502 0
757 776 -661 0
95 784 -992 0
999 24 573 0
980 489 -426 0
881 824 852 0
943 925 -63 0
91 535 -648 0
981 -441 622 0
-220 695 430 0
55 51 933 0
-208 619 326 0
-557 -607 -115 0
986 423 541 0
-477 457 639 0
357 382 -895 0
-255 181 -19 0
994 295 91 0
980 845 946 0
-320 563 -941 0
525 57 548 0
-901 613 -464 0
-971 -415 888 0
-136 -955 886 0
248 -291 -618 0
-617 270 -686 0
954 24 -178 0
-607 841 -190 0
-959 -847 -61 0
-30 392 -623 0
-838 -193 -395 0
-512 16 -521 0
135 -471 460 0
-492 230 860 0
-538 -608 574 0
-583 -110 -917 0
398 272 -16 0
-983 -518 802 0
-714 481 -180 0
895 -252 -549 0
-240 -374 -341 0
-996 890 -575 0
715 -650 287 0
58 -364 522 0
437 -929 -826 0
309 -260 587 0
788 -715 -817 0
359 -591 166 0
957 -312 -510 0
-170 988 241 0
342 -336 -345 0
-415 540 -364 0
928 -65 -814 0
-864 72 415 0
19 684 -855 0
537 498 -852 0
350 -103 858 0
-791 -460 -462 0
-785 16 -996 0
-46 793 -420 0
341 516 -715 0
824 -327 -647 0
-915 684 176 0
714 -131 704 0
492 -772 33 0
-537 -30 -252 0
-583 676 -688 0
-522 -137 -547 0
7 -504 563 0
29 -443 -549 0
168 26 780 0
464 -263 84 0
771 83 258 0
-156 703 161 0
173 -497 275 0
647 -462 750 0
-540 -630 303 0
-599 691 418 0
19 904 -524 0
-75 -187 171 0
-56 -479 -239 0
377 547 -12 0
865 -882 -395 0
134 -654 964 0
286 -202 228 0
910 243 605 0
291 -216 -939 0
-244 -786 148 0
-12 301 415 0
277 213 -958 0
-866 406 326 0
567 309 725 0
69 205 253 0
-794 -651 -809 0
383 -166 -482 0
-927 -775 107 0
-18 526 423 0
-388 547 -141 0
753 -477 -579 0
-131 -581 710 0
486 634 873 0
-765 -60 527 0
916 262 -926 0
-129 -465 -858 0
890 248 -305 0
-395 -376 -72 0
-397 233 -678 0
-580 792 429 0
725 -17 -162 0
-951 435 -616 0
267 -429 -773 0
-558 -640 599 0
369 -626 -322 0
-14 160 504 0
48 604 -617 0
362 469 -191 0
-445 -973 -176 0
693 314 -659 0
-655 284 -915 0
537 -414 -806 0
35 821 715 0
-700 -428 854 0
-946 347 796 0
592 218 807 0
-378 -422 602 0
-79 447 764 0
-810 326 -277 0
-135 336 9 0
-246 504 -961 0
-639 875 901 0
-322 -440 -128 0
-3 -923 258 0
295 631 471 0
-287 681 -455 0
178 1 531 0
-132 -762 176 0
-684 675 986 0
-223 -591 565 0
-668 627 -860 0
938 -295 -748 0
350 626 873 0
-759 -766 702 0
-906 805 16 0
951 -651 -646 0
-996 -419 -301 0
660 -667 82 0
-591 -434 459 0
-89 -634 -292 0
268 -291 390 0
-642 -73 526 0
-657 757 262 0
-695 110 -663 0
603 677 -889 0
-52 480 273 0
-401 -764 586 0
385 695 -638 0
899 -364 -370 0
412 63 -145 0
838 699 808 0
392 -226 -249 0
-609 228 787 0
-121 95 -72 0
111 674 -758 0
-194 7 18 0
-160 818 -260 0
379 13 259 0
-225 631 -893 0
909 -976 965 0
473 -122 13 0
123 -727 580 0
-713 209 70 0
-596 297 -142 0
212 -331 257 0
547 518 510 0
284 81 -940 0
-742 -214 -457 0
-711 875 -810 0
476 -257 887 0
-566 816 -148 0
866 220 -247 0
697 -368 873 0
-746 -311 304 0
555 -269 182 0
-881 -568 408 0
-871 753 -903 0
-424 62 -329 0
165 383 -724 0
-743 429 320 0
692 237 -491 0
957 -925 -792 0
-745 -233 -711 0
-360 989 9 0
907 762 426 0
87 846 12 0
-238 325 732 0
-546 229 36 0
867 -794 -544 0
-61 89 -539 0
200 -122 942 0
362 -287 -633 0
545 385 -781 0
-702 -868 -110 0
-43 390 -717 0
-976 306 -274 0
-226 938 111 0
448 790 566 0
109 -122 375 0
-925 717 -157 0
610 -294 377 0
852 -461 -404 0
146 -999 -543 0
845 -592 -579 0
-602 909 -617 0
638 -550 -879 0
-866 388 -35 0
-767 151 972 0
301 193 -179 0
-573 159 958 0
-256 971 741 0
-180 -192 -508 0
-768 749 -179 0
-254 -777 -905 0
-297 464 538 0
-280 -553 -32 0
465 289 673 0
-436 57 147 0
628 936 21 0
-669 -110 245 0
435 -460 38 0
-175 -147 -59 0
-808 552 946 0
109 -38 -912 0
44 882 880 0
-497 -474 -881 0
-428 94 -586 0
707 -72 393 0
63 -688 354 0
366 386 869 0
173 -408 -476 0
168 296 321 0
176 -156 103 0
-835 214 -284 0
-123 652 -457 0
-431 756 518 0
829 697 -473 0
-307 804 621 0
34 -71 -210 0
-220 -425 -401 0
-308 776 996 0
995 178 673 0
-632 -986 -117 0
-955 -169 68 0
-316 -794 126 0
-990 -500 -936 0
-160 -540 152 0
179 -674 -541 0
-410 -976 853 0
667 623 334 0
541 601 -986 0
120 -32 -367 0
831 -843 147 0
199 -423 -123 0
418 768 243 0
-81 454 -207 0
346 -124 599 0
770 417 698 0
-750 -792 267 0
-370 -961 367 0
1000 -30 956 0
-755 -404 53 0
32 -504 760 0
-359 183 -978 0
815 -452 -701 0
360 688 -83 0
960 172 317 0
-68 355 454 0
-5 -975 707 0
54 -671 -74 0
381 139 227 0
335 -153 873 0
553 17 -885 0
-814 453 232 0
-854 -978 455 0
672 -282 683 0
838 280 983 0
27 -631 -257 0
276 852 -492 0
641 -7 -26 0
241 -158 -521 0
128 546 526 0
-77 -86 835 0
559 871 852 0
-327 807 112 0
-877 -521 480 0
383 187 82 0
-394 -398 793 0
826 -419 -146 0
461 -928 369 0
791 -349 908 0
-575 850 -426 0
-188 -113 404 0
-622 274 -720 0
629 -474 461 0
-423 -143 813 0
548 -189 -537 0
-41 612 318 0
400 252 278 0
-970 478 -411 0
-184 -730 -7 0
522 -831 668 0
-57 947 -825 0
604 -38 599 0
-553 -718 -770 0
261 -72 -95 0
247 339 213 0
-486 250 1000 0
894 862 -659 0
571 -525 818 0
-255 920 446 0
-796 -229 -1 0
175 946 -124 0
132 -334 -845 0
115 -716 -138 0
727 547 -405 0
-70 -840 438 0
-418 -116 -402 0
-978 92 -667 0
902 7 -663 0
395 460 -716 0
-313 -785 -349 0
-75 -625 380 0
910 -417 454 0
828 494 652 0
-316 -962 992 0
43 336 -679 0
-583 922 -601 0
-432 -570 -128 0
-552 -800 422 0
511 -804 -686 0
-492 -352 909 0
-934 631 186 0
977 -731 223 0
-373 -341 755 0
-316 927 -317 0
-911 -137 598 0
-962 466 -117 0
384 494 28 0
-775 978 742 0
-200 -688 -988 0
948 -314 -711 0
-502 -293 -875 0
-782 -566 236 0
497 263 -892 0
572 1000 -904 0
-73 108 -904 0
-13 934 786 0
-209 -689 -614 0
-853 851 13 0
-638 875 -416 0
-456 945 -275 0
793 -126 472 0
-942 426 -900 0
6 847 -389 0
-878 -246 388 0
-320 207 -465 0
-225 -915 -61 0
-878 476 291 0
108 -70 -622 0
-292 891 800 0
-228 -835 779 0
249 721 749 0
-511 -278 -360 0
-94 -281 145 0
-94 882 -861 0
-905 462 686 0
565 -919 402 0
254 6 -519 0
-877 -524 328 0
-359 244 62 0
277 -935 -91 0
596 615 36 0
347 -949 -549 0
-979 177 220 0
-496 -884 -639 0
644 961 -378 0
-389 -237 107 0
-328 -734 909 0
491 -807 -746 0
787 -486 -458 0
-923 -637 -359 0
554 -310 838 0
485 265 -619 0
925 300 349 0
198 57 19 0
587 460 322 0
-324 708 852 0
-687 -435 -47 0
107 171 833 0
-303 -776 174 0
290 -969 563 0
-54 140 157 0
51 722 946 0
625 815 956 0
-983 898 18 0
654 116 250 0
-612 660 -530 0
-975 26 96 0
-288 258 -920 0
583 721 82 0
628 795 -978 0
763 69 -530 0
563 371 524 0
-992 -296 -858 0
327 445 -398 0
688 609 492 0
-902 885 659 0
651 487 -728 0
-172 -646 -381 0
472 -29 -306 0
696 701 -494 0
490 -961 802 0
273 111 -746 0
925 -446 -297 0
225 -81 144 0
-64 229 711 0
416 -409 354 0
86 -80 -570 0
-480 -788 803 0
927 -666 -903 0
-749 -764 -562 0
-617 -961 418 0
-443 -617 139 0
259 595 -301 0
725 276 63 0
721 441 -692 0
722 233 699 0
-607 665 296 0
-444 -465 2 0
-846 150 113 0
-781 -7 -822 0
231 225 303 0
782 48 -655 0
-64 929 -637 0
-772 -603 147 0
271 -72 681 0
497 62 832 0
308 -209 733 0
530 546 -839 0
779 408 -745 0
1 500 -568 0
-935 -253 -282 0
-313 -794 833 0
541 188 -791 0
-800 669 -543 0
-490 410 226 0
-609 926 984 0
659 -192 -649 0
-17 -662 768 0
440 990 -325 0
738 741 462 0
-764 -687 -759 0
455 990 316 0
-891 -433 495 0
155 -105 -496 0
-170 405 285 0
519 395 761 0
-684 969 -662 0
-121 693 -427 0
-363 53 -623 0
-589 -249 864 0
998 -235 250 0
-556 972 837 0
901 413 96 0
-177 -569 -218 0
547 -210 871 0
-9 -911 -752 0
203 617 54 0
-919 869 779 0
60 2 -893 0
286 666 615 0
-753 370 -150 0
713 263 -173 0
-250 836 1 0
-656 810 920 0
340 -184 470 0
411 -965 209 0
-405 728 -412 0
566 883 250 0
185 -894 -51 0
-226 -475 611 0
-236 -800 -684 0
155 -440 587 0
-456 960 861 0
829 530 818 0
-641 336 561 0
93 -621 -510 0
-228 511 762 0
-92 -605 978 0
962 644 -832 0
-591 -330 -838 0
529 -558 798 0
-927 -337 341 0
349 -401 380 0
-558 -699 185 0
-229 507 562 0
-156 -161 -315 0
-691 -428 735 0
301 320 215 0
-934 520 -34 0
358 35 -74 0
939 -81 -935 0
-27 -834 546 0
514 947 -109 0
684 236 352 0
900 -894 -991 0
-701 -167 282 0
-868 683 959 0
389 -654 -342 0
-892 596 -615 0
62 50 964 0
318 -544 755 0
-598 19 -269 0
-498 -86 176 0
413 822 -191 0
-249 -145 -842 0
-32 -152 727 0
-919 -115 500 0
-541 -372 -689 0
-762 -60 -303 0
274 -904 -57 0
784 195 255 0
-61 610 820 0
283 -278 614 0
661 142 -972 0
424 815 -721 0
-547 -245 -328 0
-397 760 590 0
-722 -422 -951 0
435 174 219 0
-46 -169 21 0
-509 875 -231 0
275 550 271 0
-27 190 -80 0
119 238 285 0
797 -600 -4 0
157 -627 -703 0
-883 -486 -59 0
201 -644 -423 0
-389 -183 -579 0
961 745 758 0
-406 -639 592 0
178 -641 296 0
-71 163 309 0
581 -372 -507 0
829 426 -363 0
69 -958 977 0
133 -488 8 0
476 199 669 0
-237 843 722 0
-9 -447 573 0
-189 54 645 0
-790 848 865 0
-982 437 -319 0
-178 -6 414 0
833 -260 43 0
-710 -139 -371 0
-542 -297 182 0
-564 -60 -209 0
292 -206 744 0
429 9 166 0
-624 -815 -737 0
14 -203 125 0
-728 -831 994 0
190 -382 -397 0
471 -17 300 0
885 719 -609 0
-231 608 241 0
149 -948 192 0
-674 119 557 0
217 -473 -630 0
-695 738 674 0
-726 -606 219 0
549 475 -261 0
-794 589 746 0
873 -226 -125 0
-885 -164 -767 0
589 532 430 0
486 -512 -37 0
-110 -287 -62 0
-910 324 -23 0
-831 -694 -614 0
-885 349 -527 0
419 -743 -403 0
-219 -582 -531 0
-742 451 -412 0
744 -249 498 0
-273 -162 -854 0
-169 963 286 0
-949 -213 -385 0
254 -590 -646 0
231 -911 -263 0
-745 -456 467 0
-509 -79 -552 0
163 -346 -939 0
617 -869 -733 0
686 137 356 0
509 -830 -932 0
-593 -612 -745 0
33 -551 949 0
-545 539 299 0
-354 537 -741 0
-901 926 -729 0
64 -920 -972 0
-533 843 -190 0
933 703 -412 0
76 -566 -157 0
804 966 -13 0
643 -301 617 0
554 289 693 0
-674 -258 -54 0
-390 93 219 0
974 574 40 0
-222 843 650 0
561 774 704 0
265 495 444 0
862 221 386 0
205 -533 990 0
309 -23 -630 0
395 578 931 0
-547 200 -294 0
-491 -623 80 0
248 -631 970 0
642 -667 576 0
626 -640 173 0
-913 814 225 0
642 -86 -274 0
-751 -327 374 0
-407 170 687 0
-775 267 -532 0
639 -324 711 0
111 -480 -617 0
-643 778 -169 0
502 565 504 0
-270 568 652 0
483 136 389 0
-374 -222 965 0
805 266 -886 0
-251 174 994 0
274 -504 -472 0
-670 -495 -381 0
-125 261 -213 0
-210 -603 -456 0
462 666 117 0
432 -57 953 0
429 -114 495 0
699 -993 -611 0
30 216 418 0
-216 134 709 0
795 519 -550 0
314 44 493 0
546 647 716 0
-183 177 463 0
411 939 157 0
-448 -417 -683 0
654 -337 43 0
244 529 -803 0
-649 926 -20 0
-106 -600 -634 0
698 -755 474 0
817 -832 267 0
713 241 830 0
-475 774 545 0
306 184 -1 0
-833 -174 975 0
-959 840 -829 0
-994 381 -657 0
886 -452 -900 0
726 635 895 0
-398 317 -725 0
254 -682 -640 0
754 -994 -709 0
-631 -889 -178 0
28 -161 275 0
333 -625 166 0
892 129 83 0
519 199 -613 0
-451 -867 -249 0
504 710 -962 0
999 898 974 0
655 -627 -261 0
597 514 101 0
-832 -300 -427 0
-123 -163 74 0
-953 -439 -604 0
-534 218 848 0
-280 223 -194 0
814 -69 -479 0
-188 675 -338 0
-384 -405 227 0
701 239 -631 0
-72 -978 248 0
-618 400 253 0
-935 794 308 0
166 -784 118 0
982 -501 -259 0
-256 -89 -967 0
-183 813 -62 0
-811 179 799 0
447 781 806 0
118 894 -590 0
-441 -120 -45 0
580 222 76 0
870 574 -883 0
485 -554 -708 0
951 -71 652 0
552 492 361 0
964 760 525 0
581 -954 -756 0
-244 306 -878 0
28 -348 -475 0
529 -863 -717 0
240 -189 974 0
484 587 -954 0
-128 238 695 0
376 745 -944 0
727 -561 -374 0
859 748 -1 0
-711 834 -386 0
-799 -135 256 0
-15 -927 668 0
485 808 230 0
-203 270 763 0
-976 730 377 0
423 939 -994 0
-49 -21 990 0
-282 -327 721 0
318 647 -367 0
141 462 -613 0
475 -693 206 0
998 161 -999 0
433 48 -670 0
562 998 -754 0
-452 198 346 0
553 -266 -780 0
321 -236 -816 0
137 -603 -627 0
-36 -702 543 0
-371 431 -769 0
-779 450 -746 0
-42 -63 -465 0
-822 -525 24 0
-169 -399 -842 0
161 -292 131 0
427 448 73 0
-761 -619 -125 0
978 -480 624 0
-716 -174 521 0
-616 -596 580 0
-137 821 -631 0
-971 -284 868 0
318 -340 -855 0
881 248 -279 0
273 642 458 0
-282 -233 -409 0
721 960 -946 0
-808 502 994 0
405 202 980 0
242 -660 -93 0
748 280 337 0
883 857 606 0
436 -395 968 0
-558 -233 926 0
-208 201 -141 0
-166 -614 -73 0
-259 148 1 0
687 -145 -881 0
747 252 -627 0
-328 54 -584 0
-714 -698 -320 0
-599 -415 751 0
650 884 -939 0
42 727 985 0
-223 416 -952 0
-398 667 382 0
352 -96 -435 0
-893 -246 478 0
-775 414 -163 0
640 -604 -673 0
350 236 212 0
822 -95 384 0
197 835 717 0
403 -122 228 0
-69 845 -742 0
452 -185 879 0
-622 852 -268 0
-908 2 -698 0
-349 -3 355 0
-253 -884 176 0
535 -710 -108 0
299 -308 890 0
552 77 -162 0
825 -417 -266 0
142 -832 -169 0
500 5 -93 0
986 -177 632 0
-212 -633 -211 0
-302 -700 -312 0
952 969 942 0
-739 183 -809 0
-37 230 -421 0
981 599 -93 0
61 923 -664 0
804 -892 -668 0
732 968 -545 0
2 -642 -984 0
58 -484 -439 0
-737 -578 104 0
-887 -644 447 0
796 -69 -86 0
-644 -967 1 0
823 -417 -176 0
-380 826 -995 0
-406 773 633 0
-59 67 -698 0
30 343 -595 0
485 -578 117 0
454 -19 -248 0
-169 -32 460 0
509 -966 -940 0
-854 16 -732 0
-77 -378 596 0
-250 140 -588 0
-571 907 966 0
360 19 52 0
627 359 445 0
908 -45 918 0
597 837 -600 0
-738 -794 -113 0
449 -236 -960 0
-694 452 -680 0
-578 5 -466 0
394 937 741 0
-198 764 438 0
973 -677 -994 0
-112 487 935 0
-871 731 -49 0
-828 916 297 0
-585 621 -483 0
9 -859 792 0
756 -307 -430 0
192 -292 993 0
-281 845 383 0
-358 -377 -172 0
-459 157 144 0
-661 -283 -864 0
-620 -631 647 0
17 -735 22 0
291 -1000 678 0
254 -376 410 0
-327 -132 -180 0
-763 -837 -627 0
442 748 407 0
-883 -801 -417 0
808 62 -448 0
-592 -621 510 0
-194 -517 259 0
168 -92 119 0
-942 -98 -128 0
892 571 -489 0
-836 -132 -626 0
-429 311 -906 0
580 -674 799 0
637 -610 -620 0
295 -188 -497 0
506 -829 450 0
-198 191 561 0
884 240 -400 0
-261 571 64 0
157 860 -420 0
-758 453 566 0
-514 -631 350 0
932 438 -187 0
-167 48 -302 0
447 435 -977 0
164 -574 -284 0
333 -190 112 0
-231 -647 -483 0
-395 690 252 0
720 -962 -538 0
954 -317 872 0
-268 234 -679 0
237 21 -58 0
555 -479 78 0
533 -675 463 0
741 -830 -533 0
841 -322 971 0
-13 -476 -810 0
-527 600 301 0
-218 996 317 0
833 970 725 0
725 -857 -712 0
-160 913 834 0
-819 977 568 0
647 -142 -699 0
-787 -855 -33 0
730 -426 980 0
-225 -766 -308 0
811 601 -967 0
-461 868 -519 0
412 -324 786 0
-337 -745 -677 0
928 782 857 0
505 208 331 0
-913 -776 -879 0
-488 16 -723 0
-618 -313 -24 0
203 709 166 0
485 -136 -275 0
764 735 -800 0
-825 -378 507 0
-902 -594 795 0
-476 208 119 0
-374 -958 441 0
-321 215 -426 0
-285 -764 935 0
328 878 -516 0
166 996 336 0
-172 -863 -566 0
736 607 -845 0
796 -394 813 0
684 -112 792 0
-820 -590 -172 0
563 926 -456 0
-834 -238 98 0
66 234 -792 0
-317 -287 464 0
-642 687 699 0
324 -919 -318 0
-607 -940 -56 0
-598 747 -421 0
-499 939 666 0
139 -674 280 0
810 412 823 0
-845 971 66 0
770 -98 426 0
367 125 611 0
-545 -560 -675 0
-698 -847 192 0
514 953 -986 0
-664 -900 272 0
-310 349 -946 0
-974 -309 921 0
-901 877 796 0
-200 529 -113 0
834 -913 105 0
-494 365 335 0
801 707 423 0
-464 481 235 0
147 -571 -626 0
591 -701 -783 0
159 928 65 0
-630 931 -627 0
196 709 -720 0
-76 -673 935 0
-753 -363 -58 0
-622 564 937 0
-544 -251 523 0
299 420 825 0
570 -163 165 0
-898 160 567 0
414 -241 384 0
531 -373 578 0
897 322 658 0
-822 -341 -804 0
-486 724 -293 0
-186 41 960 0
898 -783 -510 0
287 -11 -516 0
-668 -758 454 0
-961 -728 -624 0
-620 51 -982 0
-316 -945 -787 0
795 162 516 0
-922 -967 -627 0
-3 94 -807 0
489 155 -722 0
409 -289 -385 0
-551 -287 479 0
763 703 943 0
580 736 264 0
-586 165 95 0
-934 -676 -250 0
-223 -401 867 0
-172 75 -10 0
810 357 956 0
450 265 786 0
752 -201 -692 0
347 -422 775 0
296 718 -897 0
-679 207 45 0
-958 345 564 0
687 -130 -345 0
638 -921 -973 0
152 894 360 0
-791 835 342 0
-444 -346 -417 0
11 704 -725 0
607 -11 790 0
-364 -231 -216 0
-601 -173 469 0
140 -954 216 0
946 -237 821 0
-756 198 986 0
-651 -349 -3 0
-378 366 -15 0
-96 2 111 0
465 -443 535 0
538 873 522 0
-459 915 -654 0
407 632 -745 0
812 -518 -520 0
-701 -717 243 0
-688 -50 881 0
-207 29 271 0
616 -32 -24 0
299 260 -785 0
64 315 -861 0
593 -587 -165 0
312 -601 -834 0
105 521 954 0
107 -535 901 0
-768 -995 -241 0
790 -229 119 0
123 -331 -211 0
-46 363 -293 0
654 860 -63 0
512 638 -608 0
-478 -697 -321 0
210 -6 342 0
-10 282 -774 0
-522 773 353 0
71 -65 -205 0
-717 199 936 0
-479 -78 -388 0
749 -375 962 0
873 -603 863 0
-227 999 -816 0
110 -587 -133 0
-981 -460 806 0
-28 -250 -486 0
377 -800 660 0
515 -365 207 0
-659 567 -630 0
-809 501 40 0
613 685 502 0
-909 541 22 0
-878 23 784 0
-556 -41 547 0
-353 998 751 0
-387 -241 118 0
476 585 495 0
-766 -729 293 0
819 -409 -126 0
-741 658 480 0
-700 762 -619 0
-362 651 -489 0
670 202 141 0
558 -415 -89 0
-462 755 901 0
-129 987 -925 0
-912 20 -980 0
509 733 -738 0
-566 654 -345 0
811 -755 -657 0
-520 -439 -780 0
475 835 680 0
969 131 -544 0
-657 -802 503 0
327 373 -471 0
-285 594 72 0
-207 -73 -481 0
964 -41 703 0
-124 -226 546 0
670 592 186 0
147 997 570 0
635 -896 696 0
102 761 -21 0
-172 -454 -888 0
797 -383 -623 0
-99 -874 -691 0
-132 631 813 0
-221 588 -140 0
995 -308 -699 0
127 373 -14 0
-764 86 72 0
-10 102 371 0
-313 861 385 0
473 -95 389 0
-939 -759 -937 0
-634 -551 762 0
219 588 516 0
144 114 965 0
219 -597 -937 0
283 728 -573 0
470 866 129 0
503 -712 635 0
163 -989 -670 0
857 149 -193 0
469 408 897 0
-385 872 -247 0
641 783 563 0
822 -370 514 0
-670 -398 -576 0
864 -417 200 0
-968 -993 35 0
110 -266 -863 0
-55 890 376 0
241 -287 118 0
19 559 801 0
451 833 -995 0
196 484 323 0
-751 859 265 0
-249 411 -239 0
-553 -832 -589 0
-19 -735 -249 0
-746 -454 -532 0
-402 -58 -798 0
864 776 913 0
-112 714 -543 0
-266 -828 332 0
-214 535 811 0
-919 -545 284 0
-177 -292 -241 0
-923 670 766 0
301 -594 -96 0
348 161 -695 0
-592 -956 -555 0
309 -116 -648 0
-891 554 -442 0
-22 -865 -140 0
768 -120 -517 0
355 653 465 0
642 494 115 0
195 9 497 0
690 892 509 0
752 795 -223 0
918 -154 904 0
858 -758 855 0
-236 57 -247 0
-223 672 -405 0
-237 -541 -797 0
982 784 -413 0
-788 318 911 0
517 -285 -712 0
-860 347 -32 0
869 -655 720 0
-925 512 52 0
-263 400 801 0
803 -163 527 0
-321 874 106 0
-792 -505 502 0
-807 -863 400 0
37 -265 -220 0
767 -182 -993 0
-836 -760 338 0
192 -563 -770 0
-562 -532 2 0
304 157 360 0
18 983 809 0
990 -755 -67 0
-151 -790 481 0
209 -630 126 0
-494 -478 -870 0
713 383 197 0
301 295 -27 0
87 494 464 0
-327 447 272 0
-60 -100 -495 0
-708 576 -394 0
-640 -78 101 0
-457 904 31 0
-888 971 891 0
442 449 7 0
496 284 25 0
-164 553 328 0
186 748 -162 0
-632 850 -28 0
-551 -603 203 0
-290 583 -909 0
-14 -882 431 0
-427 630 447 0
509 450 33 0
693 386 -408 0
-636 379 981 0
857 -137 585 0
-972 763 -505 0
339 -489 466 0
-510 -231 -385 0
-27 698 123 0
-769 30 -894 0
-331 24 719 0
672 324 956 0
229 159 -37 0
1000 105 -640 0
-577 350 853 0
998 -490 648 0
-836 917 -592 0
266 410 -931 0
731 585 910 0
-931 -658 -933 0
198 -759 91 0
787 -97 102 0
717 -518 370 0
525 837 226 0
402 602 325 0
-899 -684 -671 0
-725 -704 -328 0
643 -62 734 0
807 625 594 0
-53 -38 690 0
575 -972 769 0
-238 282 -68 0
-175 -620 856 0
-722 -904 -173 0
-280 753 654 0
-841 -859 -396 0
318 671 101 0
709 209 349 0
-771 594 179 0
-714 886 37 0
796 -631 -752 0
-231 390 39 0
121 422 -374 0
-194 259 674 0
-509 -726 806 0
690 499 -6 0
-360 695 -474 0
270 255 -793 0
114 -575 -185 0
920 532 -394 0
190 -463 808 0
915 507 328 0
-681 634 -574 0
-188 -228 -196 0
-357 -488 -148 0
-416 547 -702 0
425 -289 -534 0
-81 -144 893 0
210 -364 786 0
223 -314 -850 0
679 277 -520 0
-659 425 65 0
281 160 612 0
-620 -892 864 0
112 -773 25 0
-245 288 468 0
576 622 -725 0
557 -320 -627 0
-2 -726 325 0
772 -134 -123 0
-209 13 222 0
-632 788 -269 0
-115 -501 540 0
-600 774 539 0
-519 343 891 0
-29 791 633 0
-882 -45 -975 0
809 -263 279 0
300 736 -797 0
452 -602 -428 0
-511 -278 -693 0
-61 35 -702 0
-664 -148 376 0
271 61 383 0
-507 -195 -529 0
270 963 782 0
-189 523 326 0
166 -448 -355 0
874 786 -445 0
376 130 -813 0
432 -838 -885 0
748 -161 373 0
131 635 63 0
315 -405 -917 0
-869 -783 -406 0
-185 86 -274 0
897 -373 -264 0
-378 494 932 0
-358 -653 73 0
-255 120 -473 0
-843 -830 399 0
-855 478 687 0
800 116 572 0
531 485 -203 0
854 153 483 0
-110 -586 -264 0
941 834 345 0
-380 300 399 0
115 -786 855 0
-762 -112 -161 0
713 422 410 0
-666 -31 -326 0
603 154 -897 0
911 955 548 0
279 133 -551 0
-135 -120 -973 0
-172 -118 749 0
527 947 594 0
-319 -943 -427 0
-578 39 297 0
-903 988 277 0
924 -18 349 0
486 392 614 0
374 -688 -726 0
-268 866 -408 0
682 -24 847 0
682 125 -92 0
518 335 -594 0
-912 774 328 0
-144 -270 -211 0
277 -834 -294 0
419 446 -267 0
751 43 865 0
331 -539 -685 0
-981 -37 -257 0
-291 757 -324 0
-406 41 -614 0
813 674 -710 0
-286 136 609 0
564 416 -841 0
-34 -645 -180 0
-697 -942 403 0
-239 -242 17 0
-998 795 780 0
-10 556 -761 0
-286 -774 -579 0
542 -552 98 0
-805 269 685 0
478 -64 -367 0
-709 715 829 0
-677 618 -581 0
528 815 -391 0
-779 829 -866 0
635 998 -665 0
-534 -582 460 0
769 907 8 0
46 -992 -897 0
651 351 381 0
-477 951 -253 0
-774 312 -60 0
-386 -670 952 0
-270 -710 995 0
306 -65 126 0
884 -318 973 0
-670 -647 422 0
-465 -653 -414 0
806 909 695 0
-697 159 369 0
-569 -321 -142 0
-475 470 658 0
-36 363 736 0
284 -193 710 0
501 -449 258 0
394 89 629 0
697 -290 -491 0
-631 -249 202 0
644 337 550 0
-217 -669 960 0
926 -320 -89 0
212 485 104 0
-489 -378 382 0
287 -42 885 0
-753 444 237 0
165 -409 213 0
-138 -97 72 0
203 176 396 0
255 -518 946 0
-677 661 -585 0
505 725 -595 0
955 -928 43 0
-937 -961 970 0
718 -173 -338 0
67 -489 302 0
547 -361 172 0
-641 952 -850 0
-708 29 5 0
153 667 -722 0
-915 613 354 0
55 -849 -991 0
-33 -908 -865 0
842 292 -438 0
-70 232 828 0
-545 867 -795 0
-662 -657 -343 0
-928 71 -706 0
722 566 -113 0
-614 -825 70 0
-532 7 -128 0
-365 297 -633 0
28 327 508 0
-357 -360 -544 0
967 213 -408 0
895 840 259 0
-660 805 -843 0
-235 104 124 0
-172 482 -58 0
475 -381 263 0
-700 -365 -911 0
969 -22 -740 0
103 -122 611 0
-482 935 447 0
383 -34 615 0
-496 -556 -58 0
-942 -793 565 0
-182 249 -410 0
998 -313 -746 0
596 -87 -870 0
798 -532 238 0
349 268 -253 0
-348 -131 -603 0
-133 -528 -459 0
-74 931 524 0
-938 -634 611 0
-644 -176 -845 0
989 241 -587 0
-147 -654 -539 0
-575 -637 830 0
818 246 -71 0
-189 -183 581 0
543 -71 -287 0
311 -544 275 0
502 805 531 0
-134 57 77 0
-470 -279 377 0
-493 -74 862 0
588 -384 -151 0
584 85 214 0
-872 -429 372 0
724 277 -670 0
-87 -84 927 0
418 23 257 0
-50 582 389 0
-392 35 -936 0
860 -596 75 0
-11 -135 938 0
70 -936 -66 0
213 -751 -44 0
471 -748 753 0
-106 691 -703 0
884 465 778 0
-2 -414 -82 0
938 811 336 0
240 -649 605 0
700 -641 -585 0
351 623 355 0
710 300 529 0
301 -890 538 0
791 -143 -954 0
523 185 -190 0
-184 54 765 0
850 72 253 0
-126 -749 -916 0
-891 -727 -339 0
517 11 807 0
202 488 -37 0
544 972 93 0
877 -709 -33 0
-263 564 438 0
316 -978 228 0
-840 608 927 0
-524 -417 205 0
-938 -395 623 0
11 452 465 0
226 624 988 0
-14 -538 347 0
735 -157 -375 0
412 -701 515 0
435 -453 162 0
-42 978 384 0
224 151 -799 0
-982 977 451 0
-44 -473 -126 0
619 718 -164 0
-455 -692 -957 0
-13 125 -389 0
762 -937 729 0
-961 899 -307 0
-735 139 -533 0
-558 -243 166 0
-94 132 526 0
-480 493 -857 0
987 537 80 0
-447 -699 33 0
-180 624 88 0
849 241 38 0
-650 984 -561 0
-345 -493 829 0
419 261 7 0
329 661 699 0
886 -328 -776 0
986 794 -682 0
193 -111 -443 0
-754 -700 -888 0
832 456 888 0
-958 -497 -637 0
149 -17 76 0
-644 -80 -636 0
-704 175 -998 0
-837 -948 3 0
-771 25 -981 0
-461 -940 323 0
26 -275 -139 0
-919 -879 633 0
425 489 944 0
521 690 -58 0
-431 -659 891 0
-373 694 261 0
-320 611 161 0
-539 619 554 0
-105 318 870 0
-222 -308 -437 0
-298 -464 -505 0
331 419 -436 0
688 173 -738 0
296 -122 914 0
538 -669 -215 0
-244 41 -446 0
636 664 278 0
-182 874 -789 0
-260 654 -830 0
-394 230 -48 0
310 -747 -404 0
361 968 760 0
-814 883 501 0
681 -688 775 0
540 653 -564 0
-646 -361 -970 0
578 634 730 0
49 -356 -880 0
-710 848 -46 0
-57 -600 -641 0
-650 936 572 0
318 -991 -434 0
815 -249 644 0
-530 -302 -914 0
281 -330 -789 0
-72 869 -539 0
-157 -599 238 0
-332 -971 -297 0
-404 -676 -313 0
151 579 -63 0
-40 482 526 0
337 -848 576 0
551 758 2 0
-46 -598 -177 0
1 94 -306 0
-557 537 -523 0
-558 -504 419 0
310 -721 -35 0
647 709 402 0
-564 -933 635 0
4 593 -771 0
-795 -848 886 0
145 281 652 0
837 877 -59 0
-531 806 -905 0
-765 -329 -93 0
665 435 365 0
243 490 498 0
-194 -60 727 0
-89 199 -750 0
-469 212 863 0
21 -761 -457 0
-465 -206 -476 0
617 -261 -577 0
490 -496 772 0
652 528 655 0
-636 533 -804 0
555 940 -852 0
-369 -834 406 0
649 152 244 0
945 -198 -786 0
785 -727 -282 0
257 931 -53 0
-302 -909 382 0
-6 681 -682 0
-467 506 126 0
-372 -918 730 0
443 -916 664 0
636 -827 -439 0
-232 926 -965 0
663 -583 850 0
-121 -729 388 0
456 71 252 0
-808 -688 458 0
-498 965 440 0
-939 464 -717 0
473 19 -774 0
-833 -25 -153 0
-530 -197 599 0
-452 -447 -816 0
-88 -147 594 0
681 763 656 0
795 622 -6 0
-47 511 376 0
-511 641 189 0
-584 774 -333 0
-294 880 -466 0
677 -385 708 0
47 -445 -82 0
809 -867 541 0
879 55 253 0
993 330 788 0
344 104 75 0
-229 -173 -12 0
650 205 -897 0
747 -104 -967 0
-924 561 -124 0
443 677 -701 0
809 130 838 0
-306 -632 -886 0
-535 132 -280 0
-702 947 353 0
-382 -880 662 0
491 -921 544 0
-664 275 891 0
360 14 -210 0
184 -896 -599 0
-713 -990 102 0
494 -593 -965 0
316 676 714 0
395 116 -106 0
663 836 -434 0
-405 278 -520 0
935 -398 -155 0
375 922 -35 0
759 -371 -436 0
-895 881 421 0
724 -622 -937 0
375 256 -218 0
-351 83 948 0
-114 -759 -367 0
-430 -279 -418 0
-67 447 933 0
637 140 -136 0
779 876 -668 0
749 -511 914 0
-64 798 967 0
760 501 86 0
770 123 30 0
997 -169 841 0
-284 531 556 0
-532 -149 866 0
-513 286 -145 0
472 -940 387 0
-741 155 712 0
-312 147 -211 0
-292 -1000 -993 0
-543 -95 367 0
985 905 364 0
-692 445 -286 0
109 -147 336 0
545 577 -721 0
202 399 953 0
161 868 -172 0
430 -544 -829 0
922 992 260 0
984 -862 -530 0
-554 861 628 0
-934 -151 24 0
904 102 -600 0
788 662 -336 0
-486 -394 263 0
969 285 985 0
847 693 122 0
-811 -60 191 0
-281 -613 -345 0
628 474 -714 0
839 -146 -674 0
-877 206 -112 0
873 -442 -112 0
967 -222 -101 0
-565 -143 2 0
-76 -732 707 0
-17 850 290 0
58 497 16 0
869 382 -56 0
830 343 -382 0
292 644 6 0
-857 128 602 0
-414 -142 -661 0
-110 900 577 0
783 -302 -211 0
538 -644 -12 0
413 614 188 0
83 -769 -414 0
50 33 626 0
355 104 857 0
-560 -650 -342 0
-381 707 518 0
-769 -911 -730 0
-758 -205 739 0
364 273 -242 0
-706 -364 17 0
-192 522 452 0
-241 -698 -557 0
-706 40 -930 0
869 120 -116 0
192 486 968 0
-314 -801 991 0
447 407 706 0
-662 681 399 0
-528 -597 -500 0
932 -362 992 0
-589 -18 788 0
347 666 -71 0
971 508 -703 0
-814 486 -101 0
-842 600 -856 0
-889 -362 -915 0
155 775 531 0
244 259 742 0
-971 -162 -362 0
207 -654 -165 0
-481 -238 4 0
236 -750 -548 0
-672 -751 -795 0
13 -110 474 0
-619 -574 -819 0
-342 -501 766 0
287 -602 -645 0
983 -919 821 0
175 28 132 0
21 978 103 0
-692 587 -944 0
-36 705 -998 0
977 402 700 0
37 724 428 0
308 -985 335 0
-985 -204 770 0
707 -759 120 0
-758 583 572 0
-999 225 -635 0
98 -60 394 0
-7 -478 -816 0
675 -259 390 0
-628 -164 944 0
214 54 348 0
135 -589 438 0
371 158 -245 0
-496 593 -103 0
-331 -91 -771 0
-453 962 -281 0
-46 -27 835 0
474 -336 -209 0
745 189 -317 0
445 204 944 0
-640 314 -868 0
-878 -340 -856 0
-729 -814 16 0
579 842 -937 0
-115 -476 -433 0
-269 975 -795 0
165 639 -622 0
-392 -501 245 0
-359 -570 -208 0
504 -748 -176 0
-951 286 -62 0
719 92 -619 0
978 662 8 0
739 240 -810 0
634 398 -1000 0
-452 -911 -758 0
108 494 6 0
-59 36 -785 0
32 597 -783 0
361 4 -861 0
301 100 -575 0
968 -587 -551 0
43 142 -355 0
181 345 761 0
162 -299 -442 0
-672 -869 -182 0
-695 559 -542 0
598 -15 -876 0
998 -341 89 0
-850 -86 -212 0
997 -25 46 0
47 682 -545 0
-809 46 200 0
-730 -170 -109 0
171 -227 -544 0
289 -454 406 0
597 783 790 0
-998 33 -19 0
884 -772 964 0
637 -620 -592 0
-623 704 -957 0
568 129 -430 0
-499 191 82 0
-37 410 204 0
389 -943 436 0
-739 983 352 0
-122 -349 726 0
-579 665 886 0
-148 45 621 0
-529 499 -51 0
805 9 564 0
-338 -70 -700 0
-594 -923 -683 0
474 555 477 0
-599 819 -266 0
341 -173 -635 0
227 431 198 0
-597 794 365 0
-123 382 599 0
-301 806 -478 0
-836 -922 548 0
868 -617 557 0
4 -815 155 0
449 -914 227 0
-173 -599 554 0
-362 -892 -993 0
-183 67 -202 0
-879 636 817 0
644 -319 -52 0
347 693 554 0
-829 -659 -694 0
328 -924 -157 0
584 774 -320 0
-723 -864 -734 0
-470 388 137 0
804 297 931 0
848 920 104 0
787 -957 -112 0
911 297 -515 0
-263 -469 -57 0
264 674 -94 0
770 -466 -977 0
-721 735 -578 0
693 138 -518 0
239 547 841 0
970 -949 -146 0
-319 986 -167 0
426 313 -572 0
-824 36 -827 0
-904 -432 -336 0
-845 -145 -370 0
291 689 -332 0
348 404 626 0
-534 18 -768 0
156 894 -362 0
64 -627 -804 0
-613 898 -632 0
335 -734 512 0
-683 -496 930 0
823 -798 720 0
-903 -98 -254 0
-817 -591 -848 0
-874 978 -563 0
-495 -703 -620 0
126 -731 363 0
202 10 278 0
170 852 871 0
-896 674 -84 0
933 -169 -638 0
14 -528 -949 0
353 504 802 0
-77 -927 -101 0
742 146 487 0
-292 971 461 0
-601 212 -143 0
-957 361 689 0
661 -953 636 0
345 -933 -690 0
-787 747 771 0
621 -463 -167 0
531 948 769 0
-926 188 550 0
-334 -234 -390 0
808 -623 -211 0
-369 -168 -873 0
477 -375 66 0
-787 465 436 0
-869 436 -819 0
-350 54 -128 0
686 -599 383 0
899 -868 -165 0
357 -238 -144 0
118 -704 335 0
-405 -201 -227 0
-167 -744 842 0
-699 -994 884 0
-569 -872 -496 0
-859 -395 -141 0
695 829 492 0
756 453 -229 0
-495 -46 122 0
661 737 -196 0
273 -391 -428 0
-831 -675 200 0
842 884 -694 0
-210 -284 283 0
728 -975 -699 0
985 306 384 0
599 -794 -467 0
677 947 158 0
903 -416 927 0
-853 351 237 0
-796 659 -733 0
776 -949 -925 0
779 -668 122 0
-697 -583 -899 0
-968 128 -627 0
-534 783 777 0
-822 -673 450 0
674 -390 733 0
-885 341 613 0
-992 936 519 0
-579 -972 481 0
-268 404 669 0
-738 184 505 0
-261 600 180 0
-326 757 -644 0
584 -419 -723 0
208 -321 -162 0
-995 769 -382 0
665 -207 766 0
-831 -709 -373 0
864 -129 -92 0
363 -379 449 0
883 -279 339 0
475 14 -958 0
-968 717 704 0
177 -195 613 0
-797 -786 -866 0
258 160 -94 0
-395 -921 232 0
-156 960 -464 0
15 -481 437 0
-186 -624 -69 0
-732 91 492 0
-114 459 977 0
-975 178 677 0
-466 479 -932 0
-343 252 103 0
-100 367 280 0
-960 -158 421 0
553 994 167 0
-941 -877 -352 0
971 865 -849 0
566 92 -264 0
158 900 -971 0
-718 -847 602 0
664 809 923 0
-120 924 -644 0
-857 377 890 0
280 369 952 0
394 -739 835 0
-360 335 -277 0
-924 -395 -720 0
-729 -758 519 0
-240 -27 -105 0
-550 -42 918 0
768 673 -769 0
313 -372 -25 0
-693 311 780 0
-317 777 672 0
-969 -625 -33 0
46 -436 -604 0
-161 963 -613 0
910 -606 -280 0
-169 48 20 0
451 130 813 0
904 312 999 0
934 498 -729 0
660 647 382 0
685 920 -825 0
-362 400 547 0
904 -42 278 0
-72 729 -676 0
164 42 -304 0
361 -710 -502 0
-952 215 250 0
83 -921 -252 0
-259 -471 619 0
-15 769 -690 0
-717 651 -372 0
412 308 465 0
-865 154 165 0
-870 732 -414 0
270 200 -851 0
-80 -595 -555 0
-406 -598 670 0
939 670 438 0
160 1 901 0
457 -246 -645 0
608 487 164 0
-465 -245 -401 0
-174 -302 -948 0
117 577 -769 0
-212 905 -215 0
859 672 794 0
700 -787 879 0
-137 778 -130 0
-171 -325 -230 0
964 706 -788 0
113 -469 682 0
834 173 -448 0
181 523 -393 0
180 -882 -441 0
105 -17 -785 0
888 -932 726 0
-934 532 -477 0
-688 -13 911 0
-626 389 178 0
259 -704 171 0
-182 626 -229 0
58 -281 -457 0
-662 423 -843 0
563 -125 685 0
560 -865 -986 0
501 490 485 0
976 40 67 0
595 585 445 0
957 -903 -242 0
-262 20 -735 0
898 870 -181 0
635 228 -543 0
975 1000 -107 0
-115 542 322 0
743 -136 25 0
410 -308 -60 0
822 -574 -797 0
515 4 -445 0
709 330 667 0
-91 -967 25 0
98 -366 642 0
753 -808 -413 0
-481 332 -113 0
-441 -523 -962 0
-754 241 -42 0
-314 713 -749 0
-978 147 -159 0
-82 731 996 0
131 942 47 0
-979 559 514 0
935 -507 885 0
-386 -751 509 0
903 -843 -948 0
-117 -777 -50 0
-896 478 -971 0
-602 859 754 0
679 377 -858 0
761 287 -679 0
-963 602 -450 0
237 -769 -91 0
631 733 -42 0
-915 243 -830 0
-904 712 -416 0
485 608 725 0
-324 -575 -206 0
751 871 21 0
-670 652 -345 0
-301 300 -354 0
-773 -776 15 0
-490 22 660 0
-517 -973 146 0
-286 693 859 0
504 537 -437 0
-336 -382 994 0
881 409 517 0
720 761 -635 0
614 -98 -777 0
-629 -582 106 0
901 -489 550 0
-922 -811 234 0
-541 -449 42 0
743 389 -288 0
-297 584 440 0
-365 9 984 0
564 -824 -256 0
-759 543 -865 0
463 -962 901 0
-830 -928 79 0
-929 620 235 0
-646 182 852 0
384 252 -992 0
804 -624 349 0
-866 -952 148 0
802 360 391 0
-765 398 -424 0
735 529 900 0
-694 -853 -393 0
685 -577 -449 0
-923 -449 -705 0
-593 684 643 0
-504 -928 -336 0
-991 -326 449 0
-153 -999 339 0
-364 148 929 0
618 39 -853 0
-498 -68 357 0
-932 -470 736 0
-663 -631 563 0
-544 -346 -44 0
-385 589 -922 0
772 195 -535 0
546 -403 -410 0
170 252 -879 0
927 170 338 0
916 223 713 0
-880 -232 -15 0
-214 -393 -637 0
-971 435 -802 0
179 625 227 0
-813 735 434 0
-353 -334 -268 0
-508 285 199 0
401 -320 580 0
106 681 258 0
791 -713 -613 0
703 -225 405 0
948 799 886 0
-754 605 -990 0
-734 396 -785 0
-428 -963 -84 0
-315 -687 174 0
703 -875 -110 0
51 611 209 0
117 -845 -667 0
-184 -997 399 0
72 -672 -767 0
-968 657 -759 0
-241 -418 -423 0
-278 -808 -270 0
-530 -65 149 0
-563 -236 -903 0
-811 -477 343 0
460 -630 -908 0
55 -490 -292 0
-265 -172 1000 0
-519 441 -435 0
-761 55 347 0
805 -852 152 0
-831 934 298 0
476 -574 -276 0
99 -546 -424 0
-75 865 -222 0
862 -686 412 0
120 315 -55 0
-614 -127 736 0
557 -575 -348 0
-432 -457 -210 0
785 543 53 0
826 827 868 0
-439 -918 -386 0
-126 -929 703 0
967 76 708 0
-348 155 -191 0
-234 -219 -804 0
-209 -147 132 0
439 833 -745 0
420 315 -147 0
-476 573 581 0
-704 -252 -395 0
-710 708 217 0
-263 -257 864 0
-914 -478 365 0
-266 -547 -309 0
754 584 428 0
-416 -102 -715 0
229 184 -292 0
-347 997 -96 0
494 -638 426 0
-810 219 339 0
-183 53 -438 0
-183 302 -988 0
-684 -625 963 0
-878 811 8 0
308 92 674 0
270 -569 -94 0
-371 -270 504 0
-333 101 229 0
60 -597 -705 0
-680 117 177 0
-299 -842 742 0
-435 868 -754 0
327 349 -361 0
457 582 -883 0
250 697 317 0
942 639 -556 0
-526 654 999 0
-846 -466 304 0
-527 235 -503 0
-326 496 -392 0
-941 969 253 0
928 -813 -442 0
125 557 219 0
-231 759 -991 0
-672 529 590 0
-591 416 -408 0
579 -509 -456 0
-304 -437 974 0
603 535 152 0
-870 -219 -166 0
697 140 -325 0
-229 380 476 0
801 -348 -466 0
934 -96 -41 0
242 -586 534 0
628 642 266 0
214 -548 -978 0
596 618 931 0
-334 -64 -775 0
42 -65 -599 0
-378 -686 -334 0
-200 978 659 0
803 922 -726 0
177 739 -671 0
-288 -923 887 0
233 501 -797 0
-693 955 239 0
885 752 -932 0
134 126 195 0
872 -708 -337 0
234 -824 931 0
-842 771 405 0
369 216 -138 0
706 631 -903 0
482 -859 860 0
-142 -12 124 0
377 354 858 0
420 836 592 0
984 589 -606 0
138 -364 600 0
413 -382 632 0
365 -47 -343 0
362 -459 681 0
-565 302 -409 0
-154 -173 -550 0
368 -209 -425 0
918 -768 -209 0
678 -148 42 0
-81 -214 -396 0
831 -145 61 0
590 -602 -213 0
416 -473 -891 0
-647 -96 -343 0
677 -735 -657 0
551 632 470 0
-516 846 616 0
-192 -680 -876 0
-175 469 -710 0
714 759 -304 0
546 -985 -127 0
-429 390 -71 0
-783 -629 397 0
981 827 -298 0
76 352 72 0
809 261 527 0
-142 -420 -379 0
-307 571 -573 0
-43 107 -318 0
112 48 -897 0
736 -462 -342 0
-3 813 893 0
-356 627 -254 0
-534 5 608 0
913 -272 -54 0
706 729 -935 0
505 -659 745 0
168 657 321 0
-314 125 -705 0
-71 -922 -73 0
771 -386 896 0
-255 302 -966 0
-12 -409 -482 0
734 38 548 0
897 286 -171 0
402 351 358 0
682 -309 -466 0
317 -530 -704 0
-376 -12 357 0
139 516 -965 0
-212 381 500 0
806 918 -11 0
450 -555 -715 0
-141 -737 -381 0
942 -912 503 0
-962 -540 547 0
984 -2 -209 0
-964 -817 -944 0
631 83 -262 0
-738 594 1000 0
-155 -928 286 0
798 17 579 0
-884 -854 814 0
190 -806 830 0
863 -827 -777 0
-241 -851 -420 0
688 -418 39 0
551 872 751 0
585 714 -366 0
-466 296 319 0
-713 422 -527 0
-761 -72 -647 0
-620 -98 684 0
61 763 878 0
324 992 -414 0
-482 956 -888 0
-930 -604 668 0
-812 312 114 0
-523 220 648 0
629 -642 -950 0
-486 -555 135 0
-321 -949 -422 0
908 431 439 0
-166 -473 675 0
-329 780 287 0
-742 -627 886 0
-993 -105 -482 0
432 -869 -293 0
-665 -768 840 0
-660 571 767 0
-198 -326 -757 0
-12 -715 386 0
-931 264 500 0
-423 -635 -325 0
-939 -400 -941 0
309 -71 -121 0
-994 -399 663 0
341 -825 699 0
990 -2 -398 0
77 214 -935 0
-861 141 -712 0
-909 -88 311 0
-277 28 512 0
459 573 -94 0
-771 -947 -391 0
892 -323 -324 0
-471 -447 -242 0
-1000 205 145 0
-943 -778 682 0
-88 -902 537 0
230 724 -985 0
-779 656 578 0
-467 -273 483 0
827 817 -519 0
-775 -31 -892 0
-132 474 35 0
787 29 -457 0
-432 400 -667 0
-661 -53 -567 0
937 633 405 0
-639 -180 -959 0
727 917 -931 0
698 -363 -129 0
571 318 -290 0
597 269 129 0
-414 821 104 0
905 -577 -972 0
440 -324 299 0
759 -36 -787 0
717 708 911 0
-998 -428 65 0
490 388 620 0
859 -579 -378 0
425 -466 210 0
-509 557 -204 0
956 -536 920 0
-336 630 -761 0
254 198 103 0
-619 609 914 0
930 -534 -806 0
562 973 569 0
587 -283 685 0
-388 448 -434 0
-69 -810 -180 0
-679 129 -481 0
-455 674 724 0
-589 906 464 0
601 331 753 0
707 975 -294 0
-134 625 -839 0
753 -663 -325 0
-242 -850 673 0
-294 155 235 0
-699 -959 118 0
152 -933 -981 0
512 109 384 0
700 777 -554 0
708 893 -983 0
-51 -18 155 0
437 382 87 0
-441 -815 -913 0
94 688 904 0
-513 39 -817 0
-121 51 378 0
183 -911 388 0
818 804 212 0
-749 -51 -179 0
-930 -353 -174 0
-276 -972 -248 0
-195 371 -285 0
-877 -285 -630 0
-763 739 825 0
886 78 -523 0
684 -59 106 0
-749 613 -886 0
114 -149 961 0
-675 -663 720 0
543 327 848 0
-751 -171 29 0
-13 -473 659 0
945 251 -715 0
63 102 757 0
-921 -94 68 0
-285 -813 -419 0
-633 758 468 0
-512 705 53 0
685 37 -105 0
185 -980 -22 0
-767 -719 109 0
262 -232 710 0
-84 389 -735 0
-412 -407 -158 0
-139 817 -808 0
-139 -567 -366 0
181 -279 -119 0
634 739 -684 0
-983 842 511 0
115 376 -757 0
-566 36 -725 0
-489 -96 -991 0
-178 336 873 0
232 -864 -946 0
448 728 -684 0
-544 561 36 0
168 834 147 0
-627 -401 819 0
-556 -754 867 0
-673 -685 -731 0
-832 -78 -951 0
-759 -282 -775 0
432 855 -455 0
319 476 -795 0
372 889 362 0
94 -698 -555 0
-149 -544 401 0
-255 330 409 0
805 -527 -86 0
620 257 -407 0
610 526 88 0
-379 -838 204 0
103 -430 235 0
-233 -59 777 0
-508 311 -687 0
-340 -656 354 0
-555 913 -277 0
-523 395 979 0
182 13 420 0
722 279 -767 0
-296 -833 -816 0
571 117 -765 0
803 767 324 0
-788 510 126 0
-865 217 -464 0
765 684 597 0
51 79 23 0
865 -557 173 0
863 698 251 0
487 -197 -965 0
-793 897 -997 0
-278 -707 840 0
636 347 -781 0
-414 144 772 0
-992 593 367 0
-279 183 -53 0
594 291 -702 0
786 -378 -297 0
-915 625 601 0
-640 11 602 0
921 479 -403 0
967 -868 372 0
28 931 -360 0
-576 982 326 0
813 689 -488 0
-29 -326 -210 0
54 -109 464 0
-310 314 -21 0
728 -652 816 0
492 567 -583 0
855 858 656 0
233 854 -998 0
168 -78 -513 0
644 9 458 0
179 785 847 0
-882 797 223 0
-468 821 134 0
-317 -886 196 0
310 -244 -423 0
723 -854 -34 0
911 892 24 0
-237 -911 -978 0
306 282 -933 0
-87 793 -886 0
-498 610 -915 0
478 -330 -992 0
120 68 -717 0
-795 -753 -763 0
849 -995 650 0
537 434 -321 0
-161 -938 -783 0
204 453 -622 0
-851 -672 729 0
-532 -957 961 0
701 322 -714 0
-993 597 992 0
276 869 -497 0
613 -360 -596 0
554 -541 -945 0
-736 638 412 0
885 -947 621 0
808 -254 -567 0
-139 -437 372 0
392 -288 -780 0
-781 -128 566 0
-602 -730 244 0
-90 734 -260 0
534 613 187 0
426 629 -699 0
400 -903 894 0
386 372 -370 0
-790 496 181 0
-739 988 -480 0
959 -258 911 0
711 743 -680 0
618 -368 822 0
196 -235 -489 0
435 277 58 0
-378 995 -990 0
-987 -725 474 0
-771 -269 951 0
-669 521 851 0
463 -587 184 0
-760 -672 -144 0
-554 704 968 0
284 -276 -53 0
883 -872 323 0
-842 558 885 0
-458 -593 524 0
-347 645 884 0
-292 597 202 0
48 -708 -519 0
-495 -32 -481 0
-266 -696 679 0
-915 688 216 0
-681 -674 652 0
8 972 -575 0
448 880 953 0
-552 -310 864 0
235 -789 -503 0
-318 355 922 0
392 -878 -27 0
-716 939 255 0
-878 597 -741 0
-596 512 -132 0
-885 -494 -413 0
648 164 220 0
167 -480 -959 0
284 -325 176 0
583 -164 655 0
629 699 527 0
269 -15 -371 0
-618 -17 950 0
-380 410 708 0
932 910 -122 0
179 710 875 0
176 -96 623 0
857 -166 -240 0
-972 385 -120 0
519 364 826 0
-911 -103 -525 0
524 -985 413 0
870 467 491 0
37 840 640 0
845 -28 169 0
795 863 988 0
-221 -865 -397 0
657 -103 -641 0
915 -228 -163 0
-592 672 -990 0
321 622 -554 0
-185 -752 389 0
953 -725 140 0
-63 903 -620 0
-12 -670 564 0
-753 -675 -363 0
-267 95 812 0
-838 380 -310 0
753 -326 877 0
790 -519 -545 0
-248 -474 -687 0
239 634 -127 0
-199 -304 -974 0
-467 -192 692 0
-216 -202 701 0
-156 552 961 0
-587 979 666 0
533 -305 -840 0
-438 -383 -901 0
907 774 -548 0
-296 525 448 0
-869 -92 -928 0
-206 -779 -593 0
274 933 972 0
-678 -429 -884 0
528 598 646 0
-928 -859 -54 0
847 -214 428 0
270 1 -299 0
-332 1 -858 0
763 -796 -480 0
352 -927 363 0
129 178 -351 0
41 635 -27 0
-128 -7 -179 0
511 -914 388 0
966 189 361 0
423 798 -683 0
464 -743 221 0
-584 94 134 0
-135 334 -912 0
-41 693 149 0
566 -323 -230 0
-52 791 -340 0
-474 -270 224 0
417 -374 594 0
-88 130 680 0
-745 946 -115 0
-357 -268 540 0
624 -900 676 0
-394 -900 -22 0
-851 922 7 0
-412 -661 -266 0
-682 786 401 0
-777 333 -245 0
607 -969 -519 0
-265 -567 -344 0
-215 -503 966 0
-52 -774 73 0
890 -403 502 0
895 -808 142 0
27 504 -126 0
-42 -426 234 0
-748 -819 297 0
-557 694 -141 0
-708 958 960 0
-238 -169 -38 0
546 -973 -642 0
648 -939 -974 0
-869 -428 -522 0
-639 845 -12 0
990 -699 -532 0
-355 -371 905 0
337 375 912 0
-208 -721 877 0
231 668 -621 0
465 -620 -813 0
257 670 822 0
-450 -742 -461 0
-580 116 -198 0
-650 470 -431 0
160 -782 -257 0
-949 725 -523 0
-785 675 6 0
-584 -721 -951 0
-716 869 960 0
897 -242 -777 0
409 -779 -200 0
288 872 -471 0
-116 -871 -677 0
-165 -516 -497 0
-353 550 -222 0
51 759 913 0
832 -106 -172 0
-789 -707 404 0
-682 380 -928 0
184 -941 -412 0
261 31 44 0
-713 412 335 0
661 -248 -598 0
704 -249 535 0
-129 275 -33 0
952 234 -413 0
-50 944 671 0
-782 -765 947 0
-647 -671 -320 0
876 -637 449 0
129 -352 -758 0
-598 561 -530 0
-302 -29 805 0
-485 -8 60 0
-375 31 -63 0
573 126 684 0
560 -306 -127 0
-447 468 -906 0
539 -844 -155 0
832 -615 -860 0
-155 545 -574 0
-337 99 352 0
-167 844 -68 0
842 -717 -900 0
978 -853 166 0
-853 -564 -209 0
-339 -21 597 0
724 649 81 0
-1000 961 792 0
-126 910 533 0
85 119 915 0
-364 -798 -654 0
863 118 -948 0
114 966 -787 0
-940 845 -871 0
144 -276 683 0
869 -595 764 0
815 327 973 0
492 239 470 0
-776 269 -920 0
459 -542 812 0
-162 -898 343 0
772 -201 657 0
315 988 -403 0
283 -361 545 0
-436 332 -660 0
66 -301 560 0
367 141 -492 0
-269 -48 -790 0
261 507 -937 0
-823 353 728 0
-969 185 -158 0
996 241 899 0
306 -180 369 0
-513 -861 -527 0
652 847 -631 0
-373 485 584 0
-279 332 882 0
959 3 554 0
-970 111 -236 0
839 -442 445 0
98 770 -180 0
936 597 714 0
436 -392 548 0
186 -693 189 0
-918 154 302 0
283 -428 824 0
-538 -756 962 0
-527 -803 -174 0
-400 -58 -38 0
-541 -122 -454 0
74 -551 -470 0
262 791 -387 0
36 609 -144 0
591 910 -358 0
466 888 498 0
-173 -157 443 0
-236 681 -927 0
-621 438 329 0
-835 979 802 0
321 48 458 0
-400 -764 -438 0
887 476 142 0
-703 6 906 0
924 711 -793 0
376 804 -313 0
798 -612 -81 0
-861 -309 -559 0
-788 -333 -710 0
811 810 -192 0
239 210 -256 0
408 273 -720 0
113 -991 -5 0
-104 662 865 0
-669 -700 -542 0
-239 -86 -802 0
473 -428 294 0
20 891 127 0
-540 -437 -634 0
-14 -909 728 0
663 -471 -64 0
-918 604 -546 0
-264 211 394 0
-498 -170 490 0
-526 601 150 0
-477 -232 -396 0
153 -478 762 0
-106 -57 -116 0
324 -657 865 0
-82 -19 -481 0
25 173 91 0
270 465 -163 0
-819 216 -747 0
735 872 -539 0
-683 -365 -540 0
853 366 -694 0
15 -677 237 0
-299 -492 -148 0
-566 -674 -117 0
-602 810 906 0
423 396 -512 0
-962 454 -168 0
310 -747 -203 0
625 -660 568 0
840 670 -375 0
-135 -109 895 0
86 524 -36 0
195 385 -672 0
-778 719 -870 0
678 -925 397 0
-378 -705 -108 0
-281 -932 789 0
-821 995 -68 0
-645 -724 595 0
89 535 -251 0
-266 -102 352 0
-799 483 -455 0
-271 787 106 0
848 -275 742 0
345 8 -391 0
-606 -56 665 0
316 595 -680 0
-340 -742 -516 0
-458 99 -697 0
-779 330 32 0
-438 -685 263 0
-954 462 -909 0
-642 -514 -592 0
-742 380 -960 0
-222 289 -844 0
693 609 -551 0
428 450 -600 0
-430 272 -762 0
819 261 113 0
169 125 -783 0
-344 -823 -616 0
-54 -41 -70 0
356 784 519 0
-514 590 -903 0
-717 389 374 0
98 901 -842 0
-516 -825 -381 0
892 330 -28 0
712 -845 -840 0
985 -429 106 0
-84 843 247 0
581 -658 650 0
412 188 -332 0
286 -507 -61 0
127 943 -363 0
91 -315 396 0
-774 886 -470 0
76 -828 288 0
-454 313 951 0
296 3 -772 0
-569 375 -255 0
-244 423 775 0
-374 -940 -918 0
-872 897 199 0
439 96 -606 0
-768 -954 -739 0
141 222 -272 0
436 537 835 0
-207 -850 5 0
-655 -912 -241 0
595 -98 -633 0
903 938 -431 0
804 -277 909 0
238 492 602 0
893 -315 733 0
452 -922 -438 0
967 -872 -723 0
-440 663 63 0
-851 279 434 0
-916 253 -89 0
538 -278 -675 0
89 -744 -272 0
650 -373 74 0
-205 30 -879 0
604 789 230 0
498 633 -728 0
-385 978 -194 0
414 950 -827 0
-969 -367 582 0
941 -21 -503 0
-979 -152 143 0
780 468 68 0
-1000 147 230 0
680 -789 183 0
726 -408 691 0
363 -366 416 0
220 641 -174 0
-718 -811 185 0
-183 898 -672 0
-475 182 428 0
673 -639 -623 0
529 -789 -394 0
374 -196 365 0
742 454 -801 0
391 551 -334 0
-838 695 215 0
-619 416 -745 0
-140 -989 -121 0
639 -50 -830 0
1 -644 -180 0
-699 583 758 0
-18 743 668 0
-804 4 -673 0
-995 403 -24 0
-591 430 -231 0
-503 -870 -373 0
313 234 627 0
963 -423 -619 0
-418 -792 -844 0
618 332 -383 0
-597 731 788 0
-33 988 -117 0
483 -935 732 0
-354 -948 703 0
991 -131 910 0
-639 818 -175 0
-781 -906 -364 0
-655 900 486 0
417 -219 463 0
-664 -907 393 0
855 -132 -357 0
613 -421 948 0
-71 36 450 0
-714 -941 -65 0
-330 -448 -238 0
-696 -373 -362 0
-422 -604 -641 0
117 414 -112 0
-267 755 -463 0
-248 -631 -517 0
-964 -201 52 0
616 502 431 0
-305 -235 -549 0
235 -661 -644 0
-831 -496 489 0
624 -815 -911 0
-808 235 -161 0
326 -803 -764 0
-14 -974 -482 0
-670 987 892 0
-353 -764 -615 0
-152 -497 -72 0
875 -118 987 0
-430 -4 -920 0
449 -845 -326 0
556 -387 630 0
-834 -206 -599 0
-30 276 -514 0
-569 -454 -562 0
-505 697 -852 0
-988 939 470 0
422 239 715 0
941 318 62 0
-177 833 -241 0
300 969 -652 0
-301 -660 -869 0
782 -831 -14 0
342 -356 909 0
-547 469 -180 0
-828 -498 849 0
-713 -898 211 0
-216 -361 -138 0
-207 497 -176 0
-134 258 -724 0
289 211 982 0
-758 -277 197 0
-140 652 -401 0
507 -738 -771 0
-777 -241 -738 0
965 -556 -213 0
102 903 745 0
-543 279 -760 0
995 -753 777 0
-180 -335 -330 0
927 989 -754 0
235 -935 403 0
730 328 -365 0
848 -189 -928 0
-264 -515 -447 0
-985 734 -757 0
207 -621 30 0
889 -830 351 0
-68 186 187 0
-873 -485 -208 0
-46 718 665 0
540 808 -422 0
-602 -838 -987 0
960 276 -39 0
265 -475 890 0
650 403 -54 0
-448 -51 62 0
640 811 864 0
-209 -995 -466 0
-527 738 -431 0
-389 -454 -91 0
107 33 460 0
239 -340 909 0
-715 891 866 0
-83 -119 -651 0
-271 -872 -476 0
-123 -305 811 0
-309 709 850 0
511 -302 248 0
894 -282 339 0
-13 -405 441 0
282 248 -829 0
-869 -576 737 0
-969 414 -529 0
641 -624 -379 0
-106 -793 564 0
-766 -511 433 0
466 643 114 0
715 909 377 0
-834 -602 -627 0
966 778 346 0
717 203 -55 0
137 833 -808 0
556 -261 -106 0
311 -437 818 0
401 -919 652 0
865 874 697 0
376 965 582 0
888 -609 5 0
-703 -511 -228 0
-836 141 960 0
-400 497 119 0
472 -722 171 0
-399 692 634 0
392 -748 -621 0
72 178 -465 0
53 -514 585 0
471 -845 589 0
-91 -40 -934 0
606 -600 512 0
619 397 -439 0
750 231 -311 0
-221 -883 -662 0
716 173 222 0
-341 -372 172 0
-988 583 838 0
3 -220 -528 0
376 378 -932 0
602 -967 -838 0
-452 -123 71 0
876 428 826 0
-93 123 438 0
65 925 -189 0
827 -698 -111 0
-409 895 21 0
-534 814 -495 0
-983 -913 655 0
971 -849 -93 0
-506 972 244 0
904 -821 -137 0
-769 -371 631 0
-316 -983 -652 0
-300 286 -643 0
395 121 471 0
5 -667 -220 0
461 239 486 0
378 -249 132 0
-403 -40 -260 0
984 493 49 0
916 40 -857 0
705 -498 929 0
121 -664 859 0
-137 -900 -10 0
182 -867 -751 0
-342 -285 296 0
-272 477 598 0
737 65 55 0
994 514 740 0
-601 713 897 0
363 288 409 0
-640 941 -387 0
-603 -602 199 0
-59 -104 789 0
-487 913 -476 0
876 -706 749 0
-362 969 -382 0
725 -979 844 0
-181 119 125 0
566 -268 802 0
-542 498 -160 0
896 -697 -315 0
143 -768 271 0
729 440 351 0
494 928 400 0
-198 575 653 0
-692 -288 -154 0
-203 676 261 0
626 636 95 0
335 -708 345 0
-465 -379 804 0
818 -678 -832 0
325 580 -253 0
-922 895 -521 0
325 520 924 0
124 96 425 0
-676 703 -885 0
746 -128 108 0
-699 -517 -979 0
-987 -753 -996 0
-548 621 611 0
-799 -103 -754 0
-46 -933 377 0
-63 -548 255 0
-292 488 395 0
-552 -370 64 0
-462 355 161 0
994 -619 -727 0
430 -123 -530 0
-912 -437 871 0
-890 631 704 0
793 603 849 0
-589 978 -409 0
-43 -311 -253 0
896 479 -416 0
465 -723 -336 0
-768 -195 484 0
781 118 -483 0
-243 408 118 0
-142 547 938 0
67 711 786 0
-512 596 897 0
-36 -402 -239 0
-887 933 688 0
-352 -161 481 0
-727 517 -762 0
-773 692 -625 0
600 -580 -394 0
277 696 -595 0
-928 -201 -524 0
737 974 422 0
25 83 -941 0
-782 646 46 0
89 990 -614 0
640 -79 962 0
550 576 467 0
667 25 814 0
293 490 -455 0
362 959 796 0
-536 824 -946 0
56 -535 775 0
598 -267 232 0
-64 709 451 0
-65 425 500 0
-950 338 688 0
684 -46 -435 0
-872 398 -438 0
-778 -194 453 0
805 595 995 0
-467 -460 -58 0
757 -978 830 0
561 597 738 0
460 482 -538 0
957 -739 -399 0
-928 456 801 0
791 231 -303 0
856 -705 -816 0
-376 -526 -28 0
-222 -214 839 0
96 -386 -965 0
-882 489 809 0
614 -918 -674 0
342 204 -303 0
409 394 -774 0
-856 -194 -280 0
-311 -697 579 0
198 -841 -529 0
-307 -175 210 0
-592 -527 -258 0
-418 512 -500 0
-31 362 690 0
89 294 -961 0
-229 519 900 0
718 -133 -54 0
-951 -948 233 0
-802 -515 317 0
51 342 521 0
-42 -581 266 0
-561 794 180 0
656 260 -963 0
322 43 459 0
746 587 179 0
-787 -460 -501 0
-706 -196 350 0
674 -328 596 0
-438 -241 72 0
-310 703 -482 0
934 -435 -682 0
599 -680 988 0
858 -297 223 0
-85 935 -946 0
-631 -981 8 0
-604 -531 -452 0
466 -813 -163 0
-63 825 860 0
230 696 70 0
504 51 628 0
631 739 -977 0
730 132 864 0
-541 -831 -955 0
191 -401 -763 0
-992 108 614 0
666 20 -941 0
-325 -802 640 0
-789 922 -143 0
-905 836 534 0
203 -220 -709 0
-560 275 866 0
-708 -300 397 0
391 382 -436 0
-739 375 86 0
128 -574 714 0
-372 -333 -661 0
-396 -955 680 0
884 278 678 0
967 668 -440 0
-286 -469 -223 0
466 785 495 0
-445 -625 -944 0
-900 244 712 0
-279 264 34 0
-679 -460 -149 0
36 -718 -74 0
-860 384 233 0
150 403 21 0
-909 -589 583 0
-928 -281 569 0
-137 307 -952 0
223 -954 620 0
-278 719 289 0
-971 -404 -788 0
946 -415 -86 0
-486 -527 299 0
-633 -478 -167 0
-350 -219 799 0
615 -424 610 0
565 -138 693 0
186 963 -483 0
-348 372 -864 0
-432 -686 464 0
-641 513 -674 0
230 672 -897 0
-195 -132 19 0
519 531 -528 0
-3 936 661 0
654 -523 -332 0
533 -20 -634 0
-153 427 -854 0
505 -745 798 0
147 830 27 0
621 -706 -884 0
-781 -15 698 0
6 603 716 0
719 -736 184 0
578 -440 14 0
82 424 -129 0
889 -293 915 0
-116 -150 567 0
902 -454 799 0
-812 -191 -946 0
878 -914 -17 0
199 -933 -107 0
-353 63 562 0
72 -73 623 0
178 -954 -832 0
-659 940 -976 0
30 627 -409 0
677 600 -848 0
410 992 -357 0
247 838 -784 0
571 -53 -710 0
946 933 -392 0
63 476 229 0
-211 820 265 0
798 -696 4 0
-149 164 902 0
-372 -584 489 0
655 -228 -619 0
-272 206 -216 0
926 354 429 0
-404 639 305 0
44 581 -280 0
120 99 -214 0
-990 560 -830 0
59 -276 -323 0
740 115 -259 0
433 -902 -873 0
387 99 -272 0
-326 561 589 0
625 -977 -222 0
-783 -930 -592 0
410 270 57 0
-742 510 719 0
543 546 -41 0
-605 61 -450 0
-307 -277 553 0
-266 971 732 0
-998 73 493 0
631 -994 -495 0
-93 -756 206 0
136 -380 536 0
868 176 964 0
-44 449 43 0
-362 -614 567 0
904 597 -816 0
873 825 -7 0
-234 -330 -880 0
-565 189 -42 0
594 -610 -875 0
145 527 -900 0
-944 -388 -88 0
-682 -632 793 0
752 -871 -829 0
-747 -77 17 0
-325 315 519 0
-501 -392 -955 0
7 656 1 0
667 860 -929 0
568 870 -220 0
-478 -10 765 0
618 119 448 0
-125 452 -634 0
-233 -650 556 0
573 287 398 0
-412 953 951 0
510 170 326 0
286 630 -937 0
-708 -64 -417 0
-168 57 488 0
-932 -120 981 0
-872 -389 971 0
-485 -326 131 0
60 623 -627 0
466 -320 -511 0
109 58 991 0
-843 -671 -841 0
-894 762 455 0
545 -233 -987 0
103 77 300 0
-24 -318 630 0
176 -44 -51 0
705 604 568 0
-251 -922 -458 0
338 99 904 0
264 693 885 0
-378 879 -846 0
735 -59 660 0
810 -328 -429 0
106 -666 974 0
-938 966 626 0
-933 369 -331 0
682 471 -76 0
-53 617 236 0
814 -287 550 0
-198 23 -121 0
763 796 -813 0
190 580 -12 0
850 -837 -984 0
631 810 926 0
535 -223 563 0
577 888 409 0
827 -547 324 0
-321 -358 -619 0
-542 -738 -656 0
844 206 848 0
-115 975 -612 0
-140 512 -914 0
787 482 -803 0
-687 -270 221 0
646 759 -346 0
564 243 462 0
-820 -726 -672 0
345 307 695 0
854 -579 158 0
74 -757 484 0
-171 917 595 0
-915 -104 -966 0
927 354 -332 0
912 -144 -150 0
518 -569 -595 0
-89 -245 168 0
413 -14 726 0
135 693 4 0
365 -253 -946 0
217 -536 -160 0
-536 -569 -617 0
805 966 -408 0
487 251 -495 0
875 -608 -71 0
693 -705 -220 0
-911 -603 -508 0
-909 995 -599 0
-710 -384 -485 0
-167 538 683 0
-864 -165 210 0
-78 300 -915 0
-382 70 30 0
384 -804 23 0
477 406 53 0
600 -642 -374 0
864 706 615 0
-784 208 92 0
625 360 -373 0
512 573 -46 0
735 986 -798 0
-54 -75 656 0
592 881 -201 0
-58 -988 -387 0
-322 -794 -431 0
364 -544 455 0
149 626 -154 0
-157 961 315 0
-760 -204 -490 0
-720 566 -971 0
235 -413 155 0
-603 -487 -343 0
-352 -808 490 0
552 329 -533 0
735 -644 -295 0
405 -584 -985 0
818 39 -469 0
-947 437 -250 0
120 558 -646 0
482 -580 -957 0
-160 -380 595 0
746 892 -266 0
-881 535 -77 0
468 662 122 0
914 939 -920 0
787 657 26 0
74 640 852 0
-767 -73 190 0
-757 -612 -431 0
23 858 -594 0
455 -215 -198 0
374 37 -932 0
-723 454 -801 0
-545 -415 -353 0
-169 425 -326 0
-859 -501 959 0
-411 456 18 0
693 850 546 0
-547 461 880 0
-905 -258 776 0
564 112 -957 0
467 -176 901 0
-321 -3 558 0
-863 727 804 0
-552 281 -795 0
-635 633 -797 0
-745 340 224 0
46 -782 232 0
-707 -20 -17 0
756 -255 830 0
666 532 18 0
233 -226 616 0
852 473 310 0
231 989 -91 0
-940 809 673 0
-236 195 753 0
441 -292 301 0
20 -371 176 0
809 -156 338 0
-106 237 -259 0
493 425 -573 0
326 -764 287 0
315 -698 715 0
977 -974 668 0
187 -681 996 0
-934 -322 -553 0
923 -411 -383 0
-367 -825 458 0
-517 -881 -678 0
526 -628 -113 0
273 585 870 0
173 -524 674 0
259 -165 -655 0
233 339 -884 0
280 -465 -490 0
-903 475 -633 0
880 -486 -972 0
-726 783 79 0
-609 -201 906 0
7 991 -314 0
-398 583 -113 0
-735 -294 48 0
-808 -118 865 0
822 244 458 0
-166 -184 518 0
439 -794 -870 0
-463 660 881 0
819 -452 273 0
-20 692 155 0
-725 -398 645 0
-735 454 -27 0
117 -310 -963 0
-782 83 -741 0
596 282 564 0
-997 372 936 0
-39 -14 -376 0
992 876 746 0
-189 -340 -539 0
723 547 -395 0
385 -875 186 0
-198 395 -709 0
-726 -311 920 0
-170 143 550 0
-11 -499 -87 0
447 532 -204 0
-214 -493 -649 0
280 -397 597 0
-421 162 -293 0
795 342 710 0
779 930 246 0
111 -198 -978 0
846 -652 529 0
-438 -575 890 0
-167 -130 -614 0
-475 661 686 0
-760 -435 710 0
645 95 -956 0
964 -766 -913 0
204 569 776 0
581 -94 -559 0
739 -73 652 0
-510 182 732 0
-169 303 65 0
-16 -256 657 0
-849 -253 582 0
740 -749 410 0
159 -53 -672 0
241 -281 -88 0
-706 -121 14 0
38 -469 -132 0
821 -181 84 0
43 -497 532 0
747 632 -893 0
417 945 -367 0
549 -862 -404 0
772 -82 304 0
731 -722 -662 0
963 639 970 0
195 97 700 0
65 880 -627 0
-123 -255 397 0
-460 601 277 0
-407 903 -765 0
528 424 619 0
-471 206 -563 0
990 780 113 0
-877 585 169 0
-703 434 416 0
56 -587 -488 0
715 444 -388 0
147 732 -127 0
552 -366 706 0
-823 -401 -959 0
-797 181 754 0
914 -348 591 0
-321 -197 803 0
620 58 530 0
239 -684 489 0
-406 -409 508 0
-45 781 631 0
517 -649 986 0
-858 447 -668 0
865 420 -403 0
389 692 546 0
-867 664 -342 0
621 -126 -431 0
-661 283 707 0
541 -318 -310 0
-394 -968 -648 0
862 -372 -914 0
961 844 335 0
332 6 -913 0
-657 200 224 0
536 523 -480 0
10 -877 -267 0
-935 -177 336 0
-257 185 -75 0
-553 -663 215 0
50 207 414 0
336 -431 -747 0
637 249 710 0
770 -607 -118 0
-505 -709 852 0
-92 536 -219 0
896 -20 -24 0
-793 379 667 0
-163 -394 -746 0
-631 -110 -628 0
-700 -833 -41 0
716 56 -220 0
-776 778 -868 0
838 372 -519 0
475 455 -28 0
-53 919 -298 0
-599 -672 927 0
-279 227 562 0
716 330 936 0
10 316 -475 0
594 -336 -62 0
-722 -101 358 0
126 -102 688 0
533 -20 317 0
-531 -209 981 0
-849 968 -409 0
-725 578 76 0
-165 954 855 0
566 -627 985 0
-754 -988 635 0
971 -63 89 0
332 608 -627 0
-804 -628 -784 0
-541 -790 -868 0
-197 -75 -697 0
296 299 210 0
902 485 215 0
-940 -750 -528 0
-970 499 410 0
98 286 530 0
-102 408 -665 0
237 191 -131 0
-131 -176 765 0
826 -390 -404 0
975 -247 683 0
120 -586 968 0
-425 490 542 0
-200 763 -194 0
-18 -833 -575 0
867 459 -975 0
181 350 -60 0
464 250 -226 0
23 648 -854 0
-74 -891 -49 0
802 -648 -371 0
267 526 328 0
331 873 -946 0
334 320 -165 0
-573 -829 -608 0
-937 295 566 0
-150 301 240 0
885 -81 -181 0
408 319 888 0
677 -432 971 0
-309 -469 -666 0
363 730 -264 0
49 354 -691 0
-627 429 755 0
674 -665 -94 0
-1 928 227 0
835 -128 494 0
-877 -261 669 0
298 31 406 0
991 -436 838 0
402 -322 -567 0
20 254 -809 0
544 487 583 0
-925 -533 737 0
-694 565 -229 0
241 716 376 0
-27 -20 810 0
-403 -76 984 0
85 -49 622 0
-276 -855 -85 0
430 -565 -183 0
721 -152 -747 0
-415 -523 -98 0
-802 443 24 0
-39 26 386 0
-64 -539 -116 0
-969 -141 620 0
-70 -98 264 0
926 -991 -462 0
80 -966 -20 0
-451 197 843 0
-620 122 247 0
328 -110 -644 0
239 413 16 0
141 94 93 0
-413 -653 -508 0
-819 -294 -892 0
800 -709 -886 0
177 77 666 0
-203 -201 -64 0
-190 -669 581 0
-343 969 -898 0
422 387 -517 0
-756 499 -86 0
-808 639 -468 0
949 337 -467 0
-758 -211 850 0
561 635 -609 0
834 -70 -21 0
432 -522 371 0
-311 169 618 0
-561 729 -120 0
-918 867 364 0
477 -977 -835 0
822 584 -958 0
-289 587 98 0
-641 758 229 0
512 -571 153 0
723 921 371 0
538 -242 191 0
-764 757 -854 0
-716 935 -616 0
414 389 -86 0
-14 -701 259 0
676 -814 -973 0
749 -51 -619 0
-418 -563 866 0
-486 887 624 0
-239 -120 347 0
840 572 -983 0
277 -718 -357 0
137 98 848 0
-268 -109 -246 0
515 -635 95 0
-951 -646 -465 0
-172 566 704 0
-15 -950 188 0
644 -488 -360 0
-926 734 186 0
346 824 449 0
-328 -303 206 0
519 -754 -918 0
336 107 563 0
205 -826 -178 0
880 -580 -113 0
-391 -969 836 0
640 -557 -5 0
952 -438 -911 0
280 -335 -43 0
869 3 -328 0
-704 -987 786 0
-306 254 -321 0
36 882 749 0
588 -910 20 0
-572 177 -149 0
903 746 -212 0
913 -303 901 0
-273 -962 -586 0
862 112 -953 0
-44 -266 -931 0
-620 745 -446 0
710 673 430 0
221 -925 187 0
963 361 -787 0
555 -464 -529 0
-806 -499 -616 0
371 139 534 0
-362 329 -387 0
836 -863 -223 0
-898 -252 -698 0
-949 390 887 0
613 464 395 0
284 -789 -88 0
878 -501 -836 0
-132 196 -399 0
-185 -9 -905 0
-29 -573 -403 0
198 -911 548 0
616 868 993 0
425 285 132 0
-761 413 -399 0
371 -180 664 0
703 343 682 0
-217 487 -538 0
-337 -657 801 0
-911 -490 -990 0
-837 -423 82 0
96 591 653 0
235 -32 871 0
-106 -615 336 0
740 844 -763 0
333 -655 -760 0
292 -638 -545 0
-182 275 -270 0
-252 180 233 0
491 423 394 0
672 139 -375 0
-430 415 863 0
-158 708 548 0
-921 893 629 0
-120 465 -89 0
557 -258 -452 0
-754 455 628 0
-633 273 -442 0
455 332 -947 0
-691 -432 407 0
-707 -21 322 0
-754 555 -472 0
-553 -955 728 0
-74 -68 289 0
357 748 -32 0
-166 -243 387 0
481 -845 435 0
68 705 706 0
756 58 855 0
57 251 234 0
297 182 -152 0
528 438 -485 0
230 -474 108 0
-622 424 307 0
-351 -810 -418 0
439 -96 402 0
904 -373 -15 0
-14 178 -745 0
-113 127 -552 0
106 -558 -599 0
-437 -800 -253 0
-447 773 641 0
189 -576 -875 0
533 199 737 0
43 882 -20 0
