c Random 3-SAT formula for benchmarking
c Generated with seed 72
p cnf 200 852
19 -153 -190 0
79 -190 184 0
98 37 -163 0
-4 115 -18 0
-186 -5 -107 0
-95 57 -96 0
152 -128 -179 0
-147 86 40 0
15 -85 108 0
-38 -77 16 0
-170 139 125 0
128 -144 -180 0
86 -123 -15 0
178 -93 61 0
200 26 -108 0
-53 149 5 0
32 -83 113 0
-198 2 -136 0
-27 -153 -198 0
146 -45 71 0
-134 132 -105 0
-22 -49 -131 0
10 -137 191 0
184 91 173 0
106 -11 -31 0
91 185 3 0
54 72 -99 0
61 40 -7 0
-174 4 188 0
115 -171 18 0
-108 -27 -138 0
75 90 -189 0
-32 -27 -150 0
-35 -191 161 0
131 192 -1 0
100 -83 -81 0
54 -175 184 0
69 91 -86 0
-107 164 67 0
-192 196 -131 0
82 124 -36 0
-72 143 -26 0
-129 25 100 0
-147 168 39 0
-89 -57 46 0
197 29 165 0
-88 -154 117 0
138 85 -170 0
-174 71 163 0
-37 -104 -113 0
42 107 140 0
75 -52 35 0
-160 1 -169 0
12 -125 57 0
-90 137 -72 0
162 153 -157 0
110 105 83 0
61 13 -40 0
-181 -184 -77 0
-107 22 38 0
163 -99 -87 0
26 -109 -108 0
-112 192 -102 0
11 149 197 0
-153 38 -151 0
175 142 100 0
194 125 -137 0
-176 -99 72 0
51 -140 -58 0
-159 44 -99 0
-2 -12 -188 0
149 194 -180 0
-168 -192 -119 0
-107 -44 -200 0
-20 150 32 0
-143 188 -7 0
122 -43 -176 0
-127 -22 50 0
157 60 29 0
-3 155 24 0
-184 10 -129 0
-197 155 42 0
49 160 -67 0
-119 56 62 0
8 141 150 0
-47 -88 -91 0
-20 100 200 0
-185 -78 177 0
-127 14 143 0
139 32 51 0
109 -136 116 0
143 162 128 0
-71 32 97 0
143 23 -32 0
189 -104 194 0
-169 71 -193 0
92 112 -35 0
51 -52 56 0
-92 -141 -148 0
-32 -122 -192 0
32 74 -46 0
-76 144 8 0
99 137 -86 0
-94 30 73 0
-67 -69 -155 0
-64 4 3 0
-164 -103 58 0
-142 -52 88 0
195 -126 178 0
145 43 -86 0
-148 178 -21 0
183 98 108 0
141 130 -83 0
-127 104 -44 0
71 -130 -80 0
-68 -10 33 0
-196 -65 176 0
-35 166 -41 0
103 93 129 0
-1 -133 132 0
-10 -78 -73 0
-197 152 121 0
56 45 25 0
-127 -70 -102 0
4 133 24 0
-34 -188 170 0
-161 174 76 0
158 -50 -70 0
-38 165 60 0
107 -198 -181 0
-124 -165 -31 0
-157 182 194 0
-121 -93 -63 0
154 -100 171 0
-158 170 -164 0
182 -27 -163 0
32 -110 175 0
156 -43 -161 0
190 55 58 0
112 114 -172 0
-75 -129 -95 0
150 -190 90 0
108 -4 87 0
-183 -78 -108 0
67 -100 36 0
-132 -78 105 0
-122 -93 112 0
116 -52 -159 0
129 108 103 0
35 96 163 0
-164 113 104 0
-141 6 -126 0
129 -128 58 0
96 -26 -1 0
121 120 79 0
-100 95 165 0
-181 -103 -121 0
109 -70 120 0
-123 23 -146 0
-75 7 108 0
120 75 -102 0
-174 -103 182 0
-57 -130 67 0
12 78 137 0
-19 182 -117 0
-171 113 -77 0
-176 -59 97 0
-63 12 111 0
44 95 180 0
113 74 -103 0
-126 49 -78 0
155 200 108 0
-48 -37 -190 0
63 175 39 0
-190 -104 -66 0
157 -179 -199 0
-160 -142 189 0
11 -73 90 0
134 113 98 0
-6 34 50 0
-189 -150 100 0
119 54 -186 0
-66 -153 -35 0
-140 24 15 0
-21 -130 -182 0
86 -65 -130 0
97 -39 138 0
116 -115 119 0
-2 -12 158 0
125 65 -174 0
171 -195 -12 0
-144 -40 123 0
13 -95 153 0
-163 -159 -69 0
113 166 -141 0
-31 173 -126 0
-18 110 -55 0
199 -14 -98 0
-182 -152 -120 0
112 -165 -18 0
46 -65 105 0
-6 -92 -52 0
117 8 -79 0
49 -153 6 0
48 -164 101 0
-178 8 152 0
-109 -11 -165 0
-95 173 -188 0
150 79 96 0
57 12 40 0
-178 196 -64 0
58 20 72 0
-125 -172 -137 0
96 -110 -10 0
-34 -137 -93 0
-85 200 -129 0
38 -121 68 0
104 143 -55 0
95 -149 -170 0
86 -24 154 0
-52 26 19 0
-175 95 -51 0
-97 -65 6 0
-15 157 -173 0
-182 -19 110 0
185 -121 -22 0
79 -187 144 0
-19 172 -14 0
150 137 76 0
-171 38 -105 0
51 -159 -85 0
-45 -61 133 0
-178 143 73 0
58 -31 52 0
-200 170 -5 0
137 -156 85 0
122 12 95 0
178 -11 -194 0
185 -79 -84 0
165 -105 -111 0
30 40 -22 0
-86 -94 41 0
20 -47 16 0
69 -176 -85 0
-105 -11 -103 0
72 79 144 0
-26 188 -13 0
-144 -99 199 0
96 -5 196 0
25 -26 -30 0
151 8 -12 0
-196 -121 151 0
-112 -87 -152 0
-178 129 66 0
174 77 -134 0
-193 -33 -37 0
189 54 170 0
131 187 -148 0
-148 138 114 0
77 -148 53 0
114 -1 138 0
-44 131 75 0
-70 -7 -80 0
-85 138 -57 0
9 148 173 0
-175 69 -102 0
-34 159 -77 0
185 -35 47 0
-89 -12 171 0
-71 -121 73 0
104 77 -22 0
-119 -64 54 0
130 97 -33 0
66 -192 -30 0
48 -13 -114 0
175 -111 -71 0
160 -111 70 0
176 194 170 0
151 155 68 0
-129 -142 -38 0
60 -62 137 0
98 141 58 0
181 28 96 0
159 5 -7 0
59 -60 160 0
182 -69 -23 0
-9 -12 -115 0
196 116 183 0
189 104 -6 0
93 83 -59 0
-9 172 -144 0
50 2 -92 0
94 100 -150 0
84 -172 10 0
-156 123 -163 0
-151 176 29 0
36 -30 -180 0
182 169 -191 0
139 -7 -174 0
-130 -128 -12 0
-11 -53 -102 0
81 -89 -104 0
137 74 -116 0
-108 -6 -179 0
78 70 11 0
133 -38 141 0
162 78 -172 0
-73 144 -19 0
65 -187 -188 0
11 117 43 0
-45 -165 -118 0
-18 -158 142 0
-43 156 -47 0
-162 145 197 0
57 -143 171 0
121 30 199 0
-150 -46 38 0
-139 -132 70 0
187 -52 -42 0
105 187 192 0
181 60 -62 0
-118 14 163 0
-104 -54 115 0
-148 102 -115 0
140 -143 35 0
-190 -100 -150 0
86 -77 55 0
-22 77 -184 0
187 49 -123 0
62 53 46 0
-174 -6 51 0
-133 113 -109 0
-38 111 -132 0
196 -177 -184 0
135 74 168 0
106 66 -33 0
-86 -141 152 0
110 -121 183 0
35 67 -151 0
93 9 99 0
166 -100 -136 0
-130 25 -111 0
125 112 196 0
-113 63 132 0
-8 70 142 0
-155 -133 27 0
-57 -164 -100 0
61 173 2 0
-123 -4 152 0
138 187 18 0
-144 -155 182 0
138 -22 -147 0
-36 54 -151 0
-161 -153 165 0
41 -192 186 0
-78 -12 -24 0
84 110 -88 0
-160 -154 -125 0
-13 -146 150 0
94 90 22 0
25 -147 -16 0
103 112 -125 0
-148 -33 -155 0
-40 78 85 0
-7 26 -53 0
195 -161 -44 0
-178 -16 145 0
-146 133 163 0
4 41 170 0
70 88 1 0
169 -36 147 0
-146 103 48 0
60 159 -151 0
148 -94 34 0
-113 -96 -44 0
-6 146 -177 0
117 171 67 0
75 -130 -139 0
199 -17 -42 0
77 -191 97 0
-102 31 91 0
89 -62 -198 0
36 -117 198 0
121 71 182 0
26 167 -130 0
-18 -150 183 0
-157 53 -195 0
101 170 157 0
97 -115 106 0
163 58 41 0
-144 71 184 0
167 31 102 0
-106 39 186 0
-70 -147 -38 0
-104 -28 101 0
-107 193 -137 0
164 -60 36 0
191 33 197 0
-109 91 118 0
-44 196 -112 0
-142 -140 146 0
-72 -44 20 0
128 -72 138 0
-27 162 92 0
-181 -174 -114 0
-67 -47 31 0
16 98 -119 0
113 -22 105 0
30 89 -71 0
-147 25 61 0
-65 17 164 0
198 136 113 0
149 6 179 0
160 147 24 0
-161 199 -165 0
-190 -41 -71 0
176 168 -184 0
129 106 -145 0
-161 40 35 0
-24 -142 -7 0
-46 141 -159 0
40 72 -154 0
-20 -98 -122 0
115 122 -126 0
26 21 -159 0
162 -191 46 0
-191 -86 -19 0
197 119 -149 0
197 -161 -3 0
-113 176 29 0
72 151 103 0
39 -95 23 0
48 -89 -80 0
125 126 -141 0
33 137 -123 0
67 121 100 0
-101 -111 107 0
-46 86 31 0
102 107 -156 0
137 -59 -78 0
50 65 73 0
-80 171 -176 0
-133 124 -16 0
151 108 -80 0
70 188 163 0
172 -99 88 0
-48 -159 -99 0
89 -130 -87 0
50 -17 74 0
-76 50 139 0
-121 -52 15 0
-193 -162 135 0
108 -26 195 0
52 199 -43 0
184 169 -70 0
-21 40 96 0
-123 195 -16 0
-87 39 174 0
108 -61 -96 0
-94 -100 112 0
-152 -26 127 0
47 5 -141 0
179 -87 74 0
-10 138 77 0
-13 74 -20 0
-7 -147 -9 0
-93 -10 154 0
57 -189 -66 0
161 92 -113 0
12 -153 149 0
-108 12 -135 0
88 -188 70 0
-122 -5 -14 0
70 -80 71 0
-58 -199 -163 0
-3 46 -171 0
62 -152 -141 0
74 114 -78 0
58 17 -85 0
-119 35 -78 0
-143 -171 -144 0
-42 -128 -110 0
-36 -13 -99 0
-14 -195 58 0
-6 83 55 0
-87 165 -199 0
-79 126 -173 0
-25 143 -148 0
-188 -47 -119 0
42 192 90 0
-100 131 185 0
-166 -112 148 0
93 -127 125 0
-12 131 -159 0
-117 25 164 0
82 -129 -176 0
-80 -105 66 0
-84 171 15 0
-101 46 117 0
98 -38 -12 0
155 -115 -113 0
-188 -138 -57 0
-54 -60 -52 0
-149 -64 -118 0
-78 35 161 0
97 194 149 0
18 -150 164 0
153 -44 -143 0
162 154 -15 0
-25 -43 114 0
-61 -46 -155 0
124 120 -27 0
-101 51 73 0
160 198 -104 0
143 -17 -72 0
120 54 106 0
75 -8 189 0
-152 -91 121 0
-128 -36 -161 0
-138 -85 167 0
-50 -34 63 0
-150 56 141 0
-48 24 116 0
-139 -189 -72 0
18 114 -184 0
-83 10 -54 0
129 -99 -153 0
-126 162 -65 0
-101 52 81 0
190 15 141 0
-74 86 -194 0
36 -190 183 0
-105 -164 -63 0
-130 112 48 0
7 40 176 0
146 -171 154 0
180 -59 192 0
-180 -60 -184 0
-105 88 -180 0
156 -115 183 0
-46 152 -92 0
-48 -191 112 0
-34 -129 -140 0
61 150 75 0
-82 -81 -46 0
-31 -111 77 0
191 132 -193 0
73 172 62 0
199 29 -124 0
91 36 -83 0
185 -127 133 0
-173 -143 59 0
-140 -15 -64 0
160 58 -47 0
101 125 -166 0
169 145 187 0
-143 -21 174 0
-11 60 139 0
153 -77 103 0
159 -25 -76 0
-160 114 75 0
-41 15 -71 0
-93 -152 -17 0
-165 -104 -172 0
-76 46 66 0
-9 -65 36 0
-168 -156 -81 0
-46 -141 -162 0
111 167 -197 0
-39 -20 -183 0
-145 -55 -187 0
102 73 -33 0
-69 104 -15 0
-48 73 150 0
101 20 -54 0
-167 121 162 0
-16 -173 -63 0
167 179 113 0
-82 -113 77 0
-150 34 -116 0
-78 161 123 0
29 -44 -199 0
-26 89 -109 0
-123 -29 77 0
-95 48 -129 0
-13 -171 -44 0
-173 147 16 0
-168 -169 -157 0
195 -119 -131 0
154 -64 -152 0
-48 -1 -35 0
140 29 -169 0
179 87 -26 0
125 -87 -34 0
-185 -126 59 0
-160 -39 -18 0
113 11 153 0
-99 -200 -199 0
16 121 -110 0
-45 -147 19 0
126 -167 -196 0
129 45 -40 0
80 -75 -82 0
-124 131 -177 0
157 189 -159 0
161 -62 9 0
-63 -62 43 0
8 -145 -153 0
116 -104 51 0
147 -160 -152 0
-174 109 -113 0
-120 116 14 0
70 -39 -27 0
165 -38 -82 0
150 -131 154 0
-155 -103 -34 0
-83 53 -146 0
151 -194 -125 0
-24 96 52 0
77 110 50 0
164 22 44 0
196 133 34 0
-111 147 -104 0
94 -124 92 0
-130 113 175 0
-190 -94 23 0
30 60 -109 0
-108 163 156 0
75 9 153 0
128 -77 -24 0
-91 63 -129 0
173 -37 -88 0
-116 93 55 0
151 182 59 0
-35 -110 -86 0
-29 187 98 0
-64 -187 100 0
161 101 -110 0
-19 -114 -172 0
80 -102 39 0
16 13 -145 0
-185 -154 183 0
81 148 9 0
-62 -49 -34 0
-199 -43 45 0
-105 31 -52 0
-63 -195 -85 0
5 86 -19 0
-43 -26 -175 0
-2 138 -184 0
4 -78 -49 0
-22 170 -184 0
3 50 -46 0
35 96 -175 0
-195 -80 183 0
-181 16 62 0
150 -195 -42 0
-160 55 -200 0
-17 142 44 0
-72 -117 96 0
64 -98 -129 0
198 100 183 0
169 -178 -29 0
88 114 100 0
-188 92 -118 0
105 -3 -43 0
105 57 -25 0
22 -41 168 0
-146 -113 198 0
-118 -130 68 0
-3 155 -52 0
-170 -124 -106 0
-150 -184 14 0
-136 174 10 0
-48 -1 89 0
-192 -42 68 0
60 44 149 0
-85 62 95 0
162 -188 -66 0
158 -127 -191 0
72 115 134 0
-177 78 -153 0
58 51 88 0
-170 -70 -9 0
-55 -189 38 0
-200 184 139 0
-137 91 45 0
192 -56 145 0
156 -65 -190 0
27 38 167 0
-125 122 134 0
24 197 130 0
90 98 113 0
-190 -128 175 0
-125 -116 -15 0
147 199 -13 0
157 -113 -74 0
-198 190 16 0
-196 -23 -152 0
-105 134 41 0
-181 -126 -148 0
-16 -151 -118 0
98 -181 32 0
154 -131 175 0
38 34 -196 0
-145 168 -20 0
28 -92 -199 0
-36 -37 46 0
-175 -151 150 0
125 -128 30 0
188 -172 5 0
178 -151 108 0
125 -19 181 0
59 18 41 0
-129 40 -65 0
154 -10 104 0
-115 -136 -99 0
42 170 185 0
-26 146 91 0
93 -178 179 0
115 -181 -109 0
184 115 -119 0
89 -92 153 0
136 -148 -121 0
5 147 -169 0
-35 -78 -59 0
-118 194 -83 0
21 186 -43 0
157 173 85 0
61 -70 -100 0
140 75 -178 0
-64 46 -118 0
-116 65 32 0
-97 7 -46 0
-174 107 12 0
44 137 -88 0
153 197 -198 0
154 -175 116 0
-75 34 155 0
132 147 41 0
195 71 -167 0
-157 177 -51 0
182 -45 -130 0
-187 -19 -176 0
119 171 -106 0
26 -86 67 0
124 177 23 0
-157 70 138 0
189 -4 -24 0
67 193 -157 0
79 -32 -135 0
159 -185 -40 0
31 -184 -181 0
-139 -15 194 0
153 -45 -76 0
-33 178 -118 0
-3 -180 -17 0
72 180 -128 0
99 125 95 0
55 16 -47 0
-31 -112 -68 0
142 -118 -91 0
-89 60 195 0
161 158 -127 0
-103 130 27 0
59 -8 -139 0
120 42 3 0
7 183 109 0
184 162 168 0
126 170 -185 0
-182 20 -62 0
121 -49 -182 0
-74 -158 23 0
192 -175 -106 0
-176 179 -193 0
194 -20 -26 0
-176 -118 95 0
25 28 -124 0
88 134 158 0
-82 178 27 0
186 125 -47 0
60 -101 195 0
5 -45 -127 0
-103 65 40 0
-46 -133 94 0
49 -10 63 0
33 -141 22 0
156 113 185 0
-67 197 -185 0
5 38 150 0
-6 -144 -8 0
-115 70 52 0
184 -62 112 0
-105 156 13 0
50 -52 75 0
-1 37 -99 0
-168 -56 131 0
-69 190 -140 0
-13 -53 -27 0
-113 -137 122 0
165 -91 157 0
97 -18 -53 0
-155 72 -42 0
-48 70 -133 0
173 197 145 0
93 118 188 0
-132 -27 23 0
-30 113 -37 0
5 -199 35 0
-22 164 -131 0
30 -89 161 0
77 -134 -33 0
-152 106 -149 0
18 74 -149 0
-145 -184 59 0
-19 200 104 0
75 50 -179 0
-53 -77 50 0
173 179 40 0
-34 70 113 0
25 24 -1 0
-170 -90 -168 0
98 108 83 0
-76 -101 -140 0
146 75 62 0
-190 -89 67 0
-177 -7 -34 0
118 163 -55 0
-28 110 198 0
-18 20 74 0
-29 -94 -165 0
-179 192 -91 0
194 192 73 0
141 -126 -116 0
188 -180 -94 0
163 27 82 0
-91 132 147 0
-7 63 12 0
-150 -14 -35 0
-1 -84 -65 0
182 48 15 0
171 21 -156 0
-155 149 -110 0
-28 81 114 0
92 20 54 0
142 -95 57 0
-198 -52 -30 0
-153 -182 185 0
-78 -106 -96 0
166 -160 -85 0
-76 130 -57 0
69 -25 3 0
